LAMMPS (10 Feb 2015)
# ---- initialize simulations
clear
units metal
dimension 3
boundary p p p
atom_style charge
atom_modify map array
# ---- create atoms
read_data /Users/eugeneragasa/pyflamestk_git/pypospack/tests/tests_integration/workflow/WorkflowLammpsThermalExpansion/MgO_NaCl_unit.npt.T1500/lammps.structure
  triclinic box = (0 0 0) to (4.2565 4.2565 4.2565) with tilt (0 0 0)
  1 by 1 by 1 MPI processor grid
  reading atoms ...
  8 atoms
# ---- define interatomic potential
include potential.mod
mass 1 24.305
mass 2 15.999

group Mg type 1
4 atoms in group Mg
group O type 2
4 atoms in group O

set group Mg charge 1.7
  4 settings made for charge
set group O charge -1.7
  4 settings made for charge

variable R_cut equal 10.0

pair_style buck/coul/long ${R_cut}
pair_style buck/coul/long 10
pair_coeff 1 1 0.0 0.5 0.0 ${R_cut}
pair_coeff 1 1 0.0 0.5 0.0 10
pair_coeff 1 2 929.69 0.29909 0.0 ${R_cut}
pair_coeff 1 2 929.69 0.29909 0.0 10
pair_coeff 2 2 4870 0.2679 77 ${R_cut}
pair_coeff 2 2 4870 0.2679 77 10

kspace_style pppm 1.0e-5

neighbor 1.0 bin
neigh_modify every 1 delay 0 check yes
# ---- define settings
compute eng all pe/atom
compute eatoms all reduce sum c_eng
# ---- run minimization
reset_timestep 0
fix 1 all box/relax iso 0.0 vmax 0.001
thermo 10
thermo_style custom step pe lx ly lz xy xz yz press pxx pyy pzz pxy pxz pyz c_eatoms
min_style cg
minimize 1e-25 1e-25 5000 10000
PPPM initialization ...
  G vector (1/distance) = 0.353152
  grid = 8 8 8
  stencil order = 5
  estimated absolute RMS force accuracy = 4.10333e-05
  estimated relative force accuracy = 2.84961e-06
  using double precision FFTs
  3d grid and FFT values/proc = 3375 512
Neighbor list info ...
  1 neighbor list requests
  update every 1 steps, delay 0 steps, check yes
  master list distance cutoff = 11
Memory usage per processor = 4.06549 Mbytes
Step PotEng Lx Ly Lz Xy Xz Yz Press Pxx Pyy Pzz Pxy Pxz Pyz eatoms 
       0   -119.82944       4.2565       4.2565       4.2565            0            0            0   -43102.631   -43102.631   -43102.631   -43102.631 -1.1410716e-10 2.0651384e-11 1.0044018e-10   -119.82944 
       9    -119.8549     4.222448     4.222448     4.222448            0            0            0   -490.28356   -490.28356   -490.28356   -490.28356 -3.7927136e-11 -7.2182599e-11 3.2130495e-11    -119.8549 
Loop time of 0.210339 on 1 procs for 9 steps with 8 atoms

Minimization stats:
  Stopping criterion = linesearch alpha is zero
  Energy initial, next-to-last, final = 
        -119.829437963     -119.854898204     -119.854898204
  Force two-norm initial, final = 6.22404 0.0696885
  Force max component initial, final = 6.22404 0.069669
  Final line search alpha, max atom move = 1.75215e-06 1.2207e-07
  Iterations, force evaluations = 9 35

Pair  time (%) = 0.00607085 (2.88622)
Kspce time (%) = 0.00351715 (1.67213)
Neigh time (%) = 0 (0)
Comm  time (%) = 0.000643015 (0.305704)
Outpt time (%) = 0 (0)
Other time (%) = 0.200108 (95.1359)

Nlocal:    8 ave 8 max 8 min
Histogram: 1 0 0 0 0 0 0 0 0 0
Nghost:    2189 ave 2189 max 2189 min
Histogram: 1 0 0 0 0 0 0 0 0 0
Neighs:    2344 ave 2344 max 2344 min
Histogram: 1 0 0 0 0 0 0 0 0 0

Total # of neighbors = 2344
Ave neighs/atom = 293
Neighbor list builds = 0
Dangerous builds = 0
unfix 1
# ---- define output variables ----
variable natoms equal "count(all)"
variable tot_energy equal "c_eatoms"
variable length_x equal "lx"
variable length_y equal "ly"
variable length_z equal "lz"
variable tilt_xy equal "xy"
variable tilt_xz equal "xz"
variable tilt_yz equal "yz"
variable tot_press equal "press"
variable press_xx equal "pxx"
variable press_yy equal "pyy"
variable press_zz equal "pzz"
variable press_xy equal "pxy"
variable press_xz equal "pxz"
variable press_yz equal "pyz"

# ---- output ----
print "pypospack:output_section:begin"
pypospack:output_section:begin
print "tot_energy = ${tot_energy}"
tot_energy = -119.854898204259
print "num_atoms = ${natoms}"
num_atoms = 8
print "xx = ${length_x}"
xx = 4.222448
print "yy = ${length_y}"
yy = 4.222448
print "zz = ${length_z}"
zz = 4.222448
print "xy = ${tilt_xy}"
xy = 0
print "xz = ${tilt_xz}"
xz = 0
print "yz = ${tilt_yz}"
yz = 0
print "tot_press = ${tot_press}"
tot_press = -490.283556338482
print "pxx = ${press_xx}"
pxx = -490.283556338668
print "pyy = ${press_yy}"
pyy = -490.283556338614
print "pzz = ${press_zz}"
pzz = -490.283556338163
print "pxy = ${press_xy}"
pxy = -3.79271362347293e-11
print "pxz = ${press_xz}"
pxz = -7.2182599384956e-11
print "pyz = ${press_yz}"
pyz = 3.21304951944417e-11
print "pypospack:output_section:done"
pypospack:output_section:done
print "pypospack:lammps_sim:done"
pypospack:lammps_sim:done
#------------------------------------------------------------------------------
# RUN THERMOSTAT
# running using an NPT Nose-Hoover style thermostat
#------------------------------------------------------------------------------
variable tempdamp equal 0.1
variable pressdamp equal 1.0
# set initial velocities
velocity all create 1500 3471046 mom yes dist gaussian loop all
# fix for Nose-Hoover style thermostat
fix 20 all npt temp 1500 1500 0.1 aniso 0.0 0.0 1.0 drag 1.0 couple xyz
variable boxx equal lx
variable boxy equal ly
variable boxz equal lz
variable boxp equal press
variable boxt equal temp
# calculate averages every 10000 steps
reset_timestep 0
fix 21 all ave/time 10 10 100 v_boxx v_boxy v_boxz v_boxp v_boxt file lattice.out
thermo_style custom step temp pe ke etotal press lx ly lz press pxx pyy pzz pxy pxz pyz vol
thermo_modify flush yes
thermo 100
run 100000
PPPM initialization ...
  G vector (1/distance) = 0.353501
  grid = 8 8 8
  stencil order = 5
  estimated absolute RMS force accuracy = 4.03791e-05
  estimated relative force accuracy = 2.80417e-06
  using double precision FFTs
  3d grid and FFT values/proc = 3375 512
Memory usage per processor = 3.06549 Mbytes
Step Temp PotEng KinEng TotEng Press Lx Ly Lz Press Pxx Pyy Pzz Pxy Pxz Pyz Volume 
       0         1500    -119.8549    1.3572315   -118.49766    18766.763     4.222448     4.222448     4.222448    18766.763    8747.9098    6193.6112    41358.767   -3218.7654    8255.1904   -3441.9117    75.282309 
     100    763.65553   -119.02545   0.69097158   -118.33448     18873.25    4.2589676    4.2589676    4.2589676     18873.25    8771.4553    2696.1271    45152.167    2807.7788   -7114.8717   -9004.0515    77.252581 
     200    579.37965   -118.47688   0.52423489   -117.95264   -19737.722    4.3080618    4.3080618    4.3080618   -19737.722   -52053.745    -31211.81    24052.389    2656.7062    18342.435   -2467.8258    79.955029 
     300    1464.3158   -118.95718    1.3249437   -117.63223   -25082.385    4.2959672    4.2959672    4.2959672   -25082.385   -60493.174   -52812.249    38058.267   -5624.6678    8364.8093    -250.5553     79.28351 
     400    936.04952   -118.22237   0.84695728   -117.37542    52441.856    4.2656828    4.2656828    4.2656828    52441.856    22723.031     -30957.7    165560.24    5471.5578    13862.425    10626.985    77.618579 
     500    1474.4162   -118.58925    1.3340827   -117.25517    32490.212    4.2834756    4.2834756    4.2834756    32490.212   -4960.0705    4549.2479    97881.457    4475.7905   -13566.472   -21402.554    78.593909 
     600    1644.3802   -118.64032    1.4878697   -117.15245   -49977.434    4.3302581    4.3302581    4.3302581   -49977.434   -56687.549   -80882.542    -12362.21   -6329.4355   -5799.1908   -127.45366    81.197252 
     700    1104.7248   -118.10946   0.99957822   -117.10988    18346.733    4.2836674    4.2836674    4.2836674    18346.733    17204.482    -35567.76    73403.477    9836.9326    7619.9279    5741.4045    78.604467 
     800    1803.2701   -118.68865    1.6316367   -117.05702    43455.995    4.2466125    4.2466125    4.2466125    43455.995    35981.378    11577.511    82809.095   -1764.8787   -1061.4249   -34173.972    76.582209 
     900    1276.9271   -118.29492    1.1553905   -117.13953   -19118.949    4.3086638    4.3086638    4.3086638   -19118.949    21902.205   -80468.083    1209.0327    -4474.336   -30272.172    7950.6221     79.98855 
    1000    1681.1235   -118.59943    1.5211158   -117.07832   -49785.698    4.3218532    4.3218532    4.3218532   -49785.698   -25493.286   -96139.202   -27724.606    2365.7324    7644.3544    24935.324    80.725369 
    1100    1212.7482   -118.15289    1.0973201   -117.05557    24415.537    4.2812473    4.2812473    4.2812473    24415.537    36568.679   -12436.684    49114.617   -844.12226    -7848.966   -11686.437    78.471319 
    1200    1381.9717   -118.33586     1.250437   -117.08542    23511.853    4.2809512    4.2809512    4.2809512    23511.853    35355.224    16141.932    19038.404   -2046.7681    -22019.02   -7194.8591    78.455037 
    1300    1696.9189    -118.6378    1.5354079    -117.1024   -12586.744    4.2992516    4.2992516    4.2992516   -12586.744   -20971.985   -32233.318    15445.071   -2206.8935    -22058.84   -7484.8644    79.465493 
    1400    1433.2926   -118.39525    1.2968733   -117.09838   -808.71397    4.3050312    4.3050312    4.3050312   -808.71397    -20101.86    7185.6495    10490.068   -3929.0395     7164.161   -5053.4122     79.78641 
    1500    1818.2491    -118.7383      1.64519   -117.09311   -28117.262    4.3038183    4.3038183    4.3038183   -28117.262   -48465.317   -17995.895   -17890.574   -6543.2689    1806.4617    9154.7733    79.718992 
    1600     1324.406   -118.28817    1.1983504   -117.08982   -5807.0551    4.2895864    4.2895864    4.2895864   -5807.0551   -14138.576    1206.2266   -4488.8156   -4920.7128   -7874.6505    11862.652    78.930758 
    1700     1707.182   -118.64897    1.5446941   -117.10427   -18386.985    4.2917429    4.2917429    4.2917429   -18386.985   -21663.552   -9431.4917   -24065.911    -2797.557     9357.251   -6642.2666    79.049859 
    1800    1000.7278   -118.03294   0.90547958   -117.12746    40140.725    4.3153101    4.3153101    4.3153101    40140.725    45958.437    -16649.57    91113.309    5273.8138    22117.778    16982.954    80.359276 
    1900    2247.9687   -119.12527    2.0340093   -117.09126    -40203.62    4.3141136    4.3141136    4.3141136    -40203.62    -47639.28   -53303.353   -19668.227     3836.425   -23017.998    11770.044    80.292456 
    2000    1250.1439   -118.21003    1.1311565   -117.07887    58765.986      4.27794      4.27794      4.27794    58765.986    67060.147    17621.487    91616.323    2979.9973     30919.66    16972.557    78.289599 
    2100    1276.4914   -118.28428    1.1549962   -117.12928   -21776.847     4.294322     4.294322     4.294322   -21776.847   -7942.7902   -23519.975   -33867.777   -11020.682    19733.276    -776.3785    79.192456 
    2200    1400.4329   -118.38502    1.2671411   -117.11787   -50476.209    4.3179578    4.3179578    4.3179578   -50476.209   -9473.2377    -74094.26   -67861.129    17489.897    19750.739   -18636.671    80.507285 
    2300    1429.0903   -118.38425    1.2930709   -117.09118    13274.633    4.3049655    4.3049655    4.3049655    13274.633    4026.9863   -13094.798    48891.711    11161.365    2756.1988   -3779.1249    79.782753 
    2400    1865.8567   -118.77509    1.6882664   -117.08683    3060.8627    4.2819238    4.2819238    4.2819238    3060.8627    70494.119   -65172.093    3860.5623   -22604.532    15428.157    9204.3027    78.508524 
    2500    1859.8649    -118.7929    1.6828449   -117.11005    23179.841    4.2782937    4.2782937    4.2782937    23179.841    20264.834    13229.622    36045.066    21251.222   -10918.964   -16117.889    78.309022 
    2600    1060.4062   -118.11148   0.95947781   -117.15201   -36202.951    4.3190434    4.3190434    4.3190434   -36202.951    13855.025   -50978.132   -71485.745   -6248.5286    6672.1631    -17915.44    80.568022 
    2700    1565.4238   -118.51686    1.4164283   -117.10044   -44581.743    4.3211635    4.3211635    4.3211635   -44581.743   -64976.873   -53401.643   -15366.713   -8211.0485   -27970.142    7020.5134    80.686726 
    2800    1303.2298   -118.24571    1.1791897   -117.06652    26297.042    4.2997356    4.2997356    4.2997356    26297.042   -30343.749    11691.845    97543.029    9101.4041   -17094.341    4731.6793    79.492333 
    2900    1404.8195   -118.36504    1.2711102   -117.09392    25280.711    4.3063658    4.3063658    4.3063658    25280.711    20505.325       -40345    95681.808   -19774.845   -16910.029   -736.17439    79.860632 
    3000    1152.2359   -118.13601    1.0425673   -117.09344    -9879.932     4.320082     4.320082     4.320082    -9879.932    -38837.57    -47342.67    56540.444   -18869.494   -953.42627   -18496.885    80.626157 
    3100    1052.8954   -118.02161   0.95268193   -117.06893   -413.56017    4.3014617    4.3014617    4.3014617   -413.56017    674.00376   -55010.692    53096.008    1281.6001    11740.115    7273.9292    79.588108 
    3200    1749.2641   -118.65989    1.5827709   -117.07712    18856.358    4.2875938    4.2875938    4.2875938    18856.358   -352.06545    -33165.52    90086.658    4543.0381    7615.4381   -13254.862     78.82081 
    3300     1445.398     -118.442    1.3078264   -117.13418   -5753.2827    4.3165406    4.3165406    4.3165406   -5753.2827    6318.6064   -42915.767    19337.312   -2957.8899     3282.051   -8618.9502    80.428043 
    3400    1416.7988   -118.38989    1.2819493   -117.10794   -28688.497    4.3231322    4.3231322    4.3231322   -28688.497   -58969.341   -56101.515    29005.366        17872    519.80305   -275.46173    80.797057 
    3500    1204.0579   -118.17487    1.0894569   -117.08541    32301.911    4.2762205    4.2762205    4.2762205    32301.911    31056.535   -41460.809    107310.01     11016.75    16272.114   -7733.4222    78.195234 
    3600    1830.2679   -118.76208    1.6560649   -117.10601    21537.615    4.2648451    4.2648451    4.2648451    21537.615   -1912.1732    21141.947    45383.072    1817.1483    3830.3712    6302.4481    77.572857 
    3700    1552.4824   -118.57877    1.4047187   -117.17405   -40540.718    4.3083205    4.3083205    4.3083205   -40540.718   -77314.581   -9268.3473   -35039.227    11902.284   -13712.676    3256.6293    79.969432 
    3800    1230.6182   -118.24719    1.1134892    -117.1337   -42733.202    4.3329137    4.3329137    4.3329137   -42733.202   -34409.672   -88794.725   -4995.2086   -5455.9671   -17918.857    382.26841    81.346735 
    3900    1318.8694   -118.28381    1.1933408   -117.09047    8740.8251    4.2918681    4.2918681    4.2918681    8740.8251    10345.673    11881.643    3995.1593   -8131.6211   -39863.538    613.99458    79.056775 
    4000    1518.4589   -118.44166    1.3739335   -117.06772     65255.85    4.2640018    4.2640018    4.2640018     65255.85    22362.172     13345.06    160060.32   -8544.1921   -18787.683    5932.7683    77.526848 
    4100    1712.5839   -118.68535    1.5495819   -117.13576   -10604.239    4.3119092    4.3119092    4.3119092   -10604.239    -32754.63     5986.394   -5044.4822    8053.4488    5375.0503   -566.39212    80.169435 
    4200    1537.5801   -118.47863    1.3912348   -117.08739   -25812.906    4.3183252    4.3183252    4.3183252   -25812.906   -51406.694   -68587.255     42555.23    10543.856    11108.524    2654.8115    80.527837 
    4300    1359.6704   -118.28661    1.2302583   -117.05635    10161.484    4.2814781    4.2814781    4.2814781    10161.484    -33272.61    32306.136    31450.926   -4305.9098   -2057.9449     21378.74    78.484012 
    4400    1411.6927   -118.36083    1.2773292   -117.08351   -6324.5438    4.2795213    4.2795213    4.2795213   -6324.5438    3955.6693   -32820.357    9891.0561    10393.232   -9777.8036   -3803.6402     78.37645 
    4500    1815.1476   -118.75834    1.6423837   -117.11595   -18050.325    4.2876629    4.2876629    4.2876629   -18050.325    -15046.74   -23225.048   -15879.188     5397.946     -15792.1   -5992.9653    78.824625 
    4600    1646.2589   -118.63311    1.4895696   -117.14354    12623.898    4.2903661    4.2903661    4.2903661    12623.898   -19808.372    730.74932    56949.317   -16720.336    6807.7128   -21654.574    78.973802 
    4700    1484.2814   -118.48506     1.343009   -117.14205     -746.422    4.2965182    4.2965182    4.2965182     -746.422   -43676.208     12290.87    29146.072    5405.0495     14549.41    7884.5049    79.314022 
    4800    972.17573   -118.01683   0.87964504   -117.13719    34850.426    4.3017767    4.3017767    4.3017767    34850.426    216.59355    22098.466    82236.219    3172.1108    12929.402   -2776.2933    79.605597 
    4900    1644.1522   -118.59209    1.4876635   -117.10443   -1583.0366    4.3058954    4.3058954    4.3058954   -1583.0366   -16645.547    25268.832   -13372.394    14516.617   -1551.1383    13013.619    79.834465 
    5000    1857.9673   -118.75653    1.6811279   -117.07541     12474.08    4.2947095    4.2947095    4.2947095     12474.08   -4320.6453    18276.272    23466.614    1205.4905    3942.6001   -9379.8839    79.213896 
    5100    1941.2738   -118.85763    1.7565054   -117.10112   -17474.785    4.3012428    4.3012428    4.3012428   -17474.785   -55304.441    37422.206   -34542.119   -2533.2077   -86.076981    4537.5637    79.575959 
    5200    1252.8581   -118.25291    1.1336124    -117.1193   -33622.981    4.3124223    4.3124223    4.3124223   -33622.981    -51425.09   -6129.2761   -43314.577     3505.812   -6082.3237   -18701.286    80.198057 
    5300    1273.9799   -118.25235    1.1527238   -117.09963    1366.5033    4.2896567    4.2896567    4.2896567    1366.5033   -29008.335    -25548.23    58656.075    12628.321     6913.907   -19033.011    78.934633 
    5400    1609.0115   -118.55779    1.4558674   -117.10193    28066.247    4.2835357    4.2835357    4.2835357    28066.247    -27404.71    87641.655    23961.796    1377.3635    18005.367   -7747.3821    78.597216 
    5500    2124.8674   -119.03317    1.9226247   -117.11055   -28028.316    4.2982975    4.2982975    4.2982975   -28028.316   -44207.359   -46134.607    6257.0183    3462.0278    16667.311    17452.958      79.4126 
    5600     1100.701   -118.09992   0.99593737   -117.10398    21080.609    4.2908908    4.2908908    4.2908908    21080.609   -714.69517    48007.921      15948.6   -2970.8023    477.64802   -9462.9906    79.002784 
    5700    1316.8939   -118.29923    1.1915533   -117.10768   -30885.373    4.2894206    4.2894206    4.2894206   -30885.373   -41943.714   -47330.255   -3382.1512    2629.7606    907.69546   -27147.229    78.921605 
    5800    1118.0433   -118.12579    1.0116291   -117.11416   -3434.0469    4.2942742    4.2942742    4.2942742   -3434.0469    -36901.02    -6078.754    32677.633   -10097.488     11498.64    2224.2515     79.18981 
    5900    1694.6309   -118.64789    1.5333376   -117.11455   -8975.6545    4.3084036    4.3084036    4.3084036   -8975.6545   -8857.3711   -59190.937    41121.345   -1043.8467    -1944.979   -9447.5392    79.974062 
    6000    1214.4197   -118.20307    1.0988325   -117.10424    1299.8113    4.3060292    4.3060292    4.3060292    1299.8113   -29071.033    2099.7179     30870.75    9158.2365    849.54137   -12059.581    79.841909 
    6100    1604.7187    -118.5419    1.4519832   -117.08992    11496.108     4.283517     4.283517     4.283517    11496.108   -3734.0419   -27869.975     66092.34    8277.3919   -6163.4661    22288.632    78.596187 
    6200    1242.0057   -118.22078    1.1237928   -117.09698    26892.603    4.2768375    4.2768375    4.2768375    26892.603    25297.928    17048.935    38330.946    22991.559   -10265.159    32429.781    78.229086 
    6300    1686.0345   -118.63776    1.5255594    -117.1122   -13599.298    4.2905141    4.2905141    4.2905141   -13599.298   -39393.857   -12627.823    11223.786   -96.815536   -11833.969     4349.047    78.981977 
    6400    1404.0138   -118.38674    1.2703812   -117.11635   -29805.623    4.3057298    4.3057298    4.3057298   -29805.623    7253.0989   -48859.219   -47810.747     14780.05   -27401.612     37297.45    79.825256 
    6500     999.9456   -118.00614   0.90477179   -117.10137    2703.9452    4.2879056    4.2879056    4.2879056    2703.9452     80183.76   -59384.931   -12686.993   -9987.1346    17665.061    20374.278    78.838006 
    6600    1552.4851   -118.50381    1.4047211   -117.09909    1013.7091    4.2781306    4.2781306    4.2781306    1013.7091    47145.658    -34932.68   -9171.8503    6077.5349   -6777.8843   -18246.415    78.300066 
    6700    1415.6476    -118.3955    1.2809077   -117.11459    455.77864    4.3052696    4.3052696    4.3052696    455.77864    38091.392   -37803.603    1079.5462   -1635.6666    11894.367     10988.97    79.799662 
    6800    1435.9175   -118.38164    1.2992483   -117.08239   -7941.0035    4.3088552    4.3088552    4.3088552   -7941.0035   -218.60719   -46450.483     22846.08   -10074.964    20885.808    6802.3876    79.999211 
    6900    1552.5131   -118.46484    1.4047465   -117.06009    33117.702    4.2821279    4.2821279    4.2821279    33117.702    78624.882   -31685.174    52413.397    -7884.053   -9124.9336   -14285.839    78.519748 
    7000    1532.2787   -118.48615    1.3864379   -117.09971   -17829.293     4.293121     4.293121     4.293121   -17829.293    14371.277   -60793.869    -7065.286     15718.95   -10287.137    10696.698    79.126031 
    7100    1034.9576   -118.03481   0.93645141   -117.09836    2316.0915    4.2954977    4.2954977    4.2954977    2316.0915    31220.966   -54682.003    30409.312    24733.867   -13340.961    13520.469     79.25752 
    7200     1778.623   -118.69422    1.6093355   -117.08489    933.75004    4.2898381    4.2898381    4.2898381    933.75004    24958.151   -22899.873    742.97222   -6880.2136   -9631.2852   -2321.0312    78.944652 
    7300    1588.7114   -118.54664    1.4374995   -117.10914    -15092.13    4.3060749    4.3060749    4.3060749    -15092.13    11739.521   -40623.386   -16392.526    6455.5072    7218.9155    8730.8446     79.84445 
    7400    1374.0665   -118.33123    1.2432843   -117.08795   -22995.791    4.3078303    4.3078303    4.3078303   -22995.791   -20258.347   -30765.824   -17963.201    17675.466    -25343.63    10785.424    79.942138 
    7500    1554.9392   -118.46781    1.4069416   -117.06087    4634.1221    4.2885976    4.2885976    4.2885976    4634.1221    54748.116   -29132.055   -11713.694    8235.7085   -2178.4178   -17589.196    78.876182 
    7600    1532.2469   -118.45488    1.3864092   -117.06847    30496.732     4.292392     4.292392     4.292392    30496.732     57002.25   -35179.623     69667.57    2197.3884   -14471.154    3594.7306     79.08573 
    7700     1661.294   -118.59617    1.5031738     -117.093   -12882.435     4.313624     4.313624     4.313624   -12882.435   -44919.052   -21720.994     27992.74   -2103.2809   -1912.0626    15332.177    80.265123 
    7800    1203.7368    -118.1707    1.0891664   -117.08154   -24874.962    4.3098929    4.3098929    4.3098929   -24874.962   -8101.2098   -45287.523   -21236.154   -5932.8371    11107.797   -10625.619    80.057023 
    7900     1418.252   -118.34805    1.2832642   -117.06478   -7626.9924    4.2913314    4.2913314    4.2913314   -7626.9924   -17593.992    3736.6845   -9023.6696   -4439.4437   -27545.738   -2946.5968    79.027122 
    8000    1719.2685   -118.62718    1.5556302   -117.07155     11540.15    4.2805063    4.2805063    4.2805063     11540.15    38045.277    17793.331   -21218.156   -10926.289    14319.872    17329.546    78.430581 
    8100    2094.5956   -118.99089    1.8952341   -117.09566   -18868.126    4.2971098    4.2971098    4.2971098   -18868.126    6209.0763   -45323.055   -17490.399   -6669.1822   -4241.4956   -4961.7147    79.346791 
    8200    1049.2112   -118.04648   0.94934832   -117.09713   -7345.0198    4.3134986    4.3134986    4.3134986   -7345.0198    9195.4257   -51471.155     20240.67    14499.507   -16591.486   -7173.6589    80.258122 
    8300    1223.8057     -118.194    1.1073252   -117.08667     9215.511    4.2804182    4.2804182    4.2804182     9215.511    -18313.57   -13736.791    59696.894    14957.058    18.988632    19044.357    78.425734 
    8400    1462.1866   -118.41678    1.3230171   -117.09376    41919.779    4.2735414    4.2735414    4.2735414    41919.779     60575.54   -1829.6199    67013.418   -5894.3063     -3373.36    11488.543    78.048355 
    8500    1500.1396   -118.46653    1.3573578   -117.10917   -39855.617    4.3210117    4.3210117    4.3210117   -39855.617   -13473.991   -99190.717   -6902.1441    28761.556    10123.651   -8488.9767    80.678224 
    8600      1385.07   -118.33963    1.2532404   -117.08638   -764.79926     4.299774     4.299774     4.299774   -764.79926    14869.123   -46841.266    29677.746    21297.056    2948.0145    14559.373    79.494465 
    8700    1635.4105   -118.53045    1.4797538    -117.0507    51336.858      4.25846      4.25846      4.25846    51336.858    122779.88    6639.5017    24591.196   -9146.4024    671.44835    4543.5165    77.224966 
    8800    1696.1468   -118.63606    1.5347092   -117.10135   -9632.5995    4.2814758    4.2814758    4.2814758   -9632.5995    -7957.439    13063.186   -34003.545    7023.9869    10645.551    4558.8263    78.483881 
    8900     1488.295   -118.45334    1.3466406    -117.1067    -23214.42    4.3098409    4.3098409    4.3098409    -23214.42   -45073.671   -31052.541    6482.9529   -1727.1268    3211.0774     11627.59    80.054125 
    9000    1367.2699   -118.31504    1.2371346    -117.0779   -12501.728    4.3111006    4.3111006    4.3111006   -12501.728    62805.137   -46363.694   -53946.627   -5638.6196   -13769.225    3844.6753    80.124341 
    9100    1515.8557   -118.42022    1.3715781   -117.04865    15498.034    4.2973493    4.2973493    4.2973493    15498.034    27489.654    22128.389   -3123.9405    16949.131    24030.104   -15762.837    79.360055 
    9200    1557.2406   -118.47179    1.4090241   -117.06277   -5194.6205    4.3000519    4.3000519    4.3000519   -5194.6205   -16880.941    971.64668    325.43305    2683.5034    22835.232   -3935.2901    79.509877 
    9300    1986.1622   -118.85455    1.7971213   -117.05743    -57718.28    4.3179988    4.3179988    4.3179988    -57718.28   -50470.143    -37580.93   -85103.767      22.0559    -8800.249    19093.084    80.509576 
    9400    1559.2782   -118.45592    1.4108677   -117.04505    8829.5756    4.3050927    4.3050927    4.3050927    8829.5756   -24082.118    56025.228   -5454.3836    17900.859    14933.017   -20548.762    79.789828 
    9500    1169.4573   -118.10812    1.0581496   -117.04997    19939.139    4.2915922    4.2915922    4.2915922    19939.139    23434.679   -19411.602     55794.34    5361.9728    27165.616   -14474.746    79.041532 
    9600    1366.5713   -118.29881    1.2365025    -117.0623   -44599.183    4.2984741    4.2984741    4.2984741   -44599.183   -22348.447   -88889.599   -22559.501   -12705.002   -12044.505    17418.604    79.422387 
    9700    1667.5257   -118.57313    1.5088123   -117.06432    -12052.79    4.3009146    4.3009146    4.3009146    -12052.79   -37099.106   -36928.032    37868.769    -20773.24    6592.6104    24031.828    79.557745 
    9800    1730.8678   -118.64079    1.5661256   -117.07467    11296.035    4.3019859    4.3019859    4.3019859    11296.035   -17713.218    40733.739    10867.585   -8096.7773    1279.1903   -1728.5759    79.617209 
    9900    1924.6101   -118.81499    1.7414277   -117.07357   -5158.3793    4.2818726    4.2818726    4.2818726   -5158.3793   -1859.1918    34392.093   -48008.039   -6143.3431   -31651.682    15460.584    78.505704 
   10000    1248.3309   -118.21957    1.1295161   -117.09005    24035.597    4.2718024    4.2718024    4.2718024    24035.597    46088.164    11494.702    14523.926   -34765.569    13953.387    21906.999    77.953114 
   10100    1148.3698   -118.15733    1.0390691   -117.11826   -23616.486    4.2953862    4.2953862    4.2953862   -23616.486   -17524.559    -53939.19    614.29048    -21699.33   -11045.572    236.68532    79.251349 
   10200    1754.8793   -118.68151    1.5878517   -117.09366   -28911.728    4.3030879    4.3030879    4.3030879   -28911.728   -10597.061   -33640.859   -42497.265     16037.65   -33338.316   -1487.1741    79.678406 
   10300    1749.6975    -118.6655    1.5831631   -117.08234      8610.59    4.2939211    4.2939211    4.2939211      8610.59   -274.25455    42616.413   -16510.388   -16570.113    1189.9844   -16200.199    79.170278 
   10400    1509.3482   -118.45305      1.36569   -117.08736    -13422.99    4.2820389    4.2820389    4.2820389    -13422.99   -47853.548   -27348.012    34932.591   -21214.069   -10520.932    2631.8869    78.514854 
   10500    1264.4745   -118.23954    1.1441231   -117.09542    34592.677    4.2765685    4.2765685    4.2765685    34592.677   -375.98844    96567.483    7586.5358   -183.28014   -9045.9652   -5510.8219    78.214324 
   10600    1812.2029   -118.75165    1.6397192   -117.11193   -55793.556    4.3011244    4.3011244    4.3011244   -55793.556    -35935.73   -69464.994   -61979.944   -2539.5959   -6695.2353    2240.2189    79.569387 
   10700    560.61758   -117.62231   0.50725857   -117.11506    175.42244    4.2995472    4.2995472    4.2995472    175.42244   -21010.198   -5099.5202    26635.985   -58007.489     -11741.5   -12155.278    79.481888 
   10800    2215.8572    -119.0793    2.0049542   -117.07435   -11876.504    4.2805045    4.2805045    4.2805045   -11876.504   -40772.098    13613.452   -8470.8652    -18417.19    13833.237    6868.6107    78.430483 
   10900    1687.6674   -118.63663     1.527037   -117.10959    14351.735    4.2914794    4.2914794    4.2914794    14351.735    82970.419   -14493.407   -25421.807   -9439.1522   -9312.3004   -14741.835    79.035301 
   11000    1567.1808      -118.53    1.4180181   -117.11198   -20621.008    4.3061892    4.3061892    4.3061892   -20621.008    24348.523   -56445.392   -29766.155   -9624.5368   -24858.596   -4210.0183    79.850811 
   11100    783.17401   -117.80943    0.7086323    -117.1008    61922.547     4.285862     4.285862     4.285862    61922.547    145046.77   -7118.1479     47839.02   -9057.6027   -1929.9642     8323.834    78.725343 
   11200    1358.3214   -118.34448    1.2290378   -117.11544    6545.8801    4.2836513    4.2836513    4.2836513    6545.8801   -2085.4592    583.25408    21139.845   -7873.4873    14479.755   -9353.7899    78.603581 
   11300    1795.6658     -118.734    1.6247562   -117.10924   -13433.456    4.2822491    4.2822491    4.2822491   -13433.456   -17463.217    6930.0672   -29767.217   -677.46616   -14613.506    5868.8529    78.526415 
   11400    1142.7267    -118.1501    1.0339631   -117.11614    31700.346    4.2841433    4.2841433    4.2841433    31700.346    86477.328    4460.9926    4162.7157    6589.8365   -11175.732    25360.402    78.630666 
   11500    1365.9951   -118.34953     1.235981   -117.11355   -10351.336    4.3028672    4.3028672    4.3028672   -10351.336    15685.646   -40363.701   -6375.9513   -16817.557    17921.538   -2273.4693    79.666151 
   11600    1447.5858   -118.39342     1.309806   -117.08362   -10692.678    4.3094615    4.3094615    4.3094615   -10692.678    45437.563   -52387.322   -25128.274    9965.5942    10436.022    9259.9296    80.032983 
   11700    1354.8506   -118.28877    1.2258973   -117.06287    10303.112    4.2997133    4.2997133    4.2997133    10303.112    108313.67   -26819.285   -50585.045    10583.595   -15545.542    25685.569    79.491096 
   11800    1707.1952   -118.62374    1.5447061   -117.07903   -4161.5821    4.2990759    4.2990759    4.2990759   -4161.5821   -24968.741    -8981.983    21465.978    4887.3411     3570.981   -7164.1691    79.455751 
   11900    1247.1304   -118.20814    1.1284298   -117.07971    5514.8455    4.2981819    4.2981819    4.2981819    5514.8455   -15720.367    14344.106    17920.798    4781.1514    20049.268    4747.7221    79.406192 
   12000    1687.4824   -118.60239    1.5268696   -117.07552    15282.465    4.2856309    4.2856309    4.2856309    15282.465    39766.836   -34863.998    40944.558    13761.154   -17360.624   -3416.0237    78.712605 
   12100    1097.7015   -118.09117   0.99322343   -117.09795     34861.75    4.2929597    4.2929597    4.2929597     34861.75   -28200.092    66003.288    66782.054   -2182.4751   -3483.5195    4434.9831    79.117116 
   12200    1374.8245   -118.35146    1.2439701   -117.10749   -17312.114    4.3125445    4.3125445    4.3125445   -17312.114   -35391.081    -3898.367   -12646.895   -9863.4234   -5702.1795    3751.6433    80.204875 
   12300    1786.9889    -118.6915    1.6169051   -117.07459    15040.804    4.2969348    4.2969348    4.2969348    15040.804    32214.898    9481.3835    3426.1307    14046.947    678.04723    194.82961    79.337093 
   12400    1669.4692   -118.58345    1.5105709   -117.07288     50712.18     4.284919     4.284919     4.284919     50712.18    75759.116    56304.334    20073.091    11185.353    9278.6426    1968.9697    78.673387 
   12500    948.75183   -117.97254    0.8584506   -117.11409   -96.862282    4.3241411    4.3241411    4.3241411   -96.862282    54208.784   -42594.852   -11904.519    2045.2209   -21433.765    7818.3748    80.853638 
   12600    1667.8486   -118.57847    1.5091045   -117.06937   -49743.266     4.322826     4.322826     4.322826   -49743.266   -30682.905   -76821.383   -41725.509    -23172.78   -16674.881   -7044.8349    80.779893 
   12700    1226.8729   -118.13928    1.1101004   -117.02918    41014.818    4.2705388    4.2705388    4.2705388    41014.818   -4318.6873      85357.8     42005.34   -2887.4196    14177.687    -18458.43    77.883959 
   12800    2044.9164   -118.92567    1.8502833   -117.07538   -14370.621    4.2764291    4.2764291    4.2764291   -14370.621   -24985.954   -16131.888   -1994.0193    309.20942    834.12497    18376.439    78.206675 
   12900    1764.2612   -118.70709    1.5963406   -117.11075   -24959.277    4.3040768    4.3040768    4.3040768   -24959.277   -32512.214    -50299.74    7934.1226   -11797.742    3723.9554    165.70455    79.733354 
   13000    1662.9713   -118.61038    1.5046914   -117.10569    23728.412    4.2839151    4.2839151    4.2839151    23728.412    24213.927     40441.25    6530.0586   -1726.4618    17287.499   -12019.642    78.618103 
   13100     1103.288   -118.11196   0.99827817   -117.11369    24471.994    4.2758754    4.2758754    4.2758754    24471.994    43237.267   -29315.619    59494.333    18598.517    10708.952     10392.69    78.176304 
   13200    1184.4093   -118.19774    1.0716785   -117.12606   -21766.473    4.3028157    4.3028157    4.3028157   -21766.473   -25592.191   -54998.389     15291.16    6224.4562    5543.5837    14185.745     79.66329 
   13300    1945.4576   -118.84594    1.7602909   -117.08565   -21607.635    4.3136379    4.3136379    4.3136379   -21607.635   -57837.162    17765.115   -24750.857   -6085.3631    -14623.66    3295.3441    80.265896 
   13400    1489.0745   -118.40886    1.3473459   -117.06152    15015.428    4.3037407    4.3037407    4.3037407    15015.428    4529.5067   -20587.333    61104.111     9704.546    28222.089    7219.4995    79.714678 
   13500    1587.6076   -118.49702    1.4365008   -117.06052   -1713.6358    4.2858403    4.2858403    4.2858403   -1713.6358    15308.735   -44131.506    23681.863    14941.655    3089.7679    11174.749    78.724144 
   13600    1189.0986   -118.15159    1.0759214   -117.07567    23811.381    4.2764815    4.2764815    4.2764815    23811.381    26699.867    43378.234    1356.0413    16774.857   -5967.6741   -4984.7708    78.209549 
   13700    1843.7662   -118.76186    1.6682784   -117.09358   -29967.145    4.2851781    4.2851781    4.2851781   -29967.145   -24457.918   -53269.248   -12174.271    8246.8575    1533.2719   -26009.623    78.687659 
   13800    1532.8845   -118.49994    1.3869861   -117.11296   -17402.972    4.3111428    4.3111428    4.3111428   -17402.972   -29528.444   -53661.188    30980.715   -1956.3962   -4393.3858    8063.4623    80.126695 
   13900    1636.4055   -118.57119    1.4806541   -117.09054   -33044.481    4.3084555    4.3084555    4.3084555   -33044.481   -8735.1418   -58599.019   -31799.282   -3508.3696   -6824.4533    9864.1378     79.97695 
   14000     1351.021   -118.28253    1.2224322    -117.0601    36729.322    4.2607169    4.2607169    4.2607169    36729.322    34806.966   -3882.3377    79263.339    13492.321    9860.9102    11296.317    77.347814 
   14100    829.18263   -117.88118   0.75026187   -117.13092    47242.246    4.2815637    4.2815637    4.2815637    47242.246    112326.61    1886.9641    27513.164   -16005.163   -2208.5582   -5522.4553    78.488718 
   14200    1688.3466    -118.6256    1.5276515   -117.09795   -56455.756    4.3246027    4.3246027    4.3246027   -56455.756    4063.4987   -97330.542   -76100.226   -91.374874    1886.9625   -23436.621    80.879536 
   14300    2118.9454   -118.98226    1.9172663   -117.06499   -3500.8473    4.2906773    4.2906773    4.2906773   -3500.8473   -16834.092   -12278.463    18610.014   -13825.133    6497.5609    9158.2779     78.99099 
   14400    1645.8867   -118.55711    1.4892328   -117.06788   -4161.8322    4.2786646    4.2786646    4.2786646   -4161.8322    -9289.328    9997.8128   -13193.981    1722.0018   -8573.5443   -28551.919    78.329388 
   14500    1166.1823   -118.15861    1.0551862   -117.10343   -43759.162    4.3036937    4.3036937    4.3036937   -43759.162   -9537.6264    -42413.61    -79326.25     7042.605   -14564.321   -26814.548    79.712065 
   14600    2097.2188   -118.98098    1.8976076   -117.08338   -32761.173    4.2993443    4.2993443    4.2993443   -32761.173    -17125.79   -62243.804   -18913.927   -5800.4263   -18002.581    11051.504    79.470635 
   14700    1045.3391   -118.04553   0.94584474   -117.09969     27482.75    4.3031734    4.3031734    4.3031734     27482.75    34218.232   -31762.195    79992.213   -20412.772    25395.246   -13473.231    79.683159 
   14800    1094.9779   -118.08744   0.99075903   -117.09668    20240.922    4.3110235    4.3110235    4.3110235    20240.922   -7703.2241   -30046.856    98472.845   -12858.052    30695.868    -6640.586    80.120045 
   14900    1361.1843   -118.30962    1.2316281   -117.07799    12387.041    4.3000235    4.3000235    4.3000235    12387.041   -31549.739   -48662.361    117373.22    10449.925    4981.2104    8577.6288    79.508306 
   15000    1651.5125   -118.57752    1.4943232   -117.08319   -28538.109     4.290895     4.290895     4.290895   -28538.109   -49189.449   -38234.026    1809.1477    7156.1755   -16644.934    1916.9607    79.003014 
   15100    1535.6549   -118.48752    1.3894929   -117.09803   -2167.8983    4.2937568    4.2937568    4.2937568   -2167.8983    31172.397   -29926.569   -7749.5235     5502.211   -20200.017    1251.1033    79.161193 
   15200    1907.2556   -118.81941    1.7257249   -117.09368   -45999.444    4.3022567    4.3022567    4.3022567   -45999.444   -41134.505    -43497.49   -53366.338    7355.9133    3598.7269   -29145.133    79.632244 
   15300    1273.2713   -118.24286    1.1520826   -117.09078    5079.7978    4.2756744    4.2756744    4.2756744    5079.7978    38613.025   -37014.085    13640.454   -3309.0058   -2496.9471    9545.7884    78.165278 
   15400    1732.7713   -118.66129    1.5678479   -117.09344    4959.5069    4.2639303    4.2639303    4.2639303    4959.5069   -7414.3467   -4016.8372    26309.705   -492.03474    -8395.894    19521.463    77.522948 
   15500    1430.7225    -118.4265    1.2945477   -117.13195   -15657.456    4.3047024    4.3047024    4.3047024   -15657.456    26343.849   -43279.167   -30037.051   -6870.2725   -11073.835   -5600.8764    79.768127 
   15600     1499.655   -118.44723    1.3569194   -117.09031   -28184.832    4.3121931    4.3121931    4.3121931   -28184.832    10469.566   -53552.036   -41472.025    13299.582    8743.4302   -16310.446     80.18527 
   15700    1093.9844   -118.06366   0.98986007    -117.0738    20023.578    4.2809385    4.2809385    4.2809385    20023.578    33407.755   -7788.3268    34451.307    11437.735    13787.826    1328.1738    78.454341 
   15800    1420.3101   -118.38097    1.2851264   -117.09584    18594.128    4.2817972    4.2817972    4.2817972    18594.128    52990.078   -24394.444    27186.749    5685.2643   -4835.8136    18075.423     78.50156 
   15900    1935.6595   -118.85196    1.7514254   -117.10053   -32488.956     4.301116     4.301116     4.301116   -32488.956   -17060.214    -61051.52   -19355.135    3291.0197   -1175.3458   -20200.469    79.568918 
   16000    1428.7515    -118.3916    1.2927644   -117.09883   -17765.885    4.3042327    4.3042327    4.3042327   -17765.885   -42720.169   -19635.859    9058.3718    1431.4536    896.34589    13817.739    79.742019 
   16100    1901.9092   -118.79568    1.7208874   -117.07479    -8055.626    4.2890213    4.2890213    4.2890213    -8055.626   -2230.0727   -12380.513    -9556.292    9286.7875   -2475.7966    8456.1187    78.899567 
   16200    1110.5589   -118.08705     1.004857   -117.08219    16198.994    4.2893075    4.2893075    4.2893075    16198.994    59319.655   -36644.997    25922.324   -7129.1048    10263.237    2130.8487    78.915358 
   16300    1154.4935   -118.15271      1.04461    -117.1081   -6765.6316    4.3066629    4.3066629    4.3066629   -6765.6316    20506.753   -66701.334    25897.686     -5375.01    12836.705    14855.131    79.877166 
   16400    1269.0952    -118.2291     1.148304   -117.08079    -4297.143    4.3151342    4.3151342    4.3151342    -4297.143    23973.287   -48767.404    11902.688    2405.5242   -1784.9701   -17807.567    80.349452 
   16500    1948.8926   -118.81007     1.763399   -117.04667   -49583.243    4.3096726    4.3096726    4.3096726   -49583.243   -33181.053   -62149.187   -53419.488     412.9708   -5357.9572   -8884.0012    80.044748 
   16600    962.32161   -117.93076   0.87072882   -117.06004    31729.434    4.2894256    4.2894256    4.2894256    31729.434     2551.937    21353.672    71282.694   -13005.251   -295.44656   -3523.4836    78.921882 
   16700    2185.9693   -119.04263     1.977911   -117.06472    19.173678    4.2752143    4.2752143    4.2752143    19.173678   -4260.9842     21663.55   -17345.044    6382.3748    4671.1032    17243.931    78.140049 
   16800    1679.3368   -118.62452    1.5194992   -117.10502    17886.063    4.2872222    4.2872222    4.2872222    17886.063    15739.981   -1664.4987    39582.707    5953.5132   -7813.1319    4953.3218    78.800319 
   16900    1291.7895   -118.28409    1.1688383   -117.11525   -15888.766    4.3035286    4.3035286    4.3035286   -15888.766   -17315.319   -24640.508   -5710.4693   -39594.514   -8368.9577   -11061.441    79.702893 
   17000    1198.1802   -118.18393    1.0841386    -117.0998   -17446.039    4.3056857    4.3056857    4.3056857   -17446.039    11535.847   -30724.465     -33149.5   -34587.954    9273.6812   -1935.3929    79.822801 
   17100    1646.2566   -118.57466    1.4895676   -117.08509   -5479.1655    4.2993297    4.2993297    4.2993297   -5479.1655   -14596.913   -4169.7311     2329.148    13398.414    1499.4042    1182.1524    79.469822 
   17200    2164.0403   -119.04278    1.9580692   -117.08471   -15883.777    4.2982656    4.2982656    4.2982656   -15883.777   -8988.2699   -3098.5996   -35564.462    15315.144    -10369.59   -24451.581    79.410834 
   17300    1630.8161   -118.56275    1.4755967   -117.08715   -9504.7405    4.2995447    4.2995447    4.2995447   -9504.7405   -29585.135   -8660.3937    9731.3074   -26206.234    15255.606   -1998.2452    79.481749 
   17400    873.99882    -117.8804    0.7908125   -117.08959    41804.985    4.2905422    4.2905422    4.2905422    41804.985    44788.749    44445.388    36180.818   -30884.388    12288.464    20888.566    78.983528 
   17500    1303.4339   -118.28861    1.1793744   -117.10924    2511.2199    4.3081567    4.3081567    4.3081567    2511.2199   -18437.355    30705.078    -4734.063   -173.13364   -6056.1986   -2312.8604    79.960309 
   17600    1723.2659   -118.64062    1.5592472   -117.08138   -41481.192    4.3194992    4.3194992    4.3194992   -41481.192   -71416.697   -57580.495    4553.6151    1794.7993    8366.4269    -6166.913    80.593535 
   17700    1769.6786    -118.6552    1.6012424   -117.05395    7828.8699    4.2896374    4.2896374    4.2896374    7828.8699    19442.959    3083.8833    959.76724   -18202.546   -4688.5573   -10121.048    78.933571 
   17800    1346.2716   -118.29346    1.2181349   -117.07532    28627.032    4.2926937    4.2926937    4.2926937    28627.032    32696.207    17182.104    36002.784    6448.4306    9622.7357    15307.137    79.102408 
   17900    1760.2241   -118.66553    1.5926877   -117.07284   -10333.067    4.3043841    4.3043841    4.3043841   -10333.067    823.20522   -3637.3139   -28185.092   -11941.819     4395.319    12677.058    79.750432 
   18000    1154.2398   -118.10848    1.0443805    -117.0641    29819.054    4.2939342    4.2939342    4.2939342    29819.054    85512.491   -23169.129    27113.801   -14512.212   -7099.3608   -7947.0226    79.171007 
   18100    1848.9066   -118.75819    1.6729296   -117.08526   -26692.452    4.3106653    4.3106653    4.3106653   -26692.452   -22263.407   -14759.141   -43054.809    1030.6127   -610.60104   -6950.8861    80.100071 
   18200    1737.0213   -118.64778    1.5716934   -117.07608   -15174.535    4.3196666    4.3196666    4.3196666   -15174.535   -35175.696   -44893.488    34545.579    12088.898   -5806.2023    2178.3047    80.602906 
   18300    1507.6617   -118.42923     1.364164   -117.06507    11073.164    4.2969437    4.2969437    4.2969437    11073.164    16868.665    8052.7018    8298.1251   -31961.741   -1983.8097   -3584.9427    79.337589 
   18400    1579.5636   -118.50737    1.4292223   -117.07815   -11028.933    4.2909343    4.2909343    4.2909343   -11028.933     19295.17   -38837.166   -13544.804   -8796.4012    25975.739   -3098.0673    79.005183 
   18500    1777.3423   -118.68877    1.6081767   -117.08059    19198.671    4.2846949    4.2846949    4.2846949    19198.671    -9178.623    31857.749    34916.888    8085.3609   -6961.2495   -1107.7928    78.661045 
   18600    1202.9941   -118.19619    1.0884944    -117.1077    18648.172    4.2912281    4.2912281    4.2912281    18648.172    32588.512   -16735.149    40091.152   -11457.668   -1650.9753    -6689.064    79.021412 
   18700    1329.5547   -118.31149     1.203009   -117.10848   -26963.609    4.3106702    4.3106702    4.3106702   -26963.609    -11100.67   -42068.249    -27721.91   -21953.411   -2057.2929    13782.627    80.100343 
   18800    1964.2493   -118.84799     1.777294    -117.0707   -4070.3342    4.2989751    4.2989751    4.2989751   -4070.3342    5859.2371   -5227.2707   -12842.969    15374.353   -13244.462   -13039.454     79.45016 
   18900    1610.4666   -118.52597     1.457184   -117.06879    27719.578    4.2871226    4.2871226    4.2871226    27719.578    17687.934    44497.953    20972.848    11771.133    2534.5941   -12518.941     78.79483 
   19000      1764.34   -118.69164    1.5964119   -117.09523   -24949.038    4.3065414    4.3065414    4.3065414   -24949.038   -28803.985   -56280.354    10237.224   -27885.931   -9728.6518   -1376.7437    79.870402 
   19100    1153.7499   -118.12684    1.0439371   -117.08291    10525.407    4.3044989    4.3044989    4.3044989    10525.407   -11830.431    73891.365   -30484.713     -4655.88     -33181.3    4925.6737    79.756814 
   19200      1057.85   -118.01951   0.95716495   -117.06235     25113.04    4.2912649    4.2912649    4.2912649     25113.04    105784.64    43239.734   -73685.253     23120.73   -7794.6281    4590.5176    79.023446 
   19300    1226.1161   -118.19048    1.1094156   -117.08106   -8557.5406    4.3034374    4.3034374    4.3034374   -8557.5406    58294.941   -15192.801   -68774.762     18088.42   -247.51773   -678.28102    79.697822 
   19400    1611.8716    -118.5302    1.4584553   -117.07175   -25623.179    4.3077999    4.3077999    4.3077999   -25623.179     -17523.4   -7260.9231   -52085.215   -45.237959   -11653.496   -5371.2255    79.940445 
   19500    2172.5877   -119.02612     1.965803   -117.06032   -21001.079    4.2954496    4.2954496    4.2954496   -21001.079   -18852.449   -26917.813   -17232.975   -21217.172    13095.094   -7415.7609    79.254856 
   19600    1974.3763   -118.87309    1.7864571   -117.08664   -35105.433     4.309714     4.309714     4.309714   -35105.433   -17551.408   -56658.746   -31106.145     8022.479     22081.27   -1030.5516    80.047055 
   19700    1535.5621    -118.4648    1.3894089   -117.07539   -19308.499    4.3252946    4.3252946    4.3252946   -19308.499   -21327.999    16496.012   -53093.509    5276.8215   -9265.6959    3999.5986    80.918363 
   19800    1356.8681   -118.28805    1.2277228   -117.06033    16015.527    4.2981147    4.2981147    4.2981147    16015.527   -2434.6433    73162.375   -22681.151    20527.115   -11074.101    14869.163     79.40247 
   19900    1346.4611   -118.28445    1.2183063   -117.06615    26246.383    4.2846741    4.2846741    4.2846741    26246.383    37653.425    78195.587   -37109.865    15493.599    357.82416    16627.109      78.6599 
   20000    1338.6581   -118.30606     1.211246   -117.09481   -46702.745    4.3122546    4.3122546    4.3122546   -46702.745    -36872.55   -26130.465   -77105.219     10658.22      4968.37   -23956.352    80.188704 
   20100    1442.2315   -118.36894    1.3049614   -117.06398   -357.08348    4.3029385    4.3029385    4.3029385   -357.08348    16570.827   -23140.496    5498.4186   -3419.4815   -12111.974     9689.239    79.670109 
   20200    1596.6742   -118.51252    1.4447044   -117.06782    31185.972    4.2967127    4.2967127    4.2967127    31185.972    43711.373    43814.855    6031.6867    -14813.63    -21381.89   -12562.264    79.324794 
   20300    1713.7749   -118.63264    1.5506596   -117.08198   -31232.185    4.3128646    4.3128646    4.3128646   -31232.185   -20183.068   -2762.2853   -70751.201   -2204.3213    10728.623    1687.8424    80.222736 
   20400    1394.6227   -118.33312    1.2618839   -117.07124   -1782.9846    4.3114249    4.3114249    4.3114249   -1782.9846   -65550.386    38219.695    21981.737    24306.708    4162.9746    15567.472    80.142423 
   20500    1096.3196   -118.06083     0.991973   -117.06886    14186.289    4.3019809    4.3019809    4.3019809    14186.289    -16977.41    7957.9676    51578.311    7988.9898    -15537.77   -2623.1769    79.616929 
   20600     1842.289   -118.72382    1.6669418   -117.05687    11489.169    4.2757667    4.2757667    4.2757667    11489.169   -3573.2791    26897.518    11143.267   -14879.231    1738.8641    7993.7538    78.170338 
   20700    2117.5425   -119.02186     1.915997   -117.10586   -1317.7928    4.2805695    4.2805695    4.2805695   -1317.7928   -33056.272   -13934.622    43037.516    303.61694    12729.555    4106.8995    78.434054 
   20800     1581.971   -118.55959    1.4314006   -117.12819   -51331.943    4.3174373    4.3174373    4.3174373   -51331.943   -36000.202   -73666.605   -44329.021   -14417.222     1557.636   -30056.591    80.478175 
   20900    1301.4005    -118.2618    1.1775345   -117.08427   -12421.249     4.311581     4.311581     4.311581   -12421.249   -15163.833    29933.248   -52033.164    1340.0159   -14165.056   -5779.7371     80.15113 
   21000    1570.8387   -118.48786    1.4213278   -117.06653   -3223.2849    4.2909994    4.2909994    4.2909994   -3223.2849    -20246.54    30253.822   -19677.137   -547.65773   -9042.4618    27402.332     79.00878 
   21100    1527.9841   -118.45458    1.3825522   -117.07203    41292.777    4.2743337    4.2743337    4.2743337    41292.777     17922.36    82262.159    23693.813    6775.9989    438.25687    4997.4033    78.091771 
   21200    1782.5188   -118.72763    1.6128605   -117.11477   -8441.3244    4.2941653    4.2941653    4.2941653   -8441.3244   -480.96199   -24310.714   -532.29691   -12385.055   -7023.6287    3242.4088    79.183788 
   21300     1278.761   -118.27129    1.1570499   -117.11424   -9484.8115    4.3046774    4.3046774    4.3046774   -9484.8115     -20881.3   -36152.941    28579.807   -8198.1461   -9552.6225    11100.543     79.76674 
   21400    1484.8986   -118.42525    1.3435675   -117.08168    15827.932    4.2849717    4.2849717    4.2849717    15827.932   -23719.782    19675.777      51527.8   -417.43049   -7786.3395    15368.582    78.676289 
   21500    1334.6528   -118.30509    1.2076219   -117.09747    9883.6638    4.2986966    4.2986966    4.2986966    9883.6638   -15701.872    42082.479    3270.3837     15806.54   -23865.503   -5423.0203     79.43472 
   21600    1760.3491   -118.66756    1.5928009   -117.07476   -16569.341    4.3118509    4.3118509    4.3118509   -16569.341   -24359.783   -35009.485    9661.2438   -992.83189    16117.721   -17586.248     80.16618 
   21700    1675.7864   -118.58106    1.5162868   -117.06477    16486.711    4.2893609    4.2893609    4.2893609    16486.711   -32224.365    50665.105    31019.392   -11016.124    15563.911    233.55887    78.918306 
   21800    1904.9847   -118.82123    1.7236702   -117.09756   -15542.721    4.2894801    4.2894801    4.2894801   -15542.721   -31145.379   -9242.3533   -6240.4304    2648.0229   -16930.266    4779.3066    78.924886 
   21900    1737.9884   -118.68342    1.5725684   -117.11085   -31510.936    4.3037628    4.3037628    4.3037628   -31510.936   -83797.901    13969.104   -24704.011   -7284.0386   -4804.5816   -22562.552    79.715905 
   22000     1262.968   -118.24306      1.14276    -117.1003   -25982.759    4.2900196    4.2900196    4.2900196   -25982.759   -85645.423    -9223.704    16920.849   -15834.062     9791.144    5916.7534    78.954669 
   22100    1168.1867   -118.16332    1.0569999   -117.10632    3864.3605    4.2746196    4.2746196    4.2746196    3864.3605   -23703.101    40674.534    -5378.352    7984.8576     6409.944    35992.398    78.107442 
   22200    1266.1439   -118.28266    1.1456336   -117.13702    37493.457    4.2851925    4.2851925    4.2851925    37493.457   -18252.031    127689.13    3043.2707    15442.608   -11552.704    25916.121    78.688452 
   22300    1857.4254   -118.81542    1.6806375   -117.13478   -24215.872    4.3058968    4.3058968    4.3058968   -24215.872   -68978.538    6567.1227     -10236.2   -11224.071   -4314.7821    16310.685    79.834547 
   22400    1416.7778   -118.40556    1.2819303   -117.12363   -34576.555    4.2911685    4.2911685    4.2911685   -34576.555   -96843.109   -18696.412    11809.856   -15689.046   -8075.8747   -14357.923    79.018123 
   22500    892.78888   -117.91106   0.80781414   -117.10325    38443.617    4.2586626    4.2586626    4.2586626    38443.617   -25928.919    79946.282    61313.489    13643.013   -16665.084    25734.772    77.235987 
   22600    1540.0061   -118.53054    1.3934299   -117.13711   -20154.772    4.2807999    4.2807999    4.2807999   -20154.772   -61680.313    37227.301   -36011.304    21195.759    8208.5767    12524.596    78.446719 
   22700    1924.5764    -118.8562    1.7413972    -117.1148   -39292.834    4.3003961    4.3003961    4.3003961   -39292.834   -68080.849    12857.463   -62655.115    12175.062    17504.551   -4581.7082    79.528971 
   22800    1779.3887   -118.70503    1.6100283     -117.095    11545.715    4.2748055    4.2748055    4.2748055    11545.715   -13343.062    58989.741   -11009.533   -749.83818   -2398.3834    4342.1183    78.117633 
   22900    1133.1599   -118.14072    1.0253069   -117.11541    31743.553    4.2688756    4.2688756    4.2688756    31743.553   -27726.328    78820.208    44136.779    1423.2821    11470.865    20127.687    77.792993 
   23000    1444.0555   -118.43312    1.3066117   -117.12651   -20902.009    4.2926292    4.2926292    4.2926292   -20902.009   -81654.952    60452.399   -41503.474    88.513784    27621.859   -8270.1429    79.098843 
   23100    1535.0142   -118.49675    1.3889131   -117.10784   -15393.807    4.2927437    4.2927437    4.2927437   -15393.807   -32060.041   -23180.552    9059.1733   -12374.864      4190.05   -35883.316    79.105171 
   23200    1449.6808   -118.40037    1.3117017   -117.08867    30000.116    4.2686228    4.2686228    4.2686228    30000.116    29646.035    4967.4212    55386.892   -5539.0648    -9304.465   -14472.888    77.779175 
   23300    1936.4441   -118.85908    1.7521353   -117.10694   -17436.436    4.2714964    4.2714964    4.2714964   -17436.436   -34742.646   -15922.905   -1643.7553    20104.783    5683.7895    9294.9927    77.936362 
   23400    1156.3373   -118.16829    1.0462783   -117.12201   -4041.4282    4.2808319    4.2808319    4.2808319   -4041.4282   -24724.824   -19899.285    32499.824     17476.92   -9046.6848    27455.235    78.448478 
   23500    1433.2542   -118.41938    1.2968385   -117.12255   -27392.622    4.2825955    4.2825955    4.2825955   -27392.622   -32943.329    8554.9487   -57789.486     5385.552   -6995.3578   -39541.688    78.545475 
   23600    1209.9655   -118.22193    1.0948022   -117.12713   -8672.6076    4.2825551    4.2825551    4.2825551   -8672.6076   -1472.1252    51976.353   -76522.051   -1307.1581   -8069.8007   -21415.076    78.543249 
   23700    1976.2881   -118.90083     1.788187   -117.11264    8655.5796    4.2663002    4.2663002    4.2663002    8655.5796     2871.554    30729.459   -7634.2743    6266.8836   -3236.6812    -10490.38    77.652284 
   23800    1468.2651   -118.46845    1.3285171   -117.13994   -8460.6742    4.2859823    4.2859823    4.2859823   -8460.6742   -66709.937   -1977.6836    43305.598    3426.5336   -471.68693    11276.925    78.731971 
   23900     1105.492   -118.11568    1.0002724    -117.1154   -42910.372    4.3020259    4.3020259    4.3020259   -42910.372    -51131.97   -51574.031   -26025.116   -21624.186    -1023.362   -18636.718     79.61943 
   24000    1598.2025   -118.53012    1.4460872   -117.08403    13639.086    4.2660571    4.2660571    4.2660571    13639.086    3938.2248    55556.421   -18577.388    1064.8927    4610.8278    -3961.679    77.639013 
   24100    1604.2803   -118.55507    1.4515865   -117.10349    25508.588    4.2741192    4.2741192    4.2741192    25508.588   -22555.089    59583.891    39496.962   -731.94143   -5554.8377    13727.639    78.080013 
   24200    1668.4312    -118.6071    1.5096316   -117.09747   -22703.976    4.3048409    4.3048409    4.3048409   -22703.976   -72875.288    12120.836   -7357.4744    4726.6475   -9458.6535     -1954.91    79.775829 
   24300    1340.3784   -118.28304    1.2128025   -117.07024    9858.9736    4.2948944    4.2948944    4.2948944    9858.9736   -66120.993    64145.915    31551.998     7821.976    13755.532   -2298.4527    79.224128 
   24400    1340.8004   -118.28142    1.2131844   -117.06824    -11614.23     4.286269     4.286269     4.286269    -11614.23    -56743.24    13938.441    7962.1091   -3799.7337   -19007.631    9393.4432    78.747773 
   24500    1636.5995   -118.56566    1.4808297   -117.08483   -26980.153    4.2725173    4.2725173    4.2725173   -26980.153   -71704.491     43282.06   -52518.028    7435.9979   -42656.739   -582.38247    77.992255 
   24600    1391.7985   -118.36836    1.2593285   -117.10903    19187.169    4.2641774    4.2641774    4.2641774    19187.169   -32706.524    83051.863    7216.1696    2845.3677    26563.193   -4852.0471    77.536429 
   24700    1252.4217    -118.2721    1.1332175   -117.13888   -34731.469    4.2943036    4.2943036    4.2943036   -34731.469   -104527.74   -14703.701    15037.029    1315.4863     21887.16   -12376.451    79.191437 
   24800    1392.0337   -118.37527    1.2595414   -117.11573   -25625.959    4.2871968    4.2871968    4.2871968   -25625.959   -81044.669   -16683.309    20850.102   -292.54686   -3453.2793    5437.8131    78.798918 
   24900    1660.6633   -118.59473     1.502603   -117.09212    38386.416    4.2647551    4.2647551    4.2647551    38386.416    24143.742    65087.117    25928.387   -7448.3786    14676.843   -3346.6354    77.567944 
   25000    1716.1547   -118.66196    1.5528128   -117.10914   -25803.144    4.2901383    4.2901383    4.2901383   -25803.144   -70342.071   -12214.102    5146.7409   -2613.7682    28316.782    8933.4025    78.961223 
   25100    1007.2951   -118.01108    0.9114218   -117.09965     1991.425    4.2930358    4.2930358    4.2930358     1991.425   -53593.693    3415.3031    56152.665    18143.481    8522.6376    3287.7077    79.121323 
   25200    1437.8794   -118.38607    1.3010235   -117.08505    16815.705    4.2768724    4.2768724    4.2768724    16815.705   -29888.719   -5871.6375    86207.472    9227.6659   -2847.5574   -12787.114    78.231002 
   25300    1747.7964   -118.67681    1.5814429   -117.09537   -28916.401    4.2941899    4.2941899    4.2941899   -28916.401   -44950.434   -1449.1091   -40349.661   -1832.1691   -6326.4621    23436.205    79.185151 
   25400    1265.2253    -118.2405    1.1448025    -117.0957   -32105.232    4.3052199    4.3052199    4.3052199   -32105.232    -52966.33    -47857.48    4508.1145    18826.708   -1116.0368   -15427.312    79.796899 
   25500    1297.2056   -118.25509    1.1737389   -117.08135    3812.6963    4.2887039    4.2887039    4.2887039    3812.6963    5059.2222   -26665.544     33044.41    20494.526   -9239.9297    8233.1478    78.882048 
   25600    2052.6834   -118.94548     1.857311   -117.08817    -932.0119    4.2888371    4.2888371    4.2888371    -932.0119    299.19799    20249.143   -23344.376    1360.8249   -7935.5777   -3939.7595    78.889401 
   25700    1587.0142   -118.52205    1.4359638   -117.08609   -24442.151    4.3084387    4.3084387    4.3084387   -24442.151    -34883.28   -24344.181   -14098.992    1670.0157    15178.933    2512.1245    79.976016 
   25800    1075.4248   -118.04281   0.97306693   -117.06975    9493.0395    4.2914935    4.2914935    4.2914935    9493.0395   -60482.182    40175.248    48786.053    22114.687    18729.287    10754.766    79.036079 
   25900    1435.1472   -118.36867    1.2985514   -117.07012     17471.82     4.281417     4.281417     4.281417     17471.82   -41176.747    71401.051    22191.156   -17053.903    908.14115   -17000.126    78.480648 
   26000    1855.4043   -118.76122    1.6788088   -117.08241     -16568.1    4.2854477    4.2854477    4.2854477     -16568.1   -2589.6359   -27464.513    -19650.15   -4901.2878   -7109.5693     13033.03    78.702511 
   26100    1209.6166   -118.18543    1.0944866   -117.09095    27431.846    4.2723447    4.2723447    4.2723447    27431.846    746.58482    83086.943   -1537.9905    31442.716   -3924.6655    7712.2709    77.982808 
   26200    1495.9644   -118.46829      1.35358   -117.11471    -31115.26    4.2903874    4.2903874    4.2903874    -31115.26   -55030.351   -11456.544   -26858.884    12564.381    418.57328   -16422.483     78.97498 
   26300    1328.7149   -118.29554    1.2022491   -117.09329   -23720.779     4.297198     4.297198     4.297198   -23720.779    -5516.839   -22016.404   -43629.095   -2865.4256   -20715.842    28399.012    79.351676 
   26400    1544.7774   -118.47389     1.397747   -117.07614    16429.981    4.2746697    4.2746697    4.2746697    16429.981    58481.254   -25861.548    16670.238    12966.388    -20833.11    25916.644    78.110191 
   26500    1520.2375   -118.47207    1.3755429   -117.09652    3363.2954    4.2874893    4.2874893    4.2874893    3363.2954   -17770.561   -32798.696    60659.143        25878   -3965.1752    3023.9985    78.815047 
   26600    1786.4915   -118.70164     1.616455   -117.08519   -19925.242    4.2957475    4.2957475    4.2957475   -19925.242   -44607.995   -54998.047    39830.316    9866.0645    2893.6445    9468.1812    79.271346 
   26700    1137.3651    -118.1077    1.0291118   -117.07858    43693.588    4.2777762    4.2777762    4.2777762    43693.588    32185.667    45501.962    53393.136    424.00307   -33832.829    16961.636    78.280606 
   26800    1320.2156   -118.30031    1.1945588   -117.10575   -6324.5469    4.3021214    4.3021214    4.3021214   -6324.5469   -18617.663    21593.607   -21949.584    17752.328   -685.61368   -8394.5455    79.624734 
   26900    1982.8895   -118.85944    1.7941601   -117.06528   -44648.152    4.3085992    4.3085992    4.3085992   -44648.152    -75942.62   -21308.552   -36693.285   -3743.1611    25287.464   -11677.794    79.984952 
   27000    1423.7266   -118.32821    1.2882177   -117.03999    59350.086    4.2743486    4.2743486    4.2743486    59350.086    59867.146    77400.523    40782.588   -14835.223   -20007.905    16971.896    78.092586 
   27100    1150.4302   -118.14341    1.0409334   -117.10248    20130.325    4.3006129    4.3006129    4.3006129    20130.325    5325.7094    51306.623    3758.6429   -611.70786    559.35724    17472.391    79.541001 
   27200    1723.7496   -118.62532    1.5596849   -117.06563   -42957.615    4.3139885    4.3139885    4.3139885   -42957.615   -74818.008    21193.455   -75248.292   -13295.423    24948.573   -4218.4976    80.285471 
   27300    1685.8796   -118.56903    1.5254193   -117.04361    41558.609    4.2641261    4.2641261    4.2641261    41558.609    74566.245    31385.548    18724.034   -69.531325   -3979.6232   -9224.2177    77.533631 
   27400    1369.9132   -118.33382    1.2395263   -117.09429     4417.683    4.2744391    4.2744391    4.2744391     4417.683    3190.9997   -488.53837    10550.588    755.94738     5887.142    24441.907    78.097548 
   27500     1620.595   -118.56207    1.4663484   -117.09572   -33651.749    4.2892482    4.2892482    4.2892482   -33651.749   -51512.869   -67535.361    18092.982   -11405.406     12874.56    5726.7152    78.912088 
   27600    1237.9524   -118.21752    1.1201253    -117.0974    50849.363    4.2723364    4.2723364    4.2723364    50849.363    31656.175    15863.114     105028.8   -1677.7111    1911.2702   -11599.136     77.98235 
   27700     1704.502   -118.66243    1.5422692   -117.12016   -27334.366    4.2974924    4.2974924    4.2974924   -27334.366   -46060.989   -36097.897    155.78949   -1929.0572   -8019.7017   -27303.881    79.367987 
   27800    1262.5003   -118.23651    1.1423368   -117.09418    2757.8024    4.2971684    4.2971684    4.2971684    2757.8024   -75099.203    54070.163    29302.447    6147.4883    2768.5907    29498.965    79.350037 
   27900    1301.4664   -118.25276    1.1775941   -117.07517    16028.279     4.289199     4.289199     4.289199    16028.279   -39590.562    77864.711    9810.6871    -5477.922   -9728.0225    26572.006    78.909371 
   28000    1739.8818   -118.65719    1.5742816   -117.08291   -23143.374     4.304958     4.304958     4.304958   -23143.374   -46082.227    -9071.034    -14276.86     17104.89   -15772.714   -10451.014    79.782335 
   28100    1588.6501    -118.5123     1.437444   -117.07485   -13124.072    4.3012397    4.3012397    4.3012397   -13124.072   -9129.4645    6596.3241   -36839.074    8321.6805   -1139.3379   -21852.514    79.575784 
   28200    1942.4601   -118.83333    1.7575787   -117.07576    6695.3208    4.2782162    4.2782162    4.2782162    6695.3208    6332.7493   -15305.562    29058.775   -10057.812    18294.568    8000.0592    78.304765 
   28300    1696.9081   -118.62724    1.5353981   -117.09184    3694.7489    4.2713467    4.2713467    4.2713467    3694.7489    2490.9169   -28019.661     36612.99   -18191.864    13596.648    9730.8506     77.92817 
   28400    1350.6064   -118.33598     1.222057   -117.11392    19624.977    4.2774429    4.2774429    4.2774429    19624.977    47865.514   -21331.453    32340.869    11320.796    11565.917   -22718.286    78.262312 
   28500     1393.515   -118.38612    1.2608817   -117.12523   -22368.981    4.3112564    4.3112564    4.3112564   -22368.981   -67408.874   -15651.034    15952.964   -29835.964   -4366.7755   -23724.228     80.13303 
   28600    2066.6431    -118.9553    1.8699421   -117.08536   -65501.165    4.3264406    4.3264406    4.3264406   -65501.165   -46332.367   -77092.364   -73078.764   -13724.831   -7976.8791    16141.397      80.9827 
   28700    857.37228   -117.84192   0.77576845   -117.06615    21002.511    4.3012557    4.3012557    4.3012557    21002.511    31034.043     33079.11   -1105.6203    23350.989   -6148.1911   -29172.829    79.576672 
   28800    1547.1792   -118.44623    1.3999202   -117.04631     28813.01    4.2813828    4.2813828    4.2813828     28813.01      5197.58     32021.41    49220.042    29833.315    7724.6963   -11668.431    78.478768 
   28900    1776.7033   -118.67768    1.6075985   -117.07009   -9451.8299    4.3031552    4.3031552    4.3031552   -9451.8299    33415.925   -22893.463   -38877.952   -10315.347   -6552.9928    19039.002    79.682148 
   29000    1358.5112   -118.28816    1.2292095   -117.05895   -35442.146    4.3230578    4.3230578    4.3230578   -35442.146   -33263.661   -58777.373   -14285.404   -268.86361   -5153.8611   -18242.117    80.792889 
   29100     1520.598    -118.4191     1.375869   -117.04323   -15376.743    4.2939593    4.2939593    4.2939593   -15376.743   -39885.194    12872.259   -19117.294      1671.27   -12825.256    -13383.12    79.172392 
   29200    1302.6782   -118.22239    1.1786906    -117.0437     17694.28    4.2638501    4.2638501    4.2638501     17694.28    21558.338    47524.543   -16000.039   -10165.561    4177.2449   -2974.4079    77.518574 
   29300    1474.7411   -118.42239    1.3343767   -117.08801   -1230.8952       4.2773       4.2773       4.2773   -1230.8952   -4962.7356    8871.6376   -7601.5874   -11316.865    20315.684   -13233.713    78.254467 
   29400    1995.3556   -118.89356    1.8054397   -117.08812   -40621.506     4.311799     4.311799     4.311799   -40621.506   -11750.173   -73201.527   -36912.817    -2350.482   -14977.847   -9858.1904    80.163289 
   29500     1281.562    -118.2303    1.1595842   -117.07071    7298.6718    4.3148243    4.3148243    4.3148243    7298.6718   -6583.6633    -21093.47    49573.149     4005.904   -12372.666    9223.4132    80.332141 
   29600     1621.617   -118.51595    1.4672732   -117.04867   -33544.018     4.298733     4.298733     4.298733   -33544.018   -3927.9515   -26270.696   -70433.405    7894.3276    27254.348   -3340.5164     79.43674 
   29700    1106.1715   -118.05963    1.0008872   -117.05874   -4758.7018    4.2732149    4.2732149    4.2732149   -4758.7018    46880.043   -11174.494   -49981.655    7046.3103    6024.0399   -25117.234    78.030467 
   29800    1500.4338   -118.45241    1.3576241   -117.09479    33436.993    4.2750458    4.2750458    4.2750458    33436.993    8140.7461    94607.887   -2437.6536   -12543.551   -13032.472   -22596.825    78.130806 
   29900    1681.2173   -118.62334    1.5212007   -117.10214   -13237.752    4.3136272    4.3136272    4.3136272   -13237.752    2698.8786    3838.6964   -46250.832   -4061.5306    3948.5007    8807.1927      80.2653 
   30000    1688.6784   -118.60053    1.5279517   -117.07258   -31741.547    4.2990507    4.2990507    4.2990507   -31741.547   -38401.953   -28999.107    -27823.58    1901.0103   -832.72751   -17174.347    79.454355 
   30100    1133.2309   -118.07453    1.0253711   -117.04916     59353.13    4.2720653    4.2720653    4.2720653     59353.13     9291.284     56228.51     112539.6   -2731.0671   -24802.295   -30305.239    77.967509 
   30200    1591.6361   -118.53313    1.4401458   -117.09298    13416.448    4.3032133    4.3032133    4.3032133    13416.448   -34224.375    48549.961    25923.757   -3020.1918    -13773.45    5710.5415    79.685375 
   30300    1451.6098   -118.39377     1.313447   -117.08032   -1178.4228    4.3042289    4.3042289    4.3042289   -1178.4228   -44596.883   -6902.1655     47963.78    7321.5563    3862.7388   -10456.737    79.741807 
   30400    847.66294   -117.83728   0.76698324    -117.0703     68747.44    4.2674288    4.2674288    4.2674288     68747.44      33878.2     124819.2    47544.918    727.39921   -5.7692324    -48219.79    77.713929 
   30500    1722.1429   -118.66726    1.5582311   -117.10903   -11242.663    4.2800048    4.2800048    4.2800048   -11242.663   -40210.844    23052.196   -16569.341   -5123.0069    975.76008    -27666.87    78.403014 
   30600    1655.3381    -118.6044    1.4977847   -117.10661    -15377.69    4.2906486    4.2906486    4.2906486    -15377.69   -27369.663   -29481.351    10717.945    12200.686   -8098.6053    27178.373    78.989405 
   30700    1755.6154   -118.69438    1.5885177   -117.10587   -23975.259    4.2973811    4.2973811    4.2973811   -23975.259   -36917.524   -16233.339   -18774.914    21527.844    6445.4327    30871.068    79.361818 
   30800    1657.4905   -118.58862    1.4997322   -117.08889   -51001.554    4.3162116    4.3162116    4.3162116   -51001.554   -52127.411   -68342.914   -32534.337   -17383.899   -2378.3916   -7288.7001     80.40965 
   30900     1568.683   -118.48725    1.4193774   -117.06787   -3162.2553    4.2856882    4.2856882    4.2856882   -3162.2553   -30133.216    -27524.71    48171.161   -13444.755   -9301.4932   -20755.144    78.715762 
   31000    1674.5291   -118.57958    1.5151492   -117.06443    14498.179    4.2674086    4.2674086    4.2674086    14498.179    12068.494    17362.025    14064.018    14557.804    -12017.73    24476.933     77.71282 
   31100    1113.7867    -118.1072    1.0077776   -117.09942    5812.0128    4.2922888    4.2922888    4.2922888    5812.0128     10914.56   -43923.093    50444.571   -861.80813    7434.2508    34577.919    79.080025 
   31200    1475.0441   -118.42149    1.3346509   -117.08684    11792.187    4.2940256    4.2940256    4.2940256    11792.187    9308.2423   -40667.048    66735.368   -19320.464    14888.378   -4849.1034     79.17606 
   31300    1722.8499   -118.64191    1.5588708   -117.08304    16435.773    4.2896789    4.2896789    4.2896789    16435.773    18785.512   -3206.8926    33728.699   -12374.295    16775.936    4263.6553     78.93586 
   31400    2113.0077    -118.9848    1.9118938   -117.07291   -23805.859    4.3000328    4.3000328    4.3000328   -23805.859   -15276.728   -45912.566   -10228.284    8919.8583   -6739.2951    11061.284    79.508821 
   31500    1587.1415     -118.502     1.436079   -117.06592   -30415.734    4.3014818    4.3014818    4.3014818   -30415.734   -23644.503   -53489.416   -14113.283    -22743.91   -16556.008   -4685.1711    79.589223 
   31600    1147.3048   -118.10392    1.0381055   -117.06581    3849.4873     4.288621     4.288621     4.288621    3849.4873     322.5007   -493.01124    11718.972    -19710.06    20284.993   -647.43331    78.877476 
   31700    2016.0689   -118.90515    1.8241815   -117.08096   -18240.562    4.3024991    4.3024991    4.3024991   -18240.562     32066.82   -31931.298   -54857.208    23204.685     9873.597   -5503.8422    79.645705 
   31800    1446.4505   -118.38246    1.3087789   -117.07368   -22621.272    4.3285396    4.3285396    4.3285396   -22621.272    26633.389   -18817.958   -75679.247   -3277.4971   -15869.346   -12651.641    81.100623 
   31900    1755.2814    -118.6328    1.5882155   -117.04459   -14698.404    4.3039705    4.3039705    4.3039705   -14698.404    40550.956    -28639.85   -56006.319   -1159.1947   -15526.165    4353.4144    79.727448 
   32000    1453.6373   -118.35148    1.3152815    -117.0362    41889.334    4.2590473    4.2590473    4.2590473    41889.334    58174.969    35430.176    32062.856    47349.236    2131.1097   -9477.3493    77.256922 
   32100    1115.9612   -118.12141    1.0097452   -117.11166    30549.657    4.2854081    4.2854081    4.2854081    30549.657    51216.613    64752.985   -24320.628    39145.865   -3930.3613   -15437.672    78.700333 
   32200    1791.2242   -118.68752    1.6207373   -117.06679   -36428.483     4.321194     4.321194     4.321194   -36428.483    36268.002   -67787.029   -77766.423   -10331.286   -4541.2385   -6299.8795    80.688435 
   32300    738.91538   -117.72909   0.66858616    -117.0605     46092.58    4.2842279    4.2842279    4.2842279     46092.58    102938.19    30441.631    4897.9194    34661.719    4463.0847   -2781.1693    78.635327 
   32400    1254.1884   -118.19363     1.134816   -117.05882    24839.155     4.265194     4.265194     4.265194    24839.155    28609.998    58183.055   -12275.587    20610.717    7920.4758   -4505.4865    77.591894 
   32500    2118.6503   -118.99842    1.9169993   -117.08142    15396.636    4.2739238    4.2739238    4.2739238    15396.636    43985.704     34462.06   -32257.856   -22739.187   -2200.2146    3782.9359    78.069309 
   32600    1409.0833   -118.39273    1.2749682   -117.11776   -14505.677    4.2918109    4.2918109    4.2918109   -14505.677   -52550.806    28657.522   -19623.746    3719.5513   -14329.292    10746.113    79.053618 
   32700    1017.0911   -118.03408   0.92028536    -117.1138    4158.0546    4.2832371    4.2832371    4.2832371    4158.0546    -15873.51     34079.55   -5731.8758    45811.828        12446   -994.76364    78.580783 
   32800    1651.1285   -118.58167    1.4939758   -117.08769    39301.645    4.2693932    4.2693932    4.2693932    39301.645    102240.13    22931.451   -7266.6467   -11193.079    6779.6526   -3360.8057    77.821295 
   32900    1396.3185   -118.36298    1.2634183   -117.09956    20472.705    4.2905568    4.2905568    4.2905568    20472.705    28857.666    45337.187   -12776.739   -28996.762   -15906.886   -3641.3032    78.984334 
   33000    1115.6614   -118.08982    1.0094738   -117.08035   -922.10169    4.3040411    4.3040411    4.3040411   -922.10169    25956.143   -20715.212   -8007.2365    24410.566    9781.3407    3626.5484    79.731369 
   33100    1263.7344   -118.20927    1.1434535   -117.06581   -10521.974    4.3047037    4.3047037    4.3047037   -10521.974    -10097.26    877.09795   -22345.759     32530.12    321.22986   -10719.326    79.768198 
   33200    2317.4497   -119.14084    2.0968771   -117.04396    -28744.32     4.286504     4.286504     4.286504    -28744.32   -42361.272   -16854.057   -27017.631   -24936.804   -4684.9251   -9492.4171    78.760723 
   33300    1568.3626   -118.48634    1.4190875   -117.06726   -3456.3863    4.2741693    4.2741693    4.2741693   -3456.3863   -18541.067    -18956.52    27128.428   -3521.5375    5794.0088   -8929.9376    78.082762 
   33400    1177.8312   -118.15994    1.0657265   -117.09421    1735.2385    4.2652217    4.2652217    4.2652217    1735.2385   -7047.2334   -15960.881    28213.829     43774.55     17021.09   -10754.054    77.593411 
   33500    1385.7115   -118.38175    1.2538209   -117.12793    12317.646    4.2770869    4.2770869    4.2770869    12317.646    35472.044    30904.609   -29423.715    12567.181    14917.781     6127.969    78.242772 
   33600    1584.3216   -118.54342    1.4335274   -117.10989   -31001.848    4.3108083    4.3108083    4.3108083   -31001.848   -8300.4375     -50658.8   -34046.307   -27429.936   -11207.397    10671.589    80.108047 
   33700    1522.0959   -118.44886    1.3772244   -117.07163    4288.0083    4.2906029    4.2906029    4.2906029    4288.0083    18647.172    2575.8177   -8358.9648    17740.626   -10366.989   -4811.1128    78.986884 
   33800    1284.8328   -118.22642    1.1625437   -117.06388    24207.364    4.2748055    4.2748055    4.2748055    24207.364    87490.468     4880.804   -19749.179    40294.432    15949.981    11214.169    78.117635 
   33900    1290.0922   -118.25327    1.1673025   -117.08597   -7361.6378    4.2910747    4.2910747    4.2910747   -7361.6378    55150.331   -43127.542   -34107.703   -15672.336     14141.05    15857.767    79.012941 
   34000    1316.8628   -118.27895    1.1915251   -117.08742   -32766.136    4.2999779    4.2999779    4.2999779   -32766.136   -14851.905   -15275.028   -68171.474   -8495.9181    -33863.24   -12056.774    79.505774 
   34100    1608.0481   -118.53171    1.4549957   -117.07671   -37009.293    4.2809736    4.2809736    4.2809736   -37009.293   -48839.043   -16844.907   -45343.928    40509.841   -37242.487     19924.25     78.45627 
   34200     2088.764   -118.95603    1.8899575   -117.06607    5970.7396     4.254253     4.254253     4.254253    5970.7396    24143.887    -15753.06    9521.3915   -7.8901301    31549.746    14530.799    76.996315 
   34300    1268.4631   -118.25957     1.147732   -117.11184   -19004.144    4.2811047    4.2811047    4.2811047   -19004.144   -21288.508    15196.077   -50920.001   -5411.3141   -20993.801    1379.7395    78.463476 
   34400     1346.183   -118.32246    1.2180547   -117.10441   -6023.1698    4.2896444    4.2896444    4.2896444   -6023.1698    23146.156   -4823.8099   -36391.855    7911.5009   -47695.889    13210.689    78.933959 
   34500    2120.5875   -118.99905    1.9187522    -117.0803    11388.119    4.2825034    4.2825034    4.2825034    11388.119    9108.0945    6066.9464    18989.318    7774.7134    4837.0514    7041.6663    78.540408 
   34600    1573.9943    -118.5069    1.4241831   -117.08272    3658.7084    4.2780795    4.2780795    4.2780795    3658.7084    24813.209    35661.702   -49498.785     14517.19   -21015.465    11945.653    78.297257 
   34700    1140.2484   -118.11992    1.0317207    -117.0882    9006.4597    4.2673583    4.2673583    4.2673583    9006.4597    39034.618    36748.128   -48763.367   -14710.881   -31617.116    6180.9729    77.710076 
   34800    1414.2778   -118.38208    1.2796683   -117.10242   -17428.824    4.2907405    4.2907405    4.2907405   -17428.824   -34432.576    2447.2552   -20301.152   -4453.2858    18230.533    -698.9309    78.994481 
   34900    2141.1553   -119.01038    1.9373623   -117.07302   -21709.844    4.2941426    4.2941426    4.2941426   -21709.844   -19086.475   -14451.282   -31591.775    12781.067   -838.84119     6095.102     79.18253 
   35000    1275.7797   -118.23074    1.1543523   -117.07639    30355.162    4.2678296    4.2678296    4.2678296    30355.162    21143.127     89294.48   -19372.122    367.08033   -15159.248    3027.8342    77.735825 
   35100    979.64653   -117.99485   0.88640476   -117.10845    14416.779     4.282097     4.282097     4.282097    14416.779   -290.98883    90571.763   -47030.436    4665.6138    11987.724   -3766.1437    78.518052 
   35200    2105.2427    -118.9811    1.9048679   -117.07623   -17472.301    4.2978251    4.2978251    4.2978251   -17472.301   -4297.9147   -12530.529    -35588.46    1857.5858   -1441.4271   -11401.703     79.38642 
   35300    1810.2764   -118.70977    1.6379761    -117.0718   -11666.387    4.2895642    4.2895642    4.2895642   -11666.387   -19371.317    6679.5773   -22307.421    10756.542    1186.2063   -5385.3895     78.92953 
   35400    1142.5813   -118.10769    1.0338316   -117.07386   -7115.3926    4.2812942    4.2812942    4.2812942   -7115.3926   -3004.6455    42418.668     -60760.2    24135.306    38468.461   -1022.1574    78.473894 
   35500    1469.2975   -118.40288    1.3294512   -117.07343     7271.139    4.2784096    4.2784096    4.2784096     7271.139    42676.525    17455.867   -38318.975   -15122.692    5061.9196    -7540.967    78.315384 
   35600    1439.2962    -118.3913    1.3023054   -117.08899   -10323.881    4.2849495    4.2849495    4.2849495   -10323.881     20926.64   -61809.085    9910.8041   -25478.235   -2694.5433   -16934.084    78.675065 
   35700     1552.047   -118.48931    1.4043247   -117.08499   -1969.3733    4.2793864    4.2793864    4.2793864   -1969.3733    27581.018   -14461.034   -19028.104   -4481.9703    15574.414    3180.9425    78.369036 
   35800    1647.0056   -118.57574    1.4902453    -117.0855   -17491.412    4.2801172    4.2801172    4.2801172   -17491.412    1085.5895    18800.036   -72359.862    3010.6674    36278.561    2874.3603    78.409191 
   35900    1366.0167   -118.32561    1.2360006   -117.08961   -14600.841    4.2768214    4.2768214    4.2768214   -14600.841    16544.268   -46902.894   -13443.897   -15092.883    16224.881   -12357.116    78.228198 
   36000    1440.3003   -118.39894     1.303214   -117.09573   -3543.7218    4.2834034    4.2834034    4.2834034   -3543.7218   -18039.578   -21701.173    29109.585   -28586.547    4265.4989   -8619.3311    78.589934 
   36100    1278.5912   -118.24101    1.1568962   -117.08411   -45218.795    4.3153759    4.3153759    4.3153759   -45218.795   -85969.208   -7234.5457   -42452.632   -8303.0745    39458.643    6582.4613    80.362954 
   36200    1764.9597   -118.65544    1.5969727   -117.05847   -33578.201    4.2845504    4.2845504    4.2845504   -33578.201   -37780.153   -31831.507   -31122.942   -4574.7319    14962.768   -11833.809    78.653088 
   36300    1633.5651   -118.51059     1.478084   -117.03251    34952.047    4.2512522    4.2512522    4.2512522    34952.047    17326.548    25857.037    61672.555   -24586.691   -19013.837   -18004.785    76.833497 
   36400    1050.7957   -118.04435   0.95078202   -117.09357   -16381.168    4.2948719    4.2948719    4.2948719   -16381.168   -69874.289    50789.108   -30058.323   -24728.452    49498.468    20609.851    79.222882 
   36500    1370.6004   -118.29096     1.240148   -117.05081   -23767.568    4.3032794    4.3032794    4.3032794   -23767.568   -64798.354   -3310.9978   -3193.3521   -16402.424    23591.428   -11255.206    79.689049 
   36600    2260.7988   -119.06776    2.0456183   -117.02214    -7974.016    4.2825052    4.2825052    4.2825052    -7974.016   -4222.2607   -26505.436    6805.6483   -7402.3385   -19388.117   -15473.188    78.540506 
   36700    899.05879   -117.88497   0.81348729   -117.07149    4094.5067    4.3008562    4.3008562    4.3008562    4094.5067   -44175.725    36572.539    19886.706   -8825.7112    50333.575    1792.4981    79.554501 
   36800    1375.9401   -118.28803    1.2449795   -117.04305   -17116.148    4.3048664    4.3048664    4.3048664   -17116.148   -42467.321   -23482.873    14601.751   -13668.742    34784.973   -1461.5503    79.777246 
   36900    2230.2807   -119.03866    2.0180049   -117.02066   -22224.228    4.2865074    4.2865074    4.2865074   -22224.228    -25803.66    -47582.48    6713.4562    6060.4181   -17600.105    13413.005    78.760912 
   37000    1067.8326   -118.03108   0.96619736   -117.06488   -19225.715    4.2943789    4.2943789    4.2943789   -19225.715   -33206.106   -1266.3044   -23204.733    17720.406    31124.012    -13745.71    79.195606 
   37100    1348.1984   -118.29291    1.2198782   -117.07303   -931.47225    4.2798263    4.2798263    4.2798263   -931.47225   -28946.119    66174.815   -40023.113    303.79678    41090.252   -8486.5131    78.393207 
   37200    2220.2434   -119.07292    2.0089229   -117.06399    21917.903    4.2674961    4.2674961    4.2674961    21917.903    15189.715    53275.949   -2711.9544    6318.1268   -27389.831    6837.3965    77.717601 
   37300    1108.6438   -118.10404    1.0031242   -117.10092   -29138.717    4.2985874    4.2985874    4.2985874   -29138.717    -28859.35    7791.2153   -66348.016    10032.246    18451.146    24844.176     79.42867 
   37400    834.12261   -117.84684   0.75473166   -117.09211    -3338.254    4.2902365    4.2902365    4.2902365    -3338.254   -18639.514    55080.401   -46455.649    13193.812    54739.794    10783.798     78.96665 
   37500    2286.6357    -119.1311     2.068996   -117.06211     10048.18    4.2674266    4.2674266    4.2674266     10048.18    49215.179    -5214.248    -13856.39    -11248.68   -16437.045    3702.1543    77.713805 
   37600    2038.0955   -118.92677    1.8441117   -117.08266    3541.1962    4.2642054    4.2642054    4.2642054    3541.1962   -8717.3879    28016.188   -8675.2114    -20511.52    -4722.239    7279.0283    77.537958 
   37700    781.29388   -117.82748   0.70693113   -117.12055    10361.652     4.272666     4.272666     4.272666    10361.652   -38919.988     85511.57   -15506.626    7450.7481    55580.922    25025.263    78.000402 
   37800    1255.3216   -118.25682    1.1358414   -117.12098   -4129.9394    4.2899286    4.2899286    4.2899286   -4129.9394   -28960.537    44495.883   -27925.164    11495.909    20888.385    6826.5486    78.949645 
   37900     2219.305   -119.08573    2.0080738   -117.07766   -29919.973    4.3012244    4.3012244    4.3012244   -29919.973   -4634.4093   -54882.212   -30243.298    1756.2226   -14521.278   -13540.034    79.574939 
   38000    1154.1274   -118.11621    1.0442787   -117.07194   -4462.9438    4.2872751    4.2872751    4.2872751   -4462.9438    7301.8011    5444.5926   -26135.225   -8390.6768    61097.031    12219.982    78.803235 
   38100    1139.2161   -118.09871    1.0307866   -117.06792    30110.386    4.2709835    4.2709835    4.2709835    30110.386    73743.834    47838.084   -31250.759    3045.6358    41540.855    4423.9638     77.90829 
   38200    2113.6528   -118.98326    1.9124775   -117.07078   -16778.681    4.2830116    4.2830116    4.2830116   -16778.681    25860.471   -37372.726   -38823.788    2799.7697   -25996.214    5013.5002     78.56837 
   38300    611.50677   -117.64902   0.55330418   -117.09571   -30687.894    4.2989091    4.2989091    4.2989091   -30687.894    10917.929   -23216.109   -79765.503   -15914.805    38192.854    20921.909    79.446501 
   38400    1439.0086   -118.38291    1.3020452   -117.08087     -8969.21    4.2759657    4.2759657    4.2759657     -8969.21   -15340.116     17315.77   -28883.284   -5527.6067    56335.184    6156.3589    78.181254 
   38500    2523.8824    -119.3474    2.2836619   -117.06374     12310.46    4.2596421    4.2596421    4.2596421     12310.46    56564.317   -11002.634   -8630.3026    16822.383   -22660.346   -14587.233    77.289294 
   38600    930.06383   -117.95068    0.8415413   -117.10914    20098.867    4.2748993    4.2748993    4.2748993    20098.867    38008.193    45194.847   -22906.439   -14896.675    43482.703    3478.2607    78.122776 
   38700    1330.8029   -118.30239    1.2041385   -117.09825   -14842.035    4.2959303    4.2959303    4.2959303   -14842.035    16237.662   -548.73599   -60215.031   -5692.6254    42994.894   -3444.8213    79.281469 
   38800     2281.509   -119.11563    2.0643573   -117.05127    -26018.01    4.3043122    4.3043122    4.3043122    -26018.01   -27542.183   -4891.1572   -45620.689    14010.607    -20169.95   -211.53604    79.746438 
   38900    750.02602   -117.73178    0.6786393   -117.05314    25511.289    4.2889939    4.2889939    4.2889939    25511.289     6490.742    103073.72   -33030.591    8690.8892    44799.613    351.69855    78.898051 
   39000    1473.6157   -118.37307    1.3333584   -117.03971    15981.974    4.2741445    4.2741445    4.2741445    15981.974   -40399.664     18918.39    69427.195    5955.3179   -6639.0765     22495.37    78.081401 
   39100    1643.3151   -118.53963     1.486906   -117.05272    24256.791    4.2743815    4.2743815    4.2743815    24256.791    40242.285   -12656.837    45184.925   -267.54344   -10045.322    944.10553    78.094389 
   39200    933.83404   -117.93444   0.84495266   -117.08949    20581.473    4.2961488    4.2961488    4.2961488    20581.473    17035.868    12747.801    31960.749   -14288.604    52093.842   -15124.666    79.293567 
   39300    2045.8739   -118.91103    1.8511497   -117.05988   -39879.598    4.3093855    4.3093855    4.3093855   -39879.598   -49354.595   -40174.849   -30109.349    12205.036    1282.0348    5004.4035     80.02875 
   39400    1821.0369   -118.70953    1.6477124   -117.06182   -11338.681    4.2711792    4.2711792    4.2711792   -11338.681   -10671.499   -25743.204    2398.6591    4771.4257   -22712.875    4939.4965       77.919 
   39500     735.1356   -117.73764   0.66516614   -117.07248    38833.724    4.2488867    4.2488867    4.2488867    38833.724    87251.696    39877.523   -10628.046   -9370.9115    50305.072   -9859.0683    76.705315 
   39600    1333.5396   -118.31282    1.2066146   -117.10621   -30754.858     4.289694     4.289694     4.289694   -30754.858   -11969.509   -35438.703   -44856.362    7845.3965    27235.797   -11954.215    78.936696 
   39700     1894.941   -118.78302    1.7145824   -117.06844   -26536.839    4.2922871    4.2922871    4.2922871   -26536.839   -7288.2419   -49911.939   -22410.336    9226.3478     -6581.31    8155.3426    79.079933 
   39800    1260.5414   -118.20466    1.1405644   -117.06409   -18621.463    4.2782645    4.2782645    4.2782645   -18621.463   -3682.9616    6797.8054   -58979.231   -9978.1737    66120.826    8840.9041    78.307416 
   39900    1538.1639   -118.46413     1.391763   -117.07236   -14512.848    4.2674228    4.2674228    4.2674228   -14512.848   -18494.763    24388.286   -49432.068    13501.442     16362.51   -17855.465    77.713596 
   40000    1978.7313   -118.86709    1.7903977    -117.0767    5853.5907    4.2577474    4.2577474    4.2577474    5853.5907    19020.127   -13294.484     11835.13    11018.034   -24040.762     18399.54    77.186202 
   40100    864.51582   -117.89131   0.78223208   -117.10907    5232.6386    4.2804306    4.2804306    4.2804306    5232.6386   -12288.645    50755.424   -22768.863    6734.2279    54891.261    28033.639    78.426417 
   40200    1454.8458   -118.40685     1.316375   -117.09048   -16266.178    4.2969137    4.2969137    4.2969137   -16266.178   -43421.059   -20709.707    15332.231   -8633.8124    33600.257    3994.1741    79.335924 
   40300    2298.2532   -119.13671    2.0795078   -117.05721   -6020.5072    4.2835503    4.2835503    4.2835503   -6020.5072   -6847.3534   -27854.837    16640.669   -5243.9036   -25100.044   -4683.3938    78.598021 
   40400    1068.8004   -118.04469   0.96707307   -117.07761    17576.565    4.2707401    4.2707401    4.2707401    17576.565    11991.834    37841.174    2896.6866    6581.6159    43550.311    24104.374     77.89497 
   40500    897.93269   -117.90809   0.81246836   -117.09563   -4928.3493    4.2740189    4.2740189    4.2740189   -4928.3493   -33434.367     54981.47   -36332.151    2474.6847    59113.863    39697.605    78.074518 
   40600    2380.7811    -119.2289    2.1541807   -117.07472   -14603.582    4.2811543    4.2811543    4.2811543   -14603.582   -18437.823   -15316.164   -10056.759   -13869.344    -19595.82    6411.5612    78.466202 
   40700    1339.4959   -118.28997    1.2120041   -117.07797    -23703.52    4.2995707    4.2995707    4.2995707    -23703.52    -37653.97    25512.045   -58968.635   -8481.0487    39031.037   -2750.3382    79.483192 
   40800    1138.1767   -118.09529    1.0298462   -117.06545   -2825.8965    4.2789803    4.2789803    4.2789803   -2825.8965   -33867.673    41049.534   -15659.551   -8219.6895    34172.618    39072.628     78.34673 
   40900    1566.5157   -118.47911    1.4174163    -117.0617    37936.211    4.2527046    4.2527046    4.2527046    37936.211    37954.655    23767.952    52086.027   -4670.8623   -14228.461    29292.278    76.912272 
   41000    1771.0901   -118.69583    1.6025196   -117.09331   -10275.328    4.2698814    4.2698814    4.2698814   -10275.328   -30494.621    12721.123   -13052.487   -7965.5913     33904.33   -10797.171    77.847996 
   41100    1305.0051    -118.2707    1.1807961   -117.08991   -25511.229    4.2909133    4.2909133    4.2909133   -25511.229   -71179.848    11648.423   -17002.263   -5374.2981    50749.452    5016.0032    79.004026 
   41200    1148.5991   -118.11847    1.0392766    -117.0792   -13108.215    4.2859855    4.2859855    4.2859855   -13108.215     -12633.3   -28013.332    1321.9876    6501.1181   -3563.7274    48270.083    78.732148 
   41300    1794.8594   -118.68289    1.6240265   -117.05886   -563.41869    4.2738719    4.2738719    4.2738719   -563.41869    6250.7886   -14323.847    6382.8023   -2583.3457    1656.0327    1339.4131    78.066461 
   41400     1767.174   -118.66532    1.5989762   -117.06634   -5866.1931    4.2744264    4.2744264    4.2744264   -5866.1931   -39567.322    44266.685   -22297.942    -1799.239    24137.417   -14045.806     78.09685 
   41500    1001.5411   -117.98764   0.90621545   -117.08142   -12510.428    4.2833294    4.2833294    4.2833294   -12510.428   -27055.179   -18549.706    8073.6015    16542.822   -1204.1692    38477.392    78.585862 
   41600    1434.6196    -118.3688     1.298074   -117.07072     8236.367    4.2820633    4.2820633    4.2820633     8236.367   -15107.316   -27125.609    66942.026    32635.465   -7910.2338    228.50198    78.516198 
   41700    2155.9701    -119.0168     1.950767   -117.06603   -1992.5704    4.2791954    4.2791954    4.2791954   -1992.5704    21727.301   -20677.533   -7027.4791    1993.1338    1431.0709   -29292.298    78.358543 
   41800    1349.6254   -118.29577    1.2211695    -117.0746    6000.7414    4.2773629    4.2773629    4.2773629    6000.7414    54252.816   -38084.737     1834.145    1207.4712   -900.60123    31891.721    78.257917 
   41900     1355.422   -118.30759    1.2264143   -117.08118   -16406.927    4.2829148    4.2829148    4.2829148   -16406.927   -35610.333   -19135.986     5525.539    4631.4973   -2656.7214    17186.515    78.563045 
   42000    1551.2998    -118.4694    1.4036486   -117.06575   -15907.458     4.294807     4.294807     4.294807   -15907.458   -25987.384   -6728.0277   -15006.961   -3690.0473   -14351.414   -21684.873    79.219291 
   42100    1246.8046   -118.17825     1.128135   -117.05011    15276.347    4.2932915    4.2932915    4.2932915    15276.347    52763.906    28364.978   -35299.843    5261.1864   -4919.9431    38763.954    79.135459 
   42200    1889.7163   -118.74554     1.709855   -117.03568   -23851.641    4.3014886    4.3014886    4.3014886   -23851.641   -58001.328    25342.591   -38896.186   -3004.2741    12204.152   -9222.6305    79.589602 
   42300    1782.4675   -118.64202     1.612814    -117.0292   -6771.4993    4.3124891    4.3124891    4.3124891   -6771.4993    38717.048   -23889.823   -35141.723   -9253.6405   -4309.3679   -5813.7602    80.201785 
   42400    1017.5376   -117.94676   0.92068945   -117.02607    23331.744    4.3110278    4.3110278    4.3110278    23331.744    57020.286   -37315.727    50290.672    12070.162   -21009.197    27190.325    80.120279 
   42500    1784.7012   -118.62418    1.6148352   -117.00935   -36964.281    4.2997407    4.2997407    4.2997407   -36964.281   -52324.081   -22335.224   -36233.539    10864.827    11991.237   -19671.044    79.492616 
   42600    1036.0937   -117.95456   0.93747931   -117.01708   -1559.4526     4.283364     4.283364     4.283364   -1559.4526    4192.2401     16899.24   -25769.838   -7422.9094    8405.8468    19319.273    78.587766 
   42700    1091.7922   -118.03518   0.98787654   -117.04731    22854.229    4.2856717    4.2856717    4.2856717    22854.229    28028.818    50514.843   -9980.9744    22393.042   -16571.834    46495.524    78.714852 
   42800    2190.7256   -119.02475    1.9822146   -117.04254   -17431.224    4.2963124    4.2963124    4.2963124   -17431.224   -53823.557    24525.148   -22995.263    -3983.499    4108.5709   -6560.2682    79.302625 
   42900    1102.4716   -118.04817   0.99753947   -117.05063     2932.797    4.3076956    4.3076956    4.3076956     2932.797    25756.285    6720.7037   -23678.598   -13169.366    1255.4917    28390.575    79.934638 
   43000    1235.4708   -118.14436      1.11788   -117.02648    10671.262    4.3148783    4.3148783    4.3148783    10671.262    21547.181   -21798.171    32264.775    5921.3938    -9653.097    11078.499    80.335161 
   43100     1718.054   -118.55843    1.5545314    -117.0039   -8289.8773    4.3014624    4.3014624    4.3014624   -8289.8773   -4298.6494    -16504.61   -4066.3724    -31.45748    11132.898    7635.3389    79.588148 
   43200    1270.6353   -118.16095    1.1496975   -117.01126    12084.901    4.2918496    4.2918496    4.2918496    12084.901    23751.102    -19226.13     31729.73   -352.23021    8654.5304    41774.636    79.055753 
   43300    1750.2122   -118.61205    1.5836288   -117.02842    12868.746    4.3014553    4.3014553    4.3014553    12868.746    35439.744    25735.615    -22569.12    5476.1966    9899.5235   -13572.062     79.58775 
   43400     1454.494   -118.34732    1.3160567   -117.03126    9841.8344    4.2947337    4.2947337    4.2947337    9841.8344   -6618.7365    10677.679     25466.56    2503.8103    6345.3811    25493.137    79.215237 
   43500     1606.019   -118.49086    1.4531597    -117.0377    14966.904    4.2903322    4.2903322    4.2903322    14966.904    38661.064    -14509.41    20749.057   -7569.5248   -4546.8753    30613.349    78.971933 
   43600    1613.3971   -118.50032    1.4598356   -117.04049   -13283.942    4.3111607    4.3111607    4.3111607   -13283.942   -18174.373    11068.081   -32745.535    7710.4592   -6981.9096     -7026.47    80.127691 
   43700    1251.4231   -118.15844    1.1323139   -117.02613    20681.139    4.2920333    4.2920333    4.2920333    20681.139    73185.683    6307.4604   -17449.728    9781.5562    7689.6147    22319.012    79.065903 
   43800    1779.7825   -118.63441    1.6103846   -117.02402    17345.623    4.2852338    4.2852338    4.2852338    17345.623    21654.685    23605.881    6776.3025   -8001.4451   -2528.5444    2783.2627    78.690731 
   43900    1319.6257   -118.23652    1.1940251    -117.0425   -10875.714    4.3108609    4.3108609    4.3108609   -10875.714   -31897.932   -30779.064    30049.854    7846.5096   -37724.932    6477.2615    80.110976 
   44000    1892.2356   -118.73636    1.7121346   -117.02423    7215.2726    4.2877315    4.2877315    4.2877315    7215.2726    2771.4683    7112.3991     11761.95   -14867.874    17500.057    2062.3696    78.828404 
   44100    1612.5532   -118.49335     1.459072   -117.03428    14148.174    4.2785292    4.2785292    4.2785292    14148.174   -5838.8092    48069.082    214.24965   -1977.0963    360.55543   -5940.7678     78.32195 
   44200    1214.0172   -118.15618    1.0984683   -117.05771   -17596.782    4.2996748    4.2996748    4.2996748   -17596.782    -29962.47    665.10506   -23492.981    13264.207   -40624.416    5150.9906    79.488965 
   44300    1775.5665   -118.65421    1.6065699   -117.04764    4377.7699    4.2837479    4.2837479    4.2837479    4377.7699   -7894.0399    -4776.925    25804.275   -2940.1861   -2365.2957   -7888.5783      78.6089 
   44400    1823.0215    -118.7124    1.6495082   -117.06289   -12555.196     4.275849     4.275849     4.275849   -12555.196   -24201.553   -6458.5811   -7005.4544    -5009.158   -10612.915   -21920.627    78.174856 
   44500    1260.4535    -118.2294    1.1404848   -117.08892   -25990.241    4.2829993    4.2829993    4.2829993   -25990.241   -28480.477     10861.64   -60351.887    275.10171   -49487.779   -20600.382    78.567696 
   44600    1837.9849   -118.75028    1.6630473   -117.08723    342.24696    4.2791328    4.2791328    4.2791328    342.24696   -22015.365    12996.695    10045.411    6369.1059    -10913.27    2081.9517    78.355102 
   44700    1873.7921   -118.78295    1.6954465    -117.0875   -22405.759    4.2867835    4.2867835    4.2867835   -22405.759   -43918.063   -12889.261   -10409.954    -1129.327    2744.8961   -5844.3114     78.77613 
   44800    1120.8679   -118.10106    1.0141848   -117.08688    5688.7446    4.2805507    4.2805507    4.2805507    5688.7446    22653.642    8047.4031   -13634.811   -3908.8802   -37214.848   -28618.267    78.433019 
   44900    1699.0743   -118.62545    1.5373581   -117.08809   -1085.2493    4.2751516    4.2751516    4.2751516   -1085.2493   -2739.2794    13617.696   -14134.165   -9347.3712   -21631.168   -19829.655     78.13661 
   45000    1898.2698   -118.81126    1.7175944   -117.09367    -16879.74     4.286328     4.286328     4.286328    -16879.74    -18039.13   -9571.9609   -23028.127    4159.9231     16614.77    2312.5305    78.751023 
   45100    1006.4025   -118.00037   0.91061414   -117.08975    2009.9799    4.2910295    4.2910295    4.2910295    2009.9799    39513.572   -4618.6559   -28864.976    3382.4338   -5798.2596    7133.0098    79.010441 
   45200    1473.0783   -118.40318    1.3328722   -117.07031    3839.3729    4.2783425    4.2783425    4.2783425    3839.3729   -8971.9381    24047.158   -3557.1016    -15192.25   -26716.878   -23557.885    78.311698 
   45300    1748.8633   -118.65628    1.5824083   -117.07387     1649.936    4.2683539    4.2683539    4.2683539     1649.936   -8519.0897   -3534.3016    17003.199    3036.8834    25350.259    2805.7748    77.764476 
   45400    1024.4049   -118.02777   0.92690312   -117.10087   -3399.1546    4.2768468    4.2768468    4.2768468   -3399.1546    28177.879   -25252.022   -13123.321   -194.37716    34127.786    20171.419    78.229593 
   45500    1662.4089    -118.5977    1.5041825   -117.09352   -20723.566    4.2922144    4.2922144    4.2922144   -20723.566   -5012.5917    -25947.29   -31210.816   -2941.8208   -1342.7415    2851.6145    79.075917 
   45600    1740.7155   -118.64698     1.575036   -117.07195    -26331.44    4.3002485    4.3002485    4.3002485    -26331.44   -42330.005    16504.122   -53168.438    27153.014    1709.4967   -3684.2349    79.520788 
   45700    943.37818   -117.92964    0.8535884   -117.07605     12451.17    4.2853769    4.2853769    4.2853769     12451.17   -13703.044     65294.82   -14238.265    15700.383    30776.895    7180.0985     78.69861 
   45800    1695.8312    -118.6013    1.5344237   -117.06688    18718.759    4.2747535    4.2747535    4.2747535    18718.759    4950.3834    36584.434     14621.46   -594.70881   -3996.9761    12960.145    78.114783 
   45900    2291.2984   -119.14114     2.073215   -117.06792    781.14178    4.2760408    4.2760408    4.2760408    781.14178    5166.4589   -7215.7945     4392.761   -10482.187   -9664.6547    7718.0684    78.185376 
   46000    984.02932   -117.97897   0.89037041    -117.0886     35123.87    4.2813895    4.2813895    4.2813895     35123.87    48549.122    54792.264    2030.2244    307.23889    24391.005   -4877.4845    78.479136 
   46100    1330.6306   -118.29064    1.2039825   -117.08666   -12306.097    4.3056237    4.3056237    4.3056237   -12306.097   -12276.043    936.53466   -25578.783    10121.256    6086.3397   -13051.006    79.819356 
   46200    1781.4736   -118.66653    1.6119147   -117.05461   -14440.834    4.3003031    4.3003031    4.3003031   -14440.834   -16377.526   -22043.682   -4901.2944   -17291.195   -6956.9943   -6282.2704    79.523816 
   46300    1077.6288   -118.02417   0.97506114   -117.04911    42659.582    4.2770427    4.2770427    4.2770427    42659.582    30935.789    32934.257    64108.699   -5994.3285    54908.897    1594.3933    78.240347 
   46400    2123.0936   -118.97216    1.9210197   -117.05114   -3800.0615     4.277333     4.277333     4.277333   -3800.0615   -24540.481   -20582.213    33722.509    4135.0009    13477.834    12264.165    78.256276 
   46500    1770.9239   -118.67412    1.6023692   -117.07175    5140.7355    4.2752232    4.2752232    4.2752232    5140.7355    45573.341   -33373.621    3222.4865     -16833.9    -32164.64   -22696.372    78.140533 
   46600    966.13589   -117.97041   0.87418005   -117.09623    3529.9788    4.2776407    4.2776407    4.2776407    3529.9788    49124.346   -2974.3379   -35560.071   -4073.8809    31861.237   -28573.609    78.273166 
   46700    1769.5309   -118.67873    1.6011087   -117.07762   -9573.6931    4.2719791    4.2719791    4.2719791   -9573.6931   -47274.423    2717.0467    15836.297    1044.8667    28734.659    5849.1565    77.962788 
   46800    1633.2733   -118.56432      1.47782    -117.0865    13530.132    4.2682478    4.2682478    4.2682478    13530.132    7088.8351   -7482.9572    40984.518   -11024.368   -40627.333    1097.6137    77.758678 
   46900    1366.4869   -118.33435    1.2364261   -117.09792    11507.193    4.2770278    4.2770278    4.2770278    11507.193    25453.344    6253.1597    2815.0757   -11701.154   -10400.304   -15091.682    78.239529 
   47000         1952   -118.84107    1.7662106   -117.07486   -7626.9235    4.2850387    4.2850387    4.2850387   -7626.9235   -38238.729    8771.2417     6586.717    944.70427    22943.833   -563.05369    78.679979 
   47100    1149.5822   -118.11709    1.0401661   -117.07692    28163.936    4.2825988    4.2825988    4.2825988    28163.936    11133.571    41934.346    31423.892    545.91674   -46712.251   -13945.516    78.545656 
   47200    1174.3301    -118.1306    1.0625586   -117.06804    7505.8298    4.2972444    4.2972444    4.2972444    7505.8298   -37777.334    15799.599    44495.224    2514.2149   -18201.543   -1467.6702    79.354244 
   47300    1900.8208   -118.75256    1.7199026   -117.03265   -15137.788    4.3062515    4.3062515    4.3062515   -15137.788   -9853.0951    2260.3197   -37820.589    4963.7302    1855.3516     11580.75    79.854275 
   47400    936.31655   -117.87596   0.84719889   -117.02876     33170.48    4.2928491    4.2928491    4.2928491     33170.48    44917.199    92405.546   -37811.306   -20587.633   -40015.661   -13200.648    79.110997 
   47500    1891.1407   -118.72913    1.7111438   -117.01798   -10767.395    4.2839492    4.2839492    4.2839492   -10767.395     22732.81    1615.2332   -56650.228    531.40054    22807.366    13919.426    78.619983 
   47600    1578.1104   -118.46293    1.4279074   -117.03502   -1743.5649    4.2849903    4.2849903    4.2849903   -1743.5649     -21212.4   -7148.9174    23130.623   -206.54313   -5254.2261   -5388.8315    78.677317 
   47700    652.55271   -117.65224   0.59044341   -117.06179    14242.467    4.2963746    4.2963746    4.2963746    14242.467   -30873.904    28337.008    45264.297   -1494.5816   -53718.506   -21297.143    79.306069 
   47800     2030.688   -118.86057    1.8374092   -117.02316   -36214.308     4.304569     4.304569     4.304569   -36214.308   -70416.074   -45766.415    7539.5648    2301.3623    14386.504    16151.576    79.760709 
   47900    1302.1652   -118.20379    1.1782264   -117.02556   -1746.9988    4.2974015    4.2974015    4.2974015   -1746.9988   -12769.343    50721.119   -43192.772   -19711.289   -41147.874    16737.286    79.362949 
   48000    1121.6797   -118.04864    1.0149194   -117.03372     20381.15    4.2960097    4.2960097    4.2960097     20381.15   -10826.674     92485.16   -20515.037    7742.4447   -22822.493   -14937.795    79.285862 
   48100    2065.5784   -118.89589    1.8689787   -117.02691   -19422.956    4.2918943    4.2918943    4.2918943   -19422.956   -9320.3477   -31181.967   -17766.552    23104.477    30849.239   -3759.5992    79.058224 
   48200    1366.2396   -118.29937    1.2362023   -117.06317    -25934.09    4.2802581    4.2802581    4.2802581    -25934.09   -68451.173    10992.318   -20343.415    1493.1809   -46259.629    1702.9761    78.416934 
   48300    1234.7405   -118.20995    1.1172192   -117.09273    14501.848    4.2720849    4.2720849    4.2720849    14501.848     17026.71    9674.4221    16804.413   -330.07523   -24431.149   -4059.7439    77.968581 
   48400    1897.5484   -118.81834    1.7169417    -117.1014    -14543.78     4.287985     4.287985     4.287985    -14543.78   -34700.449   -44805.477    35874.586    5474.8629    25714.241   -4276.6916    78.842389 
   48500    854.69593   -117.87658   0.77334684   -117.10324   -5614.1637        4.294        4.294        4.294   -5614.1637   -40187.278    16548.025    6796.7619   -6901.5115   -37910.086    8389.5538    79.174647 
   48600     1424.234   -118.36717    1.2886769    -117.0785     12934.86    4.2700076    4.2700076    4.2700076     12934.86    7309.6745     12553.72    18941.185   -8762.8072   -35499.577   -1669.8367    77.854901 
   48700    2231.9747   -119.09259    2.0195376   -117.07305    16938.421    4.2684312    4.2684312    4.2684312    16938.421    38763.276   -16338.556    28390.544   -4673.4134    38298.383   -3675.8353    77.768703 
   48800    1235.2544   -118.21471    1.1176841   -117.09702    19745.616    4.2888746    4.2888746    4.2888746    19745.616    22189.176    32369.895     4677.776    3310.6006   -7546.8202   -13424.017    78.891467 
   48900    1080.4512   -118.05798   0.97761496   -117.08036    7216.1839    4.3053688    4.3053688    4.3053688    7216.1839   -36567.065    65283.832   -7068.2156    16667.063   -29117.863   -2397.8012    79.805177 
   49000    1556.4257   -118.45942    1.4082867   -117.05114    10554.612    4.2926655    4.2926655    4.2926655    10554.612    15539.131    8767.8462    7356.8595   -19754.633    973.77541    1683.9867    79.100848 
   49100    1600.2591   -118.51227     1.447948   -117.06433    13028.867    4.2694355    4.2694355    4.2694355    13028.867    37177.942    698.78096    1209.8789    -25800.56   -14891.912   -6554.2961    77.823611 
   49200    1536.5079   -118.48557    1.3902647   -117.09531    21043.456    4.2752613    4.2752613    4.2752613    21043.456    55492.345    41056.173    -33418.15    5608.6862   -19166.198    9046.0922    78.142626 
   49300    1414.4684   -118.37764    1.2798407    -117.0978     -33038.9    4.3106874    4.3106874    4.3106874     -33038.9   -60966.152   -19410.396   -18740.153    8907.6652    16119.909   -160.27844    80.101305 
   49400    1782.1448   -118.67078     1.612522   -117.05826   -19870.817     4.301522     4.301522     4.301522   -19870.817   -48424.045   -9640.0785   -1548.3274   -14086.336    190.75805   -10913.634    79.591453 
   49500    1597.2288   -118.47973    1.4452062   -117.03452    9759.5863    4.2645838    4.2645838    4.2645838    9759.5863   -20467.661    72605.668   -22859.249    14075.778   -19072.029    3722.5304    77.558598 
   49600    1127.7758   -118.10888    1.0204353   -117.08845   -2529.6029    4.2769326    4.2769326    4.2769326   -2529.6029    1501.2847     3651.703   -12741.797    13468.901    5603.3171    9649.9572    78.234303 
   49700    2169.8276   -119.03198    1.9633056   -117.06867   -34441.036    4.2974655    4.2974655    4.2974655   -34441.036   -13008.929   -66829.908   -23484.271   -3933.7562    23180.088   -5094.1133    79.366497 
   49800    1632.4843   -118.53924    1.4771061   -117.06214    1629.8396    4.2880148    4.2880148    4.2880148    1629.8396   -10236.467    37220.166    -22094.18    13153.478   -18967.537      9271.18    78.844031 
   49900    1027.7115   -117.98982   0.92989494   -117.05993   -11632.502    4.2791646    4.2791646    4.2791646   -11632.502   -32521.629    1413.8342   -3789.7102    14023.858   -5233.8068    947.12453    78.356852 
   50000    1823.5763   -118.70323    1.6500102   -117.05322    16795.739    4.2623623    4.2623623    4.2623623    16795.739   -7309.9936    32710.866    24986.343   -19713.512    23857.667    -9540.955    77.437455 
   50100     1542.625   -118.48439    1.3957995   -117.08859   -6271.6532    4.2728441    4.2728441    4.2728441   -6271.6532   -20997.047   -10801.623     12983.71     11046.84   -11574.722    9142.9282    78.010155 
   50200    791.09704    -117.8133   0.71580123    -117.0975    -33325.14    4.2945086    4.2945086    4.2945086    -33325.14   -43372.432   -63733.602    7130.6146    22913.538   -25435.165    16283.414    79.202781 
   50300     2143.586   -119.01345    1.9395617   -117.07389   -1999.9602    4.2733604    4.2733604    4.2733604   -1999.9602   -21422.759    7179.9606    8242.9182   -6783.9764    6215.3525   -13430.865    78.038437 
   50400    1777.5806   -118.68415    1.6083923   -117.07576    13599.115    4.2610922    4.2610922    4.2610922    13599.115    2590.8957    24575.219     13631.23     6118.027     9193.608   -12506.287    77.368253 
   50500    807.96003   -117.83378   0.73105922   -117.10272    15653.618    4.2646955    4.2646955    4.2646955    15653.618    20906.023    28841.102   -2786.2712    38416.416    -21885.09    13381.601    77.564692 
   50600     1473.276   -118.43798    1.3330511   -117.10493   -3136.8691    4.2754953    4.2754953    4.2754953   -3136.8691   -6457.4177   -6423.0449    3469.8553    18197.482   -12216.495    2386.9248    78.155455 
   50700    2028.9765   -118.92291    1.8358606   -117.08705   -6936.4722    4.2805416    4.2805416    4.2805416   -6936.4722    5953.1223   -17890.682   -8871.8574   -21104.488    12248.775   -7702.6411     78.43252 
   50800    1224.9015   -118.20119    1.1083166   -117.09287    3847.7758    4.2799745    4.2799745    4.2799745    3847.7758   -9443.9754    29656.427   -8669.1238    22556.312   -3897.9198    1741.0399    78.401348 
   50900     1632.121   -118.54779    1.4767774   -117.07101   -7119.7715    4.2743028    4.2743028    4.2743028   -7119.7715    8101.0877   -29473.758    13.356295     29763.48   -2656.1431   -470.37024     78.09008 
   51000    1698.2113   -118.60502    1.5365773   -117.06844   -3342.7929    4.2739682    4.2739682    4.2739682   -3342.7929    14403.286   -18731.551   -5700.1139   -28410.851    12275.428   -11355.586    78.071738 
   51100    816.12195   -117.82677   0.73844429   -117.08832   -15389.936     4.291263     4.291263     4.291263   -15389.936   -20155.719   -16082.781   -9931.3065   -1426.8693   -1782.7448    22164.023    79.023342 
   51200    1740.6239   -118.63581    1.5749531   -117.06086   -5532.6357     4.283228     4.283228     4.283228   -5532.6357   -5223.7356   -10966.709   -407.46234    21371.498   -5239.8974    3719.0333    78.580283 
   51300    2162.4336    -119.0065    1.9566154   -117.04989   -8620.1684    4.2775351    4.2775351    4.2775351   -8620.1684   -35492.808    17054.402   -7422.0993   -15093.499    7977.4581   -3451.3076    78.267372 
   51400    823.41347   -117.81591   0.74504181   -117.07086   -24559.081    4.2848205    4.2848205    4.2848205   -24559.081   -34012.032    20720.704   -60385.915    4872.7368   -7093.6814    163.15977    78.667963 
   51500    1256.2229   -118.20886    1.1366569   -117.07221   -11362.531    4.2871855    4.2871855    4.2871855   -11362.531    5219.7989    5973.1312   -45280.523    19622.978   -14850.341    6930.5506    78.798295 
   51600    2199.1248   -119.05445    1.9898143   -117.06464   -24174.547    4.2872094    4.2872094    4.2872094   -24174.547   -32350.489      9489.39   -49662.543   -12168.352    14315.021    13326.559    78.799611 
   51700    1597.7582   -118.52505    1.4456852   -117.07937   -280.64908    4.2725114    4.2725114    4.2725114   -280.64908    11258.326    15462.112   -27562.386     3252.458   -12375.455    13591.793    77.991934 
   51800    983.50969   -117.98618   0.88990024   -117.09628    12147.895    4.2645189    4.2645189    4.2645189    12147.895    48037.013   -14361.565    2768.2385    12755.573   -30754.036    12020.433    77.555057 
   51900    1468.8673   -118.42757     1.329062   -117.09851    1029.5622    4.2723714    4.2723714    4.2723714    1029.5622    46849.205    -13613.65   -30146.869   -1562.4662    5453.2236   -10381.395     77.98427 
   52000    1361.4884   -118.33016    1.2319033   -117.09825   -8303.9186    4.2943862    4.2943862    4.2943862   -8303.9186    32632.692   -721.61901   -56822.829    2320.0923    -7332.644   -10884.805    79.196008 
   52100    1577.2926   -118.50489    1.4271675   -117.07773   -20292.407    4.2912876    4.2912876    4.2912876   -20292.407    -43603.65   -13592.556   -3681.0155    13666.953   -36092.179    2097.6438    79.024701 
   52200    2158.6277    -119.0048    1.9531717   -117.05162     8383.819    4.2613486    4.2613486    4.2613486     8383.819   -10635.656    2033.2783    33753.834    7497.6302    9513.0662   -15349.085    77.382219 
   52300    1235.3771   -118.20665    1.1177951   -117.08886   -7853.4225    4.2777628    4.2777628    4.2777628   -7853.4225    27797.393   -4210.1811    -47147.48    4570.7456   -277.27431   -24487.001     78.27987 
   52400    1058.9409   -118.03301   0.95815201   -117.07485   -11949.619    4.2976563    4.2976563    4.2976563   -11949.619   -24095.809    14333.236   -26086.285   -2943.0054    -6814.901    -294.5866    79.377067 
   52500    1632.1359   -118.53267    1.4767909   -117.05588    16339.891     4.280936     4.280936     4.280936    16339.891   -17684.675    36859.561    29844.786    12693.637    7217.8345    17745.637    78.454199 
   52600    1847.4775   -118.73623    1.6716365   -117.06459   -21778.115    4.2772899    4.2772899    4.2772899   -21778.115   -33690.464    7202.2275   -38846.108   -6001.6537    21220.855    5478.2058    78.253913 
   52700    1536.3001   -118.46101    1.3900766   -117.07093   -9812.9743    4.2729909    4.2729909    4.2729909   -9812.9743    7159.4848   -11954.242   -24644.166   -18646.576    19530.492   -10136.679    78.018197 
   52800    1005.9202   -118.00055   0.91017773   -117.09037    17199.789     4.276507     4.276507     4.276507    17199.789    31847.108   -2549.5444    22301.803    28527.415     3982.543   -1855.5299    78.210949 
   52900    1259.1985   -118.22065    1.1393493    -117.0813   -10386.529    4.2932574    4.2932574    4.2932574   -10386.529    15582.496   -24783.426   -21958.658    8544.1389    3139.8263    13828.856    79.133574 
   53000    2165.4038   -119.00352    1.9593029   -117.04421   -34079.169    4.2938982    4.2938982    4.2938982   -34079.169   -29822.327   -41915.631   -30499.548   -12141.701    21702.731   -18700.231    79.169011 
   53100    1157.5877   -118.10155    1.0474097   -117.05414    7057.3168    4.2876518    4.2876518    4.2876518    7057.3168   -86012.323    10787.603    96396.671     33389.81    10846.276    4733.8835    78.824011 
   53200    1373.2385   -118.29521     1.242535   -117.05268    26087.242    4.2795096    4.2795096    4.2795096    26087.242    -19555.54    37205.827    60611.439    3792.6805   -4755.1468    33904.684    78.375807 
   53300    1812.2324   -118.69252    1.6397459   -117.05278   -22611.556     4.293439     4.293439     4.293439   -22611.556   -16755.905   -46145.469   -4933.2943    3099.1368    -4829.528    1204.3954    79.143618 
   53400    1307.8702   -118.22676    1.1833884   -117.04337   -20444.271    4.3049112    4.3049112    4.3049112   -20444.271   -19201.428   -25231.064    -16900.32    31329.506    -4013.404   -1713.7372    79.779736 
   53500    1306.5813   -118.21212    1.1822223    -117.0299    11189.047    4.2906725    4.2906725    4.2906725    11189.047    22555.585    14476.726   -3465.1702    10553.476    397.99499     15851.18    78.990724 
   53600    1808.9698   -118.67041    1.6367939   -117.03362   -10794.268    4.2807166    4.2807166    4.2807166   -10794.268   -1699.6764    3693.7194   -34376.848    -9333.456    21203.397   -4402.7979    78.442137 
   53700    1532.8993   -118.45265    1.3869995   -117.06565   -4565.0498    4.2956232    4.2956232    4.2956232   -4565.0498   -25980.907   -4770.5808    17056.338     12437.34    2793.1668   -3260.6319    79.264464 
   53800    1761.9875   -118.65015    1.5942833   -117.05587   -6358.4441    4.3022312    4.3022312    4.3022312   -6358.4441   -14488.305   -4641.7984    54.771415    5428.4512   -11586.792    7017.3289    79.630829 
   53900    1426.7862   -118.33429    1.2909862    -117.0433    12984.331    4.2775945    4.2775945    4.2775945    12984.331    38156.539    22079.267   -21282.815   -4328.6291    3745.6138   -21308.063    78.270633 
   54000    1367.8115   -118.30394    1.2376246   -117.06632   -24130.793    4.2725304    4.2725304    4.2725304   -24130.793   -11613.663   -26555.436   -34223.279    30962.803   -681.00945   -16114.347    77.992973 
   54100     1625.684   -118.55895     1.470953     -117.088   -28809.475    4.2868042    4.2868042    4.2868042   -28809.475   -68284.502   -34946.983    16803.059    9859.0811   -17361.052   -7103.7477    78.777271 
   54200    1832.2382   -118.74115    1.6578477    -117.0833    -5048.803    4.2756327    4.2756327    4.2756327    -5048.803    -35589.13   -16026.264    36468.985   -30489.429    9124.6553    8111.2069     78.16299 
   54300    979.39357   -117.97827   0.88617588   -117.09209    1151.0205    4.2699245    4.2699245    4.2699245    1151.0205   -30866.124    8862.3641    25456.821    36018.247    493.65824    14613.052    77.850354 
   54400    1198.3555   -118.18705    1.0842972   -117.10275    6159.2977    4.2726633    4.2726633    4.2726633    6159.2977   -7171.8203    5348.9954    20300.718    35047.154    5084.8792       4896.9    78.000252 
   54500    1899.9561   -118.81448    1.7191202   -117.09536      13219.4    4.2807332    4.2807332    4.2807332      13219.4    52511.262     13294.34   -26147.401   -33264.934    1914.9957   -8161.9987    78.443053 
   54600    1831.4178   -118.74213    1.6571053   -117.08503   -1165.4546    4.2981489    4.2981489    4.2981489   -1165.4546    22655.766   -39104.594    12952.464   -405.08604   -14046.554   -1826.6025    79.404366 
   54700    1494.7457   -118.40998    1.3524773   -117.05751   -22802.737    4.2969536    4.2969536    4.2969536   -22802.737    17367.903   -55082.732   -30693.383     28388.29     -3060.63    5431.4112    79.338134 
   54800    1011.2042   -117.96321   0.91495881   -117.04825    2971.6712    4.2811944    4.2811944    4.2811944    2971.6712    44523.073    17777.971    -53386.03   -12044.516    1183.7487    1094.3896    78.468407 
   54900     1300.083   -118.23945    1.1763425   -117.06311   -12384.324    4.2763546    4.2763546    4.2763546   -12384.324   -10090.942    2220.2573   -29282.288   -30109.188   -5400.1973    5546.9614     78.20259 
   55000    2094.8614   -118.97191    1.8954746   -117.07644    12090.028     4.259973     4.259973     4.259973    12090.028    1288.9823    12959.032     22022.07    16253.747   -2744.9966    11405.179    77.307308 
   55100    1808.2657   -118.74385    1.6361568    -117.1077   -5279.6393    4.2695891    4.2695891    4.2695891   -5279.6393    38.031948   -12768.898   -3108.0516    23276.574    865.54679     74.92008    77.832012 
   55200    1084.0722   -118.09122   0.98089128   -117.11033   -10515.997    4.2765221    4.2765221    4.2765221   -10515.997    30240.151   -36679.466   -25108.676   -15827.564    13718.117    6144.5892     78.21178 
   55300    864.69374   -117.89655   0.78239307   -117.11416    44014.538    4.2612593    4.2612593    4.2612593    44014.538    64532.389    45843.632    21667.593   -15580.847   -17875.998   -1139.7916    77.377357 
   55400    1844.2002    -118.7806    1.6686711   -117.11192    946.32208    4.2651187    4.2651187    4.2651187    946.32208   -23793.404    10361.182    16271.189    7462.8802    -15286.39   -14456.159    77.587789 
   55500    2059.0648   -118.96948    1.8630851    -117.1064    2503.4186    4.2690003    4.2690003    4.2690003    2503.4186    24511.261   -15715.845   -1285.1604    15159.298    21148.666   -7819.8251    77.799816 
   55600    1203.3212   -118.20028    1.0887903   -117.11149    11119.772    4.2725321    4.2725321    4.2725321    11119.772    46218.014    2833.2188   -15691.916    202.50634    17114.476   -3358.6577    77.993069 
   55700    1213.2288   -118.20366    1.0977549   -117.10591    17912.189    4.2726268    4.2726268    4.2726268    17912.189     56644.28     21874.48   -24782.194    -18509.19   -28089.674   -8094.7414    77.998255 
   55800    1522.4323   -118.47723    1.3775287    -117.0997    8988.1058     4.278764     4.278764     4.278764    8988.1058    58958.576   -7593.1882    -24401.07    11131.016   -3867.3362   -15868.451     78.33485 
   55900    1822.3725   -118.73493     1.648921   -117.08601   -3523.2716    4.2728292    4.2728292    4.2728292   -3523.2716    15919.854   -22113.894   -4375.7749    25435.327    9471.8089   -10452.217    78.009342 
   56000    1531.4941   -118.47411    1.3857281   -117.08838    1303.4094    4.2678322    4.2678322    4.2678322    1303.4094    17835.152    4146.4351   -18071.359    8605.9599   -9589.0967    10142.077    77.735969 
   56100    1415.2633   -118.37463      1.28056   -117.09407   -27757.088    4.2796384    4.2796384    4.2796384   -27757.088    14368.956   -26986.772   -70653.449    513.33392   -9503.6236   -9232.9848    78.382881 
   56200    1185.0041   -118.17263    1.0722166   -117.10042   -24050.315    4.2782152    4.2782152    4.2782152   -24050.315    26392.841   -57562.955    -40980.83     2574.585   -164.45639   -25539.657    78.304709 
   56300     1910.845   -118.82414    1.7289727   -117.09517   -9480.4455    4.2617863    4.2617863    4.2617863   -9480.4455    3340.7229   -35460.895     3678.836    22652.397    13352.667    5759.4277    77.406069 
   56400    1766.8181   -118.70752    1.5986541   -117.10887   -20328.034    4.2684315    4.2684315    4.2684315   -20328.034    28273.422   -50560.793   -38696.731   -3704.2078   -1847.3897    797.33398    77.768719 
   56500      1269.16   -118.25563    1.1483626   -117.10727   -37591.581    4.2859943    4.2859943    4.2859943   -37591.581    30283.167   -68383.748   -74674.162   -4698.5262   -263.49877   -28353.862     78.73263 
   56600    1258.5631   -118.24288    1.1387743    -117.1041   -3215.2333    4.2682448    4.2682448    4.2682448   -3215.2333    10933.305   -14339.555   -6239.4498    31613.493    14288.327    -9079.039    77.758513 
   56700     1789.063    -118.7179    1.6187818   -117.09912    25336.299    4.2538932    4.2538932    4.2538932    25336.299    35423.501    30942.318    9643.0769    30472.583    13331.105    12650.425    76.976782 
   56800    1317.4214     -118.304    1.1920306   -117.11197    5214.8375    4.2781017    4.2781017    4.2781017    5214.8375    58367.503     3801.314   -46524.304   -4346.6508    -5614.996   -17144.468    78.298479 
   56900    1052.5116   -118.05048   0.95233462   -117.09815    -18388.65    4.2882435    4.2882435    4.2882435    -18388.65    16898.166    -36977.92   -35086.196   -5583.2901   -11154.315    -12652.63    78.856647 
   57000     1450.594   -118.39668    1.3125279   -117.08415   -10177.093    4.2813957    4.2813957    4.2813957   -10177.093   -13614.026   -10787.825   -6129.4288    15433.993   -682.02021    9500.9029    78.479475 
   57100    2143.8118   -119.01367     1.939766    -117.0739   -15474.141    4.2832791    4.2832791    4.2832791   -15474.141   -29245.674    12916.331   -30093.082    5469.7057    572.68477    1285.4656    78.583093 
   57200    1776.6805   -118.67943    1.6075778   -117.07185    4187.9138     4.273169     4.273169     4.273169    4187.9138    50807.106    710.49378   -38953.858   -5278.2718   -6590.4284   -13376.611     78.02795 
   57300    777.96286   -117.79684   0.70391715   -117.09293    22964.798    4.2680854    4.2680854    4.2680854    22964.798    28905.266    35037.024    4952.1035    37342.476   -1938.5551    758.76423    77.749803 
   57400    1174.0076   -118.16404    1.0622667   -117.10178   -11550.704     4.281593     4.281593     4.281593   -11550.704    -16021.39   -6182.6329   -12448.089    28822.929    7112.5593    10453.132    78.490327 
   57500    2210.1964   -119.08857    1.9998321   -117.08874   -21278.812    4.2861681    4.2861681    4.2861681   -21278.812   -16751.691   -21300.132   -25784.613   -13126.497    965.87635    9664.0595     78.74221 
   57600    1854.6846   -118.76051    1.6781576   -117.08235    4913.0719    4.2846215    4.2846215    4.2846215    4913.0719   -42393.256    2358.0554    54774.416    12576.846    6400.0955   -14652.555    78.656999 
   57700    833.24248   -117.83417   0.75393531   -117.08024    19792.787    4.2873959    4.2873959    4.2873959    19792.787    799.02412   -25914.983    84494.322    26682.196    9806.8638    3642.5946    78.809897 
   57800     1263.148   -118.21024    1.1429228   -117.06732   -846.63883    4.2857259    4.2857259    4.2857259   -846.63883     11892.01   -35606.811    21174.885   -12188.944   -1346.2112    16415.819    78.717841 
   57900     1937.116   -118.81686    1.7527433   -117.06412   -14996.198    4.2920462    4.2920462    4.2920462   -14996.198    -31022.06   -20460.449    6493.9153    3762.1378   -11914.781    -5917.056    79.066619 
   58000    1406.8259   -118.33888    1.2729256   -117.06595    529.82753    4.2989095    4.2989095    4.2989095    529.82753    40480.415   -35149.185   -3741.7471    13927.617    6816.0905    4697.1855    79.446528 
   58100     1396.958   -118.32044     1.263997   -117.05644    11723.224    4.2796243    4.2796243    4.2796243    11723.224    89711.713   -26107.265   -28434.777    3491.2416    20320.948    20743.723    78.382108 
   58200    1768.8469   -118.65709    1.6004899    -117.0566    5226.6039    4.2729314    4.2729314    4.2729314    5226.6039    34532.475    21781.827   -40634.491   -6856.5658    432.57179   -1607.6475    78.014938 
   58300    1619.5694   -118.54946    1.4654204   -117.08404    -23978.08    4.2922836    4.2922836    4.2922836    -23978.08   -9267.7645   -48355.188   -14311.286    11693.781    865.22654   -4627.0264    79.079741 
   58400    1159.9903   -118.13999    1.0495836   -117.09041    28542.561    4.2907616    4.2907616    4.2907616    28542.561    17293.145     43433.55    24900.989    4423.4938    11599.589    23814.706    78.995644 
   58500    1633.9185   -118.55913    1.4784038   -117.08073    9488.8677    4.2802241    4.2802241    4.2802241    9488.8677   -18151.706    19231.198     27387.11   -2246.9459    9582.9291    4174.0415    78.415068 
   58600    1841.4659   -118.73715     1.666197   -117.07096   -13689.679    4.2721776    4.2721776    4.2721776   -13689.679   -8276.6836    2061.1186   -34853.473    2095.9611   -5537.5562   -12218.212    77.973655 
   58700    1031.2695   -118.03111   0.93311434     -117.098    4500.7756    4.2829188    4.2829188    4.2829188    4500.7756    41662.515    23256.301   -51416.489    3954.4451    -10420.36     21169.76    78.563263 
   58800    1275.8092   -118.24148     1.154379   -117.08711    7318.0569    4.2983764    4.2983764    4.2983764    7318.0569    58499.234   -20249.871   -16295.193    6602.1273     2208.237    3177.4995    79.416973 
   58900    1926.5011   -118.80463    1.7431387   -117.06149   -14688.014    4.3012921    4.3012921    4.3012921   -14688.014    10907.455   -31542.578   -23428.918   -10235.692     7145.903    -11190.89    79.578695 
   59000    2120.1841   -118.96857    1.9183871   -117.05018   -21267.618    4.2850631    4.2850631    4.2850631   -21267.618   -50815.872   -689.30512   -12297.678   -4045.0108    8607.2371    7219.3289    78.681327 
   59100    1225.4703   -118.17369    1.1088313   -117.06486   -4424.1762    4.2777607    4.2777607    4.2777607   -4424.1762    7850.8161    11756.264   -32879.608    4585.6002    173.13665    209.76287    78.279755 
   59200    777.24971   -117.78647   0.70327188   -117.08319   -6298.1815     4.291559     4.291559     4.291559   -6298.1815    11300.924   -18659.705   -11535.763   -9227.0067    9102.8685   -5884.2653    79.039696 
   59300    1726.1419   -118.63741    1.5618495   -117.07556   -11865.163    4.2825653    4.2825653    4.2825653   -11865.163   -14044.416   -16809.976   -4741.0973    3486.4866    21003.858    6833.2825    78.543815 
   59400    2187.8869   -119.05663     1.979646   -117.07699   -7603.9816    4.2720049    4.2720049    4.2720049   -7603.9816   -9834.3079    -23449.45    10471.813   -7333.0052     8557.662    6335.8084    77.964202 
   59500    1689.4754   -118.62098    1.5286728   -117.09231   -21081.713    4.2692617    4.2692617    4.2692617   -21081.713   -44552.828   -24737.863    6045.5531   -31272.505   -14076.856    847.50896    77.814104 
   59600    961.48703   -117.97098   0.86997367     -117.101    15732.723    4.2638291    4.2638291    4.2638291    15732.723    18730.889    71205.005   -42737.725    3939.4128    9505.3205   -1552.7254    77.517431 
   59700    993.00349   -118.01598   0.89849043   -117.11749   -2345.7315    4.2860581    4.2860581    4.2860581   -2345.7315   -14326.025    79347.747   -72058.917    1289.0605    9160.6607   -3500.1308    78.736147 
   59800    1774.5744   -118.69732    1.6056722   -117.09165   -7992.4136    4.2896104    4.2896104    4.2896104   -7992.4136    1602.5008    11538.207   -37117.949   -19305.734    -19251.51    4554.4884     78.93208 
   59900    1735.2602   -118.64292    1.5700999   -117.07282    23404.766    4.2736618    4.2736618    4.2736618    23404.766    51710.749   -3017.6017    21521.152   -1857.2526   -4774.6795    5090.0399    78.054949 
   60000    1573.2876   -118.50134    1.4235437   -117.07779   -5089.7314    4.2751617    4.2751617    4.2751617   -5089.7314   -9307.5439    18493.062   -24454.713    13128.547     18286.52   -10060.953    78.137162 
   60100    1523.9208    -118.4652    1.3788755   -117.08633    -5426.228    4.2769213    4.2769213    4.2769213    -5426.228     27690.84   -471.50413    -43498.02    12558.367    942.48427     22.76199    78.233686 
   60200    1378.2921   -118.34196    1.2471076   -117.09485    13768.598    4.2779073    4.2779073    4.2779073    13768.598    33938.425    18666.605   -11299.238   -7182.3114    702.99549    11747.715    78.287805 
   60300     1465.459   -118.42612    1.3259781   -117.10014    1995.4189    4.2767533    4.2767533    4.2767533    1995.4189   -3853.9013    19961.629   -10121.471   -13768.113    28891.186    6217.4308    78.224467 
   60400     1432.711   -118.39292     1.296347   -117.09657     15618.91    4.2656155    4.2656155    4.2656155     15618.91    202.50027    25837.086    20817.144    7270.1976    5400.9677    3130.0536    77.614902 
   60500    1659.4936   -118.59775    1.5015447   -117.09621    12680.745    4.2669621    4.2669621    4.2669621    12680.745   -3010.3109    27026.161    14026.386    24824.035   -8021.9235   -6475.4059    77.688433 
   60600    1214.8835   -118.20799    1.0992521   -117.10874   -1340.1619    4.2823603    4.2823603    4.2823603   -1340.1619    16447.501    47562.968   -68030.955   -13997.913    25653.404   -7932.5068    78.532532 
   60700    1844.9945   -118.76621    1.6693898   -117.09682    -19470.31    4.2864021    4.2864021    4.2864021    -19470.31   -6927.4115    5263.4549   -56746.974   -12449.008    452.46769   -2955.0229    78.755106 
   60800    1713.1174   -118.63286    1.5500646    -117.0828   -3578.4803    4.2916013    4.2916013    4.2916013   -3578.4803   -188.40703   -9984.4662   -562.56752    19222.174   -11032.931    7089.9334    79.042032 
   60900    1195.6822   -118.14907    1.0818783   -117.06719    8201.2839    4.2852457    4.2852457    4.2852457    8201.2839   -9129.4808    18496.917    15236.415    19917.148    31013.436   -7772.7469    78.691381 
   61000    1486.0579   -118.40837    1.3446165   -117.06375    14443.832    4.2675218    4.2675218    4.2675218    14443.832    11336.382    39336.386   -7341.2704    -8806.036    5855.9651   -2321.9846    77.719006 
   61100    1785.4218   -118.69962    1.6154872   -117.08413   -4602.8876    4.2787988    4.2787988    4.2787988   -4602.8876     15955.12   -2522.3178   -27241.465   -7841.7123   -12039.463   -4190.5102     78.33676 
   61200    1472.2022    -118.4301    1.3320795   -117.09802   -12957.932     4.282549     4.282549     4.282549   -12957.932   -50101.681   -3828.3949     15056.28    15617.709    32250.538    2392.8047    78.542918 
   61300    1200.4794   -118.18735     1.086219   -117.10113    5204.9615    4.2700876    4.2700876    4.2700876    5204.9615    -37462.79    4255.7457    48821.928     4893.516    33461.781     3016.711    77.859275 
   61400     1589.874   -118.54223    1.4385514   -117.10368    389.08899     4.272829     4.272829     4.272829    389.08899   -25521.656   -23288.926    49977.849    -7493.096   -6053.2834    2036.2958    78.009327 
   61500    1574.2307   -118.53006    1.4243971   -117.10566    12428.153    4.2803464    4.2803464    4.2803464    12428.153     45199.65   -11716.686    3801.4956    5033.5624    1430.5179    2038.3018    78.421792 
   61600    1572.3991    -118.5295    1.4227398   -117.10676    -12073.48    4.2758995    4.2758995    4.2758995    -12073.48   -20981.306   -9841.1956   -5397.9384    20976.279    34993.814   -7952.4483    78.177623 
   61700    1333.3582   -118.30811    1.2064505   -117.10166    26642.538    4.2600181    4.2600181    4.2600181    26642.538    13547.787   -3594.3222     69974.15   -2646.7707    5610.0308   -8985.0335    77.309761 
   61800    1334.2773   -118.31369    1.2072821    -117.1064    22755.366    4.2634547    4.2634547    4.2634547    22755.366   -3751.6951    1286.1561    70731.636   -11377.589    -23750.72    11673.106    77.497011 
   61900    1102.8251   -118.10928   0.99785929   -117.11142   -25103.596    4.2931555    4.2931555    4.2931555   -25103.596   -74902.825   -18847.372    18439.408    15607.028    16224.246    13089.469    79.127941 
   62000    1181.4341   -118.15893    1.0689864   -117.08995   -40907.779    4.2968199    4.2968199    4.2968199   -40907.779    -70491.63   -53743.385    1511.6793    9598.5082     25299.86   -4043.3767    79.330728 
   62100    2268.4562   -119.10865    2.0525468    -117.0561    -14159.75     4.263751     4.263751     4.263751    -14159.75    -2224.862   -22421.012   -17833.376   -11838.696   -17323.855   -2602.4268    77.513169 
   62200    1674.9085   -118.58275    1.5154924   -117.06725   -6983.0485    4.2596268    4.2596268    4.2596268   -6983.0485   -27075.142    6285.1249   -159.12834    21377.622   -4400.4479    2164.3089     77.28846 
   62300    904.36586   -117.91369   0.81828923    -117.0954   -19641.289      4.27542      4.27542      4.27542   -19641.289   -49203.579    7438.3518   -17158.641    37182.069    29006.559   -3282.8143    78.151325 
   62400    1206.7586   -118.18997    1.0919006   -117.09807    21119.067    4.2806115    4.2806115    4.2806115    21119.067    65290.487   -5931.7803    3998.4937   -4743.0614    14844.859    2862.1783    78.436361 
   62500    2371.1699   -119.22872    2.1454843   -117.08324   -30462.411    4.2919092    4.2919092    4.2919092   -30462.411   -22651.947    -39960.75   -28774.538   -13910.737   -3415.5923   -7189.5133    79.059049 
   62600    1516.5962   -118.45392    1.3722481   -117.08167   -3944.4958    4.2762335    4.2762335    4.2762335   -3944.4958    35671.733   -28658.795   -18846.425    19393.261    3717.8179   -10784.701    78.195946 
   62700    1041.7494   -118.03317   0.94259675   -117.09057    8657.3671    4.2650737    4.2650737    4.2650737    8657.3671   -30227.719    54635.415    1564.4055    11402.706    36501.594    3109.2338     77.58533 
   62800    1532.2946   -118.47696    1.3864523   -117.09051   -14008.589      4.27778      4.27778      4.27778   -14008.589    -83838.47    55526.384    -13713.68   -17193.908     6980.212   -3092.1887    78.280812 
   62900     1584.379   -118.51957    1.4335794   -117.08599   -4896.6425    4.2796079    4.2796079    4.2796079   -4896.6425   -53888.065     34109.92    5088.2173    10965.747   -17565.595    8192.4069    78.381204 
   63000    1330.2896   -118.29287     1.203674   -117.08919   -4736.6763     4.283963     4.283963     4.283963   -4736.6763   -41834.499    42386.708   -14762.238    29563.431    30836.823   -7136.4041     78.62074 
   63100     1683.664   -118.60883    1.5234145   -117.08542   -27563.489    4.2892836    4.2892836    4.2892836   -27563.489   -44145.516   -21682.326   -16862.624    11472.901    15300.443   -4289.7875    78.914044 
   63200    1758.4872   -118.66862    1.5911161    -117.0775   -12542.506    4.2792775    4.2792775    4.2792775   -12542.506   -16124.615   -8899.8782   -12603.024   -15203.269   -27565.243    11695.904    78.363053 
   63300    1482.5478   -118.41736    1.3414404   -117.07592    1240.9162    4.2793462    4.2793462    4.2793462    1240.9162    4878.0862    17935.909   -19091.247    23750.012    15046.817   -22401.541     78.36683 
   63400    1111.9927   -118.08934    1.0061543   -117.08318   -18317.665    4.2763164    4.2763164    4.2763164   -18317.665   -9825.1632   -21981.967   -23145.864    3782.6698    40935.974    913.50525    78.200493 
   63500    1506.4557   -118.44677    1.3630728    -117.0837    10169.553    4.2658705    4.2658705    4.2658705    10169.553    49434.795   -2132.1664   -16793.971   -25330.745   -3757.3276    8920.3067    77.628824 
   63600    1922.6958   -118.84019    1.7396956   -117.10049   -12784.938    4.2832514    4.2832514    4.2832514   -12784.938   -26789.696     34240.16   -45805.279   -8451.5816   -3819.3339    923.46284    78.581568 
   63700    1675.0107   -118.61915    1.5155849   -117.10356    12844.112    4.2655099    4.2655099    4.2655099    12844.112   -13977.132    36924.415    15585.054    7656.2895    23270.322    6946.1629    77.609138 
   63800    938.27644   -117.95386   0.84897224   -117.10488    46967.121    4.2552256    4.2552256    4.2552256    46967.121   -3061.3569    77371.728    66590.991   -12724.169    8009.8907    13760.123    77.049136 
   63900    1538.4238   -118.50168    1.3919982   -117.10968   -21082.297    4.2836301    4.2836301    4.2836301   -21082.297   -19012.473   -20923.089    -23311.33   -25074.597   -7478.8468    20333.909    78.602416 
   64000     2077.747   -118.96552    1.8799891   -117.08553    12881.779    4.2709801    4.2709801    4.2709801    12881.779    16651.357    20299.482    1694.4966    7052.0531    19721.415   -3495.2716    77.908105 
   64100    1356.4118   -118.32283    1.2273099   -117.09552    12751.411    4.2729642    4.2729642    4.2729642    12751.411    5732.8179    29289.142    3232.2738    3550.2216    14493.687   -15634.362    78.016734 
   64200     1025.759   -118.02613   0.92812829     -117.098   -37095.365    4.2771318    4.2771318    4.2771318   -37095.365   -28674.453   -72506.784   -10104.858   -35150.231   -1527.3442    4474.7777    78.245234 
   64300    1724.8568   -118.65415    1.5606867   -117.09346    27447.362    4.2516784    4.2516784    4.2516784    27447.362    26943.144    24757.233     30641.71   -4996.3107    7289.1043    402.68546    76.856608 
   64400    2051.7567   -118.98162    1.8564726   -117.12515   -4044.2976    4.2750551    4.2750551    4.2750551   -4044.2976   -17085.002    33513.231   -28561.122    21257.027    16633.749   -13795.069     78.13132 
   64500    1301.1395   -118.28611    1.1772983   -117.10882   -24019.586    4.2867826    4.2867826    4.2867826   -24019.586   -1381.9718    -27159.77   -43517.017   -13081.825    18825.464   -11297.793     78.77608 
   64600    693.59854    -117.7165   0.62758253   -117.08892    61042.343    4.2557039    4.2557039    4.2557039    61042.343    56048.662    83070.644    44007.724   -38566.366   -12190.066    316.69016    77.075121 
   64700    1731.6475   -118.67351    1.5668311   -117.10668    7498.7043     4.269056     4.269056     4.269056    7498.7043    825.39519    24372.027   -2701.3092    6538.0605    -11881.72    12811.371    77.802857 
   64800    2032.7504   -118.93353    1.8392753   -117.09425    9899.2768     4.276146     4.276146     4.276146    9899.2768    22147.287    44503.703    -36953.16    9455.0566    5963.6636   -7203.8412    78.191143 
   64900    1336.2821   -118.30559    1.2090961    -117.0965      11621.6    4.2730836    4.2730836    4.2730836      11621.6    22367.293    11971.506    526.00072   -15813.514   -5283.4941   -22614.665    78.023272 
   65000    1137.5544   -118.12122    1.0292831   -117.09194   -12223.227    4.2816305    4.2816305    4.2816305   -12223.227   -23355.203    -2708.747   -10605.731    2108.7778   -20940.655    16630.725    78.492388 
   65100    1784.0444   -118.68693    1.6142409   -117.07268   -7809.9502    4.2806068    4.2806068    4.2806068   -7809.9502    15801.947   -33841.114   -5390.6838    25697.177    -9654.578    1577.6524    78.436104 
   65200    1276.6004   -118.24108    1.1550948   -117.08598    19667.285    4.2809959    4.2809959    4.2809959    19667.285    44871.893   -21556.225    35686.188   -16327.498   -22759.414   -8534.2576    78.457496 
   65300    1655.2184   -118.57616    1.4976764   -117.07848    7258.8951    4.2900348    4.2900348    4.2900348    7258.8951   -25985.841    18118.985    29643.541    -14831.01    1519.8367     11860.67    78.955512 
   65400    1544.1303   -118.45468    1.3971615   -117.05752   -18432.834    4.3020322    4.3020322    4.3020322   -18432.834   -30316.459   -6621.6818   -18360.359   -3593.9953    14549.776     632.9472    79.619781 
   65500    810.09647    -117.7888   0.73299231    -117.0558    31708.138    4.2882935    4.2882935    4.2882935    31708.138   -12314.451    57694.056    49744.809   -34630.936   -11159.834   -19370.565    78.859408 
   65600    1666.2782   -118.56294    1.5076835   -117.05526    18340.003    4.2831318    4.2831318    4.2831318    18340.003   -16081.299    34762.331    36338.978   -249.13317   -7980.8051   -7210.3968    78.574986 
   65700    1931.0837   -118.80579    1.7472852   -117.05851   -2836.7054    4.2809717    4.2809717    4.2809717   -2836.7054    816.36175   -2774.6274   -6551.8507    5518.0973    17028.159    12790.372    78.456163 
   65800    1243.2096   -118.20476    1.1248822   -117.07988    6015.8654    4.2880915    4.2880915    4.2880915    6015.8654    4986.2821    6852.3178    6208.9962   -32755.505   -7325.7688    5490.1344    78.848264 
   65900    1299.6241   -118.25142    1.1759272   -117.07549    4985.4517     4.294092     4.294092     4.294092    4985.4517    2558.7615   -21499.492    33897.086   -6597.0714   -7824.6327    -20737.58    79.179732 
   66000    2016.3842   -118.88451    1.8244668   -117.06004   -6687.2975     4.274583     4.274583     4.274583   -6687.2975    8506.3105   -30715.434    2147.2307    6107.8602    1846.0146   -3829.8253    78.105434 
   66100    960.21924   -117.95351   0.86882655   -117.08468   -1214.3286    4.2741121    4.2741121    4.2741121   -1214.3286    4318.3389   -16176.392    8215.0669   -42447.337    7769.6079    953.13433    78.079624 
   66200    1426.6923    -118.3844    1.2909012    -117.0935    11493.366    4.2771728    4.2771728    4.2771728    11493.366    988.83053   -30315.494    63806.762   -7320.5116    10013.957   -15890.698    78.247486 
   66300    1899.1919   -118.81202    1.7184288   -117.09359   -8423.3088     4.281356     4.281356     4.281356   -8423.3088   -16896.402   -49560.227    41186.703     11023.14   -113.82721   -13216.114    78.477297 
   66400    1351.4164   -118.31804      1.22279   -117.09525    6306.1664    4.2753114    4.2753114    4.2753114    6306.1664   -37347.717     -19751.9    76018.116   -44161.378    -16705.04    10405.713    78.145373 
   66500    1502.7157   -118.44961    1.3596888   -117.08992   -14460.294    4.2702644    4.2702644    4.2702644   -14460.294   -16528.601   -7967.5241   -18884.756   -5279.6654   -6409.9295   -340.86811    77.868944 
   66600    1422.5548   -118.37918    1.2871575   -117.09202   -28940.177    4.2747479    4.2747479    4.2747479   -28940.177    22417.761   -30307.815   -78930.478    13809.622   -4187.1378    -31844.95    78.114479 
   66700    1271.6345    -118.2478    1.1506016    -117.0972   -9049.8227    4.2727998    4.2727998    4.2727998   -9049.8227   -33413.187   -9435.2338    15698.953   -35288.383    10151.956     157.7128    78.007728 
   66800    1493.7691   -118.44872    1.3515937   -117.09713   -2744.5676    4.2809433    4.2809433    4.2809433   -2744.5676   -15882.456    -13989.63    21638.383   -23728.427    11178.383   -3603.3307    78.454601 
   66900    1699.9213   -118.61914    1.5381245   -117.08102   -13776.809    4.2840363    4.2840363    4.2840363   -13776.809    1789.3041    -12405.48   -30714.252    16443.588    5183.7541    -20774.17    78.624777 
   67000    1551.5705    -118.4858    1.4038936   -117.08191    15926.064    4.2658744    4.2658744    4.2658744    15926.064    32445.686    4438.4824    10894.024   -35612.045      11100.8   -1463.7031    77.629036 
   67100    1445.5281   -118.40961    1.3079442   -117.10166    18753.165    4.2772284    4.2772284    4.2772284    18753.165    20001.422   -22346.731    58604.805   -30102.776    3567.4862    12042.757    78.250539 
   67200    1913.5967   -118.81239    1.7314625   -117.08093    -35765.25    4.2931075    4.2931075    4.2931075    -35765.25   -54333.576   -32403.013    -20559.16     23151.86    11685.972    6152.0999    79.125285 
   67300    968.02692   -117.96161    0.8758911   -117.08572    13357.945    4.2666319    4.2666319    4.2666319    13357.945   -21200.522    13882.443    47391.914   -24158.159   -3975.3722   -4811.1033    77.670397 
   67400    1150.2893    -118.1415    1.0408059   -117.10069    37536.428    4.2644692    4.2644692    4.2644692    37536.428    2186.6272    34960.571    75462.087   -55115.038    773.27496   -302.49336    77.552345 
   67500    2213.2856   -119.08737    2.0026273   -117.08475   -18135.392    4.2900481    4.2900481    4.2900481   -18135.392   -5196.0275    -10625.64   -38584.507    619.92844    11582.715    1147.8422    78.956243 
   67600    1416.9587   -118.35461     1.282094   -117.07252   -7016.1538    4.2939275    4.2939275    4.2939275   -7016.1538   -65444.642    13541.379    30854.802   -17181.779    2101.7297    14371.178    79.170636 
   67700    788.76389   -117.78277   0.71369014   -117.06908   -405.72342    4.2841094    4.2841094    4.2841094   -405.72342   -62550.757   -2280.5895    63614.176   -27835.133   -7594.3579    3209.9423    78.628803 
   67800    2136.9237   -118.98476    1.9335334   -117.05122    10623.811    4.2558549    4.2558549    4.2558549    10623.811    8283.7255    25657.328   -2069.6219    16400.196   -8322.1239   -7381.4987    77.083326 
   67900    1842.2279   -118.76597    1.6668865   -117.09909    712.70182    4.2674362    4.2674362    4.2674362    712.70182   -36915.674    7875.9927    31177.787   -23545.267    1314.2687    24512.858    77.714332 
   68000    1115.3454   -118.10686     1.009188   -117.09767   -33758.618    4.2953839    4.2953839    4.2953839   -33758.618   -73402.515   -63948.766    36075.429   -40357.465    -3505.286    8128.9163     79.25122 
   68100    1738.7461   -118.63285     1.573254    -117.0596   -6397.3733    4.2774855    4.2774855    4.2774855   -6397.3733   -31305.249   -20979.499    33092.628    17532.137    1262.4781   -14013.628    78.264647 
   68200    1239.4428   -118.19129    1.1214739   -117.06982   -6972.9198    4.2740057    4.2740057    4.2740057   -6972.9198   -85369.589    3584.8493     60865.98   -31714.619    5269.7466   -17085.248    78.073796 
   68300    1177.5029   -118.14965    1.0654294   -117.08422   -22811.189    4.2778835    4.2778835    4.2778835   -22811.189   -89282.354   -12874.463     33723.25   -44511.758    12252.735    1302.3232    78.286496 
   68400     1806.512   -118.71485      1.63457   -117.08028    9476.2415    4.2703306    4.2703306    4.2703306    9476.2415   -6574.8596     28201.64    6801.9441    23876.042   -11585.431    -13550.69    77.872568 
   68500    1951.3851   -118.85045    1.7656542   -117.08479   -15682.795    4.2790755    4.2790755    4.2790755   -15682.795   -22793.313   -19405.783   -4849.2899   -17243.355   -19314.259   -1090.3671    78.351956 
   68600     1313.133   -118.27794    1.1881503   -117.08979    -2160.965    4.2729324    4.2729324    4.2729324    -2160.965   -43880.588    20637.411    16760.283   -46541.311     1139.457   -5391.4279    78.014994 
   68700     1106.855   -118.09234    1.0015056   -117.09083    9897.6995    4.2716656    4.2716656    4.2716656    9897.6995   -24022.468    58799.263    -5083.696    12671.374    4386.4404    6476.2312    77.945625 
   68800    1571.4822   -118.50857    1.4219101   -117.08666   -21730.955    4.2846164    4.2846164    4.2846164   -21730.955   -47533.355   -12075.825   -5583.6859    17527.595   -12337.577    6144.7888    78.656723 
   68900    1788.7182   -118.69908    1.6184699   -117.08061    3693.8752    4.2703863    4.2703863    4.2703863    3693.8752    7462.0177   -3648.7917    7268.3996    -24760.59   -9733.6061   -17170.357    77.875613 
   69000    1280.4498   -118.25184    1.1585779   -117.09326    23978.032    4.2694338    4.2694338    4.2694338    23978.032     38522.79   -4100.5295    37511.835    10016.958    249.82959    14689.703    77.823516 
   69100    1671.7286   -118.60122    1.5126151    -117.0886   -4887.3764    4.2786995    4.2786995    4.2786995   -4887.3764   -14027.251   -12433.881    11799.003    30548.141    7713.8279     5338.712    78.331304 
   69200    1406.6857   -118.35667    1.2727988   -117.08387    34608.768    4.2695193    4.2695193    4.2695193    34608.768    6931.5743    22361.319     74533.41   -3557.2494   -15028.478   -9773.9904    77.828191 
   69300    1379.1511    -118.3391    1.2478849   -117.09122   -12960.811    4.2780934    4.2780934    4.2780934   -12960.811   -1784.2093   -38033.193    934.96778    253.46264    -8446.229    -10927.35    78.298022 
   69400    1551.0732   -118.49108    1.4034436   -117.08764   -4889.3132    4.2723381    4.2723381    4.2723381   -4889.3132   -849.96055   -49143.096    35325.117    15111.641    11240.552    5620.1392    77.982446 
   69500    1978.8685   -118.87391    1.7905218   -117.08339    19049.189    4.2609121    4.2609121    4.2609121    19049.189    42428.842    25551.431   -10832.707   -2180.3858   -474.19748   -416.54522    77.358443 
   69600    1069.5353   -118.07652   0.96773798   -117.10878   -21711.104    4.2855426    4.2855426    4.2855426   -21711.104   -47031.854     510.2886   -18611.745   -22729.384   -23426.091   -21566.569    78.707739 
   69700    1050.9486   -118.04794   0.95092037   -117.09702   -18249.852    4.2789981    4.2789981    4.2789981   -18249.852   -43201.548   -31925.867    20377.858   -26446.599   -11019.769   -2657.4393    78.347706 
   69800    2054.2324   -118.92541    1.8587126    -117.0667    21527.497    4.2579663    4.2579663    4.2579663    21527.497    29492.531    22862.534    12227.425     702.3588    12586.399    18971.761     77.19811 
   69900    1489.9755   -118.44553    1.3481611   -117.09737   -17830.906    4.2793889    4.2793889    4.2793889   -17830.906   -890.36028   -16768.769   -35833.589    1535.0625   -10390.097   -14199.965    78.369171 
   70000    1450.9609   -118.40607    1.3128599   -117.09321   -8644.1796    4.2771689    4.2771689    4.2771689   -8644.1796   -42849.859   -2026.5505    18943.871   -13178.568   -19303.454   -4991.8104    78.247274 
   70100    1867.4018   -118.76177    1.6896644   -117.07211    22856.503    4.2716102    4.2716102    4.2716102    22856.503    27544.955    11613.336    29411.219    8883.5575   -3182.8811    17475.732    77.942591 
   70200     1141.329   -118.11328    1.0326985   -117.08059   -28661.912    4.2820106    4.2820106    4.2820106   -28661.912   -6402.9359   -70514.756   -9068.0428    13917.873    3283.4603   -4231.8971    78.513295 
   70300    816.97822    -117.8233   0.73921906   -117.08408    29170.239     4.268547     4.268547     4.268547    29170.239    72633.087   -41082.892    55960.523   -6163.3597   -24179.472   -13231.917    77.775033 
   70400    2179.0595   -119.05572    1.9716589   -117.08406    946.88139     4.280247     4.280247     4.280247    946.88139    7425.7347    12451.624   -17036.715   -1641.8081   -10722.047   -6630.9861    78.416325 
   70500    1689.7739   -118.60723     1.528943   -117.07829   -1954.0143    4.2813096    4.2813096    4.2813096   -1954.0143   -30125.812   -11354.665    35618.433   -2051.5765    23202.214    11009.314    78.474743 
   70600    1241.4411   -118.20356     1.123282   -117.08028    17478.991    4.2691456    4.2691456    4.2691456    17478.991    28488.361    23224.554    724.05769    7167.9005    6768.9618   -7787.3648    77.807758 
   70700    1654.6269   -118.57623    1.4971412   -117.07909   -15468.988    4.2857002    4.2857002    4.2857002   -15468.988   -9392.9487   -21218.436   -15795.581     2177.505   -16961.085    9730.7868    78.716426 
   70800    1414.2791   -118.36509    1.2796695   -117.08542    9226.6171    4.2748295    4.2748295    4.2748295    9226.6171    24391.137   -8855.0889    12143.803    1212.6719    1001.0636    15928.177    78.118949 
   70900    1194.0691   -118.16628    1.0804188   -117.08586    49968.363    4.2637369    4.2637369    4.2637369    49968.363    23256.036    55177.295    71471.758    11000.639    11761.263   -13259.847      77.5124 
   71000      2117.42   -118.99548    1.9158861   -117.07959     5294.829    4.2851712    4.2851712    4.2851712     5294.829   -7983.0522    5750.5122    18117.027   -6166.6483   -7813.0042   -12086.878    78.687282 
   71100    1237.7447   -118.19054    1.1199374   -117.07061    -2034.293    4.2869808    4.2869808    4.2869808    -2034.293    8640.4494   -10643.878   -4099.4499    6367.1043   -7734.0148    641.63301    78.787007 
   71200    967.71874   -117.94548   0.87561225   -117.06987   -12913.489    4.2808579    4.2808579    4.2808579   -12913.489     12669.52   -38388.028   -13021.958    9667.5661    5762.1228    5163.5102    78.449907 
   71300    1935.9029   -118.81371    1.7516456   -117.06207    4862.5719    4.2730154    4.2730154    4.2730154    4862.5719    9115.6144    38658.608   -33186.507   -4429.2043     7324.728    756.24655    78.019536 
   71400    1630.6746   -118.55766    1.4754687   -117.08219   -3010.8184    4.2744951    4.2744951    4.2744951   -3010.8184   -23050.514    39536.906   -25518.847   -21029.127   -7432.4425   -16474.164    78.100619 
   71500    1014.1017   -118.01127   0.91758051   -117.09369   -10924.566    4.2855567    4.2855567    4.2855567   -10924.566   -61407.279    19311.674    9321.9093   -16185.132    15587.084    5053.4074    78.708519 
   71600    1834.4061   -118.73162    1.6598092   -117.07181   -21895.417    4.2778208    4.2778208    4.2778208   -21895.417    -24508.93   -37424.857   -3752.4632     3385.556    11303.675   -239.13867    78.283053 
   71700    1545.1624   -118.48539    1.3980954   -117.08729    -17422.95      4.27353      4.27353      4.27353    -17422.95    9128.4674   -42147.209   -19250.109   -7734.1911   -20085.245   -15495.363    78.047729 
   71800    1373.3346   -118.34214     1.242622   -117.09952     3679.257    4.2722109    4.2722109    4.2722109     3679.257    2083.1984   -10596.477     19551.05   -14135.433   -15137.824    10101.276     77.97548 
   71900    1934.2391   -118.84545    1.7501402   -117.09531   -5400.6303    4.2809912    4.2809912    4.2809912   -5400.6303    19617.242   -9114.0842   -26705.049   -3264.6618    90.235172    9078.2842    78.457235 
   72000    1491.7358   -118.43751    1.3497539   -117.08776   -20626.846    4.2836358    4.2836358    4.2836358   -20626.846    14490.303   -57966.116   -18404.724    2378.9154   -5721.9507   -11824.237    78.602728 
   72100    713.44846   -117.73058   0.64554316   -117.08504    24468.956    4.2649929    4.2649929    4.2649929    24468.956    94115.548   -32035.297    11326.618    -6929.908   -25852.269    13788.561    77.580922 
   72200    1498.5259   -118.44947    1.3558977   -117.09357    2826.0482    4.2698017    4.2698017    4.2698017    2826.0482    17751.463   -32481.718    23208.399    -3481.454   -22204.881    19287.646    77.843639 
   72300    2159.8297   -119.04637    1.9542593   -117.09211   -2967.8982    4.2755637    4.2755637    4.2755637   -2967.8982   -4596.6689      7804.52   -12111.546    6022.4027    11371.232     -12187.8    78.159207 
   72400    1701.2871   -118.63205    1.5393603   -117.09269    15718.546    4.2736676    4.2736676    4.2736676    15718.546    13354.413    3532.4258    30268.799    11058.331   -234.82819   -16810.656    78.055267 
   72500    955.00622   -117.96313    0.8641097   -117.09902   -31551.635    4.2834362    4.2834362    4.2834362   -31551.635   -30117.709   -56706.626   -7830.5704    2978.5226   -23854.324     21102.29    78.591741 
   72600    1094.5665   -118.08489   0.99038681    -117.0945    10701.703    4.2632678    4.2632678    4.2632678    10701.703    23157.076    14749.747    -5801.715    4564.9508   -3404.7997    17047.956     77.48682 
   72700    2283.5092   -119.15895    2.0661671   -117.09278    11278.748    4.2609855    4.2609855    4.2609855    11278.748   -18908.704    54128.059   -1383.1113    9930.3345    18061.919   -1377.4929    77.362443 
   72800     1726.049   -118.66588    1.5617654   -117.10411   -26925.588    4.2833966    4.2833966    4.2833966   -26925.588   -39407.517   -4302.1871   -37067.059   -5051.8713   -19016.696    4545.7392    78.589561 
   72900    776.71543   -117.80501   0.70278844   -117.10222    28272.193    4.2676012    4.2676012    4.2676012    28272.193    23704.934    33851.398    27260.246   -13926.263   -21837.706    7597.5222    77.723347 
   73000    1419.4671   -118.38396    1.2843637   -117.09959    10987.822    4.2728631    4.2728631    4.2728631    10987.822    20469.072   -17688.981    30183.374   -6491.2444    10067.987    8029.6547    78.011194 
   73100    2223.8183   -119.09485    2.0121575   -117.08269   -18631.198    4.2808622    4.2808622    4.2808622   -18631.198   -38749.676   -15309.505    -1834.411    -598.5995    3814.6681   -5786.3916    78.450145 
   73200     1339.042   -118.29865    1.2115933   -117.08706    36871.443    4.2689305    4.2689305    4.2689305    36871.443    4425.2723    64310.897    41878.161    1141.9554   -21131.111    3331.3719    77.795996 
   73300    1021.8687    -118.0178   0.92460824   -117.09319   -6461.4042    4.2785576    4.2785576    4.2785576   -6461.4042    22753.439   -25666.047   -16471.605   -15671.304   -8471.8227    25242.663     78.32351 
   73400    1619.1186   -118.54463    1.4650126   -117.07962   -24659.244    4.2815353    4.2815353    4.2815353   -24659.244    656.88094   -62776.252    -11858.36   -1988.7644    13354.583    17557.107    78.487155 
   73500    1789.9046   -118.70559    1.6195433   -117.08604   -21561.714    4.2768377    4.2768377    4.2768377   -21561.714   -39341.405   -205.02206   -25138.714    14767.325    -5988.276      6790.62    78.229098 
   73600    1468.7227   -118.42017    1.3289312   -117.09124    5097.9431     4.267922     4.267922     4.267922    5097.9431    13257.252    9363.8005   -7327.2228   -1058.5941   -12926.665    -5891.034    77.740873 
   73700    1542.6272   -118.49124    1.3958015   -117.09544    8812.7585    4.2713962    4.2713962    4.2713962    8812.7585    1878.4296   -27888.739    52448.585   -1331.4399   -2285.5911    3798.3805    77.930878 
   73800    1275.7496   -118.24692     1.154325    -117.0926   -5409.1912    4.2803576    4.2803576    4.2803576   -5409.1912   -7948.9476   -6518.6157   -1760.0102    21055.884    20949.324   -12932.775    78.422407 
   73900    1289.6636   -118.25617    1.1669147   -117.08926    31017.596    4.2715515    4.2715515    4.2715515    31017.596   -21857.353     10632.07    104278.07    9540.8833   -8388.1883   -4944.1199     77.93938 
   74000    2030.5461   -118.92804    1.8372808   -117.09076     3853.374    4.2731343    4.2731343    4.2731343     3853.374   -33635.304    7654.7441    37540.682    316.70647   -20023.646    11721.792    78.026052 
   74100    1521.0466   -118.46713    1.3762749   -117.09085    14207.644    4.2720364    4.2720364    4.2720364    14207.644   -8668.0761    42490.928    8800.0787    17877.437    2475.1668    759.11162    77.965926 
   74200    1102.9578   -118.09579   0.99797936   -117.09781   -11665.768    4.2773087    4.2773087    4.2773087   -11665.768   -3282.5895   -55223.766    23509.051    10494.498   -4450.2158   -9873.7389    78.254946 
   74300    1463.5594   -118.41588    1.3242593   -117.09162    -16953.44    4.2784433    4.2784433    4.2784433    -16953.44   -33873.891    11967.758   -28954.187   -4276.8416    -36741.92    8185.4914    78.317234 
   74400     1874.651   -118.78587    1.6962236   -117.08964    7987.0903    4.2708743    4.2708743    4.2708743    7987.0903    -18558.86    38259.842    4260.2885     -4902.34   -1171.8323    4976.8687    77.902316 
   74500    1707.1539    -118.6391    1.5446687   -117.09443   -7684.8037     4.276691     4.276691     4.276691   -7684.8037   -7803.1828   -27325.518     12074.29    5108.5487   -1373.4833   -21184.696    78.221046 
   74600    1236.8472   -118.21721    1.1191253   -117.09808     10419.47     4.267159     4.267159     4.267159     10419.47    26420.179    -9713.741    14551.973   -1140.7025   -27780.334    -4585.952    77.699187 
   74700    1275.9471   -118.26179    1.1545037   -117.10729    18895.768     4.264085     4.264085     4.264085    18895.768    9698.7838    34534.071    12454.451   -17486.481   -33752.166    3278.0399    77.531388 
   74800    1788.3174   -118.72352    1.6181072   -117.10541   -8344.5692    4.2735125    4.2735125    4.2735125   -8344.5692    18393.696   -16184.457   -27242.947   -9881.9711    3704.4754    9123.6598    78.046769 
   74900    1542.9439   -118.49554     1.396088   -117.09945   -12040.883    4.2824635    4.2824635    4.2824635   -12040.883   -23814.546    21386.897   -33695.001   -11327.263    3903.5962   -7189.5039    78.538214 
   75000    1030.1792   -118.02544   0.93212778   -117.09332   -26498.126    4.2840482    4.2840482    4.2840482   -26498.126   -51566.009    23512.647   -51441.017    6532.9638   -43240.184   -3824.2986    78.625431 
   75100    1559.1599   -118.49027    1.4107606    -117.0795   -9643.7507    4.2669886    4.2669886    4.2669886   -9643.7507     32023.38   -53471.726   -7482.9061    5.2329674    -1427.945    20122.933    77.689878 
   75200    2114.3335   -119.00002    1.9130934   -117.08692   -12713.475    4.2712785    4.2712785    4.2712785   -12713.475   -3404.4976   -22531.565   -12204.363   -3351.7554    2813.2905   -7902.3673    77.924434 
   75300    1335.8401   -118.30499    1.2086962   -117.09629   -15142.621    4.2813091    4.2813091    4.2813091   -15142.621   -16561.017    17832.085   -46698.931    17776.388   -37266.208   -3396.2832    78.474718 
   75400    1332.1137   -118.29798    1.2053245   -117.09265   -1101.2717    4.2725421    4.2725421    4.2725421   -1101.2717    4364.8397    5708.4496   -13377.104    5761.0093   -7959.5517    18525.272    77.993615 
   75500    1559.1715   -118.49831    1.4107711   -117.08754   -2238.0176    4.2799241    4.2799241    4.2799241   -2238.0176    41240.466   -27605.628   -20348.891   -6053.9331    14838.753    16673.779    78.398583 
   75600    1293.4843   -118.25602    1.1703717   -117.08565   -24684.623    4.2863714    4.2863714    4.2863714   -24684.623    18612.558   -66155.275   -26511.152    15796.193   -35969.952   -5406.0443    78.753413 
   75700    1015.5687   -118.00502   0.91890789   -117.08612    13082.322    4.2801414    4.2801414    4.2801414    13082.322   -4064.6368     16063.79    27247.812    11970.324   -22233.795      9563.22    78.410524 
   75800    2204.4535   -119.06645    1.9946358   -117.07181   -23413.737    4.2952645    4.2952645    4.2952645   -23413.737   -10805.489   -9646.5903   -49789.133   -3931.2913    15863.849    3070.5982    79.244613 
   75900    1478.4335   -118.40547    1.3377177   -117.06775   -13728.189     4.291369     4.291369     4.291369   -13728.189   -65326.857    29791.574   -5649.2845    -10283.41   -8675.9448    6968.2643    79.029199 
   76000    668.55888   -117.66901   0.60492612   -117.06409    53942.395    4.2596682    4.2596682    4.2596682    53942.395    15765.773    85464.233    60597.179    1866.2674   -26132.916    9953.3793    77.290713 
   76100    2010.9917   -118.89857    1.8195875   -117.07899   -26229.766    4.2787808    4.2787808    4.2787808   -26229.766    -30476.02   -29308.827   -18904.451    -19030.33    15523.481   -6638.1388    78.335771 
   76200    1278.9485   -118.22919    1.1572194   -117.07197   -25345.676    4.2982625    4.2982625    4.2982625   -25345.676    20041.069   -33206.705   -62871.392   -2372.4588   -16232.382     13351.76    79.410662 
   76300    1169.9497   -118.12368    1.0585951   -117.06509    14932.198    4.2793077    4.2793077    4.2793077    14932.198    52540.632    20266.683    -28010.72    6976.6448   -42940.986    1172.5885    78.364712 
   76400    2029.9551   -118.90012    1.8367461   -117.06337   -8793.1355    4.2747937    4.2747937    4.2747937   -8793.1355   -7035.6666   -1658.1504    -17685.59    918.77505   -488.04763   -5331.1997    78.116986 
   76500     1822.931   -118.73127    1.6494262   -117.08185   -18793.317    4.2782985    4.2782985    4.2782985   -18793.317    17045.751    -48996.73   -24428.971    21638.415    1578.9401    19660.162    78.309283 
   76600    1021.9319   -118.02289   0.92466549   -117.09822     50222.07    4.2680375    4.2680375    4.2680375     50222.07    37401.345     70752.05    42512.816    8081.5769   -35552.151    7995.5878    77.747184 
   76700    1426.7455   -118.39343    1.2909493   -117.10248    11573.363    4.2941851    4.2941851    4.2941851    11573.363     4256.516     48751.65   -18288.078   -4743.1283   -7310.0357   -5808.9267    79.184883 
   76800    1851.2655   -118.74406    1.6750639     -117.069   -5319.3966    4.2906435    4.2906435    4.2906435   -5319.3966   -33738.361    35197.868   -17417.697    10725.504    11408.116   -823.91135    78.989126 
   76900    1240.5659   -118.19078    1.1224901   -117.06829     7616.291    4.2738038    4.2738038    4.2738038     7616.291    23406.957     46101.13   -46659.214    5017.9071   -39467.595    22942.517    78.062733 
   77000     1488.707   -118.42566    1.3470134   -117.07864   -35243.746    4.2858438    4.2858438    4.2858438   -35243.746   -40682.881   -49550.144   -15498.213    6545.5703   -21335.049     15359.32     78.72434 
   77100    1869.3999   -118.76042    1.6914723   -117.06895   -7769.8752    4.2735736    4.2735736    4.2735736   -7769.8752   -33166.689    11038.981   -1181.9174   -3578.7456    33443.298   -15124.052    78.050117 
   77200     1205.091   -118.18282    1.0903916   -117.09243    14252.254    4.2706523    4.2706523    4.2706523    14252.254   -34838.752    98824.668   -21229.154    308.84444    -34312.46   -3227.0057    77.890168 
   77300    1455.9065   -118.41272    1.3173348   -117.09539    -9449.245     4.280609     4.280609     4.280609    -9449.245   -34517.711    42076.816   -35906.841    4924.7009   -28151.836   -6123.6763    78.436225 
   77400    1428.5026   -118.37601    1.2925392   -117.08347    36513.436    4.2687868    4.2687868    4.2687868    36513.436   -4029.3096    95687.468     17882.15   -2886.4407    24360.556    12034.937    77.788142 
   77500    1367.0894   -118.33717    1.2369712    -117.1002   -13535.178    4.2852296    4.2852296    4.2852296   -13535.178    -62818.36    17497.358     4715.467   -7499.9358   -26908.072   -6061.7896    78.690497 
   77600    1787.0402   -118.69001    1.6169515   -117.07306   -32085.751    4.2924971    4.2924971    4.2924971   -32085.751   -59884.613   -22720.516   -13652.124     9426.437   -48738.793    3170.6771     79.09154 
   77700    1737.5803   -118.63169    1.5721992    -117.0595    26888.483    4.2677451    4.2677451    4.2677451    26888.483    52105.824    63409.144   -34849.518     11570.95    6261.3054    15078.501    77.731207 
   77800    1089.2371    -118.0731    0.9855646   -117.08754    8344.4006    4.2763269    4.2763269    4.2763269    8344.4006    68541.457    22684.644     -66192.9    -1900.136    8956.5962   -1647.7657    78.201071 
   77900    1349.4898   -118.30291    1.2210468   -117.08187    5363.0443    4.2826301    4.2826301    4.2826301    5363.0443    6938.8985      10874.4   -1724.1652   -881.96656   -7120.5537   -16274.216    78.547378 
   78000    1692.5377    -118.6087    1.5314437   -117.07726     19638.02    4.2789532    4.2789532    4.2789532     19638.02   -1960.0294    38998.104    21875.985    2663.7689   -5366.0502    5714.1868    78.345236 
   78100    1419.8478   -118.36866    1.2847081   -117.08395   -19305.488    4.2923277    4.2923277    4.2923277   -19305.488    4686.5394    -42780.21   -19822.792   -11744.712    14176.995     24869.09    79.082177 
   78200    1630.6709   -118.54859    1.4754653   -117.07313    3904.8041    4.2732144    4.2732144    4.2732144    3904.8041    678.53067   -3975.0247    15010.906   -704.20467    607.41778   -11316.481    78.030437 
   78300    1517.0241   -118.44941    1.3726352   -117.07678    5572.9457     4.260959     4.260959     4.260959    5572.9457   -5270.2079    18073.509    3915.5361    119.77358    2075.6332    9883.7436       77.361 
   78400    1051.9235   -118.05164   0.95180248   -117.09984   -38536.508    4.2828342    4.2828342    4.2828342   -38536.508     17681.18   -63164.559   -70126.144   -12060.125    1869.1694    74593.343    78.558609 
   78500    1844.7823   -118.75726    1.6691978   -117.08806   -3615.1793    4.2730706    4.2730706    4.2730706   -3615.1793    13222.295   -37111.859    13044.026   -2609.8791   -3816.5917   -1283.3428    78.022559 
   78600    2182.1081   -119.06013    1.9744172   -117.08572   -2189.7305    4.2661081    4.2661081    4.2661081   -2189.7305   -15749.669   -15131.263     24311.74   -6039.8774    2442.4191   -6998.4026    77.641797 
   78700     1048.912   -118.04964   0.94907762   -117.10056   -16026.254    4.2814693    4.2814693    4.2814693   -16026.254    -2813.407   -50818.405    5553.0487   -6955.0836    128.40837    70320.785    78.483527 
   78800    1346.3735   -118.31593     1.218227    -117.0977   -15271.931    4.2747824    4.2747824    4.2747824   -15271.931   -2460.8491      2585.45   -45940.393    3519.8711   -14206.942    35933.852    78.116366 
   78900    2057.2484   -118.95112    1.8614416   -117.08968    5516.5071    4.2656942    4.2656942    4.2656942    5516.5071    -19217.51    25958.634    9808.3977   -2076.3054   -6677.4301   -18448.881    77.619199 
   79000     1456.489   -118.42646    1.3178618    -117.1086     13226.84    4.2703982    4.2703982    4.2703982     13226.84   -4203.7677    12898.692    30985.595    -2059.265     4298.002    30225.442    77.876266 
   79100    1336.5355   -118.32442    1.2093254   -117.11509    -4270.179    4.2786915    4.2786915    4.2786915    -4270.179   -4309.8671   -7164.1595   -1336.5103    1400.6813   -15458.133    33449.016    78.330866 
   79200    1658.6741   -118.59628    1.5008032   -117.09547    6770.5701    4.2759239    4.2759239    4.2759239    6770.5701   -37105.629    19997.535    37419.804   -8020.5901    -10624.97   -21256.858    78.178963 
   79300    1505.5385   -118.45878    1.3622428   -117.09654   -225.08882    4.2601532    4.2601532    4.2601532   -225.08882   -23657.631    16881.657    6100.7073   -3756.9852    14311.088    6050.7548    77.317119 
   79400    1135.5013   -118.14258    1.0274254   -117.11515    11411.525    4.2602946    4.2602946    4.2602946    11411.525     3647.691   -10162.528    40749.413    1332.4198   -3006.6759    48617.266    77.324815 
   79500    1757.5631   -118.69906    1.5902801   -117.10878   -28392.119    4.2848939    4.2848939    4.2848939   -28392.119   -23733.817   -52629.804    -8812.737   -4833.4198   -10721.771    4004.2807    78.672007 
   79600     1540.147   -118.48255    1.3935573     -117.089   -27447.855    4.2851722    4.2851722    4.2851722   -27447.855   -44770.444     5275.367   -42848.488     2581.442    8193.4625   -17790.491    78.687337 
   79700    995.23742   -117.98589   0.90051174   -117.08538    21763.813     4.267822     4.267822     4.267822    21763.813   -15159.666    56306.995    24144.111    1336.4902    13009.767    33069.226     77.73541 
   79800    1406.7401   -118.36948     1.272848   -117.09664   -930.64245     4.267841     4.267841     4.267841   -930.64245   -23912.843   -2925.9806    24046.896     4076.594   -10421.239    29007.481    77.736448 
   79900    1801.7676   -118.72972    1.6302772   -117.09944    8389.3409    4.2690047    4.2690047    4.2690047    8389.3409   -27927.686    22133.428    30962.281    4743.0982   -12348.917   -13841.875    77.800053 
   80000     1666.105   -118.61188    1.5075268   -117.10435    1536.1748    4.2768117    4.2768117    4.2768117    1536.1748   -26722.021    54327.311   -22996.766    4550.2008    3340.4575   -6874.3525    78.227667 
   80100    1312.5632    -118.2924    1.1876348   -117.10477    205.20642    4.2759441    4.2759441    4.2759441    205.20642   -30402.442     24619.25    6398.8116    7012.6771    2967.5779     29246.15    78.180072 
   80200      1251.82   -118.24247    1.1326731    -117.1098    15407.348    4.2782895    4.2782895    4.2782895    15407.348    -41558.49    6300.4158    81480.118    11851.517   -7761.1991    11793.478    78.308789 
   80300    2152.0481   -119.03549    1.9472184   -117.08827   -21805.665    4.2854525    4.2854525    4.2854525   -21805.665   -44060.522   -1908.0161   -19448.457   -4253.1139   -8576.4258   -26686.194    78.702778 
   80400    1914.3544   -118.81101     1.732148   -117.07887    180.12003    4.2684724    4.2684724    4.2684724    180.12003    -17267.75   -2732.5974    20540.708    6983.7115   -9659.5352    23704.523    77.770955 
   80500      600.169   -117.64534   0.54304552   -117.10229     -3897.24    4.2610712    4.2610712    4.2610712     -3897.24   -1340.0638    10317.728   -20669.385    9697.5216    800.59171    41940.304    77.367111 
   80600    1367.1937   -118.34325    1.2370656   -117.10619   -8003.6133    4.2693613    4.2693613    4.2693613   -8003.6133   -23838.158    4369.4883   -4542.1703    -15017.24     924.9633    2085.9301     77.81955 
   80700    2340.5752   -119.21116    2.1178017   -117.09336   -28596.389    4.2897269    4.2897269    4.2897269   -28596.389   -51204.042   -20791.409   -13793.715   -2483.2234    7516.3666    4751.8838    78.938511 
   80800    1353.3394   -118.31951    1.2245299   -117.09498   -24601.536    4.2798751    4.2798751    4.2798751   -24601.536   -21622.657   -36354.948   -15827.003    7998.0531    14002.623    26133.405    78.395889 
   80900    1061.5205   -118.04096    0.9604861   -117.08048    27515.483     4.247439     4.247439     4.247439    27515.483    13337.782    42754.127     26454.54    -3323.045    13820.482    24000.312    76.626933 
   81000    1824.7393   -118.75583    1.6510624   -117.10476   -2015.8344    4.2697795    4.2697795    4.2697795   -2015.8344    -19044.73     9109.624    3887.6029    -19073.19    12646.475   -6241.2004    77.842423 
   81100    1625.1003   -118.56789    1.4704249   -117.09746   -12153.781    4.3004741    4.3004741    4.3004741   -12153.781   -31466.207   -31783.658    26788.521    2409.7217    8101.6453    4871.3113      79.5333 
   81200    1348.2673   -118.29651    1.2199406   -117.07657   -8701.3481    4.2947449    4.2947449    4.2947449   -8701.3481   -51923.636   -34138.997    59958.589    5995.9393    2772.6391    33812.079    79.215855 
   81300    1742.8558   -118.63772    1.5769725   -117.06075    19518.738    4.2638507    4.2638507    4.2638507    19518.738    3129.7885    2738.1178    52688.309   -11029.884    11632.776    -40.14931    77.518606 
   81400     1802.434   -118.70588    1.6308802     -117.075   -1492.2903    4.2613661    4.2613661    4.2613661   -1492.2903    46806.743   -22354.073    -28929.54    362.58637    7267.5721    2759.4706    77.383176 
   81500     1140.792   -118.13542    1.0322126    -117.1032   -18077.336    4.2822682    4.2822682    4.2822682   -18077.336    27165.337   -69791.198   -11606.146    5595.1095   -829.50376    19323.616     78.52747 
   81600    1582.4982   -118.52249    1.4318777   -117.09062     6349.997    4.2861785    4.2861785    4.2861785     6349.997    1424.9069   -51252.328    68877.412   -1136.0905    2998.9518   -1985.8952    78.742782 
   81700    2078.3037   -118.94718    1.8804929   -117.06669   -24250.511    4.2941715    4.2941715    4.2941715   -24250.511   -1340.2817   -73706.912      2295.66    -5276.333   -17918.741    2530.4597    79.184132 
   81800    517.35836   -117.53961   0.46811672   -117.07149    43092.883     4.280691     4.280691     4.280691    43092.883    112407.91   -40738.043    57608.781    10448.264   -11203.368    26623.793    78.440735 
   81900    1194.8035   -118.15549    1.0810834   -117.07441    32064.874    4.2782782    4.2782782    4.2782782    32064.874    75116.357   -15935.166     37013.43    11275.132   -11380.161    4130.2313    78.308166 
   82000    2341.5727   -119.18309    2.1187042   -117.06438   -16398.607    4.2831559    4.2831559    4.2831559   -16398.607   -31992.813   -18912.577    1709.5701   -3693.1229    14824.668   -4897.0168    78.576311 
   82100    1347.9324   -118.29329    1.2196375   -117.07366    30272.997    4.2800812    4.2800812    4.2800812    30272.997   -5454.3114    22493.755    73779.549    653.76408    7898.7787     24261.12    78.407217 
   82200    974.43995     -117.964   0.88169374   -117.08231   -10487.425    4.2959619    4.2959619    4.2959619   -10487.425    14391.794   -34011.741   -11842.327    12467.701   -4952.8353    9524.0291    79.283216 
   82300    1593.9283   -118.50045    1.4422199   -117.05823   -7496.9079    4.2840259    4.2840259    4.2840259   -7496.9079   -33281.096    27297.353   -16506.981    9591.0147    11422.187    -10525.53    78.624205 
   82400    1203.6375   -118.15921    1.0890765   -117.07014    21527.752    4.2791323    4.2791323    4.2791323    21527.752    15587.198    53582.474   -4586.4153   -12262.744    3157.9166    32252.834    78.355077 
   82500    1384.3025   -118.33199     1.252546   -117.07945   -12127.214    4.2945249    4.2945249    4.2945249   -12127.214   -32706.551      27237.4   -30912.493   -1811.2589   -6231.2417     14527.22    79.203683 
   82600    2080.6222   -118.93919    1.8825907    -117.0566   -19694.532    4.2991222    4.2991222    4.2991222   -19694.532   -37633.708    5482.3488   -26932.238    10333.958   -4263.5531   -4845.6813    79.458319 
   82700     1163.206   -118.11796    1.0524933   -117.06547   -12627.991    4.3038944    4.3038944    4.3038944   -12627.991    50637.183   -51784.565   -36736.592    14198.963   -243.28535    36544.288     79.72322 
   82800    1724.0551   -118.61184    1.5599613   -117.05188   -13074.719    4.2767659    4.2767659    4.2767659   -13074.719    40887.591   -48641.426   -31470.322   -580.28646    3875.6372   -10857.163    78.225156 
   82900    1807.6403   -118.68844    1.6355909   -117.05285    18519.862    4.2561394    4.2561394    4.2561394    18519.862   -3818.1498    13694.393    45683.341    787.64365    11.679224    12232.946    77.098784 
   83000    1438.5192   -118.40112    1.3016024   -117.09951    -31043.24    4.2891872    4.2891872    4.2891872    -31043.24   -21546.685   -26491.336     -45091.7    967.70557   -7438.8093    65450.575    78.908724 
   83100    1920.1552   -118.80441    1.7373968   -117.06701   -36203.489    4.3068886    4.3068886    4.3068886   -36203.489   -51438.461   -22916.407   -34255.599    10215.792    4735.5518    13533.083    79.889723 
   83200    1494.0445    -118.4102    1.3518429   -117.05836   -23564.231    4.2814325    4.2814325    4.2814325   -23564.231   -38081.957   -30376.546   -2234.1894    19050.257     7443.428    -5443.511    78.481501 
   83300    662.48856   -117.65961   0.59943357   -117.06017    22601.342      4.24997      4.24997      4.24997    22601.342    60945.195   -5011.7923    11870.623    3465.6819   -9792.6598    37318.387    76.763999 
   83400    1821.1033   -118.74507    1.6477725    -117.0973   -6716.4466     4.269563     4.269563     4.269563   -6716.4466   -12472.054    7959.1478   -15636.433   -6280.0403      128.631    18535.618    77.830579 
   83500    2051.8742   -118.93857    1.8565789     -117.082   -32780.484    4.2992558    4.2992558    4.2992558   -32780.484    -50348.49   -5456.5791   -42536.383   -2893.8311    11731.437   -9563.3331    79.465727 
   83600    942.19195   -117.91719   0.85251508   -117.06468    10119.644    4.2856777    4.2856777    4.2856777    10119.644     44107.57   -42131.153    28382.515   -4237.7527    11204.736     40547.55    78.715187 
   83700    1515.2948   -118.42286    1.3710706   -117.05179    16463.529    4.2693612    4.2693612    4.2693612    16463.529    64777.044   -57975.563    42589.106    17631.958   -11791.105    1621.4425    77.819549 
   83800    1620.9774   -118.53022    1.4666944   -117.06352   -11273.768    4.2742887    4.2742887    4.2742887   -11273.768   -6931.9486   -30692.565    3803.2107    -29660.24    5301.3624    -11454.33    78.089304 
   83900    929.61582   -117.92512   0.84113593   -117.08398    17492.741    4.2741244    4.2741244    4.2741244    17492.741     25467.14   -15540.174    42551.257   -31315.234    10475.907    33953.208      78.0803 
   84000    2064.7247   -118.94162    1.8682063   -117.07341    5137.6541    4.2773986    4.2773986    4.2773986    5137.6541    533.22645   -13395.536    28275.272    17342.037    -6012.396    111.08201     78.25988 
   84100    1993.7236   -118.88184     1.803963   -117.07788   -3406.3939    4.2751973    4.2751973    4.2751973   -3406.3939   -10561.042   -36189.415    36531.275   -13061.603   -2688.5149     -12352.7    78.139117 
   84200    846.07262    -117.8613   0.76554429   -117.09575    30057.064    4.2649632    4.2649632    4.2649632    30057.064    51442.097   -24155.189    62884.285   -26846.024    -9842.851    31622.204    77.579301 
   84300    1550.7446    -118.4927    1.4031463   -117.08955   -9593.3599    4.2828642    4.2828642    4.2828642   -9593.3599    22610.007   -37012.392   -14377.696   -3432.7973   -5196.3967    9718.0031    78.560259 
   84400    1591.3192   -118.50344     1.439859   -117.06358    2410.4591    4.2949663    4.2949663    4.2949663    2410.4591   -32372.971    45157.827   -5553.4778   -11666.149   -5795.2804   -6192.5146    79.228106 
   84500    1207.9165   -118.15167    1.0929482   -117.05873   -6065.6717    4.2930132    4.2930132    4.2930132   -6065.6717   -26601.555   -11324.598    19729.138   -23832.956   -4985.1756    26934.354    79.120069 
   84600    1960.1948   -118.80537    1.7736255   -117.03175   -5517.8351    4.2833608    4.2833608    4.2833608   -5517.8351   -1742.3254   -2761.3176   -12049.862    14787.897   -14175.467    6851.3068    78.587593 
   84700    1420.6495   -118.33413    1.2854336    -117.0487    36636.635    4.2907724    4.2907724    4.2907724    36636.635    85532.266   -19788.088    44165.728   -13560.627    29780.783   -5310.3426    78.996241 
   84800    1089.6433   -118.03538    0.9859322   -117.04944   -4715.4221    4.3132266    4.3132266    4.3132266   -4715.4221    41939.196   -31412.303    -24673.16   -16679.289    10955.184    11050.634    80.242941 
   84900    1909.8858   -118.73135    1.7281048   -117.00325   -38141.705    4.3150231    4.3150231    4.3150231   -38141.705   -44359.147    -2124.176   -67941.792    12659.248   -8970.4174    731.48498    80.343244 
   85000    729.73127   -117.66222   0.66027619   -117.00194    48818.289    4.2983107    4.2983107    4.2983107    48818.289    35412.948    70807.436    40234.483   -31971.455    28900.209    20899.687    79.413329 
   85100    2112.7138   -118.89882    1.9116279   -116.98719   -47424.102    4.3012513    4.3012513    4.3012513   -47424.102   -42002.416   -64174.989   -36094.901    27235.666   -15448.477   -9687.8723    79.576427 
   85200    1040.3548   -117.94689   0.94133493   -117.00555    51751.055    4.3172741    4.3172741    4.3172741    51751.055    85068.762    22366.161    47818.242   -20826.554    24356.451    19158.409    80.469051 
   85300    1824.4455   -118.61784    1.6507966   -116.96704    -41237.93    4.3371935    4.3371935    4.3371935    -41237.93   -41957.462    2362.5641   -84118.892    143.99336    2735.4763   -8949.5765    81.588019 
   85400    1161.1797   -117.99343    1.0506598   -116.94277     11701.82    4.3338612    4.3338612    4.3338612     11701.82    37713.584    -57393.93    54785.805   -1547.6503    30931.968    7925.5863    81.400112 
   85500    1546.7541    -118.3301    1.3995356   -116.93056   -2960.3731     4.316235     4.316235     4.316235   -2960.3731    11764.067   -57422.294    36777.108     15617.19    3136.0755   -4009.8872    80.410959 
   85600    1440.9101   -118.26381    1.3037657   -116.96004   -12085.634    4.3191249    4.3191249    4.3191249   -12085.634   -43952.724    46682.636   -38986.814    7461.6695   -9200.6049    2521.9295    80.572585 
   85700    1284.9823   -118.13962     1.162679   -116.97694   -87.893984    4.3287805    4.3287805    4.3287805   -87.893984    -1337.669    23569.324   -22495.337   -8964.7436    1005.8544    21580.281    81.114162 
   85800    2066.6432   -118.81523    1.8699422   -116.94528   -38217.598    4.3129992    4.3129992    4.3129992   -38217.598   -44171.098   -46218.363   -24263.334   -3580.8046    -11196.92   -12421.081    80.230245 
   85900    1051.0022   -117.91833    0.9509689   -116.96736    59878.782    4.2920709    4.2920709    4.2920709    59878.782    20458.644    109762.52    49415.184    -28494.08    13999.956    20498.344    79.067985 
   86000    1767.7657   -118.60097    1.5995116   -117.00146   -21781.036    4.3092264    4.3092264    4.3092264   -21781.036   -31473.297    15329.007    -49198.82    19990.695   -26295.933    7932.0132    80.019885 
   86100    1315.7452   -118.19978    1.1905139   -117.00926    5475.9761    4.3191543    4.3191543    4.3191543    5475.9761   -11697.368   -35926.738    64052.035    1528.8689    12728.064    10384.391    80.574227 
   86200    1622.4618    -118.4705    1.4680375   -117.00246    13740.253    4.3037668    4.3037668    4.3037668    13740.253   -13380.223    49.816701    54551.166    -18273.45    9743.0069    8814.2019    79.716129 
   86300    1382.2351   -118.26217    1.2506754    -117.0115   -10875.413    4.2873203    4.2873203    4.2873203   -10875.413   -3541.2568   -15797.568   -13287.415     17021.94   -8407.6222    24029.559    78.805727 
   86400    1097.0576   -118.03102    0.9926408   -117.03838   -8195.7964    4.2790909    4.2790909    4.2790909   -8195.7964    32728.001   -53492.872   -3822.5184     5121.532   -7860.6395    19702.832    78.352804 
   86500    2103.0773   -118.95152    1.9029085   -117.04861    15190.186    4.2680649    4.2680649    4.2680649    15190.186    1273.3795    6706.0305    37591.147   -11583.453   -2136.7793   -15547.448    77.748685 
   86600    1542.9238   -118.48566    1.3960699   -117.08959   -27539.301    4.2862293    4.2862293    4.2862293   -27539.301    -22945.21   -20272.326   -39400.367   -2798.6817   -3157.4436    52738.027    78.745581 
   86700     1037.965    -118.0277   0.93917257   -117.08852   -26161.136    4.2874862    4.2874862    4.2874862   -26161.136     394.9232   -64246.804   -14631.527     7643.748    6994.7382    36720.747    78.814877 
   86800    1987.1659   -118.85954    1.7980294   -117.06151   -16488.151    4.2718452    4.2718452    4.2718452   -16488.151   -39143.803   -7876.7201   -2443.9291   -3023.5472   -4907.1275   -20194.574    77.955459 
   86900    1833.3456    -118.7404    1.6588496   -117.08155   -5328.2082     4.267742     4.267742     4.267742   -5328.2082   -6061.0588   -26767.548    16843.982   -9961.0352   -13259.762    28603.816    77.731041 
   87000     1235.723   -118.22813    1.1181081   -117.11003    5727.5642    4.2756013    4.2756013    4.2756013    5727.5642    13180.947   -17419.058    21420.804   -637.24161   -2240.8767    48213.782    78.161269 
   87100    1754.6658   -118.67858    1.5876585   -117.09092   -34470.609     4.289752     4.289752     4.289752   -34470.609   -40476.486    -22147.38    -40787.96    1129.7826    12641.482   -40361.449      78.9399 
   87200    1330.0074   -118.28064    1.2034186   -117.07722    20981.917    4.2652757    4.2652757    4.2652757    20981.917    43744.884    47973.484   -28772.616   -1011.8148     8601.418    6383.2472    77.596354 
   87300    1450.4171    -118.3934    1.3123679   -117.08104    10355.752    4.2651983    4.2651983    4.2651983    10355.752    25556.595    42531.866   -37021.205   -11658.024   -4894.2652    60402.596     77.59213 
   87400    1866.6916   -118.77185    1.6890218   -117.08283   -5117.6776    4.2907093    4.2907093    4.2907093   -5117.6776   -44825.677    31193.408   -1720.7631   -4752.0097    757.26875    1601.9584    78.992759 
   87500     1539.072   -118.46674    1.3925847   -117.07416   0.77142403      4.30161      4.30161      4.30161   0.77142403   -8224.3418    34009.828   -25783.172    13324.261    14403.603   -14940.382    79.596342 
   87600    1458.4505   -118.39016    1.3196367   -117.07052   -12597.125    4.2856525    4.2856525    4.2856525   -12597.125    -24310.84   -2074.7529   -11405.782    11030.829    10196.179    17310.325    78.713795 
   87700    1577.1795   -118.48517    1.4270652    -117.0581    28419.775    4.2571524    4.2571524    4.2571524    28419.775    4599.5556    32244.486    48415.282   -15706.252   -5623.2296    13195.833    77.153847 
   87800    1163.3787   -118.14804    1.0526495    -117.0954     13807.24    4.2709484    4.2709484    4.2709484     13807.24   -7981.9396    44452.665    4950.9937   -28459.102   -6462.0205   -9288.6714    77.906369 
   87900    1444.9141   -118.39786    1.3073886   -117.09048   -19724.194    4.2927822    4.2927822    4.2927822   -19724.194   -9177.1362    13287.219   -63282.666    2379.2486     16013.18   -669.59604    79.107301 
   88000    2119.2322   -118.99146    1.9175259   -117.07393   -18803.538    4.2803099    4.2803099    4.2803099   -18803.538    9682.9918   -22997.894   -43095.714    6155.6281    15245.366    11261.706    78.419785 
   88100    1643.9923   -118.57739    1.4875188   -117.08988    -11791.44    4.2639302    4.2639302    4.2639302    -11791.44   -43649.006    -1344.512    9619.1987   -33182.059     -25244.3    318.22071    77.522947 
   88200    1187.9846   -118.17937    1.0749135   -117.10446   -4940.0973    4.2543447    4.2543447    4.2543447   -4940.0973   -51249.384    25016.078    11413.014   -28611.636   -21898.371     2520.625    77.001296 
   88300    1410.6056   -118.39918    1.2763456   -117.12283   -7611.0003    4.2708685    4.2708685    4.2708685   -7611.0003   -18480.966    3976.5214   -8328.5561    11022.319    21497.598    9386.4489    77.901998 
   88400    1627.1225    -118.5836    1.4722546   -117.11134   -27575.892    4.2857173    4.2857173    4.2857173   -27575.892   -12282.685    -26419.32   -44025.672    23631.633    3879.6906     2609.851    78.717367 
   88500    1447.2417   -118.40764    1.3094947   -117.09814    24831.106    4.2637754    4.2637754    4.2637754    24831.106    45749.231    12910.809    15833.279   -5827.3487   -43699.948    276.93865    77.514499 
   88600    1680.5197   -118.61661    1.5205695   -117.09605    2081.5777    4.2640129    4.2640129    4.2640129    2081.5777     -3875.09    -8358.413    18478.236    -28355.09   -12537.732    15827.012    77.527455 
   88700    1477.6915   -118.42883    1.3370463   -117.09178   -8255.4614    4.2723931    4.2723931    4.2723931   -8255.4614    16587.269    7848.0274    -49201.68    920.21247    17762.039    19727.327    77.985458 
   88800    880.37685   -117.90045   0.79658347   -117.10387    275.88104    4.2853005    4.2853005    4.2853005    275.88104   -39485.805    86632.846   -46319.397    16999.393   -37494.894   -10712.572    78.694405 
   88900    1489.4295   -118.42903    1.3476671   -117.08136   -6042.9236    4.2983047    4.2983047    4.2983047   -6042.9236    -58648.77     62999.74   -22479.741    13504.783   -11402.735   -20612.886    79.412999 
   89000    2073.5111   -118.93369    1.8761564   -117.05753   -9904.3752    4.2855353    4.2855353    4.2855353   -9904.3752    -38944.18    38178.728   -28947.674    1133.8467   -591.43247    17506.332    78.707337 
   89100    1329.5164   -118.27122    1.2029744   -117.06825    -3623.237    4.2736337    4.2736337    4.2736337    -3623.237   -44345.575    37149.893   -3674.0286   -4684.8757   -49814.033    20081.769    78.053414 
   89200    1294.0888   -118.25192    1.1709187   -117.08101    701.57296    4.2752306    4.2752306    4.2752306    701.57296   -16511.453    19767.238   -1151.0652    20372.682   -11812.264    -13747.67    78.140938 
   89300    1456.6403    -118.4014    1.3179988    -117.0834    4316.6879    4.2870851    4.2870851    4.2870851    4316.6879   -5119.3674    13005.437    5063.9946    13745.824    18284.544   -22242.648    78.792762 
   89400    1449.2869   -118.39192    1.3113452   -117.08058    3179.4009    4.2898717    4.2898717    4.2898717    3179.4009   -10205.253    31171.888   -11428.432    -11446.45   -22881.815     10577.38    78.946506 
   89500    1662.0559   -118.57649    1.5038631   -117.07262    17736.601    4.2717086    4.2717086    4.2717086    17736.601    50375.835    33506.095   -30672.128    3579.8945    -30479.94    964.89589    77.947981 
   89600    1492.6389   -118.43535     1.350571   -117.08478    17591.097      4.26303      4.26303      4.26303    17591.097    72167.326   -7619.8953   -11774.141    15099.118    11644.661   -11699.604    77.473853 
   89700    1236.9013   -118.22222    1.1191743   -117.10305   -11975.583    4.2687444    4.2687444    4.2687444   -11975.583   -38331.593    28820.583    -26415.74    11417.438    60186.395    -2645.162    77.785824 
   89800    1673.0871   -118.61819    1.5138444   -117.10434   -9402.7787    4.2771268    4.2771268    4.2771268   -9402.7787   -19144.869    11227.781   -20291.248    4279.3152    9465.1682    2648.4687    78.244961 
   89900    1856.2967   -118.77119    1.6796163   -117.09158   -42283.981    4.2946037    4.2946037    4.2946037   -42283.981   -23491.757   -41986.649   -61373.536    6047.4363   -9062.7139   -620.85319    79.208043 
   90000    1118.1271   -118.09671    1.0117049     -117.085    275.84857    4.2705249    4.2705249    4.2705249    275.84857    11528.607    -3254.091   -7446.9706    7005.2258    68796.228   -9082.0253    77.883196 
   90100    1747.7705   -118.65348    1.5814194   -117.07206    7894.8619     4.251144     4.251144     4.251144    7894.8619    11830.119    11461.716    392.75065    15028.553    14148.712   -3826.4416    76.827631 
   90200    1356.5313   -118.32949     1.227418   -117.10207   -13391.287    4.2778588    4.2778588    4.2778588   -13391.287    6049.6353   -24064.464   -22159.033   -5811.6845   -33880.279    15493.788    78.285142 
   90300    1349.7618   -118.30123    1.2212928   -117.07994   -30239.456    4.2954314    4.2954314    4.2954314   -30239.456    -15027.05   -27991.864   -47699.453   -9705.7026    26757.009   -6059.7607    79.253847 
   90400    1735.4193   -118.63095    1.5702439    -117.0607   -9958.3764     4.277736     4.277736     4.277736   -9958.3764    22092.616   -19171.906    -32795.84    9244.4527    23054.541   -4820.9413    78.278398 
   90500    822.88606   -117.81613    0.7445646   -117.07157    10825.855    4.2652716    4.2652716    4.2652716    10825.855    35548.997    1774.1237   -4845.5552    475.66563   -28567.928    13269.674    77.596129 
   90600    1587.9755   -118.51264    1.4368336   -117.07581   -11279.933    4.2727471    4.2727471    4.2727471   -11279.933    5291.1099   -41316.072    2185.1637   -31683.891    691.69608     -16040.2    78.004843 
   90700    1648.0911   -118.56143    1.4912274   -117.07021   -7198.1494    4.2866379    4.2866379    4.2866379   -7198.1494   -49629.992    11555.229    16480.315   -1244.2455      18972.8    14827.224    78.768106 
   90800    726.59439   -117.73139   0.65743788   -117.07396    13313.059    4.2943059    4.2943059    4.2943059    13313.059   -23012.664    91838.094   -28886.254    20701.439   -29325.497    29821.778    79.191565 
   90900    2125.4191   -118.96491    1.9231239   -117.04179   -9777.7194    4.2853542    4.2853542    4.2853542   -9777.7194   -561.54796   -9703.0003    -19068.61   -18828.506   -3672.3346   -17710.568    78.697359 
   91000    1581.8661   -118.47522    1.4313056   -117.04392    22286.716    4.2840082    4.2840082    4.2840082    22286.716    44227.616    6302.9696    16329.562    22892.203   -5282.6064    951.76209    78.623229 
   91100    1212.6932   -118.14904    1.0972703   -117.05177    814.65631    4.3001441    4.3001441    4.3001441    814.65631    7427.4527   -11107.565    6124.0809    27413.781   -19948.969    2055.9655    79.514996 
   91200     2096.021   -118.91623    1.8965238    -117.0197   -19231.241    4.2983092    4.2983092    4.2983092   -19231.241   -32795.635   -26731.727    1833.6387    -18812.65    15924.369   -7115.6329    79.413247 
   91300    1134.6887   -118.05301    1.0266902   -117.02632    11912.288    4.2939714    4.2939714    4.2939714    11912.288   -13727.903    42427.427    7037.3413    20169.979   -2799.5759    10992.337    79.173063 
   91400    1379.3194   -118.28478    1.2480372   -117.03674    11855.214    4.2981477    4.2981477    4.2981477    11855.214    5931.8743    58358.059   -28724.292    28860.168    4737.3255   -19327.731    79.404299 
   91500    1702.3235   -118.57768    1.5402981   -117.03738    15184.432    4.2803426    4.2803426    4.2803426    15184.432    17134.842    11838.467    16579.986   -11527.837    6623.8725    11087.258    78.421582 
   91600    1464.1753   -118.38865    1.3248166   -117.06383   -10805.241     4.278203     4.278203     4.278203   -10805.241    -12606.61   -71655.997    51846.885    1032.6005   -791.60119    44397.497    78.304041 
   91700    1635.9716   -118.55241    1.4802615   -117.07215   -15225.115     4.283795     4.283795     4.283795   -15225.115   -13166.421   -31061.523   -1447.4001    10771.857    7890.1515    16313.316    78.611495 
   91800    2096.8393   -118.96387    1.8972643    -117.0666    -3863.624    4.2711407    4.2711407    4.2711407    -3863.624   -35263.062    3138.3676    20533.822   -562.92619     3639.338   -14989.783    77.916897 
   91900    943.70963   -117.95037    0.8538883   -117.09648   -13307.542    4.2660168    4.2660168    4.2660168   -13307.542   -4221.3453   -58684.167    22982.886   -1736.6961    5985.4817    37478.118    77.636808 
   92000    1421.5123   -118.38784    1.2862142   -117.10163     15207.32    4.2611266    4.2611266    4.2611266     15207.32    15598.855    6976.9571    23046.148    17135.752   -6827.5071    26747.061     77.37013 
   92100    2295.1728   -119.17455    2.0767206   -117.09783   -10884.164     4.286542     4.286542     4.286542   -10884.164   -21667.485   -34682.821    23697.813   -6406.2913   -12651.607   -17648.451    78.762818 
   92200    1199.5411   -118.17071      1.08537   -117.08534   -6193.1289    4.2925443    4.2925443    4.2925443   -6193.1289    21712.837   -1545.4708   -38746.752   -25379.339    10450.232    26786.249    79.094151 
   92300    1125.5225   -118.08398    1.0183964   -117.06559    25378.153    4.2743486    4.2743486    4.2743486    25378.153    75475.791   -5982.8328    6641.4998    15864.332   -3528.5851    26820.802    78.092587 
   92400    1813.3417   -118.70242    1.6407497   -117.06167   -2038.2756    4.2892569    4.2892569    4.2892569   -2038.2756    14431.941    7091.8049   -27638.573    13679.283   -8442.8729   -27074.989    78.912567 
   92500    1172.7602   -118.12614    1.0611381     -117.065   -24020.875    4.3048348    4.3048348    4.3048348   -24020.875   -7495.8258   -29316.518   -35250.282   -29316.371   -6002.6064    17435.402    79.775488 
   92600    1920.5121   -118.78021    1.7377197   -117.04249   -6897.5199    4.2806561    4.2806561    4.2806561   -6897.5199   -9861.3331   -46020.018    35188.791   -8728.8926    11180.467    11856.655    78.438814 
   92700    1986.7296    -118.8366    1.7976347   -117.03897    -2860.457    4.2612629    4.2612629    4.2612629    -2860.457   -8202.4263    12273.677   -12652.622    8519.3677    21112.793   -6577.5591    77.377554 
   92800    877.60393   -117.87918   0.79407448    -117.0851     1171.898    4.2639647    4.2639647    4.2639647     1171.898   -16397.363    27237.134   -7324.0767   -20176.871    4889.0971    4665.2398    77.524828 
   92900     1349.419    -118.3249    1.2209826   -117.10391    2417.4187    4.2769288    4.2769288    4.2769288    2417.4187    7224.8173   -25999.085    26026.524   -30363.721   -2106.7657    15676.066    78.234093 
   93000    1871.4127    -118.7816    1.6932935   -117.08831   -14558.606    4.2896067    4.2896067    4.2896067   -14558.606   -24610.696    -23987.07    4921.9475    17898.927    12438.304   -2981.5376    78.931878 
   93100    1247.9939   -118.20736    1.1292111   -117.07815    8444.7198    4.2765209    4.2765209    4.2765209    8444.7198   -20563.636    28554.984    17342.811    11397.868    29745.048   -5488.3382    78.211714 
   93200    1504.1415   -118.43678    1.3609788    -117.0758    7651.0145    4.2646891    4.2646891    4.2646891    7651.0145    34382.649   -17922.931     6493.326   -30610.537   -3345.6308    4822.5862    77.564343 
   93300     1634.078   -118.57096    1.4785482   -117.09242   -605.27263    4.2765466    4.2765466    4.2765466   -605.27263     1185.131   -14761.719     11760.77    11585.639   -6471.7347    8105.8817    78.213121 
   93400    1327.6312   -118.29749    1.2012686   -117.09622    7825.4538    4.2803892    4.2803892    4.2803892    7825.4538    51503.089    -11544.92   -16481.808     41761.61    23572.039    4893.8043    78.424144 
   93500    1445.4635    -118.4035    1.3078857   -117.09561    2527.2594    4.2697561    4.2697561    4.2697561    2527.2594    30304.798    12636.067   -35359.087   -4184.9633    5559.2824   -4448.7213    77.841141 
   93600    1388.8743   -118.34499    1.2566827   -117.08831    4086.3429    4.2631134    4.2631134    4.2631134    4086.3429    -5752.856    21920.936    -3909.051   -14255.912   -8070.8895   -19878.373      77.4784 
   93700    1475.2483   -118.43598    1.3348357   -117.10115   -17027.802    4.2756848    4.2756848    4.2756848   -17027.802   -21355.234   -30212.589    484.41701    40195.456    12838.052    3394.8747     78.16585 
   93800     1511.795   -118.46856    1.3679039   -117.10066   -25079.693    4.2769431    4.2769431    4.2769431   -25079.693   -27402.153   -24429.296   -23407.631    27370.703    21486.421    12706.147    78.234881 
   93900    1927.9842   -118.83369    1.7444807   -117.08921    1005.1152    4.2645312    4.2645312    4.2645312    1005.1152    38466.736    4417.6117   -39869.002   -519.54624    8932.7766   -25367.222    77.555729 
   94000    1733.9147   -118.66222    1.5688824   -117.09333   -13721.026    4.2701163    4.2701163    4.2701163   -13721.026   -27218.322   -3730.2319   -10214.525    9778.3013   -10920.289   -8155.5641    77.860847 
   94100    543.73231   -117.60166   0.49198042   -117.10968   -5866.1545    4.2726664    4.2726664    4.2726664   -5866.1545   -61340.329     29912.04    13829.826    10083.773    16287.696    19232.373    78.000424 
   94200    1262.1414   -118.25402    1.1420121   -117.11201   -4112.2817     4.270996     4.270996     4.270996   -4112.2817   -10930.719    26636.978   -28043.103   -21970.297    21269.113    10198.755    77.908973 
   94300    2164.8792   -119.05345    1.9588282   -117.09462   -15393.044    4.2734436    4.2734436    4.2734436   -15393.044   -8332.9522   -11296.953   -26549.226    8326.5141   -15176.352   -23415.641    78.042995 
   94400    1621.6395   -118.55932    1.4672935   -117.09202   -10554.123    4.2699243    4.2699243    4.2699243   -10554.123   -13575.023    578.98484   -18666.331    16056.207   -5272.7549   -6786.3411     77.85034 
   94500    1149.8228   -118.13648    1.0403838   -117.09609    9742.0668     4.268688     4.268688     4.268688    9742.0668   -48965.361    51340.818    26850.744   -9047.6049    23626.518      14296.4    77.782738 
   94600    1152.0233   -118.14364    1.0423749   -117.10127    1502.4526    4.2741001    4.2741001    4.2741001    1502.4526   -39287.085    56318.451   -12524.008   -15394.987    12095.588   -5162.2225     78.07897 
   94700    1620.5706   -118.56278    1.4663263   -117.09646    2788.9553    4.2712115    4.2712115    4.2712115    2788.9553    33720.761    2261.3972   -27615.292   -7578.2401   -13352.101   -39636.136    77.920769 
   94800    2005.5716   -118.90446    1.8146833   -117.08978    13790.833    4.2703157    4.2703157    4.2703157    13790.833    36282.811    -7325.642    12415.329    7353.5669    5651.2902    6981.6578    77.871751 
   94900    1475.1696   -118.42545    1.3347645   -117.09069   -14193.417    4.2785768    4.2785768    4.2785768   -14193.417   -38198.476   -2797.5183   -1584.2566    8491.0921    28610.051    204.87978    78.324568 
   95000    628.97205   -117.66356   0.56910713   -117.09445   -4894.0526    4.2739912    4.2739912    4.2739912   -4894.0526   -25442.676   -1205.1176    11965.636   -6609.4689   -4231.3196   -51930.854    78.072999 
   95100    1703.5402   -118.62286    1.5413989   -117.08146   -6547.3224    4.2728423    4.2728423    4.2728423   -6547.3224   -34376.246    24553.722   -9819.4436    15330.774    2759.3554    1493.1288    78.010058 
   95200    2134.3563   -119.01136    1.9312104   -117.08015   -17078.896    4.2779569    4.2779569    4.2779569   -17078.896   -11253.559   -4540.4202    -35442.71    19111.581    15858.774    2378.0282    78.290525 
   95300     1342.875   -118.30513    1.2150615   -117.09007    7085.1976    4.2725486    4.2725486    4.2725486    7085.1976    28264.405    24609.096   -31617.909   -18517.669   -4676.9755   -47492.533     77.99397 
   95400    1174.6117     -118.152    1.0628134   -117.08918    349.85322    4.2754585    4.2754585    4.2754585    349.85322   -44443.351   -18430.069     63922.98     21908.76   -7590.4766   -5005.5684    78.153438 
   95500    1455.8783   -118.39876    1.3173092   -117.08145   -8239.9554    4.2757991    4.2757991    4.2757991   -8239.9554   -45751.458   -3424.6661    24456.257    30593.257    4417.2927     1936.015    78.172115 
   95600    1308.0986   -118.27356    1.1835951   -117.08997    18141.733     4.274059     4.274059     4.274059    18141.733    41238.852   -4890.3252    18076.672   -10635.457    5875.6518   -32588.981    78.076714 
   95700    1962.6268   -118.85919     1.775826   -117.08337   -14389.142    4.2823169    4.2823169    4.2823169   -14389.142     1637.695   -3395.7942   -41409.328   -2809.9066   -5804.4134   -1932.6509    78.530144 
   95800     1741.388   -118.64934    1.5756444    -117.0737    15503.701    4.2687924    4.2687924    4.2687924    15503.701   -39797.803    48969.003    37339.903    9834.1898   -2775.3636     22953.53    77.788445 
   95900    936.49651   -117.93845   0.84736173   -117.09109    12244.032    4.2674129    4.2674129    4.2674129    12244.032   -9169.7749    33125.796    12776.076   -4384.4224   -2537.3856   -31053.234     77.71306 
   96000    1085.5316   -118.08054   0.98221178   -117.09833    2803.9802    4.2791817    4.2791817    4.2791817    2803.9802   -10431.239    41132.612   -22289.432   -10630.282    10539.261   -15309.945    78.357793 
   96100    1776.9628   -118.69526    1.6078332   -117.08743    -8156.262    4.2863143    4.2863143    4.2863143    -8156.262   -27747.552    11014.566   -7735.8006   -5556.7912    5168.9087    35579.196    78.750266 
   96200    1832.9016   -118.74071    1.6584479   -117.08226   -14075.197    4.2840466    4.2840466    4.2840466   -14075.197   -4774.5232   -43983.178    6532.1102    2027.5613   -26062.735    4958.6403    78.625343 
   96300    1427.4251   -118.37629    1.2915643   -117.08473    13031.642     4.266575     4.266575     4.266575    13031.642    18441.361   -1556.8603    22210.425    1271.6877     3400.762   -35958.386     77.66729 
   96400    1047.5441   -118.04674   0.94783993    -117.0989   -1395.4929    4.2716332    4.2716332    4.2716332   -1395.4929   -32151.034    19784.533    8180.0231   -3949.4934    46899.433    -5675.122    77.943849 
   96500    1512.0119   -118.45716    1.3681001   -117.08906   -28633.988    4.2820425    4.2820425    4.2820425   -28633.988   -54233.245   -19283.986   -12384.732   -10641.312   -7397.8272    12402.194    78.515053 
   96600    1838.2166   -118.74903     1.663257   -117.08577   -6159.9163    4.2719427    4.2719427    4.2719427   -6159.9163    13093.763   -33044.761    1471.2484   -10661.137   -36560.408   -12507.761    77.960793 
   96700    1483.2413   -118.43509    1.3420679   -117.09302    6029.7548    4.2626897    4.2626897    4.2626897    6029.7548   -284.06935    436.80227    17936.531    681.10172     43516.97   -16071.124    77.455305 
   96800    1451.7007   -118.41603    1.3135293    -117.1025    1343.4813    4.2744229    4.2744229    4.2744229    1343.4813   -156.13433   -2284.3599    6470.9381   -1591.1956    45631.331    4286.0881    78.096661 
   96900    1711.8222   -118.63146    1.5488927   -117.08256   -21177.755    4.2945461    4.2945461    4.2945461   -21177.755   -212.05655   -34363.354   -28957.855    1167.2128   -24314.841    7688.6476    79.204854 
   97000    1199.7147   -118.17362    1.0855271   -117.08809    3237.7611    4.2723658    4.2723658    4.2723658    3237.7611   -26108.052    18417.751    17403.585    5253.4698        12831    -18070.47    77.983959 
   97100    1599.7614   -118.51564    1.4474978   -117.06814    48698.103    4.2440582    4.2440582    4.2440582    48698.103    73236.836    39748.953    33108.522   -965.89496    44955.003   -4922.8992    76.444102 
   97200    1678.0486   -118.62173    1.5183336    -117.1034    4244.7496    4.2784425    4.2784425    4.2784425    4244.7496    29567.889   -24207.646    7374.0066    15164.644   -802.83314    26723.108    78.317188 
   97300     1401.519   -118.34322    1.2681238    -117.0751   -1354.1634    4.2963477    4.2963477    4.2963477   -1354.1634   -36897.011    21643.979    11190.542   -7566.6127   -12925.061   -12869.896    79.304579 
   97400    1369.7844   -118.29362    1.2394097   -117.05421    3467.4334    4.2893003    4.2893003    4.2893003    3467.4334   -38478.081    65625.707   -16745.326     -11585.6    18533.804   -26901.699    78.914963 
   97500    982.85301   -117.94573   0.88930605   -117.05643    22239.978    4.2884542    4.2884542    4.2884542    22239.978   -1770.5898    59336.301    9154.2231    32760.457    1027.0884    12589.181    78.868273 
   97600    1770.4983   -118.64821    1.6019841   -117.04622    20294.753    4.2852527    4.2852527    4.2852527    20294.753    15235.933    28939.496     16708.83    25879.956   -7696.5482    13658.038    78.691772 
   97700    2213.3896   -119.04787    2.0027214   -117.04515   -17587.118    4.2882308    4.2882308    4.2882308   -17587.118    37618.221   -37793.297   -52586.277   -14529.521    6177.2428   -24445.118    78.855946 
   97800    892.61585   -117.86852   0.80765758   -117.06087    18545.968    4.2901182    4.2901182    4.2901182    18545.968    12508.186    9353.7069    33776.009    25696.278   -6171.2289   -1222.7515    78.960118 
   97900    1250.3537   -118.17991    1.1313463   -117.04857   -12149.338    4.2956408    4.2956408    4.2956408   -12149.338   -50101.416   -23604.639     37258.04     34134.06    1998.4334    9995.7217     79.26544 
   98000    1792.8107   -118.65788    1.6221728   -117.03571   -16013.693    4.2782031    4.2782031    4.2782031   -16013.693    818.89239   -10203.893   -38656.078   -5814.4696   -19697.064   -5271.0415    78.304045 
   98100    1688.5881    -118.5851      1.52787   -117.05723    18946.391    4.2671946    4.2671946    4.2671946    18946.391    9899.0925    15937.788    31002.292    13216.492   -795.85215     11249.09    77.701131 
   98200    1214.3008    -118.1822    1.0987249   -117.08347   -15292.405    4.2930049    4.2930049    4.2930049   -15292.405   -27950.855   -36014.036    18087.676    32721.636      32552.7   -2588.0368    79.119613 
   98300    1913.7076   -118.78824    1.7315628   -117.05668   -33643.001    4.2899746    4.2899746    4.2899746   -33643.001   -10511.586   -33378.072   -57039.345   -11867.792   -15792.136   -15314.484    78.952186 
   98400     1791.475   -118.67111    1.6209642   -117.05015   -13315.939    4.2776992    4.2776992    4.2776992   -13315.939   -45104.732    -6956.587    12113.501    8880.2677   -4580.1714   -5728.5356    78.276381 
   98500    848.16536   -117.84071   0.76743784   -117.07327   -11721.989    4.2788037    4.2788037    4.2788037   -11721.989   -51317.479   -34261.062    50412.573    40633.333    25812.724    907.86201    78.337026 
   98600    1443.0884   -118.38294    1.3057367    -117.0772    18050.385    4.2646493    4.2646493    4.2646493    18050.385    40684.547    -623.6495    14090.257    -18627.59     23339.09   -8997.1104    77.562172 
   98700    1981.3391   -118.87238    1.7927572   -117.07962    9073.0743    4.2699663    4.2699663    4.2699663    9073.0743    21460.497    11590.889   -5832.1632   -7856.8534   -7982.2893    -10619.16    77.852637 
   98800    1443.6261   -118.39971    1.3062233   -117.09349   -28343.722    4.2876583    4.2876583    4.2876583   -28343.722   -26996.839   -47076.584   -10957.743    49414.603   -1076.4172   -4849.3739    78.824368 
   98900    1290.9932   -118.25275    1.1681178   -117.08464   -6430.9985     4.277803     4.277803     4.277803   -6430.9985   -44157.281   -5521.2315    30385.517    12900.422    25438.884    5260.8254    78.282075 
   99000    1969.4692   -118.85138    1.7820171   -117.06937    14821.975    4.2612183    4.2612183    4.2612183    14821.975    8567.3475    35476.539    422.03889     -31864.8    3550.8908   -3499.2196    77.375122 
   99100    1370.2521   -118.32547    1.2398329   -117.08564   -25101.596    4.2725288    4.2725288    4.2725288   -25101.596   -3135.0058   -30706.874   -41462.908    32897.669    -5341.403   -1431.4883    77.992886 
   99200    809.66216   -117.82997   0.73259933   -117.09737    11207.295    4.2745056    4.2745056    4.2745056    11207.295    4925.6144    24551.652    4144.6198    39208.997     8735.813    11693.406    78.101193 
   99300    1802.2721   -118.71671    1.6307337   -117.08598    8261.8463    4.2768194    4.2768194    4.2768194    8261.8463   -16831.221    20680.921    20935.839   -16459.533    11149.426     12705.12    78.228093 
   99400    1670.9842   -118.59548    1.5119416   -117.08354    4382.7753    4.2792801    4.2792801    4.2792801    4382.7753    4117.0344   -12921.253    21952.544    14547.439   -3528.3645    5976.7227    78.363199 
   99500    1424.3633    -118.3688    1.2887938   -117.08001    12762.589    4.2731518    4.2731518    4.2731518    12762.589    22016.943    1760.2335     14510.59    39764.381   -1340.4684   -4624.6887    78.027007 
   99600    1835.0753   -118.73382    1.6604147   -117.07341   -6604.9081    4.2784336    4.2784336    4.2784336   -6604.9081    -9034.205    17147.492   -27928.011   -4591.8036    3391.0243   -2582.4261    78.316704 
   99700    1147.3297   -118.12358     1.038128   -117.08545    22538.808    4.2962811    4.2962811    4.2962811    22538.808   -121.38902    42251.315    25486.497   -3459.9495   -11585.065    20696.685    79.300894 
   99800    1544.0543   -118.45071    1.3970928   -117.05361   -16634.214    4.3107767    4.3107767    4.3107767   -16634.214   -36746.177   -15064.587    1908.1223     16559.48    264.29156    -2573.213    80.106282 
   99900    1992.5218   -118.81862    1.8028756   -117.01574   -52573.997    4.3046381    4.3046381    4.3046381   -52573.997   -67762.699   -40311.693     -49647.6   -11730.118   -6948.8492   -18023.206    79.764553 
  100000    660.30371   -117.61834   0.59745667   -117.02089    52770.953    4.2843326    4.2843326    4.2843326    52770.953   -8187.2511     68905.48     97594.63    7072.8117   -4990.7492    24918.618     78.64109 
Loop time of 221.355 on 1 procs for 100000 steps with 8 atoms

Pair  time (%) = 74.3304 (33.5797)
Kspce time (%) = 56.7775 (25.6499)
Neigh time (%) = 1.12023 (0.50608)
Comm  time (%) = 10.3481 (4.67489)
Outpt time (%) = 0.304036 (0.137352)
Other time (%) = 78.4751 (35.4521)

Nlocal:    8 ave 8 max 8 min
Histogram: 1 0 0 0 0 0 0 0 0 0
Nghost:    2140 ave 2140 max 2140 min
Histogram: 1 0 0 0 0 0 0 0 0 0
Neighs:    2290 ave 2290 max 2290 min
Histogram: 1 0 0 0 0 0 0 0 0 0

Total # of neighbors = 2290
Ave neighs/atom = 286.25
Neighbor list builds = 1404
Dangerous builds = 0
unfix 20
unfix 21
print "seeds:3471046"
seeds:3471046
