LAMMPS (10 Feb 2015)
# ---- initialize simulations
clear
units metal
dimension 3
boundary p p p
atom_style charge
atom_modify map array
# ---- create atoms
read_data /Users/eugeneragasa/pyflamestk_git/pypospack/tests/tests_integration/workflow/WorkflowLammpsThermalExpansion/param_2424/MgO_NaCl_unit.npt.T1000/lammps.structure
  triclinic box = (0 0 0) to (4.2565 4.2565 4.2565) with tilt (0 0 0)
  1 by 1 by 1 MPI processor grid
  reading atoms ...
  8 atoms
# ---- define interatomic potential
include potential.mod
mass 1 24.305
mass 2 15.999

group Mg type 1
4 atoms in group Mg
group O type 2
4 atoms in group O

set group Mg charge 1.67924051174
  4 settings made for charge
set group O charge -1.67924051174
  4 settings made for charge

variable R_cut equal 10.0

pair_style buck/coul/long ${R_cut}
pair_style buck/coul/long 10
pair_coeff 1 1 0.0 0.5 0.0 ${R_cut}
pair_coeff 1 1 0.0 0.5 0.0 10
pair_coeff 1 2 1306.98043044 0.288034123545 0.0 ${R_cut}
pair_coeff 1 2 1306.98043044 0.288034123545 0.0 10
pair_coeff 2 2 2032.48006166 0.252585756474 14.8401495582 ${R_cut}
pair_coeff 2 2 2032.48006166 0.252585756474 14.8401495582 10

kspace_style pppm 1.0e-5

neighbor 1.0 bin
neigh_modify every 1 delay 0 check yes
# ---- define settings
compute eng all pe/atom
compute eatoms all reduce sum c_eng
# ---- run minimization
reset_timestep 0
fix 1 all box/relax iso 0.0 vmax 0.001
thermo 10
thermo_style custom step pe lx ly lz xy xz yz press pxx pyy pzz pxy pxz pyz c_eatoms
min_style cg
minimize 1e-25 1e-25 5000 10000
PPPM initialization ...
  G vector (1/distance) = 0.352997
  grid = 8 8 8
  stencil order = 5
  estimated absolute RMS force accuracy = 4.02799e-05
  estimated relative force accuracy = 2.79728e-06
  using double precision FFTs
  3d grid and FFT values/proc = 3375 512
Neighbor list info ...
  1 neighbor list requests
  update every 1 steps, delay 0 steps, check yes
  master list distance cutoff = 11
Memory usage per processor = 4.06549 Mbytes
Step PotEng Lx Ly Lz Xy Xz Yz Press Pxx Pyy Pzz Pxy Pxz Pyz eatoms 
       0   -114.09861       4.2565       4.2565       4.2565            0            0            0    83013.551    83013.551    83013.551    83013.551 1.023811e-10 -6.100653e-11 -2.0427431e-10   -114.09861 
      10   -114.17745     4.299065     4.299065     4.299065            0            0            0    27173.213    27173.213    27173.213    27173.213 -1.7620305e-11 8.177727e-11 3.0587737e-11   -114.17745 
      19   -114.18814    4.3219883    4.3219883    4.3219883            0            0            0 -0.014642896 -0.014642896 -0.014642896 -0.014642896 -4.2788838e-11 1.5607732e-10 -4.5124802e-11   -114.18814 
Loop time of 0.0105031 on 1 procs for 19 steps with 8 atoms

Minimization stats:
  Stopping criterion = linesearch alpha is zero
  Energy initial, next-to-last, final = 
        -114.098610965     -114.188144107     -114.188144107
  Force two-norm initial, final = 11.9872 7.95763e-05
  Force max component initial, final = 11.9872 1.65313e-05
  Final line search alpha, max atom move = 0.5 8.26564e-06
  Iterations, force evaluations = 19 24

Pair  time (%) = 0.00290275 (27.6372)
Kspce time (%) = 0.00185728 (17.6832)
Neigh time (%) = 0 (0)
Comm  time (%) = 0.000357628 (3.40499)
Outpt time (%) = 2.5034e-05 (0.238349)
Other time (%) = 0.00536036 (51.0363)

Nlocal:    8 ave 8 max 8 min
Histogram: 1 0 0 0 0 0 0 0 0 0
Nghost:    2189 ave 2189 max 2189 min
Histogram: 1 0 0 0 0 0 0 0 0 0
Neighs:    2344 ave 2344 max 2344 min
Histogram: 1 0 0 0 0 0 0 0 0 0

Total # of neighbors = 2344
Ave neighs/atom = 293
Neighbor list builds = 0
Dangerous builds = 0
unfix 1
# ---- define output variables ----
variable natoms equal "count(all)"
variable tot_energy equal "c_eatoms"
variable length_x equal "lx"
variable length_y equal "ly"
variable length_z equal "lz"
variable tilt_xy equal "xy"
variable tilt_xz equal "xz"
variable tilt_yz equal "yz"
variable tot_press equal "press"
variable press_xx equal "pxx"
variable press_yy equal "pyy"
variable press_zz equal "pzz"
variable press_xy equal "pxy"
variable press_xz equal "pxz"
variable press_yz equal "pyz"

# ---- output ----
print "pypospack:output_section:begin"
pypospack:output_section:begin
print "tot_energy = ${tot_energy}"
tot_energy = -114.188144106894
print "num_atoms = ${natoms}"
num_atoms = 8
print "xx = ${length_x}"
xx = 4.32198834005221
print "yy = ${length_y}"
yy = 4.32198834005221
print "zz = ${length_z}"
zz = 4.32198834005221
print "xy = ${tilt_xy}"
xy = 0
print "xz = ${tilt_xz}"
xz = 0
print "yz = ${tilt_yz}"
yz = 0
print "tot_press = ${tot_press}"
tot_press = -0.0146428956780545
print "pxx = ${press_xx}"
pxx = -0.0146428956419126
print "pyy = ${press_yy}"
pyy = -0.0146428958165915
print "pzz = ${press_zz}"
pzz = -0.0146428955756593
print "pxy = ${press_xy}"
pxy = -4.27888380608005e-11
print "pxz = ${press_xz}"
pxz = 1.56077321107314e-10
print "pyz = ${press_yz}"
pyz = -4.51248020389503e-11
print "pypospack:output_section:done"
pypospack:output_section:done
print "pypospack:lammps_sim:done"
pypospack:lammps_sim:done
#------------------------------------------------------------------------------
# RUN THERMOSTAT
# running using an NPT Nose-Hoover style thermostat
#------------------------------------------------------------------------------
variable tempdamp equal 0.1
variable pressdamp equal 1.0
# set initial velocities
velocity all create 1000 6795456 mom yes dist gaussian loop all
# fix for Nose-Hoover style thermostat
fix 20 all npt temp 1000 1000 0.1 aniso 0.0 0.0 1.0 drag 1.0 couple xyz
variable boxx equal lx
variable boxy equal ly
variable boxz equal lz
variable boxp equal press
variable boxt equal temp
# calculate averages every 10000 steps
reset_timestep 0
fix 21 all ave/time 10 10 100 v_boxx v_boxy v_boxz v_boxp v_boxt file lattice.out
thermo_style custom step temp pe ke etotal press lx ly lz press pxx pyy pzz pxy pxz pyz vol
thermo_modify flush yes
thermo 100
run 100000
PPPM initialization ...
  G vector (1/distance) = 0.35233
  grid = 8 8 8
  stencil order = 5
  estimated absolute RMS force accuracy = 4.15437e-05
  estimated relative force accuracy = 2.88505e-06
  using double precision FFTs
  3d grid and FFT values/proc = 3375 512
Memory usage per processor = 3.06549 Mbytes
Step Temp PotEng KinEng TotEng Press Lx Ly Lz Press Pxx Pyy Pzz Pxy Pxz Pyz Volume 
       0         1000   -114.18815   0.90482102   -113.28333    11969.171    4.3219883    4.3219883    4.3219883    11969.171    14044.737    7130.6651    14732.111   -4581.1707   -2.5470364   -6605.7833    80.732941 
     100    498.10609   -113.61335   0.45069686   -113.16265    7236.7616    4.3397141    4.3397141    4.3397141    7236.7616    6563.9992    8705.7786     6440.507    9310.2133   -3944.1539     932.4995    81.730349 
     200    733.14131   -113.57568   0.66336166   -112.91232   -21560.196    4.3561962    4.3561962    4.3561962   -21560.196    -19705.94   -35448.113   -9526.5354    13021.418   -8419.1798   -1730.2849    82.665119 
     300    1269.5753   -113.84387    1.1487384   -112.69513    13722.086    4.3415599    4.3415599    4.3415599    13722.086    16043.728    18220.125    6902.4055   -6224.0024   -2857.9654   -1289.7706    81.834681 
     400    1014.0809   -113.45897   0.91756175   -112.54141    9771.3014    4.3388778    4.3388778    4.3388778    9771.3014    25859.247   -5147.7385    8602.3952    11950.512    2612.1038    3038.1728    81.683108 
     500    612.08632    -112.9822   0.55382856   -112.42837   -12899.813    4.3629585    4.3629585    4.3629585   -12899.813   -25945.328   -13855.014    1100.9051    20557.571    -3285.903   -5021.6263    83.050693 
     600    1343.6584   -113.57365    1.2157704   -112.35788    7319.4945    4.3557424    4.3557424    4.3557424    7319.4945    13468.606    4395.1554    4094.7223   -6345.9684    606.09152     8338.597    82.639287 
     700     938.2404   -113.19422   0.84893963   -112.34528   -3934.5812     4.342599     4.342599     4.342599   -3934.5812   -1520.9185    10083.699   -20366.524    11713.987    3311.0166    496.46176    81.893452 
     800    488.76677   -112.79956   0.44224644   -112.35731   -21414.039    4.3539947    4.3539947    4.3539947   -21414.039   -35162.103   -13894.001   -15186.015    26738.852   -1283.6231   -806.99975     82.53985 
     900    1351.7395   -113.57004    1.2230823   -112.34696    -8259.157    4.3583893    4.3583893    4.3583893    -8259.157    -5004.259   -8617.5132   -11155.699   -3227.1226    7182.8245    4688.9015    82.790036 
    1000    615.74119   -112.91518   0.55713556   -112.35804    -4382.714    4.3550587    4.3550587    4.3550587    -4382.714   -19214.134    18599.041   -12533.049    11623.792   -1368.1908   -4557.9843    82.600379 
    1100    724.35383   -113.01467   0.65541057   -112.35926   -15511.073    4.3444084    4.3444084    4.3444084   -15511.073   -27079.642   -22159.512    2705.9358    28472.398   -1314.7032     8861.426     81.99586 
    1200    1093.6322   -113.34739    0.9895414   -112.35785    3070.9469    4.3579383    4.3579383    4.3579383    3070.9469    8729.4142    19287.191   -18803.765    -3899.801    3723.1302     63.33697    82.764335 
    1300    889.01323    -113.1621   0.80439785    -112.3577   -25859.002    4.3634997    4.3634997    4.3634997   -25859.002   -20012.558   -14571.318    -42993.13    9670.0805    1421.1073   -3541.3903    83.081602 
    1400    623.59445    -112.9241   0.56424136   -112.35985     17412.05    4.3410518    4.3410518    4.3410518     17412.05    8147.1361    6213.3904    37875.624    23469.843     5927.966    3039.4464     81.80595 
    1500    1414.0378   -113.63455    1.2794511   -112.35509    2508.8428    4.3569147    4.3569147    4.3569147    2508.8428    12967.068   -13683.399    8242.8591   -4936.3327   -5031.1463   -5893.5847    82.706027 
    1600    1042.0418   -113.30141   0.94286133   -112.35855   -2707.6976    4.3575758    4.3575758    4.3575758   -2707.6976    3524.5371    1668.4324   -13316.062    3698.1209    -4822.751    7307.8531    82.743686 
    1700     700.4096   -112.99717   0.63374533   -112.36342    18242.112    4.3466098    4.3466098    4.3466098    18242.112   -3482.7271    3853.3172    54355.746    23547.669    2161.8467    866.90088    82.120571 
    1800    1503.6636   -113.71329    1.3605465   -112.35274   -1373.4955    4.3576947    4.3576947    4.3576947   -1373.4955   -1422.9679   -25793.944    23096.426   -3091.6339   -7861.4801   -9626.6537    82.750459 
    1900     1008.185   -113.27035   0.91222702   -112.35812    11742.933    4.3464889    4.3464889    4.3464889    11742.933    6404.6441    6182.6885    22641.466   -1254.1037   -585.95558    2656.1352    82.113722 
    2000    725.36647   -113.02469   0.65632682   -112.36837     -3989.98    4.3555629    4.3555629    4.3555629     -3989.98   -38917.227   -20198.656    47145.943     24305.24    2890.9493   -9780.5271     82.62907 
    2100    1217.0368    -113.4562    1.1012005     -112.355    13216.006    4.3548678    4.3548678    4.3548678    13216.006   -3544.9627    13725.359    29467.623    149.27918   -6380.5408   -2807.7702    82.589517 
    2200    1145.8794   -113.39278    1.0368158   -112.35596    12957.645    4.3364632    4.3364632    4.3364632    12957.645    6878.2008   -4105.9138    36100.649   -5668.5021   -5874.5556    6035.5055    81.546811 
    2300    510.53663   -112.83463   0.46194427   -112.37269   -22181.572    4.3597593    4.3597593    4.3597593   -22181.572   -49133.799   -28575.115    11164.198    28671.664    3202.0921   -1775.1777    82.868128 
    2400     1296.092   -113.52796    1.1727313   -112.35522   -8756.2528    4.3522605    4.3522605    4.3522605   -8756.2528   -6817.3918   -14738.328   -4713.0386    1834.3768    11922.934   -1181.0344    82.441262 
    2500    986.02579   -113.24832   0.89217685   -112.35614    10897.908    4.3453682    4.3453682    4.3453682    10897.908   -8990.4176    13292.022     28392.12   -4809.3489   -3519.8016   -5813.0579    82.050219 
    2600    730.34642   -113.02002   0.66083279   -112.35918   -30934.702    4.3643753    4.3643753    4.3643753   -30934.702   -57287.953   -29505.464    -6010.689    34975.262    3335.5246    5752.3939    83.131622 
    2700    1244.0814    -113.4736     1.125671   -112.34793    6040.1123    4.3419515    4.3419515    4.3419515    6040.1123    4195.0305    9832.6952    4092.6111    82.707135    7047.5038    3687.6881    81.856825 
    2800    1083.9812   -113.34191   0.98080895    -112.3611   -9949.2636    4.3496983    4.3496983    4.3496983   -9949.2636   -13405.975   -11527.752   -4914.0639   -8658.8296   -4333.7604   -6808.3049    82.295752 
    2900    836.60111   -113.11955   0.75697427   -112.36258   -26668.011    4.3614257    4.3614257    4.3614257   -26668.011   -48957.442   -22216.532   -8830.0597      33175.1    12051.411    2749.0704    82.963189 
    3000    1249.0424   -113.47855    1.1301598   -112.34839    16733.672    4.3366567    4.3366567    4.3366567    16733.672    11750.306    10220.233    28230.476   -160.64235    6659.5942    -6449.606    81.557732 
    3100    898.28372   -113.17813   0.81278599   -112.36534   -14965.317    4.3608088    4.3608088    4.3608088   -14965.317   -8533.2865   -14286.917   -22075.747   -8967.4266   -2199.4495   -7111.8085    82.927992 
    3200    714.64466   -113.00543   0.64662551   -112.35881   -16732.184    4.3621539    4.3621539    4.3621539   -16732.184   -31581.183   -12188.652   -6426.7186    23948.377    4030.7148    8097.7476    83.004754 
    3300    1173.4839   -113.40601    1.0617929   -112.34422    21248.502    4.3339288    4.3339288    4.3339288    21248.502     38321.12   -3588.2977    29012.683   -2903.4598    6828.6084   -2875.5951     81.40392 
    3400    738.22674   -113.02924   0.66796307   -112.36128   -17128.276    4.3602569    4.3602569    4.3602569   -17128.276     9793.074   -46400.565   -14777.337   -12418.813    4890.9215   -12366.705    82.896507 
    3500    714.45939   -113.00449   0.64645787   -112.35804   -22248.764    4.3593785    4.3593785    4.3593785   -22248.764   -5383.1932   -59801.971   -1561.1283    14304.928   -7119.0231   -604.15703    82.846418 
    3600    961.23677   -113.21945   0.86974723    -112.3497    35151.571    4.3383717    4.3383717    4.3383717    35151.571    52309.056    26022.985    27122.673    3155.9646    1933.7819     2283.816    81.654528 
    3700     950.7347   -113.21877   0.86024474   -112.35853   -8683.7106     4.359444     4.359444     4.359444   -8683.7106     16454.55   -36958.682   -5547.0001   -8294.7084    4875.6901   -3239.0405    82.850153 
    3800    756.65346   -113.04442   0.68463595   -112.35978   -14755.974    4.3558122    4.3558122    4.3558122   -14755.974   -1949.4921   -53390.984    11072.554    9167.9488    -6919.981   -1961.6574    82.643261 
    3900     1077.877   -113.32799   0.97528576    -112.3527    9250.7378    4.3434979    4.3434979    4.3434979    9250.7378    22668.944    -21240.73    26323.999    16036.138     2261.414   -2282.2115    81.944316 
    4000    1123.3032   -113.37246    1.0163883   -112.35607   -7936.2184    4.3584687    4.3584687    4.3584687   -7936.2184    974.25353   -25422.161     639.2525   -10274.017    3734.1124    -3807.516    82.794557 
    4100    955.01003   -113.22443   0.86411314   -112.36032    7737.2162    4.3492581    4.3492581    4.3492581    7737.2162   -5191.9557    4486.5459    23917.058   -3789.9406    -2303.719   -3061.8882    82.270768 
    4200    1283.1126   -113.51654    1.1609873   -112.35555    15560.792    4.3436992    4.3436992    4.3436992    15560.792    6736.6591    5832.4792    34113.237    13791.562   -2011.6066    4530.7755    81.955714 
    4300    1054.5378   -113.31542   0.95416794   -112.36125   -2980.4753    4.3619777    4.3619777    4.3619777   -2980.4753   -10382.451   -585.37737    2026.4027   -3598.6011   0.90204699   -3323.0252    82.994694 
    4400    1139.5627   -113.38668    1.0311003   -112.35558    1063.1207    4.3518673    4.3518673    4.3518673    1063.1207   -12213.837    -13427.59    28830.789   -8103.3087    5516.1812   -14168.706     82.41892 
    4500    1246.1344   -113.47811    1.1275286   -112.35058     21393.78    4.3439683    4.3439683    4.3439683     21393.78     13213.41    23317.004    27650.927    9341.5577    2467.8645   -547.72908    81.970944 
    4600    984.21379   -113.25319   0.89053732   -112.36265    -8860.218    4.3548326    4.3548326    4.3548326    -8860.218    9379.1797   -24309.804   -11650.029   -5928.0264   -102.79671    14718.537    82.587512 
    4700    604.48177   -112.91105   0.54694781    -112.3641    18037.364    4.3525416    4.3525416    4.3525416    18037.364    16165.588    20125.828    17820.677   -18562.747    7513.3533   -2841.7448    82.457241 
    4800     1243.041   -113.47647    1.1247297   -112.35174    8462.1051    4.3528984    4.3528984    4.3528984    8462.1051    23509.736   -3040.6259    4917.2057    7351.8243    7190.2257   -3704.5277    82.477518 
    4900    666.86386   -112.96154   0.60339243   -112.35815   -1942.2801    4.3520489    4.3520489    4.3520489   -1942.2801    39633.519   -33870.624   -11589.736    761.47331    3524.5578    11960.329    82.429241 
    5000    401.15655   -112.72557   0.36297488   -112.36259   -6256.7865    4.3511475    4.3511475    4.3511475   -6256.7865    30519.309   -54271.592    4981.9239   -25911.731    7324.6303    2451.0327    82.378036 
    5100    1018.4518   -113.27627    0.9215166   -112.35476    6771.6098    4.3533185    4.3533185    4.3533185    6771.6098     22806.37     6101.328   -8592.8687   -2381.0333    2070.2964   -3463.0055    82.501402 
    5200    808.09612   -113.08582   0.73118235   -112.35464    7690.9038    4.3510947    4.3510947    4.3510947    7690.9038     41037.83    5567.0909    -23532.21    1499.7137    3725.9579    23373.673    82.375033 
    5300    530.69173   -112.84062   0.48018103   -112.36044   -13690.773    4.3519045    4.3519045    4.3519045   -13690.773    10828.113   -49629.463   -2270.9693   -26376.422    1902.9918    199.28572    82.421039 
    5400    1131.0014   -113.37744    1.0233538   -112.35409    -3185.265    4.3480707    4.3480707    4.3480707    -3185.265    5105.4703   -10086.308   -4574.9569   -10416.038    2591.2437    -8554.382    82.203405 
    5500    1182.1045   -113.42598     1.069593   -112.35638    5065.1874    4.3465498    4.3465498    4.3465498    5065.1874    22873.032    19883.337   -27560.807     923.8962    4609.3724    24813.046    82.117169 
    5600    738.11385   -113.03426   0.66786093    -112.3664   -3251.7678    4.3509431    4.3509431    4.3509431   -3251.7678   -9046.8198    4479.3379   -5187.8217   -25761.833    1310.3236    8829.2412    82.366421 
    5700    1194.1373   -113.44431    1.0804806   -112.36382   -2209.6049    4.3486088    4.3486088    4.3486088   -2209.6049    -12161.08    13178.213   -7645.9478   -10478.138    513.03056   -10161.192    82.233923 
    5800    1339.2799   -113.57284    1.2118086   -112.36104   -3215.3095    4.3527703    4.3527703    4.3527703   -3215.3095    1134.5908    9000.4898   -19781.009     13599.52    1798.2049    10645.988     82.47024 
    5900    922.45204   -113.19801   0.83465399   -112.36335   -9278.4232    4.3520568    4.3520568    4.3520568   -9278.4232   -13394.533   -19852.404    5411.6678   -25636.387    87.062938    8902.4073    82.429692 
    6000    1218.0863   -113.45999    1.1021501   -112.35784    -3490.449    4.3438073    4.3438073    4.3438073    -3490.449   -9354.9112   -7861.0214    6744.5855   -19092.372    1928.9613   -2508.5096    81.961831 
    6100    1320.7395   -113.55568    1.1950328   -112.36065   -685.82628    4.3504754    4.3504754    4.3504754   -685.82628    -5663.224    13314.172   -9708.4269    23765.291    4951.4817    457.50977    82.339867 
    6200    757.19174   -113.05148     0.685123   -112.36635   -5831.8973    4.3537457    4.3537457    4.3537457   -5831.8973   -18506.241   -15950.838    16961.387   -17309.051    2998.3402    5958.1927     82.52569 
    6300     1011.904   -113.27663   0.91559196   -112.36104   -264.39961    4.3422598    4.3422598    4.3422598   -264.39961   -806.81456   -22551.947    22565.563   -22729.856   -3293.0857   -1162.0807    81.874267 
    6400    1195.2914   -113.44101    1.0815247   -112.35949   -13652.287    4.3532673    4.3532673    4.3532673   -13652.287   -10131.288   -30683.483   -142.08971    21364.844    1917.4695   -4586.5642    82.498488 
    6500    546.49254   -112.85822   0.49447794   -112.36375   -12791.545    4.3568087    4.3568087    4.3568087   -12791.545   -19640.405   -37247.065    18512.836   -19207.652    4097.5564    5089.7358    82.699992 
    6600    869.12727   -113.14502   0.78640462   -112.35861    13487.724    4.3414895    4.3414895    4.3414895    13487.724    17178.064   -2908.9483    26194.056   -27623.701    800.16353    1618.0894    81.830699 
    6700    1344.3917   -113.57324    1.2164339   -112.35681   -7038.5199    4.3486558    4.3486558    4.3486558   -7038.5199    4242.8194    -31434.51    6076.1305    19458.121    1256.2251   -4034.4321    82.236593 
    6800     551.4247   -112.86828   0.49894065   -112.36934   -11104.967    4.3566016    4.3566016    4.3566016   -11104.967    5048.8043    -60271.94    21908.236    -16850.64    -3629.907    4464.7447    82.688199 
    6900    863.39548   -113.14609   0.78121837   -112.36488   -5786.8977    4.3530999    4.3530999    4.3530999   -5786.8977    15549.759   -42195.561    9285.1087   -25798.589    2696.4618    7122.0098    82.488975 
    7000    1365.0687   -113.58816    1.2351429   -112.35302    16543.292    4.3442159    4.3442159    4.3442159    16543.292    18986.294     31084.01   -440.42724    17018.727    -2773.304   -73.507153    81.984962 
    7100    886.25595   -113.16671   0.80190301   -112.36481    848.19308    4.3470228    4.3470228    4.3470228    848.19308    12811.139   -31088.499    20821.939   -18194.539   -6059.6163   -2980.8063    82.143985 
    7200    780.75357   -113.07675   0.70644223    -112.3703   -5011.0939    4.3574287    4.3574287    4.3574287   -5011.0939   -8543.0345   -16605.522    10115.274   -25759.917    2465.5997    9137.8088    82.735302 
    7300    1556.2402   -113.76238    1.4081189   -112.35427   -2632.0573    4.3504805    4.3504805    4.3504805   -2632.0573     2205.593    3223.5982   -13325.363    6494.9701   -10217.935    2834.4314    82.340153 
    7400    776.82611   -113.06641   0.70288859   -112.36352    340.13323    4.3475221    4.3475221    4.3475221    340.13323   -335.60824   -13304.657    14660.665   -23774.203    -765.7622    3702.9235    82.172292 
    7500    992.13078   -113.26108   0.89770078   -112.36338   -17033.881    4.3513632    4.3513632    4.3513632   -17033.881   -19916.154   -37670.936    6485.4468   -11365.595   -1164.8253    4786.6869    82.390283 
    7600    1315.0093   -113.54407     1.189848   -112.35422    10942.564    4.3508894    4.3508894    4.3508894    10942.564    3392.1854    31995.598   -2560.0919    8577.5755   -9365.1386    1669.0391    82.363372 
    7700    776.55316   -113.06658   0.70264162   -112.36394   -1324.8802    4.3498708    4.3498708    4.3498708   -1324.8802   -6290.4491   -20754.488    23070.297   -28108.136    1100.9573   -2008.1445    82.305539 
    7800    719.02969   -113.01653   0.65059317   -112.36593   -13420.744    4.3503052    4.3503052    4.3503052   -13420.744   -9000.9065    -39618.89    8357.5644   -10189.154    -3149.056   -1269.2391    82.330199 
    7900     1244.216    -113.4818    1.1257928     -112.356   -9931.2582    4.3533146    4.3533146    4.3533146   -9931.2582    7322.4181   -31858.113   -5258.0799    11494.032    2247.0648    4430.6293    82.501178 
    8000    770.53382   -113.05991   0.69719519   -112.36271    5854.9777    4.3477335    4.3477335    4.3477335    5854.9777    11735.639   -17334.717    23164.011   -26011.924   -769.70224   -6737.1052    82.184277 
    8100    509.09144   -112.82884   0.46063663    -112.3682    6863.0132    4.3499775    4.3499775    4.3499775    6863.0132    5737.5218   -2367.5429    17219.061    -15086.25   -4530.0834    287.07771    82.311596 
    8200    1206.4012   -113.45089    1.0915772   -112.35931   -5456.5134    4.3514687    4.3514687    4.3514687   -5456.5134    14574.154   -37011.111    6067.4173     13420.35    6264.8565    2257.2386    82.396276 
    8300    841.56615   -113.12276   0.76146674    -112.3613    2894.0533    4.3495132    4.3495132    4.3495132    2894.0533    14612.175   -23193.528    17263.513   -20837.246    703.87498   -4816.5736    82.285244 
    8400    776.84826   -113.06652   0.70290863   -112.36361   -17115.212    4.3575186    4.3575186    4.3575186   -17115.212   -17416.446   -38507.916    4578.7258   -9230.0358    3122.4671   -973.21717    82.740426 
    8500    1169.2644   -113.41741     1.057975   -112.35944    14105.015    4.3430247    4.3430247    4.3430247    14105.015     7259.466    24347.553    10708.025    19978.507    3209.5398    2308.1711    81.917541 
    8600    1250.3575   -113.49098    1.1313497   -112.35963    7525.1778    4.3440805    4.3440805    4.3440805    7525.1778    5590.0566   -1365.4117    18350.889   -14133.711   -709.62736   -2491.9313    81.977297 
    8700     901.6298   -113.17937   0.81581359   -112.36356   -22471.143    4.3665213    4.3665213    4.3665213   -22471.143   -27282.762   -33276.868   -6853.7989   -13825.098   -2.4944029    -4643.093    83.254315 
    8800    1515.7533   -113.72436    1.3714854   -112.35288   -1456.2705    4.3428685    4.3428685    4.3428685   -1456.2705   -3674.4441    2209.7304    -2904.098    21092.494    3572.2797    2490.5967    81.908699 
    8900    1189.9722   -113.42886    1.0767119   -112.35215    25216.989    4.3329063    4.3329063    4.3329063    25216.989    10196.894    41698.926    23755.147   -5431.9757    10884.576   -3116.6077    81.346319 
    9000     1022.295   -113.28947   0.92499402   -112.36448   -32276.795    4.3643576    4.3643576    4.3643576   -32276.795    -28443.72   -49949.105   -18437.559    -27312.48   -1116.9197   -2782.3648    83.130614 
    9100    1309.9066   -113.54315     1.185231   -112.35792    6368.9264    4.3493034    4.3493034    4.3493034    6368.9264   -606.57054    21800.318   -2086.9681    6052.7712   -2134.3962    329.03174    82.273335 
    9200     1316.918   -113.54779    1.1915751   -112.35621    7525.0056    4.3370235    4.3370235    4.3370235    7525.0056    6194.2995    8038.9422    8341.7752    1989.4633    12884.663   -3860.5808    81.578425 
    9300    526.75792   -112.84816   0.47662164   -112.37154   -22234.858    4.3516263    4.3516263    4.3516263   -22234.858   -9764.6058   -50156.735   -6783.2344   -23773.997   -174.60955   -9410.1091    82.405229 
    9400    1164.6633    -113.4181    1.0538119   -112.36428   -8460.4377    4.3516741    4.3516741    4.3516741   -8460.4377    10067.425   -12508.955   -22939.783     2431.999    4365.0691    3886.0107    82.407946 
    9500    1088.7308   -113.34365   0.98510653   -112.35854    8546.5933    4.3518237    4.3518237    4.3518237    8546.5933   -2174.2392    21018.338    6795.6808   -2455.2027    4319.1133    2559.1109    82.416447 
    9600     508.8084   -112.82713   0.46038053   -112.36675    4501.1231     4.341315     4.341315     4.341315    4501.1231    7624.5428   -10055.885    15934.712   -23665.718    67.476976   -21732.159    81.820833 
    9700    723.02198   -113.02517   0.65420548   -112.37097   -5579.4876    4.3534363    4.3534363    4.3534363   -5579.4876    16693.878   -7334.3532   -26097.988   -2872.4915    3440.2149    4574.0376    82.508102 
    9800     1307.652   -113.53916     1.183191   -112.35597   -12863.286    4.3547507    4.3547507    4.3547507   -12863.286   -6121.6109   -15311.018    -17157.23      5771.98   -4360.8088    2561.7066    82.582854 
    9900    423.72003   -112.74453   0.38339078   -112.36114    38986.727    4.3352787    4.3352787    4.3352787    38986.727    17964.403    58576.671    40419.109    -17805.89    3065.7736   -23633.305     81.48001 
   10000    863.18637   -113.14943   0.78102917    -112.3684   -16500.488    4.3583847    4.3583847    4.3583847   -16500.488    2861.8391   -38029.241   -14334.064   -14689.994   -2217.0202    4783.9539    82.789774 
   10100    1345.2657   -113.57294    1.2172247   -112.35572   -3872.1917    4.3500266    4.3500266    4.3500266   -3872.1917    -2035.474    4390.8955   -13971.997    9576.8376   -14026.057    3256.8905    82.314385 
   10200    721.92388   -113.01738    0.6532119   -112.36417    8983.2131    4.3398795    4.3398795    4.3398795    8983.2131    -1460.069     2351.924    26057.784   -2049.1177    2155.6226   -14745.212    81.739694 
   10300    869.88472   -113.15223   0.78708998   -112.36514   -11372.095    4.3575433    4.3575433    4.3575433   -11372.095   -13195.771   -21530.587    610.07284    -20564.51   -4516.9868   -9624.2072    82.741834 
   10400    1544.5457   -113.75103    1.3975374   -112.35349    11637.052    4.3419635    4.3419635    4.3419635    11637.052   -2737.1164    19239.237    18409.035    2694.0793   -532.12316    5611.5877    81.857507 
   10500    759.89831   -113.05665   0.68757196   -112.36908   -2499.3331    4.3516447    4.3516447    4.3516447   -2499.3331   -19062.925   -2141.7141     13706.64     -6542.23   -2433.6134   -16493.241    82.406277 
   10600    885.37315   -113.16284   0.80110424   -112.36173   -17413.472     4.358513     4.358513     4.358513   -17413.472   -27418.792   -34777.652    9956.0282   -16398.178   -2520.9344   -19988.256    82.797082 
   10700    1488.4746   -113.69454    1.3468031   -112.34774    20712.122    4.3343903    4.3343903    4.3343903    20712.122    6075.8962    24358.018    31702.452    8922.4394   -273.53354     9639.958    81.429929 
   10800    816.79927   -113.10641   0.73905715   -112.36735   -10670.947     4.356037     4.356037     4.356037   -10670.947   -8941.7912   -22219.897   -851.15312   -4389.5066   -7660.1706   -9777.1622    82.656059 
   10900    780.06079   -113.06471    0.7058154   -112.35889   -10885.528    4.3605886    4.3605886    4.3605886   -10885.528   -21915.392   -31530.372     20789.18   -21414.963   -676.33536   -17526.781    82.915426 
   11000    1277.3708   -113.50346    1.1557919   -112.34767    17372.235    4.3369765    4.3369765    4.3369765    17372.235    25287.914    9053.5135    17775.276    731.13334    1451.8843    12937.799    81.575777 
   11100    750.24945    -113.0425   0.67884147   -112.36366    -9940.974    4.3514516    4.3514516    4.3514516    -9940.974    5597.7583   -23698.272   -11722.409    2175.2491   -10402.853   -3138.4133    82.395306 
   11200    769.78376   -113.05687   0.69651653   -112.36036    -11482.33    4.3586185    4.3586185    4.3586185    -11482.33   -15350.634   -43916.542    24820.185   -15648.232    2297.1547   -12759.344    82.803093 
   11300    1144.3361   -113.38702    1.0354193    -112.3516    2272.3264    4.3489342    4.3489342    4.3489342    2272.3264    21985.206   -10976.838   -4191.3883   -4830.8969    1443.8408    9428.2055    82.252389 
   11400     716.8972    -113.0076   0.64866365   -112.35893   -1977.3415    4.3500896    4.3500896    4.3500896   -1977.3415     6098.862   -6739.4438   -5291.4426   -1155.8903    842.77738    5139.1536    82.317959 
   11500    976.54318   -113.24214   0.88359679   -112.35855   -15471.268    4.3564693    4.3564693    4.3564693   -15471.268   -7404.1231   -45962.476    6952.7957   -10257.147   -2956.9106   -7534.0215    82.680669 
   11600    1078.2188   -113.33025   0.97559501   -112.35466   -9917.6802    4.3545607    4.3545607    4.3545607   -9917.6802     8515.557   -33226.571    -5042.027   -852.49731    2040.7924    11937.321    82.572047 
   11700    889.87104   -113.16193   0.80517402   -112.35676   -6457.4391     4.349111     4.349111     4.349111   -6457.4391    3188.5035   -13066.305   -9494.5161   -4143.4423    10550.956    19859.809    82.262418 
   11800      1018.17   -113.28154   0.92126162   -112.36028    9746.4175    4.3528962    4.3528962    4.3528962    9746.4175   -845.03841   -3044.3399    33128.631   -10712.937    639.97054   -9094.9366    82.477396 
   11900    1337.9115   -113.56633    1.2105705   -112.35575    3492.6342    4.3503211    4.3503211    4.3503211    3492.6342    6508.0434   -6091.2518    10061.111    1379.9709    9168.0676    11565.817    82.331103 
   12000    752.10168   -113.04576   0.68051741   -112.36524    2675.4397    4.3546978    4.3546978    4.3546978    2675.4397   -4408.4298    9961.9649    2472.7841    1399.9407    2798.6094    22286.201    82.579848 
   12100    1222.7828   -113.46125    1.1063996   -112.35485   -12350.959    4.3599748    4.3599748    4.3599748   -12350.959   -18059.757   -12865.247   -6127.8731    -7740.845    1932.4495   -16092.121    82.880418 
   12200    1082.0202   -113.32921   0.97903461   -112.35018    11122.235    4.3409402    4.3409402    4.3409402    11122.235    12854.664    2195.3618    18316.679   -5972.5784    7917.4106    24298.336    81.799642 
   12300    847.55778   -113.12901   0.76688809   -112.36212   -13822.148    4.3498253    4.3498253    4.3498253   -13822.148    3334.6085    -12217.12   -32583.933   -623.79078    9593.4669    33409.781    82.302956 
   12400    1060.6214   -113.31267   0.95967254     -112.353   -12319.152    4.3636588    4.3636588    4.3636588   -12319.152    -22148.79    11122.737   -25931.404   -4165.9974    3584.8716   -16377.595    83.090688 
   12500    958.71695   -113.21591   0.86746724   -112.34845    4543.7997    4.3464917    4.3464917    4.3464917    4543.7997    20573.851   -134.90642    -6807.545     3060.675   -2614.3761    27513.268    82.113881 
   12600    677.20659   -112.96836   0.61275076   -112.35561   -11416.973    4.3482577    4.3482577    4.3482577   -11416.973    18519.966   -26212.049   -26558.836    156.50629    9280.2213    23080.556    82.214006 
   12700    916.88673    -113.1821   0.82961838   -112.35248   -15161.541    4.3564758    4.3564758    4.3564758   -15161.541    -17134.26   -11786.696   -16563.668   -4079.5128   -9530.4644   -10758.286     82.68104 
   12800    771.15751   -113.05349   0.69775952   -112.35573   -7498.7179    4.3534537    4.3534537    4.3534537   -7498.7179    13993.235    -14029.04   -22460.348   -1455.3724   -8039.1994    35377.555    82.509087 
   12900    609.86779   -112.90814   0.55182119   -112.35632    5050.7213    4.3524371    4.3524371    4.3524371    5050.7213    31595.703    4097.3154   -20540.854   -3101.9613    11294.932     11717.89    82.451298 
   13000    1036.4411   -113.28725   0.93779373   -112.34945   -9831.4572    4.3502378    4.3502378    4.3502378   -9831.4572   -15814.827   -2258.7991   -11420.745   -2358.5392   -12535.822   -10285.055    82.326377 
   13100     638.0522   -112.93555   0.57732304   -112.35823   -13103.333      4.35328      4.35328      4.35328   -13103.333    15272.075    -36498.82   -18083.253   -115.52247   -11267.005    33024.874    82.499213 
   13200    1012.2374   -113.27291   0.91589364   -112.35702   -10243.817    4.3552072    4.3552072    4.3552072   -10243.817    20156.076   -34200.017   -16687.508   -448.36817    3505.9101    13676.966    82.608828 
   13300    1149.1368   -113.39237    1.0397631   -112.35261    15722.167    4.3493746    4.3493746    4.3493746    15722.167     7707.474    28660.124    10798.903    787.38956   -14526.474    -5881.467    82.277379 
   13400     746.0952     -113.036   0.67508261   -112.36092   -3958.4864    4.3571775    4.3571775    4.3571775   -3958.4864    29941.998   -29470.729   -12346.729   -3564.6382   -11821.323    29302.051    82.720994 
   13500    1255.6763   -113.49153    1.1361623   -112.35537   -1382.9613    4.3528273    4.3528273    4.3528273   -1382.9613    17167.862   -18604.163   -2712.5832   -9469.2645    3024.8927    10744.746    82.473477 
   13600    1411.0786   -113.62939    1.2767736   -112.35262     15650.42    4.3448393    4.3448393    4.3448393     15650.42    4098.0038    19207.535    23645.722   -5184.7149   -12256.422   -9257.6944    82.020263 
   13700     664.8253   -112.96914    0.6015479    -112.3676   -11301.397    4.3612477    4.3612477    4.3612477   -11301.397    27155.817   -22644.656   -38415.351   -2697.8832   -22897.833     33300.68    82.953033 
   13800    1257.9585   -113.49319    1.1382273   -112.35497     633.9856    4.3505089    4.3505089    4.3505089     633.9856    19736.543   -8431.3416   -9403.2441    511.58444    -2287.072    12003.096     82.34177 
   13900    1467.7184   -113.68086    1.3280225   -112.35283    5004.8546    4.3486407    4.3486407    4.3486407    5004.8546    11535.342    7772.9569   -4293.7348   -2590.1226       234.23   -3563.2694    82.235734 
   14000    447.27001   -112.76839    0.4046993   -112.36369   -20804.257    4.3649235    4.3649235    4.3649235   -20804.257    29720.806    -24054.17   -68079.407   -7414.7613   -18722.786    41594.687    83.162954 
   14100    1196.6931    -113.4324     1.082793    -112.3496    2512.4873     4.339807     4.339807     4.339807    2512.4873    28352.762   -13135.293   -7680.0067   -5053.9627    -2119.784     2192.828    81.735597 
   14200    1053.8649   -113.31318   0.95355908   -112.35962   -4829.0208    4.3517078    4.3517078    4.3517078   -4829.0208    21596.103   -27686.292   -8396.8741   -1525.7586     328.3035    511.19706    82.409861 
   14300    413.38279   -112.73755   0.37403744   -112.36351    -30850.27    4.3647526    4.3647526    4.3647526    -30850.27    22949.316   -56459.161   -59040.964    1451.2701   -8439.8809    46303.183    83.153186 
   14400    1020.0043   -113.27103   0.92292137   -112.34811     19830.14    4.3363574    4.3363574    4.3363574     19830.14    17933.583    21185.864    20370.971   -430.66623    2202.9438   -1421.1963    81.540844 
   14500     801.9567   -113.08457   0.72562728   -112.35894   -6236.4066    4.3570779    4.3570779    4.3570779   -6236.4066    27440.164   -31122.332   -15027.052   -4883.1235    6870.6597     4177.583    82.715324 
   14600    614.76308   -112.91602   0.55625056   -112.35977   -20490.589    4.3586069    4.3586069    4.3586069   -20490.589    13487.113   -36634.538   -38324.342    5838.4468     -1112.33    38399.104    82.802434 
   14700    1090.0715   -113.33557   0.98631963   -112.34925    21106.739    4.3403018    4.3403018    4.3403018    21106.739    26116.458    15635.559      21568.2    3105.3582   -3226.0755   -7127.1989    81.763561 
   14800    977.28255   -113.24182   0.88426579   -112.35755   -7459.9687    4.3592766    4.3592766    4.3592766   -7459.9687    9751.4919    -7847.386   -24284.012   -2907.7542    6806.4115    10679.961    82.840607 
   14900    986.01348   -113.24997   0.89216572   -112.35781   -2017.5685    4.3516238    4.3516238    4.3516238   -2017.5685    17623.549    5075.5223   -28751.777   -4130.0307    3185.7627    28265.775     82.40509 
   15000    1272.3604   -113.50525    1.1512584     -112.354    20619.452    4.3486014    4.3486014    4.3486014    20619.452    20970.776    34933.995    5953.5839    2831.7987   -13223.787   -12755.643    82.233508 
   15100    1161.9882   -113.40884    1.0513913   -112.35745    -19345.02    4.3628945    4.3628945    4.3628945    -19345.02   -12993.727   -12066.201   -32975.131   -786.75788    2537.5927    21039.015    83.047035 
   15200    987.65855   -113.24915   0.89365421   -112.35549    11428.353    4.3473246    4.3473246    4.3473246    11428.353    39791.576    8923.4647   -14429.982    27.534404    945.98036    23905.959    82.161091 
   15300    1459.3585   -113.67181    1.3204582   -112.35136   -1146.2887    4.3525397    4.3525397    4.3525397   -1146.2887   -7004.6228    8204.7701   -4639.0134   -8613.3686   -8829.6655   -12718.456    82.457134 
   15400    921.80958    -113.1896   0.83407268   -112.35552   -12248.685    4.3575368    4.3575368    4.3575368   -12248.685    10318.989   -17896.117   -29168.928   -3064.2512   -1735.4432     29529.25    82.741462 
   15500    1023.5375   -113.27786   0.92611823   -112.35174    6855.4171    4.3482816    4.3482816    4.3482816    6855.4171    34639.268    7118.0676   -21191.084    745.56069    1062.9306    15424.508    82.215362 
   15600    1280.8802   -113.51007    1.1589674   -112.35111   -18784.871    4.3596432    4.3596432    4.3596432   -18784.871   -21253.847    -14126.21   -20974.556   -7197.1663   -11522.362   -9128.3226    82.861509 
   15700    825.13091   -113.10369   0.74659578   -112.35709   -4291.9349    4.3438205    4.3438205    4.3438205   -4291.9349    18569.409   -14750.622   -16694.591   -13741.797   -5978.2893    32786.379    81.962577 
   15800    808.31908   -113.09309   0.73138409    -112.3617    27670.987    4.3433785    4.3433785    4.3433785    27670.987    47986.738    49527.893    -14501.67     286.6199    7206.0854    14960.151    81.937563 
   15900    1334.3818   -113.56048    1.2073767    -112.3531   -14843.482    4.3645363    4.3645363    4.3645363   -14843.482   -9558.4099   -18695.399   -16276.636    807.91241   -1892.5032   -12407.926    83.140822 
   16000    660.67746   -112.95721   0.59779485   -112.35942    15736.828    4.3403972    4.3403972    4.3403972    15736.828    28565.187    21580.532   -2935.2365   -2366.6513   -5799.9218    36508.819    81.768953 
   16100    1011.7157   -113.28033   0.91542159   -112.36491    5897.5134    4.3451501    4.3451501    4.3451501    5897.5134    36942.591   -6579.3195   -12670.731   -6732.6839    6124.3395     18081.92    82.037867 
   16200    1310.9972   -113.54062    1.1862179    -112.3544    7680.2486    4.3578839    4.3578839    4.3578839    7680.2486   -599.92946    24521.042   -880.36701     2748.254   -3729.0238   -12766.888    82.761234 
   16300    879.47525   -113.15433   0.79576769   -112.35856    7107.2636    4.3500273    4.3500273    4.3500273    7107.2636    18557.588   -5905.8138    8670.0162    4860.2076   -4088.9103    35706.905    82.314422 
   16400    1072.3205   -113.32727   0.97025809   -112.35702   -7984.9791    4.3554169    4.3554169    4.3554169   -7984.9791    9302.2045   -19120.944   -14136.198   -235.44625   -1947.1317    14257.611     82.62076 
   16500     1401.401   -113.61971    1.2680171   -112.35169    18552.319    4.3404411    4.3404411    4.3404411    18552.319    13592.963     24963.03    17100.964    2352.9669   -90.021132   -9735.6896    81.771432 
   16600    848.49647   -113.13913   0.76773744   -112.37139    338.42674     4.352681     4.352681     4.352681    338.42674    4990.8905   -308.29437   -3667.3159    3164.6292   -1019.2484    36220.255    82.465163 
   16700    909.88062   -113.18345   0.82327911   -112.36017    -14752.52     4.368229     4.368229     4.368229    -14752.52    -11070.68   -8768.2791   -24418.602    5288.0957    -4556.545    11337.773    83.352031 
   16800    1172.5317   -113.40921    1.0609314   -112.34828    28872.926    4.3352835    4.3352835    4.3352835    28872.926    21755.372    41171.678    23691.727    9052.8885    3290.8877   -5670.5344    81.480282 
   16900    714.02745    -113.0119   0.64606704   -112.36584   -6935.5256      4.34668      4.34668      4.34668   -6935.5256    12404.538   -12590.223   -20620.891    1470.7933   -630.18215    39498.993     82.12455 
   17000    923.36198   -113.18847   0.83547732   -112.35299    -31163.33    4.3707018    4.3707018    4.3707018    -31163.33   -30987.933   -25147.091   -37354.966   -6337.6583   -6418.9796    5046.0175    83.493664 
   17100    1024.8375   -113.27453   0.92729451   -112.34723    9633.8742    4.3448599    4.3448599    4.3448599    9633.8742    10024.927    7347.1078    11529.588    1513.1424   -4531.9504    7123.8119    82.021429 
   17200    621.76153   -112.91929    0.5625829   -112.35671   -8578.9784    4.3446677    4.3446677    4.3446677   -8578.9784    35281.594   -33345.557   -27672.972    3013.1677   -5521.2434    50505.691    82.010543 
   17300    1054.6154   -113.30545   0.95423814   -112.35121   -21339.052    4.3576822    4.3576822    4.3576822   -21339.052   -11470.311   -29324.693   -23222.153   -8761.6142   -7307.0398    589.47024    82.749742 
   17400    919.68421   -113.18541    0.8321496   -112.35326   -9005.0996    4.3551562    4.3551562    4.3551562   -9005.0996   -1204.3246   -29647.759    3836.7848   -12123.067   -3454.9205   -374.71083    82.605927 
   17500    790.20451   -113.07234   0.71499364   -112.35735   -11193.006    4.3516983    4.3516983    4.3516983   -11193.006    37578.402   -52784.024   -18373.395   -3850.1274    590.56287    40731.794    82.409319 
   17600    1063.9557   -113.31617   0.96268951   -112.35348    9624.6976    4.3459986    4.3459986    4.3459986    9624.6976    5283.9966    18126.388    5463.7085    2738.6131   -15979.264   -2003.9689    82.085937 
   17700      947.327   -113.21679   0.85716138   -112.35963   -3083.0075     4.356549     4.356549     4.356549   -3083.0075   -8753.5993   -9371.6193    8876.1961   -10089.372    -11285.04   -6726.9282    82.685204 
   17800    949.20875   -113.21568   0.85886403   -112.35682   -9090.1862    4.3587111    4.3587111    4.3587111   -9090.1862    14597.667   -39187.767   -2680.4593   -6865.2675   -4811.5773    27685.139    82.808372 
   17900    1184.1923   -113.41862    1.0714821   -112.34714    18585.189    4.3436826    4.3436826    4.3436826    18585.189    14557.469    23498.993    17699.104    -6002.606   -12504.337   -9076.6023    81.954773 
   18000    920.91776   -113.19256   0.83326574   -112.35929   -668.65527    4.3582148    4.3582148    4.3582148   -668.65527   -9106.6991    4611.6144    2489.1189   -9665.9354   -1715.1211   -9732.7014    82.780088 
   18100    1056.4742   -113.30866   0.95592006   -112.35274   -5690.1357    4.3624957    4.3624957    4.3624957   -5690.1357    9337.1615   -18305.858   -8101.7109     2617.839    -2803.068    25053.531    83.024264 
   18200    1119.3672   -113.35701     1.012827   -112.34418     13987.53    4.3472877    4.3472877    4.3472877     13987.53    19664.051    15082.638    7215.9018   -6473.5247   -12261.318   -6411.5331    82.159001 
   18300      630.002   -112.92588   0.57003905   -112.35584   -12996.377    4.3557448    4.3557448    4.3557448   -12996.377    -13798.67   -6127.0189   -19063.443   -11763.452   -216.73776   -8102.6909    82.639424 
   18400    967.50114     -113.226   0.87541536   -112.35058   -7262.3422    4.3521294    4.3521294    4.3521294   -7262.3422    13486.059   -21675.297   -13597.789   -6817.0295    1988.3088    18069.752    82.433816 
   18500     928.4486   -113.19322    0.8400798   -112.35314   -1971.2646    4.3509127    4.3509127    4.3509127   -1971.2646    19538.005    -14025.04   -11426.759   -946.03443    -9543.968   -17601.592    82.364696 
   18600    346.48776   -112.67717   0.31350941   -112.36366   -18392.667    4.3589039    4.3589039    4.3589039   -18392.667   -22351.756   -2889.1665    -29937.08   -7637.3071    5378.4275   -8193.9932    82.819362 
   18700    920.63251   -113.18613   0.83300764   -112.35312    5259.2632    4.3440365    4.3440365    4.3440365    5259.2632    9355.0245    4181.1786    2241.5866   -7323.0614     8618.226    12440.303    81.974809 
   18800    910.15101   -113.18082   0.82352376    -112.3573   -8287.3629       4.3513       4.3513       4.3513   -8287.3629    5151.4763   -24171.756   -5841.8092   -3443.4778   -10532.994   -15992.545    82.386695 
   18900    362.63512   -112.69018   0.32811988   -112.36206   -26266.347    4.3642519    4.3642519    4.3642519   -26266.347   -31704.109   -23715.285   -23379.648   -7292.5646    7253.9721   -10165.984    83.124572 
   19000    1157.3001   -113.39377    1.0471495   -112.34663   -1569.1397    4.3476569    4.3476569    4.3476569   -1569.1397   -8779.0815   -8431.4445    12503.107    1966.8625    12104.801    2346.0883    82.179936 
   19100    1049.6802   -113.29942   0.94977274   -112.34964   -5316.5655    4.3469018    4.3469018    4.3469018   -5316.5655   -4905.6783    -7510.457   -3533.5611   -5638.0615   -10591.354    -19233.15    82.137124 
   19200    531.16426   -112.84521   0.48060859   -112.36461   -8696.0862    4.3515137    4.3515137    4.3515137   -8696.0862    -33846.97    1756.1525    6002.5594   -5125.8712   -146.89036   -9745.6279    82.398833 
   19300     1188.866   -113.43426     1.075711   -112.35855    5487.1663    4.3515647    4.3515647    4.3515647    5487.1663   -14573.154    7198.8564    23835.797   -2264.3799    8514.5638   -65.413044    82.401729 
   19400    1322.8704   -113.55249     1.196961   -112.35553      -7651.4    4.3520068    4.3520068    4.3520068      -7651.4   -7858.4454   -1942.0554   -13153.699   -2262.5942    -2039.346    -7288.335     82.42685 
   19500    737.55164   -113.03209   0.66735222   -112.36474   -2578.4319    4.3484936    4.3484936    4.3484936   -2578.4319   -21810.026    8558.8209    5515.9092    7746.8667    3954.9926    -13885.86    82.227389 
   19600     1295.774   -113.53159    1.1724436   -112.35915    12839.573    4.3464197    4.3464197    4.3464197    12839.573    -15150.19    39488.505    14180.405    4912.3555    4627.3896    6057.4823      82.1098 
   19700    1282.8978   -113.51973    1.1607929   -112.35894    2368.3202    4.3519637    4.3519637    4.3519637    2368.3202   -9377.5124    24375.958   -7893.4852   -8842.2177   -2849.4013    6221.6839    82.424397 
   19800    859.50979   -113.14164   0.77770252   -112.36394   -11084.387    4.3573912    4.3573912    4.3573912   -11084.387   -30399.676    569.45581   -3422.9413    5687.2434   -5949.9501   -8520.1871     82.73317 
   19900    1288.9876   -113.52028     1.166303   -112.35398    11967.049    4.3443146    4.3443146    4.3443146    11967.049    -14409.19    34526.102    15784.235    3932.5351     6688.317    4774.4463    81.990552 
   20000    1231.8671    -113.4758    1.1146193   -112.36118   -973.90678    4.3434721    4.3434721    4.3434721   -973.90678    15876.372   -12412.252   -6385.8409   -6567.9397    1037.0191    8069.0328     81.94286 
   20100     720.7438   -113.01693   0.65214414   -112.36479   -17361.403    4.3595171    4.3595171    4.3595171   -17361.403   -21958.044   -9646.2864   -20479.878    10643.441   -3251.8717   -3329.0727     82.85432 
   20200    1251.1917   -113.48676    1.1321046   -112.35466    10234.626    4.3440252    4.3440252    4.3440252    10234.626   -3815.8651     19444.15    15075.594    2446.6665    684.18516   -6289.8416    81.974167 
   20300    873.73895   -113.15214   0.79057737   -112.36157    11496.915    4.3398138    4.3398138    4.3398138    11496.915    14647.157    15958.964    3884.6243   -16566.454   -2171.9633    13940.553    81.735983 
   20400    489.07162   -112.81324   0.44252228   -112.37072   -13246.149    4.3595831    4.3595831    4.3595831   -13246.149   -15782.419   -6504.3544   -17451.675    3238.5705     2193.273     3385.944    82.858082 
   20500    1069.9211   -113.32186   0.96808709   -112.35377    8521.1844    4.3478581    4.3478581    4.3478581    8521.1844   -3205.7021    21230.288    7538.9674   -412.72914   -2465.6279   -5375.4377    82.191345 
   20600    679.88766   -112.97378   0.61517664    -112.3586    8121.5151    4.3440871    4.3440871    4.3440871    8121.5151    10820.607    2204.2371    11339.702   -14878.041    556.41599    11060.746    81.977668 
   20700    608.10384   -112.90962   0.55022513    -112.3594   -14889.392    4.3576563    4.3576563    4.3576563   -14889.392    6393.5928   -35779.659   -15282.109   -553.39429    -2387.941    9293.9083    82.748271 
   20800    1175.2681   -113.41189    1.0634073   -112.34848    11019.673    4.3424032    4.3424032    4.3424032    11019.673    17387.184    9811.4493     5860.385   -3888.9303   -6888.3679   -2986.6547    81.882374 
   20900    782.09146   -113.06897   0.70765279   -112.36132   -9228.6983    4.3504178    4.3504178    4.3504178   -9228.6983   -15064.063   -20245.756    7623.7244    -9505.108    5955.6572    2024.6353    82.336593 
   21000    837.83367   -113.11953   0.75808951   -112.36144   -21134.726    4.3569844    4.3569844    4.3569844   -21134.726   -14239.946   -26808.157   -22356.075   -409.46464    6719.3819    1368.3531    82.709997 
   21100    1458.0302   -113.66733    1.3192564   -112.34808    16841.955    4.3403215    4.3403215    4.3403215    16841.955    25958.041    21410.798    3157.0266   -751.41481   -3978.6087    2604.0397    81.764674 
   21200    948.23019   -113.21978    0.8579786   -112.36181   -17546.227    4.3547057    4.3547057    4.3547057   -17546.227   -23053.527   -33192.395    3607.2404   -16710.839    1370.2277    5792.5321    82.580294 
   21300    864.45194   -113.14901   0.78217428   -112.36683   -1030.3438    4.3478516    4.3478516    4.3478516   -1030.3438    2770.6822    9679.8341   -15541.548   -7815.8112    17166.057    2246.1294    82.190976 
   21400    1741.1055    -113.9292    1.5753888   -112.35381    14155.877    4.3394872    4.3394872    4.3394872    14155.877    24722.185    27399.358   -9653.9108    14951.881    3102.0928   -4988.4984    81.717531 
   21500    1069.5778   -113.33201   0.96777648   -112.36423   -13543.482    4.3575894    4.3575894    4.3575894   -13543.482   -18277.569   -13956.998   -8395.8782   -9130.0744    1316.3084     -4807.32    82.744458 
   21600    751.87881   -113.04451   0.68031575   -112.36419    5328.4736    4.3516128    4.3516128    4.3516128    5328.4736    14004.599    15849.734   -13868.912   -4337.5313    18616.948     1250.134    82.404466 
   21700    1637.5062   -113.82962      1.48165   -112.34797    7286.1802    4.3462728    4.3462728    4.3462728    7286.1802    23536.692    7613.4249   -9291.5759     2365.479   -3022.7286    6298.5518     82.10147 
   21800    968.82265   -113.23571   0.87661109    -112.3591   -7172.8853    4.3487976    4.3487976    4.3487976   -7172.8853   -2531.6183   -21060.007    2072.9695   -21409.509   -4701.1809    3190.7891    82.244639 
   21900    604.13098   -112.91103   0.54663041   -112.36439    7892.0295    4.3480874    4.3480874    4.3480874    7892.0295    15204.088   -202.65805    8674.6584    3216.0689    18601.971   -1423.2941    82.204351 
   22000    1426.5864   -113.64517    1.2908054   -112.35437   -8405.2667    4.3565318    4.3565318    4.3565318   -8405.2667   -262.91792   -13529.444   -11423.438    6530.5735   -640.20288   -6210.4549    82.684225 
   22100    704.27488   -113.00125   0.63724271   -112.36401    6010.9664    4.3451063    4.3451063    4.3451063    6010.9664    10386.231   -18643.271    26289.939   -20615.757    4085.8907   -6163.9345    82.035383 
   22200    578.47749   -112.89103   0.52341859   -112.36761    11535.405    4.3449743    4.3449743    4.3449743    11535.405    28723.575   -18107.902    23990.541   -3171.3842    1805.3001   -1577.9962    82.027909 
   22300    1199.3476    -113.4381    1.0851949   -112.35291   -8664.9345     4.364871     4.364871     4.364871   -8664.9345   -2829.9531    -27293.35    4128.4994    4911.8752    3327.4692   -298.74682    83.159951 
   22400    650.54387    -112.9464   0.58862576   -112.35778    9323.6861    4.3450294    4.3450294    4.3450294    9323.6861    21849.184   -16674.204    22796.078   -12518.222    2617.8442   -8407.4122    82.031029 
   22500    635.00003   -112.93576   0.57456137    -112.3612     17450.59      4.34157      4.34157      4.34157     17450.59    18042.073   -18596.656    52906.353   -1846.2399    -5666.793   -2039.3639    81.835252 
   22600     1273.338   -113.50201     1.152143   -112.34986   -1135.7823    4.3623453    4.3623453    4.3623453   -1135.7823    11045.871   -25510.827    11057.608    3682.3284    8481.5558   -1573.3728    83.015676 
   22700     811.2462   -113.09227   0.73403261   -112.35824    8688.7797    4.3460381    4.3460381    4.3460381    8688.7797     30669.03   -21843.469    17240.777   -10937.519   -4113.9712      -7002.2     82.08817 
   22800    750.61481   -113.04644   0.67917206   -112.36727    8519.6925    4.3441315    4.3441315    4.3441315    8519.6925    810.20911   -15961.922    40710.791    949.34344   -6103.3974   -2413.8076    81.980186 
   22900    1375.6574   -113.59965    1.2447237   -112.35493    5936.0533    4.3545349    4.3545349    4.3545349    5936.0533    5070.1001   -1633.7721    14371.832     4890.559   -6443.2231   -2973.4843    82.570577 
   23000    926.64676   -113.19806   0.83844946   -112.35961    3173.4932    4.3511735    4.3511735    4.3511735    3173.4932    7771.9568   -17059.019    18807.542   -18195.872    286.52806   -10894.969    82.379512 
   23100    910.51143   -113.18416   0.82384987   -112.36031    -2153.816    4.3565772    4.3565772    4.3565772    -2153.816   -4809.9207   -22565.181    20913.654   -4072.5216   -5196.8034   -5894.4058     82.68681 
   23200    1297.7021   -113.52271    1.1741881   -112.34852    14836.423    4.3474447    4.3474447    4.3474447    14836.423    8720.2512     14527.61    21261.408    9139.7621   -4302.5599   -5366.7711    82.167902 
   23300    761.45787   -113.05056   0.68898308   -112.36158    3981.1727    4.3449886    4.3449886    4.3449886    3981.1727    14311.462   -12633.609    10265.666    -7414.543    11037.031    -8624.188     82.02872 
   23400    717.19122   -113.01294   0.64892969   -112.36401   -14052.188     4.361161     4.361161     4.361161   -14052.188   -2537.0478   -32858.157   -6761.3583   -15672.722   -13040.921   -878.66874    82.948084 
   23500    1254.1735   -113.48602    1.1348025   -112.35122     9611.511    4.3439544    4.3439544    4.3439544     9611.511     12300.64    6589.6956    9944.1971   -4723.3459   -1675.6904     -3283.54     81.97016 
   23600    493.22089    -112.8106   0.44627663   -112.36432    2530.0735    4.3451436    4.3451436    4.3451436    2530.0735    33564.932   -25866.205   -108.50618   -7824.0207    7916.7214   -20448.697    82.037495 
   23700    642.41942    -112.9442   0.58127459   -112.36293   -16520.055    4.3600831    4.3600831    4.3600831   -16520.055   -608.59714   -42049.428     -6902.14   -15196.672   -3757.7691    6243.4483    82.886596 
   23800    1275.6754    -113.5038    1.1542579   -112.34954    6992.3643    4.3442935    4.3442935    4.3442935    6992.3643    7056.2411    160.99059    13759.861    10.679397    -1116.879   -417.43935    81.989355 
   23900    699.58994   -112.99663   0.63300368   -112.36363   -18209.169    4.3509723    4.3509723    4.3509723   -18209.169    2681.4931   -27265.103   -30043.896   -10124.307    4279.9844   -25183.976    82.368081 
   24000    718.81824   -113.01256   0.65040185   -112.36215   -10376.704    4.3527459    4.3527459    4.3527459   -10376.704   -3617.2041   -16982.297   -10530.611    -27637.52    7427.6846   -29.042482     82.46885 
   24100    1461.2519   -113.67168    1.3221714   -112.34951    9761.3352    4.3453352    4.3453352    4.3453352    9761.3352    1317.9203    18398.604    9567.4816    9394.7744    -3639.081   -1534.1444    82.048349 
   24200    883.77739   -113.15893   0.79966036   -112.35927   -31304.229    4.3638894    4.3638894    4.3638894   -31304.229   -19283.206   -38997.347   -35632.134   -2257.8796    58.869303   -20258.127    83.103864 
   24300    919.64279   -113.19247   0.83211213   -112.36036    3108.5627    4.3392478    4.3392478    4.3392478    3108.5627   -1674.7294   -2131.6068    13132.024   -20696.063    8232.9764    10396.311    81.704005 
   24400    1576.6737   -113.78064    1.4266075   -112.35404    14637.031    4.3318171    4.3318171    4.3318171    14637.031    8297.7298    24052.207    11561.156   -2349.2907   -2504.7699   -5050.0591    81.284988 
   24500    863.19482   -113.14454   0.78103681   -112.36351   -40467.499     4.371914     4.371914     4.371914   -40467.499   -27060.956   -39917.136   -54424.406    2336.4303     3826.312   -20626.023    83.563156 
   24600    979.34343   -113.24596   0.88613052   -112.35983   -2721.8637    4.3441766    4.3441766    4.3441766   -2721.8637   -1003.9697    28.665138   -7190.2866   -11895.553     605.8159    6117.7537    81.982737 
   24700    1498.8344   -113.70399    1.3561768   -112.34782    19080.583    4.3318394    4.3318394    4.3318394    19080.583      8984.92    19015.284    29241.544    10444.071   -673.66258    5418.9475    81.286241 
   24800     663.1734   -112.95809   0.60005323   -112.35803   -44218.601    4.3666319    4.3666319    4.3666319   -44218.601   -34087.097   -42199.201   -56369.504    10361.053   -7691.2981   -13943.496    83.260639 
   24900    977.81477    -113.2395   0.88474735   -112.35475   -1573.7307    4.3390922    4.3390922    4.3390922   -1573.7307    5368.2343     3409.034    -13498.46   -15848.798    3957.4084    -4534.099    81.695216 
   25000    1353.1517   -113.57792    1.2243601   -112.35356    4721.1924    4.3410075    4.3410075    4.3410075    4721.1924    -4033.385     8428.047    9768.9151    5742.3445   -695.85516      1994.01    81.803448 
   25100    464.59255   -112.78803    0.4203731   -112.36766   -25925.586    4.3557021    4.3557021    4.3557021   -25925.586   -26773.417   -29292.504   -21710.837    19340.093   -12170.318   -13799.659    82.636995 
   25200    945.39094   -113.21575   0.85540959   -112.36034    13507.008    4.3371072    4.3371072    4.3371072    13507.008    11118.463    38781.846   -9379.2857    -2139.493     5163.364   -8262.5633     81.58315 
   25300    1241.2235   -113.47801    1.1230851   -112.35493    -20282.74    4.3587667    4.3587667    4.3587667    -20282.74   -28472.839   -13244.111   -19131.268    2391.3808   -4681.5883    7858.4744    82.811543 
   25400    391.81609   -112.72295   0.35452344   -112.36842   -15970.339    4.3446697    4.3446697    4.3446697   -15970.339   -27072.143   -3400.9293   -17437.944    8004.6625   -8856.3853   -14831.998    82.010656 
   25500     913.9013    -113.1871    0.8269171   -112.36018    31126.786      4.33112      4.33112      4.33112    31126.786    29100.249    36806.418     27473.69    2079.2195   -6096.0213   -17367.595    81.245747 
   25600    1270.5223   -113.50312    1.1495953   -112.35353   -22263.016    4.3636853    4.3636853    4.3636853   -22263.016   -27588.444   -24321.492   -14879.111    -3594.926    845.23741    7398.6641    83.092204 
   25700    428.26606   -112.75241   0.38750413    -112.3649    2862.4735    4.3416612    4.3416612    4.3416612    2862.4735   -19689.832    26581.987     1695.266    1482.0444   -729.06017     -8962.99    81.840407 
   25800    1133.8716   -113.38355    1.0259508    -112.3576    15559.198    4.3336572    4.3336572    4.3336572    15559.198    17207.748   -391.72495    29861.571    8258.8435   -7831.9453   -8965.9931    81.388619 
   25900    1204.8325   -113.44301    1.0901577   -112.35285   -14962.905    4.3595799    4.3595799    4.3595799   -14962.905   -25354.546   -23532.552     3998.381   -12930.365    7276.5699    9302.5661      82.8579 
   26000    676.91792   -112.97162   0.61248956   -112.35913    8868.4175    4.3432187    4.3432187    4.3432187    8868.4175    14207.048    4800.0522    7598.1524   -6652.3876   -7688.1641   -10410.267    81.928515 
   26100    1345.8778   -113.57226    1.2177785   -112.35448    7756.3619    4.3421914    4.3421914    4.3421914    7756.3619    8739.5013    -9855.875    24385.459    10980.281   -7784.7711   -11077.989    81.870395 
   26200    1139.6846    -113.3876    1.0312106   -112.35639   -7196.9985    4.3528694    4.3528694    4.3528694   -7196.9985   -13183.659   -10273.537    1866.2002   -11817.267    8444.2784    13577.004    82.475872 
   26300    763.77046   -113.05217   0.69107556    -112.3611    1561.6215    4.3458957    4.3458957    4.3458957    1561.6215   -1098.6255    8046.8888   -2263.3988   -6672.6851   -10373.319    6429.6505    82.080103 
   26400     1499.431   -113.70593    1.3567167   -112.34922    1021.8501    4.3528828    4.3528828    4.3528828    1021.8501    12092.517   -1788.0912   -7238.8759    14172.026   -534.68105    -3317.456    82.476633 
   26500    1026.5419   -113.28502   0.92883667   -112.35619   -4235.8261    4.3489908    4.3489908    4.3489908   -4235.8261   -372.68916   -5021.5373   -7313.2518   -16205.047    11338.775    4197.1953    82.255596 
   26600     674.8965   -112.97246   0.61066054    -112.3618    10979.009    4.3389082    4.3389082    4.3389082    10979.009    5169.9622    21772.224    5994.8405   -11328.956   -5837.4704    3943.0552    81.684825 
   26700    1597.4475   -113.79848    1.4454041   -112.35308   -12601.486    4.3556021    4.3556021    4.3556021   -12601.486    -6893.539    -5194.017   -25716.901    4063.1943   -1088.5488   -1282.8887    82.631304 
   26800    966.40714   -113.23868   0.87442549   -112.36425   -13683.043    4.3515789    4.3515789    4.3515789   -13683.043   -12108.735     2539.535    -31479.93   -8809.9961    4780.1736    6116.7568    82.402538 
   26900    594.79364   -112.90389   0.53818179   -112.36571    8377.6708    4.3380185    4.3380185    4.3380185    8377.6708     8074.536    20551.565   -3493.0888   -16041.868    4197.2616     7131.927    81.634588 
   27000    1462.1589   -113.67789    1.3229921    -112.3549    822.78357    4.3545992    4.3545992    4.3545992    822.78357    20010.219   -8519.2204   -9022.6476    4356.7109   -2759.2316   -5008.4246    82.574234 
   27100    878.68247   -113.15559   0.79505036   -112.36054   -2264.9963    4.3502303    4.3502303    4.3502303   -2264.9963    715.43757    9810.8687   -17321.295   -4875.9767    8576.3417    2252.2746    82.325949 
   27200    527.86219   -112.84121    0.4776208   -112.36359    7476.5697    4.3406588    4.3406588    4.3406588    7476.5697    11993.059     8539.809    1896.8412   -21428.853    9797.3368    7518.7507    81.783739 
   27300     1398.445   -113.62013    1.2653424   -112.35478       4329.7    4.3458743    4.3458743    4.3458743       4329.7    29070.092   -14946.013   -1134.9791    370.05027   -10530.592   -2787.1927    82.078891 
   27400    936.84081   -113.21189   0.84767325   -112.36421    17047.145    4.3422428    4.3422428    4.3422428    17047.145    33775.171    20064.181   -2697.9177   -1893.9012    4123.3192   -3505.2512    81.873301 
   27500    700.95165   -113.00325   0.63423578   -112.36901    -8482.647    4.3572083    4.3572083    4.3572083    -8482.647   -23532.137   -812.56423     -1103.24   -11666.327    15599.629    8891.8086    82.722748 
   27600    1346.5711   -113.57246    1.2184059   -112.35406   -2757.4384    4.3480011    4.3480011    4.3480011   -2757.4384    -2506.632   -7042.5376    1276.8543   -1292.0828   -5594.8681    -3997.555    82.199454 
   27700    1000.4342    -113.2605   0.90521391   -112.35529    19761.186    4.3262937    4.3262937    4.3262937    19761.186     15780.38    34618.146    8885.0307    342.04843    3874.3542   -11611.104    80.974446 
   27800     745.6237   -113.04392   0.67465599   -112.36927   -4093.6649    4.3521017    4.3521017    4.3521017   -4093.6649   -8841.8896    347.06898    -3786.174   -17467.502    12561.347    10177.706    82.432243 
   27900    1293.3188   -113.52196     1.170222   -112.35174   -10448.526    4.3581197    4.3581197    4.3581197   -10448.526   -15007.428   -5611.9933   -10726.155    103.68616   -2471.4739   -7142.5027    82.774669 
   28000    711.30934   -112.99691   0.64360764   -112.35331    13310.417    4.3358067    4.3358067    4.3358067    13310.417     15229.38     37969.99   -13268.117    10260.289    373.55229   -15829.998    81.509782 
   28100    837.92713   -113.11647   0.75817408   -112.35829    79.643621    4.3425162    4.3425162    4.3425162    79.643621     11007.27    5686.6031   -16454.942   -16950.833    5956.0236    14098.321    81.888769 
   28200    1209.2761   -113.44715    1.0941784   -112.35297   -861.41594    4.3506384    4.3506384    4.3506384   -861.41594    14094.137    10535.336    -27213.72   -7457.0789    -1258.636   -6374.1224    82.349122 
   28300    596.23827   -112.90245   0.53948892   -112.36296    82.028884    4.3494358    4.3494358    4.3494358    82.028884    19357.117    20136.486   -39247.516    7323.9916   -2072.6098   -18055.332    82.280849 
   28400    1026.4318   -113.28738   0.92873703   -112.35865   -5148.2206    4.3452571    4.3452571    4.3452571   -5148.2206   -249.18194   -6636.1853   -8559.2946    4549.1371    3128.5151    14757.024    82.043924 
   28500    1271.9201   -113.50594      1.15086   -112.35508    16144.894     4.337537     4.337537     4.337537    16144.894    32935.982    24606.515   -9107.8148   -3402.7892     1999.509   -10653.391    81.607409 
   28600    679.62493   -112.98351   0.61493892   -112.36857   -14782.601    4.3588226    4.3588226    4.3588226   -14782.601    4350.1083   -8903.9269   -39793.985   -3017.3862    8882.3252   -17536.243    82.814726 
   28700    1252.2727   -113.48764    1.1330827   -112.35455   -14347.097    4.3557923    4.3557923    4.3557923   -14347.097   -9068.4674   -22982.901   -10989.923    5810.1551   -2776.7824    20325.304     82.64213 
   28800    1396.5634   -113.60974    1.2636399    -112.3461    21417.197      4.33072      4.33072      4.33072    21417.197    34058.598    7820.7559    22372.237   -3071.8355   -2957.9902    -16506.33    81.223244 
   28900    858.37422   -113.14093   0.77667503   -112.36426   -15911.785    4.3502802    4.3502802    4.3502802   -15911.785    6368.5793   -27880.148   -26223.786     6720.581    2358.8689   -22578.965     82.32878 
   29000    1275.3813   -113.50974    1.1539918   -112.35575   -16690.531    4.3571388    4.3571388    4.3571388   -16690.531   -8732.6349   -28824.909    -12514.05    3638.1363   -11060.677    14988.312     82.71879 
   29100    1382.0613   -113.59943    1.2505181   -112.34891    4797.8722    4.3429605    4.3429605    4.3429605    4797.8722    14714.726   -11122.277    10801.168   -6738.9897    9471.3485   -16702.369    81.913907 
   29200    864.46777   -113.14141    0.7821886   -112.35923   -8985.5115    4.3463405    4.3463405    4.3463405   -8985.5115    8067.9767   -24574.305   -10450.207    2562.9747    3317.2741   -20523.441    82.105311 
   29300    1390.4164   -113.61096     1.258078   -112.35288   -5542.1813    4.3434768    4.3434768    4.3434768   -5542.1813    -7648.623   -14189.357    5211.4361    9129.5476   -13819.507    12571.353    81.943125 
   29400    1068.3471   -113.32255   0.96666292   -112.35588   -3169.1738    4.3535925    4.3535925    4.3535925   -3169.1738     -7370.73   -19801.593    17664.801    7269.3667    2337.0065   -22088.815    82.516983 
   29500    915.57459   -113.18618   0.82843113   -112.35775   -17131.897     4.354085     4.354085     4.354085   -17131.897   -3038.7307   -25257.288   -23099.671   -5452.9915   -1124.6481   -23549.927    82.544987 
   29600    1260.0695   -113.48818    1.1401373   -112.34804    18010.587    4.3348017    4.3348017    4.3348017    18010.587    11945.729    18380.338    23705.694    5413.5566   -2045.9895    19918.769    81.453116 
   29700    912.35634   -113.18609   0.82551919   -112.36057   -3010.6608    4.3532902    4.3532902    4.3532902   -3010.6608   -7543.3739   -11329.115    9840.5069    4471.4711   -305.20086   -23308.828    82.499793 
   29800    792.44232   -113.07393   0.71701846   -112.35691   -13493.563    4.3561655    4.3561655    4.3561655   -13493.563   -7280.6357   -10667.151   -22532.901   -2071.0937    397.42742   -32445.773    82.663371 
   29900    1196.1429   -113.42725    1.0822952   -112.34495    29125.742    4.3302809    4.3302809    4.3302809    29125.742    6930.9992    35757.191    44689.036    14424.139    2322.1171    17665.604    81.198535 
   30000    703.72396   -113.00221   0.63674423   -112.36546   -4397.1908    4.3494842    4.3494842    4.3494842   -4397.1908    18873.681   -10350.882   -21714.372    5108.6093   -4906.9931   -24895.408    82.283596 
   30100    765.12572   -113.05363   0.69230183   -112.36133   -10803.555    4.3535931    4.3535931    4.3535931   -10803.555    6444.8537   -7434.4476   -31421.072   -4864.3792    -3349.005    -32322.92    82.517013 
   30200    1201.8011   -113.43635    1.0874149   -112.34894    25258.961    4.3345917    4.3345917    4.3345917    25258.961    3761.0873    25610.013    46405.784    5971.0753    2522.0643     16437.35    81.441279 
   30300    628.75033    -112.9337   0.56890652   -112.36479   -17799.912    4.3522652    4.3522652    4.3522652   -17799.912     19722.08   -33877.287   -39244.528    7527.1004    891.57135   -36543.925    82.441535 
   30400    727.40772   -113.01785    0.6581738   -112.35967   -2380.8019    4.3506351    4.3506351    4.3506351   -2380.8019    30676.428   -19767.974    -18050.86    3424.2076   -2211.4788   -30311.197    82.348935 
   30500    1333.6834   -113.55453    1.2067448   -112.34778    12690.458    4.3415593    4.3415593    4.3415593    12690.458      15155.7    -8321.038    31236.712     1223.499   -4078.3122    14512.728    81.834649 
   30600    477.95711   -112.79958   0.43246564   -112.36712   -12855.669    4.3493997    4.3493997    4.3493997   -12855.669    26441.427   -60935.802   -4072.6305    7851.1229     6362.977   -44712.863      82.2788 
   30700    813.83556   -113.10194   0.73637551   -112.36557    6766.6405    4.3426934    4.3426934    4.3426934    6766.6405    26844.246   -38961.244    32416.919     2662.256    6227.5763   -21512.251    81.898795 
   30800    1293.3809   -113.52515    1.1702782   -112.35487    7674.6028    4.3519315    4.3519315    4.3519315    7674.6028     22502.39   -26674.366    27195.784    6593.2589     4405.412    7081.5764    82.422571 
   30900     643.0623   -112.94415   0.58185628    -112.3623   -4557.6738    4.3522286    4.3522286    4.3522286   -4557.6738    35277.792   -53374.866    4424.0526    9858.5079    3622.0954   -46379.841    82.439452 
   31000    1136.5579   -113.37976    1.0283815   -112.35138     9489.357    4.3392176    4.3392176    4.3392176     9489.357    20515.413   -17570.398    25523.056   -790.16179    3530.5449   -10617.906    81.702304 
   31100    1369.3937   -113.58975    1.2390562   -112.35069    4746.6481    4.3484295    4.3484295    4.3484295    4746.6481    9122.0356   -8566.3143    13684.223   -2498.9711    2644.9132    7727.9792    82.223756 
   31200    901.54659   -113.17363    0.8157383   -112.35789   -14432.871    4.3537059    4.3537059    4.3537059   -14432.871    14668.492   -31677.842   -26289.263    4536.3765    2650.9728   -42743.219    82.523431 
   31300    1261.0861   -113.49576    1.1410572    -112.3547    2375.5789    4.3414346    4.3414346    4.3414346    2375.5789    2707.4271    1478.9223    2940.3872    9609.0952    7129.6923   -5844.5954    81.827593 
   31400    1361.5362   -113.58791    1.2319466   -112.35596    1189.3911    4.3468042    4.3468042    4.3468042    1189.3911    6900.9256    10869.942   -14202.695    337.81421    -712.4656    17063.953    82.131592 
   31500     782.3151   -113.06812   0.70785514   -112.36026    319.83943    4.3528719    4.3528719    4.3528719    319.83943    17129.167   -7471.8315   -8697.8172   -2693.3422   -1560.6336    -33801.34    82.476014 
   31600    1110.7432   -113.35783    1.0050238   -112.35281     7007.313    4.3493906    4.3493906    4.3493906     7007.313   -3642.1499    7376.7566    17287.332    1760.8113    7348.0307   -1049.5283    82.278287 
   31700    1093.2998   -113.33994   0.98924064    -112.3507    -1749.097    4.3483027    4.3483027    4.3483027    -1749.097    3025.1107      7034.32   -15306.722   -2355.7876    4335.1005    17978.038    82.216564 
   31800    625.02057     -112.924   0.56553175   -112.35847   -756.60743    4.3426098    4.3426098    4.3426098   -756.60743    19786.071   -13773.095   -8282.7982    1599.2955   -3073.9062   -34087.446    81.894063 
   31900    955.55653   -113.22271   0.86460763   -112.35811    -93.99772    4.3480272    4.3480272    4.3480272    -93.99772   -4584.6377   -16110.628    20413.273    10527.805    1125.9011   -5594.7811    82.200933 
   32000     973.0978    -113.2367   0.88047934   -112.35623   -11560.451    4.3535235    4.3535235    4.3535235   -11560.451    838.13917   -32227.289   -3292.2035    1594.9092    2896.6294    16115.035    82.513058 
   32100    684.31891   -112.97786   0.61918613   -112.35868    -4981.003     4.339672     4.339672     4.339672    -4981.003    22685.818   -29345.112   -8283.7148   -4427.1328   -880.02749   -32210.864    81.727969 
   32200     1070.823   -113.32631   0.96890312   -112.35741   -5180.1659    4.3441376    4.3441376    4.3441376   -5180.1659   -743.18408   -22906.012     8108.698    11689.084    2759.8627   -10080.493    81.980528 
   32300    1003.9884   -113.26414   0.90842984   -112.35571   -19286.244    4.3544118    4.3544118    4.3544118   -19286.244   -5938.8954    -41785.05   -10134.787     12396.33    1449.0506    16431.171    82.563574 
   32400    905.51308   -113.17832   0.81932726   -112.35899   -11215.549    4.3400046    4.3400046    4.3400046   -11215.549    19547.647   -26591.933   -26602.361   -2750.9119   -12206.882   -32838.726    81.746763 
   32500    1218.1621   -113.46064    1.1022187   -112.35842   -7033.8475    4.3451244    4.3451244    4.3451244   -7033.8475   -1927.1486   -10315.786   -8858.6081     7040.739   -3358.2888   -11879.732    82.036409 
   32600    1119.8767   -113.37234    1.0132879   -112.35906   -14257.183    4.3517094    4.3517094    4.3517094   -14257.183   -16570.599   -10530.208   -15670.743    14389.835    8852.1938    18125.165    82.409949 
   32700    995.51534   -113.26295    0.9007632   -112.36219    -74.65252    4.3392805    4.3392805    4.3392805    -74.65252    20506.569    8754.7544   -29485.281    1099.1975   -3531.5393   -21662.058    81.705854 
   32800    1306.1394   -113.53988    1.1818224   -112.35806   -7406.0829    4.3510724    4.3510724    4.3510724   -7406.0829   -7134.9461    1433.2982   -16516.601    4015.4149   -1250.2834   -13379.373    82.373766 
   32900     1019.789   -113.28215   0.92272652   -112.35942   -12593.881    4.3510965    4.3510965    4.3510965   -12593.881     -26265.7   -3824.4395   -7691.5053    10967.449    3759.9079    21697.061    82.375134 
   33000    873.84289   -113.14922   0.79067141   -112.35855    10977.492    4.3373035    4.3373035    4.3373035    10977.492    24134.916    11269.799   -2472.2399    2086.5529   -6534.2664   -7103.2608    81.594229 
   33100    1223.0908   -113.46111    1.1066782   -112.35443     -4968.64    4.3517099    4.3517099    4.3517099     -4968.64   -1960.9684   -8722.8665   -4222.0851    2301.0755   -7064.9183   -10355.638    82.409982 
   33200    698.23546   -112.99105   0.63177812   -112.35927   -2668.1729     4.352489     4.352489     4.352489   -2668.1729    -18662.43   -14069.575    24727.486    5035.8629    1537.3099    21140.665    82.454251 
   33300    704.94598    -112.9962   0.63784993   -112.35835    10866.212    4.3429734    4.3429734    4.3429734    10866.212    23749.508    6738.5951    2110.5317    3844.4701    1168.7514    8652.8971    81.914638 
   33400     1090.073   -113.33944   0.98632092   -112.35312    8470.9019    4.3452626    4.3452626    4.3452626    8470.9019    14526.357   -13819.533    24705.882   -3844.9573   -6545.8953   -5719.1092    82.044237 
   33500    466.88461   -112.78713     0.422447   -112.36468   -8674.7434    4.3492265    4.3492265    4.3492265   -8674.7434   -2765.4853   -35301.525     12042.78    1264.1485    -4919.579    13809.969    82.268975 
   33600     589.0556    -112.8976   0.53298989   -112.36462   -10217.512    4.3492177    4.3492177    4.3492177   -10217.512    18389.747   -25692.775   -23349.509    11698.416   -1019.2205     20619.11    82.268472 
   33700    1124.3037   -113.37063    1.0172936   -112.35333    18870.649    4.3399301    4.3399301    4.3399301    18870.649     21688.23    6867.2669     28056.45   -4383.9327    -2736.553    483.97339    81.742556 
   33800    528.19648   -112.84366   0.47792328   -112.36574    4625.8902    4.3460685    4.3460685    4.3460685    4625.8902    17000.581   -16761.205    13638.294   -4262.4587   -4548.2771    8595.3736    82.089896 
   33900    594.29839    -112.9043   0.53773368   -112.36657   -13953.534    4.3560553    4.3560553    4.3560553   -13953.534    22241.534   -39495.207    -24606.93    10097.843    493.45947    20216.617    82.657097 
   34000    1290.4077   -113.52051     1.167588   -112.35292    18237.045    4.3371929    4.3371929    4.3371929    18237.045    41881.766   -3549.4816    16378.851    3410.7138    1541.8399   -4172.2022    81.587986 
   34100    816.94214   -113.10505   0.73918642   -112.36587    5034.4152    4.3431259    4.3431259    4.3431259    5034.4152    15512.243   -5711.9189    5302.9212   -1844.6008   -12072.629    10170.709    81.923267 
   34200    836.05761    -113.1217   0.75648249   -112.36522   -13450.924    4.3559714    4.3559714    4.3559714   -13450.924   -7223.0526   -19360.675   -13769.044    3162.4336   -1643.7497    27421.194    82.652319 
   34300    1445.4592   -113.66078    1.3078819    -112.3529    23878.243    4.3328671    4.3328671    4.3328671    23878.243    29787.534    15200.041    26647.153    2492.1508    3664.3127   -18448.712    81.344109 
   34400    1090.2166   -113.35448   0.98645089   -112.36803   -4781.7872    4.3463845    4.3463845    4.3463845   -4781.7872    7983.9877   -20392.248   -1937.1013   -5566.4056   -5639.6065   -7079.9474    82.107805 
   34500    1061.9815   -113.32541   0.96090319    -112.3645   -12926.771    4.3529696    4.3529696    4.3529696   -12926.771   -5837.5935   -27162.377   -5780.3423   -3881.7512   -3172.5001    23653.514    82.481567 
   34600     1362.049   -113.58401    1.2324105   -112.35159     30067.91    4.3302615    4.3302615    4.3302615     30067.91    36047.226    23932.307    30224.196    4813.3956   -2664.8503   -13444.602    81.197445 
   34700    1050.1957   -113.31353    0.9502391   -112.36329   -19167.007    4.3558091    4.3558091    4.3558091   -19167.007    1548.9377   -36573.432   -22476.525   -8176.3769   -5376.1203   -19015.306    82.643085 
   34800     1005.985   -113.26811   0.91023641   -112.35787   -4238.5709    4.3484335    4.3484335    4.3484335   -4238.5709   -6322.6836   -12200.964    5807.9347    -8627.491   -1211.4853    17879.716    82.223983 
   34900    1152.2042   -113.39232    1.0425386   -112.34978    24822.919     4.323134     4.323134     4.323134    24822.919    41763.601    10146.023    22559.134    1551.3604   -2111.1527   -19828.993     80.79716 
   35000    777.22168   -113.06951   0.70324651   -112.36626    -22451.58    4.3547853    4.3547853    4.3547853    -22451.58    11974.861   -43470.363   -35859.239   -4494.2814    3217.5978   -37818.675    82.584822 
   35100    919.78107   -113.18776   0.83223724   -112.35552   -7185.8968    4.3519764    4.3519764    4.3519764   -7185.8968    -6389.971   -16728.359    1560.6396   -11504.376   -3080.6477    15601.152    82.425124 
   35200    778.41161   -113.05699   0.70432318   -112.35266    14320.872    4.3352131    4.3352131    4.3352131    14320.872    29054.337    8765.4592    5142.8214   -1857.6625   -2972.9715   -13470.119    81.476312 
   35300    588.59178   -112.89331   0.53257021   -112.36074   -12897.166    4.3490764    4.3490764    4.3490764   -12897.166     19529.12   -31822.895   -26397.725   -4522.9207    2582.0534   -41430.718    82.260457 
   35400    944.20704   -113.20987   0.85433837   -112.35553    -205.4423    4.3452793    4.3452793    4.3452793    -205.4423    1782.2593   -14391.622    11993.036   -16099.819   -3012.1392    13799.727    82.045181 
   35500    742.74719   -113.03237   0.67205326   -112.36032   -4147.4777    4.3491825    4.3491825    4.3491825   -4147.4777    10911.101   -22323.565   -1029.9698   -2221.3211   -6145.1966   -12622.095    82.266477 
   35600    668.90294   -112.96806   0.60523744   -112.36282   -11172.074    4.3497559    4.3497559    4.3497559   -11172.074    19222.574   -28050.145   -24688.652    4390.8092    1173.6985   -39968.478    82.299021 
   35700    1346.6445   -113.57103    1.2184722   -112.35255    13161.045    4.3301878    4.3301878    4.3301878    13161.045    11087.594   -2935.6945    31331.234   -13943.829   -2569.7954     11777.15      81.1933 
   35800    954.69175   -113.23317   0.86382516   -112.36935   -17935.623    4.3543068    4.3543068    4.3543068   -17935.623   -1762.0386   -43749.974   -8294.8552   -6369.9059   -2382.1359   -18787.284    82.557602 
   35900    892.22726   -113.17255   0.80730597   -112.36525   -27839.142     4.357255     4.357255     4.357255   -27839.142    11087.554   -54242.584   -40362.395    5486.5701    82.617678   -39343.832    82.725408 
   36000    1615.0463   -113.80798    1.4613278   -112.34665    30950.137    4.3205008    4.3205008    4.3205008    30950.137    17837.503    37061.017     37951.89   -10853.431   -1960.5718     14530.19     80.64961 
   36100    1163.9563   -113.42229    1.0531722   -112.36912   -10088.444    4.3462358    4.3462358    4.3462358   -10088.444    436.30981   -21402.089   -9299.5526   -5686.1228    1157.5816   -23895.431    82.099375 
   36200    819.70772   -113.10758   0.74168877   -112.36589   -20911.198    4.3584488    4.3584488    4.3584488   -20911.198    5471.3604   -24649.077   -43555.876     3140.279   -421.87588   -36997.702    82.793425 
   36300    1589.5801   -113.78653    1.4382855   -112.34824    19070.798    4.3342392    4.3342392    4.3342392    19070.798    223.39606    31105.886    25883.113   -938.22376     359.9571    12668.658     81.42141 
   36400    1101.2017   -113.35521   0.99639043   -112.35882   -6483.6018    4.3449598    4.3449598    4.3449598   -6483.6018   -3269.8967    64.089553   -16244.998   -7204.2749    2214.7706   -25473.845    82.027088 
   36500    862.66916   -113.14679   0.78056118   -112.36623   -2830.3948    4.3421724    4.3421724    4.3421724   -2830.3948    13877.069   -1924.4085   -20443.845   -7505.2062   -3644.7347   -40185.216    81.869321 
   36600    1348.8611   -113.58065    1.2204779   -112.36017    18701.887    4.3427177    4.3427177    4.3427177    18701.887   -2856.7688    15651.395    43311.034    7107.3855   -72.905015    16716.576    81.900171 
   36700    959.62834    -113.2366   0.86829189   -112.36831   -22508.485    4.3520801    4.3520801    4.3520801   -22508.485   -4875.5943   -32656.304   -29993.557   -1601.5233     982.6058   -23787.625    82.431011 
   36800    601.96679   -112.91014    0.5446722   -112.36546    7239.8531    4.3323649    4.3323649    4.3323649    7239.8531    28067.894    -16313.66    9965.3259    -5588.777   -1992.9496   -46003.519    81.315826 
   36900    1287.7216   -113.52668    1.1651575   -112.36152    3603.4107    4.3504463    4.3504463    4.3504463    3603.4107   -3947.3293    1766.1164    12991.445    5459.9831   -429.15031    16272.803    82.338213 
   37000    716.81956   -113.01403    0.6485934   -112.36544   -16795.049    4.3546048    4.3546048    4.3546048   -16795.049    15356.915   -37275.243   -28466.819   -2439.4516   -1374.8289   -20401.131    82.574557 
   37100    409.67791   -112.72878   0.37068518   -112.35809    18237.815    4.3233575    4.3233575    4.3233575    18237.815    49827.301   -13108.218    17994.362   -5747.2715    648.33568   -40219.047    80.809691 
   37200    1155.7412   -113.40829    1.0457389   -112.36255   -11532.131    4.3502667    4.3502667    4.3502667   -11532.131   -6771.6285   -16042.938   -11781.827   -6346.6791    577.85249    14072.754    82.328017 
   37300    835.23843   -113.11684   0.75574129    -112.3611   -11479.283    4.3532761    4.3532761    4.3532761   -11479.283    8255.4626   -21149.199   -21544.112    1136.0184    3800.5842   -21566.232    82.498992 
   37400    610.57263   -112.90963   0.55245894   -112.35717    25658.607    4.3280277    4.3280277    4.3280277    25658.607    44341.081    15414.877    17219.861    2786.7873   -743.39513   -35026.054    81.071854 
   37500    1144.4059   -113.39376    1.0354825   -112.35828   -17014.784    4.3514121    4.3514121    4.3514121   -17014.784   -20464.928   -19332.357   -11247.067   -12204.351    477.15155    14400.161    82.393065 
   37600    975.81261   -113.24308   0.88293576   -112.36015     -6808.83    4.3450086    4.3450086    4.3450086     -6808.83    -2813.971   -12301.658   -5310.8615    107.55678    6020.6608   -20632.894    82.029851 
   37700    988.33664   -113.25487   0.89426776    -112.3606     17978.29    4.3354343    4.3354343    4.3354343     17978.29    15472.382    15304.583    23157.906    5792.8256   -2408.0039   -25467.598    81.488781 
   37800    1274.4337   -113.51008    1.1531344   -112.35695   -14289.333     4.354548     4.354548     4.354548   -14289.333   -33156.178   -4377.3889   -5334.4326   -14580.777   -454.12918      16728.8    82.571322 
   37900    1110.5967   -113.36367    1.0048913   -112.35878    9792.5016    4.3368789    4.3368789    4.3368789    9792.5016   -793.21253    8066.9587    22103.759   -686.53525    6985.1453   -19690.355    81.570265 
   38000       1147.6   -113.40101    1.0383726   -112.36264    9976.4375    4.3398025    4.3398025    4.3398025    9976.4375   -2356.2477    11272.032    21013.528    8757.6004    -1264.362   -30740.847    81.735345 
   38100    1289.5046   -113.52478    1.1667708   -112.35801   -13559.717    4.3534321    4.3534321    4.3534321   -13559.717    -42561.89    468.93526    1413.8044   -2946.9764   -4606.7755    12597.728    82.507861 
   38200    1041.2441   -113.29989   0.94213952   -112.35775    20708.187    4.3342096    4.3342096    4.3342096    20708.187      3601.79    23943.329    34579.443   -7830.8972    3888.8363   -3727.9582    81.419742 
   38300    1119.5012   -113.37466    1.0129482   -112.36171    5170.0543    4.3474214    4.3474214    4.3474214    5170.0543   -5995.9216    10874.616    10631.468     4410.243    2298.3604   -24068.512    82.166579 
   38400     1044.854   -113.30386   0.94540584   -112.35845   -5208.9498    4.3499731    4.3499731    4.3499731   -5208.9498   -33563.247    16331.417    1604.9804    8506.7333   -11338.653    783.77093     82.31135 
   38500    966.72454   -113.23292   0.87471268   -112.35821     15364.54    4.3295702    4.3295702    4.3295702     15364.54    8648.0371    15959.462    21486.122   -14254.453   -2470.6968    582.59427    81.158567 
   38600    1088.2739    -113.3494   0.98469311    -112.3647    -10095.77    4.3506143    4.3506143    4.3506143    -10095.77   -4592.8193   -19786.706   -5907.7859    3473.9185    4304.1246   -16409.494     82.34775 
   38700    920.30864   -113.19327    0.8327146   -112.36055   -15619.142    4.3540481    4.3540481    4.3540481   -15619.142   -27960.169   -5976.3098   -12920.946    15161.691    -15898.48   -1458.9093    82.542891 
   38800    911.92257   -113.18066    0.8251267   -112.35553     22418.75     4.333074     4.333074     4.333074     22418.75    25785.521    17356.901    24113.828   -8594.2839   -5448.6252    8252.1466    81.355765 
   38900    1194.9179   -113.43725    1.0811868   -112.35607   -10304.295    4.3480333    4.3480333    4.3480333   -10304.295     5461.149    -36223.61   -150.42523   -3901.5759    4301.0612   -7771.0001    82.201281 
   39000    842.55792   -113.12355   0.76236411   -112.36118   -7053.8604    4.3451495    4.3451495    4.3451495   -7053.8604   -4900.2729   -15396.171   -865.13714    14337.757   -19958.249   -2667.0355     82.03783 
   39100    875.40282   -113.15443   0.79208286   -112.36234    18279.231    4.3389973    4.3389973    4.3389973    18279.231    22066.502    20077.449    12693.741    1053.6414   -9037.2068    6420.2741    81.689855 
   39200    1399.9934   -113.62141    1.2667435   -112.35467   -5942.8469    4.3516788    4.3516788    4.3516788   -5942.8469    2424.0392   -22551.662    2299.0823   -8358.6875    8578.4514   -3986.0568    82.408214 
   39300    827.31182   -113.11167   0.74856912    -112.3631    11049.636    4.3360551    4.3360551    4.3360551    11049.636    16801.605    7360.1353    8987.1666    21878.147   -18473.431    -1892.957    81.523795 
   39400    842.20668   -113.13253    0.7620463   -112.37048    8416.9857    4.3417306    4.3417306    4.3417306    8416.9857    3222.5841     20818.69     1209.683    5494.2176   -15361.676    846.29669    81.844331 
   39500    1419.0599   -113.63937    1.2839952   -112.35537   -3371.7309    4.3522081    4.3522081    4.3522081   -3371.7309    3156.4957   -9392.1053   -3879.5831   -13818.238    4320.9102    12091.577    82.438287 
   39600    936.16594   -113.20896   0.84706262    -112.3619      14074.4    4.3308741    4.3308741    4.3308741      14074.4    4050.8423    29854.568    8317.7882    18354.284   -14928.091    1185.1973     81.23191 
   39700    638.40805   -112.95131   0.57764502   -112.37367   -4931.4332    4.3434946    4.3434946    4.3434946   -4931.4332   -38290.409    27698.712   -4202.6033    18020.744   -20070.224    -1799.999    81.944133 
   39800    1364.2258   -113.58855    1.2343802   -112.35417   -7285.8643    4.3525178    4.3525178    4.3525178   -7285.8643   -6606.7476   -6175.0696   -9075.7757    -3761.409    438.74395    14539.342    82.455889 
   39900    834.50966   -113.11402   0.75508187   -112.35894    18248.183    4.3369232    4.3369232    4.3369232    18248.183    -1673.496    34441.373     21976.67    7507.6224   -8541.4537   -4454.2902    81.572766 
   40000    621.58056   -112.92718   0.56241915   -112.36476   -13552.699    4.3453068    4.3453068    4.3453068   -13552.699   -43871.867    16760.616   -13546.845    21579.009   -25988.839     679.2036    82.046743 
   40100    1073.7589   -113.33109   0.97155959   -112.35953    2164.9901    4.3428768    4.3428768    4.3428768    2164.9901    6545.8246     6156.134   -6206.9883    937.79338    686.97815    15855.147    81.909171 
   40200    920.34905   -113.19556   0.83275116   -112.36281    6946.4525    4.3416978    4.3416978    4.3416978    6946.4525    15497.588    19528.105   -14186.336    2108.6421    861.67396   -749.57862    81.842477 
   40300      522.998   -112.84109   0.47321958   -112.36787   -9103.0633    4.3509015    4.3509015    4.3509015   -9103.0633   -27406.579    8775.1602   -8677.7716    19181.151   -33230.922   -687.90818    82.364064 
   40400    1096.4881   -113.35012   0.99212549   -112.35799    14072.227    4.3375445    4.3375445    4.3375445    14072.227    26279.581     12422.67    3514.4306   -3430.9005   -2222.6942    2299.9545    81.607832 
   40500     980.9599   -113.24766   0.88759313   -112.36007   -582.22646    4.3456008    4.3456008    4.3456008   -582.22646    13317.866    12277.797   -27342.342    1527.0616   -1738.0022    3954.3342    82.063395 
   40600    784.95822   -113.07284    0.7102467   -112.36259   -18411.761    4.3513711    4.3513711    4.3513711   -18411.761   -29295.832    5264.2185   -31203.671    15194.737   -33299.504   -2849.2851    82.390734 
   40700    1201.6717   -113.44146    1.0872978   -112.35416    20608.462    4.3310376    4.3310376    4.3310376    20608.462    31958.302    17755.285      12111.8    4873.9425    -1325.238    6115.9604    81.241113 
   40800    1185.8962   -113.43564    1.0730238   -112.36262   -10932.865    4.3472061    4.3472061    4.3472061   -10932.865    2289.8251   -15558.242   -19530.179   -4743.2795    4980.5598    15970.675    82.154373 
   40900    992.83268   -113.26217   0.89833588   -112.36383   -16307.301    4.3501732    4.3501732    4.3501732   -16307.301   -35344.566    7371.7727    -20949.11   -1410.7145   -26279.924   -5031.7782    82.322708 
   41000    1391.7903   -113.61247    1.2593211   -112.35315    11480.591    4.3348594    4.3348594    4.3348594    11480.591    18816.246    12751.179    2874.3482    9783.8473   -9639.3408    7820.5011     81.45637 
   41100    1164.9702    -113.4146    1.0540895   -112.36051   -14371.376    4.3498158    4.3498158    4.3498158   -14371.376    1497.8885   -21797.763   -22814.254   -6545.0287    9631.7397     15378.34    82.302418 
   41200    1114.7309   -113.37151    1.0086319   -112.36288   -2468.4686    4.3422499    4.3422499    4.3422499   -2468.4686    -10308.14    2124.5101    778.22364   -4997.9912   -11483.155   -2722.7287    81.873703 
   41300    1393.0178   -113.61785    1.2604318   -112.35742    13612.893    4.3394562    4.3394562    4.3394562    13612.893    23214.023    10444.283    7180.3738    1660.1184   -5745.7898    7564.4101    81.715782 
   41400    947.11412   -113.22057   0.85696876    -112.3636   -14379.094     4.354312     4.354312     4.354312   -14379.094    3260.5117    -27211.91   -19185.882   -12003.539    18766.125    13172.307    82.557899 
   41500    1087.4747   -113.34287   0.98396994    -112.3589    7155.6438    4.3411466    4.3411466    4.3411466    7155.6438    3860.4296     5582.969    12023.533   -6064.3066   -2117.7929    -2489.115    81.811314 
   41600    1329.9039   -113.55651     1.203325   -112.35318    12848.805    4.3433722    4.3433722    4.3433722    12848.805    37141.275    918.42248    486.71692   -1239.8022   -6526.0333    6420.5692    81.937203 
   41700    782.02749    -113.0741   0.70759491   -112.36651   -9749.5518    4.3471973    4.3471973    4.3471973   -9749.5518     22729.43   -29086.594   -22891.491   -1818.4484    11853.117    15289.202    82.153874 
   41800    746.47022   -113.04052   0.67542194    -112.3651    17466.399    4.3389594    4.3389594    4.3389594    17466.399    21747.202    5647.5991    25004.394   -8881.4965    14051.986   -2681.7392    81.687714 
   41900    1304.0619   -113.53707    1.1799426   -112.35713    5713.3994    4.3471638    4.3471638    4.3471638    5713.3994    16998.588   -4376.7379    4518.3481   -8123.9232    3963.5162    4948.7523    82.151977 
   42000    551.34516   -112.86547   0.49886869    -112.3666    9948.7407     4.347515     4.347515     4.347515    9948.7407    41290.417   -7462.2438   -3981.9507    3704.0359    2975.7291    14847.188     82.17189 
   42100    710.93106   -113.00429   0.64326537   -112.36102    5927.3955    4.3439182    4.3439182    4.3439182    5927.3955    21578.335   -2871.6534   -924.49469   -9691.8669     26627.17   -9233.6733    81.968111 
   42200     1065.568   -113.31896   0.96414828   -112.35481    15180.228    4.3419417    4.3419417    4.3419417    15180.228    13171.959    11323.742    21044.984   -4612.4906    2064.4771    5544.7793    81.856273 
   42300    643.75823   -112.94756   0.58248597   -112.36508    5210.0476    4.3463235    4.3463235    4.3463235    5210.0476    21037.245   -16920.995    11513.893    5190.3158   -2646.9299    17769.407    82.104347 
   42400    671.64552    -112.9698   0.60771898   -112.36208   -6003.4829    4.3514014    4.3514014    4.3514014   -6003.4829    12586.901   -9220.0985   -21377.251   -7598.7942    25788.915   -11062.861    82.392453 
   42500    1077.4879   -113.32875   0.97493371   -112.35381    14009.408     4.340078     4.340078     4.340078    14009.408    7471.8549    21890.885    12665.483   -6422.9482   -444.32995    3800.7363     81.75091 
   42600    785.52104   -113.07216   0.71075595   -112.36141    322.41487    4.3458179    4.3458179    4.3458179    322.41487    4842.8297   -11912.363    8036.7774    5111.3381   -7543.6463    12848.175    82.075698 
   42700     848.0855   -113.12799   0.76736558   -112.36063    -9260.055    4.3501901    4.3501901    4.3501901    -9260.055   -3938.5521   -16431.978   -7409.6348   -862.83269    11327.505   -8962.8872     82.32367 
   42800     1227.393   -113.46455     1.110571   -112.35398    12385.634    4.3415408    4.3415408    4.3415408    12385.634    13194.517    12178.034    11784.351   -2676.3782   -1684.7795    416.67157      81.8336 
   42900    896.04349   -113.17225   0.81075898   -112.36149   -8165.1753    4.3479538    4.3479538    4.3479538   -8165.1753   -13945.585   -1962.8449   -8587.0961    4443.0204   -14557.528    13736.948    82.196774 
   43000    970.78627   -113.24145   0.87838782   -112.36307   -8100.4612    4.3449457    4.3449457    4.3449457   -8100.4612    4078.6424   -22340.239    -6039.787    1717.1953    10583.833   -2961.1937    82.026288 
   43100    1330.9372   -113.56233      1.20426   -112.35807    7618.1059    4.3423263    4.3423263    4.3423263    7618.1059    6414.0646    5566.8733     10873.38   -4534.3193    3133.3616   -7642.7518    81.878025 
   43200    935.40651   -113.21135   0.84637547   -112.36498   -8447.9278    4.3481388    4.3481388    4.3481388   -8447.9278   -5946.3432   -4821.6677   -14575.773    7.8710032   -28088.577    13627.938    82.207262 
   43300    821.98551   -113.10881   0.74374976   -112.36506    8397.4281    4.3417568    4.3417568    4.3417568    8397.4281    35998.245   -15073.848    4267.8865    7073.1132    7314.0239   -8168.6015    81.845814 
   43400    1343.9264   -113.57223    1.2160128   -112.35622    4958.8385    4.3459523    4.3459523    4.3459523    4958.8385    11254.471    9180.3634   -5558.3192    -2037.913    7247.0183   -10785.572    82.083311 
   43500    744.22985   -113.03731   0.67339481   -112.36391   -7136.4561    4.3476694    4.3476694    4.3476694   -7136.4561    1778.5574    5684.3452   -28872.271   -2680.1473   -21727.346    12573.447    82.180645 
   43600    687.66135   -112.98754   0.62221044   -112.36533    2016.5611    4.3410247    4.3410247    4.3410247    2016.5611    33914.524   -13304.068   -14560.773    9228.5291   -6101.5567   -7001.3251    81.804423 
   43700    1266.5906   -113.50407    1.1460378   -112.35803    5497.0385    4.3446449    4.3446449    4.3446449    5497.0385    14854.627    6429.9752   -4793.4865   -5010.6343    5027.8777    -7597.729    82.009251 
   43800    654.08798   -112.95883   0.59183255     -112.367    3684.4448    4.3417975    4.3417975    4.3417975    3684.4448    22542.293    8897.5331   -20386.491    -10344.72   -7085.1335    12892.559    81.848114 
   43900    647.82149    -112.9568    0.5861625   -112.37064   -10760.303    4.3450838    4.3450838    4.3450838   -10760.303    21234.062   -18019.783   -35495.188    6637.8076   -16937.223    168.66843     82.03411 
   44000    1325.9978   -113.55821    1.1997907   -112.35842    1332.6124    4.3459337    4.3459337    4.3459337    1332.6124    5310.5253    55.622889    -1368.311    3425.3489    4481.8688   -4834.5212    82.082258 
   44100    796.81056   -113.08562   0.72097094   -112.36465    14642.126    4.3378154    4.3378154    4.3378154    14642.126    17000.091    10962.458    15963.828   -18583.239   -2092.9389    6132.7387    81.623121 
   44200    813.16886   -113.10418   0.73577227   -112.36841   -5928.6149    4.3475189    4.3475189    4.3475189   -5928.6149    4410.0853   -9653.6779   -12542.252   -3007.2716   -16337.319    8798.8049    82.172109 
   44300    1499.7504   -113.71322    1.3570057   -112.35621    1731.0959    4.3454774    4.3454774    4.3454774    1731.0959     361.7732    2053.1626    2778.3519    7213.7296    10550.565    441.29915    82.056404 
   44400    1013.8284   -113.28161   0.91733325   -112.36427    4453.9678    4.3377064    4.3377064    4.3377064    4453.9678   -6109.5267    4745.4598     14725.97    -15957.08    2053.2403    5327.2372    81.616968 
   44500    905.32912   -113.18857   0.81916082   -112.36941    -5424.474    4.3461298    4.3461298    4.3461298    -5424.474    -8861.995   -17581.916    10170.488   -4344.8055   -22243.658    11739.116    82.093368 
   44600    1495.6583   -113.71094    1.3533031   -112.35764    5549.5956    4.3448393    4.3448393    4.3448393    5549.5956    1572.4147    8514.3048    6562.0671    6449.5817   -538.28749   -5006.8679    82.020264 
   44700    1052.3122   -113.31452   0.95215421   -112.36236    -5235.685    4.3439173    4.3439173    4.3439173    -5235.685   -32901.184   -1469.5828    18663.712   -14272.063    22915.679    -4753.921    81.968057 
   44800    914.70188    -113.1925   0.82764148   -112.36486     -7327.91    4.3418883    4.3418883    4.3418883     -7327.91   -21254.402   -7795.8066    7066.4785   -6407.2637   -13101.311    11542.727     81.85325 
   44900    1311.7041   -113.54516    1.1868574   -112.35831    7539.9859    4.3385114    4.3385114    4.3385114    7539.9859    5940.2089    16183.131    496.61795    4685.0016   -5986.8308    12101.672    81.662419 
   45000    933.37643   -113.20819   0.84453861   -112.36365   -12841.969    4.3507519    4.3507519    4.3507519   -12841.969   -28427.412   -7231.4493   -2867.0464   -2899.7648    26477.447   -6623.1324    82.355565 
   45100     801.1711   -113.08814   0.72491645   -112.36322   -3178.3766    4.3432467    4.3432467    4.3432467   -3178.3766   -13453.296   -10047.632    13965.798   -13696.942    -6097.536    7431.8667    81.930101 
   45200    1175.2689   -113.41921     1.063408    -112.3558    11225.254    4.3342609    4.3342609    4.3342609    11225.254    14319.856     21451.21   -2095.3025   -1524.5782    593.72117     10038.24    81.422636 
   45300    740.38823   -113.03309   0.66991883   -112.36317   -8514.0864    4.3489248    4.3489248    4.3489248   -8514.0864   -19257.653    10156.519   -16441.125    7902.6114     31485.86   -6494.1998    82.251856 
   45400    880.93577   -113.15829    0.7970892    -112.3612   -8976.4559    4.3449739    4.3449739    4.3449739   -8976.4559   -4512.2632   -10445.182   -11971.923   -18185.565   -6110.7517    12390.572    82.027886 
   45500    1063.6096   -113.31991   0.96237635   -112.35753    6009.2992    4.3389404    4.3389404    4.3389404    6009.2992    13900.757    18217.342   -14090.202    1106.8183   -4815.8555    7244.7295    81.686643 
   45600    855.77065   -113.13739   0.77431927   -112.36307   -1376.3183    4.3420151    4.3420151    4.3420151   -1376.3183     -8852.48     11313.51   -6589.9852    9702.4255    29465.922   -6630.9108    81.860422 
   45700    868.62314    -113.1501   0.78594847   -112.36415     4519.197    4.3412556    4.3412556    4.3412556     4519.197   -7086.6811    25581.649   -4937.3772   -17986.382    5569.7961    891.58281    81.817476 
   45800    1219.6671   -113.46338    1.1035805    -112.3598   -7125.1571    4.3474159    4.3474159    4.3474159   -7125.1571   -3164.5997    5990.5283     -24201.4   -5148.1882    -3438.637    6291.1698    82.166272 
   45900    910.75167   -113.18702   0.82406725   -112.36296    1691.8478    4.3408288    4.3408288    4.3408288    1691.8478   -8319.2328     18108.83   -4714.0536    6951.4071    27234.897   -1661.2792    81.793344 
   46000    967.35102   -113.23856   0.87527953   -112.36328    9023.3925     4.335718     4.335718     4.335718    9023.3925   -8312.2379    24353.653    11028.762   -9513.4623    5694.2212   -10223.224    81.504778 
   46100     1188.653   -113.43509    1.0755182   -112.35957   -3606.9474    4.3505526    4.3505526    4.3505526   -3606.9474   -18803.251    13253.136   -5270.7273   -16920.261   -8629.2488    6686.0494    82.344248 
   46200    973.22591   -113.24199   0.88059526    -112.3614   -5186.6905    4.3441505    4.3441505    4.3441505   -5186.6905   -29467.846    12948.162    959.61297     6504.259    27993.088    3918.8369    81.981261 
   46300    742.97549   -113.03546   0.67225984    -112.3632    9460.8448    4.3338198    4.3338198    4.3338198    9460.8448   -23409.484    39271.503    12520.515   -10520.936    11950.857   -8461.2181     81.39778 
   46400    1071.5346   -113.33078   0.96954705   -112.36123    2761.3318    4.3455482    4.3455482    4.3455482    2761.3318   -8684.2095   -2757.2923    19725.497   -25923.746   -10832.695    2287.5273    82.060414 
   46500    971.26674   -113.24005   0.87882256   -112.36123    3184.3834    4.3450632    4.3450632    4.3450632    3184.3834   -22242.126    23052.125     8743.152    11235.812    28872.172    2845.2505    82.032941 
   46600    750.44588   -113.04327    0.6790192   -112.36425   -4187.3016    4.3401708    4.3401708    4.3401708   -4187.3016   -35841.799     24940.63   -1660.7362    -8785.688    13434.948   -3978.8307    81.756154 
   46700    963.59604   -113.23296   0.87188195   -112.36108    1462.2018    4.3428648    4.3428648    4.3428648    1462.2018   -19609.559    1251.8595    22744.305   -22646.107   -7374.5061   -2666.4127    81.908489 
   46800    1075.6315   -113.33238   0.97325394   -112.35913    8794.7223    4.3426947    4.3426947    4.3426947    8794.7223    3963.9416    19996.557    2423.6684    7885.3406        25422     1136.176     81.89887 
   46900    950.69715   -113.22223   0.86021076   -112.36202   -4297.7772    4.3450565    4.3450565    4.3450565   -4297.7772   -16476.095    22408.914   -18826.151   -8799.9755    14249.478   -3600.1244    82.032566 
   47000    1025.7882   -113.28928   0.92815474   -112.36112   -716.72711    4.3411227    4.3411227    4.3411227   -716.72711   -5360.7814   -14301.931    17512.531   -18218.135   -9281.5455    -16308.87    81.809963 
   47100    1171.2339   -113.42097    1.0597571   -112.36122    103.83257    4.3392083    4.3392083    4.3392083    103.83257   -3324.6783    15500.342   -11864.166    270.53832    24732.578    1137.4419    81.701776 
   47200    1110.3656   -113.36747    1.0046821   -112.36279     -5098.92    4.3474415    4.3474415    4.3474415     -5098.92    3439.1125    15747.923   -34483.795    4613.7514    27266.347     5243.876    82.167718 
   47300     1222.031   -113.46603    1.1057194   -112.36031    2200.2638    4.3434441    4.3434441    4.3434441    2200.2638    22002.545   -18770.369    3368.6161   -9285.0164   -11309.377   -13845.304    81.941274 
   47400    1065.4355   -113.32618   0.96402846   -112.36216    5927.2785     4.339293     4.339293     4.339293    5927.2785    21996.679    6768.4666    -10983.31   -10179.579    20613.998   -447.54342     81.70656 
   47500    1094.3657   -113.35377   0.99020507   -112.36357   -5154.4988     4.344767     4.344767     4.344767   -5154.4988    9528.6713    14375.663   -39367.831    6285.8979    28790.609     5948.191    82.016167 
   47600    1182.9933   -113.42908    1.0703972   -112.35869    7238.2193    4.3431144    4.3431144    4.3431144    7238.2193    22568.604     -5648.94    4794.9935   -11536.971    -14158.51   -2676.3547    81.922618 
   47700    1064.6806   -113.32529   0.96334537   -112.36194   -12037.172    4.3442764    4.3442764    4.3442764   -12037.172   -9920.5879    -5192.903   -20998.024   -12433.593    27764.663    1126.4322    81.988387 
   47800    754.01884   -113.04796   0.68225209   -112.36571   -94.823862    4.3406542    4.3406542    4.3406542   -94.823862    425.74995    26269.072   -26979.293    7631.3557    38269.711    6972.9898    81.783476 
   47900    1226.7323   -113.46832    1.1099731   -112.35835    2051.0387    4.3384516    4.3384516    4.3384516    2051.0387   -1227.3464   -2175.1148    9555.5775   -11675.591   -18806.105    4810.1388    81.659042 
   48000     724.4843   -113.02057   0.65552862   -112.36504   -20526.553    4.3528201    4.3528201    4.3528201   -20526.553   -42983.597    1038.1873   -19634.248   -11994.801    20397.689   -5930.8237    82.473068 
   48100    668.87441   -112.97018   0.60521163   -112.36497   -9529.3908    4.3425864    4.3425864    4.3425864   -9529.3908    -21767.84     22506.03   -29326.362    4835.7814    42117.755    2445.0341    81.892743 
   48200    1174.0054   -113.41765    1.0622648   -112.35538    13626.409    4.3322744    4.3322744    4.3322744    13626.409    13506.112    10650.378    16722.736   -4451.9982   -14646.241     10514.78    81.310733 
   48300    580.30244   -112.89202   0.52506984   -112.36695   -22162.603    4.3540615    4.3540615    4.3540615   -22162.603   -48851.131   -3533.2924   -14103.386   -10191.592    20577.492   -3580.9557    82.543649 
   48400    687.80267   -112.99064   0.62233831    -112.3683   -19124.428    4.3443226    4.3443226    4.3443226   -19124.428   -52748.581    17090.608   -21715.309   -6235.3077    44303.447      525.783    81.991005 
   48500     1352.735   -113.57829     1.223983    -112.3543    19459.612     4.331523     4.331523     4.331523    19459.612    17528.734    19328.115    21521.987    1661.5446   -15373.364    1046.0205    81.268432 
   48600    804.01306   -113.09495   0.72748791   -112.36746    -16399.65    4.3499082    4.3499082    4.3499082    -16399.65   -41166.941    2009.9255   -10041.935   -8094.5905    22452.021   -3437.8294    82.307662 
   48700    684.86325   -112.98969   0.61967866   -112.37001   -10892.563    4.3462305    4.3462305    4.3462305   -10892.563   -51609.949    15969.311     2962.949   -8061.2956    43655.524    2768.0148    82.099078 
   48800    1575.3296   -113.78238    1.4253913   -112.35699    9106.0832    4.3370795    4.3370795    4.3370795    9106.0832    4302.5594    2421.6203     20594.07    11225.992   -12838.995   -4481.9779     81.58159 
   48900    1071.9898   -113.33612   0.96995891   -112.36616   -397.54005     4.342395     4.342395     4.342395   -397.54005   -22001.917    14787.744    6021.5524   -542.71388    23156.191    630.01357    81.881911 
   49000    858.84955   -113.14535   0.77710512   -112.36825   -2618.9354     4.348417     4.348417     4.348417   -2618.9354   -17814.357    18006.149    -8048.598   -9771.4607    37089.817   -1577.6189    82.223047 
   49100    1627.5394   -113.82829    1.4726319   -112.35566    2570.6053    4.3463059    4.3463059    4.3463059    2570.6053    14230.438   -14227.456    7708.8347     6628.702   -14039.235   -11986.342     82.10335 
   49200    1103.8657   -113.36086   0.99880089   -112.36206    15390.975    4.3338596    4.3338596    4.3338596    15390.975    10542.448    29788.576    5841.9004    3052.1533    31895.777    2179.1775    81.400021 
   49300    1065.0563   -113.33251   0.96368536   -112.36883    -4882.402    4.3441476    4.3441476    4.3441476    -4882.402   -1441.5572    6940.3672   -20146.016   -3228.7042    35576.516   -3265.6837    81.981098 
   49400     1471.259   -113.69025    1.3312261   -112.35903   -2415.7301    4.3500637    4.3500637    4.3500637   -2415.7301    6688.3457   -11438.013    -2497.523   -1140.3701   -17753.286   -2789.2855    82.316494 
   49500    1103.8953   -113.36018   0.99882769   -112.36135    8439.5157    4.3349054    4.3349054    4.3349054    8439.5157    13930.613    19321.378   -7933.4442     6199.922    32557.081     4068.063     81.45896 
   49600    979.94468   -113.25257   0.88667454    -112.3659   -3384.8637    4.3446253    4.3446253    4.3446253   -3384.8637   -13789.229    18477.179   -14842.541   -2106.2063    37972.578   -3060.4035    82.008144 
   49700    1284.2604   -113.51792    1.1620258   -112.35589   -2644.2173    4.3473372    4.3473372    4.3473372   -2644.2173   -699.92241   -7315.9053    83.175726   -16584.589   -14336.407    3612.8045    82.161809 
   49800    877.87584   -113.15419   0.79432051   -112.35987    849.54207    4.3394081    4.3394081    4.3394081    849.54207    -13034.05    16763.596   -1180.9199     10501.09    22209.187   -331.38402     81.71306 
   49900    760.43132   -113.05197   0.68805424   -112.36392   -9057.4141    4.3466167    4.3466167    4.3466167   -9057.4141   -30983.058    12210.948   -8400.1318    2583.2241    30527.796    518.07563    82.120965 
   50000    1071.4629     -113.327   0.96948211   -112.35752    9508.0115    4.3388251    4.3388251    4.3388251    9508.0115    12296.702   -691.49827     16918.83   -24136.804   -10776.228    10304.071    81.680133 
   50100    656.45535   -112.96042    0.5939746   -112.36644     410.3441    4.3432623    4.3432623    4.3432623     410.3441   -36753.178    29045.197    8939.0136     4437.971    21244.846   -1285.8794    81.930986 
   50200    665.92257   -112.96556   0.60254074   -112.36302   -17146.931    4.3509421    4.3509421    4.3509421   -17146.931   -54573.409    9565.0757   -6432.4588    3794.9616    32318.691   -13.142509     82.36637 
   50300    973.34593   -113.23487   0.88070386   -112.35417    10098.097     4.335031     4.335031     4.335031    10098.097    204.92586    3832.2389    26257.126   -15786.863   -12894.361    6024.6087    81.466042 
   50400    682.54664   -112.98112   0.61758254   -112.36354   -6893.7964    4.3440407    4.3440407    4.3440407   -6893.7964   -19555.198    4809.0442   -5935.2353   -1363.3044    17187.062   -5162.5012    81.975044 
   50500    764.82542    -113.0538   0.69203012   -112.36177   -16813.315    4.3496053    4.3496053    4.3496053   -16813.315   -41663.368    18179.897   -26956.473    663.83754    41566.672    658.07111    82.290469 
   50600    1038.6215   -113.29533   0.93976659   -112.35556    7971.7359    4.3359383    4.3359383    4.3359383    7971.7359   -5904.3336    13656.655    16162.886   -12550.814   -13085.916    2159.1028    81.517205 
   50700    828.24438   -113.11185   0.74941292   -112.36244   -12078.393    4.3451341    4.3451341    4.3451341   -12078.393   -13522.253   -6011.5816   -16701.346   -6724.5591    11658.655   -3099.8276    82.036957 
   50800    918.73553   -113.19271   0.83129122   -112.36142   -12558.368    4.3480961    4.3480961    4.3480961   -12558.368    -4723.489    2363.6399   -35315.254    7165.9583    35650.519   -617.97957     82.20484 
   50900    1184.7903   -113.42898    1.0720232   -112.35696    2828.6143    4.3400155    4.3400155    4.3400155    2828.6143    12507.276    604.81738   -4626.2504   -13179.204   -20632.225   -249.84973    81.747381 
   51000      888.177   -113.16676   0.80364121   -112.36312    1158.8322    4.3441847    4.3441847    4.3441847    1158.8322   -3384.7427      10516.7   -3655.4609   -14928.956    1789.3329    1973.5469    81.983195 
   51100    1240.2616   -113.48198    1.1222148   -112.35977   -7434.2608    4.3467688    4.3467688    4.3467688   -7434.2608    165.54843   -1500.0821   -20968.249     10068.93    30509.541    4247.2604    82.129587 
   51200    1195.9834   -113.44055    1.0821509    -112.3584   -2980.8173    4.3444375    4.3444375    4.3444375   -2980.8173   -3119.9133    838.89866   -6661.4372    -13948.72   -16929.828   -2692.9578    81.997508 
   51300    970.79424   -113.24244   0.87839503   -112.36405   -7024.6714     4.340863     4.340863     4.340863   -7024.6714   -23101.652    3810.5421   -1782.9042   -17089.363   -9575.8385    5863.6538    81.795278 
   51400    1321.3191   -113.55546    1.1955573    -112.3599    9155.1682    4.3450951    4.3450951    4.3450951    9155.1682    10391.039    18827.935   -1753.4688    8005.1525    16097.782   -1584.5482    82.034748 
   51500    1296.1355    -113.5335    1.1727707   -112.36073   -3439.7667     4.346418     4.346418     4.346418   -3439.7667   -17700.555    13851.943   -6470.6888   -14008.015   -9971.7727   -3151.0481    82.109703 
   51600     616.0313   -112.92743   0.55739806   -112.37004    1023.5223    4.3356679    4.3356679    4.3356679    1023.5223   -28872.823    17271.999     14671.39   -11595.609   -14352.173    3993.4333    81.501958 
   51700    1335.9608   -113.57532    1.2088054   -112.36651    2229.0571    4.3456155    4.3456155    4.3456155    2229.0571    7231.1374   -2101.4473    1557.4813     4342.526    8500.5736   -6682.9276     82.06423 
   51800    1250.1434   -113.49464     1.131156   -112.36349    11431.626    4.3457026    4.3457026    4.3457026    11431.626    -4581.499    34917.167    3959.2097    -6727.159   -2302.4222    63.130142    82.069164 
   51900    475.28202   -112.80298   0.43004516   -112.37293    446.35608    4.3386659    4.3386659    4.3386659    446.35608    -16989.62    3456.1594    14872.529   -17988.037   -19670.076    6396.2969    81.671143 
   52000    1177.0999   -113.43327    1.0650647   -112.36821   -4035.1164     4.345706     4.345706     4.345706   -4035.1164   -18087.959   -592.33813    6574.9479    1641.9028    104.45093   -1687.1692    82.069358 
   52100     1419.893   -113.64623     1.284749   -112.36148    11050.612    4.3395431    4.3395431    4.3395431    11050.612    12225.821    20229.608    696.40768    3425.6075    9242.8805   -1100.3122    81.720688 
   52200    548.95762   -112.87148   0.49670839   -112.37477   -9704.2066    4.3488831    4.3488831    4.3488831   -9704.2066   -24266.487   -3796.1545   -1049.9783   -21373.106   -17176.862   -4163.5136     82.24949 
   52300    1234.9994   -113.48222    1.1174534   -112.36477   -14401.498    4.3482643    4.3482643    4.3482643   -14401.498   -34797.984    -8068.312   -338.19657   -5713.8204   -11781.558    3520.7638    82.214383 
   52400    1387.5879   -113.61209    1.2555186   -112.35657    11632.254    4.3354483    4.3354483    4.3354483    11632.254    4658.1509    31071.545   -832.93486    3438.0121    17508.438   -1519.0787    81.489569 
   52500    813.75378   -113.10422   0.73630152   -112.36792   -15965.333    4.3499454    4.3499454    4.3499454   -15965.333   -27785.972   -3592.5594   -16517.467   -16927.296   -5988.9393   -3696.1959    82.309774 
   52600    1135.9363   -113.39128     1.027819   -112.36346   -4018.7768    4.3480448    4.3480448    4.3480448   -4018.7768    -4340.849   -2888.1445   -4827.3369   -11152.571   -12479.361    1788.1478    82.201931 
   52700    1280.0147   -113.51485    1.1581842   -112.35667    13743.464    4.3356179    4.3356179    4.3356179    13743.464    33330.276    18067.594   -10167.476    6698.6542    14224.907   -10484.992    81.499136 
   52800    705.99678   -113.00751   0.63880072   -112.36871   -2052.3286    4.3488137    4.3488137    4.3488137   -2052.3286    13215.903   -647.04708   -18725.841   -6544.2438    2335.7831   -1692.7825    82.245548 
   52900    1170.6592    -113.4189     1.059237   -112.35966   -2941.8464    4.3471479    4.3471479    4.3471479   -2941.8464    10172.955   -9111.4186   -9887.0757   -11211.834    -16823.26    5846.0823    82.151075 
   53000    1019.6178   -113.28117   0.92257161   -112.35859    11376.273    4.3353892    4.3353892    4.3353892    11376.273    50675.084   -6411.6468   -10134.619    9379.5813    7587.6633   -9972.3522    81.486241 
   53100    768.22985   -113.06377   0.69511051   -112.36866   -21394.095    4.3476505    4.3476505    4.3476505   -21394.095   -5438.9633    -32523.07   -26220.251   -5917.0276    15581.646   -3380.2041    82.179571 
   53200    1195.7793   -113.44219    1.0819662   -112.36022    1470.1964    4.3430617    4.3430617    4.3430617    1470.1964    3790.5792   -121.98077    741.99085   -15865.716   -9247.4109   -66.291614    81.919634 
   53300    976.94175   -113.24562   0.88395743   -112.36166   -169.14476    4.3440402    4.3440402    4.3440402   -169.14476    18067.502   -14493.966   -4080.9701    11235.448    5205.8708   -9897.2962    81.975014 
   53400     561.1735   -112.87282   0.50776157   -112.36506   -26419.543    4.3520049    4.3520049    4.3520049   -26419.543   -13348.936   -39394.083   -26515.609     1358.061    18016.334   -1647.7822     82.42674 
   53500    1303.2565   -113.53301    1.1792139    -112.3538    5677.3056     4.333898     4.333898     4.333898    5677.3056    10468.275   -9757.6823    16321.324   -9857.1698   -6975.8164    2630.6455    81.402184 
   53600    1128.5835   -113.38401     1.021166   -112.36285     1137.095    4.3412443    4.3412443    4.3412443     1137.095    9264.8672   -8029.1341    2175.5521    4580.9134   -1755.8087   -12485.035    81.816835 
   53700    473.59353   -112.80332   0.42851738    -112.3748   -19714.751    4.3489573    4.3489573    4.3489573   -19714.751   -16952.982   -24997.957   -17193.314    5456.5048    20056.039   -7498.5956    82.253698 
   53800    1253.6142   -113.49797    1.1342965   -112.36367    3389.8272    4.3352929    4.3352929    4.3352929    3389.8272   -1077.2893   -5938.1135    17184.884    923.93682    8518.7483    7040.7649    81.480807 
   53900    1251.0063   -113.49485    1.1319368   -112.36291   -6575.2754    4.3472095    4.3472095    4.3472095   -6575.2754   -6570.8638   -12547.125   -607.83754    923.34108   -11556.311   -2991.0531    82.154566 
   54000    658.41754   -112.96434   0.59575002   -112.36859   -12639.022    4.3453283    4.3453283    4.3453283   -12639.022   -7562.6728    -24625.49   -5728.9023    8215.4205    11402.913   -8947.0137    82.047962 
   54100    1098.5827   -113.35471   0.99402072   -112.36069    15883.295    4.3337761    4.3337761    4.3337761    15883.295    3225.8201    25742.791    18681.273   -4945.2408    8187.8077    2044.8737    81.395316 
   54200    1268.3247   -113.50703    1.1476069   -112.35942    -10048.46    4.3469486    4.3469486    4.3469486    -10048.46   -23485.105    4005.7657   -10666.042    -3175.292   -23853.983   -2703.4442    82.139775 
   54300    705.55868   -113.00607   0.63840432   -112.36766   -1646.7152    4.3408674    4.3408674    4.3408674   -1646.7152    708.58208   -5707.5367    58.809009    17778.897    7358.1756   -8462.0732    81.795526 
   54400     1126.103    -113.3839    1.0189216   -112.36498    4251.3049    4.3385757    4.3385757    4.3385757    4251.3049    7163.7553    4976.1878     613.9717     1795.463    19006.804    2055.0681    81.666047 
   54500    1171.5701   -113.42173    1.0600613   -112.36167   -9512.5059    4.3480534    4.3480534    4.3480534   -9512.5059    -18766.94     9129.695   -18900.272   -6420.7787   -28889.369    6502.9813    82.202421 
   54600    837.95958   -113.12457   0.75820344   -112.36637   -9859.6934    4.3394679    4.3394679    4.3394679   -9859.6934   -12260.216   -6714.9157   -10603.949     13484.78   -9926.7437   -16985.443     81.71644 
   54700    1171.8085   -113.42527    1.0602769     -112.365    668.82504    4.3395313    4.3395313    4.3395313    668.82504    434.19603    4523.4765   -2951.1974    5571.0888     19276.32   -7614.5007    81.720022 
   54800    1217.6068   -113.46382    1.1017162    -112.3621   -6214.2449    4.3451225    4.3451225    4.3451225   -6214.2449   -13656.547    10815.729   -15801.917     -6429.03   -16932.074    7770.3259    82.036301 
   54900    836.78224   -113.12506   0.75713816   -112.36792    -15933.56    4.3420047    4.3420047    4.3420047    -15933.56   -18700.764   -17815.104   -11284.813    11041.529   -18178.585   -6323.6629    81.859835 
   55000    1102.8246   -113.36206   0.99785885    -112.3642   -9948.0594    4.3423417    4.3423417    4.3423417   -9948.0594   -9.6324927   -29358.523   -476.02233    18795.482    11746.014   -4898.4121      81.8789 
   55100    1222.9582   -113.46721    1.1065583   -112.36065   -1791.4884    4.3422711    4.3422711    4.3422711   -1791.4884   -8775.5333     10113.09   -6712.0225   -11570.302   -15008.116    1115.4333    81.874905 
   55200    641.70903   -112.95023   0.58063181    -112.3696    -3393.859    4.3404189    4.3404189    4.3404189    -3393.859   -11278.856    3792.0388   -2694.7601    1843.0077   -26923.113   -5380.1518    81.770175 
   55300     874.8186   -113.15721   0.79155425   -112.36565   -10955.431     4.345286     4.345286     4.345286   -10955.431    3354.4068   -40407.712    4187.0124    27795.164    7052.8381   -5616.0813    82.045565 
   55400    1124.0041   -113.37448    1.0170226   -112.35746   -11658.472    4.3453805    4.3453805    4.3453805   -11658.472   -419.18276   -24285.179   -10271.054   -11340.327   -5778.2669   -2665.1017    82.050914 
   55500    611.45578   -112.91787   0.55325804   -112.36461    5899.8404    4.3376799    4.3376799    4.3376799    5899.8404   -8208.6732    20669.812    5238.3822     192.1521   -24471.057    3865.2592    81.615474 
   55600    808.69489   -113.09595   0.73172413   -112.36423   -2077.9133    4.3465227    4.3465227    4.3465227   -2077.9133   -9914.2983   -3752.0156    7432.5738    21180.219   -28.199057   -13600.708    82.115636 
   55700    1177.9196   -113.42526    1.0658064   -112.35945   -7830.2718    4.3451126    4.3451126    4.3451126   -7830.2718   -516.89665   -9585.4121   -13388.507   -6389.6892   -3371.7308   -3475.8867    82.035739 
   55800    715.42091   -113.01281   0.64732787   -112.36548    7035.1001     4.335302     4.335302     4.335302    7035.1001    3489.0077    24303.494   -6687.2016   -7145.0819   -23593.381      11418.8    81.481321 
   55900    900.67223   -113.18281   0.81494716   -112.36786   -1344.4273    4.3467076    4.3467076    4.3467076   -1344.4273   -16598.381     4577.409    7987.6896    13862.918   -3270.6372   -4472.4004    82.126113 
   56000    1236.3702   -113.47711    1.1186938   -112.35841    1134.3594    4.3475258    4.3475258    4.3475258    1134.3594    1458.0368    15089.356   -13144.315    5698.6623    4484.0687    878.72026    82.172502 
   56100        628.7    -112.9336   0.56886097   -112.36474   -1538.8293    4.3396327    4.3396327    4.3396327   -1538.8293   -10357.891    37758.544    -32017.14   -11291.632   -20683.624    3945.9662    81.725752 
   56200    867.60471   -113.15005   0.78502697   -112.36502   -3556.8666    4.3431215    4.3431215    4.3431215   -3556.8666   -10311.014    11480.072   -11839.658    9236.6133   -12601.625    438.00204    81.923016 
   56300    1406.9896    -113.6296    1.2730738   -112.35652    222.94153    4.3452383    4.3452383    4.3452383    222.94153    5622.9363    1712.5497   -6666.6614    3002.7596    6556.8491    2646.5668    82.042863 
   56400    530.04519   -112.85157   0.47959602   -112.37197   -9443.2238    4.3415418    4.3415418    4.3415418   -9443.2238   -35153.057    42767.345   -35943.959   -14074.422   -15229.352    3579.3314    81.833656 
   56500     739.5983   -113.04209   0.66920408   -112.37288   -6226.3178    4.3386348    4.3386348    4.3386348   -6226.3178   -11620.368    23940.402   -30998.987    5149.0964   -16695.818    7241.1625    81.669387 
   56600    1397.6634    -113.6252    1.2646353   -112.36057    64.291076    4.3480924    4.3480924    4.3480924    64.291076    35224.427    -4869.898   -30161.656    5306.0135    4767.0031   -5987.7318     82.20463 
   56700    773.10896   -113.07085   0.69952523   -112.37132   -2718.6913    4.3419153    4.3419153    4.3419153   -2718.6913    -4881.568    25504.415   -28778.921    -8358.693   -4197.0541   -1634.0835    81.854779 
   56800    695.81787   -113.00164   0.62959063   -112.37205    8555.0472    4.3371173    4.3371173    4.3371173    8555.0472    20825.647     24195.23   -19355.736   -4411.9489   -11971.693    6379.2049    81.583721 
   56900    1496.8052   -113.71645    1.3543408   -112.36211   -6545.9068    4.3474003    4.3474003    4.3474003   -6545.9068    30410.282   -14802.939   -35245.064    1273.8317    3213.5642   -9252.8048    82.165387 
   57000    1067.4125   -113.33567   0.96581731   -112.36985    8196.3124    4.3361883    4.3361883    4.3361883    8196.3124    17891.023    29028.417   -22330.503   -4370.6087   -7285.3325   -4738.5266    81.531306 
   57100    945.58498   -113.22882   0.85558516   -112.37324    1682.7506    4.3419851    4.3419851    4.3419851    1682.7506    10430.032     20501.42     -25883.2    -13519.42   -20492.214    468.46039    81.858726 
   57200    1537.1516   -113.74879    1.3908471   -112.35794   -6723.4595    4.3538548    4.3538548    4.3538548   -6723.4595    20016.363   -14498.161    -25688.58    5185.0665    8294.5984   -7619.4962    82.531898 
   57300    1211.3357   -113.45789     1.096042   -112.36184    13325.383    4.3312289    4.3312289    4.3312289    13325.383    17498.188    26192.618    -3714.657    4872.2791     -3775.63    -8590.371    81.251878 
   57400    920.42502   -113.20351    0.8328199   -112.37069    5678.1247    4.3376081    4.3376081    4.3376081    5678.1247    6223.7134     23002.36   -12191.699   -12059.084   -21380.245    3872.9414     81.61142 
   57500    1542.8665   -113.75617    1.3960181   -112.36015   -9887.5645    4.3517086    4.3517086    4.3517086   -9887.5645   -1652.1443   -7356.6552   -20653.894    3244.8671    2083.5694    3274.5201    82.409905 
   57600    1199.9782   -113.44988    1.0857655   -112.36412    21121.046    4.3306085    4.3306085    4.3306085    21121.046    25554.427    24245.233    13563.476       9203.9   -3388.7131   -15821.128    81.216969 
   57700    734.95603   -113.03982   0.66500366   -112.37482   -10343.106    4.3414983    4.3414983    4.3414983   -10343.106   -17149.206   -375.01421   -13505.099    -5082.131   -26516.389   -2653.2757    81.831197 
   57800    1348.7497   -113.58214    1.2203771   -112.36176   -9331.1035    4.3482678    4.3482678    4.3482678   -9331.1035   -18765.283    -3441.665   -5786.3627   -7195.3974   -2680.6889    13816.395    82.214584 
   57900    1221.9487   -113.46515    1.1056448    -112.3595    7224.2219    4.3375687    4.3375687    4.3375687    7224.2219    3819.6307    2492.8673    15360.168     5355.083    1945.2519   -3765.5614    81.609197 
   58000    579.32029   -112.89207   0.52418118   -112.36789   -14044.244    4.3464967    4.3464967    4.3464967   -14044.244   -25388.928   -799.41964   -15944.384    10019.941   -29135.787   -3962.1969    82.114162 
   58100     1196.494   -113.44419    1.0826129   -112.36157   -2840.3007      4.33702      4.33702      4.33702   -2840.3007   -8404.9746    4637.6463   -4753.5738   -6981.1915   -6308.6913    6633.1242    81.578231 
   58200    1034.9859   -113.30169   0.93647695   -112.36521    10770.513    4.3366169    4.3366169    4.3366169    10770.513    3306.9913    20544.288    8460.2584    3989.1475    6293.8112    12507.719    81.555483 
   58300    656.49879   -112.96483    0.5940139   -112.37081    -9940.505    4.3485839    4.3485839    4.3485839    -9940.505   -34276.926    19495.113   -15039.702    9819.9201   -26442.229   -4880.9863    82.232513 
   58400    872.93881   -113.15309   0.78985338   -112.36323    11933.248    4.3387966    4.3387966    4.3387966    11933.248    4224.8638    40833.942   -9259.0633   -729.35998   -8100.1081    3797.4675    81.678523 
   58500    922.76278   -113.19512   0.83493516   -112.36019    3512.3338    4.3399944    4.3399944    4.3399944    3512.3338    11005.004    27683.245   -28151.247    963.27501    4831.9294    20339.041    81.746188 
   58600    629.68564   -112.93605    0.5697528    -112.3663   -823.53077    4.3427297    4.3427297    4.3427297   -823.53077   -26563.299    44110.066   -20017.359    6088.3499   -20649.048   -4860.9654    81.900848 
   58700    920.78745   -113.19572   0.83314783   -112.36257     7480.826    4.3390724    4.3390724    4.3390724     7480.826   -4286.1379    31127.127   -4398.5117     9472.577   -6906.5162    3676.6849      81.6941 
   58800    940.24613   -113.21409   0.85075446   -112.36333   -3176.8684    4.3444682    4.3444682    4.3444682   -3176.8684    17502.837    5886.3711   -32919.813   -4549.2149    5089.7759    26634.788    81.999249 
   58900    869.94171   -113.15227   0.78714154   -112.36513   -5083.1687    4.3408996    4.3408996    4.3408996   -5083.1687   -9848.2856    26937.831   -32339.052     5077.869   -15497.461    467.89437    81.797351 
   59000    1103.9541   -113.36296   0.99888084   -112.36408   -2198.1116    4.3398015    4.3398015    4.3398015   -2198.1116   -963.51895    7860.2529   -13491.069    14249.329   -11731.893    1057.0398     81.73529 
   59100    1167.0442   -113.41929    1.0559661   -112.36333   -6890.4584    4.3468325    4.3468325    4.3468325   -6890.4584    12121.104   -13517.793   -19274.686    2479.8718    5007.1781    24685.667    82.133192 
   59200    1091.1257   -113.35094   0.98727348   -112.36367   -2265.2839    4.3420061    4.3420061    4.3420061   -2265.2839   -4523.6545    23784.697   -26056.894   -757.85813   -15346.538    6549.4666    81.859914 
   59300    1111.1654   -113.36832    1.0054058   -112.36292     4831.286    4.3437987    4.3437987    4.3437987     4831.286   -2338.9993    27252.015   -10419.157    10501.391    -12505.68   -9070.8933    81.961344 
   59400    1193.5729   -113.43955    1.0799699   -112.35958     326.5567    4.3460267    4.3460267    4.3460267     326.5567     9026.387   -226.84081   -7819.8761    9980.0904    5956.1985    19187.329    82.087524 
   59500    878.03623   -113.15785   0.79446563   -112.36338    8745.4616    4.3410402    4.3410402    4.3410402    8745.4616    5054.9952    35188.354   -14006.964   -8107.5648    -17806.39    16502.885    81.805294 
   59600     1037.462   -113.29964   0.93871743   -112.36092     -1795.42     4.345793     4.345793     4.345793     -1795.42   -16111.794    18472.078   -7746.5444    13184.292   -11626.826   -6095.4487    82.074287 
   59700    914.29496   -113.18838   0.82727329    -112.3611    4606.6911    4.3420772    4.3420772    4.3420772    4606.6911   -6357.1715    13968.364    6208.8806    6955.6588    8574.5317   -620.41792    81.863937 
   59800      627.956    -112.9358   0.56818778   -112.36762   -4962.4614     4.340499     4.340499     4.340499   -4962.4614   -15032.027      8919.15    -8774.507   -7329.0218   -22574.547    15215.251    81.774704 
   59900    811.59482   -113.10081   0.73434805   -112.36647   -6805.4589    4.3438617    4.3438617    4.3438617   -6805.4589   -4482.4058   -1059.0432   -14874.928   -1869.3964   -11890.351    -2477.513    81.964912 
   60000     1057.337   -113.31847   0.95670076   -112.36177    7509.2896    4.3389143    4.3389143    4.3389143    7509.2896    6659.9354        11243    4624.9332    4152.4257    10388.516   -8386.0575    81.685171 
   60100    606.61209   -112.91781   0.54887537   -112.36894   -8349.3514    4.3465674    4.3465674    4.3465674   -8349.3514   -12442.416    10855.371    -23461.01    885.77932   -26175.679    9461.3374    82.118171 
   60200    947.80113   -113.22313   0.85759038   -112.36554   -9352.4392    4.3437129    4.3437129    4.3437129   -9352.4392   -8490.8076   -1247.4479   -18319.062   -13207.269   -15548.587    1496.8569    81.956489 
   60300    1346.5357   -113.57631    1.2183738   -112.35794    11334.689    4.3357156    4.3357156    4.3357156    11334.689    18091.313    13666.116    2246.6368    5625.2486    8045.2539   -6394.7519    81.504647 
   60400    815.28611   -113.10596     0.737688   -112.36828    -6861.811    4.3476784    4.3476784    4.3476784    -6861.811    2540.4977    15127.634   -38253.564    4020.4139   -30088.335   -3660.1466    82.181154 
   60500     1129.787   -113.38882     1.022255   -112.36657   -3987.0924    4.3425969    4.3425969    4.3425969   -3987.0924   -2066.3887    8048.8514    -17943.74   -10542.299    -16842.01    8010.9534    81.893337 
   60600    1494.5018   -113.71288    1.3522566   -112.36062     12205.75    4.3379739    4.3379739    4.3379739     12205.75     8327.257    19856.029    8433.9633   -4848.5589    11121.567   -2097.6952    81.632067 
   60700    1091.1281   -113.35611   0.98727561   -112.36884   -13549.948    4.3468014    4.3468014    4.3468014   -13549.948    -5335.244   -1180.4939   -34134.107    10356.941   -29770.232   -11617.471    82.131431 
   60800    1050.2406   -113.31915   0.95027979   -112.36887    6095.9308     4.336717     4.336717     4.336717    6095.9308    102.75446    23944.394   -5759.3557   -4881.2179   -24728.962    3202.1002    81.561135 
   60900    1571.7315   -113.78582    1.4221357   -112.36369    2312.5621    4.3409266    4.3409266    4.3409266    2312.5621   -2112.0077   -1570.6684    10620.362    -20987.18    10374.136   -784.49142    81.798875 
   61000    1071.3331   -113.33799   0.96936474   -112.36863   -11785.167    4.3475863    4.3475863    4.3475863   -11785.167   -16021.539    6002.5795   -25336.542    5811.0664    -25266.34   -7489.3413    82.175932 
   61100    1003.8688   -113.27476   0.90832156   -112.36644   -3223.3425    4.3392241    4.3392241    4.3392241   -3223.3425   -10484.036    7798.5877   -6984.5793    4621.6646   -21842.451   -8805.0702    81.702666 
   61200    1342.2807    -113.5756    1.2145238   -112.36108   -8835.8907     4.345861     4.345861     4.345861   -8835.8907   -22464.676   -6095.6771     2052.681   -10740.829    14443.229    6559.7559    82.078137 
   61300    1022.7925   -113.29043   0.92544414   -112.36499   -4221.8357    4.3406214    4.3406214    4.3406214   -4221.8357   -16002.665    20770.805   -17433.646   -9820.4962   -26680.843    1670.4203    81.781621 
   61400    949.43734   -113.22731   0.85907086   -112.36824    9378.8008    4.3361104    4.3361104    4.3361104    9378.8008    13724.614    30611.427   -16199.638    2100.0149   -25568.547   -14431.802    81.526914 
   61500    1242.1015   -113.48621    1.1238796   -112.36233    -10969.01    4.3512997    4.3512997    4.3512997    -10969.01   -22653.489    1800.8509   -12054.393   -6705.4169    13769.097   -5211.1161    82.386677 
   61600    937.13541    -113.2133   0.84793981   -112.36536    4072.6425    4.3392017    4.3392017    4.3392017    4072.6425   -2191.7638    30115.564   -15705.872    -11325.38   -26548.291    5022.7845    81.701401 
   61700    864.33637   -113.14951   0.78206971   -112.36744     15976.06    4.3367405    4.3367405    4.3367405     15976.06    24046.702    47220.356   -23338.879    263.36348   -24657.342   -6308.9725     81.56246 
   61800    1314.7065   -113.54839     1.189574   -112.35882   -664.12477    4.3480035    4.3480035    4.3480035   -664.12477    9000.9671    6576.6295   -17569.971   -8224.8873    12690.301   -12558.484    82.199591 
   61900    933.73828   -113.20839   0.84486601   -112.36352    7846.7276    4.3386378    4.3386378    4.3386378    7846.7276    14922.619    20629.346   -12011.782   -7564.7412   -27015.091    4366.3383    81.669553 
   62000    844.81232   -113.13177   0.76440394   -112.36737    -10216.68    4.3440558    4.3440558    4.3440558    -10216.68   -19620.171     16675.33   -27705.197    2656.9444   -23935.401   -9694.8036    81.975896 
   62100    1109.2795   -113.36552    1.0036994   -112.36182    2600.5984    4.3416327    4.3416327    4.3416327    2600.5984    22620.598    1572.0203   -16390.823   -5193.2077    16249.055    -20626.77    81.838799 
   62200    1001.5603   -113.27075   0.90623277   -112.36452    4448.9231    4.3356121    4.3356121    4.3356121    4448.9231   -150.62233    15316.697   -1819.3057   -6547.7192   -20489.108     7711.515    81.498806 
   62300    667.76924    -112.9738   0.60421164   -112.36959   -18941.322    4.3480947    4.3480947    4.3480947   -18941.322   -31317.216   -4440.6341   -21066.114   -6811.5403   -30029.786   -3004.7086    82.204763 
   62400    992.94048   -113.26157   0.89843341   -112.36314   -5229.3595    4.3396557    4.3396557    4.3396557   -5229.3595    15938.821   -23017.207   -8609.6927    9335.3694    14571.596   -18429.095    81.727052 
   62500    804.99163   -113.09233   0.72837334   -112.36396    2945.7182    4.3401748    4.3401748    4.3401748    2945.7182    8701.8067   -1857.3002     1992.648    3990.4243   -15197.696    1287.7055    81.756382 
   62600    547.46772   -112.86144   0.49536029   -112.36608   -13148.428    4.3476392    4.3476392    4.3476392   -13148.428   -22235.391   -7832.3442   -9377.5495   -16541.344   -33960.313    2998.4999    82.178931 
   62700    811.48696   -113.09699   0.73425046   -112.36274    2540.0583    4.3371943    4.3371943    4.3371943    2540.0583    36921.937   -32819.511    3517.7488   -1092.7588    5836.8186   -18170.835    81.588068 
   62800    897.55752   -113.17637   0.81212891   -112.36424    402.61144    4.3419346    4.3419346    4.3419346    402.61144    25399.922   -21781.308   -2410.7797    7357.1324   -7081.5769   -3489.8514    81.855869 
   62900    577.18895   -112.89114   0.52225269   -112.36889    2308.1038      4.34474      4.34474      4.34474    2308.1038    -63.06811    3165.8956    3821.4838    2137.8957   -24813.414    5071.8568    82.014636 
   63000    730.67636   -113.02706   0.66113133   -112.36593    4331.9781    4.3428392    4.3428392    4.3428392    4331.9781     34333.31   -20598.471   -738.90424   -7985.0776   -1632.7278   -22486.601    81.907043 
   63100    1120.2506   -113.37492    1.0136263   -112.36129   -2363.9445    4.3436024    4.3436024    4.3436024   -2363.9445    18158.533   -12283.767     -12966.6    5244.8358     1581.333   -2130.0999    81.950234 
   63200    821.75867   -113.10851   0.74354452   -112.36496    6441.4519    4.3393001    4.3393001    4.3393001    6441.4519    9744.0862    14745.222   -5164.9524     11612.77   -21487.269    8906.0642    81.706959 
   63300    760.16514   -113.05551    0.6878134   -112.36769   -8426.0134    4.3500314    4.3500314    4.3500314   -8426.0134    7207.3659   -18271.159   -14214.247   -10829.519   -8674.3614   -21703.964    82.314658 
   63400     1273.648   -113.51217    1.1524235   -112.35974   -5472.1092    4.3442728    4.3442728    4.3442728   -5472.1092    1712.9328   -638.75349   -17490.507   -1596.4285    7327.3264   -3447.3058    81.988185 
   63500    1068.8912   -113.32828   0.96715523   -112.36113    9849.3475    4.3298844    4.3298844    4.3298844    9849.3475    5661.0491    37669.023    -13782.03     6563.262   -23527.922     12992.42    81.176238 
   63600     783.9145   -113.08112   0.70930232   -112.37182   -17906.051    4.3491156    4.3491156    4.3491156   -17906.051   -11222.861   -8527.0665   -33968.227   -12632.816    -11518.57   -18346.402    82.262678 
   63700    1198.0106    -113.4453    1.0839852   -112.36131    -9460.734    4.3488363    4.3488363    4.3488363    -9460.734   -4772.1371   -9231.2683   -14378.797   -10062.188    12167.549   -9639.9219    82.246835 
   63800    1145.3876   -113.39331    1.0363708   -112.35694    4176.9953    4.3346916    4.3346916    4.3346916    4176.9953    5548.2856    21868.625   -14885.924     5339.663   -14842.215    9281.3175    81.446912 
   63900    831.83528   -113.11944   0.75266204   -112.36678   -10606.959    4.3448788    4.3448788    4.3448788   -10606.959    8312.5718   -7665.2162   -32468.233    101.11883   -22702.263   -12926.748    82.022499 
   64000     1386.551   -113.61636    1.2545805   -112.36178    1872.7276    4.3413758    4.3413758    4.3413758    1872.7276    10157.579    -5811.426      1272.03   -8628.3399    7965.3289   -8255.0692    81.824269 
   64100    1116.3472   -113.37654    1.0100944   -112.36645    12573.434    4.3371773    4.3371773    4.3371773    12573.434    30109.365    16657.879   -9046.9422    2674.1962    4571.8196    16220.579    81.587106 
   64200    933.04775   -113.21458   0.84424121   -112.37034    -10809.62    4.3484261    4.3484261    4.3484261    -10809.62   -1715.9435   -5925.2954   -24787.622    4088.6231   -27550.914   -1700.3065     82.22356 
   64300    1505.4525    -113.7245    1.3621651   -112.36233    13777.189    4.3360976    4.3360976    4.3360976    13777.189    21280.183   -227.98414    20279.368   -4125.4212    2206.3787   -10355.926    81.526188 
   64400    1284.5608   -113.53025    1.1622976   -112.36795    10886.319    4.3348482    4.3348482    4.3348482    10886.319    31764.271    7138.7663   -6244.0798   -760.06488    6077.6371    13681.139    81.455737 
   64500    813.04918   -113.10912   0.73566399   -112.37346   -22062.815    4.3518871    4.3518871    4.3518871   -22062.815   -29250.083   -4863.3234   -32075.039   -895.74823   -26190.144    4685.4626    82.420049 
   64600    1518.1379   -113.73649    1.3736431   -112.36284    6579.9578    4.3362215    4.3362215    4.3362215    6579.9578    14345.867   -4698.8338     10092.84    6104.7618    -3924.103   -5710.6336    81.533179 
   64700    1428.8208   -113.65755    1.2928271   -112.36472    7797.3543    4.3330309    4.3330309    4.3330309    7797.3543    23307.653   -2865.7485    2950.1587    2631.5829    3769.7784    13206.371    81.353336 
   64800    625.97382   -112.94284   0.56639426   -112.37645   -16806.508    4.3464346    4.3464346    4.3464346   -16806.508   -25445.493    10570.282   -35544.313    -6324.051   -21767.828    10283.386    82.110641 
   64900    1276.7319   -113.52119    1.1552139   -112.36598   -242.60603    4.3383327    4.3383327    4.3383327   -242.60603    15510.743    607.59634   -16846.157    5281.3572   -14660.267   -1272.7335    81.652328 
   65000    1263.8435    -113.5072    1.1435522   -112.36365    2945.7342    4.3391474    4.3391474    4.3391474    2945.7342    33391.062   -14354.712   -10199.147   -2986.1905    7264.4311    1876.5015    81.698337 
   65100    555.59603   -112.87742   0.50271496    -112.3747    -2998.452    4.3382746    4.3382746    4.3382746    -2998.452    883.50766    13556.356    -23435.22   -2612.2272   -25293.384    9908.1418    81.649045 
   65200    813.79461   -113.10678   0.73633847   -112.37045    14095.602    4.3383227    4.3383227    4.3383227    14095.602    48486.639    21319.293   -27519.125    4518.4794   -12858.416   -602.72358    81.651763 
   65300    1178.2301   -113.42906    1.0660873   -112.36297   -2661.3624    4.3448819    4.3448819    4.3448819   -2661.3624    25750.804   -17201.986   -16532.905   -6709.5538    11878.224   -9880.1654    82.022678 
   65400    495.58777   -112.82112   0.44841823    -112.3727    3943.2252    4.3331611    4.3331611    4.3331611    3943.2252    29693.505    13723.644   -31587.473   -4364.7317   -29870.026    6425.0207    81.360668 
   65500    685.97306   -112.99452   0.62068284   -112.37384    6447.4382    4.3369503    4.3369503    4.3369503    6447.4382    30632.716    20313.942   -31604.343    404.50488   -20941.964     3938.693    81.574296 
   65600    1166.9525   -113.41751    1.0558832   -112.36163   -1105.9984    4.3475694    4.3475694    4.3475694   -1105.9984    19617.469   -15003.618   -7931.8465   -954.01413    11744.925   -17375.492    82.174972 
   65700    713.99128   -113.01467   0.64603431   -112.36864   -595.20183    4.3356824    4.3356824    4.3356824   -595.20183    25145.219    6585.8806   -33516.705    935.93208   -17468.501   -7056.8743    81.502772 
   65800    794.92204      -113.09   0.71926217   -112.37074   -2464.9417    4.3345345    4.3345345    4.3345345   -2464.9417    2412.0458    15172.653   -24979.524   -5999.2005   -33615.309     14347.55    81.438053 
   65900    1329.7844   -113.56589    1.2032169   -112.36267   -8570.2192    4.3460412    4.3460412    4.3460412   -8570.2192   -1616.4233   -24830.481    736.24643    3110.2786    8073.3403   -8703.1228    82.088346 
   66000    966.81838    -113.2444   0.87479759    -112.3696    4331.2605    4.3370538    4.3370538    4.3370538    4331.2605    22365.611   -2898.1115   -6473.7177    3420.5402   -11678.783   -19004.687    81.580135 
   66100    878.94853   -113.16696    0.7952911   -112.37167    1413.2074    4.3342723    4.3342723    4.3342723    1413.2074   -15797.643    13489.807    6547.4583    -6121.168   -40681.115    10809.022    81.423277 
   66200    1306.4354    -113.5474    1.1820902   -112.36531   -7856.8392    4.3462879    4.3462879    4.3462879   -7856.8392   -9292.4244   -25807.451    11529.358    1351.6364    7184.2056    3146.9073    82.102329 
   66300     1223.228   -113.47274    1.1068024   -112.36594    6808.0477    4.3352313    4.3352313    4.3352313    6808.0477    8262.8656   -10313.361    22474.638   -1642.2055   -998.41405   -19297.827    81.477337 
   66400    696.60834   -113.00399   0.63030586   -112.37368   -494.11066     4.336696     4.336696     4.336696   -494.11066   -13427.249    5075.0479    6869.8695   -551.11728   -40678.683    7553.1303    81.559948 
   66500    1046.1301   -113.31588   0.94656052   -112.36932   -11461.001     4.343872     4.343872     4.343872   -11461.001   -5712.1895   -26015.259   -2655.5541   -746.27923   -3950.1618    23544.618    81.965495 
   66600    1218.9258   -113.46429    1.1029096   -112.36138    10788.248    4.3344997    4.3344997    4.3344997    10788.248     21273.29   -6561.4637    17652.918   -1072.4405    2276.7549   -6673.0642    81.436092 
   66700    728.40333   -113.02864   0.65907464   -112.36956   -17914.892    4.3437429    4.3437429    4.3437429   -17914.892   -25942.335    2031.3401    -29833.68     1157.738   -39356.013   -6389.7615    81.958187 
   66800    688.24173   -112.99249   0.62273558   -112.36975    -7459.219    4.3376095    4.3376095    4.3376095    -7459.219    19135.308   -15920.846   -25592.119   -5948.8213   -3419.9186    23332.746      81.6115 
   66900    1131.2426   -113.38647     1.023572    -112.3629    11375.387    4.3333592    4.3333592    4.3333592    11375.387    32115.291   -5480.6102    7491.4802    3009.9367    7791.7467    7480.8778    81.371826 
   67000    825.05404   -113.11338   0.74652624   -112.36685   -16463.107     4.347544     4.347544     4.347544   -16463.107   -23020.032    9663.4423   -36032.733    4459.5532   -39752.755   -3616.2004    82.173535 
   67100    671.10744   -112.97533   0.60723211    -112.3681   -2527.4345     4.333773     4.333773     4.333773   -2527.4345    17661.569     -744.405   -24499.467   -5089.7586    -14530.23    22134.965    81.395143 
   67200    1021.5777   -113.29063   0.92434497   -112.36629    1519.4055    4.3357777    4.3357777    4.3357777    1519.4055    30208.667   -9429.9857   -16220.465   -3018.5214    13898.381    12514.057    81.508149 
   67300     925.4509    -113.2026   0.83736743   -112.36523   -13470.765    4.3456681    4.3456681    4.3456681   -13470.765   -24783.481    16908.876   -32537.689   -2964.3719   -22035.611   -8890.0377    82.067208 
   67400    780.72857    -113.0728   0.70641962   -112.36638    1554.6621    4.3342926    4.3342926    4.3342926    1554.6621    14613.116    11000.584   -20949.713    3450.4545   -25888.695    19486.271    81.424422 
   67500    1212.8228   -113.46238    1.0973875     -112.365   -8944.4945    4.3401971    4.3401971    4.3401971   -8944.4945    18286.506   -11865.032   -33254.958    679.34203    16394.797    23612.878    81.757639 
   67600     1141.115   -113.39767    1.0325048   -112.36517   -1618.5932    4.3386993    4.3386993    4.3386993   -1618.5932   -11348.722    26734.589   -20241.646   -2311.9643   -8733.7104   -5569.3015    81.673026 
   67700    847.98683   -113.13895    0.7672763   -112.37167    820.55974    4.3342721    4.3342721    4.3342721    820.55974    12406.314    16932.506   -26877.141    802.12444   -30966.276    18359.282    81.423265 
   67800    1263.0322   -113.51166    1.1428181   -112.36884   -9189.5454    4.3471527    4.3471527    4.3471527   -9189.5454    23991.382   -22319.912   -29240.106   -1596.0283    6675.9621     24292.03    82.151346 
   67900    1575.9315   -113.78883    1.4259359    -112.3629    5973.7751    4.3347745    4.3347745    4.3347745    5973.7751   -1008.8727    23749.945   -4819.7475    3775.4604   -9444.9105   -11430.118    81.451586 
   68000    888.71928   -113.17829   0.80413188   -112.37416    7269.5742    4.3311545    4.3311545    4.3311545    7269.5742    25993.714    16975.332   -21160.324    3222.6061   -22453.319    20760.557    81.247692 
   68100    1109.5035   -113.37667    1.0039021   -112.37277   -18087.854    4.3496716    4.3496716    4.3496716   -18087.854    11684.794   -33237.766    -32710.59    1300.3588   -866.92356     38734.84    82.294232 
   68200    1652.1825   -113.85643    1.4949295    -112.3615    6186.1251    4.3364466    4.3364466    4.3364466    6186.1251    7714.1403    6757.8667    4086.3683     117.0038   -2002.0287   -11705.112    81.545879 
   68300    1106.2443    -113.3704    1.0009531   -112.36945   -2029.7142    4.3325216    4.3325216    4.3325216   -2029.7142    5845.3627    4827.3138   -16761.819    2752.2307   -20244.641    10687.437    81.324649 
   68400    778.58226   -113.07837    0.7044776    -112.3739   -18347.826     4.344786     4.344786     4.344786   -18347.826    10897.139   -33862.757   -32077.859    3611.4645   -5148.0006    36823.627    82.017247 
   68500    1401.1492   -113.63101    1.2677892   -112.36322    3084.7818    4.3375093    4.3375093    4.3375093    3084.7818    10289.065    1121.7772   -2156.4967   -10452.227    9930.5671   -10344.799    81.605846 
   68600    1092.7808   -113.35444   0.98877106   -112.36567   -5208.0062    4.3397013    4.3397013    4.3397013   -5208.0062    5412.6867    507.57922   -21544.285    477.68939   -14475.225     8002.556    81.729625 
   68700    590.38304   -112.90736   0.53419098   -112.37317   -13847.715     4.339635     4.339635     4.339635   -13847.715     17317.74   -28699.771   -30161.113    5683.2305   -9034.1145    42657.274    81.725881 
   68800    1046.5304   -113.31259   0.94692272   -112.36567    7457.1524     4.334476     4.334476     4.334476    7457.1524    19937.932    706.35237    1727.1726   -4094.1091     8115.476   -6188.8233    81.434755 
   68900    1019.0176    -113.2866   0.92202853   -112.36457   -4817.5022    4.3446904    4.3446904    4.3446904   -4817.5022     8622.302   -1812.5968   -21262.212    1454.2035   -5561.5069   -4392.7436    82.011832 
   69000    488.48613   -112.81446   0.44199252   -112.37247   -5022.8083    4.3380351    4.3380351    4.3380351   -5022.8083    27577.385    -4251.361   -38394.449    1259.7327   -7919.4892    43663.635    81.635525 
   69100    893.75642   -113.17522   0.80868959   -112.36653    7632.1278     4.334626     4.334626     4.334626    7632.1278    19750.071    9173.9668   -6027.6546   -7024.1283    -1996.978    3426.1624    81.443212 
   69200    1097.5725   -113.35494   0.99310663   -112.36183    -7434.748    4.3454839    4.3454839    4.3454839    -7434.748    1411.9735   -19528.047   -4188.1709   -5598.5417     2268.073   -7465.7172    82.056776 
   69300    594.59689   -112.90866   0.53800376   -112.37065   -1067.7947    4.3349546    4.3349546    4.3349546   -1067.7947    28397.486   -8547.1653   -23053.705    3946.8883   -3138.4887    42521.996    81.461736 
   69400    871.08018   -113.15938   0.78817165   -112.37121    4907.4327    4.3358487    4.3358487    4.3358487    4907.4327    6724.4276     10367.05   -2369.1799   -3859.3506   -10133.138    9223.0288    81.512153 
   69500    1317.4397   -113.55534    1.1920471   -112.36329   -5976.7423     4.344208     4.344208     4.344208   -5976.7423   -10419.561   -21918.753    14408.087   -13179.598    777.69887   -7066.2283    81.984518 
   69600    887.66757   -113.17187   0.80318028   -112.36869    7052.5324    4.3359305    4.3359305    4.3359305    7052.5324    20554.598    1401.7555   -798.75616    1042.1664    460.05437    37071.199    81.516764 
   69700     1015.019   -113.28794   0.91841053   -112.36953    617.10275    4.3388801    4.3388801    4.3388801    617.10275   -4823.7945    339.01561    6336.0872     1876.901   -13926.702    6463.6757    81.683236 
   69800     1314.921   -113.55351    1.1897681   -112.36374    5051.3579    4.3400377    4.3400377    4.3400377    5051.3579   -17337.933    1693.2901    30798.717    -11467.52   -1592.0674   -9098.9039    81.748637 
   69900    1256.1951   -113.50132    1.1366317   -112.36469    8241.8462     4.336396     4.336396     4.336396    8241.8462    8984.9934    8447.7116    7292.8335   -899.89687     3436.279    32044.252    81.543023 
   70000    1128.6917   -113.38909    1.0212639   -112.36782   -511.07893    4.3409621    4.3409621    4.3409621   -511.07893   -7967.0719    -1977.493    8411.3282    3790.8248    -8326.877    11488.067    81.800882 
   70100    1228.0464   -113.47773    1.1111622   -112.36656    4537.2773    4.3368653    4.3368653    4.3368653    4537.2773   -15959.083    3330.6803    26240.235   -6390.6657   -5870.4394   -10030.877    81.569498 
   70200    1305.6064   -113.54627    1.1813401   -112.36493    13481.738    4.3369419    4.3369419    4.3369419    13481.738    5787.6016    21494.291    13163.321   -6727.3191     1836.146    10511.858    81.573821 
   70300    1248.3982   -113.49544    1.1295769   -112.36586   -3327.0514    4.3425573    4.3425573    4.3425573   -3327.0514   -10753.525   -2320.8676    3093.2384       6621.5    -4915.168    15580.866    81.891091 
   70400     896.5084   -113.18013   0.81117964   -112.36895    5713.3979    4.3355607    4.3355607    4.3355607    5713.3979   -5369.8437    10830.373    11679.664     3862.793   -8578.7829   -7430.9979    81.495907 
   70500    1206.8037   -113.45723    1.0919414   -112.36528    3572.6391    4.3372253    4.3372253    4.3372253    3572.6391    8715.8011    5422.6671   -3420.5508    -9438.102    2747.6355   -19250.885    81.589812 
   70600    1121.4547   -113.37955    1.0147158   -112.36484    1558.3265    4.3415806    4.3415806    4.3415806    1558.3265   -2767.2418     4840.947    2601.2743    1486.3651    139.13456    11594.904    81.835853 
   70700     666.8527   -112.97338   0.60338234      -112.37   -2150.1797     4.338439     4.338439     4.338439   -2150.1797   -5729.4266    3106.7235   -3827.8359    14918.437   -4115.8765    4850.9814    81.658329 
   70800    776.15971   -113.06943   0.70228562   -112.36715   -2906.6767    4.3388877    4.3388877    4.3388877   -2906.6767    11307.565    4902.2881   -24929.883    -3262.125   -1531.1119   -27434.403     81.68367 
   70900    1056.9066     -113.319   0.95631133   -112.36269    2948.8948     4.337378     4.337378     4.337378    2948.8948    10138.155    3371.6949   -4663.1654   -2035.4691   -2084.0106    -4685.166    81.598433 
   71000    682.74649   -112.98724   0.61776337   -112.36947    350.40173    4.3372523    4.3372523    4.3372523    350.40173   -6404.4605    14454.775   -6999.1095     16314.85   -2488.2881     4473.977    81.591339 
   71100    536.89813   -112.85716   0.48579671   -112.37137   -6935.9494    4.3405245    4.3405245    4.3405245   -6935.9494    5489.1442    -1404.125   -24892.867     1371.943   -2455.9418   -22918.478    81.776144 
   71200    1017.4318   -113.28369   0.92059369   -112.36309     657.6368    4.3393102    4.3393102    4.3393102     657.6368    10344.626   -4929.5054   -3442.2105   -5454.8221    3754.6569   -9918.3022    81.707532 
   71300    920.81004   -113.19786   0.83316828   -112.36469    4964.1576    4.3366787    4.3366787    4.3366787    4964.1576    -8523.729    19895.848    3520.3537    11306.198    373.66182    7072.9722    81.558974 
   71400     663.4053   -112.97084   0.60026305   -112.37057   -159.79888    4.3386763    4.3386763    4.3386763   -159.79888   -5190.4874     7110.968   -2399.8773    8538.7685   -7878.2594   -21721.783     81.67173 
   71500    1129.3751   -113.38635    1.0218823   -112.36447    923.25644    4.3403842    4.3403842    4.3403842    923.25644     5591.524   -16023.063    13201.308   -3325.1423    1480.9257   -15433.374    81.768218 
   71600    1131.6146   -113.38831    1.0239087    -112.3644    1208.4489    4.3380094    4.3380094    4.3380094    1208.4489   -12440.085    8481.3702    7584.0618    3144.8233    1661.7487    17668.253    81.634071 
   71700    917.45413   -113.19953   0.83013178   -112.36939    2649.4347    4.3367458    4.3367458    4.3367458    2649.4347   -23784.058    13685.894    18046.469    10956.492   -4698.7977   -13113.972    81.562756 
   71800    1242.3797   -113.49057    1.1241313   -112.36644    3334.4404    4.3377296    4.3377296    4.3377296    3334.4404   -1960.0636   -17884.689    29848.074   -357.73387   -1277.9223   -21440.089    81.618276 
   71900    1151.3188   -113.40946    1.0417375   -112.36772    4645.9011     4.337859     4.337859     4.337859    4645.9011   -1303.8928    3096.1838    12145.412   -2016.8253    671.11431    21777.546    81.625581 
   72000    998.64588   -113.27364   0.90359578   -112.37004   -2589.3651    4.3393478    4.3393478    4.3393478   -2589.3651   -31686.695   -1648.4825    25567.082    14334.676   -4214.3532    5923.0006    81.709655 
   72100    1293.1262   -113.53382    1.1700478   -112.36377   -3145.4437    4.3401842    4.3401842    4.3401842   -3145.4437   -17953.363   -15844.894    24361.925    1995.4579   -2662.1839   -13133.461    81.756912 
   72200      1078.61   -113.34256   0.97594898   -112.36661   -836.56815    4.3367041    4.3367041    4.3367041   -836.56815    13271.021   -17102.329    1321.6037   -9209.0801    3062.1916    18891.479    81.560402 
   72300    844.93739   -113.13532   0.76451711    -112.3708   -2804.9808    4.3368313    4.3368313    4.3368313   -2804.9808   -10073.318   -13217.735    14876.111    14558.705   -5549.7325    10483.182    81.567582 
   72400    1172.0596   -113.42639    1.0605042   -112.36589   -3347.3641    4.3417679    4.3417679    4.3417679   -3347.3641   -21263.776   -6238.7264     17460.41    13225.684   -4312.9496   -7475.5201    81.846445 
   72500    1098.5441    -113.3612   0.99398581   -112.36722   -1118.6806    4.3367226    4.3367226    4.3367226   -1118.6806    14863.503   -6837.5908   -11381.954    -11857.05    1909.3318    20523.266    81.561449 
   72600    592.40151   -112.90941   0.53601734   -112.37339   -4091.6744    4.3346876    4.3346876    4.3346876   -4091.6744    9351.1719   -20889.978   -736.21737    5915.7246    -2777.153    18416.095    81.446687 
   72700    818.33292   -113.11111   0.74044482   -112.37066   -3204.5446    4.3432027    4.3432027    4.3432027   -3204.5446   -13121.243   -3491.4565    6999.0655      21929.1   -6120.9736   -7737.7868    81.927611 
   72800    1120.6937   -113.37761    1.0140272   -112.36358    6228.3648    4.3375537    4.3375537    4.3375537    6228.3648    18795.298    17798.351   -17908.555   -7713.0864   -332.14629    2523.5088    81.608351 
   72900    602.25039   -112.91564   0.54492881   -112.37072   -1071.6435    4.3357722    4.3357722    4.3357722   -1071.6435    14872.014   -11939.598   -6147.3466   -6452.6768    899.38586    19037.946    81.507838 
   73000    602.67155   -112.91663   0.54530988   -112.37132   -9315.9689    4.3422856    4.3422856    4.3422856   -9315.9689   -11768.265   -3195.7308   -12983.911    21146.484   -8889.4015   -336.45382    81.875724 
   73100    1059.9206   -113.32311    0.9590384   -112.36407    5902.8697    4.3348968    4.3348968    4.3348968    5902.8697    20574.299    21369.746   -24235.435    2443.1648   -4696.7901   -16756.615     81.45848 
   73200    835.18091   -113.12495   0.75568924   -112.36926   -1626.6068    4.3376721    4.3376721    4.3376721   -1626.6068    11624.505   -5444.1044   -11060.221   -7790.4828    5369.1814    8615.6863     81.61503 
   73300    704.11629    -113.0074   0.63709922    -112.3703   -11465.656    4.3410976    4.3410976    4.3410976   -11465.656   -13000.251   -3430.6565    -17966.06    7083.9168   -5837.6716    12020.697    81.808544 
   73400    935.15283   -113.21334   0.84614594   -112.36719   -873.82164    4.3347443    4.3347443    4.3347443   -873.82164    17376.971    7379.0541    -27377.49    4162.2015   -1999.8467   -30095.679     81.44988 
   73500    1042.8371   -113.31048   0.94358094    -112.3669   -5223.9023    4.3411263    4.3411263    4.3411263   -5223.9023    11339.437   -16237.746   -10773.398   -7250.9527    3129.3329   -10545.425    81.810162 
   73600    1013.9061   -113.28291   0.91740352   -112.36551   -4239.6097    4.3393281    4.3393281    4.3393281   -4239.6097   -12102.591   -3311.1231    2694.8845   -2713.0564   -5056.5842    19128.897     81.70854 
   73700    761.07692   -113.05869   0.68863839   -112.37006   -4341.3875    4.3339745    4.3339745    4.3339745   -4341.3875    8990.1524   -16074.755   -5939.5594    10371.659   -3688.1442    -32927.68    81.406495 
   73800    1085.1756   -113.35208    0.9818897   -112.37019   -6205.8794    4.3413442    4.3413442    4.3413442   -6205.8794    3223.2435   -26234.663    4393.7818    -2197.715   -884.62514    -27163.01    81.822485 
   73900    1399.5684   -113.63076    1.2663589    -112.3644    7523.8689    4.3366462    4.3366462    4.3366462    7523.8689   -8855.0247    5123.9271    26302.704   -9026.5606    529.54468     14457.14    81.557139 
   74000    541.23825   -112.86817   0.48972374   -112.37844   -4059.8013     4.335573     4.335573     4.335573   -4059.8013    3183.4536   -31395.456    16032.598    3128.8626    -3732.345   -34659.734    81.496605 
   74100    688.39447   -113.00144   0.62287379   -112.37857   -13991.714     4.343441     4.343441     4.343441   -13991.714   -9101.8311   -43019.595    10146.285     6496.234   -1597.9218    -27830.76    81.941096 
   74200    1426.6977   -113.65363    1.2909061   -112.36273    8290.9627    4.3357417    4.3357417    4.3357417    8290.9627   -21303.734    14699.319    31477.303    919.81115    5174.3587    14134.913    81.506117 
   74300    620.87963   -112.93621   0.56178494   -112.37443   -1045.4857    4.3381859    4.3381859    4.3381859   -1045.4857    1319.3101   -20579.708    16123.941   -1505.3232   -5329.0427    -37371.27     81.64404 
   74400     435.9695   -112.76785   0.39447437   -112.37338   -16438.261    4.3441347    4.3441347    4.3441347   -16438.261   -6208.8517   -41719.823   -1386.1076     4573.159    -3867.912   -27934.335    81.980368 
   74500    1066.4748    -113.3273    0.9649688   -112.36233    5779.4551    4.3336847    4.3336847    4.3336847    5779.4551   -14230.742    9381.7967     22187.31    2761.0325     3979.343     23487.96    81.390166 
   74600    808.00212   -113.09848    0.7310973   -112.36738   -5675.4739    4.3384064    4.3384064    4.3384064   -5675.4739   -4648.8149   -12739.554    361.94687    603.44762    483.38262   -27436.608    81.656488 
   74700    661.09697   -112.96829   0.59817443   -112.37012   -11595.432     4.341476     4.341476     4.341476   -11595.432   -3026.3788   -23103.423   -8656.4937    5939.0394   -560.44249   -33189.326    81.829938 
   74800    958.25962   -113.23367   0.86705344   -112.36662    2234.8794    4.3350098    4.3350098    4.3350098    2234.8794   -6975.3815    2590.7119    11089.308    490.99596     1735.957    27899.991    81.464845 
   74900    1026.1302   -113.29526   0.92846417   -112.36679    -6459.286    4.3398798    4.3398798    4.3398798    -6459.286     6256.039   -14725.345   -10908.552   -6185.9202    4216.7084   -6608.1233    81.739713 
   75000    1150.6265   -113.40744    1.0411111   -112.36633   -3257.0874    4.3383364    4.3383364    4.3383364   -3257.0874    13566.464   -11132.761   -12204.965    2045.7309   -4668.0854   -35391.859    81.652535 
   75100    1056.7329   -113.32439   0.95615417   -112.36823    618.76251    4.3383499    4.3383499    4.3383499    618.76251    5197.4072   -8595.0431    5253.9235    9440.8656   -4730.3063    18308.854    81.653298 
   75200    1220.3322   -113.47153    1.1041822   -112.36735   -5808.2087    4.3407993    4.3407993    4.3407993   -5808.2087    17351.482   -21626.664   -13149.444    1949.8397    10866.808    11739.529    81.791679 
   75300    1452.7522   -113.67731    1.3144807   -112.36283    7177.9935    4.3353447    4.3353447    4.3353447    7177.9935    32926.197    793.53379    -12185.75   -4347.3571    1875.8931   -24465.663    81.483731 
   75400    1070.4437   -113.33775   0.96855997   -112.36919   -2803.3123    4.3406375    4.3406375    4.3406375   -2803.3123    10986.955   -16076.062   -3320.8296    1926.7733   -9397.9593    7523.2096    81.782533 
   75500    966.49717   -113.24659   0.87450695   -112.37208   -4986.6543    4.3395113    4.3395113    4.3395113   -4986.6543    22491.622   -31131.098   -6320.4869    2331.0788      5587.48    26795.676    81.718893 
   75600    1459.0861   -113.68458    1.3202118   -112.36437    14286.364    4.3320823    4.3320823    4.3320823    14286.364    41745.659    5154.2433   -4040.8099    -743.9812    1778.6284   -3670.7478    81.299915 
   75700    1047.9128   -113.32047   0.94817354    -112.3723   -2275.4418    4.3432596    4.3432596    4.3432596   -2275.4418    7306.6508   -12746.959   -1386.0174    11118.735   -14150.913   -3209.7031    81.930833 
   75800    524.52234   -112.84724   0.47459884   -112.37264   -10120.414    4.3459733    4.3459733    4.3459733   -10120.414    17486.109   -41681.184   -6166.1655    5446.8015   -1999.0298    29041.666    82.084503 
   75900    1217.4167   -113.46035    1.1015442    -112.3588    10988.114    4.3350543    4.3350543    4.3350543    10988.114     32833.18    -5021.583    5152.7453   -9373.3887    8026.1955     7273.846    81.467355 
   76000    1125.7264   -113.38078    1.0185809    -112.3622    2254.0534    4.3366047    4.3366047    4.3366047    2254.0534    1725.3635   -3796.2175    8833.0142    7293.7693   -7940.8738   -7559.0704    81.554798 
   76100    481.60792   -112.81097   0.43576897    -112.3752   -15294.288    4.3406184    4.3406184    4.3406184   -15294.288    391.39981   -33975.519   -12298.745     11022.18   -11131.492    28186.331    81.781455 
   76200    941.65726   -113.22426   0.85203128   -112.37223   -2927.2288    4.3375462    4.3375462    4.3375462   -2927.2288    13957.849    -17111.28   -5628.2557    -5394.893    3150.9603    9782.8832    81.607926 
   76300    1302.1342   -113.54251    1.1781984   -112.36431   -3772.0685    4.3413229    4.3413229    4.3413229   -3772.0685   -761.84199   -13759.952    3205.5886    1940.3302   -8064.7274   -18119.886    81.821279 
   76400     858.2127   -113.14565   0.77652888   -112.36912   -9728.9497    4.3412009    4.3412009    4.3412009   -9728.9497    747.28833   -29213.574   -720.56302    7795.9457   -11961.253    25956.438     81.81438 
   76500    1072.4822   -113.33571   0.97040446   -112.36531    796.62213    4.3368384    4.3368384    4.3368384    796.62213    14215.041    -20014.46    8189.2851   -1301.3113    2722.6074    14273.704    81.567981 
   76600    1360.9703   -113.59228    1.2314345   -112.36084    -7988.934    4.3432643    4.3432643    4.3432643    -7988.934   -1594.3525   -24482.855    2110.4054   -2467.7056   -1377.5499   -33752.299    81.931096 
   76700    1129.8479   -113.38895    1.0223101   -112.36664   -6019.3767    4.3376316    4.3376316    4.3376316   -6019.3767   -2565.4504   -19113.592    3620.9125    8304.6513   -12495.303    9086.7385    81.612744 
   76800      1122.58   -113.38365     1.015734   -112.36792    6175.3757    4.3323099    4.3323099    4.3323099    6175.3757    14994.875   -11153.831    14685.083    6542.7725    -7807.401    27042.754    81.312731 
   76900    1140.3265   -113.40032    1.0317914   -112.36853   -5763.0559    4.3449595    4.3449595    4.3449595   -5763.0559    10711.268    -32584.29    4583.8543   -4335.3431    1489.3912   -31077.238    82.027072 
   77000    1081.6307   -113.34398   0.97868217    -112.3653    1409.6904    4.3415912    4.3415912    4.3415912    1409.6904    13141.804   -13145.729    4232.9958    -319.6626   -7025.8152   -7815.8096    81.836448 
   77100    1035.7563   -113.29884    0.9371741   -112.36166    7006.2382    4.3362306    4.3362306    4.3362306    7006.2382    25340.136    1128.5592   -5449.9806    5553.4257   -10094.494    25649.662    81.533694 
   77200    784.63193   -113.07368   0.70995146   -112.36373   -8327.1827    4.3431669    4.3431669    4.3431669   -8327.1827    30694.746    -29042.26   -26634.033    1954.3502    2844.5973   -29444.767    81.925586 
   77300    817.47401   -113.10321   0.73966767   -112.36354    2815.5554    4.3354203    4.3354203    4.3354203    2815.5554    28567.728    -4277.477   -15843.585   -6520.2402   -4269.6402   -19786.544    81.487995 
   77400    899.77268   -113.17873   0.81413323    -112.3646    4311.2755    4.3356353    4.3356353    4.3356353    4311.2755     23852.61    10124.754   -21043.538    24.851903    -10117.73     20461.29    81.500118 
   77500    621.87544   -112.93077   0.56268597   -112.36809    -15520.24    4.3454686    4.3454686    4.3454686    -15520.24     29424.15   -30464.762   -45520.108    11927.138    3890.5153    -19631.58    82.055906 
   77600    631.75384   -112.93797   0.57162415   -112.36634   -828.58261    4.3363632    4.3363632    4.3363632   -828.58261    29441.825   -15111.011   -16816.562   -11248.307   -5197.2471   -23411.014    81.541172 
   77700     937.9156    -113.2116   0.84864575   -112.36295    2648.7184    4.3365072    4.3365072    4.3365072    2648.7184    14261.429    5684.9458    -12000.22   -14275.257   -7835.0313    11674.638    81.549298 
   77800    865.74323   -113.14858   0.78334267   -112.36524   -13034.297    4.3420389    4.3420389    4.3420389   -13034.297    16413.652   -22861.916   -32654.626    9619.7698    1960.0788   -19432.504    81.861772 
   77900    743.09254   -113.04033   0.67236575   -112.36797   -1974.7679    4.3332798    4.3332798    4.3332798   -1974.7679    13193.119   -21210.871    2093.4483   -2236.0413     7794.443   -24488.548    81.367356 
   78000    948.79111   -113.22692   0.85848614   -112.36843   -3927.6165    4.3381518    4.3381518    4.3381518   -3927.6165   -13406.058   -7016.7434    8639.9521   -21958.247   -8058.3765    9459.7125    81.642115 
   78100    1068.8748   -113.33168   0.96714035   -112.36454   -11200.095    4.3431711    4.3431711    4.3431711   -11200.095    4583.4276   -17294.619   -20889.094   -289.61641   -12695.578   -15118.205    81.925823 
   78200    931.19548   -113.20793   0.84256524   -112.36536   -1376.8125    4.3344916    4.3344916    4.3344916   -1376.8125    4675.0384   -16494.651    7689.1746    923.66886    4597.8897    -26708.33    81.435638 
   78300    1005.5025   -113.27539   0.90979978   -112.36559   -7624.1879      4.33834      4.33834      4.33834   -7624.1879   -30888.639   -14195.437    22211.512   -26837.425   -5572.7298    4615.5116    81.652738 
   78400    1009.2718   -113.27899    0.9132103   -112.36578   -1549.5386     4.339501     4.339501     4.339501   -1549.5386    7102.5315   -12341.398     590.2507   -3252.6471   -6843.7346   -10436.127    81.718311 
   78500    997.44363   -113.26896   0.90250795   -112.36645      6128.97    4.3353706    4.3353706    4.3353706      6128.97    18468.738   -5689.5515    5607.7232    5132.2657    6907.0276   -23755.035    81.485188 
   78600    1039.5386   -113.30607   0.94059638   -112.36547   -5041.8412    4.3411123    4.3411123    4.3411123   -5041.8412   -21979.644   -13956.958    20811.078   -26390.135   -4008.3758    6328.0975    81.809375 
   78700    999.93716   -113.26999   0.90476415   -112.36522   -1002.1684    4.3385336    4.3385336    4.3385336   -1002.1684    138.13235   -15396.388    12251.751   -9032.3188    -7106.414   -8438.1529    81.663668 
   78800    990.05469   -113.26145   0.89582229   -112.36563    7704.1561    4.3350054    4.3350054    4.3350054    7704.1561    26001.135      237.462   -3126.1283    5147.4563    4447.3385   -33785.947    81.464597 
   78900     1124.417   -113.38203    1.0173962   -112.36463    2212.3538    4.3409866    4.3409866    4.3409866    2212.3538    4273.1914   -7225.7367    9589.6066   -12393.934    10645.821    1751.4236    81.802266 
   79000    1077.3337   -113.33959   0.97479417    -112.3648   -2238.3919    4.3397576    4.3397576    4.3397576   -2238.3919   -4747.6672   -16291.938     14324.43   -18624.191   -8174.3851    -327.6867    81.732805 
   79100    1004.5527   -113.27462   0.90894039   -112.36568   -147.66427    4.3366849    4.3366849    4.3366849   -147.66427    13169.869     1145.204   -14758.066    4139.8246   -224.53894   -29359.499    81.559321 
   79200    1143.9814   -113.39886    1.0350984   -112.36376    789.28994    4.3393926    4.3393926    4.3393926    789.28994    5720.3073    5414.6914   -8767.1289   -6633.5378    15215.726     -3010.47    81.712187 
   79300    1102.5351   -113.36256   0.99759693   -112.36497   -5028.6661    4.3383832    4.3383832    4.3383832   -5028.6661   -2376.1391   -11856.854   -853.00571    -24339.01   -4681.6054   -2584.4756    81.655175 
   79400    799.82115   -113.09198   0.72369498   -112.36829   -3078.3267    4.3379165    4.3379165    4.3379165   -3078.3267    19490.892   -3096.2503   -25629.622    4680.1682   -6096.1218   -34353.555    81.628826 
   79500     1120.058   -113.37617     1.013452   -112.36272   -4567.4473    4.3420627    4.3420627    4.3420627   -4567.4473     2888.603    5856.4865   -22447.431   -142.46807    9544.8558   -1650.6622    81.863115 
   79600    965.86584   -113.23697   0.87393571   -112.36303   -2034.2704    4.3388694    4.3388694    4.3388694   -2034.2704    3982.9455     1538.619   -11624.376   -19425.805    8074.1463    1886.2715    81.682635 
   79700    568.00416   -112.88224    0.5139421    -112.3683   -4366.4978     4.335627     4.335627     4.335627   -4366.4978    27992.732   -4031.8075   -37060.418   -4362.0785   -7232.3536   -34887.044     81.49965 
   79800    952.47902   -113.22863   0.86182303   -112.36681    -3553.253    4.3408844    4.3408844    4.3408844    -3553.253    15084.209    602.74303   -26346.711    7993.4479    1272.1711   -4023.2468    81.796489 
   79900    1037.9464   -113.30216   0.93915568   -112.36301    4867.5329    4.3391573    4.3391573    4.3391573    4867.5329    7964.4933    9208.1113   -2570.0058   -995.56109    10458.047    2306.8642    81.698897 
   80000    506.07932   -112.82901   0.45791121    -112.3711   -566.04454    4.3371343    4.3371343    4.3371343   -566.04454    36915.315   -15676.201   -22937.247   -9680.3579   -6271.5406   -36955.752    81.584679 
   80100    885.66774   -113.16808   0.80137079   -112.36671   -9263.9515    4.3430351    4.3430351    4.3430351   -9263.9515    15195.822   -17583.582   -25404.095    5823.7735   -3944.3686   -5047.3233    81.918126 
   80200    1138.9444   -113.38954    1.0305408     -112.359    1769.0608     4.339092     4.339092     4.339092    1769.0608    6320.4421    5514.6694   -6527.9292    7729.8875    4923.7796    2007.0404    81.695204 
   80300    636.24002   -112.94339   0.57568334   -112.36771    1390.3696    4.3370115    4.3370115    4.3370115    1390.3696    28501.753   -26995.201    2664.5568   -5526.9696    337.82802   -39909.742    81.577748 
   80400    1030.9507   -113.29721   0.93282584   -112.36439   -3378.4933    4.3407905    4.3407905    4.3407905   -3378.4933    8618.8842   -22319.685     3565.321   -4281.9971   -4946.3699   -6559.2803     81.79118 
   80500    1187.3437   -113.43486    1.0743336   -112.36052    -4220.204    4.3404032    4.3404032    4.3404032    -4220.204   -1701.6054   -12863.811    1904.8047    7573.8051    -1714.842    3748.3374    81.769288 
   80600    748.30052   -113.04569   0.67707804   -112.36861   -9734.0463    4.3383935    4.3383935    4.3383935   -9734.0463    19061.439   -39535.199   -8728.3799    4962.9978    7895.9809   -42402.254    81.655757 
   80700    1131.8845   -113.39028    1.0241529   -112.36613   -736.02868    4.3361327    4.3361327    4.3361327   -736.02868    2611.3635   -16630.857    11811.408   -12420.728   -6929.8036   -10821.226     81.52817 
   80800     1308.548   -113.54803    1.1840018   -112.36402   -2521.3044    4.3402009    4.3402009    4.3402009   -2521.3044   -7506.2706   -10800.702     10743.06   -2411.3775   -10964.925    8239.1448    81.757855 
   80900    862.15672   -113.15027   0.78009752   -112.37017   -9100.7753    4.3418203    4.3418203    4.3418203   -9100.7753     12863.62   -27632.343   -12533.603    10085.783    9252.9106    -36819.03    81.849404 
   81000    1156.6185   -113.41322    1.0465327   -112.36669    3813.6458    4.3362826    4.3362826    4.3362826    3813.6458    318.97706    2449.8418    8672.1184   -9269.2663    5920.5257   -10707.791    81.536625 
   81100    1406.2174   -113.63389    1.2723751   -112.36151    798.89643    4.3390578    4.3390578    4.3390578    798.89643   -12716.866    8409.8926    6703.6632   -9851.5349    -5894.403    4276.7304    81.693273 
   81200    1036.5002   -113.30348    0.9378472   -112.36563   -7295.6405    4.3425713    4.3425713    4.3425713   -7295.6405    10022.033   -7028.8789   -24880.076    3460.6502   -3475.5694    -41864.75    81.891888 
   81300    1317.8382   -113.55355    1.1924077   -112.36114      218.834    4.3400957    4.3400957    4.3400957      218.834   -5821.0449    11412.032   -4934.4856   -1706.3671    8690.1848   -7379.6386    81.751912 
   81400    1275.0443   -113.51498    1.1536869   -112.36129   -679.83555    4.3392695    4.3392695    4.3392695   -679.83555   -24497.263     15029.14    7428.6158   -13304.304      773.009    7245.0422    81.705235 
   81500    1021.2069   -113.28993   0.92400948   -112.36592    936.98284     4.335945     4.335945     4.335945    936.98284    9446.2741    12903.323   -19538.649   -1695.8291     -10020.2   -33765.753    81.517585 
   81600    1343.7289   -113.58014    1.2158341    -112.3643   -469.86968    4.3406686    4.3406686    4.3406686   -469.86968   -7506.9676     13307.53   -7210.1718    2135.1945    2984.7096   -8142.4375    81.784288 
   81700    1251.3231   -113.49749    1.1322234   -112.36527   -4234.9128    4.3408877    4.3408877    4.3408877   -4234.9128   -30953.013    10107.985    8140.2902   -17161.909    4621.7362    9136.2658    81.796673 
   81800     738.6374   -113.04049   0.66833464   -112.37215    3133.9568    4.3315083    4.3315083    4.3315083    3133.9568    4009.2145    1856.5779    3536.0779   -7659.5248    -8778.861   -28409.817    81.267602 
   81900    1013.5074    -113.2863   0.91704279   -112.36926   -3993.6913    4.3411056    4.3411056    4.3411056   -3993.6913    -3860.333   -860.34532   -7260.3955    5633.0936   -7058.6724   -15327.344    81.808995 
   82000    1205.2615   -113.45144     1.090546    -112.3609   -7346.1741    4.3459822    4.3459822    4.3459822   -7346.1741   -27546.789   -3892.6443    9400.9108   -13158.569    4580.0584    6829.8763    82.085007 
   82100    612.42203   -112.91995   0.55413232   -112.36582    3104.0739    4.3347292    4.3347292    4.3347292    3104.0739    6437.6125   -8709.2408     11583.85   -10028.077   -6544.0505   -22695.364     81.44903 
   82200    781.04783   -113.06999   0.70670849   -112.36328   -2118.5831    4.3370605    4.3370605    4.3370605   -2118.5831    6063.3444   -5518.8787   -6900.2151    2410.6727   -14490.485   -17234.248    81.580514 
   82300    1047.5818   -113.30929   0.94787403   -112.36142   -7021.5216    4.3407175    4.3407175    4.3407175   -7021.5216   -12597.714   -19468.233    11001.382   -9315.4426    5165.2547    8589.2208    81.787053 
   82400    708.52334   -113.00929   0.64108681    -112.3682   -7019.8976    4.3373966    4.3373966    4.3373966   -7019.8976    6352.1788   -36444.636    9032.7645   -8872.1229    2696.3656   -17026.859    81.599485 
   82500    732.58179   -113.03231    0.6628554   -112.36946    -6521.968    4.3380485    4.3380485    4.3380485    -6521.968    7803.4574   -5887.8573   -21481.504    1950.5644    -16046.73   -26843.723    81.636278 
   82600    1200.1578   -113.44984     1.085928   -112.36391    -1016.244    4.3385632    4.3385632    4.3385632    -1016.244   -1127.5495   -3319.9609    1398.7783   -3297.6444    1505.3054    11164.818     81.66534 
   82700    948.65297   -113.22497   0.85836114   -112.36661   -4076.7383    4.3408487    4.3408487    4.3408487   -4076.7383     20176.16   -33405.735    999.36006   -13061.891    3848.0964   -15341.556     81.79447 
   82800    912.68074   -113.19274   0.82581271   -112.36693   -4759.4918    4.3416317    4.3416317    4.3416317   -4759.4918    18449.238    -5661.215   -27066.498    3434.2455   -13701.121    -27192.43     81.83874 
   82900    1390.4744   -113.61888    1.2581304   -112.36075    7581.1532    4.3375082    4.3375082    4.3375082    7581.1532     4616.525    19551.652   -1424.7172   -319.09394   -1072.1424    11037.532    81.605779 
   83000    1326.9101   -113.56442    1.2006161   -112.36381     4240.782    4.3360454    4.3360454    4.3360454     4240.782    12317.218   -1651.3408    2056.4694   -12692.912    11112.947    -14764.11    81.523247 
   83100     961.9031   -113.24172   0.87035014   -112.37137   -3256.7276    4.3393764    4.3393764    4.3393764   -3256.7276    10686.966    3588.4142   -24045.562    426.32181   -11114.179   -29349.625    81.711272 
   83200    1302.0669   -113.54535    1.1781375   -112.36721   -1558.0091    4.3396129    4.3396129    4.3396129   -1558.0091   -8681.4338    11249.379   -7241.9729    6080.6446   -15483.738    11888.077    81.724633 
   83300     1300.729   -113.54229    1.1769269   -112.36537    5776.8025     4.336379     4.336379     4.336379    5776.8025    9556.1044    10752.079    -2977.776    594.00822    7829.3403     -3824.62    81.542063 
   83400    952.89529   -113.23166   0.86219968   -112.36946   -6629.1532    4.3407112    4.3407112    4.3407112   -6629.1532    7437.2822   -7042.0099   -20282.732   -5813.1207   -379.58655   -37693.691    81.786696 
   83500     1147.679   -113.40121    1.0384441   -112.36277   -4502.7194    4.3405402    4.3405402    4.3405402   -4502.7194   -16788.227    3762.7283   -482.66014    2500.1386   -12259.523    6727.2145     81.77703 
   83600    998.19656   -113.26643   0.90318923   -112.36324   -1875.6654    4.3368092    4.3368092    4.3368092   -1875.6654   -4754.2733   -2677.9631    1805.2403    9107.4684    4645.3949    3646.2618    81.566333 
   83700    631.54741   -112.93981   0.57143737   -112.36838   -8808.0683     4.339756     4.339756     4.339756   -8808.0683    3055.4004   -19354.943   -10124.663   -3595.3697    3516.3337   -41639.464    81.732716 
   83800    1041.5481   -113.30509    0.9424146   -112.36268   -3912.6191    4.3370821    4.3370821    4.3370821   -3912.6191   -23731.764   -2020.0829     14013.99    1703.3903   -7628.3937    -2430.917    81.581736 
   83900    846.91914   -113.13283   0.76631024   -112.36652   -3639.0313    4.3369995    4.3369995    4.3369995   -3639.0313   -25184.601    17.501234    14250.006    8142.1969   -722.93441    6767.1877    81.577074 
   84000    263.98145   -112.61391   0.23885596   -112.37505   -15289.737    4.3417729    4.3417729    4.3417729   -15289.737   -9800.2364   -30517.234   -5551.7395     323.4582    12777.552   -35068.131    81.846726 
   84100    834.34532   -113.12463   0.75493318    -112.3697   -1024.1689    4.3359636    4.3359636    4.3359636   -1024.1689   -16797.525    -8957.756    22682.775   -4937.7659    5293.2238   -6476.8235    81.518635 
   84200    1101.0468   -113.36108   0.99625025   -112.36483    2194.8056    4.3354235    4.3354235    4.3354235    2194.8056   -17125.299    -5383.077    29092.793   -1050.8807   -5299.6291    4510.7572    81.488175 
   84300    365.09765   -112.70492   0.33034802   -112.37457   -13975.257    4.3438122    4.3438122    4.3438122   -13975.257   -8060.3315   -30439.027   -3426.4123    4705.0393    6322.0837   -36706.144    81.962106 
   84400    712.25068   -113.01539   0.64445938   -112.37093   -3662.6109    4.3372714    4.3372714    4.3372714   -3662.6109   -11134.148   -10987.797    11134.112   -7004.2697    8764.4498   -4841.1117    81.592419 
   84500    1177.0652   -113.42751    1.0650333   -112.36248     5943.015    4.3337048    4.3337048    4.3337048     5943.015   -7623.8013    -1713.215    27166.061    -4467.331   -4891.6072    7869.4568    81.391296 
   84600    813.72457   -113.10521   0.73627509   -112.36894   -10773.459     4.342288     4.342288     4.342288   -10773.459   -1338.8878   -27561.631   -3419.8581    4662.7985     3947.053   -39318.303    81.875859 
   84700    944.05657   -113.22251   0.85420223   -112.36831   -2718.8661    4.3372118    4.3372118    4.3372118   -2718.8661   -3360.0464   -6562.9631    1766.4113   -5861.9205    12773.137   -6950.1418    81.589055 
   84800    1209.5973   -113.45942    1.0944691   -112.36495    2057.4535    4.3348224    4.3348224    4.3348224    2057.4535   -10494.734    7074.3306    9592.7637   -8070.2873   -5045.0605    14126.556    81.454281 
   84900    1035.7817   -113.30488   0.93719708   -112.36768   -7089.1145    4.3415665    4.3415665    4.3415665   -7089.1145    8540.8882   -16897.084   -12911.148     2091.684   -11462.122   -32625.463    81.835055 
   85000    1181.6027   -113.43513    1.0691389   -112.36599    3322.3978     4.336361     4.336361     4.336361    3322.3978    21810.622   -2812.0023   -9031.4261    8751.0074    11831.908   -13719.746    81.541048 
   85100    1253.9324   -113.49898    1.1345844   -112.36439    3211.0877    4.3366334    4.3366334    4.3366334    3211.0877    762.59975    6965.7083    1904.9551   -7568.2946    1880.5626    16262.065    81.556418 
   85200    974.05803   -113.24907   0.88134817   -112.36772   -6712.7299    4.3419282    4.3419282    4.3419282   -6712.7299    2883.5441   -4578.6142    -18443.12   -9636.4948   -13413.006   -18196.921     81.85551 
   85300    1068.6327   -113.33284   0.96692137   -112.36592    406.95643    4.3361876    4.3361876    4.3361876    406.95643    16043.103    8807.1937   -23629.427    11560.441    10124.131   -18669.191    81.531269 
   85400    1157.1718   -113.41197    1.0470333   -112.36494    2249.5596    4.3347175    4.3347175    4.3347175    2249.5596    1596.1009    15265.055   -10112.477    1972.6941     5790.213    7412.1385    81.448368 
   85500    954.66745   -113.23207   0.86380317   -112.36827   -945.10047     4.339494     4.339494     4.339494   -945.10047    2712.0154    12414.771   -17962.088    -8474.535   -17057.478   -6055.3066    81.717915 
   85600    807.56642   -113.09906   0.73070307   -112.36836    730.89506    4.3395903    4.3395903    4.3395903    730.89506     13884.49    4986.6099   -16678.415    13080.555    3584.5172   -19442.106    81.723356 
   85700     958.3368   -113.23132   0.86712327    -112.3642   -297.34488    4.3390164    4.3390164    4.3390164   -297.34488   -9994.2705    11682.011    -2579.775     12386.53    11352.056    2061.6042    81.690937 
   85800    1007.5387    -113.2734   0.91164222   -112.36176   -196.20548    4.3376279    4.3376279    4.3376279   -196.20548   -13330.112    22982.118   -10240.621   -6631.7798   -14801.106   -1843.0944    81.612538 
   85900    736.41066   -113.03377   0.66631984   -112.36745     -4769.49    4.3364995    4.3364995    4.3364995     -4769.49    3014.0125   -7498.0249   -9824.4577    6141.1375   -4377.9368   -24999.289    81.548859 
   86000    728.90019   -113.03009   0.65952421   -112.37056   -4573.4718    4.3371066    4.3371066    4.3371066   -4573.4718   -16556.276   -9032.4773    11868.338    22552.689     16827.29   -4417.2198    81.583117 
   86100    1075.5402   -113.33931   0.97317134   -112.36614   -2833.0175    4.3388144    4.3388144    4.3388144   -2833.0175   -26275.626    13524.106     4252.468   -711.97833   -6729.0012    5974.4446    81.679527 
   86200    871.47479   -113.15647    0.7885287   -112.36794   -4200.9134    4.3392294    4.3392294    4.3392294   -4200.9134   -638.34891   -6670.9581   -5293.4332    -444.2444   -11632.567    -17198.38    81.702968 
   86300    781.18416   -113.07539   0.70683184   -112.36856    -4463.921    4.3376952    4.3376952    4.3376952    -4463.921    -15003.96   -17153.046    18765.243    26611.538    11395.478   -10217.386    81.616337 
   86400    1158.7919    -113.4114    1.0484992    -112.3629    1459.6743    4.3390795    4.3390795    4.3390795    1459.6743   -21318.407    4920.2923    20777.137    4279.7225   -2805.6679    5147.2183      81.6945 
   86500    1082.1545    -113.3442   0.97915615   -112.36504   -5018.5296    4.3394353    4.3394353    4.3394353   -5018.5296    2393.9327    -10298.57   -7150.9512    -4436.301   -14015.062   -21208.429      81.7146 
   86600    972.28414   -113.24866   0.87974312   -112.36892   -1520.2041     4.333682     4.333682     4.333682   -1520.2041   -8610.4104   -12473.153    16522.952    20270.165    8269.7171   -19325.327    81.390015 
   86700    1336.6252   -113.57704    1.2094066   -112.36763   -83.673277     4.337214     4.337214     4.337214   -83.673277    -21717.06    428.00226    21038.038    8833.4242     12726.37    6484.0502    81.589177 
   86800    1231.3819   -113.48283    1.1141802   -112.36865   -6053.7064    4.3414877    4.3414877    4.3414877   -6053.7064    3028.8136   -6676.0061   -14513.927    -6620.743   -13710.384   -14906.197    81.830598 
   86900    1070.7467   -113.33904   0.96883415   -112.37021   -2689.0919    4.3355909    4.3355909    4.3355909   -2689.0919    1605.5075    -13405.26    3732.4765    11784.796   -12091.359    -23199.92    81.497613 
   87000    1421.1909   -113.65137    1.2859234   -112.36545    1214.9076    4.3389497    4.3389497    4.3389497    1214.9076   -16406.046   -3765.0553    23815.824    18062.973    9862.7029    8102.2359     81.68717 
   87100    1308.8427   -113.55019    1.1842684   -112.36592   -1726.2542    4.3390254    4.3390254    4.3390254   -1726.2542     1367.313    3347.3185    -9893.394   -384.98044   -1304.3693   -13906.311    81.691446 
   87200    1007.2145   -113.28082   0.91134886   -112.36947     84.63678    4.3333853    4.3333853    4.3333853     84.63678    11339.041   -2897.0245   -8188.1067    3320.2892   -9882.2557   -29382.693    81.373298 
   87300    1150.1287   -113.40897    1.0406606   -112.36831   -6384.8411     4.339895     4.339895     4.339895   -6384.8411   -12913.262   -14849.481      8608.22    14447.905    6447.3154    10956.335     81.74057 
   87400    1128.4308   -113.38741    1.0210279   -112.36639   -1272.3443    4.3389001    4.3389001    4.3389001   -1272.3443    3436.1499   -2076.9776   -5176.2052   -2530.1274   -1138.3939   -1200.7277    81.684367 
   87500    998.96819   -113.27012   0.90388742   -112.36623    3948.2338    4.3334589    4.3334589    4.3334589    3948.2338    17749.227    801.02351   -6705.5487    1433.7626   -9485.9592   -26407.402    81.377446 
   87600    817.31952   -113.10845   0.73952788   -112.36892   -11075.732    4.3396779    4.3396779    4.3396779   -11075.732   -3201.3633   -24116.386   -5909.4464    20244.132    961.97587    9662.6907    81.728302 
   87700     703.8303   -113.00592   0.63684044   -112.36907   -6221.3167    4.3388884    4.3388884    4.3388884   -6221.3167     7007.405    -17230.27   -8441.0855   -215.61608    4217.3681    10699.822    81.683706 
   87800    1040.4645   -113.30449   0.94143411   -112.36305    1519.0497    4.3359832    4.3359832    4.3359832    1519.0497    21126.683   -5010.9157   -11558.618    -9183.648    1449.7091   -17024.106    81.519738 
   87900    820.10678   -113.10915   0.74204985    -112.3671   -4321.9458      4.33831      4.33831      4.33831   -4321.9458    17003.026   -31891.361    1922.4976    15536.833   -4582.7993    7702.6845    81.651046 
   88000    362.44252   -112.70259    0.3279456   -112.37464   -6277.9582    4.3379409    4.3379409    4.3379409   -6277.9582    16715.586   -44617.614    9068.1535    5225.2252    814.11463    18201.467    81.630206 
   88100     1010.196   -113.28239   0.91404653   -112.36834   -2198.5673    4.3371702    4.3371702    4.3371702   -2198.5673     11675.83   -20050.975    1779.4433   -15179.222    5726.7787   -6342.5697    81.586705 
   88200    1162.9166   -113.41764    1.0522314   -112.36541   -367.67724    4.3369108    4.3369108    4.3369108   -367.67724    25974.416   -23696.691   -3380.7569    10259.699   -1817.0396    3850.0664     81.57207 
   88300    441.01258   -112.77559   0.39903745   -112.37655    -9998.205    4.3383113    4.3383113    4.3383113    -9998.205    9497.1151   -58460.671     18968.94    6782.1072    4732.4882     22355.85    81.651118 
   88400    869.90139   -113.16105   0.78710506   -112.37395   -6390.2171    4.3387635    4.3387635    4.3387635   -6390.2171   -4471.6204    -37832.06    23133.029   -16255.571    4950.1856    2361.0709    81.676656 
   88500    1403.5575    -113.6329    1.2699684   -112.36293    2462.7002    4.3377767    4.3377767    4.3377767    2462.7002    20661.599   -11704.076   -1569.4218       2566.7    -7258.922   -3464.7586    81.620937 
   88600    826.56627    -113.1203   0.74789453   -112.37241   -7449.1433     4.337485     4.337485     4.337485   -7449.1433    3549.6664   -37382.388    11485.292    7909.0206   -3064.3538    17811.539    81.604471 
   88700    856.61204   -113.14843   0.77508058   -112.37335   -4474.4833    4.3364662    4.3364662    4.3364662   -4474.4833   -8631.9481   -31240.661    26449.159   -11893.815    6874.8373    6706.4878    81.546983 
   88800    1359.4723   -113.59476    1.2300791   -112.36468   -1248.6795    4.3390909    4.3390909    4.3390909   -1248.6795    11465.297   -8534.8756   -6676.4594   -4028.5022    4229.8117   -14298.177    81.695144 
   88900     1016.215   -113.28879   0.91949268    -112.3693   -1585.2336    4.3384125    4.3384125    4.3384125   -1585.2336    6045.1612   -8070.1654   -2730.6966    9582.5113   -5110.7608    7159.0377    81.656831 
   89000    963.66286   -113.24237   0.87194241   -112.37043    4089.6884    4.3341342    4.3341342    4.3341342    4089.6884   -6689.0768   -6035.0383     24993.18    2040.5668   -2183.9481    14764.081    81.415496 
   89100    1216.1691   -113.46758    1.1004154   -112.36716    1863.8457    4.3374863    4.3374863    4.3374863    1863.8457    5851.6958    1200.7422   -1460.9008   -6855.3928    336.79804   -21424.196    81.604546 
   89200    975.71249   -113.25169   0.88284516   -112.36884   -2016.3786    4.3413008    4.3413008    4.3413008   -2016.3786    9546.9339    3266.7291   -18862.799     1327.449   -6851.3416   -13372.843    81.820033 
   89300    984.90726   -113.25815   0.89116479   -112.36699    4289.3861    4.3360682    4.3360682    4.3360682    4289.3861   -6834.6021    2851.0539    16851.706    10757.097   -1352.3053    20125.708    81.524534 
   89400    1005.8993   -113.27568   0.91015879   -112.36553    892.49924    4.3361974    4.3361974    4.3361974    892.49924   -2157.4704   -707.53774    5542.5058    1927.1001    3392.8215   -15515.395    81.531818 
   89500    884.82936   -113.16865    0.8006122   -112.36804   -5333.9277    4.3401385    4.3401385    4.3401385   -5333.9277    9549.0248   -3153.9818   -22396.826   -4780.5431   -5430.9681    -30502.27    81.754333 
   89600    1068.3097   -113.33194   0.96662905   -112.36531    2717.0204    4.3355477    4.3355477    4.3355477    2717.0204   -5664.3623    3792.2106    10023.213    7347.2444   -5526.8092    13549.407    81.495179 
   89700    892.14474   -113.17651   0.80723131   -112.36928   -7638.4851    4.3378068    4.3378068    4.3378068   -7638.4851   -11701.143    -17125.53    5911.2177    6029.2124    5251.8317   -7538.5995    81.622634 
   89800    773.25904   -113.07179   0.69966103   -112.37212   -8396.7572    4.3399688    4.3399688    4.3399688   -8396.7572    14212.336   -22933.196   -16469.412   -5041.4192    3702.0224   -39848.005    81.744744 
   89900    1293.1953   -113.53399    1.1701103   -112.36388    4745.4953    4.3365008    4.3365008    4.3365008    4745.4953    4770.6996    -2852.296    12318.082    5077.7978   -6666.1099    2952.2712    81.548937 
   90000    1111.1418   -113.37278    1.0053844    -112.3674   -6024.4906    4.3399192    4.3399192    4.3399192   -6024.4906   -8786.5925   -19758.824    10471.944    10635.768   -4064.8205   -820.96498    81.741938 
   90100    704.80596   -113.01206   0.63772324   -112.37434    -6229.885    4.3362327    4.3362327    4.3362327    -6229.885    23784.577   -37378.645   -5095.5876   -6775.8354    1899.9251   -39387.571    81.533812 
   90200    1252.2897   -113.50264    1.1330981   -112.36954    5429.4934    4.3355166    4.3355166    4.3355166    5429.4934    22780.628   -17370.678     10878.53   -8279.6726   -4610.4783   -3278.3882    81.493421 
   90300    1304.2461   -113.54682    1.1801093   -112.36671   -4770.9419    4.3426165    4.3426165    4.3426165   -4770.9419    2620.5502    -22044.03    5110.6541     12655.57   -2552.6682    2340.2554    81.894444 
   90400    739.77442   -113.04235   0.66936344   -112.37299   -610.89694    4.3359015    4.3359015    4.3359015   -610.89694    29306.948    -33758.19    2618.5515    3760.0998    6697.2917   -36902.943    81.515132 
   90500    1000.9564     -113.275   0.90568637   -112.36931    5603.4359    4.3349583    4.3349583    4.3349583    5603.4359    33678.641   -19525.149    2656.8156    -12783.53    1662.4539   -3711.0533    81.461946 
   90600    1173.1091   -113.42567    1.0614537   -112.36421   -2378.9167    4.3419059    4.3419059    4.3419059   -2378.9167    11154.061   -9064.4326   -9226.3786    207.82047   -8828.3341    13111.962    81.854247 
   90700    829.15123   -113.11957   0.75023346   -112.36934   -4743.4743    4.3375535    4.3375535    4.3375535   -4743.4743     19814.95   -23737.058   -10308.315    5203.0856   -5357.6718   -31039.827    81.608336 
   90800    927.21796   -113.20726    0.8389663    -112.3683    1228.1885     4.333668     4.333668     4.333668    1228.1885    25821.625   -14545.943   -7591.1159   -3183.8669    4031.5276   -12569.656    81.389226 
   90900      1009.89   -113.28113   0.91376973   -112.36736    2270.0881    4.3381195    4.3381195    4.3381195    2270.0881    14816.082    7314.9727   -15320.791   -1802.2162    1484.1642    21947.737    81.640291 
   91000    986.00429   -113.26007   0.89215741   -112.36792   -5629.4732    4.3416801    4.3416801    4.3416801   -5629.4732    9528.9991   -11149.703   -15267.715    6770.5839   -5343.4622   -13684.614    81.841478 
   91100    1132.6416   -113.38934    1.0248379   -112.36451    225.56214    4.3376557    4.3376557    4.3376557    225.56214    14218.887   -8561.4413   -4980.7597    1989.7587    3446.8155   -19453.889    81.614104 
   91200    1025.6595   -113.29425   0.92803825   -112.36621    3700.9191    4.3363698    4.3363698    4.3363698    3700.9191    11856.777    10964.439   -11718.459   -6408.6421     6519.418    22995.793    81.541545 
   91300    1177.6874   -113.43223    1.0655964   -112.36664   -1847.4221    4.3413792    4.3413792    4.3413792   -1847.4221    1533.9162   -2190.5341   -4885.6483    3824.5917   -8715.8664    7958.4666    81.824463 
   91400    1423.0006   -113.65135    1.2875608   -112.36379    7658.5283    4.3366516    4.3366516    4.3366516    7658.5283    7738.6467    481.32275    14755.615    8289.2168   -392.56154   -17722.736    81.557445 
   91500    1054.7804   -113.32543   0.95438743   -112.37104    5556.8862    4.3345574    4.3345574    4.3345574    5556.8862   -48.404951    10067.614    6651.4494   -2681.9787    17378.255    14635.451    81.439347 
   91600    1104.2781   -113.37169   0.99917405   -112.37252   -4367.6472    4.3424528    4.3424528    4.3424528   -4367.6472   -9425.7808   -1205.5763   -2471.5846   -1009.9223   -1116.5192    22271.667    81.885184 
   91700    1638.2753   -113.84397    1.4823459   -112.36163    7376.5429    4.3391848    4.3391848    4.3391848    7376.5429    2170.0494   -511.82064      20471.4    6252.9454   -6914.3794   -7828.1045     81.70045 
   91800    1084.4188    -113.3515   0.98120495    -112.3703    1247.6274    4.3371594    4.3371594    4.3371594    1247.6274   -365.90491   -5360.4387    9469.2259    4230.4697    18618.032    12233.554    81.586093 
   91900    874.63206    -113.1636   0.79138547   -112.37221   -6270.4047    4.3392936    4.3392936    4.3392936   -6270.4047   -2712.8068   -9053.7545    -7044.653     -3822.19    14132.672    27429.627    81.706595 
   92000    1517.2112   -113.73478    1.3728046   -112.36197    2615.9216    4.3377454    4.3377454    4.3377454    2615.9216   -972.78538    -5676.563    14497.113    1138.5619   -8695.5905   -5576.0668    81.619168 
   92100    1011.3501   -113.28454   0.91509079   -112.36945   -9230.7705     4.341336     4.341336     4.341336   -9230.7705   -11283.996   -18952.212    2543.8956    1768.9833    9359.8051    5112.7764    81.822019 
   92200    605.37678    -112.9205   0.54775763   -112.37275   -8721.1658     4.337358     4.337358     4.337358   -8721.1658    259.10446   -12275.857   -14146.745   -936.60056    26103.854    31001.871    81.597302 
   92300    1188.9064   -113.43998    1.0757475   -112.36424    2528.3574    4.3352585    4.3352585    4.3352585    2528.3574    7968.2319    -2682.023    2298.8632    6348.5227    -2243.733   -2376.4449    81.478868 
   92400    890.84092   -113.17379   0.80605158   -112.36773   -9344.5435     4.342634     4.342634     4.342634   -9344.5435   -6292.4799   -25409.054    3667.9031    25.735182   -3148.8687    -9916.097    81.895436 
   92500    426.73201    -112.7594   0.38611609   -112.37328   -9212.3464    4.3378789    4.3378789    4.3378789   -9212.3464    5626.6691   -11890.128    -21373.58   -2659.6575    26063.635    24415.075    81.626703 
   92600    929.22726   -113.20794   0.84078436   -112.36715    2590.8584    4.3365686    4.3365686    4.3365686    2590.8584     25792.89   -1193.7293   -16826.585   -367.81872    9074.8103    6595.1519    81.552762 
   92700    1072.8388    -113.3356   0.97072713   -112.36487    996.23145    4.3384951    4.3384951    4.3384951    996.23145    17020.683   -10487.546   -3544.4436   -2173.0915   -3260.8913   -14510.149    81.661497 
   92800    459.02154   -112.79042   0.41533234   -112.37509   -533.03845    4.3365831    4.3365831    4.3365831   -533.03845    29876.608    6449.7229   -37925.447    639.03544    22498.958    14997.409    81.553577 
   92900    773.29309   -113.07189   0.69969184    -112.3722   -5215.8627    4.3422308    4.3422308    4.3422308   -5215.8627    22037.423    3254.9746   -40939.986    56.442427    10440.058    13275.639    81.872625 
   93000    1325.4134   -113.56028    1.1992619   -112.36102    4910.1422    4.3375093    4.3375093    4.3375093    4910.1422    20657.573   -1529.2513   -4397.8952    1494.7081   -11776.161   -13344.933    81.605841 
   93100    792.42308   -113.08614   0.71700106   -112.36914    4901.1419    4.3350143    4.3350143    4.3350143    4901.1419    32778.104     10027.78   -28102.458   -2706.2942    20292.827    12820.958    81.465102 
   93200    728.33777   -113.03152   0.65901532   -112.37251   -13995.634    4.3436715    4.3436715    4.3436715   -13995.634   -848.70007    4075.4912   -45213.694   -2416.8275    19586.345    17819.105    81.954146 
   93300    1345.9943   -113.58275     1.217884   -112.36487    2605.6557     4.334568     4.334568     4.334568    2605.6557    4769.1616    11555.522   -8507.7168      4721.87   -23084.818   -9578.6834    81.439945 
   93400    1248.5538   -113.49678    1.1297177   -112.36707    2115.0303    4.3332361    4.3332361    4.3332361    2115.0303     10414.74    5832.3967   -9902.0452   -2447.5464    8854.4801    7928.3994    81.364893 
   93500    804.83033    -113.1026    0.7282274   -112.37438   -16502.394    4.3436442    4.3436442    4.3436442   -16502.394   -18423.243   -3792.1808   -27291.757    473.39964    22620.998    20284.152    81.952601 
   93600    1205.1943   -113.45818    1.0904851   -112.36769     1075.593    4.3371974    4.3371974    4.3371974     1075.593   -13141.194    12130.846    4237.1266    4580.3025   -24315.503    -1939.959    81.588242 
   93700    1470.9578   -113.69209    1.3309535   -112.36114    1212.2321    4.3373117    4.3373117    4.3373117    1212.2321   -382.04274   -4234.6873    8253.4263   -5222.4682   -2849.0347     3713.943    81.594692 
   93800    946.36558    -113.2258   0.85629147    -112.3695   -5784.3761    4.3398108    4.3398108    4.3398108   -5784.3761   -10721.347   -9960.6407    3328.8596   -298.16278    26011.336    20066.786    81.735812 
   93900    1074.2995   -113.34024   0.97204872    -112.3682    5314.4179     4.334636     4.334636     4.334636    5314.4179    -2959.668    8010.1424    10892.779    3185.0197   -10994.181    2819.3773    81.443774 
   94000    1345.2475    -113.5811    1.2172082   -112.36389    6009.5901    4.3391775    4.3391775    4.3391775    6009.5901    6062.5326   -7186.5551    19152.793    2085.0731   -15337.417   -3264.1021    81.700033 
   94100    913.55955   -113.19721   0.82660788    -112.3706   -1619.8519    4.3383982    4.3383982    4.3383982   -1619.8519    7182.1811   -17575.612    5533.8752    1351.2474    22592.502    19798.232    81.656024 
   94200    859.02697   -113.14766   0.77726566   -112.37039    4498.2667    4.3336899    4.3336899    4.3336899    4498.2667    15254.743    4865.9306   -6625.8732   -1083.3493    8166.1476    9360.4268    81.390457 
   94300    1146.8932   -113.40185    1.0377331   -112.36412    833.96797    4.3409042    4.3409042    4.3409042    833.96797    566.34094   -4765.4146    6700.9776    4017.4486   -16771.441   -4737.5202    81.797608 
   94400    677.91276   -112.98259   0.61338971    -112.3692   -9500.0965    4.3409122    4.3409122    4.3409122   -9500.0965    19716.652    -25291.29   -22925.651    1506.6782    10068.153    18912.555    81.798058 
   94500    594.31497   -112.90759   0.53774867   -112.36984   -772.54404    4.3327592    4.3327592    4.3327592   -772.54404    27128.501   -1525.0868   -27921.046      -590.25    14601.575    8803.0295    81.338032 
   94600    1159.5162   -113.41296    1.0491546   -112.36381   -3174.6537    4.3385266    4.3385266    4.3385266   -3174.6537   -624.06261   -1487.5414   -7412.3571    5756.6471   -6545.2734    -8574.244    81.663277 
   94700    772.50934   -113.07039   0.69898268    -112.3714   -6444.0427    4.3393846    4.3393846    4.3393846   -6444.0427    20808.406   -19975.051   -20165.483    591.67411   -2501.6025    20901.538    81.711735 
   94800    431.09873   -112.76732   0.39006719   -112.37725   -2369.0393    4.3345039    4.3345039    4.3345039   -2369.0393    30779.941   -13781.361   -24105.697   -5428.8513    16363.823     11993.43     81.43633 
   94900    1253.9296   -113.50218    1.1345818    -112.3676   -3293.6401    4.3429066    4.3429066    4.3429066   -3293.6401    7930.1445   -11570.252   -6240.8129    925.13811    2028.4937   -15347.617    81.910857 
   95000    1305.6601   -113.54562    1.1813887   -112.36423    2222.8806    4.3389145    4.3389145    4.3389145    2222.8806    24794.678   -21702.662    3576.6261   -447.69373   -4812.4415    18092.879    81.685184 
   95100    733.08523   -113.03648   0.66331092   -112.37317   -3080.6827    4.3340103    4.3340103    4.3340103   -3080.6827    24589.146    -22924.11   -10907.084    1103.8566    20910.023    15829.778    81.408511 
   95200    1277.8434   -113.52746    1.1562195   -112.37124   -4911.5886    4.3408723    4.3408723    4.3408723   -4911.5886    9218.2132   -17583.299   -6369.6799    2869.4476    10976.242   -19193.533    81.795803 
   95300    1701.6182   -113.90251    1.5396599   -112.36285    4158.5008    4.3384958    4.3384958    4.3384958    4158.5008    16479.149   -17466.139    13462.492   -3121.6256   -12364.315    10114.452    81.661536 
   95400    1120.5799   -113.38575    1.0139242   -112.37183   -7417.2417    4.3373801    4.3373801    4.3373801   -7417.2417     10403.85   -22851.513   -9804.0624   -3342.8279    9117.0197    19478.613    81.598551 
   95500    1102.1196   -113.36879   0.99722096   -112.37157   -6798.2374    4.3368197    4.3368197    4.3368197   -6798.2374    5241.3841   -21290.817   -4345.2795   -4623.4445    20217.402   -18478.412    81.566925 
   95600    1527.0002   -113.74557    1.3816619   -112.36391    1929.7395    4.3385436    4.3385436    4.3385436    1929.7395     5832.591   -13580.243    13536.871    1023.8805    -6679.318   -3214.9015    81.664234 
   95700    1140.1286   -113.39882    1.0316123   -112.36721   -8066.4219    4.3424778    4.3424778    4.3424778   -8066.4219    5096.1407   -16264.398   -13031.009    4473.1615   -375.47635    16557.705    81.886598 
   95800    729.30793   -113.02902   0.65989314   -112.36912   -1727.7008    4.3353484    4.3353484    4.3353484   -1727.7008    9463.6757   -12341.262   -2305.5159   -2910.5416    21301.634   -10235.719    81.483939 
   95900    981.58012   -113.25428   0.88815432   -112.36612   -404.19358    4.3373128    4.3373128    4.3373128   -404.19358   -3919.6957    -7164.435      9871.55    3.2857579   -11788.951   -8402.9172    81.594753 
   96000    941.94897   -113.21765   0.85229522   -112.36535   -1382.4259    4.3383384    4.3383384    4.3383384   -1382.4259    2972.3562    1818.5331    -8938.167   -690.12779   -15375.752    8617.8802    81.652651 
   96100     483.2592   -112.80835   0.43726308   -112.37108    6053.3499    4.3349446    4.3349446    4.3349446    6053.3499    14959.092    3456.4735   -255.51544   -2612.8659    27290.505   -3398.2097    81.461173 
   96200    576.55521    -112.8904   0.52167927   -112.36872   -9217.2766    4.3426322    4.3426322    4.3426322   -9217.2766   -14737.166   -12752.128   -162.53597    3672.9276    977.77569   -11499.963    81.895329 
   96300    870.79885   -113.14894    0.7879171   -112.36102   -2382.1353    4.3381338    4.3381338    4.3381338   -2382.1353   -4126.2805     6198.876   -9219.0015    1510.6547   -22469.704    3398.6722    81.641096 
   96400    687.08482   -112.98731   0.62168879   -112.36562   -1914.0014      4.33331      4.33331      4.33331   -1914.0014   -7053.5734    13027.666   -11716.096   -3147.7678    23529.273     1913.033    81.369055 
   96500    603.88615   -112.91685   0.54640888   -112.37045   -8784.7066    4.3383084    4.3383084    4.3383084   -8784.7066   -14059.862    -8888.364   -3405.8944   -1497.7441    17398.318   -12435.343    81.650957 
   96600    1083.6253   -113.34639   0.98048692   -112.36591    -5428.876    4.3392475    4.3392475    4.3392475    -5428.876   -4607.7015   -6379.7163   -5299.2101   -796.86952   -21608.785   -1472.7779     81.70399 
   96700    1064.5489   -113.32882   0.96322623   -112.36559   -7758.8055    4.3397594    4.3397594    4.3397594   -7758.8055   -12946.658    9000.9934   -19330.752    1844.9401    18839.239    2430.0544    81.732909 
   96800    941.49107   -113.21986    0.8518809   -112.36798   -4280.2935    4.3365434    4.3365434    4.3365434   -4280.2935    3652.2027   -5996.6962   -10496.387    1673.1918    28609.762   -12637.088    81.551339 
   96900    1350.4948   -113.58727     1.221956   -112.36532    3473.3445    4.3358283    4.3358283    4.3358283    3473.3445    27284.495   -18507.708    1643.2464   -2706.2322   -21390.909   -3550.1632    81.511001 
   97000    1327.3769   -113.56733    1.2010385    -112.3663    1684.6322    4.3383546    4.3383546    4.3383546    1684.6322    10191.344    5251.2469   -10388.695   -1673.3384    7615.7934    5328.5393    81.653565 
   97100    1157.8228   -113.41636    1.0476224   -112.36873    944.29131    4.3391767    4.3391767    4.3391767    944.29131    21227.123   -5312.4699   -13081.779   -3850.5622    33281.307   -8860.9194    81.699993 
   97200    1496.9798   -113.71695    1.3544988   -112.36245    654.43568    4.3397339    4.3397339    4.3397339    654.43568    29010.824   -26278.763    -768.7535   -2633.0518   -10037.138   -10578.978    81.731469 
   97300    1279.6496   -113.52329    1.1578538   -112.36544    2434.6437    4.3332388    4.3332388    4.3332388    2434.6437    3707.9355    8469.7231   -4873.7275    6850.5059    12296.464      889.577    81.365045 
   97400    991.58842   -113.26777   0.89721004   -112.37056   -825.01443     4.335722     4.335722     4.335722   -825.01443    14093.858    9804.6598   -26373.561   -21.870917    32761.135   -5818.0578    81.505007 
   97500    1282.7322   -113.52493    1.1606431   -112.36429   -7694.7258    4.3455752    4.3455752    4.3455752   -7694.7258    24083.051   -27411.883   -19755.345    -1414.006   -9173.1142   -15933.751    82.061943 
   97600    1075.0093   -113.33895   0.97269102   -112.36626    4659.9844    4.3320151    4.3320151    4.3320151    4659.9844    10699.697     7503.101    -4222.845   -1175.4554    13106.518     1432.215    81.296131 
   97700    554.20671   -112.87466   0.50145788    -112.3732    4636.1647    4.3321004    4.3321004    4.3321004    4636.1647    15992.045    30418.628    -32502.18    -4964.841    35556.603   -30.071038    81.300934 
   97800    894.46723   -113.17624   0.80933274   -112.36691   -12531.094    4.3459306    4.3459306    4.3459306   -12531.094    12908.771   -15939.683    -34562.37    4657.3481   -8367.6812   -20855.055    82.082079 
   97900    945.81596   -113.21894   0.85579416   -112.36314    7590.1364    4.3327219    4.3327219    4.3327219    7590.1364    18563.855    9999.9618   -5793.4079    2513.7844    8779.3656   -2746.5097    81.335933 
   98000    587.30058   -112.90095   0.53140191   -112.36955   -7974.6392    4.3359038    4.3359038    4.3359038   -7974.6392   -22054.401     28596.94   -30466.457   -677.68457    35148.584    1683.0514    81.515258 
   98100    634.77259   -112.94186   0.57435558   -112.36751   -12915.986    4.3419021    4.3419021    4.3419021   -12915.986   -12999.568    3200.3633   -28948.752    1080.9065   -13184.608   -18137.805    81.854034 
   98200    882.53058   -113.16187   0.79853222   -112.36334    4271.2647    4.3322578    4.3322578    4.3322578    4271.2647    5597.0649    15503.317   -8286.5881   -5400.3772   -2367.9377    -3059.509    81.309797 
   98300    822.00089   -113.11017   0.74376368    -112.3664   -11784.485    4.3398284    4.3398284    4.3398284   -11784.485   -29744.803    27466.066   -33074.717    1762.2376    35987.749    5703.6472    81.736806 
   98400     698.4945   -112.99917   0.63201251   -112.36715   -7784.5757    4.3384771    4.3384771    4.3384771   -7784.5757   -16496.888    13359.786   -20216.625    3609.7717    -11043.26   -14499.768    81.660478 
   98500    812.02936   -113.10223   0.73474123   -112.36749    2245.1918    4.3342755    4.3342755    4.3342755    2245.1918    6979.6022    12662.924   -12906.951    -463.7029   -15695.933   -11450.521    81.423456 
   98600    1113.5791    -113.3724    1.0075898   -112.36481   -3281.3578    4.3398569    4.3398569    4.3398569   -3281.3578   -10761.615    24099.954   -23182.413    538.77933    26041.335     8945.278    81.738418 
   98700    974.57383   -113.24795   0.88181488   -112.36613    3589.2133    4.3353333    4.3353333    4.3353333    3589.2133    7030.2204    17861.704   -14124.285   -4847.8115   -7076.4762   -4308.6335    81.483085 
   98800    715.19692    -113.0202   0.64712521   -112.37307   -5464.3337    4.3392085    4.3392085    4.3392085   -5464.3337    6441.9191    7880.1098    -30715.03    873.91857   -26053.122   -13145.928    81.701787 
   98900    1331.9776   -113.57157    1.2052013   -112.36637    3471.0582    4.3376796    4.3376796    4.3376796    3471.0582    5584.6468    12771.895   -7943.3669     6914.143    9323.2113    6892.0053    81.615456 
   99000    1333.5271   -113.57168    1.2066033   -112.36508    14327.084    4.3325035    4.3325035    4.3325035    14327.084    28978.224    14919.251   -916.22224   -2193.7563   -2541.5262    -5160.464    81.323631 
   99100    628.84104   -112.94588   0.56898859    -112.3769   -14668.244    4.3433385    4.3433385    4.3433385   -14668.244    -3444.452   -5440.0908    -35120.19   -3706.4739   -26046.152   -15574.075    81.935296 
   99200    1188.7437   -113.44699    1.0756003   -112.37139    3115.0941    4.3351323    4.3351323    4.3351323    3115.0941    10647.131    2459.7561   -3761.6047    4462.4764   -983.29748    6786.1867    81.471755 
   99300    1526.2291   -113.74423    1.3809642   -112.36326     10362.14      4.33254      4.33254      4.33254     10362.14    18829.055     5295.813    6961.5531    74.360609   -4439.2252    2783.3994    81.325685 
   99400    647.40756   -112.96152   0.58578797   -112.37573   -19452.263    4.3446946    4.3446946    4.3446946   -19452.263   -12785.039   -22479.481   -23092.268   -4408.4068   -28283.111   -15677.089    82.012069 
   99500    862.57236   -113.15283    0.7804736   -112.37236   -1297.4404    4.3330593    4.3330593    4.3330593   -1297.4404    10046.863    -16863.14    2923.9559    1268.6097   -811.32446   -8193.4775    81.354936 
   99600    1315.6282   -113.55406     1.190408   -112.36365    5356.3517     4.335229     4.335229     4.335229    5356.3517    10629.062   -4269.5687     9709.562    1768.3955    19153.828    5966.4143    81.477205 
   99700    693.90603   -112.99964   0.62786076   -112.37178   -12904.667    4.3423757    4.3423757    4.3423757   -12904.667   -10708.128   -20250.491    -7755.384   -5628.5942   -13580.834   -7023.0273    81.880821 
   99800    719.27703   -113.02046   0.65081697   -112.36964    2245.6127    4.3323405    4.3323405    4.3323405    2245.6127    16367.684   -25476.857    15846.011   -2586.7903   -19874.129   -12734.734    81.314453 
   99900    1083.0194   -113.34406   0.97993868   -112.36413   -1951.6563    4.3388754    4.3388754    4.3388754   -1951.6563    3647.2627   -15890.444     6388.212     4649.334    22782.401    3406.8276     81.68297 
  100000    747.18093   -113.04473   0.67606501   -112.36867   -2917.8924    4.3377112    4.3377112    4.3377112   -2917.8924   -8609.8422   -9828.7745    9684.9397   -2418.8985    11627.021   -4685.4391    81.617239 
Loop time of 21.967 on 1 procs for 100000 steps with 8 atoms

Pair  time (%) = 6.76604 (30.8009)
Kspce time (%) = 5.3733 (24.4608)
Neigh time (%) = 0 (0)
Comm  time (%) = 1.07287 (4.88399)
Outpt time (%) = 0.0266252 (0.121205)
Other time (%) = 8.72819 (39.7331)

Nlocal:    8 ave 8 max 8 min
Histogram: 1 0 0 0 0 0 0 0 0 0
Nghost:    2189 ave 2189 max 2189 min
Histogram: 1 0 0 0 0 0 0 0 0 0
Neighs:    2056 ave 2056 max 2056 min
Histogram: 1 0 0 0 0 0 0 0 0 0

Total # of neighbors = 2056
Ave neighs/atom = 257
Neighbor list builds = 0
Dangerous builds = 0
unfix 20
unfix 21
print "seeds:6795456"
seeds:6795456
