LAMMPS (10 Feb 2015)
# ---- initialize simulations
clear
units metal
dimension 3
boundary p p p
atom_style charge
atom_modify map array
# ---- create atoms
read_data /Users/eugeneragasa/pyflamestk_git/pypospack/tests/tests_integration/workflow/WorkflowLammpsThermalExpansion/param_5091/MgO_NaCl_unit.npt.T1800/lammps.structure
  triclinic box = (0 0 0) to (4.2565 4.2565 4.2565) with tilt (0 0 0)
  1 by 1 by 1 MPI processor grid
  reading atoms ...
  8 atoms
# ---- define interatomic potential
include potential.mod
mass 1 24.305
mass 2 15.999

group Mg type 1
4 atoms in group Mg
group O type 2
4 atoms in group O

set group Mg charge 1.60395442224
  4 settings made for charge
set group O charge -1.60395442224
  4 settings made for charge

variable R_cut equal 10.0

pair_style buck/coul/long ${R_cut}
pair_style buck/coul/long 10
pair_coeff 1 1 0.0 0.5 0.0 ${R_cut}
pair_coeff 1 1 0.0 0.5 0.0 10
pair_coeff 1 2 1640.33364459 0.274285748818 0.0 ${R_cut}
pair_coeff 1 2 1640.33364459 0.274285748818 0.0 10
pair_coeff 2 2 138.503876614 0.167383398543 15.9463705464 ${R_cut}
pair_coeff 2 2 138.503876614 0.167383398543 15.9463705464 10

kspace_style pppm 1.0e-5

neighbor 1.0 bin
neigh_modify every 1 delay 0 check yes
# ---- define settings
compute eng all pe/atom
compute eatoms all reduce sum c_eng
# ---- run minimization
reset_timestep 0
fix 1 all box/relax iso 0.0 vmax 0.001
thermo 10
thermo_style custom step pe lx ly lz xy xz yz press pxx pyy pzz pxy pxz pyz c_eatoms
min_style cg
minimize 1e-25 1e-25 5000 10000
PPPM initialization ...
  G vector (1/distance) = 0.352384
  grid = 8 8 8
  stencil order = 5
  estimated absolute RMS force accuracy = 3.76636e-05
  estimated relative force accuracy = 2.6156e-06
  using double precision FFTs
  3d grid and FFT values/proc = 3375 512
Neighbor list info ...
  1 neighbor list requests
  update every 1 steps, delay 0 steps, check yes
  master list distance cutoff = 11
Memory usage per processor = 4.06549 Mbytes
Step PotEng Lx Ly Lz Xy Xz Yz Press Pxx Pyy Pzz Pxy Pxz Pyz eatoms 
       0   -105.40733       4.2565       4.2565       4.2565            0            0            0    42357.047    42357.047    42357.047    42357.047 -5.4591187e-11 1.2697943e-10 -3.1158894e-11   -105.40733 
      10   -105.43209    4.2922445    4.2922445    4.2922445            0            0            0   -4.9211524   -4.9211524   -4.9211524   -4.9211524 1.7090498e-11 -3.1779622e-11 -1.1443831e-10   -105.43209 
      12   -105.43209    4.2922402    4.2922402    4.2922402            0            0            0  -0.19512063  -0.19512063  -0.19512063  -0.19512063 3.2638439e-11 -8.1058727e-11 1.6032595e-10   -105.43209 
Loop time of 0.008883 on 1 procs for 12 steps with 8 atoms

Minimization stats:
  Stopping criterion = linesearch alpha is zero
  Energy initial, next-to-last, final = 
        -105.407331285      -105.43208818      -105.43208818
  Force two-norm initial, final = 6.11638 6.94804e-05
  Force max component initial, final = 6.11638 2.86507e-05
  Final line search alpha, max atom move = 0.5 1.43253e-05
  Iterations, force evaluations = 12 25

Pair  time (%) = 0.00240016 (27.0197)
Kspce time (%) = 0.00140095 (15.7711)
Neigh time (%) = 0 (0)
Comm  time (%) = 0.000283957 (3.19663)
Outpt time (%) = 1.50204e-05 (0.169091)
Other time (%) = 0.00478292 (53.8435)

Nlocal:    8 ave 8 max 8 min
Histogram: 1 0 0 0 0 0 0 0 0 0
Nghost:    2189 ave 2189 max 2189 min
Histogram: 1 0 0 0 0 0 0 0 0 0
Neighs:    2344 ave 2344 max 2344 min
Histogram: 1 0 0 0 0 0 0 0 0 0

Total # of neighbors = 2344
Ave neighs/atom = 293
Neighbor list builds = 0
Dangerous builds = 0
unfix 1
# ---- define output variables ----
variable natoms equal "count(all)"
variable tot_energy equal "c_eatoms"
variable length_x equal "lx"
variable length_y equal "ly"
variable length_z equal "lz"
variable tilt_xy equal "xy"
variable tilt_xz equal "xz"
variable tilt_yz equal "yz"
variable tot_press equal "press"
variable press_xx equal "pxx"
variable press_yy equal "pyy"
variable press_zz equal "pzz"
variable press_xy equal "pxy"
variable press_xz equal "pxz"
variable press_yz equal "pyz"

# ---- output ----
print "pypospack:output_section:begin"
pypospack:output_section:begin
print "tot_energy = ${tot_energy}"
tot_energy = -105.432088180201
print "num_atoms = ${natoms}"
num_atoms = 8
print "xx = ${length_x}"
xx = 4.29224022422512
print "yy = ${length_y}"
yy = 4.29224022422512
print "zz = ${length_z}"
zz = 4.29224022422512
print "xy = ${tilt_xy}"
xy = 0
print "xz = ${tilt_xz}"
xz = 0
print "yz = ${tilt_yz}"
yz = 0
print "tot_press = ${tot_press}"
tot_press = -0.195120630166908
print "pxx = ${press_xx}"
pxx = -0.195120630011552
print "pyy = ${press_yy}"
pyy = -0.195120630547228
print "pzz = ${press_zz}"
pzz = -0.195120629941943
print "pxy = ${press_xy}"
pxy = 3.26384388476247e-11
print "pxz = ${press_xz}"
pxz = -8.10587270505021e-11
print "pyz = ${press_yz}"
pyz = 1.60325951029016e-10
print "pypospack:output_section:done"
pypospack:output_section:done
print "pypospack:lammps_sim:done"
pypospack:lammps_sim:done
#------------------------------------------------------------------------------
# RUN THERMOSTAT
# running using an NPT Nose-Hoover style thermostat
#------------------------------------------------------------------------------
variable tempdamp equal 0.1
variable pressdamp equal 1.0
# set initial velocities
velocity all create 1800 5911324 mom yes dist gaussian loop all
# fix for Nose-Hoover style thermostat
fix 20 all npt temp 1800 1800 0.1 aniso 0.0 0.0 1.0 drag 1.0 couple xyz
variable boxx equal lx
variable boxy equal ly
variable boxz equal lz
variable boxp equal press
variable boxt equal temp
# calculate averages every 10000 steps
reset_timestep 0
fix 21 all ave/time 10 10 100 v_boxx v_boxy v_boxz v_boxp v_boxt file lattice.out
thermo_style custom step temp pe ke etotal press lx ly lz press pxx pyy pzz pxy pxz pyz vol
thermo_modify flush yes
thermo 100
run 100000
PPPM initialization ...
  G vector (1/distance) = 0.352034
  grid = 8 8 8
  stencil order = 5
  estimated absolute RMS force accuracy = 3.82705e-05
  estimated relative force accuracy = 2.65774e-06
  using double precision FFTs
  3d grid and FFT values/proc = 3375 512
Memory usage per processor = 3.06549 Mbytes
Step Temp PotEng KinEng TotEng Press Lx Ly Lz Press Pxx Pyy Pzz Pxy Pxz Pyz Volume 
       0         1800   -105.43209    1.6286778   -103.80342    21997.679    4.2922402    4.2922402    4.2922402    21997.679    22490.608    17886.028    25616.399    224.77442   -1691.0594    2214.7164    79.077342 
     100     329.6548   -103.90473   0.29827859   -103.60645    39521.926    4.3184378    4.3184378    4.3184378    39521.926    61028.798   -24971.643    82508.625   -15781.109    -2152.396   -3134.9631    80.534137 
     200    1687.8872   -104.67592    1.5272358   -103.14869   -30714.095    4.3689703    4.3689703    4.3689703   -30714.095   -17025.166   -35094.438    -40022.68   -356.55704    2954.2815    6589.2746    83.394473 
     300    1393.7655   -104.03983    1.2611083   -102.77872    -17525.81    4.3696396    4.3696396    4.3696396    -17525.81   -2773.7667   -46295.795    -3507.868     6160.506    -1319.448     5369.276    83.432807 
     400    1244.4893   -103.55736      1.12604   -102.43132     47459.18    4.3530678    4.3530678    4.3530678     47459.18    105112.53   -40353.335    77618.349   -30552.855    1527.5367   -2426.0146    82.487151 
     500    1875.4138    -103.9369    1.6969138   -102.23998     -12455.1    4.3518631    4.3518631    4.3518631     -12455.1   -25869.984   -22405.217      10909.9   -9622.5425   -15290.834    344.55346    82.418684 
     600    1584.2107   -103.58137    1.4334271   -102.14794     20086.34    4.3630815    4.3630815    4.3630815     20086.34    52366.213   -41620.567    49513.373   -12120.951    8675.4671    6154.1626    83.057713 
     700    1940.4028   -103.85548    1.7557172   -102.09976    -39949.24    4.3897769    4.3897769    4.3897769    -39949.24   -55834.716   -81797.906    17784.903    10238.774    557.22389   -14556.626     84.59162 
     800    1693.0793   -103.59487    1.5319337   -102.06293   -34924.336    4.3842318    4.3842318    4.3842318   -34924.336   -12795.286   -68649.009   -23328.715   -54890.527     5461.238   -6600.1087    84.271463 
     900    1928.2411   -103.78037     1.744713   -102.03566   -4816.3807    4.3711011    4.3711011    4.3711011   -4816.3807   -19196.014     5655.238   -908.36605    32799.252   -5605.7957     1567.666    83.516554 
    1000    1232.2217   -103.19502    1.1149401   -102.08008   -11400.726    4.3730096    4.3730096    4.3730096   -11400.726      26054.8   -45930.543   -14326.436   -37049.997   -10282.538   -8003.8042    83.625992 
    1100    2066.3445   -103.94075    1.8696719   -102.07108    35396.645    4.3623864    4.3623864    4.3623864    35396.645   -10191.711    39705.515    76676.132      37425.6   -9031.8051   -9704.8574    83.018023 
    1200    1583.2192   -103.53965      1.43253   -102.10712   -1280.5166    4.3820623    4.3820623    4.3820623   -1280.5166    5562.0454    -66863.48    57459.885   -12637.824    10922.618   -8584.1069    84.146417 
    1300    1493.6487   -103.42148    1.3514847   -102.06999   -14063.825    4.3943879    4.3943879    4.3943879   -14063.825   -85519.085   -75510.766    118838.38     43042.59   -8057.0931   -4184.7184    84.858466 
    1400    1941.4861   -103.82125    1.7566974   -102.06455   -4177.2371    4.3605202    4.3605202    4.3605202   -4177.2371    -10611.21   -9289.8728    7369.3715   -16906.457    8194.8576   -6424.3207    82.911526 
    1500    1165.2021   -103.13475    1.0542993   -102.08045    35572.598    4.3371343    4.3371343    4.3371343    35572.598   -30968.768   -54942.204    192628.77    60872.997   -789.60014   -303.92782    81.584677 
    1600    1932.8582   -103.86421    1.7488907   -102.11532    19419.654    4.3467766    4.3467766    4.3467766    19419.654    12062.346   -17536.734    63733.349   -19010.487    7568.9588    1920.3339    82.130029 
    1700    1253.1517   -103.27853     1.133878   -102.14466   -31207.827    4.3769441    4.3769441    4.3769441   -31207.827   -61827.756   -73223.007    41427.282    71550.974   -1548.7048     1817.315    83.851916 
    1800    2581.7297   -104.41107    2.3360033   -102.07506   -16333.992    4.3817225    4.3817225    4.3817225   -16333.992   -12298.628   -21936.451   -14766.898   -12536.903   -12925.318   -8491.9915    84.126844 
    1900    859.02882   -102.85239   0.77726733   -102.07512   -5752.4259    4.3515297    4.3515297    4.3515297   -5752.4259    7185.4628   -104371.07     79928.33    74650.471     6914.517   -11191.775    82.399742 
    2000    2873.8835   -104.64189    2.6003502   -102.04154    22617.717    4.3393267    4.3393267    4.3393267    22617.717    30222.716   -1770.5283    39400.965   -28682.896   -15133.672    10503.364    81.708464 
    2100    1670.5857   -103.60552     1.511581   -102.09394   -18702.758    4.3570255    4.3570255    4.3570255   -18702.758   -46036.183   -95218.616    85146.523    59355.194   -5962.1272   -10798.179    82.712339 
    2200    2061.5946   -103.95752    1.8653742   -102.09214   -1684.0442    4.3841438    4.3841438    4.3841438   -1684.0442    6854.6099   -31073.603     19166.86   -29194.793    2616.6269   -13012.005    84.266388 
    2300    1331.4298   -103.25885    1.2047056   -102.05415   -46319.299    4.3938077    4.3938077    4.3938077   -46319.299   -106273.82   -87594.717    54910.645    71823.889    -7930.806    9876.8667    84.824859 
    2400    2750.1807   -104.49521    2.4884213   -102.00679   -19499.293    4.3569853    4.3569853    4.3569853   -19499.293   -21575.576   -11566.346   -25355.955   -31772.439   -8946.3331   -8475.6162    82.710049 
    2500    1366.0094   -103.28308     1.235994   -102.04709    6585.5785    4.3399196    4.3399196    4.3399196    6585.5785   -37790.843   -34189.822      91737.4    61370.749   -5301.1455    9964.9559    81.741959 
    2600     1888.541   -103.78283    1.7087916   -102.07404    23638.271    4.3578883    4.3578883    4.3578883    23638.271    35500.847    69233.663   -33819.697   -4822.6925   -6700.0253    3625.3921    82.761489 
    2700    1281.8988   -103.25168    1.1598889   -102.09179   -20317.024    4.3845809    4.3845809    4.3845809   -20317.024   -52490.741   -18821.764    10361.432    59637.215    5927.1633   -18052.911    84.291595 
    2800    2084.7083   -103.93908    1.8862879   -102.05279   -965.30431    4.3818003    4.3818003    4.3818003   -965.30431   -16392.127    52045.211   -38548.997    7527.8019    6773.9718   -1595.9037    84.131329 
    2900    1205.2555   -103.13771    1.0905405   -102.04717    17590.367    4.3581049    4.3581049    4.3581049    17590.367    16397.721    25835.651    10537.728    41422.527    9024.2899   -11529.845    82.773826 
    3000    2259.0546   -104.10303    2.0440401   -102.05899    3246.9567    4.3449358    4.3449358    4.3449358    3246.9567    6450.9601    -5284.516     8574.426    -15547.08     13409.69   -5062.9192    82.025727 
    3100    1657.4692   -103.60699     1.499713   -102.10728    19856.966    4.3581182    4.3581182    4.3581182    19856.966    36570.376    38094.236   -15093.715    36017.398    2220.1092   -9634.0933    82.774588 
    3200    1550.5743   -103.52779    1.4029922    -102.1248   -34153.754     4.385212     4.385212     4.385212   -34153.754     -43353.3   -30974.914   -28133.049    21233.993   -3175.7842    19471.111    84.327994 
    3300    2213.1525   -104.09445    2.0025069   -102.09194   -9590.9015    4.3720764    4.3720764    4.3720764   -9590.9015   -6081.4235    35885.072   -58576.353    911.77669    11803.718   -3551.1548    83.572468 
    3400    1239.7455   -103.21081    1.1217477   -102.08906    9892.4046     4.347972     4.347972     4.347972    9892.4046    75483.883   -68124.839     22318.17    49907.858   -8375.0499    4064.0301    82.197805 
    3500     2511.862   -104.35982    2.2727856   -102.08704    6237.2376    4.3338608    4.3338608    4.3338608    6237.2376    19197.407    15894.987   -16380.681   -15625.125    24969.927    10908.845    81.400085 
    3600    1213.4331   -103.23718    1.0979397   -102.13924    19528.687    4.3538127    4.3538127    4.3538127    19528.687    36791.162   -15174.857    36969.755    53006.298   -5120.3489    1070.1849    82.529502 
    3700    2036.0968   -103.94501    1.8423031   -102.10271   -21929.907    4.3773093    4.3773093    4.3773093   -21929.907   -8938.9673     -24290.6   -32560.153   -29817.325    3817.2096    16887.906    83.872909 
    3800    1381.8648   -103.33813    1.2503403   -102.08779   -13837.495    4.3596568    4.3596568    4.3596568   -13837.495   -23170.943   -20956.037     2614.495    59239.855    9471.3093    3300.8832    82.862283 
    3900    1942.6474    -103.8301    1.7577482   -102.07235    26368.646    4.3474423    4.3474423    4.3474423    26368.646    48618.235   -10571.309    41059.012   -4956.2627   -5278.4922    3857.5185    82.167769 
    4000    1388.1853   -103.35298    1.2560593   -102.09692   -9041.5635    4.3515989    4.3515989    4.3515989   -9041.5635   -48692.505    44218.053   -22650.239    32989.113    7772.6449    1826.5191    82.403673 
    4100    2089.3106   -103.99856    1.8904522   -102.10811   -6873.1765    4.3517093    4.3517093    4.3517093   -6873.1765   -29667.497    18722.643   -9674.6755    22375.263   -13542.138   -9149.3122    82.409943 
    4200     1842.951   -103.78102    1.6675408   -102.11348   -29590.515     4.372246     4.372246     4.372246   -29590.515    -22208.27   -41064.943   -25498.333     21910.19    10633.311    10625.387    83.582194 
    4300       1517.6   -103.46979    1.3731563   -102.09663   -46322.972    4.3651368    4.3651368    4.3651368   -46322.972   -62798.892    -88578.98    12408.956     49846.75    -9082.601     918.8795    83.175147 
    4400    2056.9989   -103.91602    1.8612158   -102.05481    22317.263    4.3305094    4.3305094    4.3305094    22317.263    96309.178    -28081.05    -1276.339   -15211.065   -5775.8341   -12353.519     81.21139 
    4500    1409.4188   -103.37856    1.2752717   -102.10329    14351.571    4.3436902    4.3436902    4.3436902    14351.571    39972.127   -45958.506    49041.091    68539.115    -15857.19    4130.9214    81.955201 
    4600      2135.71   -104.03167    1.9324352   -102.09923   -10746.407    4.3713103    4.3713103    4.3713103   -10746.407    32253.649   -299.64223   -64193.229    -22257.03   -13264.418   -16421.569    83.528546 
    4700    1474.2725   -103.43333    1.3339527   -102.09938   -43308.222     4.376993     4.376993     4.376993   -43308.222    -36061.09    -68258.56   -25605.017    82025.329    2987.9181    14060.333    83.854731 
    4800    2141.7684   -104.01496     1.937917   -102.07704    16576.416    4.3459533    4.3459533    4.3459533    16576.416    19524.557    1609.7655    28594.925   -3993.2402   -15297.348    -20556.23    82.083367 
    4900    2084.6139    -103.9841    1.8862025   -102.09789   -4350.4475    4.3373254    4.3373254    4.3373254   -4350.4475   -35091.426   -4673.4398    26713.523    53085.303   -692.54111    2653.3394    81.595466 
    5000    1821.4771   -103.77557    1.6481108   -102.12746      20962.9     4.353879     4.353879     4.353879      20962.9    40756.058    1270.8167    20861.827    6965.5135    13910.723    -2458.466    82.533275 
    5100    1346.3288   -103.34059    1.2181866    -102.1224     6980.164    4.3706818    4.3706818    4.3706818     6980.164   -47056.213    11499.231    56497.474    26034.833   -18836.028   -15782.082    83.492521 
    5200    2382.4336   -104.24468     2.155676   -102.08901   -38770.036    4.3761267    4.3761267    4.3761267   -38770.036   -49359.644   -53031.113   -13919.351    9940.1182   -10597.252    20528.714    83.804947 
    5300    1524.6782   -103.48673    1.3795609   -102.10717   -9273.2923    4.3433842    4.3433842    4.3433842   -9273.2923    27085.342   -15666.367   -39238.852    27712.999   -15690.167   -18330.723    81.937885 
    5400    1499.0262   -103.46813    1.3563504   -102.11178    43915.653    4.3179113    4.3179113    4.3179113    43915.653    44736.524    49343.553    37666.883    29119.891   -8284.2028     6209.157    80.504684 
    5500    2411.2678   -104.31249    2.1817658   -102.13072   -10220.881    4.3402293    4.3402293    4.3402293   -10220.881   -3178.8923   -32847.464    5363.7141     5130.449    7179.2639    19813.193     81.75946 
    5600    1347.5689   -103.37597    1.2193086   -102.15667    -31576.28    4.3570057    4.3570057    4.3570057    -31576.28   -49368.268   -36731.643   -8628.9278    51056.977   -16802.202    -13044.34     82.71121 
    5700    2201.8422   -104.12222    1.9922731   -102.12994   -2979.4604    4.3652109    4.3652109    4.3652109   -2979.4604    29656.601   -25224.467   -13370.515   -13019.079    5795.8182    -929.1816    83.179384 
    5800    1216.6935    -103.2515    1.1008899   -102.15061   -37067.549    4.3412201    4.3412201    4.3412201   -37067.549       -71182   -75314.655    35294.008    69746.108   -17877.315   -11860.568    81.815465 
    5900    1935.8363   -103.86528    1.7515854   -102.11369    61097.578    4.3149538    4.3149538    4.3149538    61097.578    75324.897     35290.54    72677.298   -25346.166   -19416.729   -31249.802    80.339376 
    6000    1839.0325   -103.80076    1.6639952   -102.13676    9106.0671    4.3420417    4.3420417    4.3420417    9106.0671   -28216.066   -10983.768    66518.035    55519.122   -3608.3051    14497.598    81.861927 
    6100    1484.3233   -103.46242    1.3430469   -102.11937   -7811.7669    4.3640861    4.3640861    4.3640861   -7811.7669    47191.295   -40539.187   -30087.408   -5332.6506   -20325.853   -36884.828    83.115099 
    6200    2151.2042   -104.03782    1.9464547   -102.09137   -28668.648     4.368272     4.368272     4.368272   -28668.648   -49691.794   -17767.318   -18546.833    21563.645   -12656.324    21270.449    83.354492 
    6300    1557.2482   -103.49612    1.4090309   -102.08709   -3685.4365    4.3466466    4.3466466    4.3466466   -3685.4365    3498.3797   -17788.121    3233.4322    25850.562   -15264.294   -29448.663     82.12266 
    6400      2036.58   -103.93245    1.8427404   -102.08971    23245.314    4.3309957    4.3309957    4.3309957    23245.314    42454.336    23228.422    4053.1831   -2376.4406   -26698.387    3005.3805    81.238753 
    6500     1882.272   -103.81995    1.7031193   -102.11683   -5095.9783    4.3475093    4.3475093    4.3475093   -5095.9783   -9813.6264   -11711.479    6237.1703     36697.61    8677.4621   -2524.4922    82.171567 
    6600    1772.9277   -103.72328    1.6041822    -102.1191   -6840.0544     4.358501     4.358501     4.358501   -6840.0544    37535.882    11783.807   -69839.853   -8402.9137    -23677.89   -34827.484    82.796397 
    6700    2132.5891   -104.02614    1.9296114   -102.09653   -20299.435    4.3711656    4.3711656    4.3711656   -20299.435   -43622.995   -17070.778   -204.53187    34476.325   -2856.7084    14917.119    83.520249 
    6800    1176.6916   -103.16766    1.0646953   -102.10297   -5291.1054    4.3487479    4.3487479    4.3487479   -5291.1054    9379.2818    15839.859   -41092.457    5764.4138   -8205.4262    -45357.59    82.241815 
    6900    2327.0687     -104.188    2.1055807   -102.08242    24713.539     4.328715     4.328715     4.328715    24713.539    21053.376    3800.7047    49286.537    3015.0767   -27566.311    5438.0606    81.110483 
    7000    1871.5933   -103.81037    1.6934569   -102.11692   -7457.8592     4.343405     4.343405     4.343405   -7457.8592     3433.979   -6487.0491   -19320.508    16250.516    3999.8387   -26676.402    81.939059 
    7100    1594.8491   -103.57267    1.4430529   -102.12962   -23316.699    4.3582418    4.3582418    4.3582418   -23316.699   -21998.979   -4601.8034   -43349.313   -17768.209   -43137.696   -11783.185    82.781628 
    7200    2056.3949   -103.97018    1.8606693   -102.10951   -8307.9838    4.3588008    4.3588008    4.3588008   -8307.9838    23692.485   -46232.112   -2384.3246    24498.201    11454.324    25989.996    82.813485 
    7300    1753.1498   -103.69058    1.5862868    -102.1043   -6124.4266    4.3418052    4.3418052    4.3418052   -6124.4266   -23507.229    35025.245   -29891.296    -9013.525   -38656.163   -30440.874    81.848551 
    7400    1517.4382   -103.48434      1.37301   -102.11133   -2015.6955     4.338059     4.338059     4.338059   -2015.6955    2434.5918    -312.6121   -8169.0661   -4568.5011       8108.4    29914.302    81.636873 
    7500    2074.6307   -103.97795    1.8771694   -102.10078   -9338.8976     4.341332     4.341332     4.341332   -9338.8976    13451.293    -7625.784   -33842.202    4532.4376   -23613.801   -1558.8795    81.821792 
    7600    1319.1887   -103.30802    1.1936297   -102.11439   -23620.587    4.3562734    4.3562734    4.3562734   -23620.587   -51808.939    31308.595   -50361.418   -7589.6117   -14389.369    6858.0305    82.669514 
    7700     1633.897   -103.57303    1.4783843   -102.09465    5317.0188    4.3552008    4.3552008    4.3552008    5317.0188    32150.285   -7781.0559   -8418.1728   -11554.714   -1395.4215    29815.157    82.608463 
    7800    1784.3316    -103.6939    1.6145007    -102.0794     6436.242    4.3438857    4.3438857    4.3438857     6436.242   -30139.284    43538.974    5909.0362    12810.648   -26932.923   -11595.482    81.966269 
    7900     1814.232   -103.73018    1.6415553   -102.08863   -18464.694    4.3489399    4.3489399    4.3489399   -18464.694   -658.11342   -61027.208    6291.2403   -45064.364    24386.551    34682.742    82.252712 
    8000    2026.5642   -103.91565    1.8336778   -102.08197     12607.59    4.3510706    4.3510706    4.3510706     12607.59   -18653.398    55234.321    1241.8474    13571.075   -36898.751   -20910.915    82.373663 
    8100    1648.2096   -103.58137    1.4913347   -102.09004   -7446.5307    4.3545247    4.3545247    4.3545247   -7446.5307   -32915.171    13289.344   -2713.7659   -16000.853    21362.427     12860.43    82.569997 
    8200    2118.7397   -104.00778    1.9170802    -102.0907   -20125.292    4.3566307    4.3566307    4.3566307   -20125.292   -21049.217   -48368.427    9041.7669   -9093.0794   -44709.808   -3497.0302    82.689859 
    8300    1611.0263    -103.5588    1.4576905   -102.10111    9132.7211    4.3531231    4.3531231    4.3531231    9132.7211   -49195.841    60103.981    16490.023   -3646.2147    16773.628   -6249.7042    82.490291 
    8400    1565.2835   -103.52601    1.4163014   -102.10971   -9931.3122     4.349314     4.349314     4.349314   -9931.3122   -27968.984   -4362.2259    2537.2735   -4500.0144   -13256.495    16827.156     82.27394 
    8500    1855.1042   -103.78461    1.6785373   -102.10607    1349.8016    4.3466223    4.3466223    4.3466223    1349.8016   -28399.614    40169.855    -7720.836   -6222.0585   -4900.8092    141.20386    82.121282 
    8600     1522.496   -103.49877    1.3775863   -102.12118    -7346.502    4.3532567    4.3532567    4.3532567    -7346.502   -59945.072   -16609.358    54514.924   -7225.5794    33488.009    9266.6697    82.497886 
    8700    2159.1925   -104.05744    1.9536827   -102.10376   -34936.515    4.3649519    4.3649519    4.3649519   -34936.515    -44629.23   -46111.045   -14069.268    24840.635   -21203.431   -8907.0005     83.16458 
    8800    1671.8999   -103.61135    1.5127702   -102.09858   -32046.975    4.3576135    4.3576135    4.3576135   -32046.975   -54681.199   -40124.793   -1334.9318   -21686.202    57172.914   -1998.1422    82.745833 
    8900    1889.2235   -103.80001    1.7094091    -102.0906    2301.6354    4.3491986    4.3491986    4.3491986    2301.6354   -3954.3635   -63084.965    73944.234    16035.504   -13590.999    19863.174    82.267392 
    9000    1999.2137    -103.9086    1.8089305   -102.09967    2569.0512    4.3443057    4.3443057    4.3443057    2569.0512    8363.4204    10020.761   -10677.028    5955.6867    44428.067   -9889.7213    81.990049 
    9100    1750.2382   -103.71421    1.5836523   -102.13056   -13576.497    4.3524356    4.3524356    4.3524356   -13576.497   -17023.482   -73487.967    49781.957    9458.2752   -7363.6035   -383.62245    82.451218 
    9200    1456.4442   -103.44248    1.3178213   -102.12466    -7173.885    4.3651723    4.3651723    4.3651723    -7173.885   -4257.9977   -25707.213    8443.5559    3254.6003    27848.919   -7577.5362    83.177178 
    9300     2216.324   -104.10314    2.0053765   -102.09776    2703.2526     4.364976     4.364976     4.364976    2703.2526   -24292.295    27664.702    4737.3513   -1263.5365    5726.2437   -9140.9866    83.165957 
    9400     1673.452   -103.61824    1.5141745   -102.10406   -30224.369    4.3628239    4.3628239    4.3628239   -30224.369   -4136.7959   -98548.106    12011.795   -1423.8833   -8933.9781   -4955.5553    83.043003 
    9500    1631.2308   -103.57131    1.4759719   -102.09534    5325.2465    4.3524652    4.3524652    4.3524652    5325.2465    12933.181    24311.813   -21269.254    795.43904    35985.341   -230.38538      82.4529 
    9600    2398.0626   -104.25395    2.1698174   -102.08414   -18258.043     4.366122     4.366122     4.366122   -18258.043   -698.68308   -41766.817   -12308.629    13504.551   -25204.074   -5172.4328    83.231479 
    9700     721.6644   -102.74787   0.65297712   -102.09489    9220.9431    4.3706195    4.3706195    4.3706195    9220.9431   -20928.957     83789.57   -35197.784   -24254.171    31896.215    29556.464    83.488947 
    9800    2261.6252   -104.12053     2.046366   -102.07417    23141.787    4.3666462    4.3666462    4.3666462    23141.787    5334.3215    10701.048    53389.992    17334.191   -28594.497    18044.751    83.261457 
    9900    1321.3955   -103.28536    1.1956264   -102.08973   -8610.1519    4.3548297    4.3548297    4.3548297   -8610.1519   -25124.268    1021.0285   -1727.2166   -21413.299    39172.007    19210.808    82.587349 
   10000    1870.7588   -103.78069    1.6927018   -102.08798    26455.529    4.3408737    4.3408737    4.3408737    26455.529   -280.73404    14214.072     65433.25    5763.2238   -17894.827    16066.222    81.795885 
   10100    1927.9529   -103.84791    1.7444523   -102.10346    10132.564    4.3443407    4.3443407    4.3443407    10132.564    23558.703    1269.7359    5569.2528   -7148.1802    45692.516     5737.405     81.99203 
   10200    1476.6252   -103.45869    1.3360815   -102.12261   -15144.007    4.3641735    4.3641735    4.3641735   -15144.007   -13992.831    -7290.745   -24148.446   -17775.303    1889.6779    1773.3519    83.120091 
   10300    2485.3769   -104.33581    2.2488212   -102.08699   -39438.766     4.377178     4.377178     4.377178   -39438.766   -52803.388   -42451.569   -23061.342    32564.729    7979.2837   -12464.002    83.865364 
   10400    1632.7541   -103.55457    1.4773503   -102.07722   -2743.6127    4.3597218    4.3597218    4.3597218   -2743.6127   -2848.1671    10540.679    -15923.35   -25223.589    33932.735    2905.3447    82.865989 
   10500    2363.4094   -104.20399    2.1384625   -102.06553   -19180.468    4.3391731    4.3391731    4.3391731   -19180.468   -16783.734   -14680.486   -26077.185    29595.209   -25726.524   -9808.1283     81.69979 
   10600    1432.3654   -103.40003    1.2960343     -102.104    26737.658    4.3462761    4.3462761    4.3462761    26737.658   -11047.158    54637.965    36622.167   -6374.8097    43683.292   -3589.8738    82.101662 
   10700    2555.4081   -104.40351    2.3121869   -102.09132    -32579.63    4.3775903    4.3775903    4.3775903    -32579.63   -35405.303    -17690.05   -44643.539    5160.1082   -13039.053    3640.8243    83.889064 
   10800    1297.8323   -103.23825     1.174306   -102.06394   -45967.495    4.3833222    4.3833222    4.3833222   -45967.495    -94937.75   -8976.2885   -33988.446   -4081.7818    47184.047   -819.19606    84.219021 
   10900     2140.112   -103.96917    1.9364183   -102.03275    -2491.117    4.3581207    4.3581207    4.3581207    -2491.117   -45377.813   -442.41146    38346.873    -32373.55   -13319.687   -11028.839    82.774731 
   11000    2026.8405    -103.8949    1.8339279   -102.06097   -6116.1178    4.3355555    4.3355555    4.3355555   -6116.1178    -41535.44    46157.428   -22970.341    7775.9271    73281.254    11963.749    81.495617 
   11100    1644.1628   -103.60477     1.487673    -102.1171    10434.025    4.3265308    4.3265308    4.3265308    10434.025   -38034.768    1148.1364    68188.705   -46231.044   -17242.975   -13021.459    80.987765 
   11200    1715.0658   -103.69765    1.5518276   -102.14582   -7450.6192    4.3560791    4.3560791    4.3560791   -7450.6192   -27132.958     48896.43    -44115.33     6200.531    22564.834   -670.98015    82.658453 
   11300    1852.2296   -103.79865    1.6759363   -102.12271   -28447.547    4.3657847    4.3657847    4.3657847   -28447.547   -48482.307    6683.1711   -43543.505   -41517.401     17866.66    9557.1153    83.212187 
   11400    1676.1888   -103.61969    1.5166509   -102.10304    2588.9633    4.3610591    4.3610591    4.3610591    2588.9633   -30660.518    62906.671   -24479.263    -4855.555    -9678.757   -4837.9425    82.942271 
   11500    1711.7876    -103.6515    1.5488614   -102.10264   -10328.632    4.3482507    4.3482507    4.3482507   -10328.632    17961.554    6150.4043   -55097.854    -10724.96    25163.286    25681.119    82.213609 
   11600    1909.3404   -103.84752    1.7276113   -102.11991    26621.537    4.3281796    4.3281796    4.3281796    26621.537    3740.5913    69933.519    6190.5007    -24991.08   -7007.7518   -4865.6207    81.080388 
   11700    2189.2299   -104.12559    1.9808612   -102.14473    15615.451    4.3363091    4.3363091    4.3363091    15615.451    12920.028    55644.656    -21718.33     37011.41   -798.79699    20090.278    81.538123 
   11800    1493.9316   -103.50135    1.3517408   -102.14961    2301.5618    4.3613433    4.3613433    4.3613433    2301.5618   -25760.149    64707.184    -32042.35   -64158.132    4572.8812    11794.655    82.958489 
   11900    2025.8373   -103.95584    1.8330202   -102.12282   -25911.952    4.3657749    4.3657749    4.3657749   -25911.952   -61428.019    5112.3553   -21420.194    60455.694   -7394.2946    7491.0772    83.211631 
   12000    2070.7267   -103.98314    1.8736371    -102.1095    14893.457    4.3271862    4.3271862    4.3271862    14893.457   -11288.557    9697.4217    46271.507   -27216.592    10702.326    19458.587    81.024575 
   12100    1309.5473   -103.30449    1.1849059   -102.11959    25417.731    4.3207147    4.3207147    4.3207147    25417.731    -47382.53    62260.558    61375.164    32067.837   -11184.535   -13077.086    80.661591 
   12200    1875.6883   -103.82208    1.6971622   -102.12492    4165.2558     4.354205     4.354205     4.354205    4165.2558   -54157.558    37647.866    29005.459     21705.58    2033.0982   -13994.974    82.551812 
   12300     1408.774    -103.3805    1.2746884   -102.10581   -36397.247     4.373667     4.373667     4.373667   -36397.247   -71603.141    -77509.83     39921.23   -23403.567    9620.3463    3078.1224    83.663715 
   12400    1846.2873   -103.74428    1.6705596   -102.07372   -32309.083    4.3590759    4.3590759    4.3590759   -32309.083   -69347.704   -34125.876    6546.3297    49605.408   -8051.4615   -15450.788    82.829166 
   12500    1774.7243   -103.68404    1.6058078   -102.07823    4855.5551    4.3251157    4.3251157    4.3251157    4855.5551   -24130.172    59434.818   -20737.981    -27375.39    8934.4996      7202.34    80.908321 
   12600    1854.9116   -103.78369     1.678363   -102.10532     29135.91    4.3135519    4.3135519    4.3135519     29135.91   -14255.015    41298.254     60364.49     43889.35   -7980.3586    2463.6499    80.261093 
   12700    1567.0029   -103.56791    1.4178572   -102.15005   -35253.125    4.3533477    4.3533477    4.3533477   -35253.125   -33142.141    10043.219   -82660.453   -12543.588    16451.669   -38276.789    82.503061 
   12800    1932.4719   -103.86234    1.7485412    -102.1138   -21240.155    4.3610556    4.3610556    4.3610556   -21240.155   -75687.968    8409.4796    3558.0236    15695.699   -6669.7399    10251.457    82.942069 
   12900    1944.0074   -103.85955    1.7589788   -102.10057     1318.303    4.3475635    4.3475635    4.3475635     1318.303   -2858.6975    25547.061   -18733.454    4201.5685    2722.2102   -34349.814     82.17464 
   13000    1894.0582   -103.81793    1.7137837   -102.10414    4327.5518     4.353765     4.353765     4.353765    4327.5518   -23654.143    47579.279    -10942.48    7443.5403    2520.6468   -16332.997    82.526787 
   13100    1796.5527   -103.73312    1.6255586   -102.10756   -296.94405    4.3548972    4.3548972    4.3548972   -296.94405   -50560.166    17610.969    32058.365    13853.826   -5045.2115    72.645168    82.591191 
   13200    1584.2079   -103.53056    1.4334246   -102.09714    42109.935    4.3455124    4.3455124    4.3455124    42109.935   -7001.8195    35722.924    97608.701    159.72318    5887.4491   -25028.404    82.058386 
   13300    1869.7973   -103.79773    1.6918319   -102.10589   -21978.466    4.3603154    4.3603154    4.3603154   -21978.466   -65171.629    11986.529   -12750.297    17995.376    -8993.402    3711.8847    82.899847 
   13400    2050.6274    -103.9503    1.8554508   -102.09484    741.15952    4.3515597    4.3515597    4.3515597    741.15952   -12437.738   -11348.098    26009.314   -6386.9177    2077.4886   -45021.276    82.401445 
   13500    1558.0027   -103.51198    1.4097136   -102.10226    11866.718    4.3413684    4.3413684    4.3413684    11866.718   -27802.247    24657.769    38744.632    17558.772    -9506.811    10660.697    81.823852 
   13600    1767.9241   -103.70687    1.5996548   -102.10722   -18378.906    4.3482129    4.3482129    4.3482129   -18378.906    6569.1469    -25501.81   -36204.055   -4878.0328    6962.5135   -37578.244    82.211467 
   13700    1544.5733   -103.51101    1.3975624   -102.11345   -6202.1596    4.3532994    4.3532994    4.3532994   -6202.1596   -79321.066     14742.72    45971.868    24970.958    25691.601    -7190.935    82.500314 
   13800    2040.3827   -103.95632    1.8461811   -102.11014   -6964.3564    4.3537034    4.3537034    4.3537034   -6964.3564   -25915.059    2234.8805    2787.1093    9068.2753   -6061.5574   -26275.953    82.523287 
   13900    1831.0526   -103.76826    1.6567749   -102.11149   -9263.8335    4.3507818    4.3507818    4.3507818   -9263.8335   -18649.629    -34448.33    25306.459    14190.066    23859.982   -8735.4245    82.357263 
   14000    1655.4287    -103.6049    1.4978667   -102.10703   -4869.3951    4.3633106    4.3633106    4.3633106   -4869.3951   -48168.875   -9851.0927    43411.782    19398.345    9427.2423   -5815.8823    83.070798 
   14100    1787.5133   -103.71223    1.6173796   -102.09485    13884.409    4.3529879    4.3529879    4.3529879    13884.409    24087.833    8573.8948    8991.4976   -9681.1841    -5108.808    1978.3577    82.482609 
   14200    1450.3697    -103.4094     1.312325   -102.09708    14537.469    4.3506703    4.3506703    4.3506703    14537.469   -31211.388   -11123.681    85947.476    43685.783    7569.3132    6357.7933    82.350933 
   14300    2015.6558   -103.90824    1.8238077   -102.08444    3553.1328    4.3549724    4.3549724    4.3549724    3553.1328    11363.309    38991.936   -39695.847   -28644.629    -15380.14    22734.448    82.595467 
   14400    1219.8197    -103.1955    1.1037185   -102.09178    4793.0931    4.3603915    4.3603915    4.3603915    4793.0931   -2923.4462   -46049.218    63351.943    57810.951    8636.1586   -17121.657    82.904185 
   14500    2079.0848   -103.95548    1.8811996   -102.07428   -4023.7263    4.3685321    4.3685321    4.3685321   -4023.7263    43715.362   -4527.1543   -51259.387   -22078.849   -16956.291    43573.499    83.369383 
   14600    1464.1803   -103.40052    1.3248211    -102.0757   -8934.7343    4.3636602    4.3636602    4.3636602   -8934.7343    32292.445   -63634.557    4537.9092    65382.039   -3456.1184   -19414.429     83.09077 
   14700     2174.119    -104.0332    1.9671885   -102.06601    -12699.26     4.364129     4.364129     4.364129    -12699.26   -1370.5262   -33232.701   -3494.5529    1703.0385   -7134.4538    28409.319     83.11755 
   14800    1569.4179   -103.48461    1.4200423   -102.06457    6000.7587    4.3577558    4.3577558    4.3577558    6000.7587    12599.121    30208.994   -24805.839    49050.126    -14310.48   -5155.2579     82.75394 
   14900    2115.4807   -103.97361    1.9141314   -102.05948    5958.3244    4.3713488    4.3713488    4.3713488    5958.3244   -15037.404   -14180.278    47092.655    9627.1856   -4988.1308    10410.624     83.53075 
   15000    1719.7554   -103.60009    1.5560708   -102.04402   -19887.783    4.3849714    4.3849714    4.3849714   -19887.783   -61422.629   -7219.9382    8979.2178    21605.145   -31170.383    -13583.48    84.314119 
   15100    1976.4082    -103.8183    1.7882957      -102.03   -12589.417    4.3781039    4.3781039    4.3781039   -12589.417   -14295.033   -24086.803    613.58573    19216.423    11405.381   -9001.0663    83.918592 
   15200    1986.7195   -103.85182    1.7976255    -102.0542    3488.6804    4.3486959    4.3486959    4.3486959    3488.6804   -4811.5653   -6037.8914    21315.498    7031.2862   -14846.453    39110.747    82.238869 
   15300     1064.767   -103.05371    0.9634236   -102.09028    26902.832    4.3174275    4.3174275    4.3174275    26902.832   -7812.4178   -5072.3493    93593.264     35017.57   -3026.0758   -40809.981    80.477629 
   15400    2971.6034   -104.80736    2.6887692   -102.11859     3272.323    4.3395104    4.3395104    4.3395104     3272.323    14767.519    -28164.16     23213.61    -13676.86   -510.18202    15274.331    81.718839 
   15500    1087.4778    -103.1386   0.98397275   -102.15462    -32641.35    4.3707945    4.3707945    4.3707945    -32641.35   -48952.388   -32305.857   -16665.805    39818.315   -7064.5939   -18750.202     83.49898 
   15600    2317.8928   -104.20283    2.0972781   -102.10555   -13938.564    4.3748533    4.3748533    4.3748533   -13938.564   -14359.351   -33274.029    5817.6884   -27625.561   -4387.6127   -1362.3671    83.731812 
   15700    1878.8108   -103.81486    1.6999875   -102.11487    18179.472    4.3383618    4.3383618    4.3383618    18179.472    53444.234   -15937.663    17031.846    29171.731   -5286.6823     5098.538    81.653967 
   15800    1873.5226    -103.8002    1.6952026   -102.10499    17272.962    4.3173468    4.3173468    4.3173468    17272.962    27366.071    8020.3752     16432.44    17698.349   -14924.396   -53533.525    80.473114 
   15900    1914.7972   -103.86238    1.7325488   -102.12983    18644.107     4.345453     4.345453     4.345453    18644.107    43463.319    12824.793   -355.79202    1519.6958    8996.4994    34392.276    82.055022 
   16000    1484.1296   -103.46456    1.3428716   -102.12169   -178.28742    4.3703578    4.3703578    4.3703578   -178.28742   -19817.903     -10583.9    29866.941    32199.754   -9823.6725   -68578.131    83.473953 
   16100    1984.9146   -103.88082    1.7959925   -102.08483    8026.0285    4.3750524    4.3750524    4.3750524    8026.0285    23871.558   -24626.892    24833.419   -4041.5191    5531.9772    21714.607    83.743244 
   16200    1076.7087   -103.06272   0.97422865    -102.0885    9493.4632    4.3487687    4.3487687    4.3487687    9493.4632   -13770.012    14219.028    28031.374    23741.013    1903.8154   -47007.775    82.242994 
   16300    2281.5092   -104.14441    2.0643575   -102.08005    19443.748    4.3354328    4.3354328    4.3354328    19443.748   -17445.528    34659.777    41116.993    3663.0041   -11654.538    -8484.419      81.4887 
   16400     1898.657   -103.83797    1.7179447   -102.12003   -2073.0439    4.3506157    4.3506157    4.3506157   -2073.0439    8151.8429   -2298.4301   -12072.545    11573.499   -2725.1899    9999.1836    82.347831 
   16500     1343.123   -103.34486    1.2152859   -102.12958    1163.3812    4.3682989    4.3682989    4.3682989    1163.3812   -58987.971    -10327.37    72805.485   -10068.722   -21061.371   -21154.258    83.356037 
   16600    2634.2814   -104.47213    2.3835532   -102.08857   -28049.659    4.3730916    4.3730916    4.3730916   -28049.659   -61235.087    21430.304   -44344.194    5902.8126    6959.1777    2221.1659    83.630699 
   16700    1197.5706   -103.18146    1.0835871   -102.09788   -4174.0329    4.3519075    4.3519075    4.3519075   -4174.0329    -32561.29    2220.3383    17818.853   -9197.3809    -11363.39   -45980.682    82.421206 
   16800    1573.1283   -103.52718    1.4233995   -102.10379   -1411.8176    4.3364924    4.3364924    4.3364924   -1411.8176    -36674.91    -7514.862    39954.319   -38125.735    7501.4945    20256.602    81.548463 
   16900    2537.3004   -104.40547    2.2958027   -102.10967    14277.411    4.3383293    4.3383293    4.3383293    14277.411    15157.648    31898.758   -4224.1716    7523.9598   -3414.8843    -10337.01    81.652133 
   17000     979.3935   -103.03451   0.88617582   -102.14834   -9303.4457    4.3659927    4.3659927    4.3659927   -9303.4457   -28589.001   -38571.457    39250.121   -48565.163    1547.7058   -13605.718     83.22408 
   17100    2237.5345   -104.11888    2.0245682   -102.09431   -17391.967    4.3721795    4.3721795    4.3721795   -17391.967   -11651.421   -40426.838   -97.640851    36591.783    25441.349    44864.417     83.57838 
   17200    1622.2351   -103.55293    1.4678324    -102.0851    -4438.348    4.3462301    4.3462301    4.3462301    -4438.348   -1160.1636   -41036.797    28881.917   -53247.514   -9251.5562   -32623.607    82.099054 
   17300    1701.1654   -103.63439    1.5392502   -102.09514    19748.129    4.3344832    4.3344832    4.3344832    19748.129    9374.4441   -5350.8687     55220.81    16520.437    9225.9195   -4171.2682    81.435164 
   17400    1811.3663   -103.76811    1.6389623   -102.12915   -7726.6674     4.342747     4.342747     4.342747   -7726.6674    24774.158   -48465.568    511.40845   -8328.3239    4846.7837    16414.652    81.901829 
   17500    1506.8444    -103.5078    1.3634245   -102.14438   -8557.9782    4.3588903    4.3588903    4.3588903   -8557.9782   -10094.118   -23949.929    8370.1122   -17980.021    -31359.72   -44106.342    82.818586 
   17600     2282.373   -104.18065    2.0651391   -102.11551    1394.7239    4.3567329    4.3567329    4.3567329    1394.7239    257.09742   -50171.174    54098.248    2833.4037     13356.89     36911.32    82.695679 
   17700    1089.0231   -103.10044   0.98537094   -102.11507   -12662.334    4.3508168    4.3508168    4.3508168   -12662.334    17190.152   -39798.652   -15378.503   -12774.042   -16993.991   -58155.448    82.359253 
   17800    2451.1534   -104.31214    2.2178551   -102.09428    8639.9709    4.3460834    4.3460834    4.3460834    8639.9709    29431.841   -11728.998      8217.07    3327.4606   -17738.206    10093.899    82.090737 
   17900    1604.5809   -103.56294    1.4518586   -102.11108   -5427.9717    4.3454057    4.3454057    4.3454057   -5427.9717    55892.136   -61667.367   -10508.684   -13933.434    13341.603   -55007.287    82.052345 
   18000    1561.5691   -103.53678    1.4129406   -102.12384    -6207.109    4.3541191    4.3541191    4.3541191    -6207.109    38568.517   -32203.061   -24986.783    7327.1544   -23058.137    4600.6967    82.546928 
   18100    2022.4124   -103.94097    1.8299212   -102.11105     4686.436    4.3534044    4.3534044    4.3534044     4686.436    11706.501   -5517.4696    7870.2764    5847.7107    23616.735   -12815.452    82.506286 
   18200    1792.5095   -103.73473    1.6219003   -102.11283   -10528.201     4.345965     4.345965     4.345965   -10528.201     5833.986   -12744.909   -24673.681   -15019.332   -15724.361   -18191.898     82.08403 
   18300    1359.2362   -103.34799    1.2298654   -102.11812    21856.312    4.3441436    4.3441436    4.3441436    21856.312   -19290.663    46073.863    38785.737    3517.5097   -4647.9065    39618.703    81.980872 
   18400    2658.3349   -104.51796    2.4053173   -102.11264    -8835.359    4.3499966    4.3499966    4.3499966    -8835.359   -8080.2256   -18802.544    376.69317    -19292.01   -6677.1317   -35505.559    82.312684 
   18500    968.75543   -103.01193   0.87655027   -102.13538   -7633.1656    4.3586803    4.3586803    4.3586803   -7633.1656   -13564.782    -37485.36    28150.645   -23941.299   -17919.876    32919.978    82.806618 
   18600    2552.3671   -104.40853    2.3094353   -102.09909   -13900.483    4.3617042    4.3617042    4.3617042   -13900.483    4914.9371   -33716.429   -12899.956    12290.342    11186.296    5124.2653    82.979082 
   18700    1736.9899   -103.68489    1.5716649   -102.11323   -10920.913    4.3478255    4.3478255    4.3478255   -10920.913   -58321.378   -29205.729    54764.369   -43104.216   -24031.577    11324.529    82.189494 
   18800    1672.4299   -103.63489    1.5132497   -102.12164    -1118.062    4.3385208    4.3385208    4.3385208    -1118.062    31243.851    3358.4042   -37956.441    23222.423   -9406.5857    38588.006    81.662946 
   18900    2031.5743   -103.96017    1.8382111   -102.12196    18974.291    4.3507193    4.3507193    4.3507193    18974.291    10591.948    -3637.855    49968.781   -13181.936    8852.1199   -24015.728    82.353716 
   19000    1393.0327   -103.39731    1.2604453   -102.13686    9390.7675    4.3497618    4.3497618    4.3497618    9390.7675    45100.298   -12528.102   -4399.8943    8929.6818   -15127.023    44951.082    82.299351 
   19100    1638.7821   -103.61454    1.4828045   -102.13173    20706.557    4.3547932    4.3547932    4.3547932    20706.557    57080.083   -32509.624    37549.211    9537.1925    20496.023   -42023.669    82.585272 
   19200     2146.893   -104.04908    1.9425539   -102.10652   -780.15845    4.3527777    4.3527777    4.3527777   -780.15845   -24155.167   -11096.008      32910.7   -7014.3867   -1438.4333    504.60112     82.47066 
   19300    985.06471   -103.01176   0.89130725   -102.12045    5487.4526    4.3435048    4.3435048    4.3435048    5487.4526    29864.017    -23129.44    9727.7805    18771.744   -16904.059      5264.44    81.944709 
   19400    2154.6868   -104.06386    1.9496059   -102.11426    6789.2585    4.3468995    4.3468995    4.3468995    6789.2585    56753.441   -43935.909    7550.2436    2169.2202   -11922.286   -48767.623    82.136992 
   19500    1913.7584   -103.84487    1.7316088   -102.11327    2175.4582    4.3534579    4.3534579    4.3534579    2175.4582   -28504.827   -29854.215    64885.416    4763.1514   -19697.977    12357.499     82.50933 
   19600    949.65175   -102.99466   0.85926486    -102.1354    -15307.18    4.3541601    4.3541601    4.3541601    -15307.18    59640.249   -85016.364   -20545.424    1383.0537    214.76646   -51916.011    82.549259 
   19700    2502.1299   -104.37707    2.2639798   -102.11309    4442.1224    4.3473779    4.3473779    4.3473779    4442.1224   -7405.2462   -25063.252    45794.866   -6387.1182    18726.473    4322.1698    82.164114 
   19800    1580.6721   -103.56761    1.4302253   -102.13739   -15091.669     4.339421     4.339421     4.339421   -15091.669    54644.089   -80892.861   -19026.235    9089.7104   -613.99284   -69049.758    81.713792 
   19900    1793.8392   -103.76087    1.6231034   -102.13777    45534.474    4.3387559    4.3387559    4.3387559    45534.474    72818.697   -23953.694    87738.419   -16949.818    254.50743     34865.37    81.676222 
   20000    1625.4561   -103.61008    1.4707468   -102.13933   -18324.878    4.3589444    4.3589444    4.3589444   -18324.878   -18569.647   -58371.388    21966.403    6288.3942    3039.0143   -35387.727    82.821668 
   20100    1834.8711   -103.78228    1.6602299   -102.12205   -1628.1873     4.347956     4.347956     4.347956   -1628.1873    18118.256   -12084.836   -10917.982    -4648.849    -12418.53   -9633.8256    82.196895 
   20200     1755.413   -103.71093    1.5883346    -102.1226    17361.635    4.3375318    4.3375318    4.3375318    17361.635     7093.977   -23674.558    68665.486   -6340.9167    41765.517    5949.4507    81.607115 
   20300    2084.8957   -104.00967    1.8864574   -102.12321   -25532.111     4.345806     4.345806     4.345806   -25532.111   -29329.664   -35542.381   -11724.288    6395.2812   -23973.437   -24158.291     82.07502 
   20400    1257.8953   -103.27011    1.1381701   -102.13194    20098.615    4.3478952    4.3478952    4.3478952    20098.615    28234.598   -16847.049    48908.297   -11432.234    17141.543    14403.905    82.193446 
   20500    2393.9358    -104.2852    2.1660835   -102.11911   -259.98444    4.3536191    4.3536191    4.3536191   -259.98444    22661.799   -16347.943   -7093.8095   -2922.2257    16865.366   -983.88597    82.518491 
   20600    1160.7518   -103.19417    1.0502726    -102.1439   -7408.7902    4.3440158    4.3440158    4.3440158   -7408.7902    7881.6557    -65751.04    35643.014   -4261.6253   -44140.369    15797.881    81.973634 
   20700     2411.095   -104.30506    2.1816095   -102.12345    9039.6758    4.3417418    4.3417418    4.3417418    9039.6758    76357.238   -52737.055    3498.8443   -4601.7583    10174.799     13389.13    81.844969 
   20800    1635.6842   -103.62593    1.4800015   -102.14592    13885.112    4.3361072    4.3361072    4.3361072    13885.112    45681.517   -41507.551    37481.369    -6324.085   -22499.799   -2999.9341    81.526734 
   20900    2039.6891   -104.00811    1.8455536   -102.16256   -25177.723    4.3396547    4.3396547    4.3396547   -25177.723   -4631.7342   -56632.773   -14268.661   -1719.9088   -35156.839     21596.03    81.726994 
   21000      2105.17    -104.0436    1.9048021   -102.13879    20849.716    4.3478464    4.3478464    4.3478464    20849.716    60583.678    -41955.16    43920.628   -3827.2012    15420.675   -12599.552     82.19068 
   21100    1568.4484   -103.55094    1.4191651   -102.13178   -27437.219    4.3538105    4.3538105    4.3538105   -27437.219   -16258.841   -40216.965   -25835.851    11535.633   -44643.536    2346.4044    82.529377 
   21200    1766.3522   -103.70753    1.5982326   -102.10929    21609.431    4.3451009    4.3451009    4.3451009    21609.431    40505.948   -20303.508    44625.852    5796.9589    44263.819   -22266.102    82.035078 
   21300    1867.0841   -103.79117    1.6893769    -102.1018    23062.777    4.3291447    4.3291447    4.3291447    23062.777    27477.484    -6323.682    48034.527    6458.3221   -3071.3394    6937.5573    81.134639 
   21400    1621.1583   -103.58161    1.4668581   -102.11475    7556.2844    4.3377796    4.3377796    4.3377796    7556.2844   -13897.475    9052.0789    27514.249    2223.2921    1538.3418    -34532.38    81.621098 
   21500    1783.5524   -103.73556    1.6137957   -102.12176   -18670.285    4.3565655    4.3565655    4.3565655   -18670.285    13762.115    3177.3176   -72950.289   -6051.4695    45874.219   -16726.443    82.686143 
   21600    2306.0666   -104.17232    2.0865775   -102.08575   -25919.213    4.3655542    4.3655542    4.3655542   -25919.213   -43654.066   -9373.1823   -24730.392    18081.412   -19421.343   -11284.272    83.199011 
   21700    1423.9299   -103.36691    1.2884017   -102.07851   -32453.172    4.3606176    4.3606176    4.3606176   -32453.172   -54442.027    29385.594   -72303.083   -7219.3145    73984.026   -29674.053    82.917081 
   21800    2488.9011   -104.30227      2.25201   -102.05026    26869.867    4.3418012    4.3418012    4.3418012    26869.867    50880.402   -3357.9646    33087.164    2313.0444    -14478.36    4402.9951    81.848325 
   21900    1171.0817   -103.15254    1.0596193   -102.09293    2611.0957    4.3384872    4.3384872    4.3384872    2611.0957   -39106.012    73719.979    -26780.68    7446.7019    66257.729   -18057.199     81.66105 
   22000    2206.0867   -104.09105    1.9961136   -102.09494    10971.308    4.3476799    4.3476799    4.3476799    10971.308    31927.709    8507.7914   -7521.5755     820.4836   -21269.615    -2856.656    82.181241 
   22100    1475.2614    -103.4489    1.3348475   -102.11405    2476.2691    4.3515539    4.3515539    4.3515539    2476.2691   -34824.885    79057.069   -36803.377   -3021.1034    58402.142   -2766.5185    82.401117 
   22200    1921.0788   -103.83361    1.7382325   -102.09538    13370.657    4.3567583    4.3567583    4.3567583    13370.657     42603.89   -6687.6833    4195.7633    12512.105   -23737.032   -46606.718    82.697122 
   22300    1348.7349   -103.31731    1.2203637   -102.09695    2604.6635    4.3469503    4.3469503    4.3469503    2604.6635   -41709.628    40513.523    9010.0962   -16668.304    45545.055   -2796.7283    82.139874 
   22400    2229.0012   -104.09876    2.0168471   -102.08192    25668.764    4.3465038    4.3465038    4.3465038    25668.764    15830.978    45711.666    15463.649    12417.798   -17155.011   -28600.416    82.114564 
   22500    1350.5885   -103.32258    1.2220408   -102.10054   -37860.137    4.3552435    4.3552435    4.3552435   -37860.137   -55319.371   -4714.9426   -53546.097   -21670.926    65067.454     9119.676    82.610897 
   22600    2345.2209   -104.19803    2.1220052   -102.07602   -8666.0238    4.3425136    4.3425136    4.3425136   -8666.0238   -8620.8544    2255.5134    -19632.73     24617.85   -28794.607     7839.769    81.888622 
   22700    1297.8997   -103.27392    1.1743669   -102.09956   -18564.473    4.3427691    4.3427691    4.3427691   -18564.473   -39257.687     31860.89   -48296.623   -13428.183    75023.243   -4550.1355    81.903079 
   22800    2657.1038   -104.48113    2.4042034   -102.07693   -4031.7717    4.3465189    4.3465189    4.3465189   -4031.7717    7904.5585   -19370.596   -629.27723    8515.0374   -23492.419   -8049.0231    82.115422 
   22900    1133.5482   -103.13565    1.0256583   -102.10999   -33575.351    4.3606949    4.3606949    4.3606949   -33575.351   -61130.641    16010.435   -55605.848    6573.6209    42779.972   -201.84297    82.921492 
   23000    2359.2485   -104.20661    2.1346976   -102.07192    -14399.18    4.3572896    4.3572896    4.3572896    -14399.18   -16390.859   -27903.561    1096.8809    3089.2315    34428.337   -12870.526    82.727382 
   23100    1566.8076   -103.49332    1.4176804   -102.07564   -6250.8063    4.3420676    4.3420676    4.3420676   -6250.8063   -64197.048    23888.942    21555.687     27076.84    25678.279    4487.3823    81.863393 
   23200    2215.7942   -104.09098    2.0048972   -102.08608    592.29021    4.3504474    4.3504474    4.3504474    592.29021   -2678.2224    26276.881   -21821.788   -2314.6026    13317.737   -27052.294    82.338277 
   23300    1778.4699   -103.69587    1.6091969   -102.08668   -8267.9054    4.3595989    4.3595989    4.3595989   -8267.9054   -39358.965     17570.16   -3014.9114   -1012.9006    33386.898    13853.387    82.858982 
   23400    1699.8474   -103.61948    1.5380576   -102.08143    18183.509    4.3727445    4.3727445    4.3727445    18183.509   -27063.853    76439.729    5174.6504   -4795.8991   -15223.131   -2891.0559    83.610786 
   23500    1638.1338   -103.54743    1.4822179   -102.06521   -24726.048    4.3770872    4.3770872    4.3770872   -24726.048   -16599.354    21690.002   -79268.791    -22122.72     35464.08    32213.074    83.860141 
   23600    1555.6016   -103.46463    1.4075411   -102.05709    15756.726    4.3509986    4.3509986    4.3509986    15756.726   -29863.989    106204.82   -29070.652   -4479.1506   -27774.232   -3208.1974    82.369576 
   23700    1596.5972   -103.51318    1.4446347   -102.06855    47088.803    4.3398162    4.3398162    4.3398162    47088.803    91566.122    59454.439   -9754.1509   -31570.788    26022.435    25261.379     81.73612 
   23800    1656.2406   -103.60434    1.4986013   -102.10574   -22492.061    4.3556549    4.3556549    4.3556549   -22492.061   -44445.344     41860.02    -64890.86    2588.6358   -18599.574    8578.9278    82.634305 
   23900    2380.9486   -104.24576    2.1543323   -102.09142    4782.1728    4.3672588    4.3672588    4.3672588    4782.1728   -25079.247    25603.894    13821.871     8145.878    11518.358    2099.8692    83.296507 
   24000     1107.197   -103.10537    1.0018151   -102.10355   -26793.881    4.3700071    4.3700071    4.3700071   -26793.881   -80106.379    71023.877    -71299.14   -11726.468   -4287.4964    14646.511     83.45386 
   24100    2666.1623   -104.48022    2.4123997   -102.06782   -16080.423    4.3536675    4.3536675    4.3536675   -16080.423   -45119.005    10057.108   -13179.372      5504.21   -20909.185   -12009.488    82.521248 
   24200    1582.2911   -103.50906    1.4316902   -102.07737    -36890.76    4.3535408    4.3535408    4.3535408    -36890.76   -96857.372    5055.6185   -18870.526   -29826.611    12309.631     608.8401    82.514039 
   24300     2222.842   -104.08222    2.0112741   -102.07095    -4174.625    4.3680367    4.3680367    4.3680367    -4174.625   -42172.051    66311.663   -36663.487    11810.343   -16354.715    6637.7374    83.341027 
   24400    1467.8288   -103.38663    1.3281224   -102.05851   -6957.0509     4.369636     4.369636     4.369636   -6957.0509   -31035.346   -52397.014    62561.208    -25167.24    8996.1015   -11906.766    83.432601 
   24500    2225.9942   -104.06233    2.0141263    -102.0482   -16039.091    4.3633218    4.3633218    4.3633218   -16039.091   -18223.533   -32659.819      2766.08    15031.194   -5088.8079    17640.908     83.07144 
   24600    2280.1987   -104.10668    2.0631717   -102.04351   -16952.056    4.3680999    4.3680999    4.3680999   -16952.056   -11711.827   -34525.761   -4618.5789    10817.345    5685.0544    1135.6843    83.344642 
   24700    1608.3541   -103.50245    1.4552726   -102.04718   -15170.368    4.3702704    4.3702704    4.3702704   -15170.368   -39985.895    6264.3855   -11789.594   -12939.076    -15482.11    17448.132    83.468947 
   24800    2028.3909    -103.8721    1.8353307   -102.03677    1273.0216    4.3692005    4.3692005    4.3692005    1273.0216    30022.239   -43463.321    17260.147    8512.3311    962.91102    8557.9333    83.407656 
   24900    1984.0296   -103.83923    1.7951917   -102.04404   -35268.138    4.3642828    4.3642828    4.3642828   -35268.138   -45749.448    10227.522   -70282.486    6264.7867   -21937.141    5932.2745    83.126337 
   25000    2021.6289   -103.88673    1.8292123   -102.05752   -8482.1286    4.3461782    4.3461782    4.3461782   -8482.1286     19649.53   -63042.537    17946.621    21484.626     14989.62    7695.0248    82.096113 
   25100    1729.7901   -103.64946    1.5651504   -102.08431     705.6637     4.346167     4.346167     4.346167     705.6637   -7027.4039    7102.9909    2041.4041    4568.2448     -41087.6   -5498.6242    82.095475 
   25200     1780.616   -103.71379    1.6111388   -102.10265   -22394.791    4.3522525    4.3522525    4.3522525   -22394.791   -42301.385   -20094.268    -4788.721    17310.456    21167.674    8899.6027    82.440813 
   25300    2022.5421    -103.9234    1.8300386   -102.09336   -28968.593    4.3607556    4.3607556    4.3607556   -28968.593   -74955.058   -947.20897   -11003.514    529.11425   -46852.465    8782.2016    82.924952 
   25400     1646.857   -103.57682    1.4901108   -102.08671   -37103.258    4.3567693    4.3567693    4.3567693   -37103.258    -74396.53    17666.591   -54579.835    4876.8194     5811.072   -9442.8022    82.697751 
   25500    1716.9405   -103.62229    1.5535238   -102.06876     27354.42    4.3462083    4.3462083    4.3462083     27354.42   -11736.507    48058.097     45741.67    28789.623   -17626.964    2657.7962    82.097818 
   25600    1795.5258    -103.7068    1.6246295   -102.08218   -39612.177    4.3517039    4.3517039    4.3517039   -39612.177    -40338.98    4858.4197    -83355.97    -7128.526    -24570.29   -19.908483    82.409639 
   25700    2076.7835   -103.96023    1.8791174   -102.08111   -11780.562    4.3605379    4.3605379    4.3605379   -11780.562   -9320.4328   -26852.833    831.57976   -9113.0266     22404.67    1631.1907    82.912537 
   25800    1142.5316   -103.11844    1.0337866   -102.08465   -3989.0606    4.3728069    4.3728069    4.3728069   -3989.0606    4864.3255    55204.153   -72035.661    19601.718   -76545.608   -5312.4549    83.614367 
   25900    2067.7603    -103.9338     1.870953   -102.06285   -7754.6087    4.3560121    4.3560121    4.3560121   -7754.6087   -46564.371    30338.796    -7038.251   -5256.3766    75992.638    12219.069     82.65464 
   26000     1576.018   -103.51213    1.4260142   -102.08612   -36705.303    4.3392904    4.3392904    4.3392904   -36705.303   -71325.827    13537.689    -52327.77   -5336.7707   -109297.61   -8368.7722    81.706412 
   26100     1849.714   -103.77062    1.6736601   -102.09696    27721.595    4.3400787    4.3400787    4.3400787    27721.595    24509.986    37105.215    21549.583    21564.796    64026.761    6619.1873    81.750952 
   26200    1372.3015   -103.36269    1.2416872     -102.121   -40433.238    4.3602384    4.3602384    4.3602384   -40433.238   -43447.762    8736.6805   -86588.632   -7685.2907   -74940.776   -282.88076    82.895454 
   26300    2064.0209   -103.95893    1.8675695   -102.09136   -18758.766    4.3713698    4.3713698    4.3713698   -18758.766   -28623.664   -34188.195    6535.5613    17075.972    18941.533    5220.7142    83.531955 
   26400     1631.748   -103.55877    1.4764399   -102.08233   -29779.343    4.3667593    4.3667593    4.3667593   -29779.343   -64274.964    10662.775   -35725.839   -20226.581   -15784.776   -4252.5291     83.26793 
   26500    1774.9847   -103.69249    1.6060434   -102.08644   -12598.943    4.3407737    4.3407737    4.3407737   -12598.943   -32394.512    2937.1226   -8339.4393    23619.674   -50339.174    3959.7177    81.790234 
   26600    2074.7964   -103.96664    1.8773194   -102.08932    32459.301    4.3286735    4.3286735    4.3286735    32459.301    16981.986    1346.3867     79049.53   -1138.7814    15267.903   -997.97632    81.108151 
   26700     1443.159   -103.42503    1.3058005   -102.11923   -33924.905    4.3539019    4.3539019    4.3539019   -33924.905    -85881.34    19196.179   -35089.553   -7693.9233   -50641.612   -5596.6772    82.534573 
   26800    1926.7925   -103.84715    1.7434024   -102.10375    21909.895     4.362422     4.362422     4.362422    21909.895    28665.104   -51649.624    88714.207    33436.956    22422.194    6948.2014    83.020055 
   26900     1877.255       -103.8    1.6985798   -102.10142   -9660.6245    4.3612252    4.3612252    4.3612252   -9660.6245   -24484.232   -38797.836    34300.194   -19848.966   -41065.251   -6968.3413    82.951748 
   27000    1424.6815    -103.3848    1.2890818   -102.09572    28655.021    4.3481073    4.3481073    4.3481073    28655.021    18298.063   -9538.3947    77205.393    18219.772    16933.386   -2512.5168    82.205476 
   27100    2152.4738   -104.03776    1.9476035   -102.09015    380.45241    4.3486359    4.3486359    4.3486359    380.45241   -2399.8294    10102.078   -6560.8912     4518.131    16260.439      1300.74    82.235461 
   27200    1730.0372   -103.66904     1.565374   -102.10367   -3241.6307    4.3458558    4.3458558    4.3458558   -3241.6307    6286.9943   -59023.451    43011.564    21389.086   -23300.267   -8801.1515    82.077846 
   27300    1818.6738   -103.74731    1.6455743   -102.10173    6674.8196    4.3522253    4.3522253    4.3522253    6674.8196   -4214.8555    15854.692    8384.6224   -9468.6152    56999.583    4133.6897    82.439262 
   27400    1804.0092    -103.7258    1.6323055   -102.09349   -16769.671    4.3623492    4.3623492    4.3623492   -16769.671   -48292.722   -40837.134    38820.842    57080.266   -26875.598     -6395.04    83.015903 
   27500    2020.6366   -103.91107    1.8283144   -102.08276   -11499.862    4.3575182    4.3575182    4.3575182   -11499.862   -47632.456   -31243.962    44376.831   -19860.489    46293.924   -16075.713    82.740404 
   27600    1539.3495   -103.48637    1.3928358   -102.09353   -17713.113     4.352702     4.352702     4.352702   -17713.113   -27107.835   -37786.119    11754.616    43186.056    26386.691    624.98751    82.466355 
   27700    1917.3862   -103.82426    1.7348913   -102.08937    4799.4172    4.3445629    4.3445629    4.3445629    4799.4172   -12858.665    12131.652    15125.265    15075.365   -8394.5998    -5531.055    82.004612 
   27800    1763.5807   -103.71142    1.5957249   -102.11569   -24395.723    4.3467063    4.3467063    4.3467063   -24395.723    -50602.76   -6002.8818   -16581.528    6667.7511    51963.053    1890.3409    82.126042 
   27900    1948.9732   -103.87199    1.7634719   -102.10852    7840.1972    4.3579928    4.3579928    4.3579928    7840.1972     3798.717   -62962.216    82684.091    17359.611   -30954.181    10993.046    82.767438 
   28000     1187.523   -103.19364    1.0744958   -102.11914   -12151.308    4.3526304    4.3526304    4.3526304   -12151.308   -65588.233   -7164.5939    36298.903    2396.1103     45493.81    3546.6199    82.462285 
   28100     2379.034   -104.26266       2.1526   -102.11006    2765.6506    4.3497756    4.3497756    4.3497756    2765.6506    60803.864   -41309.088   -11197.824    11058.388    3845.7505    1407.1869    82.300136 
   28200    1508.6192   -103.50101    1.3650304   -102.13598    -16146.68    4.3484888    4.3484888    4.3484888    -16146.68   -32630.176   -931.00305    -14878.86   -14074.228   -1702.6906    7067.3394     82.22712 
   28300    1731.1086   -103.70342    1.5663435   -102.13708    16920.062    4.3532018    4.3532018    4.3532018    16920.062    44758.039   -25278.218    31280.365    11642.139    32173.637    3118.4749    82.494766 
   28400    1928.0895   -103.86462    1.7445759   -102.12004    57.172392    4.3562265    4.3562265    4.3562265    57.172392    6424.6625   -33440.782    27187.637    1829.7991    10437.021    1738.1607    82.666845 
   28500    1280.0426   -103.27197    1.1582095   -102.11376    4255.1187    4.3589218    4.3589218    4.3589218    4255.1187    26263.088    19008.824   -32506.555   -8481.9609    31582.289   -802.08741    82.820382 
   28600    2442.1715   -104.29625    2.2097281   -102.08653   -10267.996    4.3537833    4.3537833    4.3537833   -10267.996   -8347.0652    4423.6029   -26880.525    26735.612   -14063.605   -18062.974    82.527833 
   28700     1435.009   -103.38866    1.2984263   -102.09024    4364.7748    4.3468937    4.3468937    4.3468937    4364.7748   -17270.126    43625.075   -13260.625   -18744.156     43350.96    14911.896    82.136667 
   28800    2306.3123   -104.16962    2.0867998   -102.08282    5895.6991    4.3477349    4.3477349    4.3477349    5895.6991    4235.3285    26464.644   -13012.875    33811.788   -27089.568   -1487.4089    82.184356 
   28900    1663.1157   -103.60187    1.5048221   -102.09705   -5958.0188    4.3546114    4.3546114    4.3546114   -5958.0188   -66472.053    43418.598    5179.3984   -2338.6971    62752.717   -25223.648    82.574931 
   29000    1926.3813   -103.82955    1.7430303   -102.08652    12261.998    4.3568313    4.3568313    4.3568313    12261.998   -7748.9082   -24637.193    69172.094    12938.423   -13622.079    4750.5241     82.70128 
   29100    1486.0974   -103.44517    1.3446522   -102.10052     -748.145    4.3514499    4.3514499    4.3514499     -748.145   -29933.285    657.76135    27031.089    21815.433    51308.162   -9795.5362    82.395208 
   29200    2074.4391   -103.97753    1.8769961   -102.10054    11966.973    4.3428576    4.3428576    4.3428576    11966.973   -2717.5821   -13050.972    51669.474    9484.6936    10291.179    17478.156    81.908085 
   29300    1677.8161   -103.63103    1.5181233   -102.11291    11315.344    4.3468588    4.3468588    4.3468588    11315.344   -16874.939   -15002.337    65823.307    27077.441   -10405.652    4442.1981    82.134685 
   29400    1951.6244   -103.86164    1.7658708   -102.09577    12065.112    4.3618869    4.3618869    4.3618869    12065.112   -12173.402   -16380.698    64749.435     796.4668    22639.129   -3919.8817    82.989512 
   29500     1582.509   -103.53159    1.4318874   -102.09971   -31178.815    4.3545409    4.3545409    4.3545409   -31178.815   -47925.478   -70015.223    24404.257    45295.669   -21187.399    21385.348     82.57092 
   29600    2388.3533   -104.23407    2.1610322   -102.07304    22406.354    4.3423833    4.3423833    4.3423833    22406.354    8836.1881    4321.3374    54061.537   -18777.701    24764.738   -11077.386    81.881252 
   29700    1412.2655    -103.3812    1.2778475   -102.10336   -35440.301    4.3484462    4.3484462    4.3484462   -35440.301   -76394.476   -33547.356    3620.9295    72737.267    557.02345    10098.968    82.224704 
   29800    2242.2471   -104.13039    2.0288323   -102.10156   -11771.806    4.3498728    4.3498728    4.3498728   -11771.806    28611.236   -22402.213   -41524.443   -46647.633   -5121.2814    8301.1809    82.305652 
   29900     1757.155   -103.70033    1.5899108   -102.11042   -2105.7868    4.3570782    4.3570782    4.3570782   -2105.7868   -40288.822     14265.78    19705.681    67628.279    14169.824    4490.6609    82.715342 
   30000    1554.0485   -103.50739    1.4061357   -102.10126     18059.89    4.3477043    4.3477043    4.3477043     18059.89    49854.811   -4563.6659    8888.5233   -31764.704   -16667.307      9968.96    82.182621 
   30100      2054.76   -103.95427      1.85919   -102.09508    7553.2405    4.3385432    4.3385432    4.3385432    7553.2405    -17476.47    18644.523    21491.668    14914.973    16477.422    3273.0794    81.664214 
   30200    1899.6138   -103.82319    1.7188105   -102.10438    1826.6478    4.3468325    4.3468325    4.3468325    1826.6478    27952.738    -25752.78    3279.9856    1116.5468   -10002.375     7152.984    82.133196 
   30300    1167.6401   -103.19041    1.0565053   -102.13391   -2523.7418    4.3447039    4.3447039    4.3447039   -2523.7418    511.05346   -1900.2285   -6182.0504   -50611.479   -3361.8951    3956.9257    82.012594 
   30400    2822.0302   -104.65636    2.5534323   -102.10293    22658.931    4.3454556    4.3454556    4.3454556    22658.931    71170.073   -5155.5815    1962.3025   -5143.2943    13588.269     2104.386    82.055173 
   30500     999.5079   -103.04623   0.90437576   -102.14185   -16711.261    4.3406526    4.3406526    4.3406526   -16711.261   -15781.355   -39417.131     5064.702   -44156.603   -20859.183   -6762.7858    81.783388 
   30600    2193.7965    -104.1046    1.9849932    -102.1196    26766.655    4.3477488    4.3477488    4.3477488    26766.655    46862.664    1823.3472    31613.955    20107.982    7952.8516    297.27234    82.185145 
   30700    1543.2365   -103.51634    1.3963528   -102.11998   -24927.563    4.3582088    4.3582088    4.3582088   -24927.563   -38698.312   -27502.909   -8581.4692   -1425.9608   -22768.287   -19567.401    82.779749 
   30800    1706.4937   -103.63608    1.5440714   -102.09201    4793.4763    4.3423521    4.3423521    4.3423521    4793.4763   -6506.2612   -5479.9314    26366.622   -7403.5124    -6393.005   -2778.9914    81.879488 
   30900    1942.5368   -103.84419    1.7576482   -102.08654   -3289.8327    4.3432857    4.3432857    4.3432857   -3289.8327    1280.1069   -28065.908    16916.302    45208.698    1345.7319   -2339.0803    81.932308 
   31000    1815.4344    -103.7289    1.6426432   -102.08626    6292.8141     4.342792     4.342792     4.342792    6292.8141    68131.694     -29745.6   -19507.651    -26670.88   -19254.445   -8720.2575    81.904374 
   31100     1826.831   -103.76406     1.652955   -102.11111   -22112.656    4.3491452    4.3491452    4.3491452   -22112.656   -7079.7606   -52350.347   -6907.8605    68373.704    5341.6166   -7207.4717    82.264362 
   31200    2004.1847   -103.91132    1.8134284   -102.09789    31274.477    4.3546734    4.3546734    4.3546734    31274.477    119455.93   -20287.781   -5344.7181   -18006.768    4006.8485    6384.9856    82.578459 
   31300    1318.9374    -103.2982    1.1934023    -102.1048   -12606.388    4.3578726    4.3578726    4.3578726   -12606.388   -18771.203   -65033.623    45985.663     63278.05    -7600.684    12118.319    82.760595 
   31400    2431.1813   -104.27834    2.1997839   -102.07856    8026.5992    4.3515385    4.3515385    4.3515385    8026.5992    24061.063    27709.324   -27690.589   -22914.798    34677.675    -4622.008    82.400245 
   31500    1308.1831   -103.27888    1.1836715   -102.09521   -17161.261    4.3399881    4.3399881    4.3399881   -17161.261   -35999.784   -53176.374    37692.374    75653.429    6850.4397   -1780.2899     81.74583 
   31600    2161.0676   -104.04145    1.9553794   -102.08607     14324.16    4.3392332    4.3392332    4.3392332     14324.16    27289.502    56693.408   -41010.429   -31505.235    19419.287   -4368.1841    81.703182 
   31700    1505.0017   -103.46839    1.3617572   -102.10663   -43728.268    4.3584684    4.3584684    4.3584684   -43728.268   -49653.251   -57866.977   -23664.577    74743.732    20286.719   -13500.812     82.79454 
   31800    2172.7514   -104.04661    1.9659511   -102.08066   -10315.005    4.3560809    4.3560809    4.3560809   -10315.005   -1082.5971   -3519.5232   -26342.895   -25565.236    8969.0712    13106.784    82.658554 
   31900    1451.2336   -103.39449    1.3131067   -102.08139   -2903.9728    4.3528402    4.3528402    4.3528402   -2903.9728   -1277.9526   -30144.145    22710.179    40635.418    28306.566    -8697.458    82.474214 
   32000    2344.8315   -104.19367    2.1216528   -102.07202   -3779.0718    4.3407633    4.3407633    4.3407633   -3779.0718    5408.3325   -20163.408    3417.8602    17199.451   -15100.971     4371.349    81.789644 
   32100    1524.9969   -103.48197    1.3798493   -102.10212   -3809.1891    4.3450662    4.3450662    4.3450662   -3809.1891    -21705.91    42461.145   -32182.802   -987.16832     53982.45   -3150.4125    82.033113 
   32200    2011.3546   -103.91767    1.8199159   -102.09775    8400.3208     4.355862     4.355862     4.355862    8400.3208    50322.147   -39003.826    13882.642    38291.964   -33023.851    12553.555    82.646097 
   32300    1279.8547   -103.27586    1.1580394   -102.11782   -44050.345    4.3551555    4.3551555    4.3551555   -44050.345   -63943.389    20362.699   -88570.345    -12514.82    72551.377    8949.4941    82.605888 
   32400     2343.774   -104.21386     2.120696   -102.09316    12355.124    4.3359971    4.3359971    4.3359971    12355.124    40246.101    7839.3831   -11020.113   -21058.677   -25742.984   -2519.2679    81.520523 
   32500    1294.7829   -103.29117    1.1715468   -102.11963   -19130.039    4.3395642    4.3395642    4.3395642   -19130.039   -35494.563    63232.508   -85128.061    9922.0409    71401.037    22636.135    81.721881 
   32600    1853.0094   -103.78473    1.6766419   -102.10809    6217.5812    4.3429852    4.3429852    4.3429852    6217.5812   -32227.055     42748.21    8131.5881   -52648.478   -14015.884    5827.0294    81.915304 
   32700    1798.3621   -103.73875    1.6271958   -102.11155   -1046.2486    4.3571902    4.3571902    4.3571902   -1046.2486   -23628.073    77346.085   -56856.757    1174.0305    41243.708    1251.8259    82.721718 
   32800    1784.4192   -103.70616      1.61458   -102.09158   -29786.957    4.3679209    4.3679209    4.3679209   -29786.957   -67789.108    6224.3865    -27796.15   -43391.261   -10175.739    2630.0831    83.334399 
   32900    1548.8474   -103.47805    1.4014297   -102.07662    4049.0716    4.3482955    4.3482955    4.3482955    4049.0716   -28276.779    634.15622    39789.838   -27280.672    34637.312   -5213.9453    82.216153 
   33000    1930.1469   -103.82143    1.7464375   -102.07499    29065.268    4.3409457    4.3409457    4.3409457    29065.268   -4100.4194    88299.726    2996.4959     7167.967   -5712.8879    17195.858    81.799953 
   33100     1372.444   -103.34661    1.2418161    -102.1048   -25833.671    4.3623316    4.3623316    4.3623316   -25833.671   -64501.216    12258.935   -25258.732   -50839.153    15543.193    4340.2592    83.014898 
   33200    2331.7911   -104.19825    2.1098536   -102.08839   -22219.468    4.3605932    4.3605932    4.3605932   -22219.468   -5455.1494    5486.1308   -66689.387    2370.9631    7057.9216    2682.4497    82.915692 
   33300    1372.4996   -103.34637    1.2418664    -102.1045    -18705.12     4.350935     4.350935     4.350935    -18705.12   -7028.8371   -45981.528    -3104.995   -76015.475   -5276.2022    11078.714    82.365966 
   33400    2272.3942   -104.15111      2.05611     -102.095   -3187.8401    4.3561085    4.3561085    4.3561085   -3187.8401    49134.722   -11949.634   -46748.608    36967.362    14150.209   -7054.5199    82.660128 
   33500    1814.1836   -103.74165    1.6415115   -102.10014   -57201.733    4.3806759    4.3806759    4.3806759   -57201.733   -40368.067   -65490.426   -65746.705   -34838.498   -24238.263    12794.016    84.066577 
   33600    1984.0357    -103.8823    1.7951972    -102.0871   -29554.239     4.370197     4.370197     4.370197   -29554.239    5969.1183   -39890.974   -54740.862    2171.9355    51405.285   -11480.204     83.46474 
   33700    1864.8996   -103.76787    1.6874003   -102.08047     19383.84    4.3348367    4.3348367    4.3348367     19383.84    81693.315     7151.974    -30693.77    400.11789   -45992.918    6952.1173    81.455087 
   33800    1851.4138   -103.78166    1.6751981   -102.10646    11060.974    4.3276203    4.3276203    4.3276203    11060.974    40366.982   -6591.4764   -592.58423   -51172.798      23451.4   -5774.5163    81.048958 
   33900     2006.776   -103.95139    1.8157731   -102.13562   -6542.1855    4.3596228    4.3596228    4.3596228   -6542.1855    5521.3208    1382.9583   -26530.836   -1140.3181   -31156.952    568.02064    82.860347 
   34000    1561.9238    -103.5113    1.4132615   -102.09804   -771.88892    4.3840772    4.3840772    4.3840772   -771.88892    24319.073   -24493.202   -2141.5376   -37239.181    7683.4496   -9110.6848    84.262547 
   34100      1767.54   -103.67213    1.5993074   -102.07282   -12485.136    4.3692274    4.3692274    4.3692274   -12485.136   -18207.896   -618.41976   -18629.091    -7061.653   -12397.326   -2800.3502    83.409199 
   34200     2102.448   -103.97075    1.9023391   -102.06842    21754.009    4.3246194    4.3246194    4.3246194    21754.009    13391.299    42019.931    9850.7949   -7252.2919   -25201.506     10957.68    80.880475 
   34300    1323.2544   -103.30371    1.1973084    -102.1064    11331.272     4.315792     4.315792     4.315792    11331.272    3034.2375   -8499.6204    39459.198   -33885.669    26044.771   -26270.132    80.386202 
   34400    2693.6624    -104.5636    2.4372824   -102.12632    3522.7161    4.3502939    4.3502939    4.3502939    3522.7161    -19228.92    35714.633   -5917.5644    11428.996   -12137.174    23667.312    82.329562 
   34500    744.27167   -102.80232   0.67343265   -102.12889   -25869.389    4.3773374    4.3773374    4.3773374   -25869.389   -38176.325   -54348.156    14916.315   -35787.529    15253.955   -23916.221    83.874524 
   34600    2557.3225   -104.39613    2.3139191   -102.08221   -10715.859    4.3625211    4.3625211    4.3625211   -10715.859   -50124.937   -10831.655    28809.015     4262.069    24946.028    201.28006    83.025713 
   34700    1490.4578   -103.44304    1.3485975   -102.09444    24186.271    4.3347331    4.3347331    4.3347331    24186.271   -16103.212    29760.833    58901.192   -9406.2815    -2245.617    2035.5895    81.449248 
   34800    1592.1164   -103.56346    1.4405804   -102.12287   -1811.6267    4.3260037    4.3260037    4.3260037   -1811.6267   -49095.076    34252.323    9407.8733   -18896.833    36680.894   -7070.4962    80.958164 
   34900    2063.4417   -104.00785    1.8670455    -102.1408    6347.3267    4.3526517    4.3526517    4.3526517    6347.3267   -26994.951    55723.488   -9686.5574   -2017.1743   -26895.876    19778.423    82.463495 
   35000    1741.1973   -103.68971    1.5754719   -102.11423   -54201.592    4.3810945    4.3810945    4.3810945   -54201.592   -94483.956   -57478.482   -10642.337    -31761.55    34792.481   -10993.951    84.090678 
   35100    1908.5501   -103.79647    1.7268963   -102.06957   -11286.894    4.3669966    4.3669966    4.3669966   -11286.894   -53959.564    47193.409   -27094.528    17164.303   -42311.706   -3266.0641    83.281507 
   35200    1961.0262   -103.82948    1.7743777    -102.0551    20098.341    4.3410533    4.3410533    4.3410533    20098.341   -29233.585    5284.2682    84244.339   -19076.963    20835.513    13217.919    81.806039 
   35300    1634.6912   -103.55051    1.4791029   -102.07141    26738.737    4.3340525    4.3340525    4.3340525    26738.737   -35509.793    68039.506    47686.499    -8933.401   -52219.781    -22208.35    81.410891 
   35400    1868.9827   -103.79144    1.6910948   -102.10034    30336.527    4.3526762    4.3526762    4.3526762    30336.527    4589.3537    44044.125    42376.103   -21546.313    -7994.995    26675.624    82.464891 
   35500    1708.7692     -103.646    1.5461302   -102.09987    -40168.54    4.3722939    4.3722939    4.3722939    -40168.54   -75513.386   -22801.896   -22190.338   -17425.534   -37546.049   -16412.535    83.584943 
   35600    1882.5356   -103.78254    1.7033577   -102.07918    24830.977    4.3511319    4.3511319    4.3511319    24830.977    235.01728    92075.187   -17817.273   -6038.9422    -18199.33   -11563.404    82.377145 
   35700    1781.4836   -103.69257    1.6119238   -102.08064    11349.569    4.3426716    4.3426716    4.3426716    11349.569    -14317.95    14937.886     33428.77   -25426.249   -21717.623    4994.7931    81.897559 
   35800    1174.1018   -103.17461     1.062352   -102.11226   -18836.827    4.3458762    4.3458762    4.3458762   -18836.827    -84512.82    36622.734    -8620.396    18724.802    -29587.69   -9180.4296    82.078999 
   35900    2516.5301   -104.38563    2.2770093   -102.10862    14303.906    4.3516535    4.3516535    4.3516535    14303.906   -44890.769     29183.71    58618.777   -8828.1479    6426.5791    -611.4911    82.406774 
   36000    1047.9869   -103.08284   0.94824054    -102.1346   -32976.394    4.3623874    4.3623874    4.3623874   -32976.394   -69105.607    3488.2205   -33311.796    9613.9253   -63072.696    60.629741    83.018083 
   36100    2565.2478   -104.42009    2.3210901     -102.099    364.10397    4.3469713    4.3469713    4.3469713    364.10397   -18416.301   -6106.8633    25615.476    4030.8712    62578.085   -12511.277    82.141065 
   36200    1650.6242   -103.59485    1.4935194   -102.10133   -28650.166    4.3559369    4.3559369    4.3559369   -28650.166   -40050.121   -16379.166   -29521.212    6534.0272   -63923.233   -718.71077    82.650356 
   36300      1572.77   -103.51816    1.4230753   -102.09509   -1260.6314     4.338941     4.338941     4.338941   -1260.6314    -47875.43    79043.923   -34950.387    1373.0345    38600.822   -12904.619    81.686678 
   36400    2051.5666   -103.95986    1.8563006   -102.10356   -19216.551     4.344159     4.344159     4.344159   -19216.551   -28862.452   -31866.139     3078.939   -6351.7809   -23201.183    17724.213    81.981744 
   36500    1369.7429   -103.35497    1.2393722    -102.1156   -5727.5473    4.3528109    4.3528109    4.3528109   -5727.5473    -56174.36    66069.487   -27077.768    10912.354   -9175.2394    10065.878    82.472545 
   36600    1887.2431   -103.80362    1.7076172     -102.096    2416.1338    4.3563223    4.3563223    4.3563223    2416.1338    39954.041   -20571.959   -12133.681   -35654.483    19513.824    16057.416    82.672298 
   36700    1534.5122   -103.47522    1.3884589   -102.08676   -26686.775     4.363442     4.363442     4.363442   -26686.775   -22937.043   -28385.617   -28737.664    14022.194   -23118.844    4877.1273    83.078306 
   36800    2591.5926   -104.40214    2.3449274   -102.05721    17504.439    4.3472097    4.3472097    4.3472097    17504.439    11979.872    43446.206   -2912.7595   -39231.901    10092.536    10124.164    82.154577 
   36900    1333.9872   -103.30913    1.2070197   -102.10211   -48804.069    4.3455801    4.3455801    4.3455801   -48804.069    -22781.59   -58869.027   -64761.589   -17886.419    -26903.73    4761.3358    82.062221 
   37000    2415.7804   -104.27419    2.1858489   -102.08834    34463.933    4.3360098    4.3360098    4.3360098    34463.933    70496.422    26147.622    6747.7544    7301.7999    8618.4061    11975.427     81.52124 
   37100    1036.5552    -103.0573   0.93789693    -102.1194   -16111.073    4.3544957    4.3544957    4.3544957   -16111.073     4176.281   -46296.357   -6213.1441   -38453.716   -8842.4739    3135.8743    82.568349 
   37200    2653.1325   -104.47439      2.40061   -102.07378    6511.2368    4.3531525    4.3531525    4.3531525    6511.2368    58496.318   -11647.541   -27315.066    18622.994    -1891.851    352.10758    82.491963 
   37300    1007.4912   -103.01486   0.91159918   -102.10326   -25096.987    4.3378348    4.3378348    4.3378348   -25096.987   -21241.162   -46331.141   -7718.6572   -35027.123    13962.872    21322.669    81.624215 
   37400    2743.1181   -104.57194    2.4820309   -102.08991    37768.101    4.3354483    4.3354483    4.3354483    37768.101    103831.74    4113.9708      5358.59    7539.5787    1292.9584   -706.75788     81.48957 
   37500    998.34536    -103.0376   0.90332386   -102.13428   -9296.1341    4.3407725    4.3407725    4.3407725   -9296.1341    17416.001   -39871.961   -5432.4426   -31121.151   -4455.4566    17227.657    81.790161 
   37600    2234.9884   -104.12422    2.0222645   -102.10196   -11640.563    4.3536965    4.3536965    4.3536965   -11640.563    11408.536   -18850.549   -27479.676   -1488.3911    16046.783    2583.4507    82.522894 
   37700    1582.0353   -103.53459    1.4314588   -102.10314    -7924.639    4.3440882    4.3440882    4.3440882    -7924.639    6855.1709   -23679.874   -6949.2136   -9611.6312   -15590.348    7179.0468    81.977734 
   37800    2195.8898   -104.08034    1.9868872   -102.09345    1088.1115    4.3436667    4.3436667    4.3436667    1088.1115   -4549.2114    -13835.55    21649.095   -33243.262    23345.389    5821.5695    81.953872 
   37900    1527.3696   -103.47991    1.3819961   -102.09792   -1275.0411    4.3572908    4.3572908    4.3572908   -1275.0411    56984.759   -41122.138   -19687.744   -14510.896     -17230.6    4023.6217    82.727451 
   38000    1759.3442   -103.68392    1.5918916   -102.09203   -20660.417     4.363997     4.363997     4.363997   -20660.417   -12540.215   -53417.371    3976.3363   -59076.829   -6631.9723    6799.7308    83.110007 
   38100    2287.5212   -104.15283    2.0697973   -102.08303   -2954.5762     4.348006     4.348006     4.348006   -2954.5762   -6944.9114   -3765.1659    1846.3488    6511.4767    2148.6076   -19912.693    82.199732 
   38200    1167.8998      -103.16    1.0567403   -102.10326    31558.785    4.3392809    4.3392809    4.3392809    31558.785    -16956.88    12199.563    99433.673   -58252.697   -27098.604    1462.1846    81.705874 
   38300    2139.3772   -104.02447    1.9357535   -102.08872    20882.063    4.3535635    4.3535635    4.3535635    20882.063   -21644.854    87692.287   -3401.2433    15577.048    9441.3161   -23978.508    82.515329 
   38400    1205.8836   -103.19366    1.0911089   -102.10255   -15743.032    4.3633827    4.3633827    4.3633827   -15743.032   -68789.076   -18759.868    40319.849    -64847.36   -25481.748   -11391.356    83.074914 
   38500    2259.3346   -104.11866    2.0442934   -102.07436   -2441.9629    4.3553823    4.3553823    4.3553823   -2441.9629   -45448.058    13418.975    24703.194    32131.547    3575.1388   -10656.374    82.618795 
   38600    1236.1124   -103.20291    1.1184605   -102.08445    31998.855    4.3369386    4.3369386    4.3369386    31998.855     11118.55      21972.2    62905.815   -56373.361    -23720.25   -1449.3367    81.573635 
   38700    2096.9854   -103.97693    1.8973965   -102.07953    11072.024    4.3497603    4.3497603    4.3497603    11072.024   -11112.126    15851.541    28476.656    40959.429   -5486.6115   -364.43542    82.299267 
   38800    1280.0357   -103.25332    1.1582032   -102.09511    6114.0472    4.3535585    4.3535585    4.3535585    6114.0472   -30509.086   -20739.121    69590.348   -41923.183   -14389.665    22431.059    82.515047 
   38900     2015.646   -103.91446    1.8237989   -102.09066   -28671.151    4.3588672    4.3588672    4.3588672   -28671.151   -24165.587   -44357.744   -17490.122    13097.812    7100.0706   -43427.617    82.817269 
   39000    1622.6334    -103.5823    1.4681928    -102.1141   -10012.619    4.3237501    4.3237501    4.3237501   -10012.619   -63714.526    -2211.867    35888.535   -7508.6712    24890.964     11007.22    80.831709 
   39100    2000.7709   -103.91336    1.8103396   -102.10302    18274.007    4.3145681    4.3145681    4.3145681    18274.007    40459.891   -2624.7203    16986.852   -15792.954    3623.1053   -41690.484    80.317834 
   39200    1171.8363   -103.18816    1.0603021   -102.12786   -29932.011    4.3407298    4.3407298    4.3407298   -29932.011   -69341.879    411.82017   -20865.975    15278.811    34611.117   -10661.054    81.787748 
   39300    2471.2735   -104.32957    2.2360602   -102.09351   -13730.955    4.3572004    4.3572004    4.3572004   -13730.955   -26551.778   -7106.4313   -7534.6544   -25921.309   -6942.2515   -12781.974    82.722301 
   39400    970.12164   -102.97567   0.87778645   -102.09788   -60029.706     4.363977     4.363977     4.363977   -60029.706   -60504.784    -31976.85   -87607.483    30254.051    37985.624   -32352.505    83.108869 
   39500    2630.5718   -104.44848    2.3801967   -102.06829    5668.6373     4.332972     4.332972     4.332972    5668.6373   -31935.611    4841.0099    44100.512    8165.7146   -2622.3428    14855.186    81.350019 
   39600    1346.3083   -103.31277     1.218168   -102.09461    4588.7437     4.312746     4.312746     4.312746    4588.7437    22561.457    24138.309   -32933.535    3067.8299    19575.934   -23214.601    80.216117 
   39700    2207.5402   -104.11882    1.9974287   -102.12139    28909.938    4.3296848    4.3296848    4.3296848    28909.938   -24609.691    90144.301    21195.203    36820.706    6716.5956   -4063.9792    81.165009 
   39800    1422.1474    -103.4011    1.2867889   -102.11432   -36965.724    4.3589953    4.3589953    4.3589953   -36965.724   -41072.489   -15713.962   -54110.722   -15731.433    1507.2426    3519.1436     82.82457 
   39900    2042.2535   -103.92792    1.8478739   -102.08004   -5213.4778    4.3484596    4.3484596    4.3484596   -5213.4778   -26100.207    18254.424   -7794.6502    32965.249    6401.9626   -34656.254    82.225464 
   40000    1457.9145   -103.39778    1.3191517   -102.07863   -7530.9321    4.3364706    4.3364706    4.3364706   -7530.9321   -32405.111    45880.345    -36068.03   -6625.3094   -15842.227    28443.597    81.547231 
   40100    2266.5636   -104.13673    2.0508344   -102.08589   -2021.7184    4.3239462    4.3239462    4.3239462   -2021.7184   -25343.747    16941.225     2337.366   -1660.6867    21766.309   -42660.673    80.842708 
   40200    1369.6659   -103.35297    1.2393025   -102.11367   -10779.975    4.3310181    4.3310181    4.3310181   -10779.975   -30885.693    40567.427    -42021.66    10828.864    -40623.41    37690.763    81.240014 
   40300    1734.1241   -103.68891     1.569072   -102.11984   -12995.277    4.3384794    4.3384794    4.3384794   -12995.277   -17194.794    -1209.943   -20581.094   -17944.774    31066.699    -413.2816    81.660612 
   40400    2285.9121    -104.1681    2.0683413   -102.09976   -7178.1284    4.3415689    4.3415689    4.3415689   -7178.1284   -50348.121    45328.088   -16514.353    11042.535   -48548.469     2307.432     81.83519 
   40500    1130.5766   -103.14246    1.0229694   -102.11949   -22472.911    4.3434985    4.3434985    4.3434985   -22472.911   -34854.066    32067.197   -64631.864     -6508.68    20579.389     41187.81     81.94435 
   40600    2177.3574   -104.06457    1.9701187   -102.09445    35823.162    4.3309787    4.3309787    4.3309787    35823.162   -17726.792    55437.899    69758.381   -6198.2766   -23046.397      8138.64      81.2378 
   40700     1559.882   -103.52951    1.4114141    -102.1181    -32187.12    4.3373201    4.3373201    4.3373201    -32187.12   -61359.423    35483.541   -70685.477    4603.7605   -6144.0896    23270.479    81.595167 
   40800    1974.0101   -103.89194    1.7861258   -102.10581    14848.886    4.3381061    4.3381061    4.3381061    14848.886    5718.0953    30806.862    8021.7015   -11186.322    19750.236    22924.698    81.639532 
   40900    1603.6749   -103.57303    1.4510387     -102.122   -19205.004    4.3411926    4.3411926    4.3411926   -19205.004   -44291.666    27036.045   -40359.391    10509.935   -20283.801   -17641.642    81.813915 
   41000    2007.7138    -103.9285    1.8166216   -102.11188   -15010.115    4.3431479    4.3431479    4.3431479   -15010.115   -24808.786    10602.383   -30823.942   -9205.5482    38075.649    43842.204    81.924514 
   41100    1806.5987    -103.7311    1.6346485   -102.09646     11964.36    4.3395682    4.3395682    4.3395682     11964.36    4407.2674    60985.623   -29499.812    -5671.817   -26986.163   -23198.302    81.722106 
   41200    1679.5281   -103.61074    1.5196723   -102.09107   -15996.395    4.3489262    4.3489262    4.3489262   -15996.395   -62081.839    33820.067   -19727.412   -1336.7964    43883.683     22994.99     82.25193 
   41300    2067.3418   -103.93326    1.8705743   -102.06269   -15194.007    4.3529759    4.3529759    4.3529759   -15194.007   -22100.602    9937.7621   -33419.182   -10749.058   -40630.248   -21115.225    82.481924 
   41400    1622.1996   -103.52817    1.4678003   -102.06037    2758.0438    4.3533762    4.3533762    4.3533762    2758.0438   -51699.262    92649.723   -32676.329   -8614.6306     36853.04    13522.252    82.504683 
   41500     2303.152   -104.14432    2.0839403   -102.06038   -22634.646    4.3440561    4.3440561    4.3440561   -22634.646   -47778.117    16395.831   -36521.652   -5069.8629   -44637.741   -10657.301    81.975915 
   41600    1343.0248   -103.30837     1.215197   -102.09317     2731.318    4.3286283    4.3286283    4.3286283     2731.318   -34972.898    85013.364   -41846.512   -3121.1698    17415.087   -17471.927     81.10561 
   41700    1986.4394   -103.89765    1.7973721   -102.10028    11770.133    4.3430703    4.3430703    4.3430703    11770.133    -31303.37    68933.281   -2319.5118    982.51794   -42368.181    12449.755    81.920119 
   41800    1520.6948   -103.47613    1.3759566   -102.10017   -30485.722    4.3620024    4.3620024    4.3620024   -30485.722   -44976.977    33565.438   -80045.627    1282.5783    4600.1323   -27034.055    82.996102 
   41900    2027.6748   -103.90299    1.8346827   -102.06831   -13135.525     4.363308     4.363308     4.363308   -13135.525   -65761.402    21240.662    5114.1639   -6490.1985   -42853.079    10052.645     83.07065 
   42000    1264.2322   -103.22438    1.1439039   -102.08047   -9893.1927    4.3432652    4.3432652    4.3432652   -9893.1927    11630.208   -17787.014   -23522.772   -1730.7757   -17757.524   -20168.307    81.931147 
   42100    2417.2862   -104.25367    2.1872114   -102.06646    5365.3065      4.32151      4.32151      4.32151    5365.3065   -28154.731    33926.828    10323.822   -13155.926    -39194.45   -12576.259    80.706141 
   42200    1123.2533   -103.13129    1.0163432   -102.11494     23634.59    4.3310323    4.3310323    4.3310323     23634.59   -3936.2412    9138.1538    65701.856   -474.50328   -51873.586     14060.76    81.240815 
   42300    2104.2219   -103.99635    1.9039442    -102.0924   -28149.405    4.3552538    4.3552538    4.3552538   -28149.405   -24797.806   -10309.146   -49341.263   -4240.2456   -13412.501   -6379.9409    82.611479 
   42400    1427.8195   -103.38106    1.2919211   -102.08914   -10855.555    4.3494775    4.3494775    4.3494775   -10855.555    -49638.84    46671.377   -29599.202   -9389.7043   -77774.351   -426.21236    82.283216 
   42500     2287.515   -104.13393    2.0697917   -102.06414   -5483.4214    4.3343302    4.3343302    4.3343302   -5483.4214    10997.818   -9688.5313   -17759.551    8734.0987   -21620.294    3614.2051    81.426539 
   42600     1177.818   -103.15508    1.0657145   -102.08937    -15945.26     4.333383     4.333383     4.333383    -15945.26   -22159.047    42452.401   -68129.134   -10770.327   -78425.838   -10694.982    81.373169 
   42700    2330.0861   -104.18988    2.1083109   -102.08157    15519.813    4.3351945    4.3351945    4.3351945    15519.813    25414.688    25882.857   -4738.1052    13136.389    -10397.69    315.68973    81.475264 
   42800    1325.3567   -103.29828    1.1992106   -102.09907   -33562.013    4.3558904    4.3558904    4.3558904   -33562.013   -36735.129    1800.2927   -65751.203    738.80119   -83228.124   -3763.8962     82.64771 
   42900    2142.3829   -104.01303    1.9384731   -102.07456   -14593.741    4.3587325    4.3587325    4.3587325   -14593.741   -33658.133   -2443.9643   -7679.1248    10042.356     15515.82   -6510.0548    82.809594 
   43000    1422.0483   -103.37037    1.2866992   -102.08367   -12505.689    4.3475491    4.3475491    4.3475491   -12505.689   -79906.704    43116.424   -726.78927    11121.875   -86327.837    705.07932    82.173821 
   43100    2362.4469   -104.20873    2.1375916   -102.07113    22617.581    4.3333487    4.3333487    4.3333487    22617.581     12045.04    17920.248    37887.456    -1252.843    14625.178   -19517.728    81.371234 
   43200    825.38711   -102.85989    0.7468276   -102.11307    16717.459    4.3456732    4.3456732    4.3456732    16717.459   -39056.545    48489.905    40719.018    23913.135   -75032.262   -2936.3176    82.067496 
   43300    2587.6429    -104.4098    2.3413537   -102.06844    2350.0451    4.3612525    4.3612525    4.3612525    2350.0451   -35538.531    1194.5411    41394.125    34.846076    17860.077   -7525.7309    82.953304 
   43400    1002.7689   -102.99043   0.90732641   -102.08311   -2446.8251     4.362665     4.362665     4.362665   -2446.8251   -80870.513    40029.029    33501.008    1638.1324   -69521.513   -9334.0083     83.03393 
   43500    2375.3082   -104.20497    2.1492288   -102.05574   -1260.0261    4.3508095    4.3508095    4.3508095   -1260.0261   -28047.947   -33962.545    58230.414    4203.2565    12823.653    15832.637    82.358835 
   43600    1498.9652   -103.43078    1.3562952   -102.07448    9118.4297    4.3390418    4.3390418    4.3390418    9118.4297   -15823.616    33244.641    9934.2639    5335.7086   -70261.626   -1528.4243    81.692368 
   43700    2208.2641   -104.07609    1.9980838   -102.07801   -26748.929    4.3580516    4.3580516    4.3580516   -26748.929   -32447.234   -22830.762    -24968.79   -3191.8544    7972.1516    29234.085    82.770789 
   43800    1527.4231    -103.4702    1.3820446   -102.08815   -41591.991    4.3606955    4.3606955    4.3606955   -41591.991   -69041.392   -19161.358   -36573.221   -2416.9364   -73358.882    6871.4653    82.921525 
   43900    2189.7288   -104.05366    1.9813126   -102.07235    12676.225    4.3555845    4.3555845    4.3555845    12676.225    33412.748   -12514.928    17130.855   -2458.6059    5506.0879   -7564.6574    82.630299 
   44000    1211.4415    -103.1872    1.0961377   -102.09106   -15014.695    4.3610718    4.3610718    4.3610718   -15014.695   -18942.523   -1484.7164   -24616.847   -5268.6556   -63909.358    11679.524    82.942992 
   44100    2356.5029   -104.18215    2.1322133   -102.04994   -4262.6442    4.3589219    4.3589219    4.3589219   -4262.6442    15457.308   -26690.649   -1554.5918   -10697.867   -11717.411    -27788.54    82.820389 
   44200    1486.7727   -103.41739    1.3452631   -102.07212   -29671.221    4.3739191    4.3739191    4.3739191   -29671.221    24171.604   -27344.096    -85841.17    3666.4534   -51924.814    13198.967    83.678185 
   44300      2629.53   -104.41421     2.379254   -102.03496   -20823.998    4.3715058    4.3715058    4.3715058   -20823.998    11761.468   -47437.843    -26795.62   -2438.5674    12821.146   -9178.5784    83.539752 
   44400    1208.6865   -103.13573    1.0936449   -102.04209    11340.492    4.3439991    4.3439991    4.3439991    11340.492    58050.888    42141.555   -66170.968   -6317.8724   -69323.525    2206.9482    81.972688 
   44500    2740.2553   -104.52457    2.4794406   -102.04513    15569.498     4.344387     4.344387     4.344387    15569.498    17291.714    32288.256   -2871.4768    14960.949    21259.834    27909.884    81.994649 
   44600    1241.7969   -103.21859    1.1236039   -102.09499   -18172.588    4.3582684    4.3582684    4.3582684   -18172.588    11566.085   -2805.8638   -63277.987   -12819.206   -62212.787   -17450.747    82.783144 
   44700    2427.0953   -104.27688    2.1960868   -102.08079    6897.9809    4.3612437    4.3612437    4.3612437    6897.9809   -20118.009   -6668.7535    47480.705    5166.0277    13160.724    37408.327    82.952801 
   44800    1180.8868   -103.16923    1.0684912   -102.10074    1167.3363    4.3537634    4.3537634    4.3537634    1167.3363   -58208.665    109419.37   -47708.694    3389.7728    -73880.84    -20077.75      82.5267 
   44900    2368.8627   -104.22702    2.1433968   -102.08362   -11488.256    4.3455609    4.3455609    4.3455609   -11488.256   -33037.554   -5162.0663    3734.8523   -9117.8042    22134.621    13016.537    82.061135 
   45000    1811.7966   -103.73556    1.6393516   -102.09621    -10862.88    4.3424648    4.3424648    4.3424648    -10862.88   -24724.433    28423.542    -36287.75    11917.022    -65094.62    1710.8983    81.885859 
   45100     1915.042   -103.83779    1.7327702   -102.10502    10241.065    4.3477168    4.3477168    4.3477168    10241.065   -14962.651    63594.922   -17909.077   -16729.734    15476.873   -14923.601    82.183332 
   45200    1688.0107   -103.62524    1.5273475    -102.0979   -14308.664    4.3665468    4.3665468    4.3665468   -14308.664   -45742.368    14646.951   -11830.576    3279.9116   -42376.213    8055.6166    83.255776 
   45300    1833.7598   -103.72094    1.6592244   -102.06172    15184.229    4.3656461    4.3656461    4.3656461    15184.229   -3110.8717    33456.619    15206.941   -608.95388    11436.951   -10214.809    83.204261 
   45400    1856.8047   -103.73044    1.6800759   -102.05037   -11730.168    4.3585786    4.3585786    4.3585786   -11730.168     4746.795   -34560.645   -5376.6539    2354.8717   -16084.615   -8452.0507    82.800822 
   45500    1951.8208   -103.82582    1.7660485   -102.05977    22067.239    4.3518808    4.3518808    4.3518808    22067.239    50743.905    8741.5857    6716.2255    6883.3509    -6737.408    273.14742    82.419691 
   45600    1739.6169   -103.64879     1.574042   -102.07474    17081.991    4.3531502    4.3531502    4.3531502    17081.991    50281.017   -3297.3514    4262.3087   -20155.071    23852.405   -11986.813    82.491835 
   45700    2094.4429   -103.98851    1.8950959   -102.09341   -30308.526    4.3539628    4.3539628    4.3539628   -30308.526       -58926    1472.1478   -33471.725    12269.801   -51440.122    16053.566    82.538039 
   45800     1894.649    -103.8082    1.7143182   -102.09388    8701.6512    4.3411742    4.3411742    4.3411742    8701.6512    36235.507    10646.199   -20776.752   -2153.0786    38126.994    8610.4678    81.812872 
   45900    2105.6124   -104.00602    1.9052023   -102.10082     10712.03    4.3473785    4.3473785    4.3473785     10712.03    17894.126    7601.8165    6640.1476    15976.408   -25892.837   -22457.033    82.164149 
   46000    1770.6952   -103.71421    1.6021623   -102.11205   -8334.7835    4.3500544    4.3500544    4.3500544   -8334.7835   -19824.462    29982.763   -35162.652   -6823.1353    13571.438    33254.518    82.315964 
   46100    1719.8334   -103.67151    1.5561414   -102.11537    12686.102    4.3466087    4.3466087    4.3466087    12686.102    4491.8194    23805.594    9760.8929      10193.9    15027.108   -58719.462    82.120507 
   46200    2392.1253   -104.25496    2.1644453   -102.09052    -10310.65    4.3569929    4.3569929    4.3569929    -10310.65   -29775.732    2370.5965   -3526.8162   -1781.6755    15423.451    29389.804    82.710482 
   46300    954.20268   -102.96681   0.86338263   -102.10342    -2076.065    4.3487557    4.3487557    4.3487557    -2076.065    8671.3858    24091.327   -38990.908    12829.201    33863.029   -32999.556     82.24226 
   46400    2755.7744   -104.58334    2.4934826   -102.08986   -12328.652    4.3460083    4.3460083    4.3460083   -12328.652   -37463.604    14381.829   -13904.183   -13168.024   -22022.476     2909.102    82.086482 
   46500    1538.0955   -103.50052    1.3917011   -102.10882   -4585.7443    4.3431089    4.3431089    4.3431089   -4585.7443   -10723.266    6535.4177    -9569.385    7956.0831    28642.134   -15091.524    81.922303 
   46600    1718.2194    -103.6703     1.554681   -102.11562   -1025.9413    4.3521732    4.3521732    4.3521732   -1025.9413   -2832.2202     26909.09   -27154.694   -5274.1656   -24525.453   -17750.884    82.436306 
   46700    1786.9855   -103.72062     1.616902   -102.10372    3039.8233    4.3548882    4.3548882    4.3548882    3039.8233    1879.5422    10529.669   -3289.7412    -17642.67   -11481.569   -15564.197    82.590679 
   46800    1724.0725   -103.65449     1.559977   -102.09451    3030.4496    4.3414359    4.3414359    4.3414359    3030.4496    6812.1967    29305.785   -27026.633   -745.60792    5081.9047   -51259.325     81.82767 
   46900    1847.7492   -103.76903    1.6718823   -102.09715    7786.3577    4.3454566    4.3454566    4.3454566    7786.3577    15783.759    46783.927   -39208.613   -30427.758   -49133.565   -981.99192    82.055229 
   47000    2051.9183   -103.93768    1.8566188   -102.08106   -11670.742    4.3520486    4.3520486    4.3520486   -11670.742    40814.148   -34446.726   -41379.647   -14397.463    8599.3467   -51858.793    82.429223 
   47100    1309.7814   -103.26957    1.1851177   -102.08446   -2456.0734    4.3577455    4.3577455    4.3577455   -2456.0734    20898.561    30038.485   -58305.266   -8507.6718   -52921.509     16225.18    82.753349 
   47200    2218.7124   -104.07412    2.0075377   -102.06658    9472.1466    4.3573646    4.3573646    4.3573646    9472.1466    93672.297     -24815.8   -40440.057   -13481.026   -2413.3912   -24079.743     82.73165 
   47300     1068.258   -103.05572   0.96658231   -102.08914   -8516.0586    4.3402973    4.3402973    4.3402973   -8516.0586    25530.387    37027.143   -88105.706     10235.19   -56194.634     22818.11    81.763306 
   47400    2114.1936   -103.99922    1.9129668   -102.08626    26497.065    4.3358631    4.3358631    4.3358631    26497.065    36380.938    68516.438   -25406.179    26238.453    31216.717    5055.4849    81.512964 
   47500    1395.0604   -103.37892    1.2622799   -102.11664    16096.048    4.3440008    4.3440008    4.3440008    16096.048    33431.876    73140.212   -58283.943   -4685.3415   -51837.484    16786.041    81.972787 
   47600    1568.8787   -103.54364    1.4195544   -102.12409   -24467.807    4.3529073    4.3529073    4.3529073   -24467.807   -7538.3315    6688.8487   -72553.938    20904.387     48626.69    39753.527    82.478025 
   47700    2121.3955   -104.02446    1.9194832   -102.10498    45346.004    4.3405734    4.3405734    4.3405734    45346.004    98807.631    55912.129   -18681.747     8668.418   -36529.961   -3350.8787    81.778909 
   47800    1452.9325   -103.43155    1.3146438    -102.1169   -22885.858    4.3453499    4.3453499    4.3453499   -22885.858   -35025.317     41329.36   -74961.618   -1318.7586    48634.365    40783.362     82.04918 
   47900    1966.3505    -103.8735    1.7791953   -102.09431    32481.077    4.3520176    4.3520176    4.3520176    32481.077    102454.74     5376.506   -10388.013     4121.494   -1258.9366   -12639.065    82.427464 
   48000    1566.1639      -103.53     1.417098    -102.1129   -29075.458    4.3659915    4.3659915    4.3659915   -29075.458   -29566.074    23507.755   -81168.054   -10091.239    44586.377    15979.085    83.224013 
   48100    1472.5695   -103.43184    1.3324118   -102.09943    2214.8654     4.358791     4.358791     4.358791    2214.8654     68005.01   -1306.6522   -60053.762    14216.289    17330.539   -23714.417    82.812925 
   48200    1971.2055   -103.86062    1.7835881   -102.07703   -6562.1843     4.336378     4.336378     4.336378   -6562.1843   -9934.1268    7124.5529   -16876.979   -2049.5074    44626.631   -6966.9266    81.542005 
   48300    1573.1357   -103.52346    1.4234062   -102.10005    13950.639     4.336289     4.336289     4.336289    13950.639    11126.283    83529.393   -52803.758    458.13195    14184.946    5179.0428    81.536986 
   48400    1669.1545    -103.6347    1.5102861   -102.12441   -1023.6943    4.3465199    4.3465199    4.3465199   -1023.6943    28201.111   -12192.527   -19079.667    15284.291    7884.2557   -28780.859    82.115476 
   48500     1967.069   -103.90218    1.7798454   -102.12233   -7724.0987    4.3556302    4.3556302    4.3556302   -7724.0987    20125.675     19514.51   -62812.481    2968.4428    23820.045    14124.763    82.632899 
   48600    1618.7109   -103.58272    1.4646436   -102.11807   -11780.186    4.3510706    4.3510706    4.3510706   -11780.186    44227.373   -6830.6623    -72737.27     1306.429   -18653.342   -30787.604    82.373667 
   48700    1922.5579   -103.84725    1.7395708   -102.10768   -15004.194    4.3420941    4.3420941    4.3420941   -15004.194   -21085.714    14577.924   -38504.791    28514.317    34158.767    18889.215    81.864892 
   48800    1586.9905   -103.55381    1.4359423   -102.11787    9550.3865    4.3404905    4.3404905    4.3404905    9550.3865    51501.911    22326.861   -45177.612   -32501.505   -30682.604   -29833.876    81.774222 
   48900    2304.8729   -104.20447    2.0854975   -102.11897   -24428.275    4.3501311    4.3501311    4.3501311   -24428.275    -32352.33   -3043.8978   -37888.596    33834.375    23048.164     25910.67     82.32032 
   49000     1384.198   -103.36765    1.2524514   -102.11519    5327.0678    4.3620136    4.3620136    4.3620136    5327.0678    55259.608    3764.6734   -43043.078   -21308.894     -28219.6   -28687.584    82.996741 
   49100    1822.5316   -103.75509    1.6490649   -102.10603   -8113.2091    4.3508352    4.3508352    4.3508352   -8113.2091    32367.196   -36498.628   -20208.195    16899.556   -16688.866    21499.773    82.360298 
   49200    1921.6186   -103.83903    1.7387209   -102.10031    18630.775    4.3354715    4.3354715    4.3354715    18630.775     13386.64    35926.307    6579.3771    6232.0924   -11451.743   -12190.121    81.490881 
   49300    1829.9776   -103.77571    1.6558022   -102.11991    -21456.47    4.3448336    4.3448336    4.3448336    -21456.47     10823.28   -30690.909    -44501.78   -4423.8002   -27880.993    8368.8847    82.019942 
   49400    1861.8256   -103.79973     1.684619   -102.11511     10745.52    4.3477598    4.3477598    4.3477598     10745.52    5669.0055    36470.705   -9903.1515    26646.134     923.9803    12850.135    82.185768 
   49500    1425.6465   -103.41683    1.2899549   -102.12688   -29915.062    4.3457693    4.3457693    4.3457693   -29915.062   -7233.2949   -41944.026   -40567.864   -20296.194   -20045.217    3020.7305    82.072943 
   49600    1999.1687   -103.92875    1.8088899   -102.11986    10644.103    4.3402965    4.3402965    4.3402965    10644.103    16292.682    48263.358   -32623.731    659.97278   -2320.5146    38048.823     81.76326 
   49700    2208.7349   -104.11395    1.9985097   -102.11544   -15690.784    4.3512933    4.3512933    4.3512933   -15690.784   -6496.1298    2101.0368    -42677.26   -14851.934   -8635.6111    3874.4236    82.386316 
   49800    927.27533   -102.97023    0.8390182   -102.13121   -57204.765    4.3520862    4.3520862    4.3520862   -57204.765   -16467.016   -92332.026   -62815.253   -6871.1403    -15706.68    70400.042     82.43136 
   49900    2813.2487   -104.65133    2.5454866   -102.10584    14823.648    4.3378275    4.3378275    4.3378275    14823.648   -22707.692    58604.495    8574.1412    7643.6109   -690.94462   -21606.722    81.623803 
   50000    1139.1743   -103.18018    1.0307489   -102.14943   -20949.405    4.3362198    4.3362198    4.3362198   -20949.405    14143.992   -30399.497   -46592.709   -8797.7884    -10096.49    86403.083    81.533085 
   50100    1790.4767   -103.76764    1.6200609   -102.14757    23000.696    4.3308793    4.3308793    4.3308793    23000.696   -41510.261    1763.3689    108748.98    9087.2519    -4335.448   -18401.655    81.232205 
   50200     1818.212   -103.79063    1.6451564   -102.14547   -17712.832    4.3510188    4.3510188    4.3510188   -17712.832   -26847.388    14401.501   -40692.607    10678.694   -8389.8412     32966.03    82.370726 
   50300    1950.4738   -103.89436    1.7648297   -102.12953   -14700.414    4.3481783    4.3481783    4.3481783   -14700.414   -55619.433   -10558.689    22076.881   -4528.2036   -2519.0256    8146.1227    82.209505 
   50400    1520.9769   -103.50624    1.3762118   -102.13003   -4778.2261    4.3440943    4.3440943    4.3440943   -4778.2261   -62729.858    12436.465    35958.715    14023.909   -3235.0099    123.53316    81.978079 
   50500    2401.9247   -104.28778    2.1733119   -102.11447    11443.239    4.3392081    4.3392081    4.3392081    11443.239    4280.9548    45533.794   -15485.031   -7464.5423   -7471.6318    22639.636    81.701767 
   50600    1225.2112   -103.24622    1.1085969   -102.13763   -16903.527    4.3449428    4.3449428    4.3449428   -16903.527   -81798.277   -11949.757    43037.453    26647.504    17436.126    4437.7111    82.026123 
   50700    1840.8057   -103.79042    1.6655996   -102.12482    5692.2869    4.3603385    4.3603385    4.3603385    5692.2869    -28469.36    52016.996   -6470.7752   -33092.709   -1303.1242    1581.0098    82.901163 
   50800    2154.9343   -104.06837    1.9498298   -102.11854   -7390.2985    4.3526249    4.3526249    4.3526249   -7390.2985   -43001.871   -1232.6285    22063.604    28367.237    8596.3496   -1859.7959    82.461976 
   50900    1189.9872   -103.20303    1.0767254    -102.1263    216.29707    4.3428481    4.3428481    4.3428481    216.29707   -68863.753    7987.8714    61524.773   -30515.995    4059.2103   -17926.804    81.907549 
   51000    2759.9403   -104.60126     2.497252   -102.10401    15801.768    4.3417651    4.3417651    4.3417651    15801.768   -7180.5619    66495.386   -11909.519    13180.297   -17561.661   -12901.023    81.846287 
   51100    1115.0474   -103.14555    1.0089183   -102.13663    19782.369    4.3520848    4.3520848    4.3520848    19782.369   -51400.146    36989.609    73757.644   -12238.133    16308.554   -6901.1072    82.431282 
   51200    2269.4588   -104.15656     2.053454   -102.10311   -36625.949    4.3680929    4.3680929    4.3680929   -36625.949   -67528.447   -3999.6825   -38349.718    -4113.801   -30095.086   -4293.7245    83.344241 
   51300    1994.6187   -103.88943    1.8047729   -102.08466   -24260.102    4.3512982    4.3512982    4.3512982   -24260.102   -60318.865   -20349.591     7888.151   -14710.515    284.03379    9931.2902     82.38659 
   51400    1828.3754   -103.73253    1.6543525   -102.07817    12577.677    4.3427799    4.3427799    4.3427799    12577.677   -43438.106    2026.9866    79144.151   -13778.604   -30231.204   -1078.7447    81.903687 
   51500    1492.7048   -103.44677    1.3506307   -102.09614   -4507.0486    4.3490684    4.3490684    4.3490684   -4507.0486   -33398.875   -15526.085    35403.814   -13509.424    -36625.31    14488.527        82.26 
   51600    1611.1193   -103.56584    1.4577746   -102.10806    11596.905    4.3515307    4.3515307    4.3515307    11596.905   -69747.453     -28629.9    133168.07   -17056.479    2061.6195     13797.36    82.399798 
   51700    2244.1167   -104.12847    2.0305239   -102.09794    -22939.79    4.3626743    4.3626743    4.3626743    -22939.79   -65560.318    1770.1741   -5029.2271   -14455.758   -38922.981   -330.09464    83.034459 
   51800    1309.0323   -103.27676    1.1844399   -102.09232   -21589.638    4.3542232    4.3542232    4.3542232   -21589.638   -52992.138   -65861.806    54085.031   -24780.616    17383.985    8784.5398    82.552849 
   51900    2293.6641   -104.15518    2.0753555   -102.07983    29994.713    4.3365936    4.3365936    4.3365936    29994.713      35258.2    32233.957    22491.983    7953.3637    1309.0992   -860.71251    81.554171 
   52000    1637.4306   -103.60006    1.4815816   -102.11848     4370.139     4.340747     4.340747     4.340747     4370.139   -45697.063   -28117.228    86924.708   -32625.475     5917.384    8071.5286    81.788723 
   52100    1818.0464    -103.7703    1.6450066   -102.12529    1708.6713    4.3518266    4.3518266    4.3518266    1708.6713   -40707.415    22544.837    23288.591    37093.091    24644.118     25139.89    82.416611 
   52200    1943.1619    -103.8676    1.7582137   -102.10938    37683.239      4.34925      4.34925      4.34925    37683.239   -12220.293   -4904.6618    130174.67   -30726.788   -10091.434   -6758.4057    82.270307 
   52300    1727.5523   -103.67943    1.5631256    -102.1163   -29173.249    4.3482147    4.3482147    4.3482147   -29173.249   -58176.534    -18186.74   -11156.474    46003.851    20506.633      23400.4    82.211568 
   52400    1824.0114   -103.75858    1.6504039   -102.10817    7561.2906    4.3506808    4.3506808    4.3506808    7561.2906    -44643.92     17133.14    50194.652   -10742.085    2328.2494   -10580.589    82.351529 
   52500    2008.7989   -103.92704    1.8176034   -102.10944    7038.4915    4.3441959    4.3441959    4.3441959    7038.4915   -54195.914   -33861.977    109173.36    35633.045   -4546.8196    15363.597    81.983833 
   52600    1537.1065   -103.51622    1.3908063   -102.12541   -12887.926    4.3489038    4.3489038    4.3489038   -12887.926   -42888.432    40919.291   -36694.636   -5848.6946    50812.366   -1773.2756    82.250664 
   52700    2083.9587   -104.00082    1.8856096   -102.11521    -20433.06    4.3521295    4.3521295    4.3521295    -20433.06   -61905.136   -55997.898    56603.853    40250.105    -9189.304   -5614.3391    82.433823 
   52800    1610.5354   -103.57531    1.4572463   -102.11807    -8319.128    4.3431973    4.3431973    4.3431973    -8319.128   -36704.133   -12261.035    24007.784   -17243.396    33232.307    19199.462    81.927307 
   52900    1758.8029   -103.70203    1.5914019   -102.11063    18708.873    4.3422104    4.3422104    4.3422104    18708.873   -27055.653    25124.939    58057.332    19900.695   -19719.126   -5272.7561     81.87147 
   53000    1809.3737   -103.73787    1.6371593   -102.10071   -21253.421    4.3578612    4.3578612    4.3578612   -21253.421   -27195.723   -34337.021   -2227.5183   -9784.0261    4763.2277    18867.615     82.75994 
   53100    1629.1149   -103.59087    1.4740574   -102.11681   -17571.277    4.3618085    4.3618085    4.3618085   -17571.277   -67480.196   -3692.9686    18459.334   -4610.9332    6518.1476    6901.3758    82.985038 
   53200     2519.521   -104.37529    2.2797155   -102.09557     9485.217    4.3466787    4.3466787    4.3466787     9485.217   -384.08591   -31288.381    60128.118    9512.2525    -16203.95    5291.6877    82.124475 
   53300    1085.4712   -103.09312   0.98215714   -102.11097   -3846.5823    4.3291931    4.3291931    4.3291931   -3846.5823    21685.098    2437.3093   -35662.154   -6570.6567    50265.688    23972.768    81.137359 
   53400    2810.4055   -104.63557    2.5429139   -102.09266    12214.276    4.3421409    4.3421409    4.3421409    12214.276    20329.122    4717.8296    11595.875    16514.473   -12510.174    -5776.349    81.867539 
   53500    1333.3322   -103.32274     1.206427   -102.11631   -14504.967    4.3464329    4.3464329    4.3464329   -14504.967    37802.976   -48821.849   -32496.028   -6174.5267    27703.207    32307.873    82.110545 
   53600    2101.8683   -104.00625    1.9018146   -102.10444   -1490.4781    4.3450381    4.3450381    4.3450381   -1490.4781    1065.1465    3853.3675   -9389.9485    14324.543    6086.2446   -7527.4061    82.031521 
   53700    1394.6494   -103.37404    1.2619081   -102.11213    575.79051    4.3391063    4.3391063    4.3391063    575.79051    67197.371   -36590.176   -28879.823     8950.325   -4318.8598     25616.56    81.696012 
   53800    2448.3431   -104.31688    2.2153123   -102.10156   -287.80547    4.3420903    4.3420903    4.3420903   -287.80547   -16891.424    24438.486   -8410.4778   -20355.309    20064.306     2788.633    81.864675 
   53900    1155.2574    -103.1551    1.0453011    -102.1098    -21727.02    4.3557801    4.3557801    4.3557801    -21727.02    12380.658   -37878.397   -39683.321    17229.287   -15825.204    19533.004    82.641435 
   54000    1985.7261   -103.87715    1.7967267   -102.08043    16232.989    4.3502613    4.3502613    4.3502613    16232.989    31454.904    287.30402    16956.759   -18419.665    30520.715   -5624.9628    82.327709 
   54100    1591.6117   -103.51668    1.4401237   -102.07655   -1414.6282    4.3401428    4.3401428    4.3401428   -1414.6282    46108.832     -23794.4   -26558.317    5957.1711   -21992.841    27566.429    81.754574 
   54200    1813.9817   -103.72511    1.6413288   -102.08378    16655.438    4.3442009    4.3442009    4.3442009    16655.438    46713.108   -13237.793        16491    1273.2374    10722.803    5312.6154    81.984112 
   54300    1622.1522   -103.56429    1.4677574   -102.09653    1211.5532    4.3431161    4.3431161    4.3431161    1211.5532    4922.2934    1058.9595   -2346.5933   -16048.151    8411.8643    7424.8283    81.922714 
   54400    1876.4724   -103.79071    1.6978717   -102.09284   -5330.4025    4.3438722    4.3438722    4.3438722   -5330.4025    19617.562   -335.92756   -35272.842    18034.538   -24068.192    23791.269    81.965504 
   54500    1957.8794   -103.86292    1.7715304   -102.09139   -24672.793    4.3504559    4.3504559    4.3504559   -24672.793   -39670.229   -16784.042   -17564.107   -24494.978    30248.443   -9256.5405    82.338757 
   54600    1446.0325   -103.41236    1.3084006   -102.10396      15281.1    4.3422693    4.3422693    4.3422693      15281.1     28254.63    31620.859   -14032.189    10446.474    -29747.21    32229.356    81.874801 
   54700    2328.4251   -104.20121    2.1068079    -102.0944    -25850.99     4.347245     4.347245     4.347245    -25850.99   -33345.626    3208.4535   -47415.796   -13861.488    39129.668   -12723.262    82.156582 
   54800    1510.1467   -103.46824    1.3664125   -102.10183   -1098.7536     4.353484     4.353484     4.353484   -1098.7536    24451.617   -7667.6256   -20080.252   -5725.7887    -17185.41    16982.525    82.510813 
   54900    1856.2851    -103.7726    1.6796057   -102.09299   -1559.1174    4.3543582    4.3543582    4.3543582   -1559.1174   -9968.7027    37769.509   -32478.158    -8537.111    35008.952    -6910.176    82.560529 
   55000    1639.4069   -103.58332    1.4833698   -102.09995   -1398.2872    4.3357071    4.3357071    4.3357071   -1398.2872    54915.888   -35786.834   -23323.915   -20701.593   -10572.834    -8107.856    81.504168 
   55100    2060.1135   -103.97058    1.8640339   -102.10654    12751.527    4.3332674    4.3332674    4.3332674    12751.527    4448.6901    79003.195   -45197.304     7644.922     36545.18    227.38309    81.366658 
   55200    1169.7817   -103.19006    1.0584431   -102.13162   -12354.283    4.3472944    4.3472944    4.3472944   -12354.283    33192.726   -10214.701   -60040.876   -2729.5374    19354.721    -29357.18    82.159383 
   55300    2553.0386   -104.41119    2.3100429   -102.10114   -12745.596    4.3529577    4.3529577    4.3529577   -12745.596   -31875.312    13732.068   -20093.544   -309.31892    13351.748    855.52223    82.480891 
   55400    1018.8801   -103.03087   0.92190416   -102.10897   -19425.884    4.3498678    4.3498678    4.3498678   -19425.884    19183.644    23047.908   -100509.21    9034.3088    47199.842   -33569.114    82.305372 
   55500    2679.8376   -104.50645    2.4247734   -102.08167    17271.511    4.3249127    4.3249127    4.3249127    17271.511    31190.259   -817.59382    21441.869   -18092.943     -8371.98   -9633.6915     80.89693 
   55600    1276.3373   -103.27379    1.1548569   -102.11894   -5504.7226     4.327995     4.327995     4.327995   -5504.7226   -11143.867    56661.058   -62031.359   -3412.3185    68651.077   -31374.078    81.070016 
   55700    2580.4642   -104.43783    2.3348583   -102.10297   -12303.321    4.3450424    4.3450424    4.3450424   -12303.321   -10552.635   -16423.682   -9933.6458    596.53537    -15655.99    -16339.67    82.031764 
   55800    1320.3037   -103.31818    1.1946385   -102.12354   -33445.447    4.3517671    4.3517671    4.3517671   -33445.447   -55680.996   -2305.2048   -42350.139   -4076.6073    54362.996   -19131.479    82.413232 
   55900    2231.5748    -104.1212    2.0191758   -102.10202   -16277.455    4.3420499    4.3420499    4.3420499   -16277.455    10718.374   -18371.933   -41178.806   -645.16315   -9006.1452   -46299.587    81.862392 
   56000    1452.8586   -103.41064     1.314577   -102.09606    622.93067    4.3310109    4.3310109    4.3310109    622.93067    17302.888   -22645.931    7211.8348   -17824.003    27310.917     19872.06    81.239612 
   56100    1769.4668    -103.7127    1.6010507   -102.11165   -26644.422    4.3322522    4.3322522    4.3322522   -26644.422    9629.3478   -26331.605   -63231.008    1920.9676    21719.112    -74950.86     81.30948 
   56200    2057.3226   -103.96951    1.8615088     -102.108     5896.059    4.3376301    4.3376301    4.3376301     5896.059    7977.3785   -12057.167    21767.965   -2252.5497   -14417.477    21217.403    81.612659 
   56300    1206.9387   -103.21453    1.0920635   -102.12246   -34351.755    4.3444323    4.3444323    4.3444323   -34351.755   -8526.7239   -26557.061    -67971.48       -14548    48938.638   -40612.058    81.997213 
   56400    2103.2363   -104.00357    1.9030524   -102.10052    9331.2279    4.3399244    4.3399244    4.3399244    9331.2279    9032.2201     32529.68   -13568.217    27245.581   -47493.385    2450.9181    81.742231 
   56500      1341.44   -103.32306    1.2137631    -102.1093    12331.806    4.3375018    4.3375018    4.3375018    12331.806    46342.534   -2058.2246   -7288.8931   -1344.9534     47868.55   -16645.715    81.605421 
   56600    1931.0185   -103.84231    1.7472261   -102.09509   -4078.0962    4.3434232    4.3434232    4.3434232   -4078.0962   -1554.5723    25576.625   -36256.342    6556.3068   -32151.481    2540.4195    81.940091 
   56700    1850.6381   -103.75837    1.6744963   -102.08387    7760.3643    4.3438607    4.3438607    4.3438607    7760.3643    16881.323   -8159.2838    14559.054    16604.722    15536.787   -15339.498    81.964854 
   56800    1400.6936   -103.35899     1.267377   -102.09162    5992.3085    4.3428753    4.3428753    4.3428753    5992.3085   -26706.755    54727.785   -10044.104   -12960.498    542.76493   -19433.225    81.909087 
   56900     2420.926   -104.27749    2.1905047   -102.08699    -6955.018    4.3467479    4.3467479    4.3467479    -6955.018    40505.793    -9006.111   -52364.736    17561.454   -34235.819   -3033.7648    82.128399 
   57000    1053.8923     -103.064   0.95358392   -102.11041    21769.331     4.336823     4.336823     4.336823    21769.331    8649.5101    43966.797    12691.685   -14113.493    34357.277   -24844.298    81.567116 
   57100    2385.0502   -104.25429    2.1580436   -102.09625    6366.9531    4.3369755    4.3369755    4.3369755    6366.9531    23048.929    3458.9586   -7407.0281    11282.648   -38977.558   -219.35958    81.575721 
   57200    1160.6575   -103.16608    1.0501873    -102.1159   -11262.896    4.3426905    4.3426905    4.3426905   -11262.896   -10079.754    17140.649   -40849.584    4957.8434    33482.419   -39068.564    81.898628 
   57300    2360.0575    -104.2359    2.1354297   -102.10047    8950.3916     4.340122     4.340122     4.340122    8950.3916   -26391.788    47242.516    6000.4462   -277.34588     1436.013    5130.1467    81.753399 
   57400    1195.7038   -103.20491     1.081898   -102.12301   -28444.669    4.3419339    4.3419339    4.3419339   -28444.669   -24374.334    -45811.16   -15148.513    29993.735    12390.882   -28708.887    81.855831 
   57500    2050.7463   -103.96681    1.8555583   -102.11125   -9856.7988    4.3333561    4.3333561    4.3333561   -9856.7988   -22794.104    10661.744   -17438.037   -4397.9057    37067.804   -19010.864    81.371652 
   57600    1625.5616   -103.58405    1.4708423   -102.11321    -12790.54     4.341158     4.341158     4.341158    -12790.54   -42713.025   -31947.459    36288.863    24144.229    -13814.62   -11801.577    81.811954 
   57700     1496.549   -103.44268     1.354109   -102.08857   -24884.942    4.3507127    4.3507127    4.3507127   -24884.942   -46628.404    1672.1905   -29698.614     1829.892    42599.729   -37087.832    82.353338 
   57800    2306.5861   -104.16278    2.0870476   -102.07573    165.24906    4.3349846    4.3349846    4.3349846    165.24906   -21341.556   -8067.4011    29904.704    4324.7983   -37750.155    17649.349    81.463428 
   57900    1332.7844   -103.31788    1.2059313   -102.11195   -15820.007    4.3307655    4.3307655    4.3307655   -15820.007   -49673.363    3732.2168   -1518.8737     37849.29    17656.596   -45962.292    81.225804 
   58000    2197.3107   -104.10421    1.9881729   -102.11603    4653.4336     4.338715     4.338715     4.338715    4653.4336    -31064.04    25313.824    19710.517   -20383.437   -24040.583    7236.5353    81.673914 
   58100    1309.8484   -103.31691    1.1851784   -102.13173   -41475.205    4.3602481    4.3602481    4.3602481   -41475.205   -70689.802   -54053.379    317.56773    40811.285   -5176.1647   -12342.311    82.896007 
   58200    2247.0636   -104.13031    2.0331903   -102.09712   -16890.628    4.3535812    4.3535812    4.3535812   -16890.628   -43379.256    27898.533   -35191.162   -19997.725   -6972.6063    -2939.969    82.516336 
   58300    1080.8821   -103.08692   0.97800487   -102.10892    4341.6883    4.3307822    4.3307822    4.3307822    4341.6883   -41536.125   -6244.7875    60805.978    16183.614   -20429.004   -771.48306     81.22674 
   58400    2395.5412   -104.26267    2.1675361   -102.09514    4062.0917    4.3315247    4.3315247    4.3315247    4062.0917   -29918.184    74479.249    -32374.79    10807.596    39143.291    5101.5436    81.268526 
   58500    1483.0845   -103.45907     1.341926   -102.11714   -36443.742    4.3461991    4.3461991    4.3461991   -36443.742   -83829.781    2517.4212   -28018.866   -8843.4949   -30490.123    6262.1864    82.097293 
   58600    1774.6122   -103.71317    1.6057065   -102.10747   -3617.3511    4.3522892    4.3522892    4.3522892   -3617.3511   -40975.419    84974.271   -54850.905     32048.68    48475.487    12510.192    82.442898 
   58700     2127.466   -104.02483    1.9249759   -102.09985   -34848.505    4.3530697    4.3530697    4.3530697   -34848.505   -77440.814    22700.875   -49805.576   -14120.355     185.3074   -9289.3044    82.487256 
   58800    1022.6992   -103.02954   0.92535971   -102.10418    35106.189    4.3303444    4.3303444    4.3303444    35106.189    -33750.67    136704.11    2365.1236    19203.658    25029.486   -4157.8065    81.202108 
   58900     2373.187   -104.26233    2.1473095   -102.11502   -16715.297    4.3336787    4.3336787    4.3336787   -16715.297   -55808.792     21493.41    -15830.51    10667.053    15208.449   -7067.4173    81.389828 
   59000    1791.2552   -103.73816    1.6207654    -102.1174    13816.146    4.3445749    4.3445749    4.3445749    13816.146   -35939.258    101770.49   -24382.793   -5008.6579    10995.256   -19566.048    82.005291 
   59100    1364.3353   -103.37379    1.2344792   -102.13931   -32126.237    4.3563509    4.3563509    4.3563509   -32126.237    -104264.4   -25894.381    33780.075    33059.804    39358.108   -4377.7054    82.673928 
   59200    2044.7921   -103.95443    1.8501709   -102.10426    2907.7606    4.3495232    4.3495232    4.3495232    2907.7606    -50121.33    92462.841   -33618.229    3654.2792    18940.418   -5269.1976     82.28581 
   59300    1350.5641   -103.33718    1.2220188   -102.11516   -11124.762    4.3288446    4.3288446    4.3288446   -11124.762   -59782.307    44846.913   -18438.892    7830.1333    56923.375   -9301.5946    81.117764 
   59400    2030.8535   -103.95806     1.837559    -102.1205    5845.0342    4.3274362    4.3274362    4.3274362    5845.0342   -33302.555    23287.949    27549.709    201.89681   -7981.4905    14993.045    81.038619 
   59500    2063.9516   -103.99718    1.8675067   -102.12967   -23078.806    4.3495605    4.3495605    4.3495605   -23078.806   -42902.168    30186.739   -56520.989   -3433.4613    44835.311   -23112.066     82.28793 
   59600    1343.1983   -103.34859    1.2153541   -102.13323   -14965.912    4.3397961    4.3397961    4.3397961   -14965.912   -48319.795   -22848.488    26270.546    7782.5281   -16658.227   -3168.6759     81.73498 
   59700    2403.8266    -104.2758    2.1750328   -102.10077    34995.669    4.3292722    4.3292722    4.3292722    34995.669   -12242.282    93675.094    23554.197   -8763.7149    12822.699    1156.9473    81.141807 
   59800    1402.9959       -103.4    1.2694601   -102.13054   -20588.571    4.3302195    4.3302195    4.3302195   -20588.571   -46797.581    -28379.05    13410.919    29830.776    -2062.411   -16569.313    81.195084 
   59900    1875.6838    -103.8374    1.6971582   -102.14024    19176.608    4.3283303    4.3283303    4.3283303    19176.608   -43043.105    32631.838    67941.091   -21757.421   -26225.778    8946.2361    81.088858 
   60000    2119.4958   -104.05046    1.9177644    -102.1327   -15256.263     4.341043     4.341043     4.341043   -15256.263   -20981.003   -24055.374   -732.41113    21029.784    18271.456    4969.6224    81.805457 
   60100    1326.7723    -103.3322    1.2004915   -102.13171    8029.1922    4.3364182    4.3364182    4.3364182    8029.1922   -38421.309   -5399.5051    67908.391   -5424.1506   -23928.058   -13672.909    81.544276 
   60200    2068.3067   -103.99586    1.8714474   -102.12441   -6272.0624    4.3352009    4.3352009    4.3352009   -6272.0624   -14000.839   -9820.6041     5005.256   -5266.0852    29384.712    30495.269    81.475625 
   60300    1525.1285   -103.50791    1.3799683   -102.12794    552.96519    4.3386807    4.3386807    4.3386807    552.96519   -18338.561    -25505.95    45503.406    11558.246    9287.6271   -18874.914    81.671975 
   60400    2397.6921   -104.28018    2.1694822    -102.1107   -11974.287     4.339117     4.339117     4.339117   -11974.287   -2067.5767   -21632.158   -12223.127   -14940.093    10710.943    21929.379    81.696618 
   60500    946.01262   -102.99098    0.8559721   -102.13501     2502.212    4.3309335    4.3309335    4.3309335     2502.212    14285.262   -20861.913    14083.287    18102.944    17762.028    17466.709    81.235256 
   60600    2691.0612   -104.55053    2.4349287   -102.11561    22541.923    4.3314813    4.3314813    4.3314813    22541.923   -8632.4616   -2916.9525    79175.182   -13259.532   -421.56688   -21260.751    81.266085 
   60700    1245.6615   -103.26486    1.1271007   -102.13776   -5242.0513     4.332864     4.332864     4.332864   -5242.0513   -1747.0786   -4693.9295   -9285.1459    3260.4902    20766.926    61648.968    81.343932 
   60800    2192.0758   -104.10907    1.9834363   -102.12563     13708.42    4.3306659    4.3306659    4.3306659     13708.42   -1563.9565    444.48247    42244.733    4225.1316    10753.739   -25046.433    81.220198 
   60900     1585.323   -103.56112    1.4344336   -102.12669   -9939.1471    4.3442651    4.3442651    4.3442651   -9939.1471   -38445.449    24102.141   -15474.133   -9232.3987   -28100.315    39727.763    81.987748 
   61000    1693.1049   -103.65567    1.5319569   -102.12371    3001.0521    4.3319756    4.3319756    4.3319756    3001.0521   -4425.0494    301.73828    13126.467    4987.1315     39872.15    20059.862    81.293907 
   61100    2130.8632   -104.04421    1.9280498   -102.11616    39234.763     4.321026     4.321026     4.321026    39234.763    8188.0094    63952.766    45563.514   -15307.035   -46981.547   -16646.811    80.679025 
   61200    1377.5681   -103.39406    1.2464526    -102.1476    3391.7421    4.3315649    4.3315649    4.3315649    3391.7421   -3890.3561    15247.884   -1182.3018     -405.262    37169.721    45953.883    81.270787 
   61300    2251.6721   -104.17256    2.0373602    -102.1352    15203.061    4.3510247    4.3510247    4.3510247    15203.061   -15501.413    34972.891    26137.706     13297.31   -13074.065   -28942.644    82.371057 
   61400    1684.5603   -103.65323    1.5242256     -102.129   -380.06787    4.3480929    4.3480929    4.3480929   -380.06787    8720.4014    5847.2574   -15707.862   -5324.7055    4980.0477    25511.558    82.204661 
   61500    1820.0542   -103.76283    1.6468233   -102.11601     15895.82     4.331622     4.331622     4.331622     15895.82    25439.464    5665.2007    16582.795     21170.56    22831.348    4020.3229    81.274004 
   61600    1981.0476   -103.91071    1.7924935   -102.11822    3997.0609    4.3292708    4.3292708    4.3292708    3997.0609   -18421.607    27874.346    2538.4433    5504.7072   -34234.019   -24276.194     81.14173 
   61700    1976.4534   -103.91295    1.7883365   -102.12462    10123.367    4.3284223    4.3284223    4.3284223    10123.367    2498.2194    30110.132   -2238.2489     9755.472    31837.709    48228.085    81.094027 
   61800    1324.8857   -103.34225    1.1987844   -102.14347   -7487.1238    4.3514201    4.3514201    4.3514201   -7487.1238   -6361.7146   -7612.9015   -8486.7553    12049.571   -25818.817   -53729.073     82.39352 
   61900    2219.4119   -104.11824    2.0081705   -102.11007   -17250.491    4.3582015    4.3582015    4.3582015   -17250.491   -56965.757    29848.297   -24634.012   -15349.391   -118.19258    32361.496    82.779331 
   62000    1750.5654   -103.69239    1.5839483   -102.10844   -7689.3447    4.3346988    4.3346988    4.3346988   -7689.3447    4023.9179   -35049.833    7957.8808     28052.21    -214.0085   -46196.205    81.447317 
   62100    1135.6458   -103.16082    1.0275562   -102.13327    7825.6708    4.3298725    4.3298725    4.3298725    7825.6708   -48380.818    2981.7917    68876.039   -11890.771   -24934.682   -6331.8969    81.175568 
   62200    2424.0727   -104.31838    2.1933519   -102.12503    9320.6948    4.3392583    4.3392583    4.3392583    9320.6948    33969.814    19684.653   -25692.383    2459.5369     703.8163   -21646.068    81.704598 
   62300    1355.9893    -103.3707    1.2269276   -102.14377   -33345.424    4.3553205    4.3553205    4.3553205   -33345.424   -33651.247   -63722.871   -2662.1534    24868.025   -3386.0482   -36498.135    82.615276 
   62400    2068.1312   -103.99677    1.8712886   -102.12549    8606.2873    4.3451948    4.3451948    4.3451948    8606.2873   -32611.694    54157.166    4273.3901   -15289.388    588.35955    17437.476    82.040398 
   62500    1771.0885   -103.73103    1.6025181   -102.12851     27076.96    4.3338391    4.3338391    4.3338391     27076.96    19089.572    48848.555    13292.753    20261.915     2181.447   -9399.9119    81.398865 
   62600    1764.6952   -103.72993    1.5967333   -102.13319   -5738.2972    4.3455168    4.3455168    4.3455168   -5738.2972    -6718.241    -22010.07     11513.42    20807.154    2429.2432    16177.019    82.058636 
   62700    1782.6502   -103.73341    1.6129794   -102.12043    -21055.98    4.3570842    4.3570842    4.3570842    -21055.98   -11845.989   -4511.5376   -46810.414   -16471.097    8155.4215    48624.692    82.715683 
   62800    2195.7587   -104.08484    1.9867686   -102.09807    12738.817    4.3489639    4.3489639    4.3489639    12738.817    12967.601    53378.324   -28129.474    36968.189   -6360.9701    2068.9266     82.25407 
   62900    918.31418   -102.95411   0.83090997    -102.1232   -21103.033    4.3426593    4.3426593    4.3426593   -21103.033    37084.867   -24041.509   -76352.457   -19523.415    16743.035    70635.563    81.896862 
   63000    2398.5658   -104.27531    2.1702728   -102.10504    4240.2948    4.3380856    4.3380856    4.3380856    4240.2948   -13157.848    30504.704   -4625.9718   -5606.8486    -1035.761   -38575.588    81.638374 
   63100    1974.1033   -103.90285    1.7862102   -102.11664   -6605.4811     4.347693     4.347693     4.347693   -6605.4811    60404.136   -30458.439    -49762.14   -3489.1922    1820.2333    53822.173    82.181982 
   63200    1432.3646   -103.41938    1.2960336   -102.12335   -6267.4595     4.346385     4.346385     4.346385   -6267.4595   -20511.151    39251.528   -37542.756   -8100.9384    10377.762   -42626.547    82.107829 
   63300    2212.0249   -104.10521    2.0014866   -102.10372    5622.5371    4.3474646    4.3474646    4.3474646    5622.5371    35192.265    30038.426    -48363.08    10914.984    31.694019    3496.4293    82.169029 
   63400    1488.7595   -103.44991    1.3470609   -102.10285   -9682.9695    4.3500087    4.3500087    4.3500087   -9682.9695   -25917.863     20590.17   -23721.216    2471.2985    8133.3983    -6656.319     82.31337 
   63500    1565.8337   -103.53039    1.4167992   -102.11359    -24614.57    4.3418866    4.3418866    4.3418866    -24614.57     22489.98   -26367.031   -69966.658   -11906.491   -16454.498   -55840.821    81.853158 
   63600    2769.7884   -104.60371    2.5061627   -102.09754    17186.692    4.3329068    4.3329068    4.3329068    17186.692    17634.442    30978.944    2946.6911    17138.748    2905.1122    40764.519    81.346345 
   63700    954.83706   -102.99865   0.86395663   -102.13469   -18010.538    4.3486437    4.3486437    4.3486437   -18010.538   -7409.5044   -19194.908   -27427.201   -33587.603   -10187.243   -78544.882    82.235904 
   63800    2536.7374    -104.3841    2.2952933   -102.08881   -7064.2258     4.361844     4.361844     4.361844   -7064.2258    12187.921   -12581.917   -20798.682    8742.2252    10512.912     46543.15     82.98706 
   63900    1374.7531   -103.32134    1.2439055   -102.07744    -14535.79     4.362757     4.362757     4.362757    -14535.79   -15546.667   -29100.872    1040.1702    -28789.73   -7204.7483   -65552.638    83.039186 
   64000    1667.4385   -103.57688    1.5087334   -102.06814   -3619.5209      4.34486      4.34486      4.34486   -3619.5209   -16996.243   -6469.9816    12607.662   -4776.3143   -203.61905    28822.795    82.021432 
   64100    1600.7104   -103.51804    1.4483564   -102.06969    38297.626    4.3269498    4.3269498    4.3269498    38297.626    43141.835    28887.424    42863.618   -13849.084   -1838.2451    -20819.78    81.011292 
   64200    1908.4592   -103.81629     1.726814   -102.08948   -15481.201    4.3527885    4.3527885    4.3527885   -15481.201    7398.1421    -45006.18   -8835.5654    -8465.676    2932.9832    7922.9429     82.47127 
   64300       1889.3   -103.78893    1.7094784   -102.07945   -12883.743    4.3506578    4.3506578    4.3506578   -12883.743    11527.126   -47142.813   -3035.5408    1948.1394    2506.5847    31098.688     82.35022 
   64400    1806.5974   -103.72045    1.6346473    -102.0858   -589.83105    4.3326709    4.3326709    4.3326709   -589.83105    18581.165   -63902.188     43551.53   -15401.908   -2945.1294   -64694.626    81.333061 
   64500    2013.1137   -103.90758    1.8215076   -102.08607    19941.456     4.327186     4.327186     4.327186    19941.456    20941.159    14429.148    24454.062    7626.0473    7839.9752    47330.695    81.024562 
   64600    1238.4377   -103.25005    1.1205645   -102.12948    4634.5989    4.3429053    4.3429053    4.3429053    4634.5989    9095.0972   -40310.238    45118.937   -1920.8066   -11425.327   -72188.227    81.910782 
   64700     2296.064   -104.17567     2.077527   -102.09815    462.79489    4.3590801    4.3590801    4.3590801    462.79489    -47095.45   -6871.3423    55355.177   -2182.0761     5005.923     45546.16    82.829407 
   64800    951.79474   -102.97824   0.86120388   -102.11704   -13433.446    4.3419536    4.3419536    4.3419536   -13433.446    62034.057   -72019.385    -30315.01   -1845.1627   -4645.7704   -87492.463    81.856948 
   64900    2927.2895   -104.72697    2.6486731    -102.0783    23849.347     4.336064     4.336064     4.336064    23849.347   -11272.499    8363.0962    74457.443    297.39606    8004.1475    16727.242    81.524297 
   65000    845.39707   -102.88075   0.76493304   -102.11582   -10934.474    4.3472016    4.3472016    4.3472016   -10934.474    48262.077   -73930.708   -7134.7915     1718.083    5274.1993   -76945.782    82.154117 
   65100     2228.563   -104.11732    2.0164506   -102.10087   -4934.1726     4.352809     4.352809     4.352809   -4934.1726   -19144.995    15344.569   -11002.092    1291.2911    2516.0467    16862.712    82.472435 
   65200    1653.7592   -103.60721     1.496356   -102.11085   -4036.5949    4.3474265    4.3474265    4.3474265   -4036.5949   -6185.0486    -19448.52    13523.784    1364.1012   -8618.2933   -82863.021    82.166869 
   65300    2063.0966   -103.97133    1.8667332    -102.1046   -22987.757     4.344654     4.344654     4.344654   -22987.757   -1932.6699   -32064.614   -34965.987   -4391.3275    5934.8075     2966.324    82.009767 
   65400     1532.455   -103.48563    1.3865975   -102.09903    14872.111    4.3448747    4.3448747    4.3448747    14872.111   -9034.6041    70288.818    -16637.88    953.35542    -10936.41   -35278.602     82.02227 
   65500    2052.3891   -103.94566    1.8570448   -102.08862   -34375.206    4.3598607    4.3598607    4.3598607   -34375.206   -3223.9064   -48555.819   -51345.892   -3226.6102   -5544.8515   -28912.725    82.873911 
   65600     1383.869    -103.3327    1.2521538   -102.08055    46095.391    4.3440517    4.3440517    4.3440517    46095.391    60876.851    90725.816   -13316.493   -12335.602   -7074.3644   -23200.407    81.975665 
   65700     1930.652   -103.81416    1.7468945   -102.06726    12570.732    4.3441599    4.3441599    4.3441599    12570.732    9893.6487    -4143.586    31962.134    10996.343   -14536.512   -34077.715    81.981793 
   65800    1778.0553   -103.67692    1.6088218    -102.0681    1298.9292    4.3526317    4.3526317    4.3526317    1298.9292    77675.796   -29797.387   -43981.622    8682.4373    11911.709   -23314.665    82.462363 
   65900    1923.9217   -103.81219    1.7408048   -102.07139    130.85448    4.3529521    4.3529521    4.3529521    130.85448    16487.827   -20689.318    4594.0547    -438.6383   -19373.955   -20047.869    82.480572 
   66000    1526.2966   -103.46029    1.3810252   -102.07926   -32989.426    4.3625684    4.3625684    4.3625684   -32989.426     21208.55   -63233.055   -56943.773    11599.744    36330.351    -44012.13    83.028415 
   66100     2217.622   -104.07173     2.006551   -102.06517   -6129.1916    4.3535628    4.3535628    4.3535628   -6129.1916    19577.707    -47610.08    9644.7989   -2933.1578   -9708.1317   -18442.624     82.51529 
   66200    1843.3387   -103.73914    1.6678916   -102.07124   -19167.061    4.3454447    4.3454447    4.3454447   -19167.061    23228.505   -50300.754   -30428.933    11365.618    6082.9751    -54221.35    82.054551 
   66300    1147.9379   -103.14054    1.0386783   -102.10186   -15118.619    4.3455041    4.3455041    4.3455041   -15118.619    16687.595   -73888.788    11845.336    6307.7469    3955.9067   -35335.443    82.057919 
   66400    2117.2083   -104.01459    1.9156945   -102.09889    4226.4854     4.344839     4.344839     4.344839    4226.4854    50707.061   -20614.923   -17412.682    -5423.399   -9892.3617   -4128.4747    82.020243 
   66500    1167.9694   -103.16957    1.0568032   -102.11276   -45229.699    4.3606607    4.3606607    4.3606607   -45229.699    10487.331   -66718.989    -79457.44    24160.739     31440.81   -56034.097     82.91954 
   66600    2004.7607   -103.88159    1.8139496   -102.06764   -1776.0189    4.3517121    4.3517121    4.3517121   -1776.0189    41186.575   -2312.4704   -44202.162   -1782.5113   -8513.1884    16079.162    82.410104 
   66700     1564.388   -103.49067    1.4154911   -102.07518   -37519.704    4.3441887    4.3441887    4.3441887   -37519.704   -8337.2896   -35512.664   -68709.159    11284.059    12135.518   -71223.905    81.983423 
   66800    1930.4361    -103.8273    1.7466991    -102.0806   -9136.7749    4.3426429    4.3426429    4.3426429   -9136.7749   -19393.774     13697.06   -21713.611    18247.546    25749.583    20715.557    81.895937 
   66900    1518.9767   -103.46578     1.374402   -102.09138    3398.9408     4.348119     4.348119     4.348119    3398.9408    53878.527   -14825.039   -28856.665    -9755.218   -2549.7059   -66190.311    82.206141 
   67000    2160.6449   -104.02833    1.9549969   -102.07333   -24969.174     4.362879     4.362879     4.362879   -24969.174   -48090.787   -16166.292   -10650.444    28165.661    23932.748    13748.859    83.046153 
   67100    1185.9813   -103.14206    1.0731008   -102.06896    15439.876    4.3575135    4.3575135    4.3575135    15439.876    37289.823    29039.576   -20009.771    5410.8286   -8171.4712   -60261.641    82.740133 
   67200    2405.4086   -104.23196    2.1764642   -102.05549    26766.077    4.3400941    4.3400941    4.3400941    26766.077    16240.812    29799.995    34257.423   -14024.144    24218.015    23194.086    81.751824 
   67300    1560.2048   -103.51008    1.4117061   -102.09838    -35025.34    4.3446729    4.3446729    4.3446729    -35025.34    37985.404   -70966.047   -72095.376    18767.912   -659.13277   -83914.204    82.010841 
   67400    2265.8306    -104.1397    2.0501712   -102.08953    27576.633     4.348227     4.348227     4.348227    27576.633    11837.676    81585.347   -10693.123   -20985.538    5841.0579    14124.034    82.212268 
   67500    1274.6664   -103.27148    1.1533449   -102.11813   -25778.477    4.3583509    4.3583509    4.3583509   -25778.477    24484.488   -67425.356   -34394.562    37122.231    5592.8181   -81091.753    82.787848 
   67600    2310.6821   -104.18594    2.0907538   -102.09518    21381.583    4.3498464    4.3498464    4.3498464    21381.583    18575.032    69984.917     -24415.2   -17543.024   -3102.1364    26398.419    82.304154 
   67700     1420.475   -103.38932    1.2852757   -102.10404    13965.602    4.3358398    4.3358398    4.3358398    13965.602    59713.705   -4658.5378   -13158.361    3274.3467    23787.637   -77745.756    81.511651 
   67800    2406.0621   -104.27417    2.1770555   -102.09711    18414.472    4.3453247    4.3453247    4.3453247    18414.472     33708.89    30226.728   -8692.2004    5833.9187   -1924.2083    18777.527    82.047756 
   67900     910.9228   -102.93528   0.82422209   -102.11105      21432.9    4.3500007    4.3500007    4.3500007      21432.9      19888.8    16029.962    28379.939   -6894.8215    13375.926   -54179.071    82.312914 
   68000    2506.2918   -104.36518    2.2677455   -102.09743   -14156.409    4.3527668    4.3527668    4.3527668   -14156.409   -23444.421   -6394.0322   -12630.773   -836.57177    1918.9773   -978.50816    82.470037 
   68100    1465.9723   -103.43145    1.3264425   -102.10501    17091.282     4.340246     4.340246     4.340246    17091.282    29598.747    13357.177    8317.9205   -1872.7349    2683.8135   -56392.723    81.760408 
   68200    1619.3017   -103.58061    1.4651782   -102.11543   -9746.9141    4.3421793    4.3421793    4.3421793   -9746.9141    8535.6112    -13287.86   -24488.493   -10391.225    5758.5728   -17988.586    81.869712 
   68300    2107.0178   -104.01031    1.9064739   -102.10383    14090.107     4.337866     4.337866     4.337866    14090.107     17660.05    51689.904   -27079.633    8007.7169   -13265.929   -37749.846    81.625975 
   68400    1463.8366   -103.45394    1.3245101   -102.12943    -35946.25    4.3436552    4.3436552    4.3436552    -35946.25    5769.5368   -59016.524   -54591.763    -13698.94    6758.9981   -50344.091    81.953221 
   68500     1932.768     -103.852    1.7488091    -102.1032    20047.493    4.3402645    4.3402645    4.3402645    20047.493   -8621.7085    59031.622    9732.5669    292.36384   -10357.685    3494.1321    81.761449 
   68600    1528.7978   -103.49581    1.3832884   -102.11252       -22028    4.3457098    4.3457098    4.3457098       -22028    29003.281   -48921.643   -46165.639    4691.4017     -19208.3   -53171.051    82.069573 
   68700    2278.5902   -104.14863    2.0617163   -102.08692   -8118.5278    4.3523989    4.3523989    4.3523989   -8118.5278   -21271.311    8814.4332   -11898.705   -11452.431   -4108.5077    33987.727    82.449127 
   68800     990.5426   -102.99107   0.89626376   -102.09481   -7751.7797    4.3468678    4.3468678    4.3468678   -7751.7797    10614.666   -6453.8639   -27416.142    27616.454   -4236.3223   -62781.679    82.135195 
   68900    2175.8808   -104.06087    1.9687827   -102.09209    640.88429    4.3382088    4.3382088    4.3382088    640.88429   -5695.0271      52774.3    -45156.62   -22879.485   -4763.4913    53180.831     81.64533 
   69000    1849.0344   -103.78586    1.6730452   -102.11281   -13610.254     4.336816     4.336816     4.336816   -13610.254    7453.3011   -27162.218   -21121.844    15409.589   -4432.3267    -63499.51    81.566717 
   69100    1412.8749   -103.40927    1.2783989   -102.13088   -5460.8705    4.3403593    4.3403593    4.3403593   -5460.8705    27265.733   -7345.3816   -36302.963    13168.758   -1963.8066    15807.886    81.766806 
   69200    2033.6399    -103.9683    1.8400801   -102.12822   -18472.738    4.3484798    4.3484798    4.3484798   -18472.738   -36078.532    40389.977   -59729.659   -26032.998   -12850.836    4135.5834    82.226609 
   69300    1516.9709    -103.5052    1.3725872   -102.13261   -38298.727    4.3516191    4.3516191    4.3516191   -38298.727   -5290.7378   -63526.554   -46078.891    26020.874    5125.7934   -45044.214     82.40482 
   69400    2417.5383   -104.29849    2.1874395   -102.11105    11995.846    4.3288755    4.3288755    4.3288755    11995.846   -14709.666    49821.151    876.05451   -27521.765   -26018.292    32486.264    81.119505 
   69500     999.6589   -103.04739   0.90451238   -102.14288   -5577.0483    4.3295519    4.3295519    4.3295519   -5577.0483   -14503.288    23381.591   -25609.448   -5669.7218    6378.7478   -49182.723    81.157538 
   69600    2447.5876   -104.34617    2.2146287   -102.13154   -10741.877    4.3476349    4.3476349    4.3476349   -10741.877   -26590.683    9505.2663   -15140.213    17981.163   -21748.887    141.54298    82.178685 
   69700    1595.3272   -103.57805    1.4434856   -102.13457   -29270.874    4.3636298    4.3636298    4.3636298   -29270.874   -13113.942    -52165.08     -22533.6   -24739.145    -12600.82   -29770.469     83.08903 
   69800    1978.7174   -103.90466    1.7903851   -102.11428   -29523.231    4.3554192    4.3554192    4.3554192   -29523.231   -33028.164   -24436.104   -31105.425    6910.9017    3227.4446   -29478.878    82.620894 
   69900    1612.2441   -103.57102    1.4587924   -102.11223     41993.98    4.3208661    4.3208661    4.3208661     41993.98    261.08162    57819.492    67901.366   -4097.6088   -29945.969    13522.924    80.670066 
   70000    1661.4674   -103.63382    1.5033306   -102.13049    28071.911    4.3167608    4.3167608    4.3167608    28071.911    23204.005      31508.3    29503.427   -21088.727     6611.296   -60609.947    80.440348 
   70100    2349.0846   -104.27536    2.1255011   -102.14985   -27108.738    4.3432739    4.3432739    4.3432739   -27108.738   -32078.075   -11556.019   -37692.122    3448.5322   -10324.743     48559.97     81.93164 
   70200    1432.6418   -103.43326    1.2962844   -102.13698   -23740.949    4.3597973    4.3597973    4.3597973   -23740.949   -48515.474   -22765.288    57.914306    -12448.79   -343.76604   -30363.792    82.870296 
   70300    1816.1379   -103.75702    1.6432797   -102.11374    -9222.971    4.3522248    4.3522248    4.3522248    -9222.971   -8893.3709   -44919.588    26144.046   -4047.6295   -6476.3009    30723.228    82.439234 
   70400    1643.9194   -103.60608    1.4874528   -102.11863   -5911.9887    4.3233005    4.3233005    4.3233005   -5911.9887   -26207.572   -1293.3566    9764.9623   -7031.8332   -27890.091    17599.051    80.806493 
   70500    2312.0698   -104.20366    2.0920094   -102.11166    10896.156    4.3149637    4.3149637    4.3149637    10896.156   -22728.249    191.14349    55225.575   -15792.281    10445.701    -13883.43    80.339927 
   70600    1258.6353   -103.27562    1.1388396   -102.13678    13138.395    4.3334677    4.3334677    4.3334677    13138.395   -28570.755    13560.325    54425.614    17086.363   -23843.649    51017.005    81.377939 
   70700    2040.7123   -103.97621    1.8464794   -102.12973    -12756.71    4.3521839    4.3521839    4.3521839    -12756.71    -51733.71   -1449.3828    14912.962   -16818.262    20915.665   -12682.156    82.436912 
   70800      1585.62   -103.55336    1.4347023   -102.11865   -11362.042    4.3479436    4.3479436    4.3479436   -11362.042   -30083.972   -11656.242    7654.0889    33243.669   -15264.413    34008.404    82.196192 
   70900    1444.8422   -103.42456    1.3073236   -102.11723    619.32312    4.3312363    4.3312363    4.3312363    619.32312   -49799.882    60424.332   -8766.4805   -11045.157    23033.356    15142.017    81.252297 
   71000    2506.3902   -104.37704    2.2678345   -102.10921   -816.12944    4.3244985    4.3244985    4.3244985   -816.12944   -11091.512   -14060.929    22704.052    36872.149    10070.037   -2388.7047    80.873688 
   71100    885.90173    -102.9397    0.8015825   -102.13812   -15990.431    4.3370442    4.3370442    4.3370442   -15990.431   -1912.1791   -33928.265    -12130.85    5170.7845    5577.7397    36825.418    81.579596 
   71200    2577.3576   -104.44351    2.3320474   -102.11146   -14969.318     4.339999     4.339999     4.339999   -14969.318   -55531.467    5239.9976    5383.5164   -20124.137    14039.842   -14616.777    81.746448 
   71300    1299.6331   -103.29123    1.1759353    -102.1153    5401.2538    4.3413693    4.3413693    4.3413693    5401.2538    17125.563   -30996.481     30074.68     18207.28   -7594.7521    4460.2803    81.823902 
   71400    2101.9954   -103.99508    1.9019296   -102.09315   -28353.561    4.3544981    4.3544981    4.3544981   -28353.561   -47544.135   -15564.958   -21951.592   -55747.523    8241.0184   -26.279132    82.568485 
   71500    2207.7313    -104.0695    1.9976017    -102.0719   -5789.5881    4.3481645    4.3481645    4.3481645   -5789.5881   -31530.725    1241.3616      12920.6    6894.3045   -11305.589   -9890.3602     82.20872 
   71600    1411.2888   -103.36189    1.2769637   -102.08492   -24344.003    4.3447346    4.3447346    4.3447346   -24344.003    -32288.68   -39091.426   -1651.9022   -44344.627    6252.9594    10801.571    82.014334 
   71700    2712.8328   -104.50655    2.4546281   -102.05192   -2758.1464    4.3602788    4.3602788    4.3602788   -2758.1464   -20596.177   -8828.1934    21149.931    22806.066   -14965.314   -5333.0444    82.897757 
   71800    1377.0618   -103.27532    1.2459944   -102.02932   -62000.961    4.3850529    4.3850529    4.3850529   -62000.961   -64426.734   -69793.399   -51782.748   -26340.445    1890.3512    8307.2081     84.31882 
   71900    2366.3367   -104.15411    2.1411111     -102.013   -31901.417    4.3622445    4.3622445    4.3622445   -31901.417   -61748.196   -27145.097   -6810.9593    42798.628   -11781.811   -11679.012    83.009921 
   72000    2267.8592   -104.08841    2.0520067   -102.03641    11479.109    4.3204628    4.3204628    4.3204628    11479.109    19485.528    26394.436   -11442.638    2464.1712    489.99958     19153.49    80.647484 
   72100    1350.3845   -103.31095    1.2218563   -102.08909     23147.25    4.3128816    4.3128816    4.3128816     23147.25    10108.206    -5352.811    64686.354    27976.795   -5235.9923   -14996.293    80.223687 
   72200    2097.7131   -104.03085    1.8980549   -102.13279    10232.937    4.3428155    4.3428155    4.3428155    10232.937    29703.397    6241.4607   -5246.0466    25940.601   -5292.7185    17910.987    81.905701 
   72300    1611.3813   -103.58956    1.4580116   -102.13155   -10572.726    4.3688743    4.3688743    4.3688743   -10572.726   -30582.337   -13535.828    12399.986    25600.094    22435.816   -9658.4002    83.388976 
   72400    1580.3018   -103.52708    1.4298903   -102.09719   -2423.5659    4.3605156    4.3605156    4.3605156   -2423.5659   -28481.435   -45637.974    66848.711    627.33076    4638.5154    2003.7425    82.911262 
   72500    1977.3843   -103.85513    1.7891789   -102.06596    -5984.352    4.3435866    4.3435866    4.3435866    -5984.352   -25244.584   -776.56897    8068.0971    16773.607    22247.879    1576.0652    81.949338 
   72600    1152.8537   -103.14644    1.0431263   -102.10332   -18477.006    4.3247788    4.3247788    4.3247788   -18477.006   -37329.438   -78881.383    60779.803    42055.195    18230.233   -12802.439    80.889418 
   72700    2383.1581   -104.26409    2.1563315   -102.10776    28662.565    4.3270305    4.3270305    4.3270305    28662.565    3094.6917    19630.579    63262.423   -20814.528   -19265.312    18192.432    81.015829 
   72800    1305.1899   -103.31664    1.1809632   -102.13568   -22337.006    4.3543704    4.3543704    4.3543704   -22337.006   -20497.454    -75481.31    28967.746    60832.421   -5504.6689   -14602.199     82.56122 
   72900    2376.2716   -104.23914    2.1501005   -102.08904   -3499.4574    4.3616936    4.3616936    4.3616936   -3499.4574    24905.258   -33217.211   -2186.4192    -30291.68    -14438.06    14511.396    82.978478 
   73000    890.69218   -102.89632     0.805917    -102.0904      16424.7    4.3445548    4.3445548    4.3445548      16424.7      25361.3   -11618.385    35531.184    60615.855   -19830.165    11013.179    82.004151 
   73100    2700.9983   -104.50502      2.44392    -102.0611     20923.27    4.3414233    4.3414233    4.3414233     20923.27    58812.712   -4190.7782     8147.877    -12325.67    13390.192   -3338.8928    81.826957 
   73200    1213.2273   -103.19326    1.0977535   -102.09551   -7416.0052    4.3411165    4.3411165    4.3411165   -7416.0052    21089.021   -61011.464    17674.427    67044.291   -20780.638     22448.83    81.809612 
   73300    2410.6953   -104.27228    2.1812478   -102.09103    6506.3212    4.3503078    4.3503078    4.3503078    6506.3212    11760.358    13457.592   -5698.9859   -14857.316    20631.551   -6657.0215    82.330349 
   73400    1200.5652   -103.18992    1.0862966   -102.10363     -28787.1    4.3593919    4.3593919    4.3593919     -28787.1    9709.6595    -91224.69   -4846.2688    13820.522   -16778.383    19227.124    82.847183 
   73500    1876.4127   -103.79714    1.6978176   -102.09933    3268.2598    4.3400224    4.3400224    4.3400224    3268.2598    11317.813   -14884.229    13371.196    29708.596   -32219.146   -2344.7169    81.747767 
   73600    1952.1911   -103.87335    1.7663836   -102.10697    27893.302    4.3232541    4.3232541    4.3232541    27893.302    35592.574   -694.32911    48781.662   -19282.187     18413.99    9672.2741    80.803895 
   73700     1531.557   -103.51954     1.385785   -102.13376   -12891.415    4.3412209    4.3412209    4.3412209   -12891.415   -17527.778   -30495.256    9348.7903    39871.196   -40700.915    4879.4644     81.81551 
   73800    1985.9648   -103.90675    1.7969427   -102.10981    12975.045    4.3502801    4.3502801    4.3502801    12975.045    6012.2633    20915.043    11997.829     -5839.06   -2748.9173   -12755.717    82.328778 
   73900    1544.7569   -103.51372    1.3977285   -102.11599    11805.971     4.348137     4.348137     4.348137    11805.971   -633.09847    8029.1098    28021.901    16347.077     -18906.7    15414.825    82.207162 
   74000    1832.3527   -103.77835    1.6579513    -102.1204   -4400.4561    4.3406014    4.3406014    4.3406014   -4400.4561    37961.558   -6278.9695   -44883.957    11407.701   -31886.247   -35638.735    81.780491 
   74100    1768.8749   -103.71181    1.6005152    -102.1113    39690.382    4.3319328    4.3319328    4.3319328    39690.382    19276.037    19409.613    80385.494   -3317.2854    5617.7887    22578.439    81.291499 
   74200    1804.3401   -103.74471    1.6326048   -102.11211   -35161.749    4.3522326    4.3522326    4.3522326   -35161.749   -10956.244   -44655.969   -49873.033    14969.483   -22141.247   -52098.544     82.43968 
   74300    1847.3278   -103.76312     1.671501   -102.09162    5724.4428    4.3549045    4.3549045    4.3549045    5724.4428    56359.694    -34772.12   -4414.2449   -22366.928    -29.67515   -21545.255    82.591604 
   74400    1778.0902   -103.69748    1.6088534   -102.08863   -32891.084    4.3620177    4.3620177    4.3620177   -32891.084    27576.318   -70265.224   -55984.345   -6849.6209    6893.1461   -35997.557    82.996974 
   74500    1783.9964   -103.69929    1.6141974   -102.08509   -426.75783    4.3423413    4.3423413    4.3423413   -426.75783    68012.251   -6168.2542    -63124.27   -1366.8198   -11452.585   -54723.202    81.878877 
   74600    1851.1828   -103.75204    1.6749891   -102.07705    14954.785    4.3389308    4.3389308    4.3389308    14954.785    5223.0448     57954.56    -18313.25   -17022.434    4961.3337   -23589.108    81.686099 
   74700    926.52519   -102.94568   0.83833946   -102.10734   -17256.874    4.3523757    4.3523757    4.3523757   -17256.874   -20009.773    55814.188   -87575.038   -2031.3997   -20194.141   -55948.968    82.447809 
   74800    2580.7548   -104.41113    2.3351211   -102.07601    15591.534    4.3455548    4.3455548    4.3455548    15591.534    11981.212    13924.044    20869.347     -3152.42    13991.823    19477.396    82.060789 
   74900     1350.335   -103.32839    1.2218115   -102.10658    -41203.76    4.3558914    4.3558914    4.3558914    -41203.76   -30412.295   -46587.356    -46611.63   -3559.3444   -23624.378    -83314.96    82.647768 
   75000    2411.7303   -104.26994    2.1821842   -102.08775    14993.427     4.348164     4.348164     4.348164    14993.427   -25042.851    51968.435    18054.698   -1081.0989   -1660.1397    63457.443    82.208695 
   75100    1250.6606   -103.24106     1.131624   -102.10944    22359.257     4.339284     4.339284     4.339284    22359.257    38637.396    49416.896   -20976.521   -2528.0004   -5309.8089   -58293.934    81.706053 
   75200    2319.5339   -104.19138     2.098763   -102.09261    2168.4801      4.34833      4.34833      4.34833    2168.4801    18336.551    -6726.084   -5105.0266    -1337.186     737.4443    15819.847    82.218112 
   75300    1250.1446   -103.23533    1.1311571   -102.10417   -7543.2574    4.3560433    4.3560433    4.3560433   -7543.2574    57320.003   -45141.701   -34808.074    11856.961    4963.8346   -12369.267    82.656415 
   75400    2184.0256   -104.05499    1.9761522   -102.07883   -2167.8407    4.3593649    4.3593649    4.3593649   -2167.8407   -29391.194    40973.038   -18085.366    -6322.262   -4060.5366   -18487.025    82.845643 
   75500    1306.8597   -103.26797    1.1824741    -102.0855    3767.5348    4.3530014    4.3530014    4.3530014    3767.5348    5357.6906    22078.988   -16134.074    11169.232    6277.7498     47562.87    82.483373 
   75600    1891.3481   -103.79484    1.7113315   -102.08351    7511.6615    4.3485381    4.3485381    4.3485381    7511.6615    38260.788    -39910.77    24184.967    2828.2843   -14672.052   -57387.391    82.229917 
   75700    1921.7304   -103.82038     1.738822   -102.08156     11571.98    4.3519659    4.3519659    4.3519659     11571.98    48723.068   -37101.234    23094.107    2867.0868     6038.755    35965.534    82.424526 
   75800    1684.6639   -103.60695    1.5243193   -102.08263   -21000.261    4.3600239    4.3600239    4.3600239   -21000.261    53297.964   -82132.893   -34165.854    12769.535    1504.9592   -79427.231    82.883217 
   75900    2437.8338   -104.25433    2.2058033   -102.04853   -3056.9241    4.3603344    4.3603344    4.3603344   -3056.9241    30658.066   -28147.543   -11681.296    18484.564    12518.482    18726.042    82.900926 
   76000    1187.8339   -103.15473     1.074777   -102.07995   -17809.131     4.342278     4.342278     4.342278   -17809.131    83116.556   -67471.385   -69072.566    19381.422   -4102.4171    -60674.06    81.875292 
   76100    2154.6715   -104.01473     1.949592   -102.06514     52874.65    4.3356712    4.3356712    4.3356712     52874.65    67588.865    29654.884      61380.2    19688.113   -6073.1455    18842.814    81.502139 
   76200    1015.7166    -103.0212   0.91904169   -102.10216   -18256.054    4.3491886    4.3491886    4.3491886   -18256.054    97571.197    -67068.92   -85270.438    15790.145   -11664.117   -59524.978     82.26682 
   76300    2340.5469    -104.1775    2.1177761   -102.05973    4252.4554    4.3531692    4.3531692    4.3531692    4252.4554     18312.52   -12831.305    7276.1511    14666.683    6817.5858    27798.634    82.492916 
   76400    943.31696   -102.93671   0.85353301   -102.08318   -23458.466    4.3466423    4.3466423    4.3466423   -23458.466    78456.788   -65906.829   -82925.355    9792.7956   -10000.417   -81523.058    82.122414 
   76500    2985.3556   -104.75355    2.7012125   -102.05234    20904.398    4.3364098    4.3364098    4.3364098    20904.398    35239.476    6034.4289    21439.289    13490.829    23896.177    26891.874    81.543798 
   76600    1012.6866   -103.01681   0.91630015   -102.10051   -25395.512     4.353596     4.353596     4.353596   -25395.512    20556.946    -47063.83   -49679.651   -6462.0958       -10976   -83220.098    82.517179 
   76700    3031.0045   -104.80346    2.7425166   -102.06095     -12640.3    4.3650609    4.3650609    4.3650609     -12640.3   -12295.879   -18777.946   -6847.0737    16004.318    10821.007    16954.833     83.17081 
   76800    1173.1594   -103.15841    1.0614993   -102.09691   -3547.8266    4.3392435    4.3392435    4.3392435   -3547.8266    32423.825    -20271.13   -22796.175   -21347.949    1162.9836   -81189.502    81.703763 
   76900    2188.0173   -104.04813     1.979764   -102.06837    59792.625    4.3293155    4.3293155    4.3293155    59792.625    156086.32    12909.465     10382.09    14901.322   -8385.2692    20750.118    81.144239 
   77000    1439.4436   -103.40179    1.3024388   -102.09936    -4602.285    4.3376963    4.3376963    4.3376963    -4602.285    84376.694    -51827.34   -46356.209   -6783.9817     11764.99   -53249.708    81.616396 
   77100    2131.3497    -104.0227      1.92849   -102.09421    21386.449    4.3478222    4.3478222    4.3478222    21386.449     82421.14    4279.2861   -22541.078   -5573.4728   -21488.819    8011.2399    82.189306 
   77200    1414.6125   -103.38978    1.2799711   -102.10981   -31279.338     4.355503     4.355503     4.355503   -31279.338    69664.041   -84547.485   -78954.571   -213.47597   -702.71465   -45611.688    82.625661 
   77300    2106.3368   -103.99286    1.9058578   -102.08701    20669.835    4.3391146    4.3391146    4.3391146    20669.835    77899.474   -15137.632   -752.33624   -10867.776    10983.257    13453.126    81.696481 
   77400    1517.8943   -103.48115    1.3734226   -102.10773   -30168.523    4.3417249    4.3417249    4.3417249   -30168.523    61224.864   -62409.931   -89320.502    1631.0575   -4967.1892   -63038.812    81.844013 
   77500    2277.9364   -104.14542    2.0611247    -102.0843    27149.952    4.3317416    4.3317416    4.3317416    27149.952    73781.655   -19973.214    27641.414    20265.895    4657.5432     10630.53    81.280736 
   77600    1125.0237   -103.14278    1.0179451   -102.12483   -12433.002    4.3380354    4.3380354    4.3380354   -12433.002    74798.209   -52819.225   -59277.991   -10081.218    4265.4605   -61379.454    81.635543 
   77700    2413.3121   -104.27502    2.1836155    -102.0914    25045.606    4.3486634    4.3486634    4.3486634    25045.606    74577.722   -16978.671    17537.765    16780.726   -8302.4806    10745.417    82.237021 
   77800    855.97749   -102.90123   0.77450643   -102.12672   -20040.783    4.3557306    4.3557306    4.3557306   -20040.783    20817.278   -57498.374   -23441.252     2938.623     21028.45   -57866.581    82.638613 
   77900    2571.6221   -104.41596    2.3268577   -102.08911   -3295.4876    4.3491682    4.3491682    4.3491682   -3295.4876    18573.523   -30477.487    2017.5011    -3717.218     29213.22    10916.689    82.265668 
   78000    1180.3807   -103.16889    1.0680333   -102.10086    10578.838    4.3334601    4.3334601    4.3334601    10578.838    62604.614   -47025.138    16157.037     9679.819   -13087.597   -58244.943    81.377513 
   78100    2056.4846   -103.96236    1.8607505   -102.10161   -15369.622    4.3445134    4.3445134    4.3445134   -15369.622   -1161.9969     -25502.3   -19444.569   -22129.781    58026.222    16211.749    82.001809 
   78200    1502.3138   -103.46288    1.3593251   -102.10356   -15710.108     4.350198     4.350198     4.350198   -15710.108    20534.978   -84367.949    16702.648   -7351.6897   -23472.001   -47713.449    82.324117 
   78300    1973.0787   -103.87664    1.7852831   -102.09136   -28330.424    4.3538553    4.3538553    4.3538553   -28330.424   -43693.181    252.64514   -41550.736    -6830.353    25382.278    6478.3334    82.531927 
   78400    1524.2174   -103.47204    1.3791439    -102.0929   -16053.881    4.3427212    4.3427212    4.3427212   -16053.881    35.561717   -70970.156    22772.951   -25277.229    20216.489   -21608.604    81.900368 
   78500    2035.4128   -103.94227    1.8416843   -102.10059    13409.818    4.3358764    4.3358764    4.3358764    13409.818    41309.533    17486.435   -18566.515    7891.8732   -22723.394   -3936.3749    81.513712 
   78600    1713.4335   -103.66462    1.5503507   -102.11427     10409.46    4.3421039    4.3421039    4.3421039     10409.46     10663.24   -20980.006    41545.145   -9476.3326    31915.305   -21853.404    81.865444 
   78700    1698.0463   -103.64741     1.536428   -102.11098   -13119.288    4.3613937    4.3613937    4.3613937   -13119.288    13663.021   -31817.526    -21203.36    8166.1921   -38701.201   -12827.901    82.961365 
   78800    1846.7101   -103.76516    1.6709421   -102.09422   -25860.401    4.3488936    4.3488936    4.3488936   -25860.401   -2369.0256   -32843.704   -42368.474   -9900.3545   -9912.7519   -11769.469    82.250083 
   78900    1715.4216   -103.63036    1.5521496   -102.07821    26951.775    4.3306668    4.3306668    4.3306668    26951.775    70207.365   -9899.0972    20547.057    3730.6095   -1167.1969   -30086.566     81.22025 
   79000    1656.1071   -103.58657    1.4984805   -102.08809   -17296.474    4.3451774    4.3451774    4.3451774   -17296.474    12011.771   -13462.729   -50438.463    21645.262   -30627.818   -6213.7853    82.039413 
   79100    1764.2391   -103.69195    1.5963206   -102.09563   -37927.896    4.3474855    4.3474855    4.3474855   -37927.896    36726.793   -87594.652   -62915.829   -25771.043    14560.147   -64414.444    82.170216 
   79200    2204.2444   -104.09168    1.9944466   -102.09723   -2217.9084    4.3503631    4.3503631    4.3503631   -2217.9084    18284.589    22781.143   -47719.457   -7584.6089    -45486.27     17484.48    82.333487 
   79300    1289.3592   -103.27445    1.1666393   -102.10781   -30054.273    4.3478636    4.3478636    4.3478636   -30054.273    37052.703   -59897.408   -67318.114    7585.8722   -888.61906   -80690.095    82.191654 
   79400    2367.4859   -104.22711     2.142151   -102.08496    4920.7228    4.3397374    4.3397374    4.3397374    4920.7228    48121.038   -25960.649   -7398.2213   -30958.386   -23561.206    30076.946    81.731667 
   79500    1473.7266   -103.44266    1.3334588    -102.1092   -32052.061    4.3572473    4.3572473    4.3572473   -32052.061    19046.795   -32357.178   -82845.802    1235.6174   -20264.785   -69110.931     82.72497 
   79600    2094.8494   -103.97731    1.8954637   -102.08184    -24688.07    4.3620975    4.3620975    4.3620975    -24688.07     -21571.7   -61526.861    9034.3501   -20701.651    26189.023    16415.484    83.001534 
   79700    1631.2674   -103.55829     1.476005   -102.08228    -22179.57    4.3438482    4.3438482    4.3438482    -22179.57    14653.286   -22568.366   -58623.631    -4785.608   -25584.651   -43423.538    81.964145 
   79800    1897.5251   -103.79869    1.7169205   -102.08177    7581.9794     4.338709     4.338709     4.338709    7581.9794    7471.8397   -40819.431    56093.529    20765.472    7638.9666    1744.3706    81.673574 
   79900    1729.4537    -103.6685     1.564846   -102.10366   -9796.5426    4.3459528    4.3459528    4.3459528   -9796.5426    -13193.37   -34143.911    17947.653   -15113.555   -1535.0154    -12904.31    82.083338 
   80000      2147.19   -104.04213    1.9428226   -102.09931    -17485.84    4.3616594    4.3616594    4.3616594    -17485.84   -46400.715   -36351.056    30294.251    48555.782    6314.0886    5227.8724    82.976526 
   80100    1624.6715   -103.55221    1.4700369   -102.08217   -36081.114    4.3685837    4.3685837    4.3685837   -36081.114   -71671.074   -50146.899    13574.631   -1605.2258    14261.503    6362.2816     83.37234 
   80200    1972.0877   -103.84717    1.7843864   -102.06278    11143.013    4.3549257    4.3549257    4.3549257    11143.013     -19075.7    37370.709    15134.031     16506.92    2879.0464    3325.4745    82.592813 
   80300    1492.0026   -103.41557    1.3499953   -102.06558    16677.962    4.3389572    4.3389572    4.3389572    16677.962   -41995.135     52712.23     39316.79    20898.626     11251.76    20917.463    81.687593 
   80400    1804.6766   -103.71282    1.6329093   -102.07991    35772.149    4.3438251    4.3438251    4.3438251    35772.149     71079.64    49763.766    -13526.96   -28777.884    12638.794    2644.9559    81.962841 
   80500    1209.5991   -103.19869    1.0944707   -102.10421   -23973.488    4.3633435    4.3633435    4.3633435   -23973.488   -43418.104   -27182.011   -1320.3497    39626.891   -5222.6565    9559.6555    83.072678 
   80600    2344.4981   -104.19869    2.1213512   -102.07734   -18623.216    4.3651869    4.3651869    4.3651869   -18623.216   -15111.106    2298.5578   -43057.099   -39981.036    15883.137    6853.1724    83.178013 
   80700    1381.3438    -103.3351    1.2498689   -102.08524   -9697.6178    4.3485839    4.3485839    4.3485839   -9697.6178   -57232.278     14872.41    13267.015    58520.653   -29111.253   -2903.8369    82.232512 
   80800    1865.3947   -103.77704    1.6878484   -102.08919    6787.7648     4.342165     4.342165     4.342165    6787.7648    35148.475   -46766.924    31981.743   -25200.531    27102.074    7483.2253    81.868901 
   80900    1732.7355   -103.66778    1.5678155   -102.09996    22734.452    4.3394255    4.3394255    4.3394255    22734.452    19165.318    33595.808    15442.231    20614.367   -25724.532   -15185.237    81.714047 
   81000    1732.0884   -103.68732      1.56723   -102.12009   -17445.427    4.3510629    4.3510629    4.3510629   -17445.427    4751.5613   -59268.116    2180.2747    14113.976   -6628.5611    13252.485    82.373227 
   81100    2447.3432   -104.31532    2.2144075   -102.10092   -11471.759    4.3517613    4.3517613    4.3517613   -11471.759    11860.222    -5059.599   -41215.899   -12703.343   -11692.311    -14149.04    82.412898 
   81200    1166.3534    -103.1722    1.0553411   -102.11685    16102.883     4.335536     4.335536     4.335536    16102.883    13895.356    22856.368    11556.924    57839.903   -17307.408   -1567.8321    81.494515 
   81300    2481.5814   -104.33489     2.245387   -102.08951     18662.74    4.3517799    4.3517799    4.3517799     18662.74    19860.794    71031.916   -34904.491   -11320.694   -1881.6126   -1989.5277    82.413957 
   81400    859.64363   -102.89012   0.77782362    -102.1123   -13360.607    4.3559532    4.3559532    4.3559532   -13360.607    -39675.95     57699.46   -58105.329    39922.378   -30708.182   -29827.224    82.651283 
   81500    2077.9904   -103.96224    1.8802093   -102.08203    52673.762    4.3470073    4.3470073    4.3470073    52673.762    162936.85     92.39883   -5007.9611    10851.379    7513.6018    7204.7401    82.143103 
   81600    1682.1209   -103.62023    1.5220183   -102.09821   -24393.432    4.3501067    4.3501067    4.3501067   -24393.432   -44388.221   -3348.1686   -25443.906    13828.037   -24736.758   -20248.905     82.31893 
   81700    1807.0897   -103.71988    1.6350927   -102.08479    46624.768    4.3388004    4.3388004    4.3388004    46624.768    141032.15   -30983.104    29825.261    25491.872    5353.8584    2776.1769    81.678735 
   81800    1793.0934   -103.72609    1.6224286   -102.10366   -39298.411    4.3441346    4.3441346    4.3441346   -39298.411   -23613.124   -50527.999    -43754.11   -48314.819   -18948.375   -9733.6421    81.980361 
   81900    1847.0023   -103.77812    1.6712065   -102.10691    23213.341     4.331108     4.331108     4.331108    23213.341    102574.58   -16623.847   -16310.709    20868.665   -17527.781   -5353.1894    81.245073 
   82000    1785.5815   -103.74198    1.6156317   -102.12635   -12502.004    4.3362809    4.3362809    4.3362809   -12502.004   -18504.102   -42806.209    23804.299   -49710.343    -2733.286    740.15164     81.53653 
   82100    1997.4755   -103.91217    1.8073579   -102.10481   -26584.863    4.3539143    4.3539143    4.3539143   -26584.863    24387.345   -33270.884   -70871.051     18576.75   -31809.609   -31375.955    82.535278 
   82200    1898.9628   -103.80879    1.7182215   -102.09057    7588.5536    4.3468167    4.3468167    4.3468167    7588.5536   -10101.931    31179.603     1687.989   -47104.997    12014.035    21258.318      82.1323 
   82300    1545.4502   -103.49709    1.3983559   -102.09874   -17992.892    4.3502634    4.3502634    4.3502634   -17992.892      576.771    13279.273   -67834.721   -2938.3354   -29349.582   -21095.568     82.32783 
   82400    1935.3771   -103.85119    1.7511699   -102.10002   -11531.724    4.3317948    4.3317948    4.3317948   -11531.724   -1213.0936   -23216.881   -10165.197   -23543.006    3370.3009   -2944.9552    81.283729 
   82500    1715.3986   -103.67095    1.5521287   -102.11882    9563.0071    4.3264232    4.3264232    4.3264232    9563.0071    2354.7491     12378.29    13955.983   -26983.367   -3507.0815    19463.162    80.981723 
   82600    1768.1048   -103.72377    1.5998183   -102.12395   -16252.719    4.3473236    4.3473236    4.3473236   -16252.719   -8742.9317   -2441.9182   -37573.307    8788.3642   -22122.365   -32470.117    82.161037 
   82700    1880.4188   -103.81013    1.7014424   -102.10868   -5995.9568    4.3502948    4.3502948    4.3502948   -5995.9568   -11702.085   -7032.6011    746.81602   -46136.869      14938.1    33125.624    82.329609 
   82800    1642.2774   -103.58921    1.4859671   -102.10324    -9576.984    4.3544017    4.3544017    4.3544017    -9576.984   -39953.763    1687.1676    9535.6436    22175.348   -12001.431   -6552.9336       82.563 
   82900    2310.5314   -104.18824    2.0906174   -102.09763   -12546.274    4.3364493    4.3364493    4.3364493   -12546.274   -179.54638   -28557.265   -8902.0095   -21337.754    17496.581    6530.6281    81.546031 
   83000    1202.4139    -103.1989    1.0879693   -102.11093    36207.226    4.3289618    4.3289618    4.3289618    36207.226    53097.499    24.397178    55499.782   -4479.5725   -13147.182    42849.665    81.124357 
   83100    2146.4675   -104.05799    1.9421689   -102.11582    -25970.37    4.3486596    4.3486596    4.3486596    -25970.37   -44059.491   -22792.413   -11059.208    23239.593    6340.2515   -7901.0736    82.236809 
   83200    1571.7476   -103.54237    1.4221503   -102.12022   -14753.581    4.3477108    4.3477108    4.3477108   -14753.581    30537.477    -63203.52   -11594.701   -30241.843    3501.5446    64257.225    82.182994 
   83300    1995.3065   -103.90146    1.8053953   -102.09606   -880.27275    4.3470974    4.3470974    4.3470974   -880.27275   -17130.812    11291.147    3198.8462    16935.432   -28020.303   -10919.278    82.148209 
   83400    1112.8243   -103.12204    1.0069068   -102.11513   -20136.152    4.3335513    4.3335513    4.3335513   -20136.152    52028.129   -66757.672   -45678.914     22536.28    11192.323    86003.827    81.382648 
   83500    2582.9058   -104.43228    2.3370675   -102.09521     6586.956    4.3247913    4.3247913    4.3247913     6586.956   -21479.204    19527.454    21712.618   -7420.6844   -20423.187   -35251.158     80.89012 
   83600    1402.9742   -103.39392    1.2694406   -102.12448   -32707.453    4.3469173    4.3469173    4.3469173   -32707.453    14670.689   -39941.459    -72851.59    7631.2347    1006.1635    76031.192       82.138 
   83700    1748.6518   -103.67709    1.5822169   -102.09488    20032.412    4.3513444    4.3513444    4.3513444    20032.412    361.56196    -31523.27    91258.945     28077.81    1169.9776   -15004.783    82.389215 
   83800    1897.1326   -103.80865    1.7165655   -102.09209   -48119.775    4.3555726    4.3555726    4.3555726   -48119.775   -11792.867   -59284.953   -73281.506   -14727.317   -12640.574    11288.031    82.629622 
   83900    1729.4852   -103.65552    1.5648746   -102.09065    6062.3786    4.3487877    4.3487877    4.3487877    6062.3786   -23546.732   -27461.029    69194.897    32712.228      12090.1    30518.832    82.244077 
   84000    2047.9114   -103.94537    1.8529933   -102.09238    6659.1936    4.3347711    4.3347711    4.3347711    6659.1936    18400.851   -1889.5962    3466.3255   -8150.5049   -13780.402   -21448.985     81.45139 
   84100    1120.7405   -103.12792    1.0140695   -102.11385    22570.191    4.3337127    4.3337127    4.3337127    22570.191    24243.438    12162.718    31304.417    40607.694    4476.0925    27112.231    81.391742 
   84200    2481.5567   -104.35571    2.2453647   -102.11034   -500.61742    4.3507271    4.3507271    4.3507271   -500.61742   -8210.5153    13398.746   -6690.0827    5587.8753   -4309.7056   -15109.782    82.354155 
   84300    1572.4589    -103.5427    1.4227938   -102.11991   -28055.668    4.3567247    4.3567247    4.3567247   -28055.668   -13731.377    -30737.19   -39698.438    16822.723   -35012.468     35257.49    82.695211 
   84400    1651.5942   -103.59532    1.4943971   -102.10092    31143.207     4.334379     4.334379     4.334379    31143.207    61180.902     24022.47    8226.2484    21454.917    12778.552   -1175.0693    81.429289 
   84500    1875.1319   -103.80082    1.6966587   -102.10416   -28149.712    4.3396766    4.3396766    4.3396766   -28149.712     -20927.9    481.84389   -64003.081    628.35936    -41296.86    10439.092    81.728233 
   84600    1910.7177   -103.84127    1.7288575   -102.11241   -13921.342    4.3433653    4.3433653    4.3433653   -13921.342    26177.966   -41738.151    -26203.84    43028.115   -11603.402    25393.409    81.936814 
   84700    1962.6588   -103.89561    1.7758549   -102.11976   -2872.9521     4.352267     4.352267     4.352267   -2872.9521   -14734.894    14551.782   -8435.7444   -30268.208      2771.48   -12638.714    82.441636 
   84800    1320.4349    -103.3213    1.1947572   -102.12654    -412.1717    4.3405786    4.3405786    4.3405786    -412.1717     50756.78   -13910.667   -38082.629    15884.419    -31760.62    48140.064    81.779202 
   84900    2252.6063   -104.14822    2.0382055   -102.11002    30209.006    4.3364617    4.3364617    4.3364617    30209.006    30618.261    50844.492    9164.2637     8302.829    4682.2979   -32761.775    81.546731 
   85000    2168.6565   -104.08085     1.962246   -102.11861   -26331.795    4.3415484    4.3415484    4.3415484   -26331.795   -5647.7364   -21079.235   -52268.414   -4879.3122    -29427.22    50970.726    81.834028 
   85100    1095.4905   -103.12476   0.99122286   -102.13354    40444.868    4.3320927    4.3320927    4.3320927    40444.868    62904.203    51472.571    6957.8308    20964.137    10027.008    -15292.61    81.300503 
   85200    2781.8647   -104.63956    2.5170897   -102.12247   -8124.5717    4.3462979    4.3462979    4.3462979   -8124.5717    3703.8954     7035.017   -35112.627   -11660.916   -10446.366    16279.882    82.102893 
   85300    1340.6105   -103.33175    1.2130126   -102.11874   -7104.8528    4.3528026    4.3528026    4.3528026   -7104.8528    14501.955    13594.976   -49411.489    16992.122   -11689.534     22617.61    82.472076 
   85400    1928.5541   -103.85972    1.7449963   -102.11472   -4738.7088    4.3464607    4.3464607    4.3464607   -4738.7088   -8733.9663    21670.978   -27153.138    3966.1395    9433.2674   -48137.055    82.112121 
   85500    2238.2747   -104.15047     2.025238   -102.12523    26780.744    4.3298942    4.3298942    4.3298942    26780.744    22472.156    51113.071    6757.0054   -17967.074    1381.0722    35268.604    81.176786 
   85600    1561.6984   -103.56095    1.4130575   -102.14789   -7025.7301    4.3233687    4.3233687    4.3233687   -7025.7301    12926.829   -11315.036   -22688.983     22968.39   -7568.8804    -49959.49    80.810317 
   85700    1640.5323    -103.6446    1.4843881   -102.16021    -18487.22    4.3460413    4.3460413    4.3460413    -18487.22   -23352.515   -13930.488   -18178.658   -16882.616    37221.753    10578.945    82.088356 
   85800    2243.8672   -104.15562    2.0302982   -102.12532    22714.603    4.3480606    4.3480606    4.3480606    22714.603    26010.561    32287.516    9845.7311    12645.995   -22247.765   -17338.193    82.202827 
   85900    1137.6522   -103.16564    1.0293716   -102.13626   -41396.764    4.3504841    4.3504841    4.3504841   -41396.764   -32995.259    -29982.76   -61212.272   -1022.4083    45518.115    -21109.73    82.340361 
   86000    1760.5156   -103.72624    1.5929516   -102.13329   -14885.852    4.3375725    4.3375725    4.3375725   -14885.852     19482.64    -32454.55   -31685.645   -7237.0486    3360.1129    55736.088    81.609408 
   86100    2700.1796   -104.56458    2.4431792    -102.1214    8048.1011    4.3206187    4.3206187    4.3206187    8048.1011    2672.7588    39868.948   -18397.403   -3854.3963      19182.9   -27400.168     80.65621 
   86200    843.35487   -102.92663   0.76308521   -102.16354   -37073.284    4.3458565    4.3458565    4.3458565   -37073.284    13565.977   -71567.791   -53218.039   -9391.8912     28688.01    45236.164    82.077883 
   86300    2039.0025   -103.99002    1.8449323   -102.14509    -25146.34    4.3463188    4.3463188    4.3463188    -25146.34   -1552.5663   -42957.109   -30929.346   -24178.233   -3489.7764    20107.239    82.104081 
   86400    1970.1059   -103.92224    1.7825932   -102.13964    31831.384    4.3360184    4.3360184    4.3360184    31831.384    9924.3657     68229.71    17340.077    -744.3938    41392.714    12804.897    81.521721 
   86500    1677.2131   -103.65941    1.5175777   -102.14184   -15182.742    4.3446211    4.3446211    4.3446211   -15182.742    9758.9901   -20416.308   -34890.907     -9850.83   -8674.5647    51347.024    82.007904 
   86600    1657.3303   -103.63358    1.4995873   -102.13399    22658.683    4.3317307    4.3317307    4.3317307    22658.683   -9897.1628     9268.186    68605.026   -818.49227     34691.15   -16190.942    81.280125 
   86700     1829.199   -103.80021    1.6550977   -102.14512   -18967.667    4.3405335    4.3405335    4.3405335   -18967.667   -3606.2253   -21809.366    -31487.41     17424.28    8908.1019     43549.46    81.776653 
   86800    2281.5959   -104.19775    2.0644359   -102.13332   -1883.7496     4.347487     4.347487     4.347487   -1883.7496   -4448.8029    -40003.48    38801.034   -13866.575    11267.227    -11624.86    82.170301 
   86900    1087.2134   -103.13067    0.9837335   -102.14693   -29813.269    4.3503621    4.3503621    4.3503621   -29813.269   -47226.443    8463.6742   -50677.038    35947.045    22870.295    11851.351     82.33343 
   87000    2184.0593   -104.11024    1.9761827   -102.13406   -10863.958    4.3478174    4.3478174    4.3478174   -10863.958    2524.0421   -30545.897   -4570.0189    2234.4466   -14879.808    18141.929    82.189037 
   87100    2404.9046   -104.30798    2.1760082   -102.13197    11110.928    4.3434194    4.3434194    4.3434194    11110.928   -6547.1434    28673.356    11206.571    10744.669    6093.8814    2214.1237    81.939877 
   87200    629.74645   -102.73277   0.56980782   -102.16296    4154.9891     4.348756     4.348756     4.348756    4154.9891   -16707.333    20959.122    8213.1781    28395.412   -1966.7264    29643.536    82.242278 
   87300    2765.6837   -104.63253    2.5024488   -102.13008   -8763.2918    4.3528896    4.3528896    4.3528896   -8763.2918   -19497.983   -23398.461    16606.569   -12588.796   -17711.835   -2605.5926    82.477021 
   87400    1866.9658   -103.82437    1.6892699    -102.1351    12355.238    4.3438596    4.3438596    4.3438596    12355.238   -2996.6055    31595.133     8467.186    18053.279    15285.914    29993.949    81.964794 
   87500    1250.0485   -103.27165    1.1310702   -102.14058    29182.931    4.3418837    4.3418837    4.3418837    29182.931    -3448.263    44298.168    46698.887   -12589.775   -4609.8737   -1337.2428     81.85299 
   87600    2455.2409   -104.34315    2.2215535    -102.1216    2508.2786    4.3513484    4.3513484    4.3513484    2508.2786   -3629.5324    17426.396   -6272.0275    -15403.46   -2570.9728    4231.7547    82.389447 
   87700    1853.4766   -103.80424    1.6770646   -102.12718    15739.897    4.3499231    4.3499231    4.3499231    15739.897    3461.9267    72099.076   -28341.312    1006.6851    2141.6116    35956.542    82.308508 
   87800    1486.5302   -103.47725    1.3450438   -102.13221    15952.411    4.3427453    4.3427453    4.3427453    15952.411   -55176.033    22984.784    80048.482   -21438.801   -309.22543   -26397.206    81.901731 
   87900    1848.6071    -103.8071    1.6726585   -102.13444    15676.564    4.3453466    4.3453466    4.3453466    15676.564    21099.518    46641.435   -20711.262    18287.856    1415.6293    54352.522    82.048994 
   88000    2056.3284   -103.98597    1.8606091   -102.12536    -4430.978    4.3487517    4.3487517    4.3487517    -4430.978   -25999.006    29208.557   -16502.485   -15702.854   -9682.7726   -16165.359     82.24203 
   88100    1642.3578   -103.60129    1.4860398   -102.11525    19417.898    4.3468419    4.3468419    4.3468419    19417.898   -7445.4239    51302.315    14396.803    -6474.982    568.84489    9278.5775    82.133727 
   88200    1775.6285   -103.71961     1.606626   -102.11299   -50195.768    4.3592956    4.3592956    4.3592956   -50195.768   -89148.286   -10212.724   -51226.293    16620.294   -19633.204    6980.5842    82.841689 
   88300    1978.6263   -103.89574    1.7903027   -102.10544    27668.804    4.3354793    4.3354793    4.3354793    27668.804    -6675.566    88142.613    1539.3657     6133.709    -14643.33   -6790.6898    81.491321 
   88400    2081.0506   -103.99526    1.8829783   -102.11228     6230.047    4.3317086    4.3317086    4.3317086     6230.047     36963.41   -30291.069    12017.799    12661.163   -4692.4485    15807.251    81.278877 
   88500    1331.0105   -103.34257    1.2043262   -102.13824   -31342.965    4.3433472    4.3433472    4.3433472   -31342.965   -82177.598    20375.952   -32227.248   -29710.945   -40677.509   -2457.6141    81.935788 
   88600    1796.1922   -103.77221    1.6252325   -102.14698    18068.914    4.3471496    4.3471496    4.3471496    18068.914    23752.158   -22467.037     52921.62       760.03     27498.03    1831.5213    82.151173 
   88700    2511.9588   -104.40573    2.2728731   -102.13285   -25098.809    4.3555917    4.3555917    4.3555917   -25098.809   -41694.008     -9337.33   -24265.089   -9520.0154   -44525.245    1085.5038     82.63071 
   88800     1053.519   -103.09287   0.95324615   -102.13962     14849.73    4.3462459    4.3462459    4.3462459     14849.73     8016.043   -4642.8981    41176.046   -20123.775    3999.2183    101.34602    82.099948 
   88900    2324.1125   -104.23102    2.1029058   -102.12812   -11567.518    4.3423253    4.3423253    4.3423253   -11567.518     -15165.1     2639.212   -22176.668    15739.025    9210.0271   -15914.545    81.877971 
   89000    1912.9222   -103.85964    1.7308522   -102.12879    7334.5249    4.3471703    4.3471703    4.3471703    7334.5249   -11578.042    13711.719    19869.897   -20025.502   -31687.826    16794.696    82.152343 
   89100    1166.6831   -103.18805    1.0556394   -102.13241   -14638.309    4.3593743    4.3593743    4.3593743   -14638.309   -30866.768   -7686.4793   -5361.6794    5613.4528    38431.396   -26793.649    82.846179 
   89200     2375.127   -104.25845    2.1490648   -102.10939    9999.8271    4.3517071    4.3517071    4.3517071    9999.8271   -22313.445    12863.805    39449.121      12018.4   -24890.493    19424.477    82.409822 
   89300     1461.045   -103.45304    1.3219842   -102.13106    12490.406     4.331762     4.331762     4.331762    12490.406   -5857.7044    27450.351    15878.572    -13771.29    13091.491   -17891.154    81.281886 
   89400     1409.582   -103.43211    1.2754194   -102.15669     12126.07    4.3342973    4.3342973    4.3342973     12126.07    14439.326   -8070.3622    30009.245    33797.505    10469.962   -18030.312    81.424685 
   89500     2661.556   -104.53852    2.4082318   -102.13029    5230.6707    4.3575847    4.3575847    4.3575847    5230.6707    -4042.476    10855.639    8878.8495   -869.28746    8835.9664   -2025.1782    82.744188 
   89600    991.88742   -103.04032   0.89748058   -102.14284   -50206.873    4.3625267    4.3625267    4.3625267   -50206.873    -62345.28   -31290.526   -56984.812    38497.985    32948.143   -28331.299    83.026032 
   89700    2180.5997   -104.08917    1.9730524   -102.11612   -7597.2484    4.3350126    4.3350126    4.3350126   -7597.2484   -21012.629    1971.2298    -3750.346     808.4131   -13502.323    5376.3849    81.465007 
   89800    1940.8336   -103.88501    1.7561071    -102.1289    39737.139    4.3240246    4.3240246    4.3240246    39737.139    34244.287    63376.336    21590.793    22624.143    8129.5578   -21637.344    80.847105 
   89900    1497.8828   -103.52523    1.3553158   -102.16992     -4149.46    4.3398276    4.3398276    4.3398276     -4149.46   -35401.854    23001.177   -47.702577    41339.891   -1754.3264   -1715.7884     81.73676 
   90000     2021.839   -103.99443    1.8294024   -102.16503   -11254.955     4.352351     4.352351     4.352351   -11254.955   -50587.672    19965.558   -3142.7504   -46353.338   -19585.617    19714.245    82.446405 
   90100    1895.7304   -103.86468    1.7152967   -102.14938    3519.8112     4.346559     4.346559     4.346559    3519.8112    7694.6409    19028.653   -16163.861     18679.26    10020.226   -15890.438    82.117695 
   90200    1601.9701   -103.59029    1.4494962   -102.14079   -11812.811    4.3431541    4.3431541    4.3431541   -11812.811   -37783.415    25847.406   -23502.425   -5098.0661   -29870.659    12763.446    81.924864 
   90300    1911.3315   -103.85322    1.7294129   -102.12381    -14492.47    4.3514757    4.3514757    4.3514757    -14492.47   -23063.509   -20442.065    28.163389   -49478.113   -5418.5382   -13642.639    82.396676 
   90400     2506.018   -104.36875    2.2674977   -102.10125   -17933.357    4.3603197    4.3603197    4.3603197   -17933.357   -34649.811    4399.9839   -23550.244    13412.839   -129.38484   -2916.4665    82.900089 
   90500    1235.2066   -103.23003    1.1176409   -102.11239   -33263.407    4.3571767    4.3571767    4.3571767   -33263.407   -93609.603   -31011.488     24830.87   -70978.456   -12768.738    5948.6726    82.720949 
   90600    2510.0659    -104.3383    2.2711604   -102.06714    30031.734    4.3504133    4.3504133    4.3504133    30031.734    4451.3006     20273.66    65370.242    11811.421    9591.4931   -8103.2228    82.336341 
   90700    1400.1868   -103.34817    1.2669185   -102.08125   -13857.453    4.3639722    4.3639722    4.3639722   -13857.453   -104048.52   -30390.122    92866.286   -62071.301   -10411.562    5886.4995    83.108592 
   90800    1470.8708   -103.41213    1.3308748   -102.08126    8050.3671     4.354968     4.354968     4.354968    8050.3671   -374.99858   -21995.564    46521.664    32324.819    13054.789   -24199.899     82.59522 
   90900    2770.9588   -104.58586    2.5072218   -102.07864     2301.456    4.3403058    4.3403058    4.3403058     2301.456    1364.1992   -21115.077    26655.246   -38472.046   -5493.8743   -4961.7449    81.763785 
   91000    971.02795   -103.00543    0.8786065   -102.12682   -5572.1944    4.3400888    4.3400888    4.3400888   -5572.1944   -51911.392    28551.163     6643.646    28622.275    -18525.59   -6373.0403    81.751522 
   91100    2279.6785   -104.18886     2.062701   -102.12616    22659.717    4.3518952    4.3518952    4.3518952    22659.717    1927.6622   -9163.4594     75214.95   -12655.315    17610.034   -15165.558    82.420508 
   91200    1677.7791   -103.65044    1.5180897   -102.13235   -6007.3756     4.351863     4.351863     4.351863   -6007.3756   -38191.578   -30768.538    50937.989    14400.888   -10802.262    25130.566    82.418678 
   91300    1533.1114   -103.50598    1.3871914   -102.11879    6059.8088    4.3443919    4.3443919    4.3443919    6059.8088   -44715.376    15500.968    47393.834    1973.5163    5495.6848     -21784.7    81.994929 
   91400    2269.8881   -104.16367    2.0538425   -102.10983   -19627.248    4.3501428    4.3501428    4.3501428   -19627.248   -36602.029   -22333.053    53.337901   -44491.143   -5913.7174     27829.58    82.320984 
   91500    1684.1782   -103.63388    1.5238799      -102.11    7024.5095    4.3388153    4.3388153    4.3388153    7024.5095   -14043.384    5734.4209    29382.492     23585.27   -7455.6717    10741.657    81.679579 
   91600    1695.8465   -103.66347    1.5344375   -102.12903   -30687.373    4.3455714    4.3455714    4.3455714   -30687.373    -74609.58   -43731.463    26278.923   -74194.522   -1419.9706    10724.626    82.061729 
   91700    2557.2098    -104.4071    2.3138172   -102.09328   -9376.3647    4.3589693    4.3589693    4.3589693   -9376.3647    4947.1759   -1449.9098    -31626.36    12269.309   -8923.7925    19624.852    82.823088 
   91800    1125.9096   -103.11759    1.0187467   -102.09884   -30714.575    4.3603148    4.3603148    4.3603148   -30714.575   -61837.867   -45080.704    14774.846   -63325.032   -2200.6514   -2447.8027    82.899809 
   91900    2413.0634   -104.27029    2.1833905    -102.0869    8373.4342    4.3496244    4.3496244    4.3496244    8373.4342   -21104.996    40229.816    5995.4825    47629.126    9342.8171     2659.673    82.291555 
   92000    2173.1431   -104.06957    1.9663055   -102.10326    23497.562    4.3292049    4.3292049    4.3292049    23497.562   -13582.165    77724.414    6350.4365   -72461.123   -1281.7761    -13390.14    81.138022 
   92100    1254.7273    -103.2802    1.1353036    -102.1449   -22422.419    4.3399424    4.3399424    4.3399424   -22422.419   -56268.894   -43649.274     32650.91    68268.731    10013.877   -3500.9042    81.743251 
   92200    2596.9245   -104.46524    2.3497519   -102.11549   -3785.2429    4.3550584    4.3550584    4.3550584   -3785.2429   -30035.487    7819.2721    10860.486   -6343.1117    2107.0042   -17312.575    82.600363 
   92300    1603.1154    -103.5588    1.4505325   -102.10826    -43445.14    4.3656512    4.3656512    4.3656512    -43445.14   -54422.447   -75694.726   -218.24678     38781.73   -5582.0957   -12613.101    83.204557 
   92400    1593.3868   -103.52933    1.4417298    -102.0876   -16160.225    4.3560114    4.3560114    4.3560114   -16160.225   -35652.576   -20418.735    7590.6343    22736.081     15880.21   -4887.3573      82.6546 
   92500    2577.6689   -104.40825     2.332329   -102.07592    17738.525    4.3427751    4.3427751    4.3427751    17738.525   -18011.956     35923.49    35304.041    6112.7284   -2328.3215   -3588.0393    81.903416 
   92600    1277.3874   -103.27392    1.1558069   -102.11812   -44067.963    4.3424018    4.3424018    4.3424018   -44067.963   -68907.307   -14722.932   -48573.649     35508.58    41221.491   -15493.722    81.882297 
   92700    2298.3818   -104.19938    2.0796242   -102.11975    8845.8947     4.335878     4.335878     4.335878    8845.8947   -10795.492     26965.84    10367.336    -36908.63   -3717.2696    -1014.536    81.513803 
   92800    1832.6946   -103.78195    1.6582606   -102.12369   -8192.5373    4.3524759    4.3524759    4.3524759   -8192.5373   -21359.312   -3790.8715    572.57175    36149.223    24419.736   -10128.836    82.453507 
   92900    790.73255   -102.84032   0.71547143   -102.12485   -4741.3226     4.352994     4.352994     4.352994   -4741.3226   -20258.145    28977.283   -22943.106    -27885.08    20419.174    2695.5409    82.482956 
   93000    2633.5736   -104.48003    2.3829128   -102.09711    1623.2542    4.3383671    4.3383671    4.3383671    1623.2542   -16461.555    8000.9312    13330.386   -25387.621   -19188.215    10393.214    81.654271 
   93100    1799.3776   -103.74962    1.6281147   -102.12151    7521.1069    4.3349256    4.3349256    4.3349256    7521.1069    1571.5824    294.51955    20697.219   -9188.7833    24573.593    -14700.24    81.460104 
   93200    1375.2854   -103.38563    1.2443871   -102.14124    -7473.002    4.3438362    4.3438362    4.3438362    -7473.002   -46786.606    20488.934     3878.666   -52002.208   -14528.959    7372.1194     81.96347 
   93300    2252.5889   -104.15523    2.0381897   -102.11704    19996.938    4.3602649    4.3602649    4.3602649    19996.938    60691.033    8479.1267   -9179.3458    16785.626    9355.6589   -5402.2329    82.896963 
   93400    1349.5863     -103.336     1.221134   -102.11487   -28483.655    4.3649934    4.3649934    4.3649934   -28483.655   -42141.493   -57410.307    14100.834   -74674.236   -77.910861    703.15353     83.16695 
   93500    1818.6017    -103.7467     1.645509   -102.10119    31038.327    4.3334669    4.3334669    4.3334669    31038.327    69000.834    9763.1361     14351.01    42330.281   -15914.558    4538.5645    81.377894 
   93600    2354.0846    -104.2389    2.1300252   -102.10888    3547.2403    4.3214661    4.3214661    4.3214661    3547.2403    12164.851   -24562.737    23039.607   -50483.841    11662.693   -4373.8271    80.703676 
   93700    1434.3861   -103.45147    1.2978627   -102.15361     22498.71    4.3327056    4.3327056    4.3327056     22498.71    20479.833    1108.5602    45907.737    882.45006   -9015.3365    2816.5868    81.335011 
   93800    1652.5807   -103.66265    1.4952898   -102.16736   -22024.404    4.3593654    4.3593654    4.3593654   -22024.404   -52783.142   -59016.028    45725.957    11104.269   -4487.8645   -866.77661    82.845672 
   93900    2412.5831   -104.31578    2.1829559   -102.13283   -11834.444    4.3520871    4.3520871    4.3520871   -11834.444   -3790.9796    -33865.77    2153.4172   -34673.535   -12039.189   -3331.8392    82.431413 
   94000    934.90444   -102.98427   0.84592118   -102.13835    23569.006    4.3213177    4.3213177    4.3213177    23569.006    30949.203    23847.935    15909.881    38226.907   -29582.353   -3788.0712    80.695362 
   94100    2179.5457   -104.11639    1.9720987   -102.14429    8199.4943    4.3202858    4.3202858    4.3202858    8199.4943    11551.926    -10685.35    23731.906   -11887.322    32960.961   -9502.1978    80.637569 
   94200    1850.9844   -103.83095    1.6748096   -102.15615    21744.516    4.3390369    4.3390369    4.3390369    21744.516    33349.069   -9276.4112     41160.89      18897.5   -45131.505    14480.161    81.692093 
   94300    1522.4629   -103.52253    1.3775564   -102.14497   -9196.2579    4.3542896    4.3542896    4.3542896   -9196.2579   -39208.232   -4913.8418      16533.3    13106.455     36056.54   -13647.353    82.556627 
   94400    1869.0719   -103.79719    1.6911755   -102.10601   -6569.3817    4.3569035    4.3569035    4.3569035   -6569.3817    28124.201   -51060.051     3227.704     6944.473    -8264.339    20499.267    82.705392 
   94500    2134.1106   -104.02141    1.9309881   -102.09042    22974.134     4.340885     4.340885     4.340885    22974.134   -29934.175    16081.805    82774.772    30900.829    10010.645   -5400.8497    81.796524 
   94600      1473.84   -103.43952    1.3335614   -102.10595   -11177.064    4.3334106    4.3334106    4.3334106   -11177.064    42420.366   -26986.215   -48965.344    3253.7723    11487.727    25017.288    81.374726 
   94700    2067.1385   -103.97501    1.8703904   -102.10462    13732.062    4.3403344    4.3403344    4.3403344    13732.062   -7623.1798    2449.3206    46370.046    19826.057    2954.2226   -3604.2621    81.765402 
   94800     1839.505   -103.78175    1.6644228   -102.11732   -19924.354    4.3489848    4.3489848    4.3489848   -19924.354   -10091.872   -22252.911    -27428.28    2666.6304    23621.967    28791.888    82.255257 
   94900    1489.0678   -103.46454    1.3473399    -102.1172   -33725.421    4.3504502    4.3504502    4.3504502   -33725.421    33188.105   -67063.316   -67301.053    2813.1007    -9468.905    5789.4912    82.338437 
   95000    2091.0814   -103.98956    1.8920544   -102.09751   -5493.5216    4.3369896    4.3369896    4.3369896   -5493.5216   -38900.114    30420.084   -8000.5349    13401.124   -21242.762    4365.7014    81.576515 
   95100    1715.3595   -103.66247    1.5520933   -102.11037   -20579.631    4.3282878    4.3282878    4.3282878   -20579.631    21845.915   -35268.523   -48316.285   -17894.708     11392.36    38923.191    81.086472 
   95200    1358.0451   -103.36965    1.2287877   -102.14087   -3569.0858    4.3371792    4.3371792    4.3371792   -3569.0858   -36975.908    30733.847   -4465.1966   -12270.283   -51358.499   -29009.237    81.587214 
   95300    2503.8055   -104.39813    2.2654958   -102.13264    10242.692    4.3424674    4.3424674    4.3424674    10242.692    10153.731     20558.55    15.795473   -10113.209    9472.2389    24621.264     81.88601 
   95400     838.6935   -102.91321   0.75886751   -102.15435    36888.292    4.3402595    4.3402595    4.3402595    36888.292   -1425.4009    65757.359    46332.919   -23659.568   -56896.622   -27407.851    81.761169 
   95500    2187.3489   -104.08849    1.9791592   -102.10933   -2643.7691    4.3499949    4.3499949    4.3499949   -2643.7691   -36765.128    58885.753   -30051.932   -6858.0798    26769.269   -23953.861    82.312585 
   95600    1747.3777   -103.67954     1.581064   -102.09848     22670.86    4.3495498    4.3495498    4.3495498     22670.86   -26589.782    43845.297    50757.065   -11101.128   -47461.147   -11869.716    82.287323 
   95700    1137.5002   -103.12832    1.0292341   -102.09908    1196.2398    4.3491828    4.3491828    4.3491828    1196.2398   -3826.8225    19688.005   -12272.463   -8837.4586    12645.179   -41796.849    82.266493 
   95800    1859.6774   -103.76646    1.6826752   -102.08379    7124.3098    4.3477472    4.3477472    4.3477472    7124.3098    5062.5526    8330.6823    7979.6945   -9930.6836    -5741.568    941.94802    82.185053 
   95900    2006.1305   -103.89883    1.8151891   -102.08364    1409.2695    4.3465439    4.3465439    4.3465439    1409.2695    8760.9393   -11758.707    7225.5759    2207.8731   -29524.154   -43037.858    82.116838 
   96000    1301.9962    -103.2858    1.1780736   -102.10772   -36979.842    4.3446102    4.3446102    4.3446102   -36979.842   -12022.762   -28519.491   -70397.274   -50.551261     45973.38    13517.265    82.007288 
   96100    2357.2867    -104.2371    2.1329225   -102.10417    23867.981    4.3384837    4.3384837    4.3384837    23867.981    22120.334   -17017.274    66500.885    8341.9804   -18371.197    8463.9696    81.660853 
   96200    1481.5737   -103.46434     1.340559   -102.12378   -30859.386    4.3388465    4.3388465    4.3388465   -30859.386    5896.3183   -46391.578   -52082.898    6279.2148    41497.124   -18701.273    81.681342 
   96300    1558.2997   -103.54033    1.4099824   -102.13035    5065.5035    4.3413587    4.3413587    4.3413587    5065.5035    40100.454   -23967.199   -936.74436    13310.929    7229.3567    47211.214    81.823304 
   96400    2054.2038   -103.96745    1.8586868   -102.10877    -3506.499    4.3477031    4.3477031    4.3477031    -3506.499    27805.161   -2463.9943   -35860.663   -10835.298   -14669.202   -13383.831    82.182553 
   96500    1343.9723   -103.33629    1.2160543   -102.12024   -1027.4144     4.344785     4.344785     4.344785   -1027.4144    57891.348   -16438.019   -44535.572    14933.012    34978.369    50187.686    82.017186 
   96600    1748.5946   -103.69569    1.5821651   -102.11353    12704.942    4.3382833    4.3382833    4.3382833    12704.942   -44019.068    49807.847    32326.047   -2663.2776   -82635.628    1240.8956     81.64954 
   96700    2201.9906   -104.09585    1.9924074   -102.10345   -3626.6284    4.3395703    4.3395703    4.3395703   -3626.6284   -4272.4617   -30221.178    23613.754    4008.3827    34400.694    34842.924    81.722227 
   96800    925.95185   -102.96524    0.8378207   -102.12742   -4745.6818    4.3446107    4.3446107    4.3446107   -4745.6818   -51342.306    58643.818   -21538.557    6900.2554   -58205.901    29788.727    82.007316 
   96900    2748.3966   -104.57929     2.486807   -102.09248    1833.2752    4.3510677    4.3510677    4.3510677    1833.2752   -20351.955    17550.334    8301.4469   -6476.2966    17593.448    -14239.15    82.373503 
   97000    1323.1094    -103.2987    1.1971772   -102.10152   -18824.797    4.3510087    4.3510087    4.3510087   -18824.797   -53133.709    30467.259   -33807.941     3201.316   -61603.745    14423.651     82.37015 
   97100    2097.3469    -103.9684    1.8977236   -102.07068    21358.027    4.3448699    4.3448699    4.3448699    21358.027   -4024.7269    55051.606    13047.202    6323.1995    14440.734    -6551.316    82.021993 
   97200    1291.6331   -103.25594    1.1686967   -102.08725    11009.702    4.3330533    4.3330533    4.3330533    11009.702   -22239.504    81830.094   -26561.484   -5259.7703   -70514.498   -1670.6782    81.354594 
   97300    2484.1358   -104.32899    2.2476983   -102.08129   -4782.9488    4.3345145    4.3345145    4.3345145   -4782.9488    9609.8097    3962.7042    -27921.36    7991.4272    2743.7695    19555.766    81.436925 
   97400    1314.0805   -103.29939    1.1890076   -102.11038   -5726.5675    4.3440717    4.3440717    4.3440717   -5726.5675   -33841.831    24645.239    -7983.111   -6731.3237   -37315.177   -52549.722      81.9768 
   97500    2259.9831   -104.14322    2.0448802   -102.09834   -18442.802    4.3529369    4.3529369    4.3529369   -18442.802   -33552.282    13183.442   -34959.566    758.59588   -16648.321    46849.834    82.479711 
   97600    1680.6473   -103.61499     1.520685   -102.09431   -274.91446    4.3488123    4.3488123    4.3488123   -274.91446    10742.322   -11557.825   -9.2403694   -12518.306   -23576.982   -48972.153     82.24547 
   97700    1835.3907   -103.74719    1.6607001   -102.08649    3732.8458    4.3440356    4.3440356    4.3440356    3732.8458    18555.568    6564.3356   -13921.367     3837.662   -29767.518    15772.432    81.974752 
   97800      2056.66   -103.95125    1.8609092   -102.09034   -11007.805    4.3400455    4.3400455    4.3400455   -11007.805    -12700.79   -10436.415   -9886.2103   -14910.782   -10364.912    1924.2328    81.749075 
   97900    1009.6842   -103.04106   0.91358351   -102.12747    19995.833    4.3324742    4.3324742    4.3324742    19995.833    2875.5427    70801.966   -13690.009   -12991.262   -45080.651   -34844.007    81.321981 
   98000    2883.5939   -104.71934    2.6091363    -102.1102     -3132.85    4.3421512    4.3421512    4.3421512     -3132.85   -19114.205    9170.2873    545.36759   -27892.511    4214.4274    8250.4614    81.868119 
   98100     940.7374   -102.99372   0.85119897   -102.14252    3570.5268    4.3475681    4.3475681    4.3475681    3570.5268    4995.8218     40209.56   -34493.802   -8922.4586   -56533.439   -38843.917    82.174897 
   98200    2323.4983   -104.20276    2.1023501   -102.10041   -3384.1518    4.3532716    4.3532716    4.3532716   -3384.1518   -7764.0738    -25675.51    23287.129   -17059.215    26324.542   -10996.763    82.498733 
   98300    1110.9198   -103.10558    1.0051836   -102.10039    13115.446    4.3573389    4.3573389    4.3573389    13115.446    58.476887     14794.71    24493.153    5254.9267   -58598.506   -24880.097    82.730191 
   98400    2058.7688   -103.92325    1.8628172   -102.06043    12258.353    4.3550323    4.3550323    4.3550323    12258.353     29080.59   -7811.0332    15505.503   -21124.812    284.46224   -15519.772    82.598879 
   98500    1459.5899   -103.38234    1.3206676   -102.06168   -4252.4639    4.3538304    4.3538304    4.3538304   -4252.4639   -29675.113   -8827.3954    25745.117    15331.806   -24637.855   -29102.637    82.530506 
   98600    1973.3677    -103.8585    1.7855446   -102.07295   -20192.698    4.3435188    4.3435188    4.3435188   -20192.698    8778.1167   -8997.9673   -60358.244   -3694.7027   -12885.252   -40179.927    81.945499 
   98700    2245.4618   -104.11204     2.031741    -102.0803    37155.735    4.3426744    4.3426744    4.3426744    37155.735   -7687.1936    56432.792    62721.607    776.31503   -13726.232    9661.2737    81.897721 
   98800    1051.4084   -103.07096   0.95133645   -102.11962   -45384.206    4.3574771    4.3574771    4.3574771   -45384.206   -18242.648   -58494.063   -59415.909    10758.168   -20601.717   -35718.013    82.738061 
   98900    2818.0815   -104.62837    2.5498593   -102.07851    9673.6279    4.3546692    4.3546692    4.3546692    9673.6279    -29418.37    14302.893    44136.361    2551.3563    14556.017    27880.505    82.578216 
   99000    1116.1745   -103.10302    1.0099381   -102.09309    -27289.26    4.3569638    4.3569638    4.3569638    -27289.26     18548.27   -22360.769   -78055.281    21793.768   -25216.523    -39212.08    82.708824 
   99100    2640.8065   -104.44993    2.3894572   -102.06047    4078.2729    4.3595596    4.3595596    4.3595596    4078.2729    1317.6996   -37475.803    48392.922    8400.0476    35026.643    22939.389    82.856746 
   99200    1229.9105   -103.19176    1.1128489   -102.07891   -25587.555    4.3601978    4.3601978    4.3601978   -25587.555   -31668.881   -6336.5902   -38757.193    14829.224   -23229.879   -30660.763    82.893135 
   99300    2414.0469   -104.24342    2.1842804   -102.05914    884.68377    4.3529145    4.3529145    4.3529145    884.68377   -20368.587   -5727.7033    28750.342    5901.2397    5394.9305   -374.76695    82.478436 
   99400    1762.5585   -103.67824       1.5948   -102.08344    20784.889     4.336512     4.336512     4.336512    20784.889   -28587.658    46070.357    44871.968    5996.8786   -9048.5546   -10246.056    81.549566 
   99500    1831.3691   -103.76431    1.6570613   -102.10724   -28727.433    4.3476772    4.3476772    4.3476772   -28727.433   -33986.661    -16547.07   -35648.566    22062.877   -26470.139   -38832.708    82.181084 
   99600    2096.2959   -103.98901    1.8967725   -102.09224   -3008.5609    4.3624461    4.3624461    4.3624461   -3008.5609   -18932.745   -26841.567     36748.63   -2462.1675    3541.2785    16320.991    83.021434 
   99700    1513.5021   -103.45936    1.3694485   -102.08992   -6415.6945    4.3616832    4.3616832    4.3616832   -6415.6945    15414.659   -23302.273   -11359.469    24825.937   -36055.749   -18403.567    82.977881 
   99800    1744.1648    -103.6349     1.578157   -102.05674    26829.475    4.3550633    4.3550633    4.3550633    26829.475    22645.971     5117.076    52725.379    7481.8315    13601.312    33465.361     82.60064 
   99900    1502.6805   -103.41995    1.3596569   -102.06029    5119.4673    4.3552955    4.3552955    4.3552955    5119.4673    34149.075    34947.353   -53738.026    21531.989   -25317.604   -33775.597    82.613853 
  100000    1991.8118   -103.84997    1.8022332   -102.04774    7539.9159    4.3612501    4.3612501    4.3612501    7539.9159    46054.903    1786.2372   -25221.392    24869.703    19916.275    66377.161    82.953167 
Loop time of 23.9622 on 1 procs for 100000 steps with 8 atoms

Pair  time (%) = 7.4572 (31.1206)
Kspce time (%) = 5.79452 (24.1819)
Neigh time (%) = 0.276447 (1.15368)
Comm  time (%) = 1.20446 (5.02651)
Outpt time (%) = 0.0267954 (0.111823)
Other time (%) = 9.2028 (38.4055)

Nlocal:    8 ave 8 max 8 min
Histogram: 1 0 0 0 0 0 0 0 0 0
Nghost:    1864 ave 1864 max 1864 min
Histogram: 1 0 0 0 0 0 0 0 0 0
Neighs:    2120 ave 2120 max 2120 min
Histogram: 1 0 0 0 0 0 0 0 0 0

Total # of neighbors = 2120
Ave neighs/atom = 265
Neighbor list builds = 3123
Dangerous builds = 0
unfix 20
unfix 21
print "seeds:5911324"
seeds:5911324
