LAMMPS (10 Feb 2015)
# ---- initialize simulations
clear
units metal
dimension 3
boundary p p p
atom_style charge
atom_modify map array
# ---- create atoms
read_data /Users/eugeneragasa/pyflamestk_git/pypospack/tests/tests_integration/workflow/WorkflowLammpsThermalExpansion/param_7495/MgO_NaCl_unit.npt.T200/lammps.structure
  triclinic box = (0 0 0) to (4.2565 4.2565 4.2565) with tilt (0 0 0)
  1 by 1 by 1 MPI processor grid
  reading atoms ...
  8 atoms
# ---- define interatomic potential
include potential.mod
mass 1 24.305
mass 2 15.999

group Mg type 1
4 atoms in group Mg
group O type 2
4 atoms in group O

set group Mg charge 1.61805343549
  4 settings made for charge
set group O charge -1.61805343549
  4 settings made for charge

variable R_cut equal 10.0

pair_style buck/coul/long ${R_cut}
pair_style buck/coul/long 10
pair_coeff 1 1 0.0 0.5 0.0 ${R_cut}
pair_coeff 1 1 0.0 0.5 0.0 10
pair_coeff 1 2 1411.7842896 0.281421547192 0.0 ${R_cut}
pair_coeff 1 2 1411.7842896 0.281421547192 0.0 10
pair_coeff 2 2 12275.1016291 0.0833185517679 22.1397903537 ${R_cut}
pair_coeff 2 2 12275.1016291 0.0833185517679 22.1397903537 10

kspace_style pppm 1.0e-5

neighbor 1.0 bin
neigh_modify every 1 delay 0 check yes
# ---- define settings
compute eng all pe/atom
compute eatoms all reduce sum c_eng
# ---- run minimization
reset_timestep 0
fix 1 all box/relax iso 0.0 vmax 0.001
thermo 10
thermo_style custom step pe lx ly lz xy xz yz press pxx pyy pzz pxy pxz pyz c_eatoms
min_style cg
minimize 1e-25 1e-25 5000 10000
PPPM initialization ...
  G vector (1/distance) = 0.352505
  grid = 8 8 8
  stencil order = 5
  estimated absolute RMS force accuracy = 3.81397e-05
  estimated relative force accuracy = 2.64865e-06
  using double precision FFTs
  3d grid and FFT values/proc = 3375 512
Neighbor list info ...
  1 neighbor list requests
  update every 1 steps, delay 0 steps, check yes
  master list distance cutoff = 11
Memory usage per processor = 4.06549 Mbytes
Step PotEng Lx Ly Lz Xy Xz Yz Press Pxx Pyy Pzz Pxy Pxz Pyz eatoms 
       0   -106.97328       4.2565       4.2565       4.2565            0            0            0    38192.574    38192.574    38192.574    38192.574 8.7875882e-11 -6.3416216e-11 -7.5192229e-11   -106.97328 
       9   -106.99342    4.2893301    4.2893301    4.2893301            0            0            0     -3.54441     -3.54441     -3.54441     -3.54441 -1.7895043e-11 -1.1181496e-10 -2.9549514e-11   -106.99342 
Loop time of 0.008919 on 1 procs for 9 steps with 8 atoms

Minimization stats:
  Stopping criterion = linesearch alpha is zero
  Energy initial, next-to-last, final = 
        -106.973281584     -106.993416645     -106.993416645
  Force two-norm initial, final = 5.51503 0.00172663
  Force max component initial, final = 5.51503 0.00051974
  Final line search alpha, max atom move = 0.00390625 2.03024e-06
  Iterations, force evaluations = 9 26

Pair  time (%) = 0.00247312 (27.7286)
Kspce time (%) = 0.00138807 (15.5631)
Neigh time (%) = 0 (0)
Comm  time (%) = 0.000269413 (3.02066)
Outpt time (%) = 0 (0)
Other time (%) = 0.0047884 (53.6876)

Nlocal:    8 ave 8 max 8 min
Histogram: 1 0 0 0 0 0 0 0 0 0
Nghost:    2189 ave 2189 max 2189 min
Histogram: 1 0 0 0 0 0 0 0 0 0
Neighs:    2344 ave 2344 max 2344 min
Histogram: 1 0 0 0 0 0 0 0 0 0

Total # of neighbors = 2344
Ave neighs/atom = 293
Neighbor list builds = 0
Dangerous builds = 0
unfix 1
# ---- define output variables ----
variable natoms equal "count(all)"
variable tot_energy equal "c_eatoms"
variable length_x equal "lx"
variable length_y equal "ly"
variable length_z equal "lz"
variable tilt_xy equal "xy"
variable tilt_xz equal "xz"
variable tilt_yz equal "yz"
variable tot_press equal "press"
variable press_xx equal "pxx"
variable press_yy equal "pyy"
variable press_zz equal "pzz"
variable press_xy equal "pxy"
variable press_xz equal "pxz"
variable press_yz equal "pyz"

# ---- output ----
print "pypospack:output_section:begin"
pypospack:output_section:begin
print "tot_energy = ${tot_energy}"
tot_energy = -106.993416644887
print "num_atoms = ${natoms}"
num_atoms = 8
print "xx = ${length_x}"
xx = 4.28933011317114
print "yy = ${length_y}"
yy = 4.28933011317114
print "zz = ${length_z}"
zz = 4.28933011317114
print "xy = ${tilt_xy}"
xy = 0
print "xz = ${tilt_xz}"
xz = 0
print "yz = ${tilt_yz}"
yz = 0
print "tot_press = ${tot_press}"
tot_press = -3.54441004469774
print "pxx = ${press_xx}"
pxx = -3.5444100447524
print "pyy = ${press_yy}"
pyy = -3.54441004470836
print "pzz = ${press_zz}"
pzz = -3.54441004463246
print "pxy = ${press_xy}"
pxy = -1.78950429729069e-11
print "pxz = ${press_xz}"
pxz = -1.1181495634962e-10
print "pyz = ${press_yz}"
pyz = -2.95495135207349e-11
print "pypospack:output_section:done"
pypospack:output_section:done
print "pypospack:lammps_sim:done"
pypospack:lammps_sim:done
#------------------------------------------------------------------------------
# RUN THERMOSTAT
# running using an NPT Nose-Hoover style thermostat
#------------------------------------------------------------------------------
variable tempdamp equal 0.1
variable pressdamp equal 1.0
# set initial velocities
velocity all create 200 1188939 mom yes dist gaussian loop all
# fix for Nose-Hoover style thermostat
fix 20 all npt temp 200 200 0.1 aniso 0.0 0.0 1.0 drag 1.0 couple xyz
variable boxx equal lx
variable boxy equal ly
variable boxz equal lz
variable boxp equal press
variable boxt equal temp
# calculate averages every 10000 steps
reset_timestep 0
fix 21 all ave/time 10 10 100 v_boxx v_boxy v_boxz v_boxp v_boxt file lattice.out
thermo_style custom step temp pe ke etotal press lx ly lz press pxx pyy pzz pxy pxz pyz vol
thermo_modify flush yes
thermo 100
run 100000
PPPM initialization ...
  G vector (1/distance) = 0.352181
  grid = 8 8 8
  stencil order = 5
  estimated absolute RMS force accuracy = 3.87093e-05
  estimated relative force accuracy = 2.68821e-06
  using double precision FFTs
  3d grid and FFT values/proc = 3375 512
Memory usage per processor = 3.06549 Mbytes
Step Temp PotEng KinEng TotEng Press Lx Ly Lz Press Pxx Pyy Pzz Pxy Pxz Pyz Volume 
       0          200   -106.99342    0.1809642   -106.81246    2444.7262    4.2893301    4.2893301    4.2893301    2444.7262    2039.1225    3486.5378    1808.5184    1439.5724    106.35943     288.0695    78.916609 
     100     43.24284   -106.82504   0.03912703   -106.78591   -213.36322    4.3014721    4.3014721    4.3014721   -213.36322   -1304.0406    4330.1073   -3666.1563   -1193.7904   -58.384251   -398.25591    79.588688 
     200    161.84901   -106.88524   0.14644438   -106.73879     -3372.29    4.3014391    4.3014391    4.3014391     -3372.29   -9088.6244    10100.505    -11128.75    241.26329    138.64807    199.13704    79.586856 
     300    129.73498   -106.81432   0.11738693   -106.69693    7979.3753    4.2960166    4.2960166    4.2960166    7979.3753     6181.001    14720.718    3036.4075    -2655.692   -129.35211   -332.01815    79.286244 
     400    226.78317   -106.86719   0.20519817   -106.66199    -8861.459    4.3069812    4.3069812    4.3069812    -8861.459   -7422.8337   -8337.8404   -10823.703    1071.1297    516.65079    571.70022    79.894879 
     500    228.88195   -106.84765    0.2070972   -106.64055   -2215.5661    4.3038344    4.3038344    4.3038344   -2215.5661   -7397.4559    8435.5357   -7684.7782   -1233.2642   -229.75669    197.45584    79.719882 
     600    83.116359   -106.70668  0.075205428   -106.63147    10434.958    4.3003939    4.3003939    4.3003939    10434.958    6499.8292    22733.129     2071.915   -1244.7023    259.95214    393.94628    79.528849 
     700     264.8259   -106.86741   0.23962004   -106.62779   -8664.2672    4.3077691    4.3077691    4.3077691   -8664.2672   -13192.553    2126.2563   -14926.505   -1781.2324    380.56652    795.03723     79.93873 
     800    205.08934   -106.81419   0.18556915   -106.62862    1173.6841    4.3031143    4.3031143    4.3031143    1173.6841    6478.4782   -5845.8137    2888.3878    1730.2499   -377.32843   -713.36815    79.679876 
     900    237.05809    -106.8454   0.21449514    -106.6309   -1543.7008    4.3022247    4.3022247    4.3022247   -1543.7008   -8793.7412     15745.41   -11582.771     1106.104    694.26375    224.72502    79.630466 
    1000    95.835459   -106.71939  0.086713937   -106.63268     3405.879     4.306053     4.306053     4.306053     3405.879   -1895.6574    14233.028    -2119.734   -559.01897   -524.64782    1596.9005    79.843233 
    1100    261.90121    -106.8682   0.23697372   -106.63123   -3113.7423    4.3031435    4.3031435    4.3031435   -3113.7423   -3338.9997    4106.8936   -10109.121   -263.31928    559.98184   -176.60145    79.681499 
    1200    221.06342   -106.83105   0.20002283   -106.63103   -595.47736    4.3031996    4.3031996    4.3031996   -595.47736   -2791.6946     215.0381    790.22441     52.39974    10.074081    96.736775    79.684612 
    1300    166.68097   -106.78202   0.15081645   -106.63121    1708.7251    4.3051504    4.3051504    4.3051504    1708.7251   -1073.5263     15260.92   -9061.2186    1494.0452    7.7436293     364.8441    79.793034 
    1400    200.34449   -106.81226   0.18127591   -106.63098    898.75674    4.3035901    4.3035901    4.3035901    898.75674   -10041.048    18178.632   -5441.3131   -1570.6564   -80.610348    855.23695    79.706311 
    1500    163.26835   -106.77876   0.14772863   -106.63103    3345.9293    4.3024186    4.3024186    4.3024186    3345.9293    6528.8017    4793.6726   -1284.6865    1355.7987    672.77802     1624.625    79.641237 
    1600    330.25787   -106.92897   0.29882426   -106.63015   -10612.928    4.3066921    4.3066921    4.3066921   -10612.928   -12462.701   -6415.7797   -12960.302   -1262.7838   -336.71505   -1213.4317    79.878789 
    1700    57.462785   -106.68418  0.051993535   -106.63219    10233.358    4.3024994    4.3024994    4.3024994    10233.358    4226.8941    24181.906    2291.2743     2128.799     280.4514    1379.3771    79.645722 
    1800    252.50905     -106.859    0.2284755   -106.63053   -1562.4962    4.3025694    4.3025694    4.3025694   -1562.4962   -3865.4216    11149.226   -11971.293     118.0756    524.34204   -240.00084    79.649608 
    1900    194.14456   -106.80595   0.17566608   -106.63029   -2365.9318    4.3074109    4.3074109    4.3074109   -2365.9318    -5585.126   -1085.5186   -427.15086    1259.5281   -703.97875    1338.9327    79.918789 
    2000    237.21787   -106.84511   0.21463972   -106.63047    215.06546    4.3006723    4.3006723    4.3006723    215.06546    5268.3308    2468.5152   -7091.6495   -951.62236    761.43317   -212.02649    79.544299 
    2100    186.87265   -106.80051    0.1690863   -106.63142   -471.44273    4.3054741    4.3054741    4.3054741   -471.44273   -10525.437    12925.129     -3814.02    698.98581   -421.83618   -54.554607    79.811035 
    2200    117.56696    -106.7385   0.10637706   -106.63213    3667.1161    4.3045191    4.3045191    4.3045191    3667.1161     6048.794    14425.791   -9473.2362    1450.6213    803.25776   -692.36172    79.757937 
    2300    294.51765   -106.89741   0.26648576   -106.63092     -4844.39    4.3018319    4.3018319    4.3018319     -4844.39   -6776.8541   -2449.1563   -5307.1595   -336.62793   -345.71006    2464.7366     79.60866 
    2400    191.46425   -106.80462   0.17324088   -106.63138   -1577.9566     4.306734     4.306734     4.306734   -1577.9566    2654.4341   -831.28025   -6557.0238    -888.7311    653.45748   -1171.4281    79.881123 
    2500    166.91888   -106.78215   0.15103171   -106.63112    2912.6209    4.3018837    4.3018837    4.3018837    2912.6209   -5250.9975    21453.698   -7464.8383    521.58323    83.171739   -320.14734    79.611535 
    2600    165.24559   -106.78055   0.14951768   -106.63104    2034.2695    4.3046881    4.3046881    4.3046881    2034.2695    -398.4176    9459.6149   -2958.3888    194.75278    625.30723   -1985.9414    79.767331 
    2700     260.2691   -106.86565   0.23549695   -106.63016   -4280.1089    4.3043405    4.3043405    4.3043405   -4280.1089   -874.56317   -2027.0092   -9938.7544   -879.54509    398.50822     1558.004    79.748008 
    2800    209.04722   -106.82023   0.18915032   -106.63108   -1184.7013    4.3035266    4.3035266    4.3035266   -1184.7013   -4776.5341    4966.9594   -3744.5292    124.29965    589.68459   -124.09052    79.702779 
    2900    152.12427   -106.76901   0.13764524   -106.63137    3021.8358    4.3045087    4.3045087    4.3045087    3021.8358    2021.7297    18804.541   -11760.763   -1498.5461   -18.983856    1.0545633    79.757362 
    3000    190.51809   -106.80316   0.17238477   -106.63078    649.54988    4.3026253    4.3026253    4.3026253    649.54988   -7322.0717    13173.018   -3902.2964    1141.5451    1405.4159   -817.83726    79.652712 
    3100    249.76552    -106.8567   0.22599309   -106.63071   -5252.1802    4.3059303    4.3059303    4.3059303   -5252.1802    2661.7902   -6846.4486   -11571.882   -1352.8108    32.537131    764.53204    79.836406 
    3200    216.33271   -106.82709   0.19574238   -106.63135     129.5088    4.3026649    4.3026649    4.3026649     129.5088   -5171.2673     8564.026   -3004.2323    967.02999    559.95471    576.46749    79.654912 
    3300    126.19535   -106.74594    0.1141842   -106.63176    3331.7349    4.3042747    4.3042747    4.3042747    3331.7349    297.79879    20157.671   -10460.265   -2104.6661    1534.6593     34.08023    79.744356 
    3400    229.51041   -106.83867   0.20766584     -106.631    -2641.364    4.3047119    4.3047119    4.3047119    -2641.364   -4411.8496     3558.654   -7070.8965    1612.6987   -1082.1561   -1160.2469    79.768654 
    3500    223.02654   -106.83223    0.2017991   -106.63043   -1470.5312    4.3028288    4.3028288    4.3028288   -1470.5312   -1228.9469    1805.4737   -4988.1203   -878.82012    2676.8946    -1215.759    79.664015 
    3600    212.80936   -106.82304   0.19255438   -106.63048   -3130.7598    4.3053857    4.3053857    4.3053857   -3130.7598   -2664.9305    3602.7802   -10330.129   -428.74555   -530.03901    2082.5233    79.806119 
    3700    142.36524   -106.76014   0.12881506   -106.63132    3614.9062    4.3031635    4.3031635    4.3031635    3614.9062   -4203.3271    19347.012   -4298.9664   -1876.4514    1799.0983    720.86464    79.682611 
    3800     207.6337   -106.81916   0.18787133   -106.63129   -923.47558    4.3038595    4.3038595    4.3038595   -923.47558   -1460.6877    8862.7511    -10172.49    1042.3943    16.456681    238.94041    79.721281 
    3900    247.28623   -106.85511   0.22374977   -106.63136   -3870.0407    4.3045483    4.3045483    4.3045483   -3870.0407   -1967.4929    -7640.866   -2001.7633   -538.76393     1026.371   -162.69823    79.759561 
    4000     205.3269   -106.81785   0.18578409   -106.63207   -34.000619    4.3035496    4.3035496    4.3035496   -34.000619   -5467.1696    15515.606   -10150.439   -588.51429     584.6383    1831.1535    79.704061 
    4100    106.02776   -106.72841  0.095936144   -106.63248     5860.927    4.3032778    4.3032778    4.3032778     5860.927    509.73827    19620.495   -2547.4525   -525.17538    307.57198    1449.3245    79.688961 
    4200    271.60632   -106.87693   0.24575511   -106.63118    -5832.527    4.3052622    4.3052622    4.3052622    -5832.527   -6657.6496    224.93032   -11064.862    1834.9745    618.25904    456.47796    79.799252 
    4300    212.12736   -106.82277   0.19193729   -106.63083    593.86009     4.302791     4.302791     4.302791    593.86009     1804.335    3794.2871   -3817.0418   -151.30572   -412.14079   -1564.2216    79.661919 
    4400    189.49383   -106.80271     0.171458   -106.63125    549.99727    4.3047082    4.3047082    4.3047082    549.99727   -2439.4786     11855.12   -7765.6497   -726.67123    1598.4397    1094.6786    79.768449 
    4500    170.64376   -106.78578   0.15440206   -106.63138    2536.0267     4.303682     4.303682     4.303682    2536.0267   -5658.8197    18936.379   -5669.4793   -213.55943   -628.31486    1446.0222    79.711415 
    4600    187.45518   -106.80066   0.16961338   -106.63105    2358.2075    4.3029397    4.3029397    4.3029397    2358.2075    5909.9058    3474.5177   -2309.8009    351.13562    1555.5841     556.9307    79.670177 
    4700    307.99938   -106.90904   0.27868432   -106.63036   -8218.8742    4.3056688    4.3056688    4.3056688   -8218.8742   -11203.203   -5100.4666   -8352.9528   -812.81235   -746.29023     371.2514    79.821861 
    4800    85.973641   -106.71036  0.077790757   -106.63257     8708.748    4.3024228    4.3024228    4.3024228     8708.748    8473.7208    22544.489   -4891.9655   -290.82769    1235.1544   -607.76598    79.641466 
    4900    234.91997   -106.84414   0.21256053   -106.63158    -1930.302    4.3043869    4.3043869    4.3043869    -1930.302   -9397.3168    12456.012   -8849.6009    906.60144     81.13383    2217.7273    79.750588 
    5000     201.7549   -106.81381   0.18255207   -106.63125   -760.20094    4.3041821    4.3041821    4.3041821   -760.20094    2930.4198   -1255.7315    -3955.291    596.29489    -187.2616    1281.9118    79.739208 
    5100    230.37052   -106.83931   0.20844408   -106.63086   -1021.8504    4.3033845    4.3033845    4.3033845   -1021.8504   -2059.8485    4501.7398   -5507.4424    521.97639    712.38524   -896.62827    79.694885 
    5200    168.31969   -106.78346   0.15229919   -106.63116    848.94344    4.3048581    4.3048581    4.3048581    848.94344   -6276.3673    13454.629   -4631.4313    232.17097    -874.6308   -1697.4238    79.776781 
    5300    165.11582   -106.78045   0.14940026   -106.63105    3472.1788    4.3028108    4.3028108    4.3028108    3472.1788     4512.931    14824.759   -8921.1534     591.8067    1585.0738    1043.2008    79.663019 
    5400    265.95477   -106.87116   0.24064147   -106.63052   -4715.1307    4.3049265    4.3049265    4.3049265   -4715.1307   -9724.9039   -1102.8799   -3317.6082   -586.88302   -902.27018    502.45678    79.780587 
    5500    196.24663   -106.80874   0.17756807   -106.63117   -81.914605    4.3037778    4.3037778    4.3037778   -81.914605     6710.778    1217.4737   -8173.9955   -245.34799    1420.1051     435.2075    79.716739 
    5600     155.2044   -106.77189   0.14043221   -106.63146    3266.3745    4.3031844    4.3031844    4.3031844    3266.3745   -10640.215    25607.505    -5168.167   -1174.2264    99.622714   -3079.2158    79.683767 
    5700    174.22092    -106.7896   0.15763875   -106.63196    569.90325    4.3047148    4.3047148    4.3047148    569.90325     2720.217    6728.6981   -7739.2053    45.855609    865.42892    1451.1868    79.768819 
    5800    285.86639    -106.8896   0.25865792   -106.63094   -4690.0112    4.3035777    4.3035777    4.3035777   -4690.0112   -5814.5657   -869.48332   -7385.9845    405.21398    933.11434    267.12003    79.705619 
    5900    168.95194   -106.78485   0.15287127   -106.63198    1676.5269     4.304241     4.304241     4.304241    1676.5269   -1847.4966    11489.433   -4612.3556    142.67233   -295.17026    168.00113    79.742482 
    6000     165.5514   -106.78132   0.14979439   -106.63152    2439.9538    4.3039438    4.3039438    4.3039438    2439.9538   -2299.7891    18669.332   -9049.6809     102.3184    1094.7601   -1987.5474    79.725966 
    6100    202.49016   -106.81374   0.18321735   -106.63052   -210.05958    4.3032784    4.3032784    4.3032784   -210.05958   -5780.7356    7471.1428    -2320.586    1451.8552   -665.20195   -778.27536    79.688989 
    6200    240.87424   -106.84828   0.21794808   -106.63033   -4124.7774    4.3053983    4.3053983    4.3053983   -4124.7774    1728.4184   -3316.0359   -10786.715     436.1698    1790.4455    256.32415    79.806822 
    6300    211.55036   -106.82199   0.19141521   -106.63057   -741.63813    4.3031416    4.3031416    4.3031416   -741.63813   -7686.0138    8998.3892   -3537.2898   -1076.7439   -954.56696    1700.2112    79.681392 
    6400    113.55961   -106.73403   0.10275112   -106.63128    4099.5971    4.3040932    4.3040932    4.3040932    4099.5971    1413.3631    23095.219    -12209.79   -1721.5067    1762.0046   -1451.7511    79.734267 
    6500    253.03504   -106.86017   0.22895143   -106.63122   -3622.5423    4.3045233    4.3045233    4.3045233   -3622.5423   -7541.0117   -2480.7568   -845.85836   -34.180631   -479.74292   -135.97363     79.75817 
    6600    228.04933   -106.83786   0.20634382   -106.63152    -2577.371    4.3030151    4.3030151    4.3030151    -2577.371   -135.76869    154.43271   -7750.7771   -170.25707    1982.1363    699.17097    79.674365 
    6700    164.53899   -106.78071   0.14887833   -106.63183    474.62392    4.3051011    4.3051011    4.3051011    474.62392    -5867.044     11809.47   -4518.5541   -1223.6991    1239.0579    2000.9022    79.790294 
    6800    180.69997   -106.79502   0.16350113   -106.63152    799.61334    4.3031327    4.3031327    4.3031327    799.61334   -3510.5808    14649.892   -8740.4709   -87.900068   -203.51238   -167.03451      79.6809 
    6900    216.64872   -106.82709   0.19602832   -106.63106   -2640.3836    4.3044036    4.3044036    4.3044036   -2640.3836   -4135.5995    3742.4494   -7528.0006    1136.1601    2055.9127   -1379.3509    79.751516 
    7000    236.03686   -106.84448   0.21357111   -106.63091   -2456.6747    4.3044881    4.3044881    4.3044881   -2456.6747   -4393.3243   -720.46995   -2256.2297    803.91859   -1005.9808    242.51457    79.756213 
    7100    194.59788   -106.80722   0.17607625   -106.63114    121.86218    4.3031038    4.3031038    4.3031038    121.86218   -3717.7068    13574.465   -9491.1717   -1048.3977      2072.08    2251.9356     79.67929 
    7200    113.42802   -106.73412   0.10263205   -106.63149    4647.0015     4.304532     4.304532     4.304532    4647.0015   -4830.4918    19380.286   -608.79021    247.74346   -961.52289    838.92417    79.758654 
    7300    300.66519   -106.90262   0.27204818   -106.63057   -5735.5423    4.3037169    4.3037169    4.3037169   -5735.5423   -3140.4267   -3542.3865   -10523.814   -1107.1075     862.6152   -715.63975    79.713356 
    7400    182.30518   -106.79655   0.16495356   -106.63159    418.59365    4.3040856    4.3040856    4.3040856    418.59365   -4484.0623    7036.1504   -1296.3072    235.04787   -57.576419    1087.0284    79.733846 
    7500     188.7349   -106.80216    0.1707713   -106.63139    1300.4763    4.3041034    4.3041034    4.3041034    1300.4763   -3587.6589    16302.556   -8813.4678   -1598.6283    604.27562    1170.0665    79.734835 
    7600    160.85066   -106.77709   0.14554105   -106.63155    2674.1808    4.3032089    4.3032089    4.3032089    2674.1808   -5403.9276     16587.03   -3160.5604    255.81286    849.12493    2125.9434    79.685133 
    7700    239.29775   -106.84738   0.21652164   -106.63086   -3777.0877    4.3047917    4.3047917    4.3047917   -3777.0877   -1504.9392    -4352.876   -5473.4479   -1763.5175    610.19824   -849.04289    79.773091 
    7800    238.20125   -106.84592    0.2155295   -106.63039   -1564.6112    4.3039303    4.3039303    4.3039303   -1564.6112   -4944.0824    5677.8601   -5427.6113    1802.9449    1019.4687   -539.51019    79.725212 
    7900    128.09511   -106.74718   0.11590314   -106.63128     4368.595    4.3035797    4.3035797    4.3035797     4368.595    -1576.395    17284.461   -2602.2812    283.47826    91.228812    578.75338    79.705734 
    8000    213.27174   -106.82364   0.19297275   -106.63067     -1225.63     4.304664     4.304664     4.304664     -1225.63    -6149.026    10171.771    -7699.635     872.9924    151.92708    1466.8687    79.765993 
    8100    231.35027   -106.83992   0.20933058   -106.63059   -1614.1513    4.3030813    4.3030813    4.3030813   -1614.1513   -221.86074   -6250.8411     1630.248   -1900.4994    379.35533    65.515932    79.678041 
    8200    213.94351   -106.82536   0.19358058   -106.63178   -3131.9213    4.3047419    4.3047419    4.3047419   -3131.9213   -5919.6081    7649.8481   -11126.004    1858.9516    523.56216   -390.69966    79.770324 
    8300    140.84093    -106.7595   0.12743583   -106.63206    4408.4309    4.3035188    4.3035188    4.3035188    4408.4309   -3654.2978     16927.34   -47.749333    286.51913    -1055.446   -229.83787    79.702347 
    8400    222.94965   -106.83294   0.20172952   -106.63121   -1485.9466    4.3034099    4.3034099    4.3034099   -1485.9466   -3449.1857    6599.9336   -7608.5876    790.66041    310.24594    3549.7714    79.696296 
    8500    230.18316   -106.83925   0.20827456   -106.63097   -3394.4104      4.30561      4.30561      4.30561   -3394.4104   -8083.4355   -2136.0427    36.247042   -1568.5447   -222.60578   -708.49887    79.818593 
    8600    188.79527   -106.80243   0.17082593    -106.6316     2958.232    4.3018769    4.3018769    4.3018769     2958.232    260.08436    11171.938   -2557.3267    1729.1095    828.57929   -787.19473    79.611157 
    8700    181.94589   -106.79628   0.16462846   -106.63165    -829.0262    4.3053936    4.3053936    4.3053936    -829.0262    -9416.494    14023.574   -7094.1582    1189.8537    318.89623   -389.37042    79.806559 
    8800    175.22527   -106.78961    0.1585475   -106.63107    2334.7265    4.3032764    4.3032764    4.3032764    2334.7265   -1064.8084    10464.903   -2395.9153    1038.7829    61.288823    865.53646    79.688882 
    8900    291.75186   -106.89396   0.26398322   -106.62997   -5863.0878    4.3039777    4.3039777    4.3039777   -5863.0878   -5734.0808   -6270.0284   -5585.1542   -58.241641    175.19689    156.31268    79.727846 
    9000    123.03791   -106.74268   0.11132728   -106.63135    3527.2934    4.3052414    4.3052414    4.3052414    3527.2934   -6095.4045      17650.5   -973.21526   -1249.1136    168.59497   -2028.8125    79.798097 
    9100    227.01739    -106.8357   0.20541011   -106.63029    1231.0693    4.3018383    4.3018383    4.3018383    1231.0693    -3210.013    12770.275   -5867.0543    2150.9058    555.61984   -333.83851    79.609012 
    9200    167.25129   -106.78206   0.15133248   -106.63073   -525.08961    4.3060139    4.3060139    4.3060139   -525.08961   -4835.9203    6334.2446   -3073.5931    686.60376   -335.94878    705.80006    79.841056 
    9300    276.13332    -106.8806   0.24985123   -106.63075   -4166.0745    4.3029037    4.3029037    4.3029037   -4166.0745   -1967.1551   -3552.3834    -6978.685   -108.23842    490.90211    938.78699    79.668179 
    9400    148.55105   -106.76596   0.13441211   -106.63155    2219.9147    4.3042837    4.3042837    4.3042837    2219.9147   -4953.5812    15217.627   -3604.3019   -2056.4496   -1124.2329   -2153.4114    79.744855 
    9500    169.58083   -106.78479    0.1534403   -106.63134   -117.06572    4.3047745    4.3047745    4.3047745   -117.06572   -7617.9405    13670.131   -6403.3877     919.8726    877.76757   -399.24946    79.772134 
    9600    249.98085   -106.85686   0.22618793   -106.63067   -1750.0106    4.3022404    4.3022404    4.3022404   -1750.0106   -2549.4286    829.14883   -3529.7519    1260.0637    501.14806   -1998.6758     79.63134 
    9700    204.48543    -106.8166   0.18502272   -106.63157   -3125.4101    4.3062121    4.3062121    4.3062121   -3125.4101   -2949.6543    -2222.126   -4204.4501   -873.48803    1309.8438    1726.0929    79.852081 
    9800    162.42095   -106.77908   0.14696189   -106.63212    3171.7632    4.3018469    4.3018469    4.3018469    3171.7632   -4690.1141     21586.03   -7380.6267     -3298.83   -314.76018   -1594.8453    79.609492 
    9900     172.4984   -106.78825   0.15608018   -106.63217      684.711    4.3051057    4.3051057    4.3051057      684.711   -4998.5611    8660.4556   -1607.7616    -267.9712      -15.357   -1219.9386     79.79055 
   10000    254.33682   -106.86144    0.2301293   -106.63131   -4574.6574    4.3039975    4.3039975    4.3039975   -4574.6574   -8258.6341    2768.4565   -8233.7948    931.98745    1334.5962   -557.03568    79.728947 
   10100    204.32996   -106.81585   0.18488204   -106.63097    214.33529    4.3033465    4.3033465    4.3033465    214.33529   -1323.2509    3800.9551   -1834.6983   -425.44947   -89.679816    2561.0796    79.692774 
   10200     167.0681   -106.78255   0.15116672   -106.63139    964.19702    4.3049687    4.3049687    4.3049687    964.19702   -7174.0746    18700.205   -8633.5392   -1960.2205    902.48163   -1944.6228    79.782935 
   10300    193.04515   -106.80599   0.17467131   -106.63132    1859.1577    4.3025554    4.3025554    4.3025554    1859.1577   -1142.5412    7332.2068   -612.19237   -825.93113   -1599.5556   -220.86633     79.64883 
   10400    227.20676   -106.83636   0.20558145   -106.63078     -2219.52    4.3052829    4.3052829    4.3052829     -2219.52   -5521.5388    1727.7681   -2864.7894    1026.4426     1006.144   -1472.4072    79.800402 
   10500    240.05308   -106.84759   0.21720507   -106.63038   -1785.0284     4.303599     4.303599     4.303599   -1785.0284   -4419.0584    2213.8493    -3149.876    362.73967     -263.639    1952.8156    79.706803 
   10600    117.95701   -106.73795   0.10672998   -106.63122    5892.4952    4.3035617    4.3035617    4.3035617    5892.4952   -2682.1685    23340.419    -2980.765   -618.76515    1024.5943   -67.741642    79.704731 
   10700    260.70786   -106.86644   0.23589395   -106.63055   -4374.7978    4.3046375    4.3046375    4.3046375   -4374.7978   -5038.5992   -125.66718    -7960.127   -2929.6033    1.4359057   -746.26277    79.764519 
   10800     160.9482   -106.77646   0.14562932   -106.63083    3098.6957    4.3032944    4.3032944    4.3032944    3098.6957     2288.821    5006.9297    2000.3363    1267.1624    219.97199   -445.89447    79.689883 
   10900    275.71747   -106.87989   0.24947496   -106.63041   -5461.5637     4.304764     4.304764     4.304764   -5461.5637   -8301.6848   -328.27869   -7754.7275     283.6446    236.32122    1650.1693    79.771553 
   11000    98.786834   -106.72117  0.089384403   -106.63179    6727.8893    4.3035197    4.3035197    4.3035197    6727.8893    -89.66985    20219.271    54.066444    515.66716     316.8648    1256.2219    79.702399 
   11100    251.36232   -106.85824   0.22743791    -106.6308   -3018.8252    4.3038616    4.3038616    4.3038616   -3018.8252   -5778.0217    2976.5512   -6255.0052   -1451.7931    1669.8081   -463.38534    79.721394 
   11200    206.95661   -106.81797   0.18725869   -106.63071   -1864.1756    4.3044627    4.3044627    4.3044627   -1864.1756    1666.0111   -3390.9361   -3867.6018    932.31368   -1326.0599   -402.74832    79.754801 
   11300    196.98146   -106.80902   0.17823296   -106.63078    116.89573    4.3039909    4.3039909    4.3039909    116.89573   -4338.0106    6386.9002   -1698.2024    2280.7767    248.31608    1251.9268    79.728582 
   11400      159.489   -106.77533     0.144309   -106.63102    1771.7468    4.3033988    4.3033988    4.3033988    1771.7468   -5102.6656    18371.123   -7953.2172    1485.9737   -781.62634    1831.4192    79.695678 
   11500    213.71213   -106.82434   0.19337122   -106.63097   -1822.9364    4.3051254    4.3051254    4.3051254   -1822.9364   -4073.8158    33.884844   -1428.8782    -2440.506    958.01478    -919.6802    79.791646 
   11600    253.99165   -106.86065   0.22981698   -106.63083   -2672.7852    4.3028227    4.3028227    4.3028227   -2672.7852   -3649.4791    4621.9486   -8990.8251    211.77926   -414.12096    168.77623     79.66368 
   11700    153.42704   -106.77037   0.13882401   -106.63155    2094.3405    4.3048947    4.3048947    4.3048947    2094.3405    365.19858    5539.1855    378.63742     1088.678   -461.25549    720.24059    79.778816 
   11800     178.9194   -106.79334   0.16189003   -106.63145    2156.6269    4.3032031    4.3032031    4.3032031    2156.6269   -7450.6222    22209.687   -8289.1839    928.81594   -251.39179    2159.1776    79.684808 
   11900     216.7321   -106.82732   0.19610376   -106.63121   -1298.6026    4.3037987    4.3037987    4.3037987   -1298.6026    -586.1804   -3486.4854    176.85807   -1539.0936    676.26795     312.0596    79.717899 
   12000    252.62085   -106.85917   0.22857666   -106.63059   -4486.0498    4.3056276    4.3056276    4.3056276   -4486.0498   -8140.4112    3573.5014   -8891.2396    -327.1512    626.64147   -1173.0756    79.819574 
   12100    161.39732   -106.77647   0.14603568   -106.63044    3893.0504    4.3020248    4.3020248    4.3020248    3893.0504    1980.0997     11246.77    -1547.719    1678.5739   -337.96294     699.4369    79.619369 
   12200    166.08179   -106.78087    0.1502743   -106.63059    1296.0546    4.3055306    4.3055306    4.3055306    1296.0546    -6940.126     16469.94   -5641.6498    2582.5449   -110.31114    1552.1679    79.814177 
   12300    243.60425   -106.85109   0.22041825   -106.63067     -2037.62     4.302928     4.302928     4.302928     -2037.62   -1612.0386    -1906.023   -2594.7985   -983.32259   -715.92501   -434.88823    79.669525 
   12400     195.9963   -106.80865   0.17734158   -106.63131   -227.70817    4.3043117    4.3043117    4.3043117   -227.70817   -3091.1293    4279.1743   -1871.1696   -832.29818    833.61724   -1428.1124    79.746412 
   12500    241.10248   -106.84892   0.21815459   -106.63077   -3730.6846    4.3050041    4.3050041    4.3050041   -3730.6846   -6845.0091     5318.085   -9665.1296    481.60283   -1059.3701    -20.26117    79.784899 
   12600    81.024959   -106.70485  0.073313085   -106.63153    7874.4377    4.3021481    4.3021481    4.3021481    7874.4377    3308.0542    20531.045   -215.78582    1744.1417    1055.8367    132.95842    79.626213 
   12700    302.43928   -106.90393   0.27365342   -106.63028    -8168.253    4.3059238    4.3059238    4.3059238    -8168.253   -8621.7207    -7140.844   -8742.1943   -930.35238   -1676.7727    2140.1849    79.836046 
   12800    169.26496   -106.78416   0.15315449     -106.631    1586.2473    4.3028291    4.3028291    4.3028291    1586.2473    415.70938     3466.029    877.00352   -1624.9384    921.79107   -2235.2777    79.664035 
   12900    224.12583   -106.83354   0.20279376   -106.63075   -2303.0959    4.3047556    4.3047556    4.3047556   -2303.0959   -7018.7629    9181.1471   -9071.6719   -228.41886    329.72651   -191.14673    79.771084 
   13000    138.60403   -106.75664   0.12541184   -106.63123    3113.6507    4.3038763    4.3038763    4.3038763    3113.6507   -1819.8213    13358.302   -2197.5283    2959.0329    506.52595    195.55334    79.722212 
   13100    246.01775   -106.85294   0.22260203   -106.63034   -2770.1306     4.303646     4.303646     4.303646   -2770.1306    482.15627   -2505.8914   -6286.6565    652.67743    -515.6902    810.89798    79.709417 
   13200    210.79845   -106.82143   0.19073486   -106.63069   -1834.7553    4.3047968    4.3047968    4.3047968   -1834.7553     -4215.24    2940.1974   -4229.2234   -1606.3521   -299.52158   -1044.1783    79.773376 
   13300    169.31115   -106.78406   0.15319628   -106.63086    1728.8263    4.3033202    4.3033202    4.3033202    1728.8263   -3735.1281    13872.358   -4950.7514    795.35239    93.606591   -1834.3608    79.691313 
   13400    184.48623   -106.79765   0.16692702   -106.63072    627.18466    4.3041931    4.3041931    4.3041931    627.18466   -1644.9107    12656.955   -9130.4903    2021.1096   -96.333988   -5.9094149    79.739815 
   13500    248.36216    -106.8554    0.2247233   -106.63067   -3535.8534    4.3044437    4.3044437    4.3044437   -3535.8534   -2995.4501   -5819.9956   -1792.1144    996.30397   -720.65564     1465.257    79.753748 
   13600    198.41118   -106.81074   0.17952661   -106.63122    1072.6364    4.3034884    4.3034884    4.3034884    1072.6364    2474.5976    9199.8911   -8456.5794   -1921.6847   -1668.3042   -757.80733    79.700656 
   13700    167.70407   -106.78279   0.15174217   -106.63105    2025.8838    4.3043368    4.3043368    4.3043368    2025.8838   -5770.7666    10836.964    1011.4539   -380.06157    568.81237   -1300.5469    79.747804 
   13800    204.37715   -106.81542   0.18492474   -106.63049    64.225533     4.303762     4.303762     4.303762    64.225533   -2460.1733    13537.681   -10884.831    1032.0838   -1178.9977     291.8886    79.715859 
   13900    212.44309    -106.8227   0.19222297   -106.63048   -1355.6744    4.3039013    4.3039013    4.3039013   -1355.6744   -867.77347   -3225.9334    26.683594    1974.3791    797.10589    720.61761    79.723599 
   14000    243.43716   -106.85089   0.22026705   -106.63063   -3751.0429    4.3051045    4.3051045    4.3051045   -3751.0429   -3841.4139    3096.5751    -10508.29   -1100.3005   -1092.5343     286.4317    79.790482 
   14100    138.28001   -106.75631   0.12511866   -106.63119    4748.1017    4.3025524    4.3025524    4.3025524    4748.1017    3.2151704    15147.075   -905.98544   -1036.5352   -838.07998   -2135.4353    79.648667 
   14200    192.98174   -106.80504   0.17461394   -106.63042    -991.9479    4.3052202    4.3052202    4.3052202    -991.9479   -6366.0362    10245.314   -6855.1216    344.23768    563.48194   -488.68242    79.796917 
   14300    252.78287   -106.85862   0.22872325    -106.6299   -3025.6458      4.30365      4.30365      4.30365   -3025.6458   -2246.6932    -3634.584   -3195.6602    1740.7049   -1540.5248    659.84734    79.709637 
   14400    194.12088   -106.80634   0.17564465   -106.63069    -356.3887    4.3038389    4.3038389    4.3038389    -356.3887   -3241.3252    7067.6083   -4895.4492   -812.16451    1089.5103    638.71079    79.720135 
   14500    162.40207   -106.77777    0.1469448   -106.63082    809.50721    4.3050746    4.3050746    4.3050746    809.50721   -4413.3241    14189.267    -7347.421   -2251.7216   -2350.8858   -1243.2189    79.788822 
   14600    185.54165   -106.79825   0.16788198   -106.63037    980.26313    4.3024351    4.3024351    4.3024351    980.26313   -5032.3888    7976.3634    -3.185264   -192.98141   -576.91532   -585.87866    79.642152 
   14700    269.07359   -106.87364   0.24346344   -106.63018   -7026.6471    4.3059782    4.3059782    4.3059782   -7026.6471   -5611.6555   -5250.8533   -10217.433    889.69577    117.83659    227.36025    79.839071 
   14800    159.83973   -106.77563   0.14462635     -106.631    3213.0495     4.302813     4.302813     4.302813    3213.0495   -5048.8322    13649.126    1038.8548   -375.63231   -765.90669    2259.1357    79.663139 
   14900    196.73233    -106.8087   0.17800755   -106.63069   -344.76498    4.3043379    4.3043379    4.3043379   -344.76498   -3902.9321    14392.502   -11523.865    -2242.713    662.35421   -1123.2677    79.747867 
   15000    171.21176   -106.78591     0.154916   -106.63099     727.3496    4.3042967    4.3042967    4.3042967     727.3496    -3286.799    3660.7575    1808.0903   -1194.7523   -2189.5639   -1723.5827    79.745579 
   15100     279.1611   -106.88308   0.25259083   -106.63049    -5033.808    4.3036073    4.3036073    4.3036073    -5033.808    -7723.349   -1797.0996   -5580.9753    1377.6309    676.80318    1232.8655    79.707264 
   15200    139.12029   -106.75762   0.12587896   -106.63174    2044.8043    4.3048949    4.3048949    4.3048949    2044.8043   -2959.9524    12842.767   -3748.4015     57.21349    -592.9814    1152.1899     79.77883 
   15300    229.31005   -106.83866   0.20748455   -106.63118    -334.0194    4.3025644    4.3025644    4.3025644    -334.0194   -9173.8935     13652.75    -5480.915   -2336.9633    894.22254   -721.54431    79.649331 
   15400    176.72574    -106.7911   0.15990516   -106.63119    294.85396    4.3053451    4.3053451    4.3053451    294.85396    1106.2171    5548.6454   -5770.3006   -1193.2642    -1542.465    -1230.309    79.803859 
   15500    226.53171   -106.83585   0.20497065   -106.63088   -1912.6518    4.3031235    4.3031235    4.3031235   -1912.6518   -6560.2541   -991.93686    1814.2356    781.06318   -529.56696   -153.04388    79.680386 
   15600    216.03242   -106.82637   0.19547067    -106.6309   -886.06168    4.3045871    4.3045871    4.3045871   -886.06168   -5036.4616     10530.27   -8151.9933    1824.2292   -605.02353    1817.1755    79.761718 
   15700    122.38082   -106.74208   0.11073274   -106.63134    3827.1516     4.303753     4.303753     4.303753    3827.1516   -5712.8788    15459.178    1735.1557   -1350.2435   -607.32088   -846.15903    79.715358 
   15800     291.8028   -106.89397   0.26402931   -106.62995   -5653.6164    4.3037753    4.3037753    4.3037753   -5653.6164   -5497.6461   -23.652322   -11439.551   -997.65428    768.60163   -1189.8198    79.716602 
   15900    153.44199   -106.76951   0.13883754   -106.63067    1783.9654    4.3051273    4.3051273    4.3051273    1783.9654   -282.36521    2803.5567    2830.7046    212.99524   -2545.9069    261.97069    79.791749 
   16000    213.63265   -106.82354   0.19329931   -106.63024   -834.86392     4.302623     4.302623     4.302623   -834.86392   -6602.6777    12955.659   -8857.5734    1798.2834    881.41603    1180.2106    79.652588 
   16100    137.84076    -106.7555   0.12472122   -106.63078    3518.9377    4.3050522    4.3050522    4.3050522    3518.9377   -2934.1907    12085.741    1405.2631   -564.68503   -1748.3722     1462.856    79.787577 
   16200    285.02229   -106.88823   0.25789415   -106.63033   -5615.5512    4.3035126    4.3035126    4.3035126   -5615.5512   -7386.9236   -2758.7244   -6701.0055    -1484.003    1934.4768   -1255.6964    79.702005 
   16300    193.81052    -106.8066   0.17536383   -106.63123   -112.36324    4.3044152    4.3044152    4.3044152   -112.36324   -2345.5711    5096.6834   -3088.2021    118.48166   -964.11646    -775.3612    79.752164 
   16400    139.70703   -106.75784   0.12640986   -106.63143    4260.5473    4.3036959    4.3036959    4.3036959    4260.5473   -3548.6884    16720.904   -390.57332    2693.1472   -671.75164    2427.7147    79.712187 
   16500    226.27524   -106.83549   0.20473859   -106.63075     -1529.06    4.3036269    4.3036269    4.3036269     -1529.06   -5330.4719    6610.6978   -5867.4059    618.33655    -121.3673    918.11451    79.708355 
   16600    197.79445   -106.80914   0.17896858   -106.63017   -300.11031    4.3049769    4.3049769    4.3049769   -300.11031   -704.60474   -1826.5255    1630.7993   -309.83663   -1020.9738   -1657.6856    79.783388 
   16700    275.45097   -106.87925   0.24923383   -106.63002   -3856.8785    4.3030888    4.3030888    4.3030888   -3856.8785   -7550.5644    4403.5606   -8423.6316   -519.05761      1174.86   -260.86431    79.678457 
   16800    112.40021   -106.73347   0.10170207   -106.63177    4860.4897    4.3046831    4.3046831    4.3046831    4860.4897    909.05284    11360.802    2311.6145    1919.5762   -2092.1069    1197.6166    79.767054 
   16900    214.00529   -106.82451   0.19363649   -106.63088    99.932942    4.3029963    4.3029963    4.3029963    99.932942   -4256.7922    10090.609   -5534.0183    353.84396    253.65174    1350.2636    79.673323 
   17000     213.7178   -106.82399   0.19337635   -106.63061   -1271.0018    4.3045565    4.3045565    4.3045565   -1271.0018    -1250.808   -3227.6582    665.46087   -245.68092   -1414.6408   -1153.7123    79.760017 
   17100     231.6553    -106.8402   0.20960658   -106.63059   -2955.9874    4.3044211    4.3044211    4.3044211   -2955.9874   -4996.0991    3115.9057   -6987.7687   -2157.5987    1075.3718   -954.58763    79.752493 
   17200    187.13462   -106.79994   0.16932334   -106.63062    1354.6985    4.3032325    4.3032325    4.3032325    1354.6985   -5345.3485    13106.003    -3696.559    671.94069   -281.04517   -163.31345    79.686441 
   17300    143.90328   -106.76122   0.13020672   -106.63101    2478.9993    4.3047641    4.3047641    4.3047641    2478.9993    -686.0001    9042.1676   -919.16967    2440.1464   -83.634635    2229.0923    79.771558 
   17400    277.80034   -106.88153   0.25135958   -106.63017   -4657.8158    4.3033563    4.3033563    4.3033563   -4657.8158   -3167.2856   -4758.5743   -6047.5877    -482.1117   -1091.3983   -2023.8186    79.693317 
   17500    157.14196   -106.77327   0.14218535   -106.63109    2486.7218    4.3047305    4.3047305    4.3047305    2486.7218    -1841.567    7346.3029    1955.4295   -742.93629     340.7257   -389.41762    79.769692 
   17600    222.73866   -106.83194   0.20153862    -106.6304   -2063.1567    4.3036387    4.3036387    4.3036387   -2063.1567   -6373.9977    11200.765   -11016.237    72.914939    578.22612    -1742.101    79.709012 
   17700    154.30389   -106.77001   0.13961741   -106.63039     2697.461    4.3039872    4.3039872    4.3039872     2697.461   -3024.2541    7834.9815    3281.6556    2149.7753   -1076.1582    2251.6756    79.728373 
   17800    268.95113   -106.87315   0.24335264    -106.6298   -5111.7614    4.3046499    4.3046499    4.3046499   -5111.7614   -1484.8136    -6369.253   -7481.2176    367.61595   -770.36286   -1523.7643    79.765211 
   17900    168.65623   -106.78356    0.1526037   -106.63096    1827.5442    4.3033476    4.3033476    4.3033476    1827.5442   -2922.3078     8972.593   -567.65249   -2002.8068   -546.02363   -2158.3452    79.692835 
   18000    185.00185   -106.79866   0.16739356   -106.63127    1599.7307    4.3043916    4.3043916    4.3043916    1599.7307    -3565.879    12916.814   -4551.7426   -1661.4147    649.39047    97.307786     79.75085 
   18100    216.67922   -106.82705   0.19605591   -106.63099   -1177.4091    4.3036662    4.3036662    4.3036662   -1177.4091   -7467.7878     7156.259   -3220.6986    1107.4187    224.93823    2083.3537    79.710538 
   18200    199.97078   -106.81151   0.18093776   -106.63057   -359.91096    4.3042346    4.3042346    4.3042346   -359.91096   -1144.5108   -2721.9641     2786.742    123.11594    136.04109   -852.62373    79.742123 
   18300    247.69621   -106.85428   0.22412073   -106.63016   -3110.7908    4.3043195    4.3043195    4.3043195   -3110.7908   -7185.8149    4812.6455   -6959.2029   -1525.3883   -206.50322   -729.29205    79.746841 
   18400    114.28242   -106.73482   0.10340514   -106.63141    4980.0282     4.303208     4.303208     4.303208    4980.0282   -2334.3464     16079.55    1194.8805    -1750.837    666.00047   -1054.1078    79.685079 
   18500    235.19901   -106.84344     0.212813   -106.63063    -2710.527    4.3046301    4.3046301    4.3046301    -2710.527   -6409.2038    6359.6397    -8082.017    958.26487    541.84271    1628.6854    79.764108 
   18600    224.79831   -106.83343   0.20340224   -106.63003    -2076.098    4.3039723    4.3039723    4.3039723    -2076.098    -6519.047   -3919.3353    4210.0883    269.63591    433.92996   -331.30615    79.727549 
   18700    198.68941   -106.81039   0.17977836   -106.63061   -761.31318    4.3040744    4.3040744    4.3040744   -761.31318   -3842.0157    8333.7081    -6775.632    494.79331   -435.38459   -2518.6808    79.733219 
   18800     161.1699   -106.77664   0.14582991   -106.63081    2045.3149    4.3043206    4.3043206    4.3043206    2045.3149   -6959.0248    13761.004   -666.03516   -2947.0967   -193.63863    -181.7072    79.746904 
   18900    198.59759   -106.81014   0.17969527   -106.63045   -469.09888    4.3034325    4.3034325    4.3034325   -469.09888   -3628.2329    6701.2493   -4480.3131    632.11936    604.23413    665.49614    79.697552 
   19000    260.45953   -106.86591   0.23566925   -106.63024   -5331.5288    4.3048876    4.3048876    4.3048876   -5331.5288   -6416.2969   -6735.0946   -2843.1948   -196.67987    418.44124    416.00186    79.778423 
   19100    163.86171   -106.78004   0.14826552   -106.63177    2074.6807    4.3036245    4.3036245    4.3036245    2074.6807   -5532.4731    9826.4916    1930.0234    740.21251   -301.70244   -1843.9592    79.708219 
   19200    191.34548    -106.8047   0.17313341   -106.63157    40.526971    4.3037834    4.3037834    4.3037834    40.526971   -2861.2219    12372.548    -9389.745   -3300.1673   -457.70444   -458.53553    79.717048 
   19300    162.22745   -106.77783    0.1467868   -106.63104    1582.4533    4.3045347    4.3045347    4.3045347    1582.4533   -3118.7703     4661.862    3204.2681   -481.50807    929.61228    645.93191    79.758803 
   19400    299.34163   -106.90072    0.2708506   -106.62987    -6689.074    4.3038389    4.3038389    4.3038389    -6689.074   -5929.5866   -5601.4571   -8536.1784    993.96787    1041.6907    1311.1494    79.720133 
   19500    136.33621   -106.75496   0.12335987    -106.6316    2698.1225    4.3045023    4.3045023    4.3045023    2698.1225   -3160.3442    6687.5839    4567.1278     1970.544   -379.78875   -2919.4335    79.757005 
   19600     220.7821   -106.83114   0.19976829   -106.63138    -669.1147    4.3032266    4.3032266    4.3032266    -669.1147   -6617.1076    13174.382   -8564.6181    -2755.862     112.7797   -648.89012    79.686112 
   19700    152.04986   -106.76906   0.13757791   -106.63149    2387.8801    4.3043122    4.3043122    4.3043122    2387.8801   -458.38422    7559.7533    62.271224    912.46493    60.975384    99.844463    79.746436 
   19800     267.9321   -106.87258    0.2424306   -106.63015   -4922.9429    4.3044781    4.3044781    4.3044781   -4922.9429     -3204.28   -7067.1397   -4497.4089    513.21655    323.48744    419.47426    79.755658 
   19900    209.60249   -106.81992   0.18965273   -106.63027   -296.22903    4.3034035    4.3034035    4.3034035   -296.22903   -4573.7062    5699.6393   -2014.6202    1157.9808   -155.04181   -1323.1877    79.695943 
   20000    119.50811   -106.73924   0.10813345   -106.63111    3919.7814    4.3048603    4.3048603    4.3048603    3919.7814   -1792.8234    13990.719   -438.55094   -1230.2575   -343.86021   -1569.4992    79.776905 
   20100    240.62687   -106.84801   0.21772424   -106.63029   -2078.5436    4.3029545    4.3029545    4.3029545   -2078.5436   -5691.4498     7287.978   -7832.1589   -447.40127    76.230358   -336.67464    79.670999 
   20200    192.27606   -106.80427   0.17397542    -106.6303   -479.39097    4.3051006    4.3051006    4.3051006   -479.39097   -9.4405818   -5019.0941    3590.3618    1421.5793    417.12274    1222.4209    79.790268 
   20300    263.70114   -106.86876   0.23860233   -106.63016    -4259.364    4.3037686    4.3037686    4.3037686    -4259.364   -5670.6052    3701.0175   -10808.504    71.824392    135.14575   -1485.3335     79.71623 
   20400    95.670169   -106.71794  0.086564379   -106.63138    6603.8547    4.3034188    4.3034188    4.3034188    6603.8547   -358.90741    14942.211     5228.261    1100.5898    204.32474   -1379.2053    79.696794 
   20500    239.11895   -106.84653   0.21635986   -106.63017   -3094.8082    4.3050001    4.3050001    4.3050001   -3094.8082   -4214.7343    6225.0002    -11294.69   -1534.1484   -35.330173   -293.76191    79.784679 
   20600    225.82559   -106.83411   0.20433174   -106.62978   -1194.9537    4.3031416    4.3031416    4.3031416   -1194.9537   -1089.8969   -5140.8107    2645.8465    2582.2955   -73.991976     655.3632     79.68139 
   20700    210.07031   -106.82087   0.19007603   -106.63079   -713.98093    4.3048879    4.3048879    4.3048879   -713.98093   -2182.6004    5579.4725   -5538.8149   -1737.0703    292.49891   -136.45894    79.778439 
   20800    167.92194   -106.78291    0.1519393   -106.63097    2698.5023    4.3031216    4.3031216    4.3031216    2698.5023    -3438.998    14248.073   -2713.5684    1990.1008   -591.65814   -2237.5854     79.68028 
   20900    154.76467   -106.77062   0.14003433   -106.63059    2848.8023    4.3042131    4.3042131    4.3042131    2848.8023    242.00526    8651.9835   -347.58171   -2279.4073    405.14022   -499.61777    79.740931 
   21000    299.21105   -106.90015   0.27073245   -106.62941   -5804.1264    4.3044208    4.3044208    4.3044208   -5804.1264   -4300.7638   -4146.7591   -8964.8563    484.09299   -685.94111    609.35232    79.752472 
   21100    153.64552    -106.7701    0.1390217   -106.63108    3317.8324    4.3035269    4.3035269    4.3035269    3317.8324    1971.3238    4200.8218    3781.3515   -1236.7949    508.84797   -957.08098    79.702799 
   21200    223.33273   -106.83286   0.20207614   -106.63079   -1051.8674     4.304311     4.304311     4.304311   -1051.8674    -6012.804    14250.988   -11393.786     1277.956    17.153161   -1058.5942     79.74637 
   21300    124.45938   -106.74374   0.11261346   -106.63113    5219.6321    4.3032532    4.3032532    4.3032532    5219.6321    -576.2749    10366.377    5868.7946   -2328.3268    132.13021   -1728.2905    79.687594 
   21400    288.89578   -106.89122   0.26139897   -106.62982   -6140.5358    4.3050396    4.3050396    4.3050396   -6140.5358   -1045.3038    -6739.694    -10636.61   -2109.7219   -345.00148    694.14729    79.786872 
   21500     184.4506   -106.79714   0.16689478   -106.63025    1671.0871    4.3033245    4.3033245    4.3033245    1671.0871   -189.71603    3140.6649    2062.3125    1547.0116    488.88676    757.31388     79.69155 
   21600    168.17533   -106.78258   0.15216858   -106.63041    1260.2827    4.3046013    4.3046013    4.3046013    1260.2827    548.54167    10896.241   -7663.9347     870.8686    521.49608   -1099.9086    79.762507 
   21700    200.13356   -106.81142   0.18108505   -106.63033   -290.41439    4.3035522    4.3035522    4.3035522   -290.41439    -7694.345    7852.8471   -1029.7452    -589.6796    163.81359   -1541.5473    79.704205 
   21800    200.24323   -106.81169   0.18118428    -106.6305   -747.23225    4.3040858    4.3040858    4.3040858   -747.23225    4038.5052    -5428.386   -851.81603   -4160.7584   -994.68624    479.94982    79.733855 
   21900     256.9663   -106.86303   0.23250851   -106.63052   -4852.8794    4.3047805    4.3047805    4.3047805   -4852.8794   -1881.5188   -4451.1955   -8225.9239    2813.1534   -545.42004   -34.161079    79.772468 
   22000    127.63281     -106.747   0.11548484   -106.63152    4612.1819    4.3026811    4.3026811    4.3026811    4612.1819    769.84374     10142.97    2923.7325   -564.36573    895.80288   -838.06852    79.655812 
   22100    236.25076   -106.84448   0.21376465   -106.63072   -3805.0798    4.3054624    4.3054624    4.3054624   -3805.0798   -4203.5931    3537.8809   -10749.527    307.76894   -812.01801   -2282.0151    79.810384 
   22200    149.18931   -106.76577   0.13498962   -106.63078    3009.6122    4.3029724    4.3029724    4.3029724    3009.6122     3678.039    36.091115    5314.7066   -5427.0357   -856.20347   -1185.4107    79.671993 
   22300    290.74514   -106.89326   0.26307231   -106.63019   -6478.6146    4.3046361    4.3046361    4.3046361   -6478.6146    1393.4477   -9329.8131   -11499.478    3039.1502      -582.18    763.48409     79.76444 
   22400    123.87627   -106.74382   0.11208585   -106.63174    3921.7644    4.3040492    4.3040492    4.3040492    3921.7644    5180.2383    4311.6691    2273.3858   -735.47306    620.68376   -389.90046    79.731823 
   22500    247.44089   -106.85451   0.22388972   -106.63062   -2871.1462    4.3033032    4.3033032    4.3033032   -2871.1462   -5594.1989    4521.9548   -7541.1946    918.61298    511.50599   -880.43915    79.690369 
   22600    148.80683   -106.76529   0.13464355   -106.63065    2418.3987     4.305111     4.305111     4.305111    2418.3987    7562.2997   -700.54997    393.44635   -4898.9428   -615.81567   -951.19466    79.790844 
   22700    224.78913   -106.83309   0.20339393    -106.6297   -844.63931    4.3030253    4.3030253    4.3030253   -844.63931    8848.5128   -8273.9767   -3108.4541    879.72533    -970.0576    172.99761    79.674929 
   22800    235.25121   -106.84214   0.21286024   -106.62928   -2574.9078    4.3049581    4.3049581    4.3049581   -2574.9078    2188.3635   -5167.7074   -4745.3793    426.78207    574.29167    694.88408    79.782345 
   22900    170.39734   -106.78403    0.1541791   -106.62985    2159.5373    4.3037583    4.3037583    4.3037583    2159.5373    5793.0666    503.93437    181.61074   -826.00022    253.90972   -4.9191139    79.715656 
   23000      228.747   -106.83671    0.2069751   -106.62973   -1137.0724    4.3035858    4.3035858    4.3035858   -1137.0724    5094.7747   -902.59105   -7603.4008    -2379.344   -740.53194   -1581.0057    79.706069 
   23100    95.027147   -106.71688   0.08598256    -106.6309    6318.0376    4.3046181    4.3046181    4.3046181    6318.0376    16744.933   -3152.0524    5361.2325   -4685.1009   -1461.0579   -1001.4212    79.763442 
   23200    325.96419   -106.92464   0.29493925    -106.6297   -6592.1354    4.3029934    4.3029934    4.3029934   -6592.1354   -793.94785   -9665.8782   -9316.5803    3273.8383   -247.94261   -590.66464    79.673159 
   23300     142.2002   -106.75935   0.12866573   -106.63068    3052.7919    4.3050279    4.3050279    4.3050279    3052.7919    10638.417   -6074.9368    4594.8956   -2260.6298     1167.989    579.17076    79.786223 
   23400    259.41424    -106.8646   0.23472346   -106.62988   -2912.7545    4.3036611    4.3036611    4.3036611   -2912.7545    2907.2849    -2383.642   -9261.9064    651.35986   -441.52841   -831.58024    79.710254 
   23500    100.04663   -106.72163  0.090524294   -106.63111    6736.8526    4.3031439    4.3031439    4.3031439    6736.8526    17918.649   -263.69636    2555.6051   -5486.3703   -1387.2396   -1501.2624    79.681521 
   23600    224.58377   -106.83384   0.20320811   -106.63063   -2312.6817    4.3048867    4.3048867    4.3048867   -2312.6817   -6522.8727    2708.4965   -3123.6688    1829.2517    621.76819   -636.92326    79.778376 
   23700    260.51126   -106.86603   0.23571606   -106.63032    -3248.552    4.3030176    4.3030176    4.3030176    -3248.552    4248.0498   -9990.8939   -4002.8119   -101.11204    941.98264    717.06003    79.674502 
   23800     152.2021   -106.76882   0.13771566   -106.63111    1950.1227    4.3052076    4.3052076    4.3052076    1950.1227    2906.8887    387.66068    2555.8188    293.86772   -120.98505    215.93841    79.796215 
   23900    231.52749   -106.83971   0.20949094   -106.63022   -1174.7825    4.3031387    4.3031387    4.3031387   -1174.7825    8024.2333   -3426.5742   -8122.0065   -3729.9288   -1303.2912   -665.28777    79.681231 
   24000    121.14874   -106.74047   0.10961793   -106.63086    4569.5455    4.3040275    4.3040275    4.3040275    4569.5455   -3972.0384    10156.839    7523.8361   -1513.0261   -387.15041    -1464.545    79.730613 
   24100    291.53444     -106.894   0.26378649   -106.63021   -6460.2921     4.304606     4.304606     4.304606   -6460.2921    -3330.216   -5596.0791   -10454.581     2430.452    477.14583    21.679291     79.76277 
   24200    170.92692   -106.78576   0.15465827    -106.6311     1713.452    4.3029819    4.3029819    4.3029819     1713.452   -736.53049    494.91663    5381.9697   -1110.8748    633.47122    436.63902    79.672519 
   24300    197.37245   -106.80933   0.17858674   -106.63074   -1414.0665    4.3054635    4.3054635    4.3054635   -1414.0665    6890.6139   -2312.1544   -8820.6589   -385.06837   -998.32793   -1080.3566    79.810448 
   24400    170.57711   -106.78491   0.15434176   -106.63057    2682.6747    4.3024483    4.3024483    4.3024483    2682.6747   -4185.2469    9378.5356    2854.7355   -4321.0206   -599.29174   -1013.3758    79.642883 
   24500    209.70931   -106.81979   0.18974939   -106.63004    -1939.813    4.3051078    4.3051078    4.3051078    -1939.813   -4669.4968   -31.022779   -1118.9196    3104.1514   -88.602364   -1366.5247    79.790664 
   24600    268.27716   -106.87244   0.24274281    -106.6297   -5151.6503    4.3043404    4.3043404    4.3043404   -5151.6503   -7036.4911   -2774.1564   -5644.3034   -1114.3269    1731.7917    952.30399    79.748002 
   24700    134.25204   -106.75206   0.12147407   -106.63058    3928.6305     4.303041     4.303041     4.303041    3928.6305    960.64915    6635.7154     4189.527   -311.82392   -689.48471    366.29626    79.675803 
   24800    214.53281    -106.8243    0.1941138   -106.63019   -2798.1166    4.3055916    4.3055916    4.3055916   -2798.1166   -1844.8538    4221.9196   -10771.415   -4294.5105   -868.24924   -1872.0061    79.817571 
   24900    142.30923   -106.75968   0.12876438   -106.63092    4560.2199    4.3019181    4.3019181    4.3019181    4560.2199   -4259.4231    9394.4367    8545.6462   -313.24415   -649.00628    -614.1002    79.613445 
   25000    305.07704   -106.90669   0.27604012   -106.63065   -8362.3174    4.3058189    4.3058189    4.3058189   -8362.3174   -8494.4406   -6263.4742   -10329.037     1311.421    319.74501    1031.6909     79.83021 
   25100     151.2242   -106.76839   0.13683083   -106.63156    2492.9917    4.3034026    4.3034026    4.3034026    2492.9917   -8250.7308    13383.846    2345.8595   -1181.2099    575.97509   -884.45299    79.695889 
   25200    215.92839   -106.82636   0.19537655   -106.63098   -306.89092    4.3034667    4.3034667    4.3034667   -306.89092    313.54822    3117.9541   -4352.1751    -2599.594   -828.95625   -466.53611    79.699451 
   25300    142.09174   -106.75964   0.12856759   -106.63107    1979.3643     4.305004     4.305004     4.305004    1979.3643   -3333.2136    9857.4612   -586.15464   -2573.3584   -1680.7788   -2573.5409    79.784896 
   25400    235.74123   -106.84308   0.21330362   -106.62978   -1621.0296    4.3028059    4.3028059    4.3028059   -1621.0296    170.52349   -6227.6938    1194.0815    2303.0832    -75.29408    738.68723    79.662745 
   25500    212.88575   -106.82266    0.1926235   -106.63004   -2306.5392    4.3053334    4.3053334    4.3053334   -2306.5392   -12802.801    12840.928   -6957.7454    241.82143     1159.286    48.894553     79.80321 
   25600    200.82933   -106.81191   0.18171459    -106.6302   -296.21805    4.3034978    4.3034978    4.3034978   -296.21805    -3013.107   -1451.9939    3576.4467   -1016.0391    288.62231   -2321.7831    79.701179 
   25700    195.79768   -106.80749   0.17716185   -106.63033    1172.6277    4.3037628    4.3037628    4.3037628    1172.6277   -1435.9606    9623.3924   -4669.5486    -2304.288   -154.31299   -520.71455    79.715903 
   25800    182.35177   -106.79551   0.16499572   -106.63052    197.22037    4.3045319    4.3045319    4.3045319    197.22037    2988.0739   -7478.6304    5082.2176    889.60703   -1997.5434   -84.595996    79.758647 
   25900    188.17101   -106.80093   0.17026108   -106.63067    1193.5183    4.3032569    4.3032569    4.3032569    1193.5183   -2005.6578    10565.729   -4979.5162    2354.2298    535.85753    889.42866    79.687795 
   26000    247.29013   -106.85418    0.2237533   -106.63043   -3867.9235    4.3048917    4.3048917    4.3048917   -3867.9235    -11099.84     418.7268   -922.65752   -1797.8148    914.61023   -845.76115    79.778651 
   26100    179.46724   -106.79372   0.16238573   -106.63133    1272.4424    4.3032876    4.3032876    4.3032876    1272.4424   -1248.5127    2953.0732    2112.7666   -986.96293   -950.69983   -1194.0853    79.689503 
   26200    211.47266   -106.82193   0.19134491   -106.63058   -350.65166    4.3043199    4.3043199    4.3043199   -350.65166    1051.2967    120.04625   -2223.2979   -1637.9469   -2231.8088    16.368176    79.746866 
   26300    152.15223   -106.76822   0.13767053   -106.63055    2599.6924    4.3039966    4.3039966    4.3039966    2599.6924    4217.0534    348.65354    3233.3701    3633.4291   -880.08164    1026.5721      79.7289 
   26400    218.94125   -106.82841   0.19810265   -106.63031   -657.15968    4.3035842    4.3035842    4.3035842   -657.15968   -5288.3947    7309.4866   -3992.5709   -1475.3605    1135.4754   -1690.2687    79.705981 
   26500    261.05464   -106.86644   0.23620772   -106.63023   -4859.2348    4.3047984    4.3047984    4.3047984   -4859.2348   -9607.8142   -7515.7439    2545.8537   -283.69441    887.48708   -884.55264    79.773462 
   26600    140.74286   -106.75883   0.12734709   -106.63148    3922.5979    4.3032556    4.3032556    4.3032556    3922.5979    1951.9831    6480.7081    3335.1024   -1613.1922    -1475.396    702.80122    79.687726 
   26700    227.84563   -106.83656   0.20615951    -106.6304   -2017.3386    4.3045225    4.3045225    4.3045225   -2017.3386    2635.8991   -6216.2349     -2471.68    3523.6988   -330.61428    91.122027    79.758126 
   26800    115.44902   -106.73496    0.1044607    -106.6305    5155.1476    4.3036253    4.3036253    4.3036253    5155.1476    3333.3361    10499.933    1632.1733    524.29205    490.14375    633.36156    79.708266 
   26900    317.79152   -106.91719   0.28754445   -106.62965   -6952.9697    4.3041734    4.3041734    4.3041734   -6952.9697   -9919.4547   -8731.8951   -2207.5593   -620.89517    1028.9835   -1007.3669    79.738723 
   27000    155.04726   -106.77164   0.14029002   -106.63135    1579.0903    4.3043105    4.3043105    4.3043105    1579.0903   -4795.5635    4733.7206    4799.1138   -2160.8559   -623.97982     492.5857    79.746342 
   27100    219.58523     -106.829   0.19868533   -106.63031    -1076.616    4.3039121    4.3039121    4.3039121    -1076.616    2221.0292   -3790.8985   -1659.9787    2070.4163   -1665.4995    1461.8859    79.724204 
   27200    145.09871   -106.76176   0.13128836   -106.63047    2519.7627    4.3038104    4.3038104    4.3038104    2519.7627    4253.0748    3860.8564   -554.64305    1704.2947   -236.14948   -549.78067    79.718549 
   27300    206.29783    -106.8166   0.18666261   -106.62994   -1201.8701    4.3043853    4.3043853    4.3043853   -1201.8701   -1304.9698   -2270.8661   -29.774297   -149.16556    1399.8066   -1021.7868    79.750498 
   27400    290.47365   -106.89229   0.26282666   -106.62946   -5361.4849    4.3040749    4.3040749    4.3040749   -5361.4849   -8891.2965   -5554.6228   -1638.5353   -2325.6428    418.63026   -479.31434     79.73325 
   27500    116.78383   -106.73708   0.10566847   -106.63141    3912.6321    4.3038783    4.3038783    4.3038783    3912.6321    1544.9359     4458.258    5734.7024    1531.6505   -1020.6113    122.21305    79.722325 
   27600    252.17115   -106.85867   0.22816976    -106.6305   -2974.4114    4.3043666    4.3043666    4.3043666   -2974.4114      5523.38   -5714.8602   -8731.7539    2815.0843   -234.40475     532.2193    79.749463 
   27700    104.65929   -106.72613  0.094697926   -106.63143    5157.0337    4.3030898    4.3030898    4.3030898    5157.0337    3999.7262    5692.2247    5779.1503    496.36202    1719.2833   -2696.0072    79.678512 
   27800    300.16115   -106.90174   0.27159212   -106.63015   -7785.1624    4.3052826    4.3052826    4.3052826   -7785.1624   -5490.9611   -12677.625   -5186.9013   -382.55314    1073.5844   -107.39835    79.800385 
   27900    187.58396   -106.79993   0.16972991    -106.6302    947.60199    4.3035144    4.3035144    4.3035144    947.60199   -4957.2172     4333.811    3466.2122   -2077.9587   -1497.9729    360.91028    79.702101 
   28000    158.52712   -106.77363   0.14343867   -106.63019      1109.04    4.3041587    4.3041587    4.3041587      1109.04    11208.829    -6133.889   -1747.8196    4073.0642   -614.07489   -865.36694    79.737906 
   28100    217.03403   -106.82612   0.19637695   -106.62975   -607.89815    4.3041838    4.3041838    4.3041838   -607.89815    2738.2777    285.08541   -4847.0576   -377.81962    305.45022   -196.20722    79.739304 
   28200    155.20525   -106.77065   0.14043297   -106.63022    2028.3334    4.3033184    4.3033184    4.3033184    2028.3334    2545.4761   -4638.0169    8177.5411    1553.8489    994.70345   -2001.1561    79.691213 
   28300    307.91732    -106.9088   0.27861006   -106.63019   -8058.0298    4.3054488    4.3054488    4.3054488   -8058.0298   -6717.7044   -9979.0208   -7477.3641   -3133.2504   -846.97796    581.38252    79.809629 
   28400    119.06699   -106.73904   0.10773432    -106.6313    5842.8492    4.3026676    4.3026676    4.3026676    5842.8492    5810.8886     1939.569      9778.09    3279.2071   -187.06572   -256.93649    79.655062 
   28500     204.7316    -106.8156   0.18524545   -106.63036   -1649.7161    4.3048689    4.3048689    4.3048689   -1649.7161    13936.607   -9464.1297   -9421.6252    1804.7237    446.42776   -1204.4375    79.777383 
   28600    171.42722   -106.78544   0.15511095   -106.63033    2801.2267    4.3034213    4.3034213    4.3034213    2801.2267   -2583.8642    2248.1119    8739.4324    2769.3205    1843.8345   -327.16199    79.696931 
   28700    242.23238   -106.84905   0.21917694   -106.62987   -3144.6417     4.304235     4.304235     4.304235   -3144.6417    1132.4683   -9175.1595   -1391.2341    -1514.345    10.137998   -1617.3215    79.742145 
   28800    224.50104   -106.83311   0.20313325   -106.62998   -2082.0148    4.3047004    4.3047004    4.3047004   -2082.0148   -943.25789   -7437.7029    2134.9165   -460.63878   -1448.5211    525.17272    79.768018 
   28900    153.24566   -106.76914   0.13865989   -106.63048    3622.3449     4.302877     4.302877     4.302877    3622.3449    10570.954    -1390.495    1686.5759    2760.8397    152.77582    829.17896    79.666696 
   29000    225.86119   -106.83447   0.20436395   -106.63011   -2438.8258     4.305001     4.305001     4.305001   -2438.8258    2045.0094   -5580.0923   -3781.3943    1287.0629    1668.4749   -1233.4816    79.784728 
   29100    149.33273   -106.76574   0.13511939   -106.63063    4131.8239    4.3029861    4.3029861    4.3029861    4131.8239   -2317.3545    4725.4827    9987.3436    1376.1061     267.7298   -2001.4033    79.672752 
   29200    266.37753   -106.87131   0.24102398   -106.63028   -4425.2998     4.304626     4.304626     4.304626   -4425.2998    627.79815   -10135.482    -3768.216   -2938.7324   -1235.5327     138.5948    79.763879 
   29300    181.38272   -106.79492    0.1641189    -106.6308    1228.5556    4.3040612    4.3040612    4.3040612    1228.5556    4834.2743   -2519.7123    1371.1047    2447.9335   -725.24466    420.32462    79.732485 
   29400    195.44876    -106.8073   0.17684614   -106.63045    648.25376    4.3032156    4.3032156    4.3032156    648.25376    1644.6706   -2228.1716    2528.2623    1802.8834    3718.1835   -253.19095    79.685505 
   29500    200.64418   -106.81222   0.18154707   -106.63067   -815.49773     4.305135     4.305135     4.305135   -815.49773   -4220.1324     2296.656   -523.01679    2226.9879   -111.91032   -3377.3384    79.792181 
   29600     176.6479   -106.79048   0.15983473   -106.63065    1798.4262    4.3027331    4.3027331    4.3027331    1798.4262   -3007.9548    3847.6549    4555.5786   -597.91986     439.1071   -739.25868    79.658704 
   29700    231.54538   -106.83995   0.20950713   -106.63044   -2824.3499    4.3048671    4.3048671    4.3048671   -2824.3499    2793.4288   -8366.7282   -2899.7503   -774.79319   -29.234671    668.57267    79.777283 
   29800    208.84654   -106.81945   0.18896874   -106.63048   -632.43005    4.3038883    4.3038883    4.3038883   -632.43005   -2341.7112    947.15526   -502.73418    2866.8794    532.63916    125.18428    79.722878 
   29900    172.35999   -106.78643   0.15595494   -106.63048    1329.2693    4.3033519    4.3033519    4.3033519    1329.2693    34.230985   -791.38238    4744.9592    980.34189    1606.7516    -2306.223    79.693076 
   30000    192.55716   -106.80449   0.17422977   -106.63026   -535.34851    4.3053086    4.3053086    4.3053086   -535.34851   -10382.167    10505.172   -1729.0504    936.34837   -1331.3517   -1133.6152    79.801834 
   30100    213.05282   -106.82261   0.19277466   -106.62983   -1046.7338    4.3026191    4.3026191    4.3026191   -1046.7338    149.09261   -5369.9369    2080.6429   -2521.1801    56.134202   -96.942344    79.652371 
   30200    220.32351   -106.82894   0.19935334   -106.62959   -3295.3913    4.3057185    4.3057185    4.3057185   -3295.3913   -5337.6938   -204.48915   -4343.9909    1656.8321   -602.37452    119.50433    79.824629 
   30300    199.08844   -106.80946    0.1801394   -106.62932    355.66263    4.3032727    4.3032727    4.3032727    355.66263   -1041.7415    84.716882    2024.0126    1731.6452    957.82935   -798.41075    79.688677 
   30400    143.29291    -106.7601   0.12965444   -106.63044    2737.4799    4.3036439    4.3036439    4.3036439    2737.4799   -3732.1424    13981.005   -2036.4227    1866.1573    250.77022   -3676.3474      79.7093 
   30500    239.53191    -106.8472   0.21673351   -106.63047   -3381.3486    4.3053785    4.3053785    4.3053785   -3381.3486   -8504.6979   -2812.7666    1173.4188   -966.75084    13.189014   -584.99391     79.80572 
   30600    195.80752   -106.80806   0.17717076   -106.63089    390.31239    4.3022391    4.3022391    4.3022391    390.31239     1529.199    755.69148   -1113.9533    185.20949   -604.05795   -644.46952    79.631267 
   30700    251.77006   -106.85789   0.22780684   -106.63009   -5436.4986    4.3060831    4.3060831    4.3060831   -5436.4986   -9583.3331   -2575.6492   -4150.5134    2821.0895    1436.3271    621.10417    79.844909 
   30800    90.681819   -106.71297  0.082050815   -106.63092    7958.7029    4.3023816    4.3023816    4.3023816    7958.7029    1048.3351    17574.776    5252.9977    895.21755    702.98395   -3596.8409    79.639181 
   30900    261.29907   -106.86701   0.23642889   -106.63058   -4449.0504    4.3043717    4.3043717    4.3043717   -4449.0504   -9144.6059   -2648.4492   -1554.0962    968.62946     785.6298   -2005.5615    79.749742 
   31000    182.02856   -106.79578   0.16470327   -106.63108    603.63518     4.304865     4.304865     4.304865    603.63518   -1290.4967    844.37077    2257.0315   -2244.8658   -838.60688    777.31097    79.777165 
   31100    255.32142   -106.86185   0.23102018   -106.63083   -2122.2335     4.302507     4.302507     4.302507   -2122.2335   -3692.9112   -2304.2706    -369.5186    2185.6264   -111.49353     711.2833    79.646142 
   31200    163.46721   -106.77909   0.14790857   -106.63118     824.5712    4.3056431    4.3056431    4.3056431     824.5712   -5026.1161    8979.9715   -1480.1418   -1062.2384    1057.9896   -3131.2864    79.820432 
   31300    153.89127    -106.7703   0.13924406   -106.63106    4572.8143     4.301999     4.301999     4.301999    4572.8143   -2833.4556    6669.2018    9882.6968     2100.121    91.306268   -2632.5351    79.617935 
   31400    257.82136   -106.86424   0.23328219   -106.63096   -4377.2859    4.3049183    4.3049183    4.3049183   -4377.2859    -6498.104   -3820.6151   -2813.1387   -3003.4543    104.42561   -552.97504    79.780133 
   31500     198.3302   -106.81048   0.17945333   -106.63103    -403.4855     4.304146     4.304146     4.304146    -403.4855    -1059.834   -684.99859    534.37604    1095.1836   -82.993722    1479.5887    79.737199 
   31600    222.16228   -106.83153    0.2010171   -106.63051    332.15644    4.3030819    4.3030819    4.3030819    332.15644   -4453.3154    3323.3526    2126.4322   -136.38338    1219.1214   -1688.6736    79.678075 
   31700    120.65499    -106.7402   0.10917117   -106.63103    3758.0966    4.3051923    4.3051923    4.3051923    3758.0966   -1335.5476    8685.4673      3924.37     1710.054     1154.155   -3361.3508    79.795367 
   31800    250.43513   -106.85622   0.22659897   -106.62962   -1778.4296    4.3025459    4.3025459    4.3025459   -1778.4296   -6206.2844   -3516.7203    4387.7159   -362.23439    982.53668    583.14098    79.648302 
   31900     202.0892   -106.81243   0.18285455   -106.62957   -1210.8425    4.3053192    4.3053192    4.3053192   -1210.8425   -1692.2857   -3054.6811    1114.4393   -1642.9337    -964.5467   -267.69477    79.802419 
   32000    238.22408   -106.84549   0.21555015   -106.62994   -3367.4631    4.3038592    4.3038592    4.3038592   -3367.4631   -4548.1788   -4251.6984    -1302.512    1680.1452    1761.6509    181.44278    79.721262 
   32100    138.47575   -106.75588   0.12529577   -106.63059     5004.507    4.3032388    4.3032388    4.3032388     5004.507    -888.8158    8555.7803    7346.5566   -235.04641     61.37528   -3648.1011     79.68679 
   32200    189.57999   -106.80191   0.17153596   -106.63037   -960.60203    4.3051757    4.3051757    4.3051757   -960.60203   -3250.0882   -653.67444    1021.9566    744.27015    1039.2322   -1680.8589    79.794444 
   32300    233.36632   -106.84087   0.21115475   -106.62972   -1632.6257    4.3028148    4.3028148    4.3028148   -1632.6257   -3443.1927   -2859.6694     1404.985     -3485.09    -715.9207    -524.7785    79.663237 
   32400    229.58761   -106.83705    0.2077357   -106.62932   -2733.2089    4.3055378    4.3055378    4.3055378   -2733.2089   -299.82567   -8851.6996     951.8985    927.32414    140.99949     1027.124    79.814579 
   32500    176.82594   -106.79026   0.15999583   -106.63027    317.44744    4.3032467    4.3032467    4.3032467    317.44744   -4428.4552    3733.4489    1647.3486   -1239.4159    1027.4857   -2962.1923    79.687233 
   32600    164.96624   -106.77994   0.14926492   -106.63068    2376.0591    4.3038931    4.3038931    4.3038931    2376.0591   -907.09962    1856.3726    6178.9043    1937.3982    1171.2428   -2358.6953    79.723143 
   32700    214.74205   -106.82443   0.19430312   -106.63013    -2530.204    4.3047529    4.3047529    4.3047529    -2530.204   -5206.2776   -1271.9692   -1112.3652   -2232.8538   -336.65331   -1043.7707    79.770932 
   32800      222.688   -106.83129   0.20149278    -106.6298   -2007.4201    4.3034425    4.3034425    4.3034425   -2007.4201    949.83715   -8538.0422    1565.9448    169.23433    322.49438    13.639894    79.698106 
   32900    234.84434   -106.84238    0.2124921   -106.62989   -2199.7767    4.3049791    4.3049791    4.3049791   -2199.7767   -1718.3971   -5657.7654    776.83249    353.52466    1920.6381    370.95419    79.783509 
   33000    113.75681   -106.73391   0.10292956   -106.63098    4529.7776    4.3029961    4.3029961    4.3029961    4529.7776   -723.42289    3587.0243    10725.731    1014.1682    761.57768   -5924.7327     79.67331 
   33100    236.57316   -106.84487   0.21405637   -106.63082   -2718.8832    4.3043533    4.3043533    4.3043533   -2718.8832   -2317.7249    1167.0916   -7006.0164    689.96171    754.73497   -264.78118     79.74872 
   33200    198.93913   -106.81134    0.1800043   -106.63134   -768.32268    4.3039782    4.3039782    4.3039782   -768.32268   -4337.9052   -1554.1474    3587.0846   -3039.8541   -1172.6453   -499.09027    79.727877 
   33300    225.41219   -106.83533   0.20395769   -106.63138   -2952.4255    4.3040518    4.3040518    4.3040518   -2952.4255    5773.4026   -9947.3266   -4683.3526    315.68883    1404.2909      618.527    79.731966 
   33400    186.82269   -106.80046    0.1690411   -106.63142    1130.2133    4.3039598    4.3039598    4.3039598    1130.2133   -6346.1664    2838.6087    6898.1975   -721.92127    990.28835   -2581.9732     79.72685 
   33500    175.09959   -106.78933   0.15843379   -106.63089    1082.1378    4.3037306    4.3037306    4.3037306    1082.1378    3890.7311    1950.0589   -2594.3765    1580.9115    44.082081   -2890.7289    79.714114 
   33600    194.61796    -106.8064   0.17609442   -106.63031   -355.75365    4.3042374    4.3042374    4.3042374   -355.75365   -3974.0991    4039.0521   -1132.2139   -4358.2973   -658.32802    935.97132    79.742279 
   33700    252.31098   -106.85802   0.22829627   -106.62972   -3431.3358    4.3041307    4.3041307    4.3041307   -3431.3358    448.21907      -8022.9   -2719.3265    1157.9763    1408.9485    190.42226     79.73635 
   33800    167.16565   -106.78212   0.15125499   -106.63086    941.73033    4.3040548    4.3040548    4.3040548    941.73033    4452.8604   -2907.2591    1279.5897   -1234.7528    1016.5382   -568.42426     79.73213 
   33900    208.63262   -106.81922   0.18877518   -106.63044   -596.67896    4.3038967    4.3038967    4.3038967   -596.67896   -7010.2357    4312.6334     907.5654    2895.1737    1871.6823   -2823.7884    79.723347 
   34000    175.75645   -106.78943   0.15902813    -106.6304    1681.8031    4.3038047    4.3038047    4.3038047    1681.8031    6742.8394    3487.0702   -5184.5002   -3011.3151   -1502.2972   -82.609434    79.718236 
   34100    218.03763   -106.82732   0.19728503   -106.63004   -1966.8628     4.304366     4.304366     4.304366   -1966.8628   -5201.3436   -306.76656   -392.47821    83.409078    2272.9881   -661.39109    79.749428 
   34200    222.31457   -106.83122    0.2011549   -106.63007   -1077.7578    4.3036623    4.3036623    4.3036623   -1077.7578    8178.6416    -6967.276    -4444.639   -1067.4929   -294.40884    1240.9259     79.71032 
   34300    183.76213   -106.79708   0.16627184   -106.63081    479.08208    4.3043403    4.3043403    4.3043403    479.08208   -4116.2221    4360.1319    1193.3364    402.79051    1786.0926   -3452.4165    79.748001 
   34400    182.06422   -106.79524   0.16473553    -106.6305    787.83737    4.3035275    4.3035275    4.3035275    787.83737    1578.3053    5270.7848    -4485.578     -23.8259   -530.47074   -1169.5629     79.70283 
   34500    198.41363   -106.80951   0.17952882   -106.62998    570.80996      4.30431      4.30431      4.30431    570.80996    3213.0011    2371.9815   -3872.5527   -4187.2625   -814.66225   -179.56223    79.746315 
   34600    247.52032   -106.85384   0.22396159   -106.62988   -3603.2646    4.3042488    4.3042488    4.3042488   -3603.2646    2603.4077   -7617.2224    -5795.979    371.29969    828.65337    321.96581    79.742913 
   34700    159.56374   -106.77525   0.14437662   -106.63087     3090.072      4.30338      4.30338      4.30338     3090.072    8828.3562    2331.2664   -1889.4066    831.72911    1977.6532   -250.71014    79.694639 
   34800    243.71605   -106.85121   0.22051941   -106.63069   -2618.0296    4.3045115    4.3045115    4.3045115   -2618.0296   -5531.3727    593.87224   -2916.5883    1734.2179   -217.81754   -3317.0013    79.757515 
   34900    137.60051   -106.75583   0.12450384   -106.63132     3104.977     4.303336     4.303336     4.303336     3104.977    6595.7171    6668.6065   -3949.3925   -4045.3526   -134.68914   -737.92496    79.692194 
   35000    208.48684   -106.81926   0.18864328   -106.63062    105.47761    4.3039389    4.3039389    4.3039389    105.47761    11339.563   -7111.1332   -3911.9972    552.70719     287.3326    -361.9767    79.725688 
   35100    268.36215    -106.8735   0.24281971   -106.63068   -4711.7618    4.3042089    4.3042089    4.3042089   -4711.7618   -4790.0883   -2935.2216   -6409.9754    1227.9574    1180.4905    494.24983    79.740695 
   35200    144.90506   -106.76291   0.13111315    -106.6318    3298.2175    4.3037693    4.3037693    4.3037693    3298.2175    10514.996    1171.8487   -1792.1918    728.60566     964.8404   -2226.8465    79.716268 
   35300    230.99125   -106.83962   0.20900574   -106.63062   -920.37402    4.3039715    4.3039715    4.3039715   -920.37402      -3344.6    3375.2348   -2791.7569   -3557.3421   -2352.2191   -1403.2177    79.727503 
   35400    134.25574   -106.75233   0.12147741   -106.63085    3040.6668    4.3040132    4.3040132    4.3040132    3040.6668    14441.631   -368.23382   -4951.3971   -112.56041    443.03825   -1412.2833    79.729822 
   35500    263.79113   -106.86827   0.23868376   -106.62958   -3723.3708    4.3039564    4.3039564    4.3039564   -3723.3708   -1142.1432   -6987.4761   -3040.4931   -566.05967   -618.36506     9.375742    79.726662 
   35600    206.35722   -106.81644   0.18671635   -106.62972   -1406.0006    4.3044853    4.3044853    4.3044853   -1406.0006    174.84316    2961.0108   -7353.8558    2429.3917    2103.4099   -140.87241    79.756062 
   35700    170.01247   -106.78397   0.15383086   -106.63014    1296.2764    4.3035806    4.3035806    4.3035806    1296.2764    6172.5072    -647.0037   -1636.6743   -2807.9961   -1057.4359   -3340.5165    79.705784 
   35800    174.48733     -106.788    0.1578798   -106.63012    2109.3126    4.3038794    4.3038794    4.3038794    2109.3126    2537.9041    7366.9454   -3576.9117   -453.24847    746.41313   -903.85121    79.722383 
   35900    232.04848   -106.84004   0.20996235   -106.63008   -3874.8642    4.3047596    4.3047596    4.3047596   -3874.8642    4404.2116   -10389.114   -5639.6903     1007.663   -247.39961   -1390.6662    79.771305 
   36000    214.97009   -106.82513   0.19450946   -106.63062   -1168.5472    4.3034142    4.3034142    4.3034142   -1168.5472   -2707.5396    3933.7466   -4731.8485    953.37658    3489.9808    1146.3288    79.696535 
   36100    215.21298   -106.82507   0.19472923   -106.63035   -2254.3119    4.3047879    4.3047879    4.3047879   -2254.3119    5177.6555   -2723.1278   -9217.4635    -684.1681   -459.02316   -1215.3207    79.772883 
   36200    110.72872   -106.73114   0.10018967   -106.63096    4580.7686    4.3032871    4.3032871    4.3032871    4580.7686    6997.2352    7003.9249   -258.85436    -3442.893    -782.0596   -3167.5046    79.689475 
   36300    259.47745     -106.865   0.23478065   -106.63022   -4029.8449    4.3043824    4.3043824    4.3043824   -4029.8449   -3943.3299   -2886.0898   -5260.1151   -106.71005   -1080.5578   -705.19706    79.750338 
   36400    197.68501   -106.80993   0.17886955   -106.63106    -1399.857    4.3041902    4.3041902    4.3041902    -1399.857    5008.6139    -5517.484   -3690.7009    1503.5269    1416.0877   -281.04605    79.739658 
   36500    215.40733   -106.82588   0.19490508   -106.63097   -1332.3669    4.3034356    4.3034356    4.3034356   -1332.3669   -1872.2832    4520.7714   -6645.5889   -2748.6338    1248.3312    480.25234    79.697724 
   36600    179.91756   -106.79365   0.16279319   -106.63086    355.85263     4.304764     4.304764     4.304764    355.85263    8352.4026   -1946.8298   -5338.0148   -1868.4103   -2001.2071    -2287.988    79.771552 
   36700    151.53491   -106.76797   0.13711197   -106.63085    2445.6961    4.3031468    4.3031468    4.3031468    2445.6961    1616.4894    6749.6472   -1029.0483   -1102.5439    469.10419     -1921.82     79.68168 
   36800     283.7959   -106.88673   0.25678449   -106.62994   -6026.5745    4.3049498    4.3049498    4.3049498   -6026.5745   -4284.3136   -10019.623   -3775.7873    2182.1361    1019.7471   -40.500194     79.78188 
   36900    146.72004   -106.76372   0.13275537   -106.63097    2938.3608     4.303669     4.303669     4.303669    2938.3608    10356.118    3263.4927   -4804.5278   -142.93909    2476.8132    745.75525    79.710693 
   37000    252.54393   -106.85862   0.22850706   -106.63011   -3337.7699     4.303954     4.303954     4.303954   -3337.7699     1090.137   -4440.0267   -6663.4201   -2146.8181   -457.78711    -893.2199    79.726531 
   37100    104.74019   -106.72525  0.094771125   -106.63048    5662.5449    4.3042909    4.3042909    4.3042909    5662.5449    13158.947    3212.4114    616.27659    671.91989    202.84644   -1469.3175    79.745252 
   37200    294.12229   -106.89515   0.26612802   -106.62902   -5560.1866    4.3036484    4.3036484    4.3036484   -5560.1866   -6970.1521   -5683.6106   -4026.7969   -359.19911    31.088227   -1041.6209    79.709548 
   37300    150.18588     -106.766   0.13589134   -106.63011    2417.1473     4.304515     4.304515     4.304515    2417.1473    12620.734   -4547.1521   -822.13993    2181.4474    2071.3713    144.74764    79.757709 
   37400    215.67496   -106.82495   0.19514724    -106.6298   -274.62567    4.3036456    4.3036456    4.3036456   -274.62567    6306.3075    128.70518   -7258.8897   -3692.4424    1.6735784    1224.7989    79.709396 
   37500    217.87076   -106.82728   0.19713405   -106.63015   -990.86519    4.3041165    4.3041165    4.3041165   -990.86519    3611.2115   -2804.7798   -3779.0272   -257.91587   -2200.4854    -2832.923    79.735561 
   37600    145.64192   -106.76268   0.13177987    -106.6309    3468.8692     4.303956     4.303956     4.303956    3468.8692    5149.1495    2586.8467    2670.6116   -626.50185    548.66717   -668.22294    79.726641 
   37700    278.06046   -106.88185   0.25159495   -106.63025   -3979.6495    4.3039134    4.3039134    4.3039134   -3979.6495    1197.6198   -10633.615   -2502.9531    2282.4708    1658.4753   -1495.1945    79.724272 
   37800    122.39572   -106.74197   0.11074622   -106.63122    3986.4175    4.3039341    4.3039341    4.3039341    3986.4175    11919.243   -315.66391    355.67347   -1826.0108    2040.8118     867.2594    79.725426 
   37900    254.62479   -106.86118   0.23038986   -106.63079   -2955.5543    4.3037089    4.3037089    4.3037089   -2955.5543    540.85779   -2867.4501   -6540.0706   -1030.6538   -1056.9641    297.72587    79.712913 
   38000    210.11343   -106.82088   0.19011504   -106.63076   -888.29692    4.3043794    4.3043794    4.3043794   -888.29692   -4143.0586    1044.7317    433.43612    578.02964   -244.44758   -3234.1087    79.750172 
   38100    127.43191   -106.74666   0.11530307   -106.63136      4263.25    4.3033278    4.3033278    4.3033278      4263.25    13888.609    -2459.622     1360.763    2332.3338    3539.5231   -443.69765    79.691736 
   38200    256.48432   -106.86312   0.23207241   -106.63105   -2594.3796    4.3041081    4.3041081    4.3041081   -2594.3796    1448.4581   -9080.1249   -151.47202   -1650.1058     1054.328    -338.3513    79.735095 
   38300    173.80445   -106.78849   0.15726192   -106.63123     451.4438    4.3041826    4.3041826    4.3041826     451.4438    5377.8411    1153.3393    -5176.849   -2611.5221   -1180.6629    1366.5813    79.739235 
   38400     238.7597   -106.84701   0.21603479   -106.63097   -2398.9562    4.3039037    4.3039037    4.3039037   -2398.9562   -2813.8688   -2897.9689   -1485.0309    650.19976   -161.25509   -1889.3525    79.723733 
   38500    178.40945   -106.79254   0.16142862   -106.63111    833.42049    4.3042947    4.3042947    4.3042947    833.42049    5029.2088    89.163593   -2618.1109    608.45746    1045.4185   -1862.9837    79.745467 
   38600    149.86257   -106.76667   0.13559881   -106.63107    2277.5203     4.303222     4.303222     4.303222    2277.5203     8988.448   -7139.0838    4983.1967    997.06419    3349.7263   -1792.4983    79.685856 
   38700    272.18265   -106.87652   0.24627658   -106.63024   -4684.9127    4.3048026    4.3048026    4.3048026   -4684.9127   -5195.8341   -4382.4895   -4476.4146   -2809.5223    -236.3112    1493.0412      79.7737 
   38800    180.02944   -106.79348   0.16289442   -106.63058   -256.06729    4.3038894    4.3038894    4.3038894   -256.06729    5709.8456   -3481.8061   -2996.2414    1483.6594   -181.98886   -762.38961     79.72294 
   38900    209.46355   -106.81961   0.18952702   -106.63008   -1061.5463    4.3041329    4.3041329    4.3041329   -1061.5463   -2070.9231    390.81036   -1504.5261     974.9994    1941.5805   -2459.7459    79.736471 
   39000    154.36163   -106.77023   0.13966965   -106.63056    2455.5781    4.3038427    4.3038427    4.3038427    2455.5781    9231.3381   -6345.5528     4480.949    1644.4389    3157.7004   -1914.4226    79.720347 
   39100    192.19057   -106.80478   0.17389806   -106.63088   -1027.1215      4.30402      4.30402      4.30402   -1027.1215   -874.68489   -5206.1599    2999.4803    -1280.165    1238.8241   -1382.7774    79.730197 
   39200    288.13679   -106.89061   0.26071222   -106.62989   -6127.3036    4.3047748    4.3047748    4.3047748   -6127.3036   -4594.3112   -6319.0774   -7468.5222    -967.4812   -2137.4912    2188.2657    79.772153 
   39300    128.91578   -106.74784   0.11664571    -106.6312    3332.2846     4.303421     4.303421     4.303421    3332.2846    11569.088    -4173.253    2601.0188    652.07746    391.87648   -3870.3379    79.696912 
   39400    239.77075   -106.84749   0.21694961   -106.63054   -2831.3315    4.3042571    4.3042571    4.3042571   -2831.3315    -5066.329   -3272.1628   -155.50272    459.65614    2336.2447   -398.39679    79.743378 
   39500    119.31906   -106.73924    0.1079624   -106.63127     4589.354     4.303339     4.303339     4.303339     4589.354    9233.8394   -7811.8966    12346.119    158.63474    1487.0556     -3222.93    79.692359 
   39600    270.99551    -106.8766   0.24520243    -106.6314   -5538.6523    4.3044209    4.3044209    4.3044209   -5538.6523   -6539.7921   -3253.6203   -6822.5445   -1201.7443   -2111.2735    1774.6467    79.752477 
   39700    226.75892   -106.83658   0.20517623    -106.6314    -2002.018    4.3041078    4.3041078    4.3041078    -2002.018    4323.9515   -9105.2049   -1224.8006    1453.0722    857.50432   -587.69111    79.735077 
   39800    128.00337   -106.74751   0.11582014   -106.63169     4442.043    4.3034114    4.3034114    4.3034114     4442.043    8167.2172     1185.622    3973.2898    926.09975     2915.544   -1586.2445    79.696381 
   39900    214.59766   -106.82494   0.19417247   -106.63077   -971.64595    4.3045397    4.3045397    4.3045397   -971.64595   -4241.4451   -8979.8734    10306.381    2315.9266    2216.7491   -1212.8278    79.759081 
   40000    183.38287   -106.79626   0.16592868   -106.63033    1050.9957     4.303474     4.303474     4.303474    1050.9957    4977.8527    1032.2928   -2857.1583   -992.83503   -1046.9261   -577.95258    79.699856 
   40100    271.91187   -106.87592   0.24603158   -106.62988   -5097.0616    4.3047697    4.3047697    4.3047697   -5097.0616   -4466.6527   -10148.749   -675.78267    302.21981   -294.99548    2147.5241    79.771869 
   40200    170.13186   -106.78474   0.15393889    -106.6308    1677.5905    4.3036243    4.3036243    4.3036243    1677.5905    6933.0206   -733.41373   -1166.8353     503.9431    2107.6248   -1361.7165    79.708207 
   40300    147.13427   -106.76402   0.13313018   -106.63089    3347.2726    4.3036185    4.3036185    4.3036185    3347.2726   -1495.8982   -1598.3458    13136.062    885.88931    2201.3154   -510.28291    79.707889 
   40400    252.32495   -106.85856   0.22830892   -106.63026   -3795.6654    4.3047867    4.3047867    4.3047867   -3795.6654   -2112.0051   -5779.5868   -3495.4045   -345.15018   -611.54001   -2471.3046    79.772814 
   40500    173.90011   -106.78764   0.15734847   -106.63029    1223.5063    4.3035025    4.3035025    4.3035025    1223.5063    973.05906    2292.0468    405.41313   -816.32481    20.078123     4029.617     79.70144 
   40600     298.3084   -106.89947   0.26991571   -106.62956   -6324.8287    4.3047445    4.3047445    4.3047445   -6324.8287   -4309.1051   -11963.137   -2702.2436     358.3356    840.23327   -1513.3483    79.770465 
   40700    45.275867   -106.67328  0.040966556   -106.63231    9246.7252     4.303035     4.303035     4.303035    9246.7252    6190.7244    8372.1493    13177.302      1492.37     3930.487   -451.90862    79.675471 
   40800      275.869   -106.88123   0.24961207   -106.63161   -5265.5556    4.3043247    4.3043247    4.3043247   -5265.5556   -7971.7789   -9583.4474    1758.5596    960.85327    1064.8374   -2478.8938    79.747133 
   40900    183.80439   -106.79788   0.16631008   -106.63157    431.85992     4.303953     4.303953     4.303953    431.85992    3403.0053    3323.4735    -5430.899   -593.39051   -1094.2223    2720.0171    79.726474 
   41000     240.6984   -106.84838   0.21778897   -106.63059   -3078.0206    4.3039845    4.3039845    4.3039845   -3078.0206   -3667.8741   -6396.3067    830.11911    893.44368    1430.2134    127.50226    79.728226 
   41100    155.76982   -106.77192   0.14094381   -106.63098    3501.0816    4.3038544    4.3038544    4.3038544    3501.0816      452.961    -1844.963    11895.247     514.4012    2021.8763   -623.13483    79.720994 
   41200    162.49013   -106.77825   0.14702448   -106.63123    2313.5342     4.303713     4.303713     4.303713    2313.5342    1421.4281    1848.7944    3670.3802    1878.5544    1581.4103   -3592.3994    79.713135 
   41300    266.18396   -106.87143   0.24084884   -106.63058   -4367.5195    4.3043667    4.3043667    4.3043667   -4367.5195   -7141.5745   -9261.2228    3300.2389   -1532.1874    -1013.078    2398.9376    79.749468 
   41400    186.83362   -106.79992   0.16905099   -106.63087    1459.9357    4.3036499    4.3036499    4.3036499    1459.9357    6585.1909    2429.7934   -4635.1771    596.37761   -99.674044   -192.99605    79.709633 
   41500    213.44673   -106.82375   0.19313109   -106.63062   -612.91929    4.3041353    4.3041353    4.3041353   -612.91929   -7378.9419   -11930.843    17471.027   -678.58802    1586.9176   -1041.8489    79.736608 
   41600    135.62985   -106.75358   0.12272074   -106.63086     5494.944    4.3035597    4.3035597    4.3035597     5494.944    8616.4536    3864.3654     4004.013    1781.5806    2051.4625   -1704.9788    79.704621 
   41700    237.56667    -106.8448   0.21495532   -106.62985   -1684.0384    4.3041633    4.3041633    4.3041633   -1684.0384   -4610.7441   -6754.1183    6312.7473    137.88202   -902.04422   -2381.3576    79.738162 
   41800    225.30611   -106.83349    0.2038617   -106.62963   -1096.8049    4.3038648    4.3038648    4.3038648   -1096.8049    3061.2432   -3657.8363   -2693.8216    783.71216    379.45832    3534.0993    79.721575 
   41900       164.89   -106.77973   0.14919593   -106.63053    2972.4941    4.3038803    4.3038803    4.3038803    2972.4941    -181.0992   -6573.8706    15672.452   -647.83354    433.57042   -1829.4038    79.722436 
   42000    232.16514   -106.84068    0.2100679   -106.63061   -2068.0372    4.3039647    4.3039647    4.3039647   -2068.0372    -401.0488   -8730.1221    2927.0594    1239.0711    2473.4445   -838.32147    79.727126 
   42100    141.62123   -106.75922   0.12814187   -106.63108    4115.0713    4.3037426    4.3037426    4.3037426    4115.0713    7394.3822    2788.6219    2162.2098     1804.712   -106.94778   -3674.0684    79.714784 
   42200    284.89772   -106.88761   0.25778145   -106.62983   -5040.7266    4.3044285    4.3044285    4.3044285   -5040.7266   -8324.7076   -4918.5771   -1878.8949   -3.8216407   -1046.1241    2235.6687    79.752904 
   42300    103.15171   -106.72438  0.093333833   -106.63104    6064.1761    4.3031448    4.3031448    4.3031448    6064.1761    8807.0949   -748.97774    10134.411   -901.46504    626.73097    -284.1528    79.681568 
   42400    285.32154   -106.88865   0.25816492   -106.63049   -5619.7061    4.3046841    4.3046841    4.3046841   -5619.7061   -4178.0261   -11929.256   -751.83615   -1235.4907    2043.9002   -1237.4021    79.767109 
   42500    173.68016    -106.7893   0.15714946   -106.63215     747.8822    4.3031685    4.3031685    4.3031685     747.8822    5323.4552   -2070.2475   -1009.5611    2126.5829   -774.22444   -4138.2319    79.682888 
   42600    186.67785   -106.80121   0.16891004    -106.6323   -379.14131    4.3043116    4.3043116    4.3043116   -379.14131    724.34437    2162.4063   -4024.1745   -12.438696   -537.45369    1067.6699    79.746403 
   42700    221.74703   -106.83173   0.20064138   -106.63109    -2259.638    4.3042699    4.3042699    4.3042699    -2259.638   -6744.3315   -2204.0892    2169.5067   -898.97249    528.98752    1884.9585    79.744084 
   42800    137.72841   -106.75551   0.12461956   -106.63089    2675.6254    4.3034046    4.3034046    4.3034046    2675.6254    10202.762   -5038.6741    2862.7888   -795.55442    2192.7985   -2082.1125    79.696005 
   42900    302.95477   -106.90415   0.27411985   -106.63003   -7933.1502    4.3051307    4.3051307    4.3051307   -7933.1502   -6566.2822   -8737.7398   -8495.4285     2557.568    853.70154   -1161.9706    79.791941 
   43000    114.59389   -106.73506   0.10368696   -106.63137     4561.172    4.3029551    4.3029551    4.3029551     4561.172      7910.29    4786.8952    986.33087    802.82309   -477.85698   -2968.8422    79.671033 
   43100    237.31373   -106.84534   0.21472645   -106.63061   -3774.5684    4.3048624    4.3048624    4.3048624   -3774.5684   -6478.7285    1794.9867   -6639.9634    954.36433    786.92155    3917.7496     79.77702 
   43200    146.30161    -106.7632   0.13237678   -106.63082    2746.6478     4.303654     4.303654     4.303654    2746.6478    3470.4327   -1696.4928    6466.0034    -1969.254    1554.5333    -2927.542     79.70986 
   43300    259.17778   -106.86431    0.2345095    -106.6298   -4561.3207    4.3042173    4.3042173    4.3042173   -4561.3207    5549.1938   -9013.8672   -10219.289    1530.2663    848.91336   -808.69238    79.741162 
   43400    200.81507   -106.81181   0.18170169   -106.63011    -509.4631    4.3043387    4.3043387    4.3043387    -509.4631   -5299.7859    3613.7541     157.6425    642.44985   -1085.2657   -3180.2309    79.747909 
   43500    154.52161   -106.76991    0.1398144    -106.6301    2997.7082    4.3033338    4.3033338    4.3033338    2997.7082    10426.477    4778.4127   -6211.7649    31.101983    364.57854    1982.2379    79.692071 
   43600     224.8974   -106.83345   0.20349189   -106.62996   -2008.6535    4.3045982    4.3045982    4.3045982   -2008.6535   -7894.7483    2766.3288   -897.54104    -2466.875    490.16865      380.593    79.762333 
   43700    175.75236   -106.79002   0.15902443     -106.631     1608.998    4.3032789    4.3032789    4.3032789     1608.998    14166.625   -6408.7002    -2930.931    647.18087    1598.0714   -893.80134    79.689018 
   43800    261.10108   -106.86809   0.23624974   -106.63184   -3722.3227    4.3044327    4.3044327    4.3044327   -3722.3227   -3028.1359    459.65279   -8598.4851    909.54669   -1328.1418   -1976.7618    79.753133 
   43900    158.56641   -106.77563   0.14347422   -106.63216    3060.9264     4.303591     4.303591     4.303591    3060.9264    2900.4189    6643.7711   -361.41084    523.79262    581.91806    828.88519     79.70636 
   44000    169.46895   -106.78428   0.15333907   -106.63094    2765.8673    4.3035324    4.3035324    4.3035324    2765.8673    5623.5999    9372.3288    -6698.327   -2114.4495    825.53491    2693.1472    79.703104 
   44100    232.67311   -106.84066   0.21052752   -106.63013   -2036.5096    4.3045087    4.3045087    4.3045087   -2036.5096    1273.0372    -8233.665     851.0991    389.24607    1096.2582   -1413.9071     79.75736 
   44200    211.99039   -106.82201   0.19181336    -106.6302   -851.21788    4.3036689    4.3036689    4.3036689   -851.21788    5844.6293    1118.0645   -9516.3475    920.14193   -208.30797   -396.22703    79.710689 
   44300    213.18081   -106.82341   0.19289047   -106.63052   -851.92168    4.3045939    4.3045939    4.3045939   -851.92168   -756.48727    2855.4205   -4654.6983    328.36301    -472.6451   -2634.8161    79.762096 
   44400    167.71914   -106.78236    0.1517558   -106.63061    1961.0501    4.3034246    4.3034246    4.3034246    1961.0501    3308.6399    8724.0736   -6149.5632   -2481.7183    167.49724    4173.7079    79.697116 
   44500     186.0155   -106.79864   0.16831074   -106.63033    846.54902    4.3040314    4.3040314    4.3040314    846.54902    7870.5512   -2188.3088   -3142.5954   -757.51729    1105.5969   -455.59479    79.730833 
   44600    246.56024   -106.85316   0.22309289   -106.63006    -3291.997    4.3042769    4.3042769    4.3042769    -3291.997    -439.3051   -7223.3952   -2213.2906    580.99751    830.49493    444.38812    79.744478 
   44700    172.39602   -106.78664   0.15598755   -106.63066    655.87185    4.3037158    4.3037158    4.3037158    655.87185    9503.4504    2008.9688   -9544.8037    1156.4423    89.337727   -2649.2114    79.713293 
   44800     235.9565   -106.84403    0.2134984   -106.63053   -2639.7642    4.3044402    4.3044402    4.3044402   -2639.7642   -5909.8947    2255.5392   -4264.9372   -504.03057   -108.11443    1592.1609    79.753554 
   44900    137.39418   -106.75624   0.12431714   -106.63193    3081.8743    4.3030058    4.3030058    4.3030058    3081.8743     15347.04    1949.3316   -8050.7482   -2765.1544    1623.8744    1631.7796    79.673847 
   45000     220.4323    -106.8313   0.19945178   -106.63185   -2354.6469     4.304736     4.304736     4.304736   -2354.6469    1964.6023    -9847.495    818.95188     1675.056     1859.076    750.78858    79.769998 
   45100    226.96599    -106.8366    0.2053636   -106.63124   -1542.9833    4.3034384    4.3034384    4.3034384   -1542.9833    2448.9958   -2319.3845   -4758.5613   -303.65929   -1157.6327   -886.53034    79.697878 
   45200    179.51482   -106.79323   0.16242878    -106.6308    142.81185      4.30434      4.30434      4.30434    142.81185     7764.561    -1368.692   -5967.4335   -151.35223   -581.87531   -2740.3622    79.747984 
   45300    185.74285   -106.79825   0.16806404   -106.63019    1043.8675    4.3039899    4.3039899    4.3039899    1043.8675    7847.6415    2653.8796   -7369.9187   -4887.0284   -430.05848    2359.3241    79.728525 
   45400    228.39274   -106.83686   0.20665455    -106.6302   -1996.9256    4.3035244    4.3035244    4.3035244   -1996.9256    2593.9839   -3848.4116   -4736.3492    807.60233    2296.4423    295.87865    79.702661 
   45500     154.0301   -106.77121   0.13936967   -106.63184    1675.0019    4.3045362    4.3045362    4.3045362    1675.0019    13268.824   -8803.3633    559.54455   -476.20534   -1882.0192    1891.2121    79.758888 
   45600    283.24017   -106.88799   0.25628166   -106.63171   -4633.9378    4.3029288    4.3029288    4.3029288   -4633.9378   -2956.2833   -3633.1604   -7312.3698    257.68663   -371.76182   -3387.2436    79.669569 
   45700    92.511018   -106.71643  0.083705913   -106.63272    5541.6911    4.3045022    4.3045022    4.3045022    5541.6911    21148.906    372.22974   -4896.0627   -2353.0711   -686.66413   -119.13615       79.757 
   45800     284.0036   -106.88785   0.25697242   -106.63088   -4861.3952    4.3035811    4.3035811    4.3035811   -4861.3952   -5708.2813    1670.2669   -10546.171   -59.897996    1501.9251    1694.6226     79.70581 
   45900    153.37674   -106.77071   0.13877849   -106.63193    2481.9581    4.3035946    4.3035946    4.3035946    2481.9581     10921.57   -5094.4234    1618.7279   -749.67583    1298.8961    1692.5418    79.706561 
   46000    209.66071   -106.82224   0.18970542   -106.63253   -1477.1002    4.3043827    4.3043827    4.3043827   -1477.1002    3875.6659   -6145.2424   -2161.7242    2282.0897   -1846.8998    272.94737    79.750356 
   46100    228.31416    -106.8391   0.20658345   -106.63251   -1555.6649    4.3032817    4.3032817    4.3032817   -1555.6649    4903.3016   -5244.7319   -4325.5645   -3101.8322   -1845.2392   -2863.7527    79.689177 
   46200    152.01831   -106.76964   0.13754937    -106.6321    2057.6178    4.3044669    4.3044669    4.3044669    2057.6178    9555.4491    4800.0402   -8182.6358   -312.58327     995.3188    379.30165    79.755037 
   46300    251.62573   -106.85827   0.22767625    -106.6306   -3021.9459    4.3035104    4.3035104    4.3035104   -3021.9459    1627.4263   -3844.8973   -6848.3665   -326.25934    175.94512    1004.9035     79.70188 
   46400    167.54916   -106.78243     0.151602   -106.63083    1893.7944    4.3042226    4.3042226    4.3042226    1893.7944    5603.8356   -1936.6795    2014.2271    2354.0983   -1306.6507    2290.3612    79.741456 
   46500     188.1698   -106.80105   0.17025999   -106.63079    983.68206    4.3034116    4.3034116    4.3034116    983.68206    13362.187   -8616.1443   -1794.9969   -1850.1641   -3420.5713   -1674.0142    79.696393 
   46600    204.87833   -106.81719   0.18537822   -106.63181    169.54401    4.3040795    4.3040795    4.3040795    169.54401    1335.9907    -2091.059    1263.7003    960.69317    2795.9384   -185.05797    79.733504 
   46700    245.33899   -106.85406   0.22198788   -106.63207   -2494.2383    4.3038344    4.3038344    4.3038344   -2494.2383    5092.6981    -1296.582   -11278.831    850.79187   -58.794398   -774.55396    79.719886 
   46800    157.89269   -106.77556   0.14286462    -106.6327     3386.158    4.3036013    4.3036013    4.3036013     3386.158    12817.297   -4377.8161    1718.9932    2064.7054    967.73768    2095.3875    79.706929 
   46900    203.14081   -106.81517   0.18380607   -106.63137    96.214843    4.3042411    4.3042411    4.3042411    96.214843    4905.9282   -3953.5037   -663.77994    822.90157   -2119.8639    1988.0442    79.742484 
   47000    167.12843   -106.78215   0.15122132   -106.63093    2504.6032    4.3032159    4.3032159    4.3032159    2504.6032    10550.956   -9472.9156    6435.7697   -920.14384   -89.576648   -1793.8413    79.685521 
   47100    274.27762   -106.87949   0.24817215   -106.63132   -4795.6738    4.3043178    4.3043178    4.3043178   -4795.6738   -4221.3461   -2981.6197   -7184.0557   -266.14422    1105.4123     56.93553    79.746747 
   47200    182.94259   -106.79849    0.1655303   -106.63296    354.31899    4.3036577    4.3036577    4.3036577    354.31899     13447.63   -6868.0423    -5516.631    1503.4569    571.74279   -554.13986    79.710064 
   47300    141.13406   -106.76084   0.12770106   -106.63314    3362.4143     4.303702     4.303702     4.303702    3362.4143    8075.6806   -2430.2536    4441.8159     1176.966   -3650.7186    2643.5577    79.712525 
   47400    253.31764   -106.86059   0.22920713   -106.63138    -3875.467    4.3040496    4.3040496    4.3040496    -3875.467   -3429.0911   -9316.2842    1118.9742   -594.76705    893.70188   -81.878486    79.731845 
   47500    155.77526   -106.77219   0.14094873   -106.63125    2121.2115    4.3037772    4.3037772    4.3037772    2121.2115    8260.6346   -4197.1465    2300.1462    741.42444    2326.5559   -950.80703    79.716706 
   47600    233.67267    -106.8426   0.21143194   -106.63117   -2937.5717    4.3039706    4.3039706    4.3039706   -2937.5717    8039.1417   -6558.5882   -10293.269    779.44049    2134.2451   -886.15338    79.727454 
   47700    236.07097   -106.84551   0.21360197   -106.63191   -3199.3931     4.304241     4.304241     4.304241   -3199.3931   -369.80359   -6528.8927   -2699.4831    1529.0104   -3516.9651    979.34214     79.74248 
   47800    113.70169   -106.73609   0.10287968   -106.63322    4820.4706    4.3032444    4.3032444    4.3032444    4820.4706    13039.985   -2638.9802    4060.4072   -2798.1186    2413.8058    599.78737    79.687103 
   47900    280.48844   -106.88554   0.25379183   -106.63175   -5881.4378    4.3043842    4.3043842    4.3043842   -5881.4378   -5747.2784   -11911.931    14.896026   -113.59473    1057.0203     357.6866     79.75044 
   48000    103.86441   -106.72579  0.093978702   -106.63181    5143.7201    4.3038742    4.3038742    4.3038742    5143.7201    24128.094   -2734.4941   -5962.4391   -2902.9931    2064.2618   -627.62461    79.722097 
   48100    301.03909   -106.90236    0.2723865   -106.62997   -6620.5878    4.3037939    4.3037939    4.3037939   -6620.5878   -4325.4229   -10671.087   -4865.2531    1282.4084   -2214.6252   -674.34338    79.717632 
   48200    164.99864   -106.78016   0.14929424   -106.63087    997.00337    4.3045576    4.3045576    4.3045576    997.00337    9142.1775   -3426.2169   -2724.9505   -1873.9374   -613.43348    1303.6799     79.76008 
   48300    183.05061   -106.79681   0.16562804   -106.63118    1396.9211    4.3030351    4.3030351    4.3030351    1396.9211    5830.7968    -7763.758    6123.7245    369.21259    2517.9132   -1143.7253    79.675475 
   48400    211.94765   -106.82359   0.19177469   -106.63181    -1237.215    4.3044891    4.3044891    4.3044891    -1237.215    8646.9982   -6183.2599   -6175.3833   -837.66399    2950.2453    1749.2696    79.756268 
   48500    179.08502   -106.79383   0.16203989   -106.63179    289.46466    4.3036725    4.3036725    4.3036725    289.46466    7008.1248   -3745.2116   -2394.5192    962.01369   -1479.9968   -2664.9042    79.710888 
   48600    277.66321   -106.88211   0.25123551   -106.63087   -4945.1204    4.3040057    4.3040057    4.3040057   -4945.1204   -1628.2549   -6305.3864     -6901.72    627.48685   -1333.4713    552.54329    79.729403 
   48700    148.83724   -106.76623   0.13467106   -106.63156    2952.7725    4.3039795    4.3039795    4.3039795    2952.7725    4808.8943   -1563.0333    5612.4567   -1670.2058    2569.6671    60.006281     79.72795 
   48800    146.08204   -106.76384    0.1321781   -106.63166    3751.9136    4.3031808    4.3031808    4.3031808    3751.9136    18900.834   -7801.6985    156.60545   -1043.1225    3319.8288    83.737486    79.683568 
   48900    244.96467   -106.85317   0.22164918   -106.63152   -2304.0614    4.3042957    4.3042957    4.3042957   -2304.0614   -4413.2198   -160.13794   -2338.8264   -201.05419   -2156.2143   -246.25965    79.745523 
   49000    232.96099   -106.84229     0.210788   -106.63151   -2580.4914    4.3038007    4.3038007    4.3038007   -2580.4914    4884.6915   -8980.1664   -3645.9994    731.61652   -1246.2341   -688.13566     79.71801 
   49100    175.32376   -106.79065   0.15863662   -106.63201    1987.5272    4.3040952    4.3040952    4.3040952    1987.5272     7470.052    2103.6101   -3611.0806   -1304.5554    1190.3133    539.77339    79.734378 
   49200    168.30032   -106.78425   0.15228167   -106.63197    2827.5548    4.3032541    4.3032541    4.3032541    2827.5548    10848.243   -9647.0685    7281.4901    942.77052    3013.5511    872.64369    79.687642 
   49300    201.09267   -106.81358   0.18195288   -106.63163   -160.07637    4.3040718    4.3040718    4.3040718   -160.07637    3047.9979    2172.8815   -5701.1085   -473.48404   -272.45564    -1254.925    79.733076 
   49400    257.65085   -106.86379    0.2331279   -106.63067   -2451.0349    4.3041026    4.3041026    4.3041026   -2451.0349   -286.77403   -6606.7739   -459.55671    2105.2775   -2923.4456   -775.53254    79.734788 
   49500    169.94247   -106.78531   0.15376752   -106.63154    2106.8179     4.303424     4.303424     4.303424    2106.8179      16745.4   -1648.4256   -8776.5207   -1496.1138    2006.1051    138.11908    79.697083 
   49600    156.83497   -106.77357   0.14190758   -106.63166    2969.8575    4.3040761    4.3040761    4.3040761    2969.8575    5581.4759   -1999.6667    5327.7633    489.00373    1814.3579   -1303.4852    79.733317 
   49700    266.93849   -106.87195   0.24153156   -106.63042   -3692.3549    4.3038615    4.3038615    4.3038615   -3692.3549   -380.68246   -7945.7698   -2750.6125   -1004.2825    663.59465    1350.8814    79.721389 
   49800    135.01497   -106.75361   0.12216438   -106.63145    3271.3854    4.3037743    4.3037743    4.3037743    3271.3854    9208.5989    3263.6129   -2658.0555    731.70637   -3993.1402   -2325.2757    79.716542 
   49900     287.3125   -106.89056   0.25996639   -106.63059   -5067.1785    4.3041747    4.3041747    4.3041747   -5067.1785    6887.7943   -12744.256   -9345.0742   -1599.8525    866.76607     1100.037    79.738793 
   50000    109.13895   -106.73057  0.098751213   -106.63182    5430.9755    4.3034821    4.3034821    4.3034821    5430.9755    13380.446    5498.9314    -2586.451    493.08309    2216.5994   -1106.6471    79.700307 
   50100    256.17013   -106.86354   0.23178812   -106.63175   -4474.2097    4.3040939    4.3040939    4.3040939   -4474.2097   -3883.8319   -11462.713    1923.9157   -37.715522    1129.2376    770.53375    79.734306 
   50200    193.97613   -106.80763   0.17551368   -106.63212    41.155913    4.3039683    4.3039683    4.3039683    41.155913    4684.8233     868.6222   -5429.9778    1659.2234   -3803.9628   -521.87905    79.727328 
   50300    146.94944   -106.76451   0.13296294   -106.63155    1776.9689    4.3037674    4.3037674    4.3037674    1776.9689    17269.534   -6682.8468   -5255.7804   -904.04433    972.55794    -719.3288    79.716162 
   50400    273.17964   -106.87809   0.24717868   -106.63091   -5467.6907    4.3040218    4.3040218    4.3040218   -5467.6907   -2709.9588   -4477.7302    -9215.383    782.00493    1964.2396   -1370.5744    79.730297 
   50500    172.09198   -106.78749   0.15571244   -106.63178    1147.3752    4.3042261    4.3042261    4.3042261    1147.3752    4812.4819   -2742.9621    1372.6056   -660.43711    1057.8898    571.42583    79.741651 
   50600    193.31835   -106.80635   0.17491851   -106.63143   -730.89918    4.3036347    4.3036347    4.3036347   -730.89918    7633.7746   -9358.8751   -467.59703    1172.0193   -3701.9696   -1177.2835    79.708785 
   50700    159.60106   -106.77569    0.1444104   -106.63128     2088.502    4.3040061    4.3040061    4.3040061     2088.502    10466.344   -1667.3396   -2533.4983    -1651.843   -248.13988   -1549.8829    79.729426 
   50800    253.76171   -106.86035   0.22960893   -106.63074   -4491.5978    4.3040718    4.3040718    4.3040718   -4491.5978    4151.7371   -8587.6465    -9038.884   -942.09473    1459.9159   -113.65353    79.733074 
   50900    201.99709   -106.81422   0.18277121   -106.63145   -1238.9797      4.30393      4.30393      4.30393   -1238.9797   -4092.5011   -288.16834     663.7303    416.87364     1016.885   -952.50418    79.725198 
   51000     167.2572   -106.78315   0.15133783   -106.63181    2361.2312    4.3038944    4.3038944    4.3038944    2361.2312    18378.605   -9344.8121   -1950.0994    974.94477    -3128.929    1913.1598     79.72322 
   51100    168.01247    -106.7838   0.15202122   -106.63178     1288.704     4.303462     4.303462     4.303462     1288.704    3631.1251   -1905.4679    2140.4547     480.3835   -964.40154   -3413.8345    79.699193 
   51200     271.0146   -106.87566    0.2452197   -106.63044   -4923.3652    4.3047115    4.3047115    4.3047115   -4923.3652    1550.4996   -8896.6279   -7423.9673   -720.97897     2236.001    483.53521    79.768635 
   51300    180.44881   -106.79513   0.16327388   -106.63185    1493.7655    4.3033961    4.3033961    4.3033961    1493.7655    5641.5642    664.01593   -1824.2836    1561.3451    602.99349   -1752.8499     79.69553 
   51400    209.36679   -106.82132   0.18943947   -106.63188   -1667.7169    4.3042346    4.3042346    4.3042346   -1667.7169    5783.0906   -9953.2035   -833.03776    1576.4222   -1759.3255     349.7325    79.742124 
   51500    133.76673    -106.7528   0.12103495   -106.63177    4911.1512    4.3033011    4.3033011    4.3033011    4911.1512    15205.962   -1860.1429    1387.6347   -1302.4339   -2468.9015   -1203.4187    79.690251 
   51600    267.09501   -106.87299   0.24167318   -106.63131   -4942.7718    4.3040916    4.3040916    4.3040916   -4942.7718   -5418.5974    -4863.371   -4546.3468   -1068.8173     1950.607   -1656.7703    79.734178 
   51700    216.94406   -106.82793   0.19629554   -106.63163      -1586.6    4.3042823    4.3042823    4.3042823      -1586.6    6782.8867   -4549.6615   -6993.0252    69.702962    898.25227   -562.18996    79.744776 
   51800    129.47192    -106.7487   0.11714891   -106.63155    5449.8862    4.3032131    4.3032131    4.3032131    5449.8862    14681.119    2068.1655   -399.62619    195.09442   -1801.0555   -186.49215    79.685363 
   51900    252.55289    -106.8594   0.22851517   -106.63089   -4621.4108     4.304446     4.304446     4.304446   -4621.4108    803.84061   -11503.431   -3164.6422    -328.8016   -2493.1895    803.93748    79.753873 
   52000    142.21614   -106.75998   0.12868015    -106.6313    4057.5229    4.3034324    4.3034324    4.3034324    4057.5229    5147.6217    4666.9405    2358.0064   -1599.2634    2553.2515   -1882.9207     79.69755 
   52100    299.02758   -106.90123   0.27056643   -106.63066   -6368.7543    4.3043165    4.3043165    4.3043165   -6368.7543    3634.8528   -10562.308   -12178.808    1993.5875     1216.691  -0.35068963    79.746677 
   52200    89.689169   -106.71379  0.081152645   -106.63264    6011.8836    4.3036167    4.3036167    4.3036167    6011.8836    16474.059    3966.2776   -2404.6855     317.6438   -277.36548   -1213.6337    79.707785 
   52300      267.295   -106.87281   0.24185413   -106.63096   -3094.0861    4.3038605    4.3038605    4.3038605   -3094.0861    2524.1027   -5954.7738   -5851.5871    1651.0135   -2548.3973    1749.4536    79.721332 
   52400     211.2107   -106.82189   0.19110788   -106.63078   -1676.4211    4.3042947    4.3042947    4.3042947   -1676.4211   -2117.9446    -3025.882    114.56335   -2864.6098    2158.7054   -1641.7086    79.745466 
   52500    148.29802   -106.76553   0.13418316   -106.63135    3238.5862     4.303336     4.303336     4.303336    3238.5862    20278.477   -4367.8115   -6194.9071    1012.4555    1965.8822    -1019.062    79.692191 
   52600    221.80281   -106.83277   0.20069184   -106.63208   -702.68014     4.303828     4.303828     4.303828   -702.68014    7073.9952   -1676.2556     -7505.78    1539.6626   -461.38435   -1401.3392    79.719531 
   52700    206.70075   -106.81976   0.18702718   -106.63273   -1810.8684    4.3040205    4.3040205    4.3040205   -1810.8684    1483.3903   -1688.5104    -5227.485    723.20673   -2457.8895    382.86148    79.730226 
   52800    211.90246   -106.82427    0.1917338   -106.63253   -255.59471    4.3037401    4.3037401    4.3037401   -255.59471    7599.6888   -2572.3578   -5794.1151   -2511.9147    1574.4461    950.03823    79.714646 
   52900    179.66157    -106.7942   0.16256157   -106.63164    907.72521    4.3041955    4.3041955    4.3041955    907.72521    7641.3846   -4290.0471    -628.1618    1850.2453    1013.4341   -1765.1148    79.739954 
   53000    210.85034   -106.82141   0.19078182   -106.63063   -1225.9944     4.303551     4.303551     4.303551   -1225.9944    10615.655   -3478.9518   -10814.687    1976.4383    942.78522   -233.15225    79.704135 
   53100    165.64389   -106.78128   0.14987807    -106.6314    2380.8051    4.3040312    4.3040312    4.3040312    2380.8051    1644.8205    6792.1535   -1294.5587    2567.7477   -2265.4377   -1677.2995    79.730818 
   53200    287.72869   -106.89192   0.26034297   -106.63158   -6888.8117    4.3040439    4.3040439    4.3040439   -6888.8117   -794.45935   -8001.4101   -11870.566   -3684.3658    355.15921    1699.2485    79.731525 
   53300    84.978643   -106.70971  0.076890462   -106.63282    6764.9609    4.3032499    4.3032499    4.3032499    6764.9609    17769.849    2553.1914   -28.157344     2698.697    939.13549   -2020.8839    79.687405 
   53400    300.54642   -106.90271   0.27194072   -106.63077   -6864.3223    4.3048853    4.3048853    4.3048853   -6864.3223   -2657.0305   -9083.8798   -8852.0567   -32.385481    210.25885   -722.69555    79.778297 
   53500    117.14579   -106.73731   0.10599597   -106.63132     3902.993     4.303009     4.303009     4.303009     3902.993    7038.0674    10141.492   -5470.5804    2671.2807   -725.53401    -2687.755    79.674026 
   53600    260.32846    -106.8655   0.23555066   -106.62995   -3961.8566    4.3050124    4.3050124    4.3050124   -3961.8566   -1649.9587   -4542.1382   -5693.4729   -3840.8865   -1433.8562    565.92367    79.785362 
   53700    160.63071   -106.77614   0.14534205    -106.6308    1869.0579    4.3031235    4.3031235    4.3031235    1869.0579    14449.133  -0.30151479   -8841.6575     662.1486    1364.3612    486.71141    79.680388 
   53800    200.82261   -106.81289   0.18170851   -106.63118   -1019.5112    4.3042648    4.3042648    4.3042648   -1019.5112    3349.7069   -7350.0037    941.76319    1069.0114    854.87183   -1906.4292    79.743804 
   53900    253.84346   -106.86115   0.22968289   -106.63147   -2955.0927    4.3040042    4.3040042    4.3040042   -2955.0927   -3827.2887    5888.0549   -10926.044    2548.0417   -401.88243   -456.50439    79.729318 
   54000    97.612573    -106.7211  0.088321907   -106.63278    5448.1961    4.3031397    4.3031397    4.3031397    5448.1961    11487.448    4608.4634    248.67723   -3390.5657   -681.12783   -1821.4048    79.681287 
   54100    263.87636   -106.86978   0.23876088   -106.63102    -3892.228     4.304632     4.304632     4.304632    -3892.228    3186.3962   -3476.2695   -11386.811     -26.6872     1466.972    2460.1688    79.764214 
   54200    212.95147   -106.82349   0.19268297   -106.63081   -486.99533    4.3033859    4.3033859    4.3033859   -486.99533    2431.4221   -3571.4907   -320.91744    1976.9941     500.0762   -2266.2138    79.694962 
   54300    180.51723   -106.79567   0.16333578   -106.63233    300.97211    4.3042241    4.3042241    4.3042241    300.97211    3780.0613    4036.9634   -6914.1083    1346.0138   -189.03293   -154.33241    79.741543 
   54400     237.1011    -106.8468   0.21453406   -106.63226   -863.24326    4.3032788    4.3032788    4.3032788   -863.24326   -1858.4821    4454.6151   -5185.8628   -4319.8361    -1142.285   -2264.5889    79.689015 
   54500    96.652956    -106.7199  0.087453626   -106.63245    5629.8427    4.3040706    4.3040706    4.3040706    5629.8427    15795.368    4138.7585   -3044.5981    172.98057    926.37871      1423.74    79.733008 
   54600    315.23787   -106.91505   0.28523385   -106.62982   -7503.6825    4.3044731    4.3044731    4.3044731   -7503.6825   -4490.6433   -7206.3143    -10814.09    211.90673   -854.17062   -395.71974    79.755381 
   54700    159.80938   -106.77468   0.14459889   -106.63008    3258.2784     4.303409     4.303409     4.303409    3258.2784    5604.6969    1966.0532     2204.085    2048.3797    1782.8087    510.06365    79.696245 
   54800    200.08658   -106.81109   0.18104254   -106.63005   -1275.6177    4.3045621    4.3045621    4.3045621   -1275.6177    2284.9719    6848.3213   -12960.146   -1845.9184   -2130.9379   -1839.8553     79.76033 
   54900    154.59706    -106.7709   0.13988267   -106.63102    3636.9287    4.3028697    4.3028697    4.3028697    3636.9287    7543.7085    2396.3608    970.71676   -1558.9566    1530.4668    222.31859    79.666287 
   55000    239.39607   -106.84787   0.21661059   -106.63126   -3457.5065    4.3048048    4.3048048    4.3048048   -3457.5065    2446.1349   -1467.3553   -11351.299    2176.2861   -182.69883    787.59919    79.773823 
   55100    256.54301   -106.86367   0.23212551   -106.63154   -4712.7879    4.3037974    4.3037974    4.3037974   -4712.7879   -6231.6379   -4945.0507   -2961.6752    1350.9114    2230.7283     -23.3677    79.717827 
   55200    108.73274   -106.73021  0.098383668   -106.63182    5753.6075    4.3038944    4.3038944    4.3038944    5753.6075    11605.922    10546.193   -4891.2924   -1400.4058   -1463.3631   -611.17765     79.72322 
   55300    225.58463   -106.83451   0.20411372    -106.6304   -2961.3809     4.304141     4.304141     4.304141   -2961.3809   -782.57784    249.07408   -8350.6389   -3542.0662   -902.15379   -2173.0943    79.736921 
   55400    189.04086   -106.80161   0.17104814   -106.63056    440.54315    4.3034651    4.3034651    4.3034651    440.54315    2744.2392    1995.3889   -3417.9987    856.56887    581.17969    1866.4341    79.699365 
   55500    261.45696   -106.86901   0.23657175   -106.63244   -4245.8311     4.304258     4.304258     4.304258   -4245.8311    2982.4765   -7907.6253   -7812.3444    1391.2649    1027.6386    36.222513    79.743425 
   55600    193.38892   -106.80887   0.17498236   -106.63389   -670.81466    4.3031653    4.3031653    4.3031653   -670.81466   -2666.9337    4013.7096   -3359.2199   -2179.8261   -2198.5548   -1660.4664     79.68271 
   55700    128.11934   -106.74913   0.11592507    -106.6332    4440.6921    4.3045056    4.3045056    4.3045056    4440.6921    15596.237    4973.0416   -7247.2024    -2548.884    148.82765   -1264.5727    79.757187 
   55800    213.41353   -106.82442   0.19310105   -106.63132   -1539.6312    4.3033129    4.3033129    4.3033129   -1539.6312    -4810.714    2082.4357   -1890.6153    1587.2122    453.95718    1151.2748    79.690907 
   55900    263.47805   -106.86804   0.23840048   -106.62964   -5235.8903    4.3049563    4.3049563    4.3049563   -5235.8903    4235.4705   -9530.1283   -10413.013    1473.2003    319.17664   -383.89645    79.782244 
   56000    164.96432   -106.77957   0.14926319   -106.63031    2789.2659    4.3035924    4.3035924    4.3035924    2789.2659    3724.6183     4130.359     512.8205    1075.6054    1048.2415    1860.4052    79.706439 
   56100    195.11962   -106.80744   0.17654834   -106.63089   -441.17487    4.3034226    4.3034226    4.3034226   -441.17487    8648.3131    36.419238   -10008.257   -3861.6217   -2335.0657   -2562.5203    79.697005 
   56200    139.98177    -106.7581   0.12665845   -106.63144    3769.7049    4.3045634    4.3045634    4.3045634    3769.7049    5101.4015    8086.9234   -1879.2101    1101.6999    987.96442    932.54837    79.760399 
   56300    310.60741   -106.91133   0.28104411   -106.63029   -6430.3128    4.3032523    4.3032523    4.3032523   -6430.3128   -3784.8334   -8544.3962   -6961.7089    217.22366   -769.01854   -252.59465    79.687544 
   56400    138.06117   -106.75632   0.12492065    -106.6314    2461.9833    4.3048516    4.3048516    4.3048516    2461.9833     14354.62    958.43874   -7927.1087    975.01616    628.20657    1222.2565    79.776423 
   56500     204.2607   -106.81488   0.18481937   -106.63006    1191.5582    4.3033337    4.3033337    4.3033337    1191.5582    3043.0337    2136.8211   -1605.1802   -5202.7167   -2329.0538   -794.20295    79.692062 
   56600     190.1238   -106.80244   0.17202801   -106.63041    160.57965    4.3038364    4.3038364    4.3038364    160.57965   -541.40355    9407.9996   -8384.8571    180.31372   -907.95173   -2512.4593    79.719995 
   56700    183.18669   -106.79789   0.16575117   -106.63214    913.64415     4.303866     4.303866     4.303866    913.64415    7304.0746   -4696.8522    133.71003    2143.6598    635.05129   -838.33994    79.721642 
   56800    290.81196   -106.89589   0.26313277   -106.63275   -5006.7843    4.3036923    4.3036923    4.3036923   -5006.7843   -1759.6452   -3922.1575   -9338.5503    1263.0379    936.25029    1736.3842    79.711985 
   56900    118.91763   -106.74061   0.10759917   -106.63301    3411.8007    4.3044563    4.3044563    4.3044563    3411.8007    14106.739   -213.56605   -3657.7707    -3485.073   -1769.1923   -592.71525    79.754449 
   57000    222.46714   -106.83193   0.20129294   -106.63064    -208.3743    4.3029849    4.3029849    4.3029849    -208.3743   -4481.8913     9727.046   -5870.2776    755.45808    472.49774   -1252.2511    79.672687 
   57100    181.83771    -106.7949   0.16453059   -106.63037    336.87862    4.3046126    4.3046126    4.3046126    336.87862    4370.3372   -109.04205   -3250.6593   -187.29148   -463.89244   -1320.0584    79.763134 
   57200    209.91476   -106.82038   0.18993528   -106.63045   -1500.2929    4.3036135    4.3036135    4.3036135   -1500.2929    6377.0243   -4876.9792   -6000.9238    2419.8317    1952.9358    270.54055    79.707608 
   57300    245.16896   -106.85231   0.22183402   -106.63048   -2466.2286    4.3041902    4.3041902    4.3041902   -2466.2286    4535.6168   -4364.3696    -7569.933    -4299.355   -1499.4337    2197.9932    79.739657 
   57400    134.34448   -106.75282   0.12155771   -106.63126    2644.7058    4.3041129    4.3041129    4.3041129    2644.7058    5343.5474    7446.0452   -4855.4752    252.61941   -797.01865   -3189.9412    79.735361 
   57500    238.73215   -106.84631   0.21600987    -106.6303   -2181.4282    4.3037052    4.3037052    4.3037052   -2181.4282   -4040.0203    5195.9869   -7700.2513   -582.67179   -285.22598    102.54506    79.712703 
   57600    146.24313   -106.76279   0.13232386   -106.63046    2730.4284    4.3043009    4.3043009    4.3043009    2730.4284    13263.243   -4238.5207   -833.43772    2543.3243   -392.45104   -2837.7795    79.745809 
   57700    257.56291    -106.8627   0.23304833   -106.62965   -4933.1317    4.3038511    4.3038511    4.3038511   -4933.1317    422.23299   -4413.5851   -10808.043   -2065.0895    617.30724    1699.5923    79.720813 
   57800    217.87888   -106.82759   0.19714139   -106.63045   -609.17152    4.3038226    4.3038226    4.3038226   -609.17152    -709.6045    3959.2427   -5077.1527   -1053.3167   -1351.0804    380.88322    79.719227 
   57900     137.8754   -106.75797   0.12475256   -106.63322    3132.9384    4.3033658    4.3033658    4.3033658    3132.9384    7607.9783    9199.4049    -7408.568    2008.4734   -196.67704    -1959.912    79.693847 
   58000    258.76332    -106.8672   0.23413449   -106.63307   -4129.7251      4.30446      4.30446      4.30446   -4129.7251   -3812.2471   -3638.4528   -4938.4755     2840.921    2238.7297     -2233.81    79.754654 
   58100    134.37436    -106.7539   0.12158475   -106.63232    4278.8119    4.3034381    4.3034381    4.3034381    4278.8119    13687.394   -307.53293   -543.42553   -2224.6504    1687.1369    530.02799    79.697865 
   58200     270.0402   -106.87461   0.24433804   -106.63027   -5564.7175    4.3046797    4.3046797    4.3046797   -5564.7175   -4795.4814   -2650.8416   -9247.8294   -1140.3054    -456.2042    1856.0154    79.766865 
   58300    147.83938   -106.76421   0.13376818   -106.63044    3856.7577    4.3033483    4.3033483    4.3033483    3856.7577    4665.1982    13170.237   -6265.1621   -423.45639   -482.68035   -298.84306    79.692876 
   58400    223.25937   -106.83264   0.20200977   -106.63063   -1604.4955    4.3040115    4.3040115    4.3040115   -1604.4955    5365.8807   -2542.3614   -7637.0059    2502.7047    179.88753   -2245.9785    79.729728 
   58500    189.33304   -106.80294   0.17131252   -106.63163    488.73295    4.3041006    4.3041006    4.3041006    488.73295    2411.9025    685.00081   -1630.7045   -2109.6931    1771.3712   -2161.8769    79.734676 
   58600    208.25537   -106.81935   0.18843383   -106.63092    465.98448    4.3034345    4.3034345    4.3034345    465.98448    6100.4566   -4534.7403   -167.76283   -225.49732   -706.78008    3076.4219    79.697663 
   58700      190.124   -106.80261   0.17202819   -106.63058   -145.98051    4.3048043    4.3048043    4.3048043   -145.98051   -4280.8573    11273.732   -7430.8165   -85.211606   -556.37124   -247.88812    79.773791 
   58800    204.21859   -106.81489   0.18478127   -106.63011    548.35985    4.3030186    4.3030186    4.3030186    548.35985    11660.513   -1661.6679   -8353.7656    2399.6068    -311.3381    128.52112    79.674562 
   58900    193.57097   -106.80566   0.17514708   -106.63051    306.96298    4.3046889    4.3046889    4.3046889    306.96298    3871.9384    931.73877   -3882.7882    669.65206     2272.094   -3731.1514    79.767377 
   59000    261.77871   -106.86775   0.23686288   -106.63089   -4019.7235    4.3035363    4.3035363    4.3035363   -4019.7235   -2878.5154   -8294.1085   -886.54671   -1792.7954    1993.7082    1111.9943    79.703318 
   59100    105.14227   -106.72859  0.095134933   -106.63345     6259.196    4.3031753    4.3031753    4.3031753     6259.196    10128.403     6745.726    1903.4588   -645.13004   -1291.6798    1852.7207    79.683262 
   59200    261.47974   -106.86952   0.23659237   -106.63292   -4691.8512    4.3047664    4.3047664    4.3047664   -4691.8512   -5151.6489   -942.11622   -7981.7883    1600.2769   -792.79206    381.29915    79.771683 
   59300    175.93905   -106.79131   0.15919335   -106.63212    1147.4383    4.3027292    4.3027292    4.3027292    1147.4383    11117.461   -1390.4899   -6284.6561   -1143.7237    316.40845   -2994.4237    79.658484 
   59400    234.54185   -106.84244   0.21221839   -106.63022   -3076.6922    4.3055074    4.3055074    4.3055074   -3076.6922   -823.15139    -8795.616    388.69081   -1277.3266    1378.6253   -762.43883    79.812885 
   59500    174.34585   -106.78816   0.15775179    -106.6304    1158.0382     4.302745     4.302745     4.302745    1158.0382    1636.2766    690.67375    1147.1643   -436.50356   -2036.3187    1648.1069     79.65936 
   59600    167.31696   -106.78247    0.1513919   -106.63108    1103.9546    4.3043757    4.3043757    4.3043757    1103.9546    6513.4048    930.99889   -4132.5398    2416.4456   -1300.7924    1460.9029    79.749967 
   59700    239.17123   -106.84753   0.21640716   -106.63112   -3202.0136    4.3042893    4.3042893    4.3042893   -3202.0136   -18.884413   -1572.2664   -8014.8899   -640.15619     742.3593   -1078.6554    79.745167 
   59800    208.61886   -106.82008   0.18876273   -106.63132   -1892.6563    4.3032199    4.3032199    4.3032199   -1892.6563    5017.1678   -5720.0805   -4975.0562   -254.72418   -28.438321   -4068.3324    79.685743 
   59900    209.79088    -106.8215    0.1898232   -106.63167    -1426.931    4.3051888    4.3051888    4.3051888    -1426.931    926.09847   -7053.6006    1846.7092   -747.03509     43.99543    2527.4052    79.795169 
   60000     144.4259   -106.76262   0.13067959   -106.63194    3851.1907    4.3020852    4.3020852    4.3020852    3851.1907    4042.7493    4821.7813    2689.0415   -375.64946   -752.08106    331.25483    79.622724 
   60100    200.16842    -106.8128   0.18111659   -106.63169    -1663.085    4.3050529    4.3050529    4.3050529    -1663.085    7710.8948   -3825.3994   -8874.7505    1071.6877   -834.80645     1345.309    79.787614 
   60200    260.06605   -106.86719   0.23531322   -106.63188   -3239.9302    4.3033397    4.3033397    4.3033397   -3239.9302   -4142.2327   -789.11547   -4788.4423    -2587.378    1537.0716   -3905.2331    79.692396 
   60300    203.83552   -106.81728   0.18443467   -106.63285   -1501.2755    4.3039437    4.3039437    4.3039437   -1501.2755    9908.1327   -9854.4253    -4557.534   -381.58681   -780.31463    61.467937     79.72596 
   60400     130.8615   -106.75141   0.11840624     -106.633    4400.0344    4.3040567    4.3040567    4.3040567    4400.0344    1091.2868    6415.4143    5693.4021   -31.600339   -2465.5568     1556.063    79.732239 
   60500    233.21006   -106.84243   0.21101336   -106.63141   -844.51917    4.3030827    4.3030827    4.3030827   -844.51917    3237.4964   -2996.1719   -2774.8819    2028.0345   -454.49587    2470.6077    79.678121 
   60600    152.60397   -106.76869   0.13807928   -106.63061     1558.438    4.3050574    4.3050574    4.3050574     1558.438     6213.738    3704.8796   -5243.3037   -3161.1968    692.96098   -2565.4385    79.787865 
   60700    318.22954   -106.91728   0.28794078   -106.62934   -6035.1756    4.3032801    4.3032801    4.3032801   -6035.1756   -135.07668   -10786.715   -7183.7349     1557.779     -170.644   -761.66725    79.689086 
   60800    124.81984   -106.74469   0.11293962   -106.63175    4308.0171    4.3040829    4.3040829    4.3040829    4308.0171    7718.5031    3121.2727    2084.2754   -1095.4013    -1817.787    136.03199    79.733692 
   60900    176.18161    -106.7916   0.15941283   -106.63219    1746.3051    4.3035359    4.3035359    4.3035359    1746.3051    3933.4563   -1100.6034    2406.0624    1694.6049    108.00929    2714.5999      79.7033 
   61000    231.23667   -106.84079    0.2092278   -106.63156   -644.46876    4.3035383    4.3035383    4.3035383   -644.46876   -176.31663    2501.2679   -4258.3575   -3392.8315    945.13592    855.86322    79.703432 
   61100    195.39145   -106.80806   0.17679429   -106.63127   -1404.3692    4.3048279    4.3048279    4.3048279   -1404.3692     8955.552   -4958.1201   -8210.5396     1651.535   -722.32482   -2682.3338    79.775102 
   61200    261.68901   -106.86771   0.23678172   -106.63093   -2955.4183    4.3030069    4.3030069    4.3030069   -2955.4183   -2361.5624    58.618853   -6563.3112   -2363.7589   -581.29344    350.32925    79.673911 
   61300    125.59028   -106.74564   0.11363673   -106.63201    3877.1143    4.3045072    4.3045072    4.3045072    3877.1143    8726.9924     137.6701    2766.6806    2257.6936   -1377.7597    1279.9651    79.757275 
   61400    199.11873   -106.81135   0.18016681   -106.63118   -613.73003    4.3032331    4.3032331    4.3032331   -613.73003   -1456.5321    910.22818   -1294.8862   -1723.8978   -384.02696    2072.9579    79.686477 
   61500    214.74734   -106.82461   0.19430791    -106.6303   -854.82272    4.3043168    4.3043168    4.3043168   -854.82272    4556.4244   -2292.1753   -4828.7173    633.17578    831.98371   -1711.3773    79.746696 
   61600    221.53033   -106.83089    0.2004453   -106.63045   -3047.1674    4.3042484    4.3042484    4.3042484   -3047.1674     5743.037   -3792.1608   -11092.378   -180.10615   -872.22805   -1513.2026    79.742891 
   61700    223.14404   -106.83228   0.20190541   -106.63037   -1787.9834    4.3037556    4.3037556    4.3037556   -1787.9834    -2949.124    2239.8458    -4654.672    1477.5724   -329.54134   -9.2327587    79.715505 
   61800    128.61863    -106.7472   0.11637684   -106.63082         4028    4.3042693    4.3042693    4.3042693         4028    9924.5832     1053.712    1105.7049   -298.24156   -1496.7816    3454.3743    79.744053 
   61900    219.54324   -106.82957   0.19864733   -106.63093   -2055.7816    4.3032153    4.3032153    4.3032153   -2055.7816   -4011.5032    6.2761602   -2162.1178   -596.25819    2213.5175   -1426.2488    79.685484 
   62000    224.19096   -106.83445   0.20285269   -106.63159   -1734.6011    4.3044351    4.3044351    4.3044351   -1734.6011    8419.2976   -5863.4319    -7759.669   -600.15904   -275.68112   -413.54224    79.753266 
   62100    202.09518   -106.81532   0.18285997   -106.63246   -559.88945    4.3034255    4.3034255    4.3034255   -559.88945    2803.0644    6240.8447   -10723.577    1875.9943   -359.60584   -2375.2013    79.697164 
   62200    222.97871   -106.83358   0.20175582   -106.63182   -1706.5409    4.3041362    4.3041362    4.3041362   -1706.5409    1656.9972   -1538.9756   -5237.6442   -1863.6941   -993.53857    2616.2313    79.736656 
   62300    145.78219   -106.76319   0.13190679   -106.63128    4166.3982    4.3037663    4.3037663    4.3037663    4166.3982    3316.4149    6238.3451    2944.4345     1658.359    1127.9356    1965.8944    79.716101 
   62400    219.52072   -106.82936   0.19862696   -106.63073   -1466.1602    4.3037463    4.3037463    4.3037463   -1466.1602    5439.1817   -8123.8422   -1713.8202   -672.96561   -358.81647   -1713.4172    79.714987 
   62500    205.03533   -106.81633   0.18552027   -106.63081   -404.03596    4.3043409    4.3043409    4.3043409   -404.03596   -769.08881    6832.4063   -7275.4254     2256.925    277.05231   -2209.7288    79.748035 
   62600    215.69577   -106.82566   0.19516606   -106.63049   -384.77392    4.3033645    4.3033645    4.3033645   -384.77392    10971.139   -323.34924   -11802.111   -956.81033    456.48375    393.54341    79.693777 
   62700    197.24148   -106.80902   0.17846824   -106.63055   -610.37687    4.3045085    4.3045085    4.3045085   -610.37687   -5009.8723    7147.6432   -3968.9015    2587.4128   -28.148837     2191.781    79.757348 
   62800    192.19095   -106.80449   0.17389841   -106.63059    1208.7251    4.3033642    4.3033642    4.3033642    1208.7251    10925.971   -9483.6705    2183.8752   -1602.9681   -1301.2036    1078.7267    79.693759 
   62900    170.88311   -106.78611   0.15461863   -106.63149    1459.4097     4.304014     4.304014     4.304014    1459.4097   -2573.5399    6335.5185    616.25033    1830.5644    1225.1195   -2563.9296    79.729865 
   63000    221.45723   -106.83201   0.20037916   -106.63163   -2123.0079    4.3038796    4.3038796    4.3038796   -2123.0079    7574.0568   -5836.6605   -8106.4199    181.41811   -111.53384    -1099.586    79.722397 
   63100       194.96   -106.80771   0.17640391   -106.63131    161.75367    4.3038445    4.3038445    4.3038445    161.75367    4618.8084    5346.8478   -9480.3952     1509.991   -1101.7849    1917.3853    79.720446 
   63200    243.43222   -106.85087   0.22026259   -106.63061   -4139.4316    4.3045661    4.3045661    4.3045661   -4139.4316    159.30744   -9495.2011    -3082.401    519.68019   -603.94152    544.47086    79.760548 
   63300    152.21559   -106.76881   0.13772787   -106.63108    2960.2751    4.3030678    4.3030678    4.3030678    2960.2751    7809.5532   -1081.7655    2153.0375    309.97838    1280.3293    453.64773    79.677294 
   63400    175.29634   -106.78926   0.15861181   -106.63065     863.8548    4.3047047    4.3047047    4.3047047     863.8548    4163.1474   -1984.1229    412.53984     4181.342    1514.7311   -3445.1962    79.768257 
   63500    248.60221   -106.85518    0.2249405   -106.63024   -3632.3004    4.3035178    4.3035178    4.3035178   -3632.3004    -2857.847    1612.9695   -9652.0237   -1076.1043   -1058.5973   -743.34444    79.702291 
   63600    149.72129   -106.76741   0.13547097   -106.63194    2812.4576    4.3036888    4.3036888    4.3036888    2812.4576    17312.207   -1678.9263   -7195.9079    1121.8361    410.34156    1756.0096    79.711792 
   63700    293.49848   -106.89855   0.26556359   -106.63299   -6735.6182    4.3043152    4.3043152    4.3043152   -6735.6182   -7757.5961   -9325.9468   -3123.3117    -979.6776    1067.9072    1307.9615    79.746603 
   63800    106.94504   -106.73098  0.096766119   -106.63422     5528.102    4.3027942    4.3027942    4.3027942     5528.102    14769.999   -618.60801    2432.9149    2478.7408   -964.10128   -2426.5255    79.662096 
   63900    216.47738   -106.82807   0.19587329    -106.6322   -672.21616     4.304455     4.304455     4.304455   -672.21616   -2216.8317   -938.04958    1138.2329   -2113.1275    33.570225   -1985.6974    79.754374 
   64000    187.02018    -106.8009   0.16921979   -106.63168    387.99179    4.3032439    4.3032439    4.3032439    387.99179    7209.6343    4121.2621   -10166.921    3533.9125   -659.75595    -921.3535    79.687073 
   64100    244.23854   -106.85171   0.22099216   -106.63072   -3223.6346    4.3047456    4.3047456    4.3047456   -3223.6346    3157.9095   -8201.4031   -4627.4102   -1961.0145     14.06601    2966.5596    79.770527 
   64200    207.61062   -106.81838   0.18785045   -106.63053   -191.32769    4.3037715    4.3037715    4.3037715   -191.32769    5048.0348   -2850.9986   -2771.0193    3943.2365     108.9369   -516.67193    79.716386 
   64300     173.5982   -106.78731    0.1570753   -106.63024    1215.8979    4.3037348    4.3037348    4.3037348    1215.8979    1856.3211   -2512.1574      4303.53   -1079.0439    264.79599    -3417.252    79.714349 
   64400    139.89494   -106.75705   0.12657989   -106.63047    4328.5707    4.3040214    4.3040214    4.3040214    4328.5707    9289.7345    6684.1614   -2988.1836    3353.1016    822.27782   -1773.3786    79.730275 
   64500    283.39298   -106.88688   0.25641992   -106.63046   -5578.7052    4.3036785    4.3036785    4.3036785   -5578.7052   -2879.7116   -4812.3917   -9044.0124   -1605.5393   -692.10726   -291.88734    79.711223 
   64600    154.45903   -106.77131   0.13975778   -106.63156    1829.4679    4.3043397    4.3043397    4.3043397    1829.4679     13420.21   -3233.3694   -4698.4367    2047.7625    839.91897    3088.8541    79.747967 
   64700    277.56321   -106.88252   0.25114502   -106.63137   -4125.5765    4.3036614    4.3036614    4.3036614   -4125.5765   -5930.4616   -5382.4155   -1063.8524   -397.24297   -669.07037   -1750.8628    79.710273 
   64800    91.971014   -106.71656  0.083217306   -106.63334    5881.3815    4.3034099    4.3034099    4.3034099    5881.3815    9782.8395    4995.3694    2865.9355   -942.44671   -2741.0894   -2660.0096    79.696297 
   64900    208.99045   -106.82157   0.18909895   -106.63247   -500.04629    4.3041851    4.3041851    4.3041851   -500.04629    2065.7886     3086.689   -6652.6165   -749.15745   -431.00713   -1643.0068    79.739374 
   65000    250.84694   -106.85865   0.22697158   -106.63168    -3511.403    4.3033632    4.3033632    4.3033632    -3511.403    1798.5401   -5316.5479    -7016.201     2190.523    20.136935    2726.4274    79.693705 
   65100    199.93293   -106.81183   0.18090352   -106.63092   -1848.2484     4.305174     4.305174     4.305174   -1848.2484    5880.5525   -4904.9122   -6520.3855    302.12966   -356.35932    312.82887    79.794347 
   65200    195.33701     -106.807   0.17674503   -106.63025    1350.9681    4.3030314    4.3030314    4.3030314    1350.9681    3038.9493   -2903.1552    3917.1103   -204.95835   -1047.6362   -732.95323     79.67527 
   65300    171.65732   -106.78603   0.15531915   -106.63071    564.75154    4.3043223    4.3043223    4.3043223    564.75154   -1057.3644     5370.293   -2618.6739   -268.21969    466.27285   -4413.8497       79.747 
   65400    153.50257    -106.7701   0.13889235   -106.63121    2149.0516    4.3037706    4.3037706    4.3037706    2149.0516    13741.642   -3584.7364   -3709.7509    1778.6148    1292.6801    1567.2371    79.716336 
   65500    321.14529   -106.92146   0.29057901   -106.63088   -7212.9841    4.3035806    4.3035806    4.3035806   -7212.9841   -6911.7506   -6026.2249   -8700.9769   -1318.4227   -419.73463     1619.348    79.705781 
   65600    124.95418   -106.74608   0.11306117   -106.63302     2686.916    4.3045285    4.3045285    4.3045285     2686.916     17428.42   -8833.9736   -533.69875   -287.58393    471.88389    434.93381    79.758461 
   65700    228.35974   -106.83919   0.20662469   -106.63256   -646.10183    4.3027029    4.3027029    4.3027029   -646.10183   -6038.5741     969.4331    3130.8355   -1013.4775   -589.15219   -2107.5605    79.657026 
   65800    143.23291    -106.7627   0.12960015    -106.6331    2516.3872    4.3046472    4.3046472    4.3046472    2516.3872    9503.1448    551.01684   -2505.0002   -1009.2199    13.014465   -2185.5914    79.765061 
   65900    218.94216   -106.82999   0.19810347   -106.63189   -1597.3224    4.3031312    4.3031312    4.3031312   -1597.3224    2875.1457   -3405.4312   -4261.6816    993.80148    330.77673    2461.4971    79.680815 
   66000    271.82403   -106.87739    0.2459521   -106.63143   -4432.8474    4.3046076    4.3046076    4.3046076   -4432.8474    59.634391   -8901.3663   -4456.8104   -614.38216   -858.90882    1706.5202    79.762859 
   66100    148.52798   -106.76669   0.13439124    -106.6323    2273.9272    4.3036055    4.3036055    4.3036055    2273.9272    5768.4364   -5415.0957     6468.441   -73.444018     15.97233   -811.84129    79.707162 
   66200    190.96175   -106.80405    0.1727862   -106.63127    985.16104    4.3033974    4.3033974    4.3033974    985.16104    901.65554    2354.7144   -300.88686   -102.78536    934.54997   -3516.0776    79.695603 
   66300    193.22387   -106.80528   0.17483301   -106.63045     103.2793    4.3049107    4.3049107    4.3049107     103.2793    1089.4025   -586.34214   -193.22249     1067.249    114.94362    943.64436    79.779706 
   66400    211.10704   -106.82098   0.19101408   -106.62997   -1166.3895    4.3031435    4.3031435    4.3031435   -1166.3895    8078.5788   -4339.6942   -7238.0532   -1818.0926   -992.43515    1027.2355    79.681496 
   66500    251.18034   -106.85755   0.22727325   -106.63028   -2972.5636    4.3048534    4.3048534    4.3048534   -2972.5636   -6440.7138   -10362.056    7885.0793   -509.07039    280.66677    2627.8133    79.776523 
   66600    141.51894   -106.76042   0.12804931   -106.63237    3394.1941    4.3028836    4.3028836    4.3028836    3394.1941    14206.039   -4126.5837    103.12745   -31.029262    1288.9732   -4297.2087    79.667063 
   66700    187.99802   -106.80362   0.17010456   -106.63352    544.02326    4.3037139    4.3037139    4.3037139    544.02326   -387.63234      581.522    1438.1801    1442.9466   -781.65534    -855.4426    79.713186 
   66800     260.7401   -106.86905   0.23592313   -106.63313   -3158.1875     4.304003     4.304003     4.304003   -3158.1875    2473.9304    -2575.823   -9372.6699     -1929.87    -93.77062    1119.7814    79.729251 
   66900    141.85679   -106.76203     0.128355   -106.63368    3020.7031    4.3032787    4.3032787    4.3032787    3020.7031    7773.6131     -5191.14    6479.6362    1494.4657   -35.980204    2555.7048    79.689008 
   67000     259.2854   -106.86648   0.23460688   -106.63188    -3764.313    4.3046474    4.3046474    4.3046474    -3764.313   -2738.7304   -11471.966     2917.757   -627.38551     1301.586   -486.91587    79.765067 
   67100    142.54505   -106.76082   0.12897776   -106.63184    4120.9565    4.3028102    4.3028102    4.3028102    4120.9565    10878.999   -2912.2472    4396.1175    2033.5008     1580.269   -2688.0639    79.662982 
   67200    236.71339   -106.84518   0.21418325   -106.63099   -3763.4673    4.3047497    4.3047497    4.3047497   -3763.4673   -522.43994   -2181.7654   -8586.1967    274.29176   -91.195082   -262.95132    79.770756 
   67300    200.40427   -106.81209   0.18132999   -106.63076    504.24952    4.3036433    4.3036433    4.3036433    504.24952    2012.7333   -2352.1429    1852.1582   -921.15033   -433.94582    2809.0242    79.709262 
   67400    134.27606   -106.75229    0.1214958    -106.6308    3817.3705    4.3035868    4.3035868    4.3035868    3817.3705    9013.0744   -6573.9667    9013.0038   -653.21843    1798.4781    2192.6811    79.706127 
   67500     271.1539   -106.87503   0.24534574   -106.62968   -6069.0818    4.3050891    4.3050891    4.3050891   -6069.0818   -6636.5219   -12408.977    838.25358    -248.5709   -347.79149   -2206.9464    79.789624 
   67600     173.2994   -106.78667   0.15680494   -106.62986     2301.608    4.3030129    4.3030129    4.3030129     2301.608    12348.419   -3938.0179    -1505.577    2222.9995   -744.92655   -285.60551    79.674243 
   67700    247.59191    -106.8557   0.22402636   -106.63167   -4266.8898    4.3046604    4.3046604    4.3046604   -4266.8898   -5074.6976   -4521.1566   -3204.8151   -845.80682   -1241.3252   -104.57841    79.765793 
   67800    154.32483   -106.77335   0.13963634   -106.63371    3333.4862    4.3026221    4.3026221    4.3026221    3333.4862    2713.8387   -3446.6426    10733.263    91.612004    2359.4447    5465.1835    79.652536 
   67900    151.21921   -106.77069   0.13682632   -106.63387       3038.9    4.3039796    4.3039796    4.3039796       3038.9    9473.7687   -5340.9478    4983.8791    438.14039   -761.97121   -713.58838     79.72795 
   68000    293.30248   -106.89787   0.26538625   -106.63248   -7292.8265    4.3042555    4.3042555    4.3042555   -7292.8265   -7058.3074   -11202.443   -3617.7292    1296.1191     66.50681    -1069.237    79.743286 
   68100    184.25728    -106.7988   0.16671986   -106.63208    1323.9179    4.3036918    4.3036918    4.3036918    1323.9179     11978.44   -3514.8116   -4491.8745   -869.04761   -897.68692   -968.26614    79.711962 
   68200    191.91007   -106.80526   0.17364427   -106.63161   -45.322073    4.3043145    4.3043145    4.3043145   -45.322073   -5552.4489   -4913.3066    10329.789     17.16036    895.66336    2158.6041    79.746567 
   68300    137.15652   -106.75598   0.12410211   -106.63187     3729.444    4.3028856    4.3028856    4.3028856     3729.444    8116.9441   -483.14148    3554.5293   -3088.0772    1720.4084    2556.7473     79.66717 
   68400    215.00238   -106.82505   0.19453868   -106.63051   -991.30121    4.3047426    4.3047426    4.3047426   -991.30121    2588.5168   -7636.1294     2073.709    338.35794   -95.931375   -1193.7232    79.770363 
   68500    289.35463   -106.89162   0.26181415   -106.62981   -7326.6981    4.3043026    4.3043026    4.3043026   -7326.6981   -2215.9515   -8864.0804   -10900.063   -224.29669   -1554.5473    -2039.597    79.745903 
   68600    132.08004   -106.75016    0.1195088   -106.63065    4146.3681    4.3035738    4.3035738    4.3035738    4146.3681    10538.988   -4885.5306    6785.6469    114.08907    913.40784   -293.63269    79.705406 
   68700    218.00625   -106.82735   0.19725663   -106.63009    -1515.783    4.3045362    4.3045362    4.3045362    -1515.783   -5859.2713    -3806.561    5118.4834    -1055.468    1769.2253    3394.8808    79.758891 
   68800    137.73418   -106.75622   0.12462478    -106.6316     2738.852    4.3029567    4.3029567    4.3029567     2738.852    7953.7241   -2493.0667    2755.8986   -422.45057    995.57478   -415.12338    79.671121 
   68900    265.04618   -106.87172   0.23981935    -106.6319   -4787.0671    4.3045788    4.3045788    4.3045788   -4787.0671    1330.1271   -7630.6238   -8060.7046    1170.9276   -1760.9549   -329.44155    79.761258 
   69000    251.44836   -106.85997   0.22751576   -106.63246   -4804.3681    4.3038469    4.3038469    4.3038469   -4804.3681   -2808.5465   -8369.2162   -3235.3415   -801.80888    1512.6465   -3991.2708    79.720577 
   69100    113.45518   -106.73589   0.10265663   -106.63323    4433.6248    4.3034356    4.3034356    4.3034356    4433.6248    10848.667   -4727.2451     7179.452   -676.42903   -986.17624    3194.6561    79.697724 
   69200    205.45572   -106.81767   0.18590066   -106.63177   -573.98001    4.3041945    4.3041945    4.3041945   -573.98001   -7365.2415    1131.4597    4511.8417   -2023.1661    1302.0772    1700.1682    79.739895 
   69300    187.72246   -106.80139   0.16985523   -106.63153   -659.22912    4.3037456    4.3037456    4.3037456   -659.22912    9602.2424   -4202.6184   -7377.3114    -790.3992   -1007.0509   -83.142026    79.714951 
   69400    245.59996   -106.85342   0.22222401    -106.6312   -3226.1167    4.3044083    4.3044083    4.3044083   -3226.1167   -4180.0313   -2187.6395   -3310.6793   -669.77457   -1551.0925   -3118.6567     79.75178 
   69500    231.95645   -106.84071   0.20987907   -106.63083   -1939.6502    4.3036786    4.3036786    4.3036786   -1939.6502    3088.3593   -9799.5659    892.25588    861.71995     704.9549   -131.62955    79.711229 
   69600    87.416121   -106.71064  0.079095943   -106.63154     6552.872    4.3038391    4.3038391    4.3038391     6552.872    3323.7178    3219.2511    13115.647   -2142.6608    1196.9505    2462.8836    79.720148 
   69700     271.8782   -106.87615   0.24600111   -106.63015    -3523.603    4.3040276    4.3040276    4.3040276    -3523.603     -4691.31   -2471.1958    -3408.303    1275.2619   -467.98829    2065.4779     79.73062 
   69800    170.59353   -106.78471   0.15435661   -106.63035    1800.7329    4.3039623    4.3039623    4.3039623    1800.7329    7376.8646    458.07638   -2432.7423   -610.42415   -805.53792   -2783.5195    79.726991 
   69900    262.55109   -106.86743   0.23756175   -106.62987   -3595.5971    4.3042432    4.3042432    4.3042432   -3595.5971   -5495.7119    -6948.657    1657.5777    2043.9644    536.83421   -1448.0539    79.742604 
   70000    151.81614    -106.7684   0.13736644   -106.63104    4581.1383    4.3032383    4.3032383    4.3032383    4581.1383    5806.6909    -4261.071    12197.795   -2477.2943    2783.9906    1578.4016    79.686763 
   70100    171.97167   -106.78731   0.15560359    -106.6317    1610.3063    4.3040016    4.3040016    4.3040016    1610.3063    -1132.917     2808.471    3155.3649    1490.8888   -957.69008    2142.0302    79.729176 
   70200    270.18018   -106.87555   0.24446471   -106.63109   -3811.9947    4.3039793    4.3039793    4.3039793   -3811.9947   -1631.6368   -3708.2106   -6096.1366   -1595.9271   -593.69286    110.68621    79.727934 
   70300    159.81362    -106.7758   0.14460272   -106.63119    3344.5532    4.3036771    4.3036771    4.3036771    3344.5532    6325.7609    29.867988    3678.0308     2309.363    -24.21505   -3410.6661    79.711142 
   70400    240.51598   -106.84801   0.21762391   -106.63038   -3002.7641    4.3041938    4.3041938    4.3041938   -3002.7641   -5553.9432   -12884.351    9430.0021   -1368.9242   -114.77039    363.01657    79.739859 
   70500    128.90263   -106.74798   0.11663381   -106.63135    5038.0582    4.3036191    4.3036191    4.3036191    5038.0582    6920.7415    1482.7264    6710.7067    695.14422    1471.3017    2680.6458    79.707921 
   70600    266.80343   -106.87265   0.24140935   -106.63124   -4954.4959    4.3039825    4.3039825    4.3039825   -4954.4959   -6311.3278   -3914.8922   -4637.2679   -730.41689   -1351.7526     395.0605    79.728114 
   70700    179.14822   -106.79338   0.16209707   -106.63129     117.9366    4.3042693    4.3042693    4.3042693     117.9366    3517.4402    -899.7885   -2263.8419    2620.8912   -280.06765   -2950.3095    79.744053 
   70800    193.19891   -106.80516   0.17481043   -106.63035    785.64436    4.3039817    4.3039817    4.3039817    785.64436    874.03758   -8949.7806    10432.676    1777.5703    2232.0103   -1540.6734    79.728071 
   70900    183.96517   -106.79677   0.16645555   -106.63031   -420.58476    4.3039072    4.3039072    4.3039072   -420.58476   -678.11968   -8997.9146      8414.28   -783.78706    2108.0292    506.18556     79.72393 
   71000    202.63503    -106.8136   0.18334843   -106.63025   -1037.7912    4.3043452    4.3043452    4.3043452   -1037.7912    4354.7396     -2532.95   -4935.1634    888.99818   -679.57094    3019.9195    79.748274 
   71100    271.96978   -106.87636   0.24608397   -106.63028    -5138.965    4.3038557    4.3038557    4.3038557    -5138.965   -6903.7993   -6912.7706   -1600.3252   -672.86258   -760.33131   -3179.2376    79.721067 
   71200    104.15277   -106.72625  0.094239614   -106.63201    4515.7749    4.3036497    4.3036497    4.3036497    4515.7749    9873.3435   -2266.8678    5940.8491    3258.6477     2706.849   -1465.5515    79.709621 
   71300    223.09383    -106.8331   0.20185999   -106.63124    -1294.143    4.3042012    4.3042012    4.3042012    -1294.143   -3996.9195   -12988.965    13103.456   -2407.3242    593.17065   -639.09591    79.740269 
   71400    193.99112   -106.80657   0.17552725   -106.63104    -697.4315     4.303678     4.303678     4.303678    -697.4315    5552.8493    -3683.429   -3961.7147     2192.153   -615.11921    1507.3223    79.711191 
   71500    257.95991   -106.86359   0.23340754   -106.63018   -4538.4523    4.3047851    4.3047851    4.3047851   -4538.4523   -3814.3624   -8935.7498   -865.24478   -2444.2034   -2022.7888     904.0705    79.772723 
   71600    174.22567    -106.7878   0.15764305   -106.63016     2241.832    4.3035317    4.3035317    4.3035317     2241.832    2603.7891   -1047.8791    5169.5861    3397.9926    547.71582   -2616.7113    79.703066 
   71700     130.8614   -106.74931   0.11840614    -106.6309    3721.7475    4.3037028    4.3037028    4.3037028    3721.7475    4976.2519   -6420.5856    12609.576    707.59113    2520.1425    -1938.942    79.712573 
   71800    261.98714   -106.86763   0.23705147   -106.63058   -3592.4462    4.3041574    4.3041574    4.3041574   -3592.4462   -3490.4468   -6465.4196   -821.47226    1484.0748    730.08339     788.9447    79.737832 
   71900    195.69652     -106.808   0.17707032   -106.63093     45.84868    4.3038816    4.3038816    4.3038816     45.84868    6159.9162   -4379.4136   -1642.9566   -987.71527   -1828.2358    1312.8889    79.722505 
   72000    254.33702   -106.86083   0.23012948   -106.63071   -3656.3059    4.3043188    4.3043188    4.3043188   -3656.3059   -5317.6271   -7073.2331    1421.9424    1117.9839    989.08618   -1716.4107    79.746805 
   72100     77.93944   -106.70241  0.070521243   -106.63189     8492.261    4.3032009    4.3032009    4.3032009     8492.261     6838.884     1503.904    17133.995    1418.3713    3052.3261   -1965.5199    79.684688 
   72200    238.05706   -106.84669   0.21539903   -106.63129   -2778.0208    4.3039955    4.3039955    4.3039955   -2778.0208    1571.2888   -8321.5352   -1583.8161      83.6566    1768.1355   -1085.5528    79.728835 
   72300    239.90442   -106.84809   0.21707056   -106.63102   -3314.1322     4.304393     4.304393     4.304393   -3314.1322   -5685.7623   -419.66362   -3836.9708   -1277.9054    -3046.714    2953.2349    79.750928 
   72400    217.57942   -106.82804   0.19687043   -106.63117   -1017.5865    4.3039009    4.3039009    4.3039009   -1017.5865    6500.7068   -8515.4334   -1038.0328   -768.48303    457.48537   -752.20091    79.723582 
   72500    161.59852   -106.77753   0.14621774   -106.63131    2028.5154    4.3040534    4.3040534    4.3040534    2028.5154   -5609.2497    1636.5856     10058.21    1258.4278    1725.3829    -1040.533    79.732054 
   72600    146.91817   -106.76376   0.13293465   -106.63083    3553.4972    4.3035822    4.3035822    4.3035822    3553.4972    10723.501   -4481.4519    4418.4423    248.88295    1168.8419   -2344.9252    79.705868 
   72700    279.59905   -106.88294    0.2529871   -106.62995   -5019.8697    4.3041904    4.3041904    4.3041904   -5019.8697    -7399.412   -3164.7059   -4495.4913     723.8889   -1161.7053     2345.161    79.739666 
   72800    203.32785   -106.81428   0.18397531    -106.6303   -1281.2118    4.3044287    4.3044287    4.3044287   -1281.2118    2683.7953   -3555.3903   -2972.0403   -1068.1791   -1245.3972   -298.64746    79.752916 
   72900    179.35581   -106.79331    0.1622849   -106.63102    2344.5328    4.3033406    4.3033406    4.3033406    2344.5328    1257.3962   -6156.2363    11932.439    1953.8544     2994.161    90.280368    79.692447 
   73000    154.94892   -106.77179   0.14020104   -106.63159    2758.2293    4.3040864    4.3040864    4.3040864    2758.2293    242.97737    1672.8603    6358.8502    495.03236    2360.4508   -3326.8686    79.733888 
   73100    209.14639   -106.81986   0.18924005   -106.63062   -1096.7618    4.3040921    4.3040921    4.3040921   -1096.7618    4396.9099   -8644.1215    956.92625    700.35503   -449.50369    1412.9308    79.734205 
   73200     299.8297   -106.90083   0.27129221   -106.62954     -5403.57    4.3041741    4.3041741    4.3041741     -5403.57   -8396.2571   -1217.1697   -6597.2831   -1960.9947   -1704.6282     1118.625    79.738765 
   73300    101.45396   -106.72339  0.091797671    -106.6316    5257.3453    4.3038593    4.3038593    4.3038593    5257.3453    9518.8718   -10716.684    16969.848   -75.481822    2514.8595   -303.94611    79.721267 
   73400    216.34782   -106.82727   0.19575606   -106.63151    -296.1534    4.3032566    4.3032566    4.3032566    -296.1534   -4136.1693   -1417.3249     4665.034    272.48539    1568.0753   -2393.7218    79.687778 
   73500    169.13061    -106.7846   0.15303293   -106.63157    1636.8585    4.3045629    4.3045629    4.3045629    1636.8585    5806.7457     -4580.25    3684.0798    1396.2623    313.08459   -2418.6719    79.760371 
   73600    267.37845   -106.87263   0.24192964    -106.6307   -5152.1087    4.3039535    4.3039535    4.3039535   -5152.1087   -4605.3591   -5281.5609   -5569.4062   -1375.2528   -2577.2181    2341.7197    79.726504 
   73700        185.1   -106.79822   0.16748237   -106.63074    1575.6197     4.303871     4.303871     4.303871    1575.6197    -390.8147   -6348.1106    11465.784   -210.49593    1744.3019   -677.79475    79.721918 
   73800    179.99273    -106.7939    0.1628612   -106.63104    291.70337    4.3042063    4.3042063    4.3042063    291.70337    7033.2588   -10222.963    4064.8143    908.33088    2674.4994   -981.02989    79.740551 
   73900    190.64667   -106.80377   0.17250112   -106.63127    185.74883    4.3034473    4.3034473    4.3034473    185.74883   -4100.1968    273.85861    4383.5847    2579.4603    829.79126     -4815.44    79.698376 
   74000    220.99577   -106.83009   0.19996161   -106.63012   -2442.4228    4.3051251    4.3051251    4.3051251   -2442.4228    3084.1252   -3093.0433   -7318.3503    284.43017   -1630.9825    1870.5564     79.79163 
   74100    197.59187   -106.80884   0.17878528   -106.63005   -1065.7293    4.3032805    4.3032805    4.3032805   -1065.7293   -6678.7892   -1847.4837    5329.0852   -1651.1685    1234.6293   -766.67092    79.689106 
   74200    192.45369   -106.80449   0.17413614   -106.63035    -396.8566    4.3045773    4.3045773    4.3045773    -396.8566    7529.1365   -11090.911    2371.2048   -577.37849    2009.6381    1166.0222     79.76117 
   74300    185.77206   -106.79902   0.16809046   -106.63093   -394.31734    4.3036606    4.3036606    4.3036606   -394.31734    152.41261   -3857.9269    2522.5623    766.86626    1298.9426   -5428.6424    79.710228 
   74400    242.63865   -106.85019   0.21954455   -106.63064    -4053.141    4.3043147    4.3043147    4.3043147    -4053.141   -2993.5426   -1401.0975    -7764.783    684.84749   -1944.7645   -394.30815    79.746576 
   74500    155.00054   -106.77193   0.14024775   -106.63168    2285.3609    4.3038788    4.3038788    4.3038788    2285.3609    994.69414    3296.1078    2565.2806   -2658.4011   -211.25567    1363.4311    79.722351 
   74600    227.52656   -106.83711   0.20587081   -106.63124   -2755.1114    4.3039432    4.3039432    4.3039432   -2755.1114     -443.032   -8856.1031     1033.801   -1592.1583    2037.3639   -328.47566    79.725928 
   74700    174.09923   -106.78841   0.15752864   -106.63088    636.59309    4.3044308    4.3044308    4.3044308    636.59309    9206.9664   -5454.3238   -1842.8633    1006.7828    618.85755   -1367.1668    79.753031 
   74800    240.43981   -106.84786     0.217555   -106.63031   -2969.4046     4.303529     4.303529     4.303529   -2969.4046   -5995.7739   -698.89859   -2213.5413    2107.4672   -1181.2335   -3889.2376    79.702913 
   74900    189.62651   -106.80201   0.17157805   -106.63044     -130.333    4.3046213    4.3046213    4.3046213     -130.333    2950.2273    3124.8367    -6466.063    -1182.881   -269.55843    2800.6531    79.763621 
   75000     154.9796   -106.77092    0.1402288   -106.63069    3220.5533    4.3031612    4.3031612    4.3031612    3220.5533    2736.3327     516.6747    6408.6525   -2106.3596    2507.1728    -111.5114    79.682482 
   75100     253.8622   -106.86052   0.22969985   -106.63082   -3653.6573    4.3044578    4.3044578    4.3044578   -3653.6573    4736.4968   -10663.191   -5034.2777    654.35033    1097.1335   -208.31208     79.75453 
   75200    158.67886   -106.77496   0.14357597   -106.63138    2178.7801    4.3041582    4.3041582    4.3041582    2178.7801    3113.7652    2038.7217    1383.8536    2213.4675   -187.80805   -3402.5145    79.737878 
   75300    290.58973   -106.89265   0.26293169   -106.62972   -5031.4343    4.3034773    4.3034773    4.3034773   -5031.4343   -7160.7695    464.20873   -8397.7422   -1168.2087    -1403.924    1689.8208    79.700041 
   75400    61.474642   -106.68697  0.055623548   -106.63135    8515.1472    4.3044589    4.3044589    4.3044589    8515.1472    13327.643    7492.9882    4724.8106   -3702.3637    2242.1146   -447.05082    79.754592 
   75500    281.21476   -106.88472   0.25444902   -106.63027   -4318.7016    4.3031171    4.3031171    4.3031171   -4318.7016    846.98332   -9272.1391   -4530.9489   -1518.2166    392.05124    1694.1156     79.68003 
   75600    187.70726    -106.8004   0.16984148   -106.63055    364.27709    4.3049783    4.3049783    4.3049783    364.27709    4236.4566   -2094.5743   -1049.0511    2165.5775   -63.884934   -3321.8707    79.783465 
   75700    233.47865   -106.84148   0.21125639   -106.63023   -2031.9686    4.3037383    4.3037383    4.3037383   -2031.9686   -25.137715   -2434.7172   -3636.0509    -338.8795   -1594.6285   -246.15066    79.714542 
   75800    187.01214   -106.79975   0.16921251   -106.63053    1176.5853    4.3034167    4.3034167    4.3034167    1176.5853    2621.9953    6769.1234   -5861.3628   -2232.7184    880.48147    1177.3889    79.696676 
   75900    106.40344   -106.72733  0.096276068   -106.63105    5354.0083    4.3044655    4.3044655    4.3044655    5354.0083    14978.036   -2765.1203    3849.1092   -2202.7073    2077.3485    484.15917    79.754957 
   76000     311.9071   -106.91267    0.2822201   -106.63045   -7059.6961    4.3031479    4.3031479    4.3031479   -7059.6961   -6796.2322   -7193.3061     -7189.55    2113.6026    610.50993     729.0275    79.681742 
   76100    182.99236   -106.79683   0.16557533   -106.63125    99.212869    4.3051724    4.3051724    4.3051724    99.212869    6012.1665   -5309.7978   -404.73008    361.47374   -1309.4528   -3084.9811    79.794259 
   76200    216.49586   -106.82771   0.19589001   -106.63182   -904.79067    4.3030713    4.3030713    4.3030713   -904.79067    3048.7559    1109.7528   -6872.8806   -2000.2336     1158.273    832.63028    79.677489 
   76300    136.44071   -106.75566   0.12345442   -106.63221    3308.8183     4.304207     4.304207     4.304207    3308.8183    7301.9926    4353.8124   -1729.3502   -4544.6102    2358.7031    1591.0591    79.740589 
   76400    190.63414   -106.80316   0.17248977   -106.63067   -206.66012    4.3040562    4.3040562    4.3040562   -206.66012    3852.0084   -3946.1108   -525.87789    20.258741      651.683    1396.7664    79.732207 
   76500     263.0256   -106.86755   0.23799109   -106.62956   -5221.9915    4.3039102    4.3039102    4.3039102   -5221.9915   -3287.2176   -6579.2919    -5799.465    57.204489    -753.6239   -2635.5768    79.724097 
   76600    210.21032   -106.82026   0.19020272   -106.63006   -1503.2623    4.3048136    4.3048136    4.3048136   -1503.2623    8550.5991    -6780.689   -6279.6972   -80.799172   -1273.1248   -436.42473    79.774311 
   76700    150.71262   -106.76779   0.13636795   -106.63142    3052.8509    4.3025896    4.3025896    4.3025896    3052.8509    3623.2796    6327.6978   -792.42461    -3824.667    2765.2328   -612.93763     79.65073 
   76800     200.0824   -106.81253   0.18103876   -106.63149   -1485.9818    4.3052538    4.3052538    4.3052538   -1485.9818    2086.0028   -1387.2443   -5156.7039   -305.30078    832.25739    3646.2821    79.798783 
   76900    178.51409   -106.79234    0.1615233   -106.63081    1179.8091    4.3032185    4.3032185    4.3032185    1179.8091   -663.75229    1183.9017    3019.2778    1207.1541    258.96415   -2570.2158    79.685662 
   77000    299.94197   -106.90101    0.2713938   -106.62962   -7461.7905    4.3045628    4.3045628    4.3045628   -7461.7905   -370.64792   -11920.646   -10094.078    1452.1657   -168.81243    -913.9104    79.760368 
   77100    117.95846   -106.73824   0.10673129   -106.63151    4547.7893    4.3042045    4.3042045    4.3042045    4547.7893    10741.968    4640.1324   -1738.7329   -2290.5008    1001.8758   -1279.2306    79.740452 
   77200    229.63577   -106.83855   0.20777927   -106.63077   -1068.1045    4.3027614    4.3027614    4.3027614   -1068.1045   -4950.9893    1765.1367   -18.461029   -2557.6284    2318.0844    1617.3155    79.660275 
   77300    130.97339   -106.74963   0.11850748   -106.63113    3363.2173    4.3050731    4.3050731    4.3050731    3363.2173    4030.9959      6559.31   -500.65381    433.09022   -10.115404    2086.5945    79.788739 
   77400    281.29483   -106.88456   0.25452147   -106.63004   -3907.5071    4.3031264    4.3031264    4.3031264   -3907.5071   -4373.2717   -7839.2679     490.0184    769.62645   -1505.4466   -1780.5538    79.680548 
   77500    209.23304   -106.82009   0.18931845   -106.63077   -942.94454    4.3047085    4.3047085    4.3047085   -942.94454    5643.3652    548.88645   -9021.0853   -1351.3554   -229.99076   -1785.3023    79.768469 
   77600    153.96711   -106.77031   0.13931267     -106.631    3441.6708    4.3036338    4.3036338    4.3036338    3441.6708    2052.1231    5206.4826    3066.4066   -3156.1758    1559.5979    1098.3575    79.708739 
   77700    224.20637   -106.83279   0.20286663   -106.62993   -471.84946    4.3034434    4.3034434    4.3034434   -471.84946   -5822.8595    7974.8434   -3567.5323    1184.2072   -239.90167    2858.5776    79.698159 
   77800    133.31856   -106.75132   0.12062943   -106.63069     3679.484    4.3044764    4.3044764    4.3044764     3679.484    6168.2635   -1933.2119    6803.4005    1182.5439   -772.17533    269.90284    79.755567 
   77900    323.59776    -106.9237   0.29279806    -106.6309   -6452.1922    4.3032182    4.3032182    4.3032182   -6452.1922   -4442.9278   -5148.5045   -9765.1442    726.80528   -1002.0051   -2269.1642    79.685646 
   78000    121.44263    -106.7422   0.10988384   -106.63232    4235.7236     4.304935     4.304935     4.304935    4235.7236    8150.5442    4921.3848    -364.7581   -2327.2153    2363.8311   -667.64936    79.781059 
   78100    223.96497   -106.83366   0.20264821   -106.63101   -868.97387    4.3029787    4.3029787    4.3029787   -868.97387   -7801.1248    7040.4094   -1846.2062    318.58775   -11.152832    3788.5369    79.672342 
   78200    151.62853   -106.76823   0.13719668   -106.63103    2949.9186    4.3041166    4.3041166    4.3041166    2949.9186    3313.4852    2373.6142    3162.6566   -590.09065    1458.7417    1092.8329    79.735565 
   78300    252.63449     -106.859     0.228589   -106.63041   -4473.8591    4.3044454    4.3044454    4.3044454   -4473.8591   -2000.5148   -9620.6612   -1800.4013    1123.4385   -2047.3453   -1686.2339    79.753843 
   78400    222.85792   -106.83221   0.20164653   -106.63056   -1661.8039    4.3034113    4.3034113    4.3034113   -1661.8039   -402.62593    2315.0655   -6897.8512   -2967.2452    1378.7103   -2093.2078    79.696375 
   78500    148.54679   -106.76537   0.13440826   -106.63097    2069.5251    4.3047921    4.3047921    4.3047921    2069.5251    630.11065    5124.6026    453.86207   -1105.7593    371.75824      2292.65    79.773112 
   78600    204.33465   -106.81529   0.18488628    -106.6304   -861.82733    4.3032769    4.3032769    4.3032769   -861.82733   -7187.3185    6592.4867   -1990.6502    51.118448   -79.955324    732.54624     79.68891 
   78700     176.8838   -106.79047   0.16004818   -106.63042    201.79483    4.3045787    4.3045787    4.3045787    201.79483    4940.6748   -6209.8553    1874.5651    1246.5037   -1217.4426    490.99186    79.761252 
   78800    277.32774   -106.88093   0.25093196      -106.63   -6179.2467    4.3040335    4.3040335    4.3040335   -6179.2467   -4885.2558   -2679.5024   -10972.982   -747.59289    -708.2897   -4497.3223    79.730947 
   78900    157.40655    -106.7729   0.14242476   -106.63047    1584.0027    4.3038159    4.3038159    4.3038159    1584.0027    309.29529    5889.9151   -1447.2022   -1343.6757    1960.6822    1863.5254    79.718854 
   79000    158.96165   -106.77457   0.14383184   -106.63074    1880.2458    4.3041106    4.3041106    4.3041106    1880.2458   -3491.5731    10850.997    -1718.687    1753.5517   -1595.2725    2468.2535    79.735233 
   79100    247.78162   -106.85531   0.22419802   -106.63111   -3597.5846    4.3038893    4.3038893    4.3038893   -3597.5846   -4455.7504   -6999.8824    662.87888    1270.1625     178.0731    1341.7201    79.722937 
   79200    156.34647   -106.77312   0.14146557   -106.63165    1845.7507    4.3042982    4.3042982    4.3042982    1845.7507    5562.0882    3852.6828    -3877.519   -520.00036   -1946.7842   -3021.2391     79.74566 
   79300    299.40918   -106.90111   0.27091171    -106.6302   -6058.5104    4.3037361    4.3037361    4.3037361   -6058.5104   -7306.5375    -253.7369   -10615.257   -883.37516    1708.2873   -995.11007    79.714423 
   79400    69.599311   -106.69469  0.062974919   -106.63171    7472.6477    4.3036276    4.3036276    4.3036276    7472.6477    5158.9184    18454.261   -1195.2365   -1079.8943   -713.48838    2780.9001    79.708391 
   79500    285.32788   -106.88866   0.25817066   -106.63049   -5007.2019    4.3041023    4.3041023    4.3041023   -5007.2019   -8958.9302   -6883.0641     820.3886     464.0132    251.05914    2194.7957    79.734773 
   79600    149.78083   -106.76695   0.13552484   -106.63143    3151.5496    4.3038654    4.3038654    4.3038654    3151.5496    5640.9408    3726.2746    87.433463    92.753735   -2538.7744   -2786.0553    79.721606 
   79700    248.85998   -106.85582   0.22517374   -106.63064   -3220.2382    4.3041535    4.3041535    4.3041535   -3220.2382   -3019.4508    630.24723   -7271.5111   -2268.1574    -93.60523   -1945.0081     79.73762 
   79800    169.46684   -106.78384   0.15333716    -106.6305    2708.3198    4.3037612    4.3037612    4.3037612    2708.3198   -1922.5855    16207.773   -6160.2279   -291.11636    439.01261    1596.2258    79.715815 
   79900    188.09316   -106.80079   0.17019065    -106.6306    326.25912    4.3037759    4.3037759    4.3037759    326.25912    1798.4935   -842.07551    22.359345    1452.6786   -640.26956    2523.6736    79.716634 
   80000    245.37641   -106.85236   0.22202173   -106.63034   -3076.2175    4.3043389    4.3043389    4.3043389   -3076.2175   -5812.0003   -3444.0782    27.425897    1325.3706   -981.16554     151.8705    79.747922 
   80100    142.75792   -106.75964   0.12917036   -106.63047    3929.1145    4.3036392    4.3036392    4.3036392    3929.1145    10417.665    3830.8868   -2461.2083    -1763.216   -1947.6445   -3661.2941    79.709036 
   80200    235.59089    -106.8436   0.21316758   -106.63044   -2963.6129     4.303845     4.303845     4.303845   -2963.6129   -9573.9824    10669.917   -9986.7732   -577.41477    1900.4392     1240.388    79.720474 
   80300    172.59879   -106.78746   0.15617101   -106.63129    2016.6008    4.3042947    4.3042947    4.3042947    2016.6008    6494.7943    2181.9458   -2626.9379    1414.8478    -1384.684    1342.7364    79.745462 
   80400    243.49929    -106.8516   0.22032327   -106.63128   -2811.7003    4.3032071    4.3032071    4.3032071   -2811.7003   -3984.8705   -3642.9288   -807.30165   -769.79342    727.29262    1907.4559    79.685029 
   80500    172.76601   -106.78743   0.15632231   -106.63111    610.39885    4.3047589    4.3047589    4.3047589    610.39885    3097.0928    -914.8574    -351.0389    -515.5076   -2758.1956   -3152.8041    79.771271 
   80600    165.61953    -106.7802   0.14985603   -106.63034    3290.4329    4.3033155    4.3033155    4.3033155    3290.4329    324.86597    13033.665    -3487.232   -3077.2122    285.02052   -1572.8437     79.69105 
   80700     243.2821   -106.85023   0.22012675    -106.6301   -3613.4853    4.3041607    4.3041607    4.3041607   -3613.4853   -2342.3782    1862.6142   -10360.692    155.96656   -315.85856    831.24363    79.738018 
   80800    183.68102   -106.79673   0.16619845   -106.63053    817.18762    4.3046788    4.3046788    4.3046788    817.18762    3319.2949    -2045.187     1177.455    447.77003    203.99892     2716.888    79.766817 
   80900    260.54862   -106.86559   0.23574987   -106.62984   -2932.9249    4.3029461    4.3029461    4.3029461   -2932.9249    -3983.726   -2826.6455    -1988.403    529.21335    -1089.027   -2048.5456     79.67053 
   81000    88.530113   -106.71114  0.080103906   -106.63104    5819.7585      4.30459      4.30459      4.30459    5819.7585    7149.4461    9103.7759    1206.0533   -1906.5129   -1780.5798   -2787.9584    79.761882 
   81100    242.41599   -106.84956   0.21934308   -106.63022   -1152.7737    4.3029628    4.3029628    4.3029628   -1152.7737   -4277.5956    8502.7529   -7683.4784   -211.56594    520.08262    53.444188    79.671462 
   81200    246.79207   -106.85382   0.22330265   -106.63052   -4050.6097    4.3049011    4.3049011    4.3049011   -4050.6097   -91.934213    -5401.306   -6658.5889     1251.775     745.6466    1926.5144    79.779176 
   81300    187.36924   -106.80103   0.16953562    -106.6315    493.33344    4.3040026    4.3040026    4.3040026    493.33344    3012.0383    294.45113   -1826.4891     743.7648   -489.94835     893.2907     79.72923 
   81400    229.93138   -106.83897   0.20804674   -106.63092   -644.62017    4.3031053    4.3031053    4.3031053   -644.62017   -4920.9379    4179.7883   -1192.7109   -2993.7767   -2015.3629   -3890.3452    79.679377 
   81500    81.013958   -106.70551  0.073303131   -106.63221    5772.4398    4.3047365    4.3047365    4.3047365    5772.4398    7949.3392    11856.335   -2488.3552    -1693.537   -299.39215   -2010.5161    79.770026 
   81600    294.72963   -106.89752   0.26667756   -106.63084    -5084.102    4.3025297    4.3025297    4.3025297    -5084.102   -7549.4808   -1645.0244   -6057.8009    358.59434   -1077.8755    1633.1185    79.647404 
   81700    200.71317   -106.81241    0.1816095   -106.63081   -1990.9844    4.3057853    4.3057853    4.3057853   -1990.9844     5415.365   -5567.5562   -5820.7619    559.00553    909.82072    1846.8572    79.828342 
   81800    218.06156   -106.82789   0.19730668   -106.63058   -1602.8506    4.3030104    4.3030104    4.3030104   -1602.8506   -2970.2909    624.30521   -2462.5661   -514.90503   -2745.7924   -1894.3341    79.674102 
   81900    128.10897   -106.74668   0.11591569   -106.63076    4506.4223    4.3039276    4.3039276    4.3039276    4506.4223    1291.5013    11655.099    572.66656   -1711.0721   -485.57602   -1255.2881    79.725063 
   82000    193.06052   -106.80474   0.17468521   -106.63005   -1461.5698    4.3047708    4.3047708    4.3047708   -1461.5698    497.23265    1018.2173   -5900.1593    863.26826   -837.11632   -2157.3158     79.77193 
   82100    274.79987   -106.87796   0.24864469   -106.62931   -5062.1452    4.3030351    4.3030351    4.3030351   -5062.1452   -4888.6342   -4837.6908   -5460.1105    823.30748    660.62132    4403.9944    79.675477 
   82200    186.69193   -106.79948   0.16892278   -106.63055   -703.61866    4.3056554    4.3056554    4.3056554   -703.61866    6772.3096    -6589.426   -2293.7395    1493.1786   -6.3904894   -946.61533    79.821118 
   82300    198.76248   -106.81064   0.17984447   -106.63079    333.31011    4.3023516    4.3023516    4.3023516    333.31011   -7114.8366    9264.1009    -1149.334   -2078.1822    -1274.781   -1695.1015    79.637516 
   82400     109.9561   -106.73076  0.099490593   -106.63127    5086.7285     4.304631     4.304631     4.304631    5086.7285    10404.272    5018.5908    -162.6772   -1494.8362   -1106.7627   -3219.1551    79.764159 
   82500    260.12284   -106.86572   0.23536461   -106.63036   -4757.6626    4.3039547    4.3039547    4.3039547   -4757.6626   -8185.3188   -1753.0651   -4334.6041   -160.39684    914.02225    1746.8195    79.726569 
   82600    254.83084   -106.86094    0.2305763   -106.63037   -3903.4022    4.3036266    4.3036266    4.3036266   -3903.4022     4589.771     -9765.56   -6534.4176    1222.6652    -130.0458    1216.5043    79.708338 
   82700     151.6886   -106.76945   0.13725104    -106.6322     2852.819    4.3044698    4.3044698    4.3044698     2852.819   -1137.1703    2878.9149    6816.7122   -2107.1488   -876.03476   -853.68106    79.755198 
   82800    195.11512   -106.80844   0.17654426   -106.63189    1188.4965    4.3024805    4.3024805    4.3024805    1188.4965    61.191271    8241.7088   -4737.4105    -1193.256   -1189.5531   -4529.7901    79.644671 
   82900    121.77297   -106.74141   0.11018275   -106.63123    4526.7969    4.3051941    4.3051941    4.3051941    4526.7969    2874.6829     5195.479    5510.2288   -322.18771    38.713749    1800.7542    79.795466 
   83000    336.19016   -106.93332   0.30419192   -106.62913   -7778.5581    4.3033235    4.3033235    4.3033235   -7778.5581   -4935.2448   -9178.5071   -9221.9224    2566.1707    939.26056    251.04403      79.6915 
   83100    145.00612   -106.76159   0.13120458   -106.63038    2816.8777    4.3045064    4.3045064    4.3045064    2816.8777    6099.4327   -2735.0055    5086.2058   -674.01629   -1110.2018    1735.9003    79.757231 
   83200    226.19327   -106.83477   0.20466443   -106.63011   -844.68883     4.303793     4.303793     4.303793   -844.68883   -4827.2174    3666.2816   -1373.1307   -26.481828    220.20815   -3159.3292    79.717582 
   83300    119.49945    -106.7393   0.10812561   -106.63118    5311.6576    4.3029037    4.3029037    4.3029037    5311.6576    3382.1474    9588.6914    2964.1339    23.510697   -600.84772   -1690.4002    79.668178 
   83400    242.90495   -106.85021    0.2197855   -106.63042   -3830.8588    4.3051244    4.3051244    4.3051244   -3830.8588   -3329.6056   -4191.1658   -3971.8048    871.50425    1210.1782    1227.2817    79.791587 
   83500    269.47095   -106.87389   0.24382298   -106.63007   -3599.0178    4.3031664    4.3031664    4.3031664   -3599.0178    328.90008   -8210.2819   -2915.6714    1053.3308   -712.44513    1991.9458    79.682772 
   83600    128.61129   -106.74753    0.1163702   -106.63115     3297.605    4.3046324    4.3046324    4.3046324     3297.605    4469.8171   -319.30843    5742.3064   -1864.0143   -578.90372   -1757.0266    79.764234 
   83700    222.81336   -106.83191   0.20160621    -106.6303   -1135.3537    4.3035686    4.3035686    4.3035686   -1135.3537   -7122.3857    8062.7336   -4346.4089   -2253.5521   -1777.8483    -2659.117    79.705113 
   83800    139.03985   -106.75701   0.12580618   -106.63121    3331.6241    4.3036388    4.3036388    4.3036388    3331.6241    3837.8571     5618.787    538.22822    800.95501    1555.8605   -531.93517    79.709016 
   83900    273.09529   -106.87849   0.24710236   -106.63139   -6507.2256    4.3042942    4.3042942    4.3042942   -6507.2256   -5370.6518   -8792.7631   -5358.2618    1446.3618   -834.33449    2821.8912    79.745436 
   84000    221.86802   -106.83241   0.20075085   -106.63166    -1419.809    4.3038265    4.3038265    4.3038265    -1419.809    2074.3073   -6557.0454    223.31115   -437.16698    -957.1927    579.22488    79.719444 
   84100    139.07682    -106.7579   0.12583963   -106.63207    2507.9455    4.3039909    4.3039909    4.3039909    2507.9455    431.17062    4101.6956    2990.9702    -547.2669   -1142.0379   -3855.3281    79.728578 
   84200    205.46765    -106.8169   0.18591145   -106.63099   -1096.7364    4.3037935    4.3037935    4.3037935   -1096.7364   -5862.7057    6896.6255   -4324.1291    436.74692     1609.671    755.84583    79.717614 
   84300    193.67838   -106.80541   0.17524426   -106.63017    178.78147    4.3041846    4.3041846    4.3041846    178.78147    5050.6365   -480.69665   -4033.5955    2991.2192   -540.27181    683.81318    79.739348 
   84400      236.229   -106.84381   0.21374496   -106.63007    -4068.929    4.3039495    4.3039495    4.3039495    -4068.929   -5578.9926   -10393.075    3765.2807    -666.1282    585.21572    3097.2199    79.726279 
   84500    193.70684   -106.80573   0.17527002   -106.63046    612.79259    4.3042213    4.3042213    4.3042213    612.79259    5090.1355   -2234.1145   -1017.6432   -687.78206   -1489.9213   -3018.8989    79.741384 
   84600    163.49269   -106.77863   0.14793163    -106.6307    2406.5128    4.3033459    4.3033459    4.3033459    2406.5128   -6361.1497    7323.3112     6257.377   -1190.3021    1535.1618    50.537414    79.692742 
   84700    216.77725   -106.82628   0.19614461   -106.63013   -1663.6045    4.3044972    4.3044972    4.3044972   -1663.6045    2124.9359    2659.1353   -9774.8847    894.57243   -45.006553    -240.6039    79.756723 
   84800    185.94465   -106.79784   0.16824663    -106.6296    2167.8212    4.3037773    4.3037773    4.3037773    2167.8212    125.55965   -4023.1007    10401.005    412.44222   -487.68276    4024.0559    79.716713 
   84900    256.06178   -106.86086   0.23169008   -106.62917   -4083.8682    4.3039924    4.3039924    4.3039924   -4083.8682   -211.83579   -10227.797   -1811.9715   -707.56645   -914.63856   -2292.6012    79.728662 
   85000    125.85851   -106.74449   0.11387943   -106.63061    4989.6899    4.3039921    4.3039921    4.3039921    4989.6899    1121.9071    4104.6526    9742.5101   -1006.6597   -814.18964   -1455.1728    79.728645 
   85100    271.95248   -106.87655   0.24606832   -106.63048   -3356.5587    4.3032069    4.3032069    4.3032069   -3356.5587   -7307.7494    4082.6073   -6844.5339    950.20327    1508.5961   -791.20893    79.685018 
   85200    121.24762   -106.74156    0.1097074   -106.63185    4040.5692    4.3047163    4.3047163    4.3047163    4040.5692    6007.2499    1077.8876      5036.57    2080.5087   -1372.5461    4030.3728    79.768902 
   85300    256.71639    -106.8626   0.23228239   -106.63032   -1922.4024    4.3031481    4.3031481    4.3031481   -1922.4024   -5195.7199   -9402.8149    8831.3277    1126.6628   -923.30011    971.10785    79.681754 
   85400    176.39913   -106.79004   0.15960964   -106.63043    845.52768    4.3043172    4.3043172    4.3043172    845.52768    6852.3957   -6512.2348    2196.4222   -1360.6593   -1411.7688   -2506.2304    79.746713 
   85500     251.7524   -106.85794   0.22779086   -106.63015   -3387.5978    4.3041424    4.3041424    4.3041424   -3387.5978   -6992.9825    861.29471   -4031.1057   -405.92279     2488.946   -1129.5234    79.737002 
   85600    153.51544   -106.77034     0.138904   -106.63143    3680.9982    4.3026461    4.3026461    4.3026461    3680.9982    1414.6082    284.42128    9343.9651    1235.8149   -1508.9033    3751.7531    79.653871 
   85700    186.22803   -106.80037   0.16850304   -106.63187   -783.63764    4.3051948    4.3051948    4.3051948   -783.63764    596.06311   -3665.9289    718.95291      1269.95   -1708.5678    1259.1047    79.795504 
   85800    208.77082   -106.82011   0.18890022   -106.63121   -20.019978    4.3023032    4.3023032    4.3023032   -20.019978   -3076.7114   -9431.3989     12448.05    -665.5333   -1763.9875   -362.32309    79.634825 
   85900    232.23197   -106.84056   0.21012837   -106.63043   -3625.6262    4.3056106    4.3056106    4.3056106   -3625.6262    3848.6158   -5531.3279   -9194.1666   -831.76716     1648.332   -953.50031    79.818629 
   86000    224.15276   -106.83284   0.20281813   -106.63002   -2094.6534    4.3035412    4.3035412    4.3035412   -2094.6534   -9241.1355   -3239.8948      6197.07    265.44385   -1460.0215   -201.33632     79.70359 
   86100    116.82239   -106.73592   0.10570336   -106.63022    5338.7251    4.3034541    4.3034541    4.3034541    5338.7251    10066.706    529.53806    5419.9316    3186.0963   -1071.0831    5173.2703    79.698754 
   86200    206.47945   -106.81655   0.18682695   -106.62972   -1879.2693    4.3049398    4.3049398    4.3049398   -1879.2693   -6512.1708   -4111.1172    4985.4802    1155.0055   -3325.1156   -209.23283    79.781325 
   86300    214.84152   -106.82434   0.19439312   -106.62995    -1516.162    4.3027278    4.3027278    4.3027278    -1516.162    5439.5872   -7529.3925   -2458.6808    720.06328    995.86556   -334.62058    79.658409 
   86400     255.4573   -106.86139   0.23114313   -106.63025   -4820.7899    4.3055968    4.3055968    4.3055968   -4820.7899    -5634.311   -6129.8105   -2698.2483   -385.45082    754.97846   -1692.6752    79.817858 
   86500    164.73124   -106.77965   0.14905229   -106.63059    1838.7312    4.3028706    4.3028706    4.3028706    1838.7312   -371.99229   -3616.7514    9504.9371    289.92402   -1538.0883    2220.7361    79.666339 
   86600    131.11217   -106.74916   0.11863305   -106.63053    3880.4657    4.3039288    4.3039288    4.3039288    3880.4657    6867.9358    1998.2725    2775.1889    2806.8755   -2022.9841    2180.9671    79.725128 
   86700    275.60985   -106.87977   0.24937759    -106.6304   -5386.9269    4.3044504    4.3044504    4.3044504   -5386.9269   -3552.3966     -8131.23   -4477.1539   -489.09305   -1166.2771   -238.35271    79.754119 
   86800    170.79621   -106.78572      0.15454   -106.63118    509.72556    4.3032005    4.3032005    4.3032005    509.72556    6395.4139   -3298.4417   -1567.7955   -605.02076    2157.3947   -3797.6612    79.684663 
   86900     285.8161   -106.88893   0.25861241   -106.63032   -6225.5244    4.3054288    4.3054288    4.3054288   -6225.5244   -8361.5544   -11202.648    887.62902    -1786.189   -1564.6172    2241.5026    79.808517 
   87000    97.725743   -106.71973  0.088424306   -106.63131    6736.3032    4.3021896    4.3021896    4.3021896    6736.3032    10146.025    2735.7632    7327.1216    3074.3067   -2250.0096    813.77125     79.62852 
   87100    190.29505    -106.8026   0.17218296   -106.63042    -424.1903    4.3051155    4.3051155    4.3051155    -424.1903    2453.6707   -3667.5872   -58.654364    1456.8322   -2309.2099    2043.2197    79.791097 
   87200    270.60674   -106.87453   0.24485066   -106.62968   -3558.1307    4.3034683    4.3034683    4.3034683   -3558.1307   -898.86016   -3209.1148    -6566.417    1522.5305     2279.683   -2712.5129    79.699543 
   87300    160.73842   -106.77651    0.1454395   -106.63107    1453.7057    4.3036208    4.3036208    4.3036208    1453.7057    6786.8678   -6928.7731    4503.0224   -1926.1987   -1149.6601   -2018.5626    79.708017 
   87400    255.40165   -106.86165   0.23109278   -106.63056   -3700.0883    4.3048203    4.3048203    4.3048203   -3700.0883    -4034.416    -7327.826    261.97723     2203.263   -1031.6108    1644.2365    79.774679 
   87500    98.717391   -106.72082   0.08932157    -106.6315    7406.5276    4.3020642    4.3020642    4.3020642    7406.5276    14140.955    3995.1021    4083.5254    1939.4457   -2361.1952    471.32126    79.621555 
   87600    258.42659   -106.86422   0.23382981    -106.6304   -5227.4741    4.3057219    4.3057219    4.3057219   -5227.4741   -4973.6512     -4531.41   -6177.3609    1372.6784    1459.8783   -4.3707311    79.824816 
   87700    215.75748   -106.82489   0.19522191   -106.62967    548.22632     4.302878     4.302878     4.302878    548.22632    956.74147    109.95515    577.98235   -2476.8654    847.57562   -3046.5236    79.666749 
   87800     188.5857   -106.80068    0.1706363   -106.63005   -6.2260973    4.3044534    4.3044534    4.3044534   -6.2260973    7314.8832   -11733.432    4399.8701   -258.02859   -2837.7667   -195.39001    79.754286 
   87900    186.58054   -106.79937   0.16882199   -106.63055    1010.5774    4.3038983    4.3038983    4.3038983    1010.5774   -731.73507    1366.0186    2397.4487    904.95335   -2586.9116    1591.0018    79.723436 
   88000    171.31076   -106.78567   0.15500558   -106.63066    2881.4135    4.3029213    4.3029213    4.3029213    2881.4135    10457.214   -752.43795   -1060.5351    1482.1856   -662.23514      1944.31    79.669153 
   88100    270.23988   -106.87444   0.24451873   -106.62992   -5900.2102    4.3052324    4.3052324    4.3052324   -5900.2102   -10987.272   -181.30407   -6532.0542   -725.76955    1064.2149   -2679.7873    79.797594 
   88200     162.6744   -106.77769   0.14719122    -106.6305    3309.2095    4.3026939    4.3026939    4.3026939    3309.2095    10070.829   -6222.4241    6079.2235   -1276.2749    -2042.601   -629.52608    79.656523 
   88300    210.68833   -106.82123   0.19063522   -106.63059   -1260.4027    4.3045667    4.3045667    4.3045667   -1260.4027    422.48856   -5758.0959    1554.3991    2010.2748   -2622.9983    607.12341    79.760586 
   88400    169.74347   -106.78488   0.15358745   -106.63129     1232.296    4.3036725    4.3036725    4.3036725     1232.296    2885.4206    875.45143    -63.98397     1705.236    -1400.567    2304.1782    79.710887 
   88500    215.59916   -106.82574   0.19507865   -106.63067    -607.3559    4.3037671    4.3037671    4.3037671    -607.3559    1591.8156    1255.3455   -4669.2289    812.03746    1801.1264    -802.4736    79.716143 
   88600    253.61267   -106.85969   0.22947407   -106.63021   -5115.7023     4.304914     4.304914     4.304914   -5115.7023   -6787.3994   -4821.4743   -3738.2331     -3211.41   -287.75805   -3083.3321    79.779891 
   88700    117.09008   -106.73696   0.10594557   -106.63102    5057.5177    4.3027495    4.3027495    4.3027495    5057.5177    14295.552   -7810.7245    8687.7259    601.05676   -3622.3735   -115.23822    79.659613 
   88800    240.07526   -106.84794   0.21722514   -106.63072   -3694.9994    4.3048713    4.3048713    4.3048713   -3694.9994   -6021.3572   -3365.7337   -1697.9072    620.76819   -1480.5559    2293.2103    79.777516 
   88900    176.18927   -106.79019   0.15941975   -106.63077    288.78739    4.3034191    4.3034191    4.3034191    288.78739    4552.6521   -1263.2624   -2423.0275    1219.8112   -399.62592    186.61001    79.696809 
   89000    226.39173   -106.83519   0.20484399   -106.63035   -1900.4794    4.3040278    4.3040278    4.3040278   -1900.4794   -1723.3983    2572.8475   -6550.8874   -3098.4825    784.45841   -1367.4091    79.730633 
   89100    207.85576   -106.81869   0.18807226   -106.63062   -1889.1312    4.3043817    4.3043817    4.3043817   -1889.1312    2683.3304   -11637.963    3287.2389    40.711972   -3824.4822    -1706.611      79.7503 
   89200    134.65844   -106.75271   0.12184178   -106.63087    3508.7052     4.303073     4.303073     4.303073    3508.7052    8596.6511   -1110.2346    3039.6992    326.87078   -1797.4261   -2.2380855    79.677582 
   89300    265.91648   -106.87036   0.24060682   -106.62975   -5212.9508    4.3051382    4.3051382    4.3051382   -5212.9508   -9174.0805   -7266.8116    802.03987    2684.0328   -715.73122    2644.6045    79.792354 
   89400    168.20335   -106.78244   0.15219393   -106.63024    1352.8362    4.3030808    4.3030808    4.3030808    1352.8362    6343.1337    3822.3054   -6106.9306   -2196.7201    1812.3523    -1817.004    79.678014 
   89500     237.6106   -106.84498   0.21499507   -106.62998   -2760.8825    4.3047006    4.3047006    4.3047006   -2760.8825   -3540.7561   -6497.7724    1755.8811   -377.87883   -1667.1364   -1619.0569    79.768029 
   89600    150.23927   -106.76653   0.13593965   -106.63059     3389.525    4.3033117    4.3033117    4.3033117     3389.525    8849.3864   -5635.9284     6955.117   -645.30793    -2835.507   -1304.9498    79.690844 
   89700    202.01892   -106.81315   0.18279097   -106.63036   -331.29912    4.3038372    4.3038372    4.3038372   -331.29912   -777.30423   -3403.6966    3187.1034    839.05611   -61.550008    1476.3915    79.720042 
   89800    265.80909   -106.86994   0.24050965   -106.62943   -4159.3211    4.3044893    4.3044893    4.3044893   -4159.3211   -3253.2922   -4216.7155   -5007.9556   -136.88566     490.8879    1104.1509     79.75628 
   89900    152.45098   -106.76881   0.13794085   -106.63087    3509.1653    4.3032473    4.3032473    4.3032473    3509.1653    7143.9579    3340.3742    43.163666   -2833.0758    142.23206   -2377.9999    79.687261 
   90000    234.73384   -106.84291   0.21239211   -106.63052   -2003.3206    4.3043457    4.3043457    4.3043457   -2003.3206   -973.66244   -10010.774    4974.4746   -780.81035   -4580.7208   -1752.7273    79.748298 
   90100    117.17592   -106.73657   0.10602323   -106.63054    6142.4781    4.3034515    4.3034515    4.3034515    6142.4781    9777.1213    109.76104    8540.5518   -43.110036   -755.38646    1203.8042    79.698611 
   90200    281.65831   -106.88423   0.25485036   -106.62938   -4722.8139    4.3042027    4.3042027    4.3042027   -4722.8139   -5004.9822   -8237.5344   -925.92494    1054.5837   -908.28891    1234.7739    79.740351 
   90300    206.11101   -106.81646   0.18649357   -106.62997   -257.29654    4.3041054    4.3041054    4.3041054   -257.29654    4219.1496    2189.8592   -7180.8984   -921.85831    2759.9923    42.604459    79.734945 
   90400    158.72653   -106.77433    0.1436191   -106.63071    3397.9868    4.3034963    4.3034963    4.3034963    3397.9868    7123.7933   -5362.8339    8433.0011   -1355.3715    -4124.837    -2941.239    79.701099 
   90500    214.86165   -106.82516   0.19441133   -106.63075   -994.82344    4.3038965    4.3038965    4.3038965   -994.82344   -107.33263    -6211.669    3334.5313    299.72127   -901.75862   -635.93128    79.723335 
   90600    146.46629   -106.76325   0.13252578   -106.63073    3494.8458    4.3038808    4.3038808    4.3038808    3494.8458    7691.1891   -3147.0292    5940.3774     939.3219   -922.80739    1861.5158    79.722465 
   90700    331.77084   -106.92986   0.30019323   -106.62967   -7958.2624    4.3041251    4.3041251    4.3041251   -7958.2624   -5686.4527   -6575.1215   -11613.213   -480.21282    2209.0238     370.0936    79.736037 
   90800    105.23585   -106.72675  0.095219606   -106.63153    5240.2479    4.3038189    4.3038189    4.3038189    5240.2479    12460.342    2185.7334    1074.6685   -2107.5732   -2624.4039   -447.82736    79.719022 
   90900    216.37038    -106.8263   0.19577647   -106.63052   -301.83982    4.3036093    4.3036093    4.3036093   -301.83982    945.73819   -8320.0547    6468.7971   -1481.0459   -3416.4498   -2478.9961    79.707375 
   91000    164.42941   -106.77943   0.14877918   -106.63065    1233.7015    4.3042378    4.3042378    4.3042378    1233.7015    -1362.801   -1640.8453    6704.7509    675.35653   -1033.4642    688.70692    79.742301 
   91100    225.68888   -106.83432   0.20420804   -106.63011   -2106.6209    4.3038574    4.3038574    4.3038574   -2106.6209    6092.4622   -7950.1154   -4462.2096   -79.281841    933.18912    1621.2535     79.72116 
   91200    269.96847   -106.87471   0.24427314   -106.63044   -4641.9814    4.3039993    4.3039993    4.3039993   -4641.9814   -4789.1436    -700.8493   -8435.9513   -281.22155   -205.78079    635.19771     79.72905 
   91300    91.409568   -106.71449  0.082709298   -106.63178    5616.6573    4.3038488    4.3038488    4.3038488    5616.6573    13203.296   -4284.6191    7931.2947   -636.38792   -4510.7016   -3062.2804    79.720685 
   91400    235.11969   -106.84324   0.21274124   -106.63049   -1881.2813    4.3036133    4.3036133    4.3036133   -1881.2813    -9513.612    -6632.246    10502.014    613.33087    902.46799   -487.99282    79.707598 
   91500    173.04675    -106.7874   0.15657634   -106.63082    617.66228    4.3042835    4.3042835    4.3042835    617.66228    7476.5993   -5388.6816   -234.93084    746.82917   -677.37722       -192.9    79.744841 
   91600    279.47458    -106.8834   0.25287447   -106.63053   -5943.8622    4.3042286    4.3042286    4.3042286   -5943.8622   -2712.6865   -8982.4821   -6136.4181    315.95658    2108.6591     2612.726     79.74179 
   91700    173.14728   -106.78765    0.1566673   -106.63099    1599.8575    4.3034826    4.3034826    4.3034826    1599.8575    2456.1473   -1507.5882    3851.0136   -1881.0547   -3533.2046   -2460.2745    79.700336 
   91800    144.46977   -106.76186   0.13071929   -106.63114    2837.1045    4.3041266    4.3041266    4.3041266    2837.1045    2690.0635   -9085.3639    14906.614   -396.66308   -347.29644   -2103.1512    79.736123 
   91900    218.42091   -106.82799   0.19763183   -106.63036   -717.19521     4.303346     4.303346     4.303346   -717.19521   -5485.3955   -3089.2521     6423.062    -454.9819   -437.45042   -1122.1015    79.692749 
   92000    222.42024   -106.83119   0.20125051   -106.62994   -2368.2905    4.3048612    4.3048612    4.3048612   -2368.2905    7948.4894    -11359.08   -3694.2809    174.47624    1489.6501    1120.6634    79.776954 
   92100    250.11743   -106.85661   0.22631151   -106.63029   -3283.7876    4.3037913    4.3037913    4.3037913   -3283.7876   -5623.0884   -7606.3138    3378.0394   -846.25377   -3032.5821    493.97045    79.717487 
   92200    105.48047   -106.72656  0.095440944   -106.63112    5821.3187    4.3033231    4.3033231    4.3033231    5821.3187    5585.9711   -5925.6952     17803.68   -423.50569    98.669361   -3289.2734    79.691477 
   92300    228.08439   -106.83672   0.20637555   -106.63035   -2487.0444    4.3046325    4.3046325    4.3046325   -2487.0444   -6347.7584   -7465.3107    6351.9358    117.07471   -1001.1474   -2336.0727    79.764242 
   92400    209.02703   -106.81978   0.18913205   -106.63065   -631.48436    4.3030728    4.3030728    4.3030728   -631.48436    3174.9883   -1757.9512   -3311.4901     463.0045    1766.9654   -1488.3772    79.677569 
   92500    230.11429   -106.83905   0.20821225   -106.63084   -3038.6546     4.304892     4.304892     4.304892   -3038.6546    514.36712    -11241.38    1611.0491    1224.3602   -413.85176     2944.739    79.778667 
   92600    170.14606   -106.78489   0.15395173   -106.63094    1867.3794    4.3033508    4.3033508    4.3033508    1867.3794   -1005.1783   -7267.5138     13874.83    -605.2897   -1812.2153   -2588.2315    79.693012 
   92700    180.60122   -106.79384   0.16341178   -106.63043    548.21493    4.3038746    4.3038746    4.3038746    548.21493    4111.5892   -7596.3926    5129.4481   -202.33121    1139.7836   -1540.3467    79.722117 
   92800    236.99989   -106.84453   0.21444248   -106.63008     -3461.95    4.3046282    4.3046282    4.3046282     -3461.95   -3931.7065   -725.55663   -5728.5868   -233.83618    402.07264   -3395.4883    79.764002 
   92900    193.11675    -106.8052    0.1747361   -106.63047    483.62673    4.3028326    4.3028326    4.3028326    483.62673    4936.8677   -1572.1683   -1913.8192    889.69144   -601.93859    3047.2116    79.664227 
   93000    190.13452   -106.80313   0.17203771   -106.63109   -660.82568    4.3051526    4.3051526    4.3051526   -660.82568   -1705.7935   -8354.3416     8077.658    -1001.364   -1895.7464    1302.9093    79.793158 
   93100    184.80603    -106.7981   0.16721638   -106.63088     1189.504    4.3031342    4.3031342    4.3031342     1189.504    1208.5323   -6595.2273    8955.2069    93.620863     633.7617   -2242.8792     79.68098 
   93200     224.3515   -106.83373   0.20299795   -106.63074   -1886.8788    4.3040966    4.3040966    4.3040966   -1886.8788    3495.1694   -4077.7911   -5078.0146   -782.57817   -1140.3435   -2635.2498    79.734457 
   93300    228.60105   -106.83773   0.20684303   -106.63088    -2306.332    4.3043805    4.3043805    4.3043805    -2306.332   -3897.5272    2581.6808   -5603.1498    1275.5814    1400.4435    684.59108    79.750236 
   93400    131.82341   -106.75104   0.11927659   -106.63176    5140.7852    4.3025849    4.3025849    4.3025849    5140.7852    7521.1521   -3437.5986    11338.802    332.03715   -2924.7838    2760.8898     79.65047 
   93500    221.10408   -106.83109   0.20005962   -106.63103   -1866.6355    4.3051424    4.3051424    4.3051424   -1866.6355   -6183.9251   -5592.7323    6176.7511    644.00542    1951.3207   -132.01282     79.79259 
   93600    207.09198   -106.81745   0.18738118   -106.63006    168.51317    4.3031686    4.3031686    4.3031686    168.51317    6048.0894   -9029.1193    3486.5695   -659.36348    -724.8335   -1876.4235     79.68289 
   93700    244.11183    -106.8505   0.22087752   -106.62962   -2699.7819    4.3046307    4.3046307    4.3046307   -2699.7819   -732.79225    248.46991   -7615.0234     779.6668    1758.3147    -1580.768    79.764143 
   93800    174.20423    -106.7875   0.15762365   -106.62987    1990.7994    4.3040784    4.3040784    4.3040784    1990.7994   -601.88515   -3176.7794    9751.0627    146.46794   -1501.5553    4344.7533    79.733446 
   93900     127.6872   -106.74586   0.11553406   -106.63033    5743.8002      4.30249      4.30249      4.30249    5743.8002     7699.275   -1666.3506    11198.476   -131.18909   -288.86726    1205.9368      79.6452 
   94000    270.45753   -106.87476   0.24471566   -106.63004   -5601.4565    4.3055467    4.3055467    4.3055467   -5601.4565   -8736.2577   -10420.487     2352.375   -535.06557   -173.84128    546.22828    79.815073 
   94100    196.60806   -106.80853    0.1778951   -106.63063     383.4543     4.302657     4.302657     4.302657     383.4543    12252.782   -7794.7841   -3307.6349   -602.55472    1405.1522   -2675.3483    79.654478 
   94200    262.41039   -106.86812   0.23743443   -106.63068    -4589.744    4.3049817    4.3049817    4.3049817    -4589.744   -10024.567   -6953.8151    3209.1506    590.85367     -1747.39    488.36032    79.783657 
   94300    76.351284   -106.70108  0.069084246   -106.63199      7181.73    4.3034441    4.3034441    4.3034441      7181.73    9442.2884   -3993.3599    16096.261    840.95071    67.664598    3483.0533    79.698198 
   94400    220.58011   -106.83056   0.19958552   -106.63098   -1151.6401    4.3031336    4.3031336    4.3031336   -1151.6401   -3646.5259   -1919.4575    2111.0631    284.17532    747.88036     1677.919    79.680945 
   94500    244.94987    -106.8523   0.22163579   -106.63066   -4581.9411    4.3051873    4.3051873    4.3051873   -4581.9411    2295.7016   -9233.6099   -6807.9148   -850.40033     1531.771   -1281.6699    79.795089 
   94600    183.65875   -106.79733    0.1661783   -106.63116    358.67133    4.3027589    4.3027589    4.3027589    358.67133    5343.7635   -7940.0035     3672.254    843.35989    243.81877   -1684.2353    79.660136 
   94700    237.55446   -106.84547   0.21494427   -106.63053   -3534.2524    4.3051477    4.3051477    4.3051477   -3534.2524    -6212.317   -11217.887    6827.4464   -85.341201    -237.6849    2037.3548    79.792887 
   94800    109.66481    -106.7305  0.099227025   -106.63128     4948.671    4.3032194    4.3032194    4.3032194     4948.671    10824.011   -242.31399    4264.3159     8.583632    3141.8619    3090.7441    79.685711 
   94900    253.88477   -106.86001   0.22972028   -106.63029   -3553.0654    4.3037393    4.3037393    4.3037393   -3553.0654   -4261.9618   -575.63984   -5821.5945   -2389.1079   -226.59954    1673.6892      79.7146 
   95000     180.4818   -106.79396   0.16330373   -106.63065   -71.039846    4.3049366    4.3049366    4.3049366   -71.039846    10758.627   -4728.9923   -6242.7545     411.3628    901.11083   -3688.1641    79.781148 
   95100    208.13536   -106.81893   0.18832525   -106.63061   -293.10489    4.3026242    4.3026242    4.3026242   -293.10489   -1584.7355   -8609.0935    9314.5143   -648.05873   -2423.3452    42.877373    79.652651 
   95200    227.59521   -106.83631   0.20593293   -106.63037   -2560.0906    4.3053253    4.3053253    4.3053253   -2560.0906     2549.478   -10686.649    456.89889     1671.267    2486.4198    532.56931    79.802762 
   95300    148.88062   -106.76584   0.13471031   -106.63113    3352.1655     4.302745     4.302745     4.302745    3352.1655    8449.4741      121.636    1485.3866   -2151.0978    -18.26175    2920.4236     79.65936 
   95400    257.00813   -106.86333   0.23254636   -106.63078   -3660.2764    4.3042974    4.3042974    4.3042974   -3660.2764   -1216.0425   -591.68923   -9173.0975   -721.73395    1091.5551   -1278.0168    79.745616 
   95500    142.22707   -106.75997   0.12869004   -106.63128    3736.9566    4.3038847    4.3038847    4.3038847    3736.9566    6303.3547   -2758.1364    7665.6517   -669.02248   -2189.4092   -3107.0341    79.722682 
   95600    221.01098   -106.83078   0.19997538   -106.63081   -691.01807    4.3030522    4.3030522    4.3030522   -691.01807    4464.5252   -9459.1186    2921.5392    2246.4371    3277.8739    146.71487    79.676428 
   95700    237.86783    -106.8458   0.21522781   -106.63057   -3260.0979    4.3053013    4.3053013    4.3053013   -3260.0979   -1019.4987   -10138.268    1377.4728   -1770.3035    996.28813    2401.3141    79.801428 
   95800    159.24569   -106.77512   0.14408885   -106.63103    3347.1529     4.302418     4.302418     4.302418    3347.1529     13823.68    2012.9378   -5795.1587   -795.72094    16.959897    1405.7964    79.641201 
   95900    256.48775   -106.86252   0.23207551   -106.63045   -4444.2359    4.3053257    4.3053257    4.3053257   -4444.2359   -10903.014   -2162.3206   -267.37269   -984.49441   -1235.5297   -2470.9644    79.802785 
   96000    92.112107   -106.71464   0.08334497   -106.63129    7231.3708    4.3027203    4.3027203    4.3027203    7231.3708    13392.912    557.32237    7743.8783    1565.3154    1020.5294   -3190.4894    79.657992 
   96100    270.98109   -106.87546   0.24518939   -106.63028   -4360.0854    4.3040559    4.3040559    4.3040559   -4360.0854   -3131.1401   -12808.138    2859.0224    504.49117    1464.6781   -282.77757    79.732192 
   96200    211.94212   -106.82255   0.19176968   -106.63078   -1837.1823    4.3043475    4.3043475    4.3043475   -1837.1823     7777.511   -6587.6465   -6701.4112   -698.45097    799.13503      2332.69    79.748402 
   96300    195.98639   -106.80895    0.1773326   -106.63162    568.58177    4.3030852    4.3030852    4.3030852    568.58177    1975.1414   -2955.1268    2685.7307   -692.96232   -519.12052    -1833.276    79.678258 
   96400    215.54863   -106.82594   0.19503293   -106.63091   -2189.2181    4.3050201    4.3050201    4.3050201   -2189.2181   -3721.5212    -1364.581   -1481.5522    1401.8358    1048.1016   -2450.1802    79.785788 
   96500    85.435039   -106.70824  0.077303419   -106.63094    7031.4491    4.3025159    4.3025159    4.3025159    7031.4491    12043.008   -980.56514    10031.905    2318.2051    5558.9108   -2772.7737    79.646639 
   96600    303.14396   -106.90369   0.27429102    -106.6294   -7147.7177    4.3050451    4.3050451    4.3050451   -7147.7177   -3757.7423   -12174.115   -5511.2962   -135.64193   -600.11311    1101.4351    79.787181 
   96700    177.38662   -106.79071   0.16050314    -106.6302   -118.98063    4.3037865    4.3037865    4.3037865   -118.98063    7920.2754    -6837.863   -1439.3543   -1341.5751     2217.506    1583.6987    79.717224 
   96800    261.22391    -106.8664   0.23636089   -106.63004   -4443.9552    4.3040957    4.3040957    4.3040957   -4443.9552   -4474.4249   -9326.3939    468.95335   -383.38772   -1569.9162   -1316.8469    79.734404 
   96900    126.36907   -106.74551   0.11434139   -106.63117    3733.1701    4.3039918    4.3039918    4.3039918    3733.1701    5802.1516   -147.73067    5545.0894    1392.0921    4703.9446   -2769.9207    79.728633 
   97000    160.81836   -106.77626   0.14551184   -106.63074    1808.9332    4.3030501    4.3030501    4.3030501    1808.9332    5564.9071   -2734.8933    2596.7857    1852.9075    307.03092   -1561.4436    79.676311 
   97100     289.7636   -106.89217    0.2621842   -106.62998   -6446.2765    4.3049521    4.3049521    4.3049521   -6446.2765   -5295.1503   -7582.4953   -6461.1838   -474.04032   -587.16227     284.9716    79.782008 
   97200    158.50219   -106.77426   0.14341612   -106.63084    1902.0238     4.303194     4.303194     4.303194    1902.0238    5973.6927   -7602.1605    7334.5392   -1419.8863   -205.50361    1569.8031    79.684304 
   97300    259.81462    -106.8655   0.23508572   -106.63042    -4008.251    4.3046027    4.3046027    4.3046027    -4008.251   -1347.1798   -10864.849    187.27583    1094.9708    2963.3877   -1886.3904    79.762585 
   97400    112.74283   -106.73341   0.10201208    -106.6314    6017.3084    4.3029972    4.3029972    4.3029972    6017.3084     8650.687    1540.3199    7860.9181    3048.5397    2727.4013   -3031.7067    79.673369 
   97500    229.21266   -106.83867   0.20739643   -106.63127   -1927.8177    4.3041205    4.3041205    4.3041205   -1927.8177   -1458.5614    -276.2341   -4048.6575    1686.1262   -466.96423    573.51699    79.735783 
   97600     202.9146   -106.81471    0.1836014    -106.6311    -196.5364    4.3039716    4.3039716    4.3039716    -196.5364   -4821.1692   -2451.1036    6682.6636   -1502.5636    339.22379    1841.6092    79.727507 
   97700    211.82462   -106.82221   0.19166337   -106.63054   -417.39023    4.3034526    4.3034526    4.3034526   -417.39023     7399.393   -10796.156    2144.5918   -1105.7619    1519.8718     433.6771    79.698668 
   97800    193.82248   -106.80576   0.17537465   -106.63039     170.7148    4.3044725    4.3044725    4.3044725     170.7148   -3293.3113   -7454.7808    11260.236    1004.4415    2749.6038   -1966.6123    79.755348 
   97900     206.2887    -106.8166   0.18665435   -106.62995    146.81728    4.3030984    4.3030984    4.3030984    146.81728    7424.7899   -882.96845   -6101.3696    2236.0972   -2230.3135   -1732.9275     79.67899 
   98000    187.25951   -106.80007   0.16943634   -106.63064    493.18919    4.3045878    4.3045878    4.3045878    493.18919   -10093.327     1398.609    10174.285   -474.76676    293.18039    2740.0673     79.76176 
   98100    187.58562   -106.80076   0.16973141   -106.63103    690.30429    4.3030853    4.3030853    4.3030853    690.30429    5410.2053   -4057.8625    718.57006   -2301.2071    888.48871    844.54771    79.678267 
   98200    202.36812   -106.81371   0.18310693    -106.6306   -663.95716    4.3043435    4.3043435    4.3043435   -663.95716    2861.7281   -11093.787     6240.187   -240.94721    1964.1434    -744.8945    79.748178 
   98300    239.24388   -106.84606   0.21647289   -106.62959   -3224.9942    4.3043835    4.3043835    4.3043835   -3224.9942   -250.18441   -8566.7648   -858.03353    2784.7789     191.4731   -1335.2364    79.750401 
   98400    178.65403   -106.79179   0.16164992   -106.63014    1170.5586    4.3032207    4.3032207    4.3032207    1170.5586    2786.4833   -1987.8427    2713.0352    900.58546   -668.03351    393.73572    79.685786 
   98500    204.00555    -106.8142   0.18458851   -106.62962   -598.78409     4.304863     4.304863     4.304863   -598.78409   -7082.2201    1750.6634    3535.2045   -704.09947    3267.8147    1808.1162    79.777053 
   98600    133.62565   -106.75126   0.12090729   -106.63035    3809.3391    4.3027531    4.3027531    4.3027531    3809.3391    15219.741   -4346.7409    555.01735   -3047.6259    1578.2441    631.10945     79.65981 
   98700    254.38513   -106.86023   0.23017301   -106.63006   -4245.9601    4.3048073    4.3048073    4.3048073   -4245.9601   -3859.4894   -8661.0591   -217.33179    890.66334     1534.578   -1381.1846    79.773958 
   98800    226.86233   -106.83503    0.2052698   -106.62976   -2603.3158    4.3039497    4.3039497    4.3039497   -2603.3158    1879.3341   -10262.942    573.66078    1618.8683   -1774.8089   -215.54717    79.726293 
   98900    177.79474   -106.79143   0.16087242   -106.63055    984.18774    4.3033691    4.3033691    4.3033691    984.18774    1037.2124    871.36444    1043.9864   -1216.5377    2650.1332    1460.5432    79.694029 
   99000     195.8531   -106.80776     0.177212   -106.63055    52.223417    4.3046149    4.3046149    4.3046149    52.223417    3843.5337   -2839.6765   -847.18689   -3213.4814    78.397776    692.13095    79.763266 
   99100    121.64242   -106.74052   0.11006462   -106.63045    4499.4821    4.3027502    4.3027502    4.3027502    4499.4821    12572.075    1505.2195    -578.8481   -2056.8527    1578.4865    1582.6794    79.659652 
   99200      306.702   -106.90699   0.27751041   -106.62948   -7396.4844    4.3052279    4.3052279    4.3052279   -7396.4844   -9797.3663   -10050.185    -2341.902    1414.2569   -1834.5204   -3145.8692    79.797347 
   99300     187.9787   -106.80049   0.17008708    -106.6304    474.24814    4.3032292    4.3032292    4.3032292    474.24814    6962.3875   -8020.8572    2481.2142    1883.6939    1743.8441    2038.9175     79.68626 
   99400    178.15819   -106.79167   0.16120128   -106.63046    812.84493    4.3040916    4.3040916    4.3040916    812.84493    3613.4569   -672.39483   -502.52724   -2372.8032    3133.0065    78.245547    79.734177 
   99500    199.19281   -106.81053   0.18023384   -106.63029    242.27161    4.3038421    4.3038421    4.3038421    242.27161    5725.4775   -943.72193   -4054.9408   -2500.9765    20.410389     1287.118     79.72031 
   99600    153.07822   -106.76943   0.13850839   -106.63092    2659.7517    4.3029981    4.3029981    4.3029981    2659.7517    3206.6021    4984.6232   -211.97021    429.22299    1495.7867    -1488.537     79.67342 
   99700    293.55266   -106.89568   0.26561261   -106.63007   -6689.7051    4.3052645    4.3052645    4.3052645   -6689.7051   -5536.5186   -12462.453   -2070.1439    1785.5493   -636.34912   -1295.2379     79.79938 
   99800    155.01896   -106.77097   0.14026442    -106.6307     2887.997    4.3027727    4.3027727    4.3027727     2887.997    13665.948   -4880.1254   -121.83216   -586.90415    3657.6186    1075.7008      79.6609 
   99900    211.82436   -106.82186   0.19166314    -106.6302   -1485.9514     4.304738     4.304738     4.304738   -1485.9514   -602.05834   -3098.2904   -757.50564   -3585.2133   -777.82812    1240.9772    79.770108 
  100000    171.97545   -106.78568     0.155607   -106.63007    1802.1371    4.3035546    4.3035546    4.3035546    1802.1371    2517.3339    7066.7423   -4177.6648   -1495.9227    16.348193   -1422.5969    79.704337 
Loop time of 22.2465 on 1 procs for 100000 steps with 8 atoms

Pair  time (%) = 7.12049 (32.0072)
Kspce time (%) = 5.3299 (23.9584)
Neigh time (%) = 0 (0)
Comm  time (%) = 1.07867 (4.84874)
Outpt time (%) = 0.0247185 (0.111112)
Other time (%) = 8.69272 (39.0746)

Nlocal:    8 ave 8 max 8 min
Histogram: 1 0 0 0 0 0 0 0 0 0
Nghost:    2189 ave 2189 max 2189 min
Histogram: 1 0 0 0 0 0 0 0 0 0
Neighs:    2344 ave 2344 max 2344 min
Histogram: 1 0 0 0 0 0 0 0 0 0

Total # of neighbors = 2344
Ave neighs/atom = 293
Neighbor list builds = 0
Dangerous builds = 0
unfix 20
unfix 21
print "seeds:1188939"
seeds:1188939
