LAMMPS (10 Feb 2015)
# ---- initialize simulations
clear
units metal
dimension 3
boundary p p p
atom_style charge
atom_modify map array
# ---- create atoms
read_data /Users/eugeneragasa/pyflamestk_git/pypospack/tests/tests_integration/workflow/WorkflowLammpsThermalExpansion/param_9837/MgO_NaCl_unit.npt.T1900/lammps.structure
  triclinic box = (0 0 0) to (4.2565 4.2565 4.2565) with tilt (0 0 0)
  1 by 1 by 1 MPI processor grid
  reading atoms ...
  8 atoms
# ---- define interatomic potential
include potential.mod
mass 1 24.305
mass 2 15.999

group Mg type 1
4 atoms in group Mg
group O type 2
4 atoms in group O

set group Mg charge 1.66768155913
  4 settings made for charge
set group O charge -1.66768155913
  4 settings made for charge

variable R_cut equal 10.0

pair_style buck/coul/long ${R_cut}
pair_style buck/coul/long 10
pair_coeff 1 1 0.0 0.5 0.0 ${R_cut}
pair_coeff 1 1 0.0 0.5 0.0 10
pair_coeff 1 2 1248.0823356 0.293822485762 0.0 ${R_cut}
pair_coeff 1 2 1248.0823356 0.293822485762 0.0 10
pair_coeff 2 2 31778.9957117 0.212502502632 34.6036277069 ${R_cut}
pair_coeff 2 2 31778.9957117 0.212502502632 34.6036277069 10

kspace_style pppm 1.0e-5

neighbor 1.0 bin
neigh_modify every 1 delay 0 check yes
# ---- define settings
compute eng all pe/atom
compute eatoms all reduce sum c_eng
# ---- run minimization
reset_timestep 0
fix 1 all box/relax iso 0.0 vmax 0.001
thermo 10
thermo_style custom step pe lx ly lz xy xz yz press pxx pyy pzz pxy pxz pyz c_eatoms
min_style cg
minimize 1e-25 1e-25 5000 10000
PPPM initialization ...
  G vector (1/distance) = 0.352908
  grid = 8 8 8
  stencil order = 5
  estimated absolute RMS force accuracy = 3.98663e-05
  estimated relative force accuracy = 2.76856e-06
  using double precision FFTs
  3d grid and FFT values/proc = 3375 512
Neighbor list info ...
  1 neighbor list requests
  update every 1 steps, delay 0 steps, check yes
  master list distance cutoff = 11
Memory usage per processor = 4.06549 Mbytes
Step PotEng Lx Ly Lz Xy Xz Yz Press Pxx Pyy Pzz Pxy Pxz Pyz eatoms 
       0   -110.76064       4.2565       4.2565       4.2565            0            0            0    174504.14    174504.14    174504.14    174504.14 9.3704156e-11 -1.8744789e-10 -4.5445427e-11   -110.76064 
      10   -110.96575     4.299065     4.299065     4.299065            0            0            0    110293.78    110293.78    110293.78    110293.78 1.4024136e-10 -8.8674493e-11 1.1163093e-10   -110.96575 
      20   -111.08678      4.34163      4.34163      4.34163            0            0            0    53874.038    53874.038    53874.038    53874.038 -1.7149362e-10 -3.6153785e-12 -2.8025662e-10   -111.08678 
      30   -111.12967     4.384195     4.384195     4.384195            0            0            0    4480.0037    4480.0037    4480.0037    4480.0037 2.9824961e-11 1.1991676e-10 2.4884808e-10   -111.12967 
      35   -111.13002    4.3883439    4.3883439    4.3883439            0            0            0  -0.29149971   -0.2914997  -0.29149971  -0.29149971 -2.2034763e-11 5.2889443e-11 3.1711826e-11   -111.13002 
Loop time of 0.0164359 on 1 procs for 35 steps with 8 atoms

Minimization stats:
  Stopping criterion = linesearch alpha is zero
  Energy initial, next-to-last, final = 
        -110.760644492     -111.130018171     -111.130018171
  Force two-norm initial, final = 25.1985 4.50194e-05
  Force max component initial, final = 25.1985 4.47407e-05
  Final line search alpha, max atom move = 0.5 2.23704e-05
  Iterations, force evaluations = 35 47

Pair  time (%) = 0.00432134 (26.2921)
Kspce time (%) = 0.0026505 (16.1263)
Neigh time (%) = 0 (0)
Comm  time (%) = 0.000536919 (3.26675)
Outpt time (%) = 3.8147e-05 (0.232096)
Other time (%) = 0.00888896 (54.0827)

Nlocal:    8 ave 8 max 8 min
Histogram: 1 0 0 0 0 0 0 0 0 0
Nghost:    2189 ave 2189 max 2189 min
Histogram: 1 0 0 0 0 0 0 0 0 0
Neighs:    2344 ave 2344 max 2344 min
Histogram: 1 0 0 0 0 0 0 0 0 0

Total # of neighbors = 2344
Ave neighs/atom = 293
Neighbor list builds = 0
Dangerous builds = 0
unfix 1
# ---- define output variables ----
variable natoms equal "count(all)"
variable tot_energy equal "c_eatoms"
variable length_x equal "lx"
variable length_y equal "ly"
variable length_z equal "lz"
variable tilt_xy equal "xy"
variable tilt_xz equal "xz"
variable tilt_yz equal "yz"
variable tot_press equal "press"
variable press_xx equal "pxx"
variable press_yy equal "pyy"
variable press_zz equal "pzz"
variable press_xy equal "pxy"
variable press_xz equal "pxz"
variable press_yz equal "pyz"

# ---- output ----
print "pypospack:output_section:begin"
pypospack:output_section:begin
print "tot_energy = ${tot_energy}"
tot_energy = -111.130018170686
print "num_atoms = ${natoms}"
num_atoms = 8
print "xx = ${length_x}"
xx = 4.38834393192064
print "yy = ${length_y}"
yy = 4.38834393192064
print "zz = ${length_z}"
zz = 4.38834393192064
print "xy = ${tilt_xy}"
xy = 0
print "xz = ${tilt_xz}"
xz = 0
print "yz = ${tilt_yz}"
yz = 0
print "tot_press = ${tot_press}"
tot_press = -0.291499705167032
print "pxx = ${press_xx}"
pxx = -0.291499704907524
print "pyy = ${press_yy}"
pyy = -0.291499705134451
print "pzz = ${press_zz}"
pzz = -0.291499705459123
print "pxy = ${press_xy}"
pxy = -2.20347627600699e-11
print "pxz = ${press_xz}"
pxz = 5.28894429779567e-11
print "pyz = ${press_yz}"
pyz = 3.17118260401048e-11
print "pypospack:output_section:done"
pypospack:output_section:done
print "pypospack:lammps_sim:done"
pypospack:lammps_sim:done
#------------------------------------------------------------------------------
# RUN THERMOSTAT
# running using an NPT Nose-Hoover style thermostat
#------------------------------------------------------------------------------
variable tempdamp equal 0.1
variable pressdamp equal 1.0
# set initial velocities
velocity all create 1900 7408153 mom yes dist gaussian loop all
# fix for Nose-Hoover style thermostat
fix 20 all npt temp 1900 1900 0.1 aniso 0.0 0.0 1.0 drag 1.0 couple xyz
variable boxx equal lx
variable boxy equal ly
variable boxz equal lz
variable boxp equal press
variable boxt equal temp
# calculate averages every 10000 steps
reset_timestep 0
fix 21 all ave/time 10 10 100 v_boxx v_boxy v_boxz v_boxp v_boxt file lattice.out
thermo_style custom step temp pe ke etotal press lx ly lz press pxx pyy pzz pxy pxz pyz vol
thermo_modify flush yes
thermo 100
run 100000
PPPM initialization ...
  G vector (1/distance) = 0.351569
  grid = 8 8 8
  stencil order = 5
  estimated absolute RMS force accuracy = 4.24255e-05
  estimated relative force accuracy = 2.94629e-06
  using double precision FFTs
  3d grid and FFT values/proc = 3375 512
Memory usage per processor = 3.06549 Mbytes
Step Temp PotEng KinEng TotEng Press Lx Ly Lz Press Pxx Pyy Pzz Pxy Pxz Pyz Volume 
       0         1900   -111.12999    1.7191599   -109.41083    21732.507    4.3883439    4.3883439    4.3883439    21732.507    9575.9544    31187.546    24434.021   -5890.8715   -575.12559    6543.6407    84.508807 
     100    602.88172   -109.77105   0.54550005   -109.22555    25809.815    4.4327725    4.4327725    4.4327725    25809.815    6288.2119    27284.328    43856.904   -2930.8239    3239.5754   -9384.2395    87.101641 
     200    1467.8702   -110.08234    1.3281598   -108.75418   -55115.793    4.4959491    4.4959491    4.4959491   -55115.793   -58182.389    -43804.71    -63360.28   -3829.7416    3923.3291    4005.4645    90.879131 
     300    1816.7317   -109.95471     1.643817    -108.3109   -29866.305    4.5114887    4.5114887    4.5114887   -29866.305   -34393.657   -35787.228   -19418.028   -2071.1755    4587.0088    3095.8282    91.824724 
     400      2144.71   -109.89853    1.9405787   -107.95795   -13919.552    4.4901296    4.4901296    4.4901296   -13919.552   -17529.309    6665.6717   -30895.019    2560.2699    6183.2602    26381.829    90.526686 
     500    1580.9208   -109.18613    1.4304504   -107.75568    44286.772     4.488333     4.488333     4.488333    44286.772    -49898.33    83133.369    99625.278    6050.0419    9006.8898    350.46189    90.418064 
     600    2612.8313   -110.03811    2.3641447   -107.67396   -64783.101    4.5278026    4.5278026    4.5278026   -64783.101   -42263.709   -78154.181   -73931.414    3394.7817    10311.312   -20657.752    92.824463 
     700    1666.4553   -109.08005    1.5078437   -107.57221   -8857.0547     4.538202     4.538202     4.538202   -8857.0547    -85664.75    29650.107    29443.479   -9001.8255    1996.4519    23659.331    93.465529 
     800    1397.6525   -108.78467    1.2646253   -107.52005    27269.939      4.51396      4.51396      4.51396    27269.939    66639.868   -1839.6309    17009.581    9350.5712   -36607.778   -9108.2495    91.975704 
     900    2778.9728   -110.06602     2.514473   -107.55154   -28249.017    4.4897494    4.4897494    4.4897494   -28249.017    4506.3395   -54088.651   -35164.738   -10018.835    5224.6707    16458.251    90.503691 
    1000    2183.8295   -109.60522    1.9759748   -107.62924   -16038.971    4.4890821    4.4890821    4.4890821   -16038.971    -1491.833   -31679.592   -14945.487    5871.7868   -7806.8541   -14296.441    90.463344 
    1100    1151.9814   -108.71841     1.042337   -107.67607    16744.367    4.5055109    4.5055109    4.5055109    16744.367    72255.471   -37218.251     15195.88   -34334.648    837.67922    -3943.283    91.460196 
    1200    2560.8531   -109.97203    2.3171137   -107.65491   -58171.057    4.5245291    4.5245291    4.5245291   -58171.057   -26216.031   -92764.171    -55532.97    17082.413    6388.5266    12739.271    92.623281 
    1300    1385.0875   -108.87849    1.2532562   -107.62524   -31640.253    4.5279916    4.5279916    4.5279916   -31640.253    29415.883   -46597.191   -77739.452   -23138.187    21170.586   -32318.145    92.836091 
    1400    2319.2014   -109.68287    2.0984622   -107.58441    -27106.13    4.4979954    4.4979954    4.4979954    -27106.13   -27930.152   -34763.491   -18624.747    7759.8188     20329.03    22599.303    91.003273 
    1500    2412.3844   -109.76961    2.1827761   -107.58684    6174.3274    4.4738134    4.4738134    4.4738134    6174.3274     53693.03   -12867.176   -22302.871   -16440.627   -6865.0581   -25180.298    89.543405 
    1600    1223.2962   -108.77836    1.1068641   -107.67149    13195.719    4.4970855    4.4970855    4.4970855    13195.719    111518.56   -71964.416    33.012255   -586.90509    5696.2032    24257.745    90.948059 
    1700    2178.6276   -109.60904     1.971268   -107.63777   -55328.436    4.5148974    4.5148974    4.5148974   -55328.436   -61367.946   -53942.041   -50675.322    8057.4665    -10095.31   -4117.6961    92.033017 
    1800    1406.5026   -108.87853    1.2726331    -107.6059    35022.292    4.4872574    4.4872574    4.4872574    35022.292    71687.938    -9348.951    42727.888    1489.1405    2908.4639    6470.2614    90.353076 
    1900    1958.3308   -109.40428    1.7719388   -107.63234   -17511.104    4.4729403    4.4729403    4.4729403   -17511.104   -21776.249   -39764.245    9007.1807   -37034.537    5641.0903    24968.699    89.490989 
    2000    2050.1729   -109.52405    1.8550395   -107.66901     -1249.04    4.4840398    4.4840398    4.4840398     -1249.04   -29772.685    14147.712    11877.853     35400.26   -25255.162   -31681.487     90.15885 
    2100    1638.9884   -109.13783    1.4829911   -107.65484   -1484.0227    4.5143711    4.5143711    4.5143711   -1484.0227   -6149.1032   -28937.191    30634.226   -5319.5217   -181.17327    5279.1637    92.000833 
    2200    1896.1678   -109.29365    1.7156925   -107.57795   -21111.882      4.52432      4.52432      4.52432   -21111.882   -7360.7809   -52670.639   -3304.2264    222.83616    -3299.559    12129.716    92.610438 
    2300    1956.5825   -109.31522     1.770357   -107.54487    3282.0989    4.4975891    4.4975891    4.4975891    3282.0989   -14634.357    26760.644   -2279.9901    13874.738    -7294.701   -3516.3695    90.978618 
    2400    1644.3692   -109.06012    1.4878598   -107.57226    57269.411     4.479863     4.479863     4.479863    57269.411    101081.57    24843.624    45883.043   -15718.247    1434.2266   -9755.5938    89.907145 
    2500    2229.3082   -109.65785    2.0171249   -107.64072   -21219.833     4.502331     4.502331     4.502331   -21219.833   -18600.071    24739.861   -69799.289    9799.7659    10334.258   -1821.4013     91.26668 
    2600    1757.9289   -109.22348     1.590611   -107.63287   -15717.993    4.5180661    4.5180661    4.5180661   -15717.993    11766.956    -17505.04   -41415.895   -8735.1684   -13937.799    26347.781    92.226925 
    2700    2075.4152    -109.4647    1.8778793   -107.58682    5331.0083    4.5040275    4.5040275    4.5040275    5331.0083    1354.0797    41959.873   -27320.928    -10532.42   -5814.4687    -3319.574    91.369891 
    2800    2154.9713   -109.55484    1.9498633   -107.60497    6194.5285    4.4839357    4.4839357    4.4839357    6194.5285    20768.415   -18105.152    15920.322    4491.1452   -1394.7137     22503.85    90.152573 
    2900    2130.0658   -109.55519    1.9273283   -107.62787    48884.124    4.4642703    4.4642703    4.4642703    48884.124    25747.924    38354.997     82549.45    8716.6487    -14035.65   -16645.189    88.971611 
    3000    1727.1019   -109.26327    1.5627181   -107.70056    36728.359    4.4873281    4.4873281    4.4873281    36728.359    10620.773    38466.229    61098.074   -2946.5455    12207.078   -6075.0586    90.357347 
    3100    2463.4702   -109.87202    2.2289997   -107.64302   -41940.024     4.525879     4.525879     4.525879   -41940.024   -52769.811   -22604.981    -50445.28    16743.248   -2672.2081    18227.824    92.706205 
    3200    1500.5301   -108.93061    1.3577111    -107.5729    -4605.636    4.5085972    4.5085972    4.5085972    -4605.636   -59600.807   -16843.244    62627.143    11901.363   -4568.9711   -26852.322    91.648279 
    3300    2693.7613   -109.98183    2.4373719   -107.54446    6154.9209    4.4754099    4.4754099    4.4754099    6154.9209   -44234.118    85980.159   -23281.278   -7432.7861    3460.6079    19925.336    89.639298 
    3400    1682.8291   -109.14509    1.5226591   -107.62244    21491.804    4.4751014    4.4751014    4.4751014    21491.804   -13487.392    26379.221    51583.584    14800.966   -12324.833     9110.306    89.620763 
    3500    2216.3765   -109.66233     2.005424    -107.6569    15998.287    4.4911486    4.4911486    4.4911486    15998.287   -2776.1327     65198.81   -14427.815   -2990.8419    1672.9574   -26204.008    90.588334 
    3600    1500.0319   -109.00663    1.3572604   -107.64937    16612.588    4.5120665    4.5120665    4.5120665    16612.588   -15387.087    79416.908   -14192.059   -2339.5583    530.06344     15961.74    91.860005 
    3700    2198.3246   -109.59327    1.9890903   -107.60418   -32687.703    4.5137331    4.5137331    4.5137331   -32687.703   -72855.792   -13944.893   -11262.426      3040.15   -4269.9375    8068.7182    91.961832 
    3800    2782.3581   -110.09249    2.5175361   -107.57495   -4296.1434    4.4912595    4.4912595    4.4912595   -4296.1434   -16358.818    48735.223   -45264.835    8103.8519    5549.5247   -379.64629    90.595045 
    3900    1604.3852   -109.06939    1.4516814   -107.61771    21602.407    4.4762932    4.4762932    4.4762932    21602.407   -35603.441    133656.16   -33245.497   -6316.3653   -8066.7266   -7648.2335    89.692384 
    4000    1755.1844    -109.2641    1.5881278   -107.67598    11073.612    4.4914913    4.4914913    4.4914913    11073.612    6535.3024    66474.196   -39788.661    20957.433   -686.26177    2621.8199     90.60907 
    4100    1885.8416   -109.34304    1.7063491   -107.63669    20094.889    4.5067553    4.5067553    4.5067553    20094.889    48528.409    43431.413   -31675.155    1132.3676   -12267.738    20954.632    91.536003 
    4200    1331.8099   -108.81737    1.2050496   -107.61232    14315.903    4.5040439    4.5040439    4.5040439    14315.903    9109.9441    57283.945   -23446.181   -13170.753    3131.2954   -9451.0295    91.370891 
    4300    1955.8789   -109.36479    1.7697203   -107.59507   -4415.5058    4.5044017    4.5044017    4.5044017   -4415.5058   -28935.402    46927.433   -31238.549    24001.756    19780.221     11178.91    91.392665 
    4400    2040.3583   -109.43193    1.8461591   -107.58577    -16223.23    4.5054661    4.5054661    4.5054661    -16223.23   -19025.203    18121.971   -47766.458   -2126.5371   -2918.2137    27781.632    91.457466 
    4500     2260.112    -109.6405    2.0449968    -107.5955    -2654.614    4.4933708    4.4933708    4.4933708    -2654.614   -5441.4302    31230.971   -33753.383    28543.357    3406.9723    16886.094    90.722868 
    4600    1691.3799   -109.16748    1.5303961   -107.63708    35276.836    4.5027818    4.5027818    4.5027818    35276.836    11985.773     77079.52    16765.216    25262.365    1130.0177   -5750.5624    91.294101 
    4700    1843.1492   -109.29835    1.6677202   -107.63063   -39106.123    4.5033694    4.5033694    4.5033694   -39106.123    -56870.32   -67004.327    6556.2766     48781.85    2579.7753    10865.055    91.329843 
    4800    1812.1707   -109.25171    1.6396901   -107.61202    37572.827     4.479967     4.479967     4.479967    37572.827   -21784.298    47251.644    87251.133    1138.0507    15558.488    14776.572    89.913407 
    4900     1770.485   -109.23882    1.6019721   -107.63685    35335.153    4.4885365    4.4885365    4.4885365    35335.153    -8443.185    103651.76    10796.884   -3177.7264     22810.99    4424.2305    90.430367 
    5000    1090.6427   -108.63521   0.98683646   -107.64838    12906.394    4.5267165    4.5267165    4.5267165    12906.394   -69382.624     108000.3    101.50195    10155.724     21709.63   -1399.7716    92.757685 
    5100    1857.0486   -109.22889    1.6802966   -107.54859   -21904.639     4.545361     4.545361     4.545361   -21904.639    -39078.64   -23528.087   -3107.1892    2282.2645    11682.219   -937.23308    93.908549 
    5200    1106.1213   -108.53557    1.0008418   -107.53473    6939.9105    4.5026647    4.5026647    4.5026647    6939.9105    13983.311   -20945.487    27781.907    47790.527    4428.6199    11543.227    91.286974 
    5300    2758.3195   -110.00317    2.4957855   -107.50738    7084.5834    4.4538406    4.4538406    4.4538406    7084.5834   -3392.0377    53758.544   -29112.756    -24974.02    5666.0792    -15734.23    88.349481 
    5400    1283.2469   -108.79977    1.1611087   -107.63866    30611.045    4.4807996    4.4807996    4.4807996    30611.045    26756.151    37448.792    27628.192    30487.148   -4914.6283    1766.8477    89.963544 
    5500    1689.4672   -109.16431    1.5286655   -107.63565   -36236.896    4.5210794    4.5210794    4.5210794   -36236.896   -44204.993   -64941.394     435.6976    6339.0346   -5803.8234     4624.851    92.411584 
    5600    2162.9482   -109.52359     1.957081    -107.5665   -48331.585    4.5206101    4.5206101    4.5206101   -48331.585   -42142.149   -60303.088    -42549.52   -16241.984   -13061.625    11876.751    92.382809 
    5700    1894.6679   -109.25498    1.7143353   -107.54064   -30047.098    4.5084596    4.5084596    4.5084596   -30047.098    7285.5367   -65009.361    -32417.47    20404.951   -9567.4555     6349.054    91.639886 
    5800    1951.4796   -109.32178    1.7657397   -107.55604   -22030.149     4.490032     4.490032     4.490032   -22030.149   -19971.715   -35760.652   -10358.081   -30143.432    17587.949   -11766.133    90.520787 
    5900    1963.3394   -109.36808    1.7764707   -107.59161    32363.563    4.4767595    4.4767595    4.4767595    32363.563    81304.046    45257.945   -29471.302    24540.847   -8458.6273   -9735.6331    89.720417 
    6000    2427.8905   -109.83357    2.1968064   -107.63676   -37643.394    4.4985389    4.4985389    4.4985389   -37643.394   -23141.935   -24646.825   -65141.422    16077.217    -5152.424    21555.315    91.036268 
    6100     1416.048   -108.91199      1.28127   -107.63072    24281.264    4.5042919    4.5042919    4.5042919    24281.264    55503.359    63500.948   -46160.514    4489.0098   -10498.591   -14307.449     91.38598 
    6200    2135.1247   -109.55152    1.9319057   -107.61961    6507.4258     4.500437     4.500437     4.500437    6507.4258    20898.156    10978.455   -12354.334    28403.234   -996.66484    9925.9323    91.151552 
    6300    1706.3454   -109.15614    1.5439372    -107.6122    10290.387    4.5090231    4.5090231    4.5090231    10290.387   -7003.8479    6778.7418    31096.268   -17961.908    -20298.99    15101.152    91.674254 
    6400    2422.2974   -109.76731    2.1917456   -107.57556   -27423.449    4.4988635    4.4988635    4.4988635   -27423.449    1562.4128   -66262.044   -17570.716    13060.641    8397.0616     3238.754    91.055973 
    6500    1546.0476   -108.98571    1.3988963   -107.58681     27674.48    4.4926383    4.4926383    4.4926383     27674.48    17644.545    69929.088   -4550.1929   -6746.8587   -19022.091    1611.1298    90.678506 
    6600    1673.7964   -109.11528    1.5144862    -107.6008    1894.5196    4.5095357    4.5095357    4.5095357    1894.5196     24181.63   -29436.867    10938.795    9750.3572   -15997.483   -3627.3934    91.705523 
    6700    1839.0859   -109.24686    1.6640436   -107.58281   -25860.531    4.5134501    4.5134501    4.5134501   -25860.531   -28459.786   -33705.966   -15415.842    34271.725   -8921.7424   -10152.461    91.944538 
    6800    2080.9598   -109.44579    1.8828962    -107.5629   -3990.9919    4.5029292    4.5029292    4.5029292   -3990.9919    53699.244   -35391.181   -30281.039   -10052.837   -14522.661    2780.4815    91.303063 
    6900    1782.1911    -109.2081    1.6125639   -107.59553    6057.6834     4.498801     4.498801     4.498801    6057.6834    61363.983   -56647.147    13456.214    11625.491   -16462.577    6266.3674     91.05218 
    7000    2033.8247   -109.45382    1.8402473   -107.61357   -7961.5012    4.5074158    4.5074158    4.5074158   -7961.5012    23501.293   -33701.264   -13684.533   -14909.148   -33056.763   -6278.5912    91.576253 
    7100    1756.1865   -109.19671    1.5890344   -107.60768    -51620.47    4.5071811    4.5071811    4.5071811    -51620.47   -79735.751   -99611.132    24485.475    23875.837     -1143.01    12166.965    91.561946 
    7200     1043.648   -108.54536    0.9443146   -107.60105    12182.902    4.4746079    4.4746079    4.4746079    12182.902    92533.312   -95735.998    39751.393   -3607.4259    25341.804   -29136.202    89.591117 
    7300    2423.3937   -109.83026    2.1927375   -107.63752   -11669.554    4.4598877    4.4598877    4.4598877   -11669.554    51809.637   -52587.201   -34231.099   -13540.932    -29813.05    21600.858    88.709832 
    7400    1930.2278   -109.43423    1.7465107   -107.68772   -26506.849    4.4763898    4.4763898    4.4763898   -26506.849   -7242.8116   -69324.418   -2953.3178    14774.703    20899.675   -9584.7871     89.69819 
    7500    1671.6768   -109.19966    1.5125683   -107.68709    19529.739    4.4853005    4.4853005    4.4853005    19529.739    52780.423   -9078.3827    14887.177   -10481.963    15323.531     10648.17    90.234919 
    7600    2448.8529   -109.88118    2.2157735    -107.6654   -22484.682    4.5162767    4.5162767    4.5162767   -22484.682      5502.46   -46995.992   -25960.514    13701.669    11588.285   -635.54569     92.11739 
    7700    1282.3182   -108.75346    1.1602685   -107.59319   -34668.968    4.5306185    4.5306185    4.5306185   -34668.968    40083.691   -81168.017   -62922.579   -5571.6299    22283.083   -6257.0853    92.997756 
    7800    2944.7061   -110.19719     2.664432   -107.53276   -28934.116    4.4875835    4.4875835    4.4875835   -28934.116   -18665.094   -37534.895   -30602.358    7482.4557    28674.165   -4907.0309    90.372776 
    7900    2211.6419   -109.54654    2.0011401    -107.5454     24644.21    4.4494647    4.4494647    4.4494647     24644.21    25193.181    46031.854    2707.5946   -20560.328   -8987.1355    7526.6637    88.089329 
    8000    1436.9085   -108.97799     1.300145   -107.67785    20505.257     4.470952     4.470952     4.470952    20505.257    52196.219    10662.229   -1342.6769   -4669.9203    10983.489    24501.133    89.371702 
    8100    1812.4365   -109.34712    1.6399306   -107.70719   -9993.2969    4.5200714    4.5200714    4.5200714   -9993.2969    38767.556   -29805.084   -38942.363   -21629.373   -6454.3181    646.91894    92.349785 
    8200    2100.8804   -109.52679    1.9009207   -107.62587   -81925.286       4.5376       4.5376       4.5376   -81925.286   -73994.758   -105862.93   -65918.174   -27276.391    12960.812   -1071.0389    93.428337 
    8300    1673.2406    -109.0691    1.5139832   -107.55511    -16350.69     4.499165     4.499165     4.499165    -16350.69    53297.288   -62976.226   -39373.131     11213.69    17458.541    16208.948    91.074284 
    8400    1638.4599   -109.02513     1.482513   -107.54261    76902.656     4.454769     4.454769     4.454769    76902.656    119567.86    28435.645    82704.466   -31522.186   -2062.8795    17350.684    88.404743 
    8500    2043.4816   -109.47809    1.8489851    -107.6291    6640.2115    4.4808955    4.4808955    4.4808955    6640.2115     16937.07   -19171.501    22155.066   -1582.5154     4997.836     28471.64    89.969324 
    8600    1756.0687   -109.21747    1.5889279   -107.62854    -19911.72    4.5133329    4.5133329    4.5133329    -19911.72    15094.862   -37379.346   -37450.676     -27232.6   -1600.2134   -22200.881    91.937378 
    8700    2613.1242   -109.95128    2.3644097   -107.58687   -26489.518    4.5084494    4.5084494    4.5084494   -26489.518   -57101.221   -8561.9665   -13805.365     5862.566   -15531.539    2328.6833    91.639265 
    8800    1549.3741   -108.98268    1.4019062   -107.58077   -6263.4027    4.4814292    4.4814292    4.4814292   -6263.4027    52836.428    -71915.19    288.55425   -838.09383   -27.200661   -25107.211    90.001474 
    8900    2241.4884   -109.61276    2.0281458   -107.58461     5281.302    4.4695517    4.4695517    4.4695517     5281.302   -3841.5212   -50479.988    70165.415   -15132.396   -17206.881   -9344.8233    89.287754 
    9000     2560.741   -109.93882    2.3170123   -107.62181   -48457.659     4.497732     4.497732     4.497732   -48457.659   -35805.527   -73678.618   -35888.832   -8671.1361   -17395.077    6572.8131     90.98729 
    9100      1807.83   -109.22973    1.6357626   -107.59397   -13536.342    4.5146692    4.5146692    4.5146692   -13536.342   -42395.667    -88196.41     89983.05   -6110.6962    9927.3401   -11811.728    92.019062 
    9200    2465.8167   -109.79181    2.2311227   -107.56069   -9655.6819    4.4997818    4.4997818    4.4997818   -9655.6819   -35296.398   -9847.8983     16177.25   -7654.9468    34898.378    10394.302    91.111746 
    9300    1134.5343   -108.59288    1.0265505   -107.56633    63702.277    4.4733668    4.4733668    4.4733668    63702.277    -4813.951    26464.216    169456.57   -19336.213    31344.287    15187.531    89.516591 
    9400     2011.825   -109.43196    1.8203415   -107.61162    4408.5987    4.4880458    4.4880458    4.4880458    4408.5987    8043.0534   -57060.797     62243.54    3193.9844    8330.8684   -14186.128    90.400712 
    9500     2356.673   -109.72636    2.1323672   -107.59399   -18751.949    4.5020688    4.5020688    4.5020688   -18751.949    -72577.96   -58217.964    74540.077   -8995.3431     1731.698    9867.3897    91.250737 
    9600    1913.3224   -109.32206    1.7312143   -107.59084   -16826.847    4.4987591    4.4987591    4.4987591   -16826.847    22215.842   -77727.269    5030.8872    17414.121    745.47703   -23720.584    91.049634 
    9700    2067.3744   -109.45906    1.8706038   -107.58845   -8113.3405    4.4993156    4.4993156    4.4993156   -8113.3405    19797.018   -58047.662    13910.622   -5841.0762   -14948.526    -16499.45    91.083429 
    9800    2381.3087   -109.72846    2.1546581    -107.5738   -18722.339    4.4878618    4.4878618    4.4878618   -18722.339   -28078.206     -33792.4    5703.5876    26315.596   -7657.8563   -14307.117    90.389592 
    9900    1577.2377   -109.04325    1.4271178   -107.61613    912.99093    4.4937456    4.4937456    4.4937456    912.99093   -45908.911    -71516.32     120164.2    -9333.863   -1523.5127    11534.402    90.745575 
   10000    1706.7218   -109.16403    1.5442777   -107.61975   -3593.5411    4.4993371    4.4993371    4.4993371   -3593.5411   -57288.362   -91662.678    138170.42    28028.917    -3899.523    2911.0605    91.084732 
   10100     2239.156   -109.65116    2.0260354   -107.62512   -35574.975    4.4825601    4.4825601    4.4825601   -35574.975   -22080.207   -66177.224   -18467.494    6488.0015   -9003.1437      4693.21    90.069627 
   10200    1078.8257   -108.62845   0.97614421   -107.65231    22652.615    4.4566922    4.4566922    4.4566922    22652.615   -9083.0726    11240.591    65800.327     19385.16   -12242.464     7123.039    88.519288 
   10300     2767.265   -110.17023    2.5038795   -107.66635   -6535.3535    4.4606781    4.4606781    4.4606781   -6535.3535   -15331.168   -45289.148    41014.256   -6787.9115    18282.054   -2365.2012    88.757006 
   10400    1518.4787     -109.056    1.3739514   -107.68205    23874.944    4.4868865    4.4868865    4.4868865    23874.944   -25394.145   -39106.512    136125.49   -1231.9897    6838.9665    30365.025    90.330677 
   10500    1984.0584   -109.43933    1.7952178   -107.64411   -45159.037    4.5035902    4.5035902    4.5035902   -45159.037    -35645.51   -57810.829   -42020.772   -166.23713   -1446.8632     -1663.53     91.34328 
   10600    1929.2606   -109.36121    1.7456355   -107.61557    18658.686    4.4857416    4.4857416    4.4857416    18658.686   -16945.041   -9122.4331    82043.531    2895.7847    17537.403   -8708.7976    90.261545 
   10700    2189.1604   -109.59154    1.9807983   -107.61074    29924.986    4.4621555    4.4621555    4.4621555    29924.986    9146.3033   -25372.562    106001.22    6649.3758   -3680.8273    31429.492    88.845224 
   10800    1617.3886   -109.11913    1.4634472   -107.65568    9896.4298    4.4598484    4.4598484    4.4598484    9896.4298    1185.8572   -39439.736    67943.168   -2192.4883    12809.828   -14953.651    88.707492 
   10900    2130.6424   -109.59782      1.92785   -107.66997   -10656.113      4.47545      4.47545      4.47545   -10656.113   -34604.995   -40120.366    42757.021    4275.9662    29833.744   -25680.553    89.641707 
   11000    2741.6945   -110.12835    2.4807428    -107.6476   -7895.9244     4.490805     4.490805     4.490805   -7895.9244   -42093.919   -31991.937    50398.083   -2649.6488    4277.3441   -9348.6311    90.567545 
   11100    1581.7507   -109.06457    1.4312013   -107.63337   -33378.148    4.5115379    4.5115379    4.5115379   -33378.148   -42133.268   -61308.581    3307.4054   -9991.1422    34849.795    -29666.64    91.827723 
   11200    2236.2308   -109.59382    2.0233886   -107.57043   -18354.724    4.5122874    4.5122874    4.5122874   -18354.724   -48359.808    3981.2733   -10685.637    12687.258   -5700.0241   -5674.5512      91.8735 
   11300     2428.321   -109.74334    2.1971959   -107.54615   -10661.658    4.4828991    4.4828991    4.4828991   -10661.658     4491.027    10425.057   -46901.059    280.11793    11989.188    13247.944    90.090061 
   11400    1380.3906   -108.80712    1.2490064   -107.55811    66906.323    4.4537966    4.4537966    4.4537966    66906.323    40819.877     44707.07    115192.02    6915.0656    39918.217    9573.3581    88.346863 
   11500    2227.4272   -109.63525     2.015423   -107.61983   -1964.5245    4.4795198    4.4795198    4.4795198   -1964.5245   -20005.288   -31110.182    45221.897   -4726.9599   -33004.678    1723.6516    89.886479 
   11600    1964.8892   -109.39203     1.777873   -107.61416   -38124.825    4.5014948    4.5014948    4.5014948   -38124.825   -32331.346   -29484.311   -52558.819    891.18837    45580.985    3420.5405    91.215837 
   11700    2300.1452    -109.6602    2.0812197   -107.57898   -10252.224    4.4826542    4.4826542    4.4826542   -10252.224   -57903.241    41578.354   -14431.785    18473.107   -6691.3942    10567.389      90.0753 
   11800    2050.7342   -109.43674    1.8555474   -107.58119    22837.624    4.4639587    4.4639587    4.4639587    22837.624    40521.263      37982.4   -9990.7893   -26166.284    7464.3588    8601.9789     88.95298 
   11900    2131.8296   -109.54619    1.9289242   -107.61727    2853.8629    4.4575888    4.4575888    4.4575888    2853.8629   -16689.196    49230.432   -23979.647    1028.5488     20929.87   -13599.661    88.572727 
   12000    1652.1488   -109.15346    1.4948989   -107.65856     6864.553    4.4542597    4.4542597    4.4542597     6864.553    22276.486   -26382.894    24700.068    34069.218   -13664.254    10513.652    88.374427 
   12100    1964.2424   -109.45284    1.7772878   -107.67555   -54152.974    4.4830406    4.4830406    4.4830406   -54152.974   -51830.804   -75233.589   -35394.527   -38591.487     2323.714   -17718.164    90.098597 
   12200    1866.1158   -109.30659    1.6885008   -107.61809   -36952.345    4.4986948    4.4986948    4.4986948   -36952.345   -19647.217    -49907.36   -41302.459    35556.417   -9705.2706   -15947.659    91.045731 
   12300    1931.3966   -109.32472    1.7475682   -107.57715   -13620.768    4.4757005    4.4757005    4.4757005   -13620.768   -33025.622    10610.275   -18446.958      16810.2   -17012.683    14273.983    89.656762 
   12400     1607.055   -109.04398    1.4540971   -107.58988    1648.5788    4.4490166    4.4490166    4.4490166    1648.5788     24871.77    9932.0808   -29858.115   -18975.855   -16626.745   -27905.139    88.062714 
   12500     1873.637   -109.33011    1.6953061   -107.63481    28487.009    4.4424182    4.4424182    4.4424182    28487.009    88513.527   -13240.012    10187.511    58518.264    18947.838    13748.378    87.671477 
   12600    1918.5443   -109.40643    1.7359392   -107.67049    10144.114    4.4727157    4.4727157    4.4727157    10144.114     90367.84   -19069.282   -40866.216   -25633.563   -4615.3541   -10820.949    89.477508 
   12700    2290.2085   -109.70881    2.0722287   -107.63659    -12832.14    4.4793889    4.4793889    4.4793889    -12832.14    36932.113   -46948.923    -28479.61    9844.1945   -12964.331   -1293.2217    89.878601 
   12800    1717.5668   -109.18571    1.5540906   -107.63162    4304.9316    4.4573802    4.4573802    4.4573802    4304.9316    7312.2363    46181.321   -40578.762    37978.201    5342.2649   -5505.6304    88.560292 
   12900    1964.6881   -109.42834    1.7776911   -107.65065    30393.516     4.453232     4.453232     4.453232    30393.516    92676.339    42654.256   -44150.047   -34647.062    2726.3355   -14847.308     88.31327 
   13000    1407.0178   -108.96514    1.2730993   -107.69204   -12038.755    4.4747887    4.4747887    4.4747887   -12038.755     585.5829   -35815.942   -885.90616    26410.578   -15363.255    5519.8978    89.601979 
   13100    2448.0123     -109.887    2.2150129   -107.67199   -41479.552    4.4867972    4.4867972    4.4867972   -41479.552   -15919.877    -47224.65   -61294.128    24336.132    3408.6045   -5222.9477    90.325278 
   13200    2312.8848   -109.76581    2.0927468   -107.67306   -17653.468    4.4741352    4.4741352    4.4741352   -17653.468    21556.401   -15006.493   -59510.311    -14147.95   -26644.569    6517.4167     89.56273 
   13300    968.31335   -108.54121   0.87615027   -107.66506    79778.448    4.4578271    4.4578271    4.4578271    79778.448    219451.12     44393.44   -24509.213   -7327.4372    18221.078   -3108.4765    88.586931 
   13400     2379.656   -109.83704    2.1531628   -107.68388   -27519.485     4.485798     4.485798     4.485798   -27519.485   -5785.3118   -21380.073    -55393.07    22121.362   -30336.782    5894.4096     90.26495 
   13500    1448.8037   -108.96385     1.310908   -107.65294    -38915.91    4.4971767    4.4971767    4.4971767    -38915.91    22404.038    -68179.85   -70971.918    5444.4472   -10787.842   -1509.3993    90.953595 
   13600    1516.5409   -109.00111    1.3721981   -107.62891    22611.891    4.4701707    4.4701707    4.4701707    22611.891    82907.905   -20174.178    5101.9474   -3328.7801    30136.634   -11244.848    89.324854 
   13700    2653.1136   -110.04031    2.4005929   -107.63972   -12457.194     4.474983     4.474983     4.474983   -12457.194    30348.333   -18195.765   -49524.151   -11127.314   -29236.955    18313.783    89.613652 
   13800    1561.0219   -109.08824    1.4124455    -107.6758    -17833.74    4.4788289    4.4788289    4.4788289    -17833.74    12082.681   -50398.399   -15185.502    14762.386    26916.449   -18823.185    89.844898 
   13900     1570.383   -109.09215    1.4209156   -107.67124    27750.831    4.4795645    4.4795645    4.4795645    27750.831    47221.376    15089.976    20941.142   -2010.9402    3075.1821    18012.126    89.889173 
   14000    2024.4178   -109.48246    1.8317357   -107.65072   -38079.191    4.4905144    4.4905144    4.4905144   -38079.191   -5757.5527   -56659.285   -51820.736    15412.342     2784.818    16931.316    90.549963 
   14100    1906.9005   -109.34648    1.7254037   -107.62108   -21108.942     4.492645     4.492645     4.492645   -21108.942   -21802.569    5226.6048   -46750.862   -2712.1285    29486.289   -20547.279    90.678913 
   14200    2576.6459   -109.92974    2.3314034   -107.59834    -18676.77    4.4912498    4.4912498    4.4912498    -18676.77   -21609.647     3360.068    -37780.73   -10404.052   -18001.287   -3750.3228    90.594458 
   14300    1666.7618    -109.1091    1.5081211   -107.60098    14251.421    4.4826816    4.4826816    4.4826816    14251.421    22253.992   -8569.0725    29069.344    -3271.728    39948.025   -88.095572    90.076949 
   14400    2613.5542   -109.97012    2.3647987   -107.60532    -27339.78    4.5027903    4.5027903    4.5027903    -27339.78   -12231.119   -57343.632   -12444.589   -13229.663   -14059.142   -9443.7002    91.294618 
   14500    1374.4629    -108.8249    1.2436429   -107.58126   -51576.039     4.528049     4.528049     4.528049   -51576.039   -82789.798    -20495.07   -51443.248    15755.356    22351.765    5740.1314    92.839622 
   14600    2206.7228   -109.51572    1.9966892   -107.51903    -26142.65    4.4907778    4.4907778    4.4907778    -26142.65    1718.0989   -30206.499   -49939.551    6560.0395    14918.915    18544.683    90.565898 
   14700    2540.5002   -109.78508    2.2986979   -107.48638    21746.285    4.4446243    4.4446243    4.4446243    21746.285    49542.223   -1263.7451    16960.378   -544.01613    10545.935   -12690.159    87.802154 
   14800    1781.2735   -109.21714    1.6117337   -107.60541    20369.916    4.4567037    4.4567037    4.4567037    20369.916   -26403.307    41234.333    46278.721    -2886.534    39382.715   -10099.929    88.519978 
   14900    1777.0753   -109.27774     1.607935   -107.66981    6061.8324    4.5103802    4.5103802    4.5103802    6061.8324   -53169.235   -50626.227    121980.96   -2970.8484    3806.2093    -13843.91    91.757053 
   15000    2194.5259   -109.56873    1.9856532   -107.58307   -37137.842    4.5400712    4.5400712    4.5400712   -37137.842   -37613.457   -83153.578    9353.5083    5013.4187    7148.3736    6047.3755    93.581064 
   15100    1612.0753   -109.00079    1.4586396   -107.54215   -17527.882    4.4989725    4.4989725    4.4989725   -17527.882   -34871.496   -43381.535    25669.386    15277.762    27671.402    8389.5682    91.062595 
   15200    2180.7077   -109.47586    1.9731501   -107.50271    25521.483    4.4337464    4.4337464    4.4337464    25521.483   -5274.6519    35467.149    46371.952   -8771.6481   -24288.392   -1711.9432    87.159059 
   15300    1677.3792   -109.08692    1.5177279   -107.56919    73813.478    4.4235812    4.4235812    4.4235812    73813.478    47154.905    127780.17     46505.36   -9348.8273    51940.609   -4113.9727    86.560949 
   15400    1315.1352    -108.8767     1.189962   -107.68674   -1260.9874    4.4856949    4.4856949    4.4856949   -1260.9874   -12482.496    24148.166   -15448.632    27730.979   -3357.2555    4551.2653    90.258723 
   15500    1883.2614   -109.28975    1.7040145   -107.58574   -28600.329    4.5354228    4.5354228    4.5354228   -28600.329   -12295.843   -3642.0177   -69863.127   -20594.517   -15276.875    -2445.156    93.293922 
   15600    1943.5179   -109.28473    1.7585358   -107.52619   -24763.478    4.5134139    4.5134139    4.5134139   -24763.478   -21809.774   -51985.164   -495.49664    27537.635    8022.8021    5943.1758    91.942328 
   15700    1454.9891   -108.81514    1.3165048   -107.49863    35703.242    4.4453891    4.4453891    4.4453891    35703.242    5151.7049   -4535.7093    106493.73   -15160.444     5824.945   -5873.7311    87.847485 
   15800    2492.9943   -109.78475    2.2557136   -107.52904    18330.601    4.4333202    4.4333202    4.4333202    18330.601    19236.037   -19511.773    55267.538     9043.244    -2983.137   -8144.6952    87.133927 
   15900    1704.6861   -109.16957    1.5424358   -107.62714   -6759.5962    4.4697725    4.4697725    4.4697725   -6759.5962   -69678.214   -10772.545    60171.971    26710.162    10747.404    3153.1146     89.30099 
   16000    2157.4292   -109.55994    1.9520873   -107.60785   -32376.318    4.4970078    4.4970078    4.4970078   -32376.318   -62748.011   -59794.565    25413.624   -46659.106    -9412.378    5769.1006    90.943346 
   16100    1770.6884    -109.1815    1.6021561   -107.57934   -51904.613    4.4988337    4.4988337    4.4988337   -51904.613   -70595.923   -96693.012    11575.095    74368.433    4789.4959    7750.7821    91.054169 
   16200    1578.4086   -109.00778    1.4281773    -107.5796   -15737.299    4.4465441    4.4465441    4.4465441   -15737.299   -60559.665   -20893.438    34241.206   -33851.121   -10674.032   -1369.7377    87.915976 
   16300    2167.1658   -109.52379    1.9608971    -107.5629    64537.818     4.416647     4.416647     4.416647    64537.818    126566.31    30738.586     36308.56    12607.816   -13652.947   -11910.165     86.15452 
   16400    1960.4743   -109.43343    1.7738783   -107.65955   -14746.364    4.4734828    4.4734828    4.4734828   -14746.364   -26823.906   -54536.618    37121.431    29027.873    -4525.588   -10417.662    89.523557 
   16500    1714.3046   -109.14358    1.5511388   -107.59244   -1401.7013    4.5150389    4.5150389    4.5150389   -1401.7013    50688.349   -18263.728   -36629.725   -28945.578    -6954.458    8886.6108     92.04167 
   16600    1979.4582   -109.31965    1.7910554    -107.5286   -18249.487    4.5093717    4.5093717    4.5093717   -18249.487    15234.332   -1362.1523    -68620.64   -2969.0796    13007.423    5592.5436    91.695517 
   16700    1756.6254   -109.12014    1.5894316   -107.53071     24884.51    4.4567707    4.4567707    4.4567707     24884.51    28159.771    13457.509     33036.25   -39798.344   -16186.998   -8608.1306    88.523968 
   16800    1759.1409   -109.14437    1.5917076   -107.55267    68214.151    4.4364354    4.4364354    4.4364354    68214.151    44580.172    127390.98    32671.298   -6695.4684    18639.487   -26075.637    87.317738 
   16900    1951.4941   -109.38754    1.7657529   -107.62179    21230.446    4.4756717    4.4756717    4.4756717    21230.446   -24914.831    85244.607    3361.5603   -35144.315   -2412.8454    -21758.91    89.655032 
   17000    1325.1256   -108.80067    1.1990015   -107.60166   -14822.846    4.5079306    4.5079306    4.5079306   -14822.846   -53385.754    106658.38   -97741.171    7033.1109    20427.472    390.21432    91.607634 
   17100    2718.2797   -109.97658    2.4595566   -107.51703   -65068.508    4.5214162    4.5214162    4.5214162   -65068.508   -71352.079   -78485.603   -45367.843    -2948.278    2125.7067     15582.64    92.432238 
   17200    1319.6841   -108.66599    1.1940779   -107.47191   -13863.686    4.5156797    4.5156797    4.5156797   -13863.686   -62587.971    33237.605   -12240.694   -2339.7777    13638.336   -15847.849    92.080862 
   17300    2456.4422   -109.66587    2.2226405   -107.44323    2408.3265    4.4831605    4.4831605    4.4831605    2408.3265   -36122.304    36526.636    6820.6471   -11310.026    24797.853   -10194.343    90.105821 
   17400    2593.7363   -109.82596    2.3468671    -107.4791    14192.604    4.4570912    4.4570912    4.4570912    14192.604    52694.005   -1436.3163   -8679.8754   -10890.816    1745.4118   -9569.7789    88.543069 
   17500     1428.204   -108.88663     1.292269   -107.59436   -25615.332    4.4711001    4.4711001    4.4711001   -25615.332   -36460.762     32633.56   -73018.794    25634.163    57837.092    11343.565    89.380585 
   17600    2377.7926   -109.76165    2.1514767   -107.61018   -26480.054    4.4844557    4.4844557    4.4844557   -26480.054    -15551.21    -53640.75   -10248.202   -13062.899   -17650.376    669.26507     90.18394 
   17700    1789.8905   -109.23285    1.6195305   -107.61332   -16109.916    4.4659917    4.4659917    4.4659917   -16109.916    -6218.898    14103.119   -56213.967    451.17803    70509.074   -16671.717    89.074573 
   17800    1632.4784   -109.08132    1.4771008   -107.60422    8960.0043    4.4477992    4.4477992    4.4477992    8960.0043   -17685.283    75580.593   -31015.297    12436.015    24150.252    7839.3395    87.990448 
   17900    2300.8295    -109.7013    2.0818389   -107.61946   -31271.188    4.4627931    4.4627931    4.4627931   -31271.188   -48882.722   -10394.681   -34536.162   -46979.588   -14006.219    13021.955    88.883317 
   18000    1908.7041   -109.34414    1.7270356   -107.61711   -30959.558    4.4674588    4.4674588    4.4674588   -30959.558   -69402.798    32732.637   -56208.513    12689.012     73599.85   -26352.805    89.162386 
   18100    1960.4864   -109.37924    1.7738893   -107.60535    2274.3215    4.4560173    4.4560173    4.4560173    2274.3215   -34915.616    15306.651    26431.929   -4979.2011   -17005.116    10754.157    88.479083 
   18200    1403.1743   -108.89793    1.2696216   -107.62831   -17233.403    4.4657265    4.4657265    4.4657265   -17233.403    -58382.36    30329.494   -23647.342   -46320.207    29241.063   -1641.2058    89.058702 
   18300    2076.5276   -109.49353    1.8788859   -107.61464   -5016.9892    4.4605925    4.4605925    4.4605925   -5016.9892   -33086.868   -2942.6377    20978.538    30565.849    9037.1442   -11801.156    88.751896 
   18400    1833.8523   -109.28553    1.6593081   -107.62622    16489.547    4.4611051    4.4611051    4.4611051    16489.547   -54688.635    76725.249    27432.028   -23881.257   -13328.091    1358.0601    88.782498 
   18500    1785.9535    -109.2383    1.6159683   -107.62233    1270.0058    4.4788532    4.4788532    4.4788532    1270.0058    -34950.17    40816.094   -2055.9066   -14828.165    17445.161   -13549.187    89.846359 
   18600    1971.4637   -109.37853    1.7838218   -107.59471   -1608.6758    4.4780179    4.4780179    4.4780179   -1608.6758    9302.1187    2188.7316   -16316.878    15761.466   -9696.5842    4069.0328    89.796099 
   18700     1335.443   -108.80393    1.2083369    -107.5956   -9480.6036    4.4769705    4.4769705    4.4769705   -9480.6036   -34983.163    87581.425   -81040.072   -32755.312    45994.262    13974.659    89.733103 
   18800    2212.9141   -109.59116    2.0022912   -107.58887   -7019.4762    4.4623504    4.4623504    4.4623504   -7019.4762   -36981.739    27740.478   -11817.168    10470.254   -3385.8528    2299.0927    88.856867 
   18900    1807.9559   -109.24686    1.6358765   -107.61098    29641.175    4.4552484    4.4552484    4.4552484    29641.175    26524.841    76255.204    -13856.52   -8509.4202    30055.278    13638.015    88.433288 
   19000    1768.2368   -109.24428    1.5999378   -107.64434    5133.0334    4.4847937    4.4847937    4.4847937    5133.0334    3514.5453    30773.388   -18888.833   -21673.491   -12735.051    8891.3547    90.204333 
   19100    2444.6516   -109.80958    2.2119722    -107.5976   -21249.524    4.5014412    4.5014412    4.5014412   -21249.524     -22113.3    11821.354   -53456.628    25434.425    15669.375   -11614.129    91.212581 
   19200    1456.6631   -108.89234    1.3180194   -107.57432    -4092.387    4.4811027    4.4811027    4.4811027    -4092.387    39052.019   -23992.409   -27336.772   -21439.748    18671.326    22582.414    89.981804 
   19300    1822.9412   -109.21805    1.6494355   -107.56862    2299.2939    4.4599283    4.4599283    4.4599283    2299.2939   -32502.434    25045.874    14354.442   -1218.7134    11321.519   -20846.538    88.712258 
   19400    1944.1031   -109.36496    1.7590654   -107.60589   -8157.9511    4.4434562    4.4434562    4.4434562   -8157.9511   -12684.316    24123.873   -35913.411    1638.2337    48657.461    12507.776    87.732947 
   19500     1953.808   -109.40459    1.7678465   -107.63674    10734.917     4.448505     4.448505     4.448505    10734.917    11468.826   -7758.8616    28494.786   -3263.2803   -13636.706   -4230.8875    88.032343 
   19600    1620.2245   -109.12138    1.4660132   -107.65537   -24158.867    4.4720492    4.4720492    4.4720492   -24158.867   -56197.349    8464.5595   -24743.813   -16168.127    71768.524    1415.4341    89.437512 
   19700    2685.8663    -110.0443    2.4302283   -107.61407   -6862.4206    4.4774483    4.4774483    4.4774483   -6862.4206    12005.563   -21774.346   -10818.479    2125.0538   -35548.448    13973.441    89.761836 
   19800    1356.1087   -108.84685    1.2270357   -107.61981   -32934.079    4.4639008    4.4639008    4.4639008   -32934.079   -41261.481   -8944.5343   -48596.222   -11952.815    72307.349    3601.3506    88.949521 
   19900    1944.9435   -109.38042    1.7598258   -107.62059    38727.416    4.4491444    4.4491444    4.4491444    38727.416    7532.5428    25893.035    82756.671   -28033.898   -8279.2021    14852.351    88.070306 
   20000     2820.251   -110.18329    2.5518223   -107.63147   -10502.664    4.4497738    4.4497738    4.4497738   -10502.664   -29719.387     11784.36   -13572.964    14773.517    14350.107   -7083.1787    88.107687 
   20100    1432.4474   -108.96159    1.2961085   -107.66548    15888.745    4.4553503    4.4553503    4.4553503    15888.745   -25898.363    12560.141    61004.456   -34242.028    28224.867    22792.585    88.439355 
   20200    2138.7522   -109.59601     1.935188   -107.66082   -33311.762    4.4784962    4.4784962    4.4784962   -33311.762   -48861.096   -61542.736    10468.546   -12875.946   -5371.1734   -9547.9834    89.824875 
   20300    1403.7793   -108.90129     1.270169   -107.63112   -15712.755    4.4857135    4.4857135    4.4857135   -15712.755   -74452.367    29394.082   -2079.9794   -9515.4431    50858.455   -14558.812     90.25985 
   20400    1791.5148   -109.19505    1.6210002   -107.57405    44525.308    4.4681446    4.4681446    4.4681446    44525.308    27129.033    22174.388    84272.504   -11168.752   -17785.765   -966.00464    89.203449 
   20500    1636.3623   -109.05886     1.480615   -107.57825    5625.5003    4.4676771    4.4676771    4.4676771    5625.5003    19565.438    19742.518   -22431.456    13635.896    43096.577   -28258.731    89.175457 
   20600    2282.8933   -109.64229    2.0656099   -107.57668    5870.0759    4.4668043    4.4668043    4.4668043    5870.0759    2074.1823   -6756.3863    22292.432   -7447.0954   -14496.628   -6939.0783    89.123201 
   20700    1658.5272   -109.09519    1.5006703   -107.59452    27038.605      4.45739      4.45739      4.45739    27038.605    77288.433   -15318.671    19146.052   -18495.092    220.79926    13863.938    88.560874 
   20800    2120.6871    -109.5303    1.9188423   -107.61146   -18989.785     4.474254     4.474254     4.474254   -18989.785    3006.1131    -34408.12   -25567.349    13207.602    21361.007   -11971.654    89.569862 
   20900    1893.2429   -109.31096     1.713046   -107.59791   -24697.823    4.4741431    4.4741431    4.4741431   -24697.823   -27719.044   -65412.415    19037.989    3961.0169   -32972.644    13686.319    89.563203 
   21000    1801.6232   -109.22281    1.6301465   -107.59266    8572.9539    4.4565669    4.4565669    4.4565669    8572.9539   -6123.4447    12142.724    19699.583   -16445.897    29806.418   -1004.6245    88.511826 
   21100    1872.0977   -109.30964    1.6939134   -107.61573   -3876.0888    4.4539082    4.4539082    4.4539082   -3876.0888    29663.972   -33592.103   -7700.1354    43224.038   -22426.014    157.11318    88.353508 
   21200    1901.1738    -109.3527     1.720222   -107.63248    654.08538    4.4538163    4.4538163    4.4538163    654.08538    67016.338   -33363.014   -31691.067   -23405.687    2843.4224    41631.032    88.348038 
   21300    1753.9297    -109.2374    1.5869925   -107.65041   -18790.747    4.4726737    4.4726737    4.4726737   -18790.747   -29861.806   -32472.351    5961.9142    14778.783    8263.2281   -28021.943    89.474987 
   21400    1580.3323    -109.0664    1.4299179   -107.63648   -44958.049    4.4727014    4.4727014    4.4727014   -44958.049    -32145.99    -84834.85   -17893.306    64489.258   -11922.187    38689.065     89.47665 
   21500    2097.3567   -109.50533    1.8977324    -107.6076    27026.969     4.442016     4.442016     4.442016    27026.969    41475.468    51218.887   -11613.448   -23578.014    19059.766    26533.597    87.647669 
   21600    2131.2192   -109.57566    1.9283719   -107.64729   -24128.369    4.4596538    4.4596538    4.4596538   -24128.369   -19008.074   -39923.941   -13453.091    34553.016   -515.76463   -6498.3814    88.695876 
   21700     1623.769   -109.10423    1.4692203   -107.63501   -67859.218    4.4749028    4.4749028    4.4749028   -67859.218   -7123.9934   -110655.28   -85798.377    24120.145    6738.9954    83759.708    89.608835 
   21800    2626.8172   -109.95926    2.3767994   -107.58246    22672.707    4.4533029    4.4533029    4.4533029    22672.707    19830.721    23954.582    24232.817   -14789.081    20910.262   -21032.003    88.317485 
   21900    1429.6663   -108.91599    1.2935921    -107.6224   -2632.5933    4.4718396    4.4718396    4.4718396   -2632.5933    22258.189   -67577.339    37421.369    12585.309     4717.688    71821.748     89.42494 
   22000    1796.2249   -109.21407    1.6252621   -107.58881    16580.847    4.4940636    4.4940636    4.4940636    16580.847    -35228.87   -14032.328    99003.739   -11204.608    22580.044    15444.307    90.764839 
   22100    1793.5276   -109.17748    1.6228215   -107.55466   -22701.693    4.4986185    4.4986185    4.4986185   -22701.693   -38300.275    2635.3649   -32440.169    13468.637   -5472.3874    59477.686    91.041101 
   22200    2890.5328   -110.12782    2.6154148    -107.5124   -32886.712    4.5050294    4.5050294    4.5050294   -32886.712    -47997.62   -19898.913   -30763.602    33675.793   -12247.637   -14933.546     91.43088 
   22300    1382.0345   -108.76301    1.2504939   -107.51251    3537.8407    4.4840403    4.4840403    4.4840403    3537.8407    76988.857   -15668.971   -50706.364   -10284.858     8078.106    57308.642    90.158882 
   22400    2588.6211   -109.81631    2.3422387   -107.47407    25547.598    4.4656844    4.4656844    4.4656844    25547.598   -13419.872    29268.407    60794.261    23655.233   -5021.5443   -20996.666    89.056186 
   22500    1215.0836   -108.63509    1.0994332   -107.53566   -47596.393     4.494045     4.494045     4.494045   -47596.393    2401.1326   -79617.093   -65573.219    9094.1596    2984.8514     82844.65     90.76371 
   22600    2305.1114   -109.61242    2.0857132    -107.5267   -16500.571    4.4890256    4.4890256    4.4890256   -16500.571    24543.116   -44154.347   -29890.482   -18921.733    1580.9125    8653.2688     90.45993 
   22700    1323.4212   -108.73738    1.1974593   -107.53992    52644.027    4.4500224    4.4500224    4.4500224    52644.027    61013.741    17111.535    79806.805   -4949.6758   -10402.234    57684.867    88.122456 
   22800    2446.1309   -109.78068    2.2133106   -107.56737   -1607.3942      4.45731      4.45731      4.45731   -1607.3942    14063.614   -2930.3628   -15955.434   -175.13552    23153.957     11354.71    88.556109 
   22900    2058.9997   -109.43878    1.8630262   -107.57576   -10021.838     4.468261     4.468261     4.468261   -10021.838   -6903.6231   -32471.401    9309.5104    2191.0732    5334.9425    47306.092    89.210426 
   23000    2086.5517   -109.47662    1.8879558   -107.58866    117.32718    4.4755142    4.4755142    4.4755142    117.32718   -9424.0721   -12202.791    21978.845    18889.776    19096.226    34977.179    89.645567 
   23100    1626.1145   -109.03851    1.4713426   -107.56717   -27692.712    4.4927709    4.4927709    4.4927709   -27692.712    2876.4427   -30889.902   -55064.677    893.27309    16000.329    48515.584    90.686539 
   23200    1447.3236   -108.84532    1.3095688   -107.53575    22620.177    4.4784374    4.4784374    4.4784374    22620.177    21742.497    84400.796   -38282.763   -9875.1035    2504.9609    39205.815    89.821336 
   23300    2216.3958   -109.53529    2.0054415   -107.52985    790.27198    4.4699462    4.4699462    4.4699462    790.27198    -1242.219   -8394.2187    12007.254    10813.792   -813.45067     8663.212    89.311401 
   23400    1924.4383    -109.2986    1.7412722   -107.55733   -12574.407    4.4672497    4.4672497    4.4672497   -12574.407    1217.7023   -28529.035   -10411.889    2637.8066     3438.947    60024.904    89.149867 
   23500    2062.2627   -109.42731    1.8659786   -107.56133    48222.421    4.4627158    4.4627158    4.4627158    48222.421    25551.337    103956.12    15159.801    5161.3987    5406.5403   -10396.129      88.8787 
   23600    1380.9814   -108.84185     1.249541   -107.59231   -20122.797    4.4809085    4.4809085    4.4809085   -20122.797    67441.993   -45624.213   -82186.169     2255.541    1325.7436    69597.813    89.970103 
   23700    2622.4452   -109.92099    2.3728435   -107.54814   -26671.915    4.4841695    4.4841695    4.4841695   -26671.915   -46332.191   -29639.985   -4043.5684    -22627.39     5182.124     -24470.2    90.166678 
   23800    1355.9507   -108.77518    1.2268927   -107.54828   -2728.0122    4.4669293    4.4669293    4.4669293   -2728.0122    55358.784   -35660.796   -27882.025    9161.8597    4302.7628    56259.987    89.130685 
   23900    2927.6735   -110.19368    2.6490205   -107.54466   -14704.841    4.4786487    4.4786487    4.4786487   -14704.841   -13205.824    4825.4435   -35734.141   -12673.299    7295.3082    -16029.22    89.834055 
   24000     881.2958   -108.37621   0.79741496    -107.5788   -16744.271    4.4965471    4.4965471    4.4965471   -16744.271    60160.155   -44472.074   -65920.895    25744.209    8398.8986    51901.647    90.915395 
   24100    2587.4248    -109.8786    2.3411563   -107.53745    14697.008    4.4789569    4.4789569    4.4789569    14697.008    51670.541   -16603.368     9023.851   -4946.2487    38216.781   -21797.625    89.852603 
   24200    1202.3714   -108.65821     1.087931   -107.57028    3431.4087    4.4687351    4.4687351    4.4687351    3431.4087    56736.098   -71157.188    24715.316    2240.6271    1261.1862    36414.361    89.238822 
   24300    3020.9451   -110.29254    2.7334146   -107.55912   -2734.1753    4.4670113    4.4670113    4.4670113   -2734.1753    24295.872   -17219.349   -15279.049    7951.1701    8317.1375   -10575.658    89.135594 
   24400    906.91375   -108.42439   0.82059462    -107.6038    38938.605    4.4550114    4.4550114    4.4550114    38938.605    44272.709    68202.053    4341.0535    2218.8817   -18158.356    22854.774    88.419175 
   24500    2555.4038   -109.92546     2.312183   -107.61328    30786.694    4.4659385    4.4659385    4.4659385    30786.694    10351.777    24545.974     57462.33    9738.9267    7393.5428    11397.909    89.071387 
   24600    1114.9736   -108.62948    1.0088515   -107.62063   -4911.5402     4.490537     4.490537     4.490537   -4911.5402    7617.7583    31397.995   -53750.373   -3678.7976   -24584.826    20789.358    90.551328 
   24700    2421.0092   -109.75359      2.19058   -107.56301   -34991.435     4.484676     4.484676     4.484676   -34991.435   -11366.506   -45691.459   -47916.339   -6712.6871    20274.632    3457.6909    90.197235 
   24800    2194.2865   -109.52715    1.9854365   -107.54171   -25670.134    4.4620069    4.4620069    4.4620069   -25670.134   -28139.311   -29055.937   -19815.153    28698.574   -29906.439   -7523.9902    88.836354 
   24900    2321.6232   -109.65542    2.1006534   -107.55477   -4663.6227     4.461593     4.461593     4.461593   -4663.6227      10288.4    -15080.84   -9198.4282   -19868.842    10018.332    7646.0123    88.811632 
   25000    1433.8692   -108.88442     1.297395   -107.58703   -17328.104    4.4797012    4.4797012    4.4797012   -17328.104   -49821.408   -10267.793    8104.8907    42876.894   -18366.055   -18024.314    89.897401 
   25100    2387.7403   -109.72636    2.1604776   -107.56589   -21480.162    4.4884214    4.4884214    4.4884214   -21480.162   -34778.567    1763.4959   -31425.415   -9217.1172   -12505.506    32711.949    90.423411 
   25200    1711.0722   -109.12571     1.548214    -107.5775    16190.482    4.4684801    4.4684801    4.4684801    16190.482    3764.5232     2585.631    42221.293    35915.936    -5118.542    5363.7245     89.22355 
   25300    2282.2009    -109.6365    2.0649834   -107.57151    22907.751    4.4511288    4.4511288    4.4511288    22907.751    4505.1433    27344.756    36873.353   -2514.9637   -27303.897    12126.428    88.188201 
   25400    2001.1659   -109.39907     1.810697   -107.58838    25543.693    4.4613555    4.4613555    4.4613555    25543.693   -14795.972     38701.98    52725.073    11000.443    2399.6337    28528.365    88.797449 
   25500    1789.1701   -109.21449    1.6188787   -107.59561   -2987.4348    4.4813364    4.4813364    4.4813364   -2987.4348   -46748.183    67968.944   -30183.066    24868.187   -32732.058   -16867.531    89.995883 
   25600    2632.5182   -109.94344    2.3819578   -107.56148   -24542.633    4.4797116    4.4797116    4.4797116   -24542.633   -13708.787   -5512.0685   -54407.043   -9147.8428    12479.492    34115.656    89.898027 
   25700    1768.9439   -109.17723    1.6005776   -107.57665   -29776.047    4.4628653    4.4628653    4.4628653   -29776.047   -87609.638    3336.7049    -5055.207    27783.243   -45589.437    18524.778    88.887634 
   25800    2668.6927   -110.01522    2.4146893   -107.60053   -8184.0571      4.46141      4.46141      4.46141   -8184.0571   -29884.068   -11612.953     16944.85   -1445.1647    4596.8729   -3199.8384    88.800705 
   25900     1658.607   -109.14745    1.5007425   -107.64671   -15028.743    4.4827657    4.4827657    4.4827657   -15028.743   -31541.836   -22338.568    8794.1754    13285.607   -7398.8999    12829.538    90.082021 
   26000    2222.1071    -109.6055    2.0106092   -107.59489   -34827.934    4.5057297    4.5057297    4.5057297   -34827.934   -71499.684    6633.0091   -39617.126    8364.1563   -15784.738   -10199.486    91.473523 
   26100    1783.2941   -109.15297     1.613562   -107.53941    7813.8837    4.5057486    4.5057486    4.5057486    7813.8837    -30625.28    70068.525   -16001.594    15118.883   -15216.417   -9478.3324    91.474671 
   26200    1798.5224   -109.13258    1.6273409   -107.50523    25983.998    4.4935059    4.4935059    4.4935059    25983.998    42.786622    71699.833     6209.373    15108.866    6246.6712   -5769.0489    90.731051 
   26300    1674.8647   -109.03068    1.5154528   -107.51522    31626.185    4.4795376    4.4795376    4.4795376    31626.185    26957.825    87104.817   -19184.087   -31556.284   -26128.956    4962.7802    89.887552 
   26400     1176.574   -108.63524    1.0645889   -107.57065    9338.2016    4.4704149    4.4704149    4.4704149    9338.2016    29851.909    22096.375   -23933.679    18593.722   -14464.282    11008.951    89.339493 
   26500    2061.4175   -109.45511    1.8652139   -107.58989    26512.505    4.4674993    4.4674993    4.4674993    26512.505    57073.666   -2721.2431    25185.091    1698.5086   -5752.7883    -13552.24    89.164805 
   26600    1914.7339   -109.34508    1.7324915   -107.61259    7207.8208    4.4706485    4.4706485    4.4706485    7207.8208    23212.369    13512.394     -15101.3   -6349.1007   -44425.018   -5706.5264    89.353499 
   26700    1928.5303   -109.34805    1.7449747   -107.60307   -2287.9208    4.4753659    4.4753659    4.4753659   -2287.9208    28550.024   -41187.302    5773.5165    38994.302    8001.1114    26982.958    89.636657 
   26800    2179.5692   -109.55907      1.97212   -107.58695   -50573.171    4.4941638    4.4941638    4.4941638   -50573.171   -59844.456   -13127.572   -78747.484   -10885.107   -41602.025    -23928.56    90.770909 
   26900    2187.0163    -109.5408    1.9788583   -107.56194   -39840.783    4.4782421    4.4782421    4.4782421   -39840.783   -24933.304   -51847.407   -42741.638    24451.599     3144.083    16640.412    89.809591 
   27000    1325.2176   -108.75487    1.1990847   -107.55579    48410.579     4.436605     4.436605     4.436605    48410.579     73264.14    32514.476     39453.12     21134.72   -15667.524     5833.128    87.327757 
   27100    2031.6472   -109.43947    1.8382771   -107.60119   -14288.017     4.442246     4.442246     4.442246   -14288.017   -5571.1019    8125.3936   -45418.344   -2633.7902   -24470.084   -41036.051    87.661281 
   27200    2172.6575   -109.59053    1.9658661   -107.62466    10269.365    4.4691059    4.4691059    4.4691059    10269.365    86618.806    -46269.94   -9540.7702    2988.2513    20670.441    23962.968    89.261039 
   27300    1377.4559   -108.87888    1.2463511   -107.63253   -41631.242    4.4865914    4.4865914    4.4865914   -41631.242    -55203.36    20546.656   -90237.022    11191.186   -45554.009   -9722.9967    90.312851 
   27400    2019.6195   -109.43313    1.8273942   -107.60573   -21294.679    4.4685395    4.4685395    4.4685395   -21294.679    645.34651    451.82831   -64981.213   -5579.4345    12171.293   -19646.637    89.227105 
   27500    2030.8577   -109.42389    1.8375627   -107.58632    50147.995    4.4453147    4.4453147    4.4453147    50147.995    32056.453    127089.51   -8701.9734    -16535.37   -26537.803   -2510.8616    87.843075 
   27600     1528.031   -109.00208    1.3825946   -107.61949    -4095.934    4.4668049    4.4668049    4.4668049    -4095.934   -6980.7265    54484.032   -59791.108   -24732.009    3189.8318   -56294.945    89.123239 
   27700    1966.4462   -109.35703    1.7792818   -107.57775   -3340.4321     4.496817     4.496817     4.496817   -3340.4321   -45315.958    78222.656   -42927.994    506.06078   -4970.0733    6785.7313    90.931771 
   27800    1641.3862   -109.03047    1.4851607   -107.54531   -14575.946    4.4980543    4.4980543    4.4980543   -14575.946    3365.7342    28759.733   -75853.305    6002.7582   -14355.251   -35419.729    91.006847 
   27900      2024.27    -109.3517    1.8316021    -107.5201    9330.9803    4.4732952    4.4732952    4.4732952    9330.9803    31568.746    30933.538   -34509.343    5632.8311    14100.518    32824.154     89.51229 
   28000    1646.8341   -109.03696    1.4900901   -107.54687     27377.43    4.4493416    4.4493416    4.4493416     27377.43    12811.945    90356.907    -21036.56    18941.034   -18161.976    26252.297    88.082018 
   28100    1750.3236   -109.17213    1.5837296    -107.5884    2510.2418    4.4566657    4.4566657    4.4566657    2510.2418    32928.533    33020.441   -58418.248      19074.9    19055.141   -8739.1278    88.517708 
   28200    2211.5787   -109.60009    2.0010829     -107.599   -19779.172    4.4740008    4.4740008    4.4740008   -19779.172    1112.6482   -16594.774    -43855.39    10180.962   -13070.567    31440.085    89.554656 
   28300    2115.6578   -109.49626    1.9142916   -107.58197    27062.986    4.4634961    4.4634961    4.4634961    27062.986    59.914583    89354.877   -8225.8326    -18255.32    20077.972   -36284.347    88.925327 
   28400    1326.6869    -108.8092    1.2004142   -107.60879    -14208.85    4.4740414    4.4740414    4.4740414    -14208.85    35999.562   -53574.761   -25051.352    9822.7186   -2451.6318    55908.761    89.557093 
   28500    2814.1155   -110.12145    2.5462709   -107.57518   -11481.071    4.4695821    4.4695821    4.4695821   -11481.071    25629.443    485.34214   -60557.999   -25428.397   -14415.022   -9253.3275    89.289575 
   28600    1605.3441   -109.04608     1.452549   -107.59353   -5872.8937    4.4484938    4.4484938    4.4484938   -5872.8937    44222.359   -3529.0924   -58311.948    1967.3746    26294.991    32326.818    88.031675 
   28700    1648.4294   -109.10727    1.4915335   -107.61574   -2447.7984    4.4492124    4.4492124    4.4492124   -2447.7984    3516.6771    61667.687   -72527.759   -1907.9984    -39568.16     19852.96    88.074347 
   28800    2153.1224   -109.56646    1.9481904   -107.61827   -8341.7976    4.4564709    4.4564709    4.4564709   -8341.7976   -25119.014    46017.351    -45923.73   -17923.164   -17884.528   -10530.495    88.506103 
   28900    1519.7466   -109.01441    1.3750987   -107.63931   -4713.9225    4.4555252    4.4555252    4.4555252   -4713.9225    37560.173   -22745.847   -28956.093     14768.68   -3065.1466    47533.915    88.449773 
   29000     1912.191   -109.36456    1.7301906   -107.63437   -7383.8999    4.4689012    4.4689012    4.4689012   -7383.8999   -33244.781    72618.792   -61525.711   -7162.9008   -21126.612   -11562.164    89.248773 
   29100    2332.9873    -109.7203    2.1109359   -107.60936   -4380.9162     4.463684     4.463684     4.463684   -4380.9162     17442.52       -37611    7025.7314   -411.42836    13876.551    29696.355     88.93656 
   29200    1045.8388   -108.56209   0.94629693   -107.61579    47595.254    4.4552421    4.4552421    4.4552421    47595.254    51872.755    67436.309    23476.698   -6048.3832   -44619.541    9998.0405    88.432913 
   29300    2460.2638   -109.83669    2.2260984   -107.61059   -20601.265    4.4706353    4.4706353    4.4706353   -20601.265     1510.519   -40852.593   -22461.721     13958.82    18635.158     9084.595    89.352708 
   29400     1730.476   -109.19248    1.5657711   -107.62671    8430.0904    4.4477537    4.4477537    4.4477537    8430.0904    42285.377    -37063.27    20068.164    4975.7166   -21338.559    18850.514    87.987746 
   29500    1796.7747   -109.26244    1.6257595   -107.63668    28170.438    4.4289759    4.4289759    4.4289759    28170.438    21297.189    49161.768    14052.356   -2944.7115   -42728.079   -5260.0128    86.878029 
   29600    2696.6972   -110.09455    2.4400283   -107.65452    -17429.16    4.4528617    4.4528617    4.4528617    -17429.16   -8701.8688   -38334.847   -5250.7642    15638.641    26213.783    1666.4748    88.291242 
   29700    1147.7455   -108.69693    1.0385043   -107.65842    6622.9424    4.4730857    4.4730857    4.4730857    6622.9424    16579.742    6865.5804   -3576.4955   -8094.7812    -52065.26    21712.547    89.499716 
   29800    2562.3353   -109.91591    2.3184548   -107.59745   -32442.346    4.4953133    4.4953133    4.4953133   -32442.346   -61748.011   -32982.589   -2596.4365   -4334.4184    24802.311   -1721.6725    90.840577 
   29900     1619.224   -109.03317    1.4651079   -107.56806   -51039.825    4.4894293    4.4894293    4.4894293   -51039.825   -55504.121   -37194.689   -60420.665    14304.409   -44653.624    31472.802    90.484335 
   30000    1728.0521    -109.1253    1.5635778   -107.56172    9426.2202    4.4370869    4.4370869    4.4370869    9426.2202    40505.643   -23036.555    10809.573   -13269.111   -16631.378   -3875.1978    87.356211 
   30100    2159.5166   -109.52767     1.953976    -107.5737    34656.899    4.4139414    4.4139414    4.4139414    34656.899    13495.298    66479.247    23996.152    4217.1833    15508.127   -13965.781    85.996285 
   30200    1661.2352   -109.15181    1.5031205   -107.64869   -26152.943    4.4547498    4.4547498    4.4547498   -26152.943   -56170.196    29191.535   -51480.168   -2556.2104   -53473.337    10454.079    88.403601 
   30300    2482.5642   -109.85035    2.2462763   -107.60408   -23409.429    4.4807119    4.4807119    4.4807119   -23409.429    28553.258   -62733.642   -36047.902   -16458.338    25924.812   -17449.637    89.958261 
   30400    1066.2335   -108.56763   0.96475044   -107.60288      5875.23    4.4786424    4.4786424    4.4786424      5875.23   -24243.832      21637.5    20232.022    4193.3693   -53934.667    10801.171    89.833673 
   30500    2094.5038   -109.47291     1.895151   -107.57776   -1614.1841    4.4643421    4.4643421    4.4643421   -1614.1841   -5413.2877   -45867.441    46438.176   -36602.362   -2240.0887    5431.4188    88.975902 
   30600     1850.399   -109.25536    1.6742799   -107.58108    19020.514     4.446295     4.446295     4.446295    19020.514    17012.533    4505.5092    35543.499    4203.4683   -35384.331   -19292.253    87.901203 
   30700    1511.8339    -108.9833    1.3679391   -107.61536    35704.019    4.4455741    4.4455741    4.4455741    35704.019   -9431.8546    12824.168    103719.74    3434.4817   -34696.867    9494.6254    87.858456 
   30800    2032.1996   -109.46602    1.8387769   -107.62724    4998.0784    4.4656738    4.4656738    4.4656738    4998.0784    -30933.86   -45162.348    91090.443   -4910.0639    19573.487   -2247.8541    89.055547 
   30900    818.81384    -108.3875   0.74087997   -107.64662   -31251.978    4.4763183    4.4763183    4.4763183   -31251.978   -52063.212   -16089.448   -25603.272   -3122.9103   -46944.645   -17807.145    89.693893 
   31000    2534.7868   -109.89892    2.2935284   -107.60539     23922.15    4.4422663    4.4422663    4.4422663     23922.15   -3825.9231   -22812.062    98404.434    8630.5714    24720.021    9931.4288    87.662481 
   31100    1956.9154   -109.38736    1.7706582    -107.6167    25026.141    4.4265173    4.4265173    4.4265173    25026.141   -4519.9988     79564.85    33.571012   -6456.1262   -51401.452    1456.0135    86.733426 
   31200    1536.2965   -109.03374    1.3900734   -107.64367    7316.7312    4.4505071    4.4505071    4.4505071    7316.7312   -3102.3217    24086.222    966.29318    6277.0494    9672.4939   -15873.361    88.151251 
   31300     1862.854   -109.31573    1.6855495   -107.63018   -809.68365    4.4684557    4.4684557    4.4684557   -809.68365    16598.305   -23911.076    4883.7203    7411.6749   -4095.9687    23623.862    89.222083 
   31400    2005.0231   -109.43242    1.8141871   -107.61823   -9778.5574    4.4683184    4.4683184    4.4683184   -9778.5574   -26467.564    19552.137   -22420.246    4442.2365   -40668.271   -10960.154     89.21386 
   31500    1658.2703   -109.11876    1.5004378   -107.61832    8768.7801    4.4363092    4.4363092    4.4363092    8768.7801    56393.954   -55738.974    25651.361    16608.672    23392.125    37161.487    87.310286 
   31600     2013.811   -109.43774    1.8221385    -107.6156    20108.361    4.4296084    4.4296084    4.4296084    20108.361    30847.735   -13142.063     42619.41   -10865.066   -20626.157    17462.568    86.915251 
   31700    2021.6222   -109.45944    1.8292062   -107.63024    13226.068    4.4538484    4.4538484    4.4538484    13226.068   -2788.1321    21708.108    20758.228   -1608.8115    9301.1306    24409.386    88.349945 
   31800    1639.7322   -109.10032    1.4836641   -107.61666   -15964.488     4.485123     4.485123     4.485123   -15964.488    37322.284   -36887.354   -48328.395    10048.599    8363.4458     27967.33    90.224204 
   31900    2143.4046   -109.51893    1.9393975   -107.57953    -29247.88    4.4795813    4.4795813    4.4795813    -29247.88   -25862.691   -45377.593   -16503.358   -19326.134   -40845.068   -29466.936    89.890183 
   32000    2003.0646   -109.38059    1.8124149   -107.56818    25177.339    4.4323609    4.4323609    4.4323609    25177.339    10276.437    43637.805    21617.776   -12508.673    24087.443    39741.173    87.077377 
   32100    1683.2831   -109.12338    1.5230699   -107.60031    19420.271    4.4294923    4.4294923    4.4294923    19420.271    19840.714    53650.596   -15230.496   -2099.2342   -34280.654   -20498.368     86.90842 
   32200    1663.9796    -109.1429    1.5056038    -107.6373   -19593.007    4.4607324    4.4607324    4.4607324   -19593.007   -40998.404   -3499.6311   -14280.985   -37875.592    2452.0717    1986.0264    88.760248 
   32300    2375.1118   -109.75304    2.1490511   -107.60399   -14696.705    4.4708942    4.4708942    4.4708942   -14696.705   -5342.9939   -42807.362    4060.2424    13002.988   -1161.5559    6785.0943    89.368232 
   32400    1433.1769   -108.91012    1.2967686   -107.61335   -44471.325    4.4635297    4.4635297    4.4635297   -44471.325   -40121.347   -104883.22     11590.59   -25812.238   -23998.591   -18678.236     88.92734 
   32500    2656.2249   -110.01405    2.4034081   -107.61064     491.2201    4.4393284    4.4393284    4.4393284     491.2201    10516.071   -40974.871    31932.461   -22595.305    433.30911    9871.5755    87.488671 
   32600    2228.8411   -109.65668    2.0167023   -107.63998    11118.688     4.438434     4.438434     4.438434    11118.688    26525.184   -39089.457    45920.337   -16533.635   -15521.211   -6347.7229    87.435804 
   32700     1165.242   -108.72484    1.0543354   -107.67051   -11191.838    4.4567653    4.4567653    4.4567653   -11191.838    38645.182   -77734.531    5513.8354    -34126.42   -15471.829   -10839.536    88.523648 
   32800    2448.9446   -109.85834    2.2158566   -107.64249   -1075.7593    4.4666491    4.4666491    4.4666491   -1075.7593    48528.933   -60980.165    9223.9543    19491.363    9112.0224     24639.18    89.113912 
   32900    1924.7971    -109.3678    1.7415968    -107.6262    13231.124     4.460194     4.460194     4.460194    13231.124    53414.948   -58149.731    44428.155   -27357.827    8810.1192   -12878.853    88.728114 
   33000    1125.3093   -108.65271    1.0182035    -107.6345   -10980.404    4.4485591    4.4485591    4.4485591   -10980.404    29037.241   -43498.083    -18480.37    13844.501    -14013.47    16038.129     88.03555 
   33100    2164.8664   -109.58847    1.9588166   -107.62965    2966.9838    4.4449311    4.4449311    4.4449311    2966.9838      14175.3   -17558.503    12284.154    3078.6974    46258.317    4140.2591    87.820339 
   33200    2126.6521   -109.55793    1.9242395   -107.63369   -8345.7359     4.459988     4.459988     4.459988   -8345.7359   -25576.693    -34610.56    35150.045    -5675.131   -26831.223    8524.2212    88.715822 
   33300    1283.2615   -108.79935    1.1611219   -107.63823    -36842.19    4.4603777    4.4603777    4.4603777    -36842.19    -13621.84   -79153.804   -17750.926    16079.847   -19038.499    31570.086     88.73908 
   33400     2465.947   -109.83243    2.2312406   -107.60119     20308.72    4.4356946    4.4356946    4.4356946     20308.72    989.88659   -16645.321    76581.594    -18364.35    8267.6805   -17651.134    87.274005 
   33500    1273.8146   -108.79378    1.1525742   -107.64121    -45507.94    4.4487023    4.4487023    4.4487023    -45507.94   -5063.9739   -45580.584   -85879.263    12018.551   -56918.712     46019.78    88.044054 
   33600    2215.3299   -109.63758    2.0044771    -107.6331   -19851.651    4.4428643    4.4428643    4.4428643   -19851.651    27158.063   -57506.578   -29206.438    472.55273     989.0721    4869.4082    87.697889 
   33700    1799.7249   -109.27166    1.6284289   -107.64323    9325.5201     4.432457     4.432457     4.432457    9325.5201    54227.759   -37252.782    11001.584   -29268.183   -14059.363    3113.6238    87.083043 
   33800    1406.5392   -108.93587    1.2726662   -107.66321   -59818.381    4.4653706    4.4653706    4.4653706   -59818.381    11348.326   -87876.174   -102927.29    6256.4425   -26015.798    54563.262    89.037411 
   33900    2572.5364   -109.93218     2.327685    -107.6045    31320.431    4.4525116    4.4525116    4.4525116    31320.431    40856.273    6500.9345    46604.087    -16620.77    11219.669    7444.8986    88.270415 
   34000    1067.0773   -108.59652   0.96551394   -107.63101    19782.659    4.4466298    4.4466298    4.4466298    19782.659    7498.6272    45021.244     6828.106   -16239.133   -41419.539    33255.284    87.921063 
   34100    2745.6699   -110.07296    2.4843398   -107.58862   -16285.372    4.4672893    4.4672893    4.4672893   -16285.372   -14533.599   -12192.192   -22130.327    7174.5687   -10092.745    -11994.77    89.152233 
   34200    1508.9362   -108.95051    1.3653171   -107.58519    29283.955    4.4595743    4.4595743    4.4595743    29283.955    74370.961    15392.198   -1911.2943   -3634.5522   -26098.042     24028.81    88.691133 
   34300    1564.2156   -109.00826    1.4153351   -107.59292   -1454.3218     4.471622     4.471622     4.471622   -1454.3218   -24083.977   -3083.5581     22804.57   -808.55676   -23572.611    19316.059    89.411887 
   34400    2492.2141   -109.81542    2.2550077   -107.56042   -8610.2199    4.4698998    4.4698998    4.4698998   -8610.2199    22484.549   -50904.664    2589.4557    6486.9037    2958.5508    10667.824    89.308616 
   34500    1035.6152   -108.52731   0.93704643   -107.59027   -1460.1371    4.4530675    4.4530675    4.4530675   -1460.1371    50218.949   -39323.365   -15275.995   -19459.903   -42300.914    49126.914    88.303486 
   34600     2544.319   -109.88532    2.3021533   -107.58317    4099.2627      4.44823      4.44823      4.44823    4099.2627    2700.2381   -3453.4728    13051.023    -23385.87    24176.974   -17423.589    88.016016 
   34700    1203.2475   -108.71266    1.0887236   -107.62393   -2157.9943    4.4447206    4.4447206    4.4447206   -2157.9943   -6132.9463     29522.52   -29863.557    9941.1481   -58576.773    37772.494    87.807864 
   34800    2261.9367   -109.66388    2.0466479   -107.61723     286.5351    4.4588445    4.4588445    4.4588445     286.5351    54759.211   -44854.128   -9045.4774   -13287.031    4019.0327   -8175.1309    88.647598 
   34900    1978.7177    -109.3962    1.7903854   -107.60582   -28465.172    4.4663105    4.4663105    4.4663105   -28465.172   -51554.098   -10928.299   -22913.118    24390.945   -26217.445    11065.928    89.093646 
   35000    1754.2857   -109.19005    1.5873145   -107.60273    9881.5584    4.4479411    4.4479411    4.4479411    9881.5584    24171.205    50722.828   -45249.358   -18004.273   -16251.662    23946.443    87.998866 
   35100    2069.6066   -109.48767    1.8726236   -107.61505   -19561.325    4.4585634    4.4585634    4.4585634   -19561.325   -36606.038    -62578.89    40500.953    15671.366    5964.1825   -12088.811    88.630836 
   35200    1936.1447   -109.35945    1.7518644   -107.60758   -22919.612    4.4674397    4.4674397    4.4674397   -22919.612   -28596.353   -31755.134   -8407.3487    13144.572   -34393.352    4496.6279     89.16124 
   35300     2212.417    -109.5913    2.0018414   -107.58946    732.39118    4.4584553    4.4584553    4.4584553    732.39118    41445.003   -20606.591   -18641.238    9452.0564    24625.506   -3213.7292     88.62439 
   35400    1661.0601   -109.11397    1.5029621   -107.61101   -9803.3337    4.4578151    4.4578151    4.4578151   -9803.3337   -31720.903   -29438.637    31749.539    32981.354   -10906.617    2908.9195    88.586218 
   35500    2083.4236    -109.4913    1.8851255   -107.60617    31229.949    4.4552664    4.4552664    4.4552664    31229.949    89158.311   -13441.424    17972.962   -22576.506   -10086.444    29862.007    88.434357 
   35600    1552.9123   -109.03377    1.4051077   -107.62866    3288.7105    4.4616723    4.4616723    4.4616723    3288.7105    24459.709   -52383.271    37789.694     37230.84    39422.061   -1110.0288    88.816365 
   35700    2426.4822   -109.79282     2.195532   -107.59728    -16215.87    4.4732935    4.4732935    4.4732935    -16215.87   -10293.635   -30369.777   -7984.1985    18816.511   -25046.626    -8580.282    89.512192 
   35800     1317.184   -108.77014    1.1918157   -107.57832    3847.7293    4.4709775    4.4709775    4.4709775    3847.7293    35505.171    42424.075   -66386.058    18363.228    35782.057    11493.342    89.373231 
   35900    1685.3072   -109.09974    1.5249014   -107.57484   -6865.8416    4.4586587    4.4586587    4.4586587   -6865.8416   -53623.318    26926.678    6099.1152    39116.698   -10865.257    5959.2213    88.636515 
   36000     2367.295   -109.70785    2.1419782   -107.56587    1011.9348    4.4528861    4.4528861    4.4528861    1011.9348    39217.462    9517.6093   -45699.267   -12964.225    26761.953    10260.877     88.29269 
   36100    1559.5349   -109.00862    1.4110999   -107.59752   -28650.093    4.4642154    4.4642154    4.4642154   -28650.093   -59323.786   -11202.646   -15423.847    51284.479    34859.981   -11209.334    88.968329 
   36200    2495.4749   -109.83097    2.2579581   -107.57301    7124.7107    4.4681111    4.4681111    4.4681111    7124.7107    15997.537   -2107.8554    7484.4509   -24120.033   -3002.3516    1263.8199    89.201447 
   36300    1340.3086   -108.81102    1.2127394   -107.59828    10792.631    4.4757084    4.4757084    4.4757084    10792.631    7505.6354    10414.958    14457.299    25680.758    38651.499    2221.7937    89.657237 
   36400     2487.332   -109.82925    2.2505903   -107.57866   -20982.809    4.4726549    4.4726549    4.4726549   -20982.809   -1366.4961   -63234.872    1652.9403    5333.1217   -23381.795   -11588.375    89.473862 
   36500    1592.4764    -109.0431    1.4409061   -107.60219    14665.116    4.4433088    4.4433088    4.4433088    14665.116    20422.483    43952.271   -20379.407   -22180.451    53102.035    9847.1956    87.724214 
   36600    1534.4817   -109.01987    1.3884313   -107.63144    30359.013      4.42123      4.42123      4.42123    30359.013    33231.374     22729.44    35116.224    41203.446    17092.971   -7024.5033    86.422998 
   36700    2377.0226   -109.81849      2.15078   -107.66771    4943.5614    4.4515846    4.4515846    4.4515846    4943.5614    24186.695    3304.2026   -12660.213   -4086.9144     7198.052    1579.0418    88.215294 
   36800    1446.5148   -108.94606     1.308837   -107.63722   -62716.039    4.4923095    4.4923095    4.4923095   -62716.039   -97866.445   -34776.414   -55505.258    12273.659    51592.671    3109.6365    90.658601 
   36900    2015.1839   -109.41439    1.8233808   -107.59101   -13651.515    4.4613294    4.4613294    4.4613294   -13651.515   -1686.6251   -22055.375   -17212.544    39162.734   -32960.065   -19209.466    88.795891 
   37000    1798.6646   -109.19687    1.6274695   -107.56941    4296.9704    4.4282419    4.4282419    4.4282419    4296.9704   -6950.3563    44368.488   -24527.221    -25339.19    46852.091    3068.0556    86.834838 
   37100    1850.6849   -109.29255    1.6745386   -107.61801   -3919.2609    4.4312553    4.4312553    4.4312553   -3919.2609   -6688.2195   -17059.937    11990.373    4668.3576    12515.066    2863.6498    87.012233 
   37200     1972.781    -109.4337    1.7850137   -107.64869    9114.6717    4.4440574    4.4440574    4.4440574    9114.6717    32815.729    23064.487   -28536.201    20761.185   -21493.329   -11157.205    87.768561 
   37300     1416.265   -108.94571    1.2814663   -107.66424   -11928.149    4.4820697    4.4820697    4.4820697   -11928.149   -22623.741    20829.193   -33989.898   -24538.147     34765.44    18121.672    90.040069 
   37400    2846.3628   -110.15499    2.5754489   -107.57954   -30930.074    4.4904128    4.4904128    4.4904128   -30930.074    3031.7297    -57103.68   -38718.271    4181.9919   -7437.2296   -4405.7922    90.543815 
   37500    1158.3485   -108.63923    1.0480981   -107.59113   -4797.4371     4.448754     4.448754     4.448754   -4797.4371    1033.0193    42576.676   -58002.007   -163.65522    18472.078    29824.678    88.047122 
   37600    2037.2529   -109.42361    1.8433493   -107.58026    10260.935    4.4268009    4.4268009    4.4268009    10260.935    7568.5317    677.69081    22536.582   -21560.213     10021.94   -4936.4941    86.750099 
   37700     2277.723   -109.68079    2.0609317   -107.61986   -19363.401     4.459539     4.459539     4.459539   -19363.401    4904.0679   -22798.354   -40195.917    13324.883    12365.843   -12983.107    88.689031 
   37800    1619.4881   -109.04606    1.4653469   -107.58072   -16848.792    4.4910038    4.4910038    4.4910038   -16848.792   -5531.9418   -63.099446   -44951.335   -26662.607   -5166.8427    22708.773    90.579574 
   37900    1895.4516   -109.25717    1.7150444   -107.54212   -26712.904    4.4827151    4.4827151    4.4827151   -26712.904   -26589.431   -46113.604   -7435.6781    13993.608    21042.041   -33882.791     90.07897 
   38000    1857.1452   -109.23605     1.680384   -107.55567   -25544.655    4.4514629    4.4514629    4.4514629   -25544.655   -8123.7168   -24918.879    -43591.37   -2295.8244    25201.371    17750.291     88.20806 
   38100    2666.0272   -109.96324    2.4122774   -107.55096    30896.117    4.4327238    4.4327238    4.4327238    30896.117    47926.339   -8535.4149    53297.426   -10989.425   -2018.8927    -31280.23    87.098769 
   38200    1109.3419   -108.63906    1.0037558    -107.6353   -17787.027    4.4598675    4.4598675    4.4598675   -17787.027   -18499.319   -31569.484   -3292.2764    9469.9342    22288.538    -5272.063     88.70863 
   38300     2676.927   -110.01038    2.4221398   -107.58824   -8166.2566    4.4738866    4.4738866    4.4738866   -8166.2566    3696.1219   -27170.116   -1024.7755    1545.7835   -13156.019    8515.9846      89.5478 
   38400    1856.5034   -109.28237    1.6798033   -107.60257   -20344.432    4.4477742    4.4477742    4.4477742   -20344.432    2058.2811   -14880.777   -48210.801   -4526.1219    25939.743   -20442.646     87.98896 
   38500    1801.6471   -109.23193    1.6301682   -107.60176    6516.5437    4.4348343    4.4348343    4.4348343    6516.5437   -10407.086   -27001.343     56958.06   -14221.016    11374.194    28357.094    87.223234 
   38600    1726.0486   -109.17503    1.5617651   -107.61327    -16788.42    4.4533861    4.4533861    4.4533861    -16788.42    -31839.58   -62497.462     43971.78     -43253.9   -13742.452   -19299.298    88.322439 
   38700    1765.8831    -109.2074    1.5978081   -107.60959   -20566.852    4.4663286    4.4663286    4.4663286   -20566.852    5499.7084   -24716.283   -42483.981    5249.2774    12624.536   -7525.3248    89.094732 
   38800    2602.1629   -109.94264    2.3544917   -107.58815   -3193.1421    4.4663202    4.4663202    4.4663202   -3193.1421    6545.7299    -28188.36    12063.204   -6992.0593   -7140.8556   -4544.5085    89.094228 
   38900    1296.4778   -108.78052    1.1730803   -107.60744   -24614.056     4.446987     4.446987     4.446987   -24614.056    33719.849    -34060.99   -73501.027    5606.5023    16053.707    -38104.04    87.942249 
   39000    2470.1584   -109.82953    2.2350512   -107.59448    30414.754    4.4241232    4.4241232    4.4241232    30414.754    56423.648    9013.8264    25806.787   -734.94086    2978.8373    3312.2118    86.592769 
   39100    2223.4616   -109.64694    2.0118348   -107.63511    10935.246    4.4376829    4.4376829    4.4376829    10935.246     34433.24   -2140.3183    512.81567    -8656.213   -2244.5839   -18952.966    87.391422 
   39200     1409.931     -108.925    1.2757352   -107.64926   -9350.7662    4.4636072    4.4636072    4.4636072   -9350.7662    15208.079   -7433.7853   -35826.593    -5242.085    21160.841   -6306.5428     88.93197 
   39300     2512.323   -109.86157    2.2732026   -107.58837   -15762.273    4.4800961    4.4800961    4.4800961   -15762.273   -25922.718   -49412.645    28048.545    15006.685   -17435.428   -13908.101    89.921175 
   39400    1149.0784   -108.60528    1.0397103   -107.56557   -33543.078    4.4839011    4.4839011    4.4839011   -33543.078   -41706.802    7219.3928   -66141.825   -1289.8727    49074.777   -5024.8941    90.150488 
   39500    2527.9543    -109.8158    2.2873462   -107.52846    6232.1973    4.4467617    4.4467617    4.4467617    6232.1973    64353.248   -26766.645   -18890.011    14033.369    5228.7876   -10099.749    87.928889 
   39600    1481.9758   -108.89422    1.3409228   -107.55329   -13191.894    4.4165354    4.4165354    4.4165354   -13191.894    56423.528   -32686.262   -63312.947    20074.589    25115.219   -63646.219    86.147987 
   39700    2565.1951   -109.91352    2.3210424   -107.59248   -439.52936    4.4306963    4.4306963    4.4306963   -439.52936    15550.027    9286.5267   -26155.142   -5911.8362    41661.202    26724.217     86.97931 
   39800    1354.0326   -108.85212    1.2251572   -107.62697   -23072.663    4.4668489    4.4668489    4.4668489   -23072.663    51834.499    -34664.64   -86387.849   -5556.6581   -13751.824   -85255.635    89.125874 
   39900    2186.6571   -109.53978    1.9785333   -107.56125    1444.3396    4.4808786    4.4808786    4.4808786    1444.3396   -16204.327    68097.329   -47559.984    -7749.274    32086.716    25187.253    89.968306 
   40000    1380.8013   -108.78873    1.2493781   -107.53935    8015.7646    4.4760586    4.4760586    4.4760586    8015.7646    53426.061    9787.7706   -39166.538   -3209.3098   -12904.815   -75978.953    89.678287 
   40100    2652.1536   -109.89817    2.3997243   -107.49845   -23172.294    4.4723179    4.4723179    4.4723179   -23172.294   -10102.461    484.00186   -59898.424    9839.1731    43043.382    25514.355    89.453639 
   40200    1542.5924   -108.92479      1.39577   -107.52902   -8957.3742    4.4670569    4.4670569    4.4670569   -8957.3742    33518.473   -16665.042   -43725.553    4910.3132    4913.1557   -80168.387     89.13832 
   40300    2847.8731   -110.09321    2.5768154    -107.5164    21800.201    4.4589035    4.4589035    4.4589035    21800.201    29993.086   -6642.1375    42049.653    5821.9502   -16784.205    19963.702    88.651117 
   40400     654.1579   -108.17248   0.59189581   -107.58059    13813.993    4.4566932    4.4566932    4.4566932    13813.993     34415.54   -666.11346    7692.5514    2202.1612     19395.66   -103907.66    88.519351 
   40500    2968.3779   -110.23324    2.6858507   -107.54739    5381.8784    4.4678757    4.4678757    4.4678757    5381.8784   -40181.808    14634.352    41693.091   -2549.6313   -13257.152    21225.407    89.187346 
   40600    1191.1513   -108.64387    1.0777787   -107.56609   -24030.286    4.4797746    4.4797746    4.4797746   -24030.286    12008.378   -65715.638   -18383.598    11664.417    17466.979   -77693.599    89.901821 
   40700    2616.7625   -109.90138    2.3677017   -107.53368   -23699.895    4.4724001    4.4724001    4.4724001   -23699.895   -52011.242    10712.337   -29800.781   -7119.7214    24791.078    29069.872    89.458568 
   40800    1346.9029   -108.76427    1.2187061   -107.54556   -8864.7939     4.454165     4.454165     4.454165   -8864.7939    101513.31   -81924.514   -46183.178   -2004.3788   -11796.617   -97125.246    88.368792 
   40900    2531.7517   -109.81362    2.2907821   -107.52284    15302.063    4.4462757    4.4462757    4.4462757    15302.063    6062.1396    29738.306    10105.742   -6226.3705     8889.057    33725.075    87.900056 
   41000    1151.5147   -108.61705    1.0419147   -107.57514    -17592.92    4.4511062    4.4511062    4.4511062    -17592.92    19017.139   -40613.208    -31182.69    15016.196    8963.2861   -102416.63     88.18686 
   41100    2859.1225   -110.16122    2.5869941   -107.57422    5793.4992    4.4496572    4.4496572    4.4496572    5793.4992   -2598.7401    549.82281    19429.415    87.078894   -5631.0842    15443.565    88.100761 
   41200    1316.0291   -108.80399    1.1907708   -107.61322   -8486.5319    4.4445596    4.4445596    4.4445596   -8486.5319    65149.346   -33993.632    -56615.31    3847.9303    16801.858   -84144.816    87.798317 
   41300    2530.1456   -109.88627     2.289329   -107.59694   -12741.787    4.4504802    4.4504802    4.4504802   -12741.787    -11126.21   -18421.281   -8677.8694    25373.478    4618.6485   -1712.9791    88.149655 
   41400    1120.3463   -108.61324    1.0137128   -107.59953    2722.0645    4.4654936    4.4654936    4.4654936    2722.0645    98352.303   -9305.1998    -80880.91    12480.279   -14348.865    -82543.49    89.044769 
   41500    2519.4397   -109.81071     2.279642   -107.53107    -8937.572     4.471541     4.471541     4.471541    -8937.572     3786.032    14231.286   -44830.034    561.96522    8343.4383    18472.653    89.407029 
   41600     1254.191   -108.67925    1.1348184   -107.54443   -2908.8696    4.4490127    4.4490127    4.4490127   -2908.8696    37149.635   -9470.5009   -36405.743    2279.7813   -3067.4223   -90387.632    88.062484 
   41700    2604.7982   -109.90775    2.3568761   -107.55087    28660.034    4.4321712    4.4321712    4.4321712    28660.034    6115.9847    78716.375     1147.743    672.94267    4800.5936    4200.8075    87.066199 
   41800    1135.9692   -108.63045    1.0278488    -107.6026    8517.2113    4.4389131    4.4389131    4.4389131    8517.2113    40334.717   -33366.911    18583.828   -203.95307    7349.7655   -73881.457    87.464121 
   41900    1923.5077    -109.3442    1.7404302   -107.60377   -9174.1245    4.4588894    4.4588894    4.4588894   -9174.1245   -19907.051   -12714.941    5099.6182    5978.8007   -201.28849   -27601.788    88.650275 
   42000    2180.2001   -109.56184    1.9726909   -107.58915   -11453.255    4.4616887    4.4616887    4.4616887   -11453.255    10994.563   -40064.678   -5289.6502   -7348.0675   -7986.3441   -31046.993    88.817345 
   42100    1789.8892   -109.19893    1.6195293   -107.57941    -8109.604    4.4509983    4.4509983    4.4509983    -8109.604    24361.628   -54761.655    6071.2147    1694.0065    6587.2277   -46503.576    88.180445 
   42200    1908.9417   -109.29683    1.7272506   -107.56958    -1633.017    4.4448686    4.4448686    4.4448686    -1633.017   -22798.708   -3955.2778    21854.935    9913.1034   -5907.0438   -18246.052    87.816633 
   42300    1657.9126   -109.09336    1.5001141   -107.59325   -8164.4276    4.4365923    4.4365923    4.4365923   -8164.4276    35690.717   -31807.949   -28376.051    3303.4607    -5012.838   -70356.064    87.327006 
   42400    2177.3397   -109.55901    1.9701027   -107.58891     19742.42    4.4390683    4.4390683    4.4390683     19742.42    22593.078    27502.592    9131.5902     11852.22    18166.709    16002.613    87.473295 
   42500    1376.9428   -108.86345    1.2458868   -107.61757   -12489.345    4.4613799    4.4613799    4.4613799   -12489.345    60475.797   -55584.519   -42359.315    5184.7615   -14833.315   -78410.145    88.798904 
   42600     2327.073   -109.65998    2.1055845    -107.5544   -13472.923    4.4674399    4.4674399    4.4674399   -13472.923   -19687.863    4687.1193   -25418.026   -7616.2069    18170.262    27191.341    89.161254 
   42700    1231.9836   -108.66945    1.1147246   -107.55473    8960.1969    4.4557833    4.4557833    4.4557833    8960.1969      19024.6    16026.931   -8170.9409    188.61401    7181.1775   -73373.513    88.465142 
   42800    2557.0312   -109.85596    2.3136555    -107.5423    17699.391    4.4472917    4.4472917    4.4472917    17699.391   -7567.7276    55971.322    4694.5777   -127.89532   -10437.265    37081.912    87.960328 
   42900    1070.5661   -108.56379   0.96867073   -107.59512    2075.2035    4.4302768    4.4302768    4.4302768    2075.2035    64878.843    7069.6164   -65722.849    -17791.98    12371.347    -72481.67    86.954607 
   43000    2852.5198   -110.17335    2.5810199   -107.59233    19047.315    4.4297666    4.4297666    4.4297666    19047.315   -8248.8999    38679.946    26710.898   -582.69118   -7050.5988    4391.4093    86.924565 
   43100    1642.2939   -109.11456     1.485982   -107.62857    -9206.934    4.4496523    4.4496523    4.4496523    -9206.934    3640.7923     -8988.88   -22272.714    7734.4621   -6616.9158   -25752.666    88.100474 
   43200    2064.9405   -109.47558    1.8684016   -107.60718    3990.3077     4.459516     4.459516     4.459516    3990.3077    60254.513   -23310.908   -24972.681     1367.019   -4567.5966   -45901.973    88.687659 
   43300    1847.7142   -109.26464    1.6718506   -107.59279    2198.6274    4.4625351    4.4625351    4.4625351    2198.6274   -36625.035   -2847.1808    46068.098   -10684.798   -23823.848    14206.243    88.867901 
   43400    1815.6659   -109.21632    1.6428527   -107.57346   -18065.062    4.4559335    4.4559335    4.4559335   -18065.062    193.23474   -17099.393   -37289.027   -5533.3669    13734.521   -64813.374    88.474088 
   43500    1857.9279    -109.2438    1.6810922   -107.56271    9205.2334    4.4394841    4.4394841    4.4394841    9205.2334   -17683.875    53242.035     -7942.46    9271.2349   -52851.192    7735.7189    87.497877 
   43600    2275.4564   -109.63214    2.0588807   -107.57325   -14970.955    4.4471796    4.4471796    4.4471796   -14970.955     49355.21   -55784.879   -38483.197   -6995.4779    24453.419   -43983.845    87.953677 
   43700    1388.0405      -108.86    1.2559282   -107.60407   -24100.876    4.4464972    4.4464972    4.4464972   -24100.876   -3001.3668    4943.5034   -74244.764    1838.8569   -72225.736   -16200.882    87.913194 
   43800    2497.0529   -109.85459     2.259386    -107.5952    10070.964    4.4329718    4.4329718    4.4329718    10070.964    36360.668    13997.583   -20145.358    12959.564    -2635.212    -1279.128    87.113389 
   43900     1336.043   -108.83491    1.2088798   -107.62603   -13537.583    4.4459912    4.4459912    4.4459912   -13537.583    45200.357   -29804.466   -56008.639   -7526.1129   -28712.345   -49133.286    87.883186 
   44000    1833.2307   -109.26204    1.6587456   -107.60329   -33431.081    4.4608765    4.4608765    4.4608765   -33431.081   -48765.733    16809.071   -68336.581   -9623.1391    -61465.62    13993.024    88.768848 
   44100    1908.9188    -109.3096    1.7272299   -107.58237    11641.233    4.4630449    4.4630449    4.4630449    11641.233    64587.618   -4784.3516   -24879.567    -19245.25    -1160.351   -42393.972    88.898366 
   44200    1910.3474   -109.28711    1.7285225   -107.55859   -15004.598    4.4742749    4.4742749    4.4742749   -15004.598   -7864.8853    21851.908   -59000.815   -581.29557    -48049.14    19978.072     89.57112 
   44300    2409.6963   -109.69765    2.1803439   -107.51731   -6209.6279    4.4649172    4.4649172    4.4649172   -6209.6279    12064.305   -21785.586   -8907.6023    9404.5852    21023.431    -33651.11    89.010294 
   44400    1310.5137   -108.71256    1.1857803   -107.52678    42970.326    4.4470536    4.4470536    4.4470536    42970.326    11756.744    71788.966    45365.268   -15153.731    -78487.88   -8825.0283    87.946201 
   44500    2634.3794   -109.91175    2.3836419    -107.5281   -20520.578    4.4587033    4.4587033    4.4587033   -20520.578   -18411.263   -26817.913   -16332.559    6510.1927    19581.941   -17482.051    88.639179 
   44600    832.86422   -108.33729   0.75359305    -107.5837   -11903.041    4.4540207    4.4540207    4.4540207   -11903.041   -19373.097    39384.867   -55720.891   -6402.4791    -68926.65   -47931.862    88.360199 
   44700    3305.4694   -110.55375    2.9908582   -107.56289   -8168.0574    4.4541676    4.4541676    4.4541676   -8168.0574   -29055.094    2418.6818    2132.2397    26735.372    23373.896    36337.682    88.368944 
   44800    740.79078   -108.29521   0.67028307   -107.62493   -50674.473    4.4485244    4.4485244    4.4485244   -50674.473   -37664.134   -5652.3326   -108706.95    -10967.17   -87708.667    -51029.11    88.033492 
   44900    2431.7732   -109.80706    2.2003195   -107.60674    19241.354    4.4194027    4.4194027    4.4194027    19241.354    33797.758    8456.4965    15469.807     10944.91    15958.344    -5172.821    86.315886 
   45000    1528.2591   -109.01404     1.382801   -107.63124   -6198.4114    4.4425905    4.4425905    4.4425905   -6198.4114   -5621.6242    41815.054   -54788.664   -10632.153   -70362.824   -12941.628    87.681676 
   45100    1744.8987   -109.19279     1.578821   -107.61397    -22076.73      4.46307      4.46307      4.46307    -22076.73   -965.62268   -9967.4108   -55297.156   -2143.7382   -24705.457   -40780.401    88.899865 
   45200    2355.4571   -109.69596    2.1312671    -107.5647   -9352.8545    4.4664136    4.4664136    4.4664136   -9352.8545   -8776.6841    17300.498   -36582.378    10339.979   -26591.716    26580.631    89.099817 
   45300    1160.1809   -108.62437     1.049756   -107.57461    -20141.33    4.4596234    4.4596234    4.4596234    -20141.33    36045.054    -26746.65   -69722.395     4291.664    -43886.19   -57326.741    88.694066 
   45400    2351.5406     -109.685    2.1277234   -107.55728    3815.0368    4.4334327    4.4334327    4.4334327    3815.0368    45516.363   -16102.903   -17968.349    10806.457    17535.031   -2938.3439    87.140561 
   45500     1350.076   -108.81645    1.2215771   -107.59487    6154.2519    4.4205931    4.4205931    4.4205931    6154.2519    18919.231    53510.401   -53966.876   -3227.0605   -80143.108   -474.83495    86.385655 
   45600    2784.3878   -110.12552    2.5193726   -107.60614    3826.0517    4.4386756    4.4386756    4.4386756    3826.0517    53427.642   -35580.165   -6369.3219   -2411.9835    24651.333   -27313.179    87.450083 
   45700    900.12697   -108.44966   0.81445379    -107.6352   -14175.626    4.4551433    4.4551433    4.4551433   -14175.626    11882.167     9707.797   -64116.842   -17676.493   -66523.517    15564.089    88.427032 
   45800    2484.8472   -109.85589     2.248342   -107.60755   -14603.381    4.4448422    4.4448422    4.4448422   -14603.381    1121.4211   -8651.3739    -36280.19   -4429.0604    38179.743   -386.40835    87.815068 
   45900    1856.9286    -109.2875     1.680188   -107.60731    4286.5513    4.4280294    4.4280294    4.4280294    4286.5513   -1327.6846    30258.031   -16070.692    26774.322   -69494.028    1088.2716    86.822342 
   46000    1601.1321   -109.07866    1.4487379   -107.62993   -21894.878    4.4348483    4.4348483    4.4348483   -21894.878   -18076.673    16749.186   -64357.148   -28968.573   -1243.7193    25701.932    87.224061 
   46100    1912.7872   -109.36383    1.7307301    -107.6331   -11533.857    4.4389238    4.4389238    4.4389238   -11533.857   -25399.139   -15528.699     6326.267    30749.421    19374.018   -10695.779    87.464751 
   46200    1878.8737   -109.33653    1.7000444   -107.63649   -38650.731    4.4483993    4.4483993    4.4483993   -38650.731   -47052.208   -15447.694   -53452.292    22283.004    -54818.83    6129.0762    88.026065 
   46300    1836.5447   -109.28132    1.6617442   -107.61958    -27179.24    4.4526561    4.4526561    4.4526561    -27179.24   -12215.092   -36586.326   -32736.302   -30905.021    18699.264    32709.385    88.279013 
   46400    1682.2166   -109.13299    1.5221049   -107.61088    5312.1703    4.4364778    4.4364778    4.4364778    5312.1703    -17449.63   -9525.8221    42911.963    56128.566    2642.5555   -30225.061    87.320245 
   46500    2234.1362   -109.62938    2.0214934   -107.60788   -1698.5281    4.4367571    4.4367571    4.4367571   -1698.5281    34733.924   -20155.764   -19673.744   -29718.402   -23273.558    37258.714    87.336734 
   46600    1723.4016    -109.1801      1.55937   -107.62073   -14313.275    4.4527858    4.4527858    4.4527858   -14313.275   -18062.525   -38763.335    13886.034    29216.763    3877.9256   -10215.332    88.286728 
   46700    2254.3125   -109.64922    2.0397493   -107.60947    -7282.861    4.4539353    4.4539353    4.4539353    -7282.861    5271.1585   -53633.787    26514.045    9240.6406    2419.5117    16345.133    88.355116 
   46800    1925.8571   -109.36804    1.7425559   -107.62548    1546.0528    4.4344507    4.4344507    4.4344507    1546.0528    25261.028   -1219.5077   -19403.362    2211.7444   -11898.462    38519.989    87.200604 
   46900    1480.7185   -108.97221    1.3397852   -107.63242    26146.267    4.4237522    4.4237522    4.4237522    26146.267    22596.935   -2615.8456    58457.711    36707.336     1705.719   -20722.786    86.570988 
   47000    1771.9834   -109.24661    1.6033278   -107.64328    9448.3029    4.4471854    4.4471854    4.4471854    9448.3029    32338.698   -11701.269    7707.4794   -13483.597    -3029.964    49382.701    87.954024 
   47100    2232.5016    -109.6247    2.0200143   -107.60468   -174.21884    4.4651568    4.4651568    4.4651568   -174.21884   -16144.491   -8500.2117    24122.047    35609.983   -22102.707   -13948.322    89.024624 
   47200    1813.6639   -109.22487    1.6410412   -107.58383   -17598.314     4.462502     4.462502     4.462502   -17598.314     28124.73   -80517.919   -401.75403   -11509.313    17063.195    43302.011    88.865925 
   47300    1859.0858    -109.2653    1.6821399   -107.58316   -16803.258    4.4454278    4.4454278    4.4454278   -16803.258    11275.272   -36345.793   -25339.251   -9303.0609   -8642.3199    16127.811    87.849783 
   47400     2015.049   -109.41212    1.8232587   -107.58887    37298.626    4.4163976    4.4163976    4.4163976    37298.626    37248.123    40317.232    34330.521      8734.32   -44581.235    5913.4079    86.139926 
   47500     1968.794   -109.41417    1.7814062   -107.63277    1429.2934    4.4274657    4.4274657    4.4274657    1429.2934    77651.494   -49993.314     -23370.3    3647.2901     18232.15    48601.028    86.789187 
   47600    1467.2473   -108.96781    1.3275962   -107.64021     -17340.4    4.4517259    4.4517259    4.4517259     -17340.4   -39265.861   -8205.3855   -4549.9543   -16040.147    -26784.89   -32678.924    88.223696 
   47700    2395.7595   -109.77588    2.1677336   -107.60815   -21991.539    4.4664852    4.4664852    4.4664852   -21991.539   -28710.509   -18482.069   -18782.038    5819.0446   -18821.203    42445.134    89.104105 
   47800    1350.7963   -108.81201    1.2222289   -107.58978   -54108.632    4.4707986    4.4707986    4.4707986   -54108.632   -41005.352   -74044.085   -47276.459   -13155.362   -946.27458   -29270.861    89.362501 
   47900    2217.3953   -109.58772    2.0063458   -107.58137   -138.90038    4.4307481    4.4307481    4.4307481   -138.90038   -9518.5329   -2571.4139    11673.246    8259.5244   -35484.415    6349.0323    86.982358 
   48000    2450.6971   -109.79862    2.2174422   -107.58118    207.98865    4.4227587    4.4227587    4.4227587    207.98865   -4191.6966   -13027.292    17842.954    -20186.54    6080.6104    4396.9872    86.512674 
   48100    1311.1326   -108.80434    1.1863403     -107.618   -18633.931    4.4389721    4.4389721    4.4389721   -18633.931   -62782.894    14681.785   -7800.6846   -25811.288   -14405.866   -40066.616    87.467608 
   48200    2201.2691   -109.59878    1.9917545   -107.60702   -8222.9146     4.451568     4.451568     4.451568   -8222.9146    2333.4093   -20735.326   -6266.8275    6463.5499     3370.604    49071.689    88.214311 
   48300     1797.667   -109.22593    1.6265669   -107.59937   -44959.785    4.4675288    4.4675288    4.4675288   -44959.785   -42654.155   -69473.723   -22751.478   -28477.984   -22105.569   -22156.199    89.166574 
   48400    2005.5276   -109.39283    1.8146435   -107.57818    4903.6184    4.4436022    4.4436022    4.4436022    4903.6184    75914.788   -24750.659   -36453.274    18448.141   -4361.0081    38471.665    87.741593 
   48500    1927.3073   -109.32302    1.7438682   -107.57915    12104.074     4.426112     4.426112     4.426112    12104.074    28004.421   -37450.384    45758.185   -29171.712   -440.33603    12335.431    86.709601 
   48600    1573.0045   -109.03021    1.4232875   -107.60693   -1057.0611    4.4336331    4.4336331    4.4336331   -1057.0611    6622.4109   -21486.112    11692.517   -24280.239   -18843.313    -4926.866    87.152378 
   48700    1786.1795   -109.23593    1.6161727   -107.61975    4771.5012    4.4449056    4.4449056    4.4449056    4771.5012    30909.881   -17509.044    913.66655    5447.0678    -2309.506    47383.191    87.818828 
   48800    2020.3924   -109.43697    1.8280935   -107.60887    -10076.84    4.4589343    4.4589343    4.4589343    -10076.84   -63565.699   -16816.213    50151.393   -38653.349    19355.938   -17631.103    88.652954 
   48900    1932.6451   -109.34535    1.7486979   -107.59665   -1245.2691    4.4467491    4.4467491    4.4467491   -1245.2691     1167.312   -7280.3563    2377.2369     6945.067   -23899.878    60753.158    87.928138 
   49000    2075.0282   -109.46945    1.8775291   -107.59192    16386.269    4.4307435    4.4307435    4.4307435    16386.269   -29133.751    48812.384    29480.175   -32626.841    5201.5146   -13370.708    86.982088 
   49100    1390.3784   -108.87738    1.2580436   -107.61934   -11656.205     4.432886     4.432886     4.432886   -11656.205   -14642.967   -32908.313    12582.666   -7019.1909    19916.766    33519.138    87.108328 
   49200    2301.2825    -109.7025    2.0822488   -107.62025    44749.585    4.4250015    4.4250015    4.4250015    44749.585    56674.802    58860.603    18713.349    196.28406   -7677.8019    22560.818    86.644355 
   49300    1559.3804   -109.05799    1.4109602   -107.64703    380.92658    4.4511179    4.4511179    4.4511179    380.92658    12134.785   -15797.365    4805.3594   -42206.427    22744.781   -9368.2852    88.187551 
   49400     2075.522   -109.48454    1.8779759   -107.60656   -38554.689    4.4647338    4.4647338    4.4647338   -38554.689   -19668.352   -42429.067   -53566.648    29312.253    3511.7378    29574.196    88.999323 
   49500    1617.4617   -109.04628    1.4635134   -107.58277    12921.519    4.4431132    4.4431132    4.4431132    12921.519    31842.478    -24236.88     31158.96   -57074.772   -37221.578   -12085.528    87.712629 
   49600    2227.3066   -109.58795    2.0153138   -107.57264   -15299.919    4.4413936    4.4413936    4.4413936   -15299.919    2727.2446    13100.859   -61727.861    19832.052    47525.386     29470.59    87.610831 
   49700    1497.2038   -108.94523    1.3547015   -107.59053     6282.806    4.4314759    4.4314759    4.4314759     6282.806    33637.164   -5073.2488    -9715.497   -39614.871   -9956.9371    8345.6379    87.025227 
   49800    2041.3868   -109.45394    1.8470897   -107.60685    -4019.544    4.4340739    4.4340739    4.4340739    -4019.544   -21504.409    15113.972   -5668.1951   -26488.542    15930.843    3806.1207    87.178378 
   49900    1888.0675   -109.32736    1.7083632     -107.619   -25192.979    4.4511347    4.4511347    4.4511347   -25192.979   -40562.808    22623.505   -57639.635    9943.9134    41617.809    14200.524    88.188551 
   50000    2115.1476   -109.52054      1.91383   -107.60671      7604.61    4.4360223    4.4360223    4.4360223      7604.61    7215.6792    -1478.437    17076.588   -42290.554   -16160.362    7976.7085     87.29335 
   50100    1663.3352   -109.11698    1.5050207   -107.61196    12166.213    4.4397662    4.4397662    4.4397662    12166.213   -50135.203    55119.234    31514.608    30843.983    63911.315    4055.2685    87.514561 
   50200    2221.2102   -109.59463    2.0097977   -107.58483   -17183.505    4.4541134    4.4541134    4.4541134   -17183.505   -17271.977    -49372.51    15093.971    -30232.69   -39922.378   -11353.287    88.365715 
   50300    1209.8684   -108.68774    1.0947143   -107.59303    16577.406    4.4394189    4.4394189    4.4394189    16577.406    4153.8646    44767.449    810.90543   -9942.4817    73158.941   -5001.4214    87.494019 
   50400    2569.3555   -109.90325    2.3248069   -107.57845     22883.67    4.4471425    4.4471425    4.4471425     22883.67    8652.0982    11427.068    48571.842    7830.9879    -6687.895    6748.1353    87.951477 
   50500    741.18466   -108.27595   0.67063945   -107.60531   -10562.498    4.4598009    4.4598009    4.4598009   -10562.498   -71112.263    92234.129    -52809.36   -35465.975    50323.351    3952.4527    88.704653 
   50600    3183.9344   -110.42107    2.8808907   -107.54018   -16891.768    4.4538166    4.4538166    4.4538166   -16891.768   -5969.5187    551.76009   -45257.545    28199.582   -6877.6035   -27196.854    88.348055 
   50700    1449.9773    -108.8675    1.3119699   -107.55553   -19883.042    4.4607571    4.4607571    4.4607571   -19883.042   -47929.958    19489.818   -31208.985   -22243.735    50161.915   -1611.2171    88.761722 
   50800    2262.7243   -109.57363    2.0473605   -107.52627   -14904.331    4.4560576    4.4560576    4.4560576   -14904.331   -19517.062    -1597.839   -23598.093    3053.7397    6637.4303    8693.2811    88.481484 
   50900    1277.4763   -108.70706    1.1558874   -107.55117   -188.80872    4.4349158    4.4349158    4.4349158   -188.80872    44383.618   -53025.153    8075.1092    17227.908    28686.469    5035.9797    87.228046 
   51000     1856.492   -109.26309    1.6797929    -107.5833    6531.1979    4.4309998    4.4309998    4.4309998    6531.1979    5160.2532   -10235.534    24668.875    -27734.42    47077.412    1035.0671    86.997182 
   51100    2210.2124   -109.60989    1.9998466   -107.61004    11803.031    4.4334925    4.4334925    4.4334925    11803.031    17302.951   -22997.915    41104.058    23807.266   -25952.509   -13229.953    87.144089 
   51200    1508.9513   -109.00939    1.3653308   -107.64405   -3107.0221    4.4445918    4.4445918    4.4445918   -3107.0221   -5868.2894    11852.657   -15305.434   -715.94057    76863.596   -6474.2298    87.800229 
   51300    2614.8951   -109.98364     2.366012   -107.61763   -10219.654    4.4460706    4.4460706    4.4460706   -10219.654   -48353.845    10105.649    7589.2346   -4068.3544   -60244.761    970.99135    87.887894 
   51400     1503.181   -108.98229    1.3601097   -107.62218    32400.643    4.4290281    4.4290281    4.4290281    32400.643    36043.917     24537.22    36620.793    13412.713    21023.696    488.60516    86.881101 
   51500     2007.585   -109.43134    1.8165051   -107.61483    12814.194    4.4312761    4.4312761    4.4312761    12814.194   -20458.438    29326.244    29574.778   -11572.387   -8361.5049    1848.7903    87.013458 
   51600    1567.5722   -109.03925    1.4183723   -107.62088     -7830.81    4.4401004    4.4401004    4.4401004     -7830.81   -51468.941    21081.326    6895.1848    26306.749   -64546.623   -692.45132    87.534322 
   51700    2006.6177   -109.41195    1.8156299   -107.59632    10692.214    4.4462724    4.4462724    4.4462724    10692.214   -31668.556    21791.535    41953.664    6931.3043    32726.749    2117.5058    87.899863 
   51800    1542.9076   -108.99216    1.3960552   -107.59611   -33979.776    4.4591688    4.4591688    4.4591688   -33979.776   -106481.71    46075.255   -41532.877   -17298.142   -92501.812    10118.955    88.666945 
   51900    2555.2104   -109.89135     2.312008   -107.57935    8198.5117    4.4359944    4.4359944    4.4359944    8198.5117   -25664.119   -22068.969    72328.623    42553.105    24582.539    -1378.341    87.291701 
   52000    1523.1596   -108.98235    1.3781868   -107.60416    5847.8084    4.4153081    4.4153081    4.4153081    5847.8084   -47960.215    59865.333     5638.307    1928.3672   -83045.801    8214.2528    86.076189 
   52100    2653.2992   -110.01457    2.4007608   -107.61381    11451.122     4.427001     4.427001     4.427001    11451.122    16415.928   -97.778706    18035.216   -7611.2067    17363.474    2970.6287    86.761861 
   52200    1299.7922   -108.81699    1.1760793   -107.64091    450.67936    4.4491616    4.4491616    4.4491616    450.67936   -20591.068    7326.1903    14616.916    16282.151   -67732.217   -15711.151     88.07133 
   52300    2059.7955   -109.47193    1.8637463   -107.60818    -14727.92    4.4660584    4.4660584    4.4660584    -14727.92   -31363.842    5565.7629   -18385.682    464.36263   -17441.245    13081.118     89.07856 
   52400     1690.401    -109.1202    1.5295103   -107.59069   -6079.6338    4.4550396    4.4550396    4.4550396   -6079.6338   -17311.085    13839.075   -14766.892   -2255.2149   -28667.693   -13266.823    88.420851 
   52500    1488.5702    -108.9402    1.3468896   -107.59331    3265.2354    4.4302272    4.4302272    4.4302272    3265.2354   -7512.6184    29931.713   -12623.388    21214.092   -76378.286   -6495.9023    86.951682 
   52600    2960.0305   -110.26415    2.6782978   -107.58585    36113.256    4.4258715    4.4258715    4.4258715    36113.256    46266.111    48752.239    13321.418   -2380.2831    13176.772    8943.9639    86.695467 
   52700    1293.0595   -108.79635    1.1699874   -107.62636   -8854.3795    4.4611075    4.4611075    4.4611075   -8854.3795   -39232.369    50771.771   -38102.541    10628.294   -59305.101   -1959.0821    88.782645 
   52800    2497.0331   -109.81378    2.2593681   -107.55441   -31086.078     4.477649     4.477649     4.477649   -31086.078   -4917.4914   -78616.814   -9723.9278    8640.0415    20560.127   -11072.256     89.77391 
   52900    1697.0293   -109.07892    1.5355078   -107.54341   -7721.9346    4.4560751    4.4560751    4.4560751   -7721.9346   -23902.337    6917.0807   -6180.5477    -6544.626   -73193.136    10502.136    88.482526 
   53000    1850.2211   -109.22145    1.6741189   -107.54733    4938.5281    4.4321212    4.4321212    4.4321212    4938.5281    1490.2317   -32649.421    45974.773    29057.403    22494.977   -18567.635    87.063251 
   53100    1628.1928   -109.06106     1.473223   -107.58784    10209.693    4.4202269    4.4202269    4.4202269    10209.693   -3615.1331    43760.593   -9516.3822    4595.0192   -63918.706   -6693.3695    86.364187 
   53200    2715.7252   -110.06579    2.4572453   -107.60855   -225.36024    4.4360158    4.4360158    4.4360158   -225.36024    3680.7391   -7808.7482    3451.9284    3759.8471    19247.141     7572.934    87.292969 
   53300    1315.8182   -108.82497    1.1905799   -107.63439   -30721.734    4.4564804    4.4564804    4.4564804   -30721.734   -46033.546   -52273.277    6141.6223    26484.105   -31513.139   -8964.3715    88.506668 
   53400    2526.8511    -109.8911     2.286348   -107.60475   -5057.8225    4.4491646    4.4491646    4.4491646   -5057.8225    20904.268   -29427.188   -6650.5476   -2037.4021   -11600.106    1913.7828    88.071504 
   53500    1388.6607   -108.86999    1.2564894    -107.6135    102.39925    4.4378623    4.4378623    4.4378623    102.39925   -4490.1496   -48174.663     52972.01    31480.564    2980.4582    1354.4991    87.402021 
   53600    2296.4016    -109.6784    2.0778324   -107.60057    13267.233    4.4404812    4.4404812    4.4404812    13267.233    36918.556   -20761.468     23644.61    15132.148   -26578.156    7125.3007    87.556846 
   53700    1847.7192   -109.28828    1.6718552   -107.61642    13116.524     4.442057     4.442057     4.442057    13116.524    20899.755    14087.452    4362.3646    8774.6487    42855.054    10093.568    87.650095 
   53800    1413.1579   -108.89975     1.278655   -107.62109   -4159.2474     4.448818     4.448818     4.448818   -4159.2474    39095.336   -43555.134   -8017.9437    38128.576   -22482.077   -8684.2549    88.050927 
   53900     2157.889   -109.55244    1.9525033   -107.59994   -11422.141     4.445517     4.445517     4.445517   -11422.141   -410.12125   -21667.224   -12189.079   -3632.1484    43026.714   -35745.902    87.855068 
   54000    1793.7548   -109.22823    1.6230271    -107.6052     17048.06    4.4295847    4.4295847    4.4295847     17048.06     5411.531   -26141.351        71874    29789.373    19156.246    9251.2401    86.913858 
   54100     1940.651   -109.37164    1.7559418    -107.6157    -11352.29    4.4354287    4.4354287    4.4354287    -11352.29    21450.601   -45286.504   -10220.968    11163.697    2687.3286    -22539.22    87.258313 
   54200    1424.2246   -108.91865    1.2886683   -107.62998    3171.0934    4.4343081    4.4343081    4.4343081    3171.0934    37638.088    2941.1163   -31065.924   -5734.2483    76830.161   -28434.384     87.19219 
   54300    2709.6073   -110.06123    2.4517096   -107.60952    23226.521    4.4405876    4.4405876    4.4405876    23226.521    58692.108   -25286.093    36273.547    14216.066   -20554.928    13072.915    87.563142 
   54400    831.31922    -108.3804    0.7521951   -107.62821   -46824.561    4.4646397    4.4646397    4.4646397   -46824.561   -36063.337   -1529.5216   -102880.82    -2847.166    77591.927   -37976.248    88.993699 
   54500    2606.9147   -109.94471    2.3587912   -107.58592   -15296.406    4.4486229    4.4486229    4.4486229   -15296.406   -22392.471   -5019.0701   -18477.676   -17030.241   -16803.048    10294.457    88.039338 
   54600    1631.2125   -109.06159    1.4759553   -107.58563   -925.17384    4.4311547    4.4311547    4.4311547   -925.17384    23557.322     13517.92   -39850.763    17977.583    35473.414   -8730.1015    87.006305 
   54700    1913.5381   -109.32946    1.7314095   -107.59805   -9269.1962    4.4322146    4.4322146    4.4322146   -9269.1962   -15547.737    -1525.386   -10734.465   -22130.064    19697.351   -27524.116    87.068754 
   54800    1952.9804    -109.3789    1.7670977    -107.6118    1596.8737    4.4437049    4.4437049    4.4437049    1596.8737    10263.901   -3406.2203   -2067.0601    1014.8171   -5804.7486    17830.821    87.747681 
   54900    1852.4202   -109.29011    1.6761087     -107.614   -12301.757    4.4525102    4.4525102    4.4525102   -12301.757    13583.045   -11825.148   -38663.167    13810.887    25132.019    5898.3224    88.270333 
   55000    1858.6378   -109.29979    1.6817345   -107.61806   -3129.4421    4.4355481    4.4355481    4.4355481   -3129.4421   -22264.296   -26817.414    39693.384   -88363.024   -7014.1448   -14531.628    87.265357 
   55100    2270.7641   -109.65797    2.0546351   -107.60333    15746.425    4.4226433    4.4226433    4.4226433    15746.425    12461.431     61232.29   -26454.445    26153.081    36524.532    5568.9484    86.505904 
   55200    1160.5273   -108.68327    1.0500695    -107.6332   -11937.436    4.4341874    4.4341874    4.4341874   -11937.436   -32854.668   -36014.188    33056.547   -60628.497    9125.3782    8441.3251     87.18507 
   55300    2397.1405   -109.77685    2.1689831   -107.60787   -17074.477    4.4483061    4.4483061    4.4483061   -17074.477   -19087.548   -5994.3796   -26141.504    7665.6867   -16542.566   -34209.249    88.020531 
   55400    1499.4275   -108.95375    1.3567135   -107.59704   -27630.518     4.459065     4.459065     4.459065   -27630.518   -52280.093    2189.1524   -32800.614   -34319.898    29434.237    9827.2616    88.660753 
   55500    2521.5831   -109.84275    2.2815814   -107.56116   -26503.344    4.4537945    4.4537945    4.4537945   -26503.344   -33626.828   -13055.356   -32827.848    -11105.89    -12412.06   -7212.0781    88.346739 
   55600    1459.3712   -108.91667    1.3204697    -107.5962   -15340.606    4.4242852    4.4242852    4.4242852   -15340.606   -31439.931    20436.116   -35018.004   -16118.135   -20300.906     -25333.1    86.602283 
   55700     2631.395   -109.96105    2.3809415   -107.58011    25225.164    4.4103673    4.4103673    4.4103673    25225.164   -274.13248    33657.763    42291.862   -18841.212    25425.334    6340.9003    85.787552 
   55800    841.67577   -108.39438   0.76156592   -107.63281   -49835.071    4.4424197    4.4424197    4.4424197   -49835.071   -3041.1172   -65705.719   -80758.377    14067.995   -40405.121   -34452.895    87.671566 
   55900    2816.8026   -110.14282    2.5487022   -107.59412   -18252.164    4.4540145    4.4540145    4.4540145   -18252.164   -37769.721    8289.2882   -25276.059   -14280.349   -7311.2297    9114.9342     88.35983 
   56000    1440.7613   -108.90045    1.3036311   -107.59682   -42250.961    4.4664057    4.4664057    4.4664057   -42250.961   -18177.749   -22154.061   -86421.073     12672.62   -4326.1986   -23737.338    89.099345 
   56100    2447.2809   -109.79139    2.2143512   -107.57704   -29975.085    4.4446561    4.4446561    4.4446561   -29975.085   -3957.0464   -15332.289   -70635.919   -6266.3049   -37763.666   -9803.3177    87.804036 
   56200    1801.2851   -109.20741    1.6298406   -107.57757    26860.963    4.4015406    4.4015406    4.4015406    26860.963    7053.7006    62936.983    10592.204    5307.1117    55188.508    1902.6794    85.273508 
   56300    1775.1831   -109.23231    1.6062229   -107.62609    2400.3742    4.4073862    4.4073862    4.4073862    2400.3742    43326.692   -26805.593    -9319.976    35232.007   -11943.421   -34773.975    85.613711 
   56400    2129.0084   -109.56472    1.9263715   -107.63835    4573.2123      4.43551      4.43551      4.43551    4573.2123    14980.176    -11594.61     10334.07   -35989.294    11381.146   -1887.6654    87.263111 
   56500    1211.6994   -108.73641    1.0963711   -107.64004   -6013.6726    4.4620823    4.4620823    4.4620823   -6013.6726   -15767.691   -2067.5608   -205.76603    10443.794    23447.503    -10240.93    88.840852 
   56600    2590.5658   -109.91652    2.3439983   -107.57252   -8632.6114    4.4610496    4.4610496    4.4610496   -8632.6114   -27454.118    6673.9099   -5117.6257    962.00157   -28597.349   -6436.8221    88.779187 
   56700    1320.9077   -108.76696     1.195185   -107.57177    1492.2025    4.4343261    4.4343261    4.4343261    1492.2025   -46188.969    2838.3666     47827.21   -26767.977    45272.564   -985.85202    87.193256 
   56800    3052.0753    -110.3053    2.7615819   -107.54372    9620.7702    4.4182527    4.4182527    4.4182527    9620.7702    7232.8199   -11723.985    33353.475    6796.8595   -27515.986   -2165.5446    86.248519 
   56900    504.66774   -108.07758   0.45663397   -107.62094    11153.496    4.4266288    4.4266288    4.4266288    11153.496   -51270.792    35667.942    49063.337   -30677.693    7970.8903   -4293.1351    86.739977 
   57000    2503.7697   -109.87989    2.2654635   -107.61442   -12399.474    4.4470682    4.4470682    4.4470682   -12399.474   -19738.607   -21552.769    4092.9555    9246.3609    12275.514    12086.808    87.947071 
   57100    1752.5361   -109.20722    1.5857315   -107.62149   -1116.2177    4.4396874    4.4396874    4.4396874   -1116.2177   -46590.652   -2030.3777    45272.377    11614.317   -7903.1386   -2743.3102      87.5099 
   57200    2276.9623   -109.66613    2.0602433   -107.60589    12707.678    4.4287213    4.4287213    4.4287213    12707.678    -13900.17    31300.459    20722.746   -31512.402    11122.367    194.23949    86.863045 
   57300    1681.5294   -109.13833    1.5214831   -107.61684   -1821.5137    4.4309786    4.4309786    4.4309786   -1821.5137   -18649.825    -38242.91    51428.194    58944.559    -8603.436   -1147.2167    86.995933 
   57400    1395.1113   -108.88814     1.262326   -107.62581    26483.037    4.4317397    4.4317397    4.4317397    26483.037    28229.696    10395.829    40823.586   -28462.213    8839.9032   -7351.9983    87.040774 
   57500    2222.7638   -109.60574    2.0112034   -107.59454   -1004.0313    4.4484226    4.4484226    4.4484226   -1004.0313    26427.474   -40569.439    11129.871    43394.391    1470.5886    1692.6875    88.027449 
   57600    1343.6627   -108.81586    1.2157743   -107.60008    -15809.26    4.4521061    4.4521061    4.4521061    -15809.26   -6210.8285   -58694.457    17477.507    13133.327   -7518.0296   -6903.8448    88.246304 
   57700    2742.3915   -110.05668    2.4813735    -107.5753    1872.8631    4.4298681    4.4298681    4.4298681    1872.8631      21461.1   -16672.196    829.68458   -3638.1252    4322.5995    6449.4068     86.93054 
   57800    1028.6977   -108.53786   0.93078727   -107.60708    14437.264    4.4129871    4.4129871    4.4129871    14437.264    902.31053   -22264.676    64674.158    76447.196    2771.2336    10271.286    85.940519 
   57900    2760.1745   -110.09804    2.4974639   -107.60057    3215.9757    4.4260583    4.4260583    4.4260583    3215.9757    9521.2958    -3220.285    3346.9163   -47072.675   -2510.5475    -10734.37    86.706447 
   58000    831.39394   -108.37753   0.75226271   -107.62527   -15466.424    4.4490483    4.4490483    4.4490483   -15466.424   -57156.194   -62586.049    73342.971    97628.184   -7514.8288    12911.986      88.0646 
   58100    2811.9876   -110.10346    2.5443454   -107.55912    -9269.515    4.4574575    4.4574575    4.4574575    -9269.515   -30241.471    2142.7853    290.14047   -33863.884    3231.2689   -2746.1665    88.564899 
   58200    1311.0462   -108.75461    1.1862622   -107.56835   -14648.816    4.4547963    4.4547963    4.4547963   -14648.816   -65758.403   -43533.763    65345.718    91000.089    4029.4853    9011.9382    88.406371 
   58300    2714.1178   -109.99617    2.4557908   -107.54038    7315.5876    4.4301653    4.4301653    4.4301653    7315.5876   -1218.8067    20531.011    2634.5585   -33242.925    3637.6756    22281.386    86.948042 
   58400    1403.3017   -108.83505    1.2697369   -107.56531    35205.312    4.4075137    4.4075137    4.4075137    35205.312    26419.841   -18391.507    97587.603    92262.185    6825.4774    -15348.82    85.621139 
   58500    2309.8742   -109.68013    2.0900228    -107.5901   -5148.7141    4.4277465    4.4277465    4.4277465   -5148.7141    13674.344   -19206.318    -9914.168   -8368.0487   -15572.068    17334.561    86.805702 
   58600     1637.344   -109.08957    1.4815032   -107.60806   -6656.8049     4.439001     4.439001     4.439001   -6656.8049    6978.5369   -27356.791    407.83897    31379.604     8476.306    1753.2573    87.469317 
   58700    2453.1401   -109.80838    2.2196527   -107.58872   -357.17655     4.439996     4.439996     4.439996   -357.17655    6841.6657    19270.103   -27183.298    35647.811   -3419.6222    16090.173    87.528149 
   58800    1050.2907   -108.56118   0.95032511   -107.61085   -35494.836    4.4425476    4.4425476    4.4425476   -35494.836    1829.5043   -18786.235   -89527.777   -34775.289   -23084.599    9378.3652    87.679137 
   58900    2893.7542    -110.1989    2.6183296   -107.58057    21325.097    4.4186613    4.4186613    4.4186613    21325.097    2926.4141    28906.174    32142.702    7737.1106    14.330911   -13461.785     86.27245 
   59000    941.79133   -108.47557   0.85215259   -107.62342      4077.15    4.4201216    4.4201216    4.4201216      4077.15    18253.313    7921.2543   -13943.118   -4393.3895      4080.36    43644.416    86.358017 
   59100    2646.1006   -109.99156    2.3942474   -107.59732   -14073.711    4.4418105    4.4418105    4.4418105   -14073.711   -33905.448   -22394.045     14078.36   -16434.529   -3182.6626   -11194.081      87.6355 
   59200    1351.3324   -108.82872     1.222714   -107.60601    1796.9316    4.4474282    4.4474282    4.4474282    1796.9316   -29357.588    58457.034   -23708.651    15073.568    39953.815    22260.704    87.968427 
   59300     2614.783    -109.9364    2.3659106   -107.57049   -12022.381    4.4521367    4.4521367    4.4521367   -12022.381   -17009.471   -1866.2636   -17191.407   -16741.075   -9397.6031    13880.011    88.248123 
   59400    1313.1227   -108.78064     1.188141    -107.5925    4526.8505    4.4334911    4.4334911    4.4334911    4526.8505   -31564.237    44576.664    568.12456     26584.61    28945.095   -11590.667    87.144007 
   59500    1625.9524    -109.0631    1.4711959   -107.59191    13267.304    4.4178099    4.4178099    4.4178099    13267.304    14679.955    19320.602    5801.3548    12761.841    30818.923    22534.065    86.222594 
   59600    1832.4354   -109.25536    1.6580261   -107.59733    10881.926    4.4314132    4.4314132    4.4314132    10881.926    8067.1124   -3641.9262    28220.591   -18491.409   -9030.1731   -17201.818    87.021538 
   59700     1890.997   -109.30693    1.7110138   -107.59592   -6996.4771    4.4536006    4.4536006    4.4536006   -6996.4771   -24693.659    24055.436   -20351.208    13027.215    21255.274    5804.2269    88.335202 
   59800    2019.1207   -109.38535    1.8269428   -107.55841   -26541.487    4.4602297    4.4602297    4.4602297   -26541.487   -34668.077   -52635.462    7679.0777   -30965.508   -12657.138    -17017.29    88.730243 
   59900    1677.8889   -109.06781    1.5181891   -107.54962    2645.3204    4.4429057    4.4429057    4.4429057    2645.3204    22197.252   -11288.024   -2973.2664   -5702.4975     23063.72   -4001.6763    87.700345 
   60000    2115.8493   -109.45769    1.9144649   -107.54322    3741.8755    4.4269228    4.4269228    4.4269228    3741.8755     26530.17   -59893.358    44588.814   -6774.1206   -6725.3344    11451.523    86.757266 
   60100    1436.6805   -108.89093    1.2999387   -107.59099   -23561.848     4.425865     4.425865     4.425865   -23561.848   -23165.316   -65973.096    18452.868   -17246.812   -6230.7594   -36082.334    86.695086 
   60200    2604.8877   -109.95145    2.3569572   -107.59449    10054.336    4.4229445    4.4229445    4.4229445    10054.336    52972.038   -6243.3474   -16565.684    5849.7431     3172.188    44242.413    86.523576 
   60300    1307.7242   -108.81596    1.1832563   -107.63271   -12707.834    4.4376943    4.4376943    4.4376943   -12707.834   -35826.341   -44327.567    42030.406   -38330.515   -6668.6081    7729.2745    87.392091 
   60400     2469.236    -109.8181    2.2342166   -107.58388   -7566.4636    4.4465677    4.4465677    4.4465677   -7566.4636    27024.557   -9260.4166   -40463.531   -2154.7526    5114.2421    24842.062    87.917377 
   60500    1329.7422   -108.79167    1.2031787   -107.58849   -5698.5183    4.4425163    4.4425163    4.4425163   -5698.5183   -11962.307    9237.3584   -14370.606   -6833.2877    -10740.28    23532.505    87.677285 
   60600     2516.228   -109.84783     2.276736    -107.5711    12218.107    4.4320623    4.4320623    4.4320623    12218.107    6861.1201    838.20848    28954.992   -13614.953   -827.19721   -8508.2611    87.059783 
   60700    1410.0632   -108.87272    1.2758548   -107.59686    14728.435    4.4174238    4.4174238    4.4174238    14728.435    61208.911    43102.346   -60125.952      5601.87    26659.809    47367.945    86.199986 
   60800    2686.9689    -110.0359    2.4312259   -107.60467    9585.7424    4.4264654    4.4264654    4.4264654    9585.7424   -757.09902    14830.697    14683.629   -22797.539   -10847.888   -18385.396    86.730373 
   60900     1263.688   -108.76925    1.1434114   -107.62584    -6539.942    4.4383178    4.4383178    4.4383178    -6539.942     38997.06    17102.152   -75719.038   -3786.7283    6284.1566    44284.551    87.428934 
   61000    1948.4805   -109.37187    1.7630261   -107.60884     4229.295    4.4348073    4.4348073    4.4348073     4229.295    39845.012   -9352.3425   -17804.785    7896.2002    10698.813   -11727.381    87.221643 
   61100    1651.3068   -109.09808    1.4941371   -107.60395   -36899.517    4.4410109    4.4410109    4.4410109   -36899.517   -12673.042   -28632.187   -69393.322    7170.6517   -28456.997    44832.337    87.588182 
   61200     1761.698   -109.19932    1.5940214    -107.6053   -11769.383    4.4292213    4.4292213    4.4292213   -11769.383    7850.2967     1146.459   -44304.906    2585.0708    11358.099    23851.763    86.892471 
   61300    2742.8132   -110.07436    2.4817551   -107.59261    10424.182    4.4237235    4.4237235    4.4237235    10424.182    10707.518    34259.472   -13694.445    5795.8777   -6264.6824   -2441.4795    86.569302 
   61400    985.68793   -108.52407   0.89187115    -107.6322   -36105.966    4.4347065    4.4347065    4.4347065   -36105.966    2812.3411   -17874.996   -93255.243   -6280.7959   -23709.479     63301.44    87.215694 
   61500    3198.7652   -110.48632      2.89431   -107.59201    15982.687    4.4300625    4.4300625    4.4300625    15982.687   -11382.869    38796.073    20534.855     3094.062    9821.0844   -20106.501    86.941985 
   61600      747.959   -108.31174   0.67676902   -107.63497   -9776.0591    4.4439627    4.4439627    4.4439627   -9776.0591    31754.811   -30705.565   -30377.423    667.94821   -44278.602    55062.604     87.76295 
   61700    2974.7809   -110.26006    2.6916443   -107.56842   -11486.024     4.449533     4.449533     4.449533   -11486.024   -30732.109   -12376.572    8650.6086   -9962.8278    2351.3971   -32384.391    88.093385 
   61800    922.80286   -108.40667   0.83497142    -107.5717   -6291.7581    4.4511453    4.4511453    4.4511453   -6291.7581    27325.801    2439.1279   -48640.203    13913.127   -16312.655    62505.158    88.189183 
   61900     2372.085   -109.67768    2.1463124   -107.53137   -16935.585    4.4489875    4.4489875    4.4489875   -16935.585    -36703.61    4885.3073   -18988.453   -14567.166   -17106.182   -12661.541    88.060989 
   62000    1183.7044   -108.63928    1.0710406   -107.56823    579.35507     4.424225     4.424225     4.424225    579.35507    27716.417   -4844.7342   -21133.618   -8491.7034    19592.975    49205.084     86.59875 
   62100    2427.7215    -109.7809    2.1966535   -107.58424     8474.541    4.4150995    4.4150995    4.4150995     8474.541    20252.061    20900.693   -15729.131    3756.7985    -17964.49    18806.752     86.06399 
   62200    1787.5754   -109.23676    1.6174357   -107.61932   -5948.4965    4.4219634    4.4219634    4.4219634   -5948.4965    9084.0674    -30173.49    3243.9329   -30582.821    976.94636   -4680.7899    86.466014 
   62300    1856.5773   -109.31995    1.6798701   -107.64008    6968.6304    4.4312335    4.4312335    4.4312335    6968.6304    19528.473    29645.234   -28267.815    10630.318    26169.838     54317.38    87.010949 
   62400    2038.2676   -109.45583    1.8442673   -107.61156   -17664.997    4.4463916    4.4463916    4.4463916   -17664.997   -12384.808   -42184.005    1573.8234   -22600.238   -6484.1121    -25446.16    87.906933 
   62500    1407.7033   -108.87574    1.2737195   -107.60202   -9056.3732    4.4394621    4.4394621    4.4394621   -9056.3732    28622.204   -1846.2877   -53945.036   -8685.6201    2153.6172    50808.319    87.496579 
   62600    2425.6868   -109.76594    2.1948124   -107.57112    5282.4254    4.4310627    4.4310627    4.4310627    5282.4254    4371.8734    28054.264   -16578.861   -4554.2665    1180.7201   -16201.186    87.000887 
   62700    980.10386   -108.48991   0.88681857    -107.6031   -10112.346    4.4349218    4.4349218    4.4349218   -10112.346    13197.374   -50031.098    6496.6852   -27763.989    7793.2484    11250.382    87.228398 
   62800    2924.7945    -110.2152    2.6464155   -107.56879   -1148.2123    4.4386358    4.4386358    4.4386358   -1148.2123    49268.314   -20288.722   -32424.229    9682.0602    -5428.708   -1019.8428    87.447731 
   62900    945.18112   -108.46961   0.85521974   -107.61439   -11027.365    4.4330792    4.4330792    4.4330792   -11027.365    43687.823   -78486.745    1716.8285   -32476.459   -9373.8709   -46510.719    87.119722 
   63000    2989.4772    -110.2846    2.7049418   -107.57965    18728.127    4.4244782    4.4244782    4.4244782    18728.127    28276.611    22754.748    5153.0238    21330.091     6608.415    18114.953     86.61362 
   63100    1110.7352    -108.6279    1.0050166   -107.62289   -4485.8003    4.4314032    4.4314032    4.4314032   -4485.8003    30959.162   -1937.7435    -42478.82   -30153.268    2720.7154   -52733.787    87.020948 
   63200    2416.8541    -109.7867    2.1868203   -107.59988   -5992.8202    4.4374558    4.4374558    4.4374558   -5992.8202    10483.774   -18877.717   -9584.5178    -17443.63    4960.0929   -2554.9419    87.378002 
   63300    1533.7819   -108.99486    1.3877981   -107.60707    2879.2032    4.4356856    4.4356856    4.4356856    2879.2032    8083.9385    19312.538   -18758.866    9616.6501   -8791.5499   -9057.4322    87.273474 
   63400    1604.4314   -109.05666    1.4517233   -107.60494   -1963.0501    4.4365628    4.4365628    4.4365628   -1963.0501    3477.6956   -30944.683    21577.837   -47384.092    5943.3017   -19058.036    87.325265 
   63500    2134.7006   -109.52276     1.931522   -107.59123    5173.0267    4.4299153    4.4299153    4.4299153    5173.0267   -27101.691    32510.525    10110.246    28422.417   -27572.855    1621.3019    86.933319 
   63600    1830.9534   -109.26312    1.6566851   -107.60644    7340.5131    4.4309479    4.4309479    4.4309479    7340.5131    15021.406    19091.262   -12091.129   -16115.561    15845.034   -47360.135    86.994128 
   63700    2263.9341    -109.6463    2.0484552   -107.59785    7971.5729    4.4330406    4.4330406    4.4330406    7971.5729   -7623.4955    25828.241    5709.9729     8490.756   -22999.145     19805.95    87.117446 
   63800    1083.9684   -108.60295   0.98079735   -107.62215    22625.104    4.4347767    4.4347767    4.4347767    22625.104   -1179.3336    28391.164    40663.481    25579.705     -13917.4    -26610.51    87.219834 
   63900    3007.3263   -110.30522    2.7210921   -107.58413   -10055.298    4.4465643    4.4465643    4.4465643   -10055.298   -1846.8902   -30647.368    2328.3628   -13029.747     11305.36   -1424.9135    87.917175 
   64000    1112.4009   -108.61779    1.0065237   -107.61127   -655.91246    4.4337691    4.4337691    4.4337691   -655.91246   -17707.647    9490.4346    6249.4748    29543.368   -28004.035    8880.5029    87.160402 
   64100    2880.3864   -110.17263    2.6062341    -107.5664   -3496.9776    4.4385582    4.4385582    4.4385582   -3496.9776    6529.4747   -7659.1394   -9361.2683   -22411.989    12854.517   -9253.6586    87.443144 
   64200    350.09372   -107.91451   0.31677216   -107.59773    -18640.15    4.4501002    4.4501002    4.4501002    -18640.15   -17315.765   -3313.4102   -35291.274   -14630.232   -31540.564    29473.713    88.127081 
   64300    2984.3017   -110.24529    2.7002589   -107.54503    2302.3679    4.4449978    4.4449978    4.4449978    2302.3679    5973.2444   -11862.002    12795.862    13028.823      5394.36   -7430.0104    87.824288 
   64400    1269.9481   -108.73103    1.1490757   -107.58195   -38456.196    4.4485749    4.4485749    4.4485749   -38456.196   -63808.691    -52978.92    1419.0228   -6027.7217   -14879.046   -3010.0367    88.036491 
   64500    2948.9839   -110.23243    2.6683026   -107.56413    15212.429    4.4244198    4.4244198    4.4244198    15212.429     13372.66   -2070.0819    34334.708   -2438.4101   -2257.8685    2514.5496    86.610191 
   64600    1279.8718   -108.75882    1.1580549   -107.60076    26190.004     4.417138     4.417138     4.417138    26190.004    4260.1533    50408.186    23901.673    2075.9632    15227.265   -37341.474    86.183257 
   64700    2270.5372   -109.64636    2.0544298   -107.59193   -19759.557    4.4388326    4.4388326    4.4388326   -19759.557   -31277.713    1812.9021    -29813.86   -21130.855   -32847.428    18503.895    87.459359 
   64800    1390.8945   -108.85662    1.2585106   -107.59811   -14970.692    4.4415434    4.4415434    4.4415434   -14970.692    15605.155   -25218.733   -35298.498    13599.791     23529.74   -52233.347    87.619696 
   64900    2391.8458   -109.75724    2.1641924   -107.59305   -4506.8334    4.4401183    4.4401183    4.4401183   -4506.8334   -49743.007    40953.318    -4730.811    2411.8302    308.31884    7479.5394    87.535381 
   65000    1832.6837   -109.25363    1.6582507   -107.59538   -8719.5505    4.4359953    4.4359953    4.4359953   -8719.5505      60367.9   -44036.666   -42489.886    5190.2652    2666.3065   -35336.797    87.291759 
   65100    1548.2752   -108.99195     1.400912   -107.59104    20780.153    4.4275415    4.4275415    4.4275415    20780.153     51068.54    16443.878   -5171.9599    10977.016    25669.468   -712.44249    86.793644 
   65200    1959.1345   -109.35608     1.772666   -107.58341   -1735.3623    4.4412659    4.4412659    4.4412659   -1735.3623     26508.25    15060.831   -46775.167   -13285.536   -16560.724   -29735.008    87.603273 
   65300    1460.3602   -108.90317    1.3213646    -107.5818   -15274.688    4.4504305    4.4504305    4.4504305   -15274.688    13677.368     22643.47   -82144.903     11917.55    33274.106   -17493.755    88.146702 
   65400    2498.0739   -109.81235    2.2603097   -107.55204   -12285.316    4.4500891    4.4500891    4.4500891   -12285.316   -12607.106   -6071.2634    -18177.58   -8887.6318    -14608.26   -13477.298    88.126419 
   65500    1980.6991   -109.35487    1.7921782   -107.56269   -11749.911    4.4427667    4.4427667    4.4427667   -11749.911   -193.41831   -17842.282   -17214.034    10919.255    5378.1021   -18347.856    87.692109 
   65600     2043.095   -109.40484    1.8486353    -107.5562    13194.583    4.4303143    4.4303143    4.4303143    13194.583    1435.3854    52686.987   -14538.625   -11922.024   -4945.4436    10471.653     86.95681 
   65700    963.44481   -108.46605   0.87174511    -107.5943   -13887.154    4.4361206    4.4361206    4.4361206   -13887.154    33791.941   -15150.225   -60303.179   -12824.965   -21959.937   -60050.892    87.299154 
   65800    2656.5133     -109.973    2.4036691   -107.56933   -9457.8418    4.4422424    4.4422424    4.4422424   -9457.8418   -20287.386    5450.9004    -13537.04    18316.992    16794.202    18084.721    87.661068 
   65900    1359.0232    -108.8253    1.2296728   -107.59562    10853.785    4.4488994    4.4488994    4.4488994    10853.785   -14389.846    31817.454    15133.747    -37199.25   -24518.963   -39652.564    88.055755 
   66000     2777.857   -110.05092    2.5134634   -107.53746   -12325.762    4.4593128    4.4593128    4.4593128   -12325.762   -16031.528   -22784.138    1838.3804    22336.799    26960.693    27698.552    88.675532 
   66100     935.3351   -108.38836   0.84631086   -107.54205    9121.7148    4.4513932    4.4513932    4.4513932    9121.7148   -16406.858   -22964.207     66736.21   -50653.355   -37140.435    -26271.17     88.20392 
   66200    2443.8462   -109.72447    2.2112434   -107.51323    3484.7263    4.4486489    4.4486489    4.4486489    3484.7263    20654.095    15321.862   -25521.778     15689.48    9301.1824    7595.1753    88.040884 
   66300    1299.1658   -108.74106    1.1755126   -107.56555   -15912.282    4.4437189    4.4437189    4.4437189   -15912.282   -39001.086   -13999.321    5263.5607   -54271.345   -4741.8084    1614.4002     87.74851 
   66400    3180.7833    -110.4306    2.8780396   -107.55256    10883.072    4.4271569    4.4271569    4.4271569    10883.072   -5280.7963    43954.956   -6024.9441    19922.932    5335.9709   -4739.8731    86.771025 
   66500    1010.3062   -108.53346   0.91414625   -107.61931   -1618.2892    4.4289319    4.4289319    4.4289319   -1618.2892   -30015.957    10075.442    15085.647   -27866.692    16437.651    29205.175    86.875436 
   66600    2660.2408   -110.02196    2.4070418   -107.61492   -12186.382    4.4427424    4.4427424    4.4427424   -12186.382   -43593.823    5456.6827    1577.9952   -13281.093   -10263.769   -11065.632    87.690669 
   66700    1343.1216    -108.8437    1.2152847   -107.62842    15602.881    4.4499475    4.4499475    4.4499475    15602.881    22248.856    31667.167   -7107.3792   -12106.491    20048.612    19772.368    88.118009 
   66800    2122.3739   -109.50754    1.9203685   -107.58718      11363.3     4.460259     4.460259     4.460259      11363.3   -18159.092   -17852.655    70101.648   -11248.796   -6625.0994    14308.116    88.731995 
   66900    1354.9775    -108.7961    1.2260121   -107.57009    7696.4889     4.455214     4.455214     4.455214    7696.4889    17251.436    26719.287   -20881.257    4336.3617    18840.292   -9481.4349    88.431236 
   67000    1660.2892    -109.0665    1.5022646   -107.56424    20550.909    4.4436859    4.4436859    4.4436859    20550.909     62807.41   -23859.992     22705.31   -48387.306    3440.2595    9035.7195    87.746551 
   67100    1846.7661   -109.24496    1.6709927   -107.57396   -174.75725    4.4454175    4.4454175    4.4454175   -174.75725    32356.092   -22482.604    -10397.76     32081.38   -15773.896   -8070.4474    87.849169 
   67200    1613.2776   -109.06049    1.4597275   -107.60076    7616.6466    4.4463242    4.4463242    4.4463242    7616.6466    32161.224    -2286.684   -7024.6002    4689.3226    27162.843    21153.126    87.902936 
   67300     2290.548   -109.65953    2.0725359     -107.587    18017.179    4.4456696    4.4456696    4.4456696    18017.179    48491.311   -5269.7227    10829.948    4906.3863   -40730.643   -7549.5306    87.864119 
   67400    1414.7013   -108.88603    1.2800515   -107.60598   -12016.401    4.4533126    4.4533126    4.4533126   -12016.401    4554.1739   -28429.247   -12174.131   -4769.4691    33883.443   -18652.378    88.318065 
   67500    2310.2299   -109.66397    2.0903446   -107.57362   -21608.244    4.4599698    4.4599698    4.4599698   -21608.244   -52929.903   -9193.2275   -2701.6009   -6762.9133   -19462.515    5214.6008    88.714736 
   67600     1246.367    -108.7168     1.127739   -107.58906   -7779.5933    4.4455526    4.4455526    4.4455526   -7779.5933   -44195.543   -8478.4234    29335.187    23585.253   -32446.775   -7701.7648    87.857178 
   67700     2704.141   -110.01282    2.4467636   -107.56606    24377.377    4.4341438    4.4341438    4.4341438    24377.377    18453.546   -3602.9005    58281.487   -13126.207    22894.626   -6111.5444    87.182498 
   67800    1024.1596   -108.54268   0.92668112     -107.616    2032.8534    4.4394815    4.4394815    4.4394815    2032.8534     5920.551   -2071.6641    2249.6731   -17003.495   -47391.999    13097.824    87.497723 
   67900    3053.0057   -110.36096    2.7624237   -107.59853   -9908.2773    4.4464848    4.4464848    4.4464848   -9908.2773    1212.6602   -16334.738   -14602.754    6440.3062    24877.893   -27528.412    87.912459 
   68000    1094.2065   -108.60895     0.990061   -107.61889   -5819.5151     4.463136     4.463136     4.463136   -5819.5151   -4804.4307    3633.1607   -16287.275   -22749.718   -34787.846    17052.259    88.903809 
   68100    2105.3957   -109.48885    1.9050063   -107.58384     -3948.69    4.4641824    4.4641824    4.4641824     -3948.69    1271.4843   -11869.294     -1248.26    -548.9712    420.64973    17035.412    88.966352 
   68200    1573.6901   -109.00756    1.4239078   -107.58365    25236.795    4.4357239    4.4357239    4.4357239    25236.795    39736.195    77384.204   -41410.014   -1115.2105   -6392.7364   -1962.4262    87.275738 
   68300    1914.8355   -109.33072    1.7325834   -107.59813    990.85231    4.4336169    4.4336169    4.4336169    990.85231    20544.686    44142.207   -61714.336   -19276.126   -47000.895    13435.141    87.151425 
   68400    2332.3628   -109.71415    2.1103709   -107.60377    3918.1824    4.4449984    4.4449984    4.4449984    3918.1824    40660.972    -8610.447   -20295.978    16531.316    15685.211    -8539.406    87.824327 
   68500    932.92048   -108.47733   0.84412605    -107.6332   -21362.354    4.4569431    4.4569431    4.4569431   -21362.354   -52253.114    33053.253     -44887.2    -8611.921   -40904.119    -2124.562    88.534244 
   68600    2942.0183   -110.24755        2.662   -107.58555   -31533.751    4.4611413    4.4611413    4.4611413   -31533.751   -12521.038   -53099.675   -28980.539    20037.457    9895.8071    1282.2154    88.784657 
   68700    854.82791   -108.38817   0.77346626    -107.6147   -6675.9071    4.4453073    4.4453073    4.4453073   -6675.9071   -18690.093    12820.001   -14157.629    703.33431   -19074.891   -3384.3675    87.842637 
   68800      2625.74   -109.95709    2.3758247   -107.58127    23504.968    4.4272019    4.4272019    4.4272019    23504.968    53417.324    9183.0841    7914.4972   -1336.8061   -17413.374    17562.298    86.773675 
   68900    1613.4397     -109.079    1.4598741   -107.61913   -16764.778    4.4397761    4.4397761    4.4397761   -16764.778   -43002.459    -20340.72    13048.847    37876.024   -9469.3703   -5597.3428    87.515145 
   69000    2103.1399   -109.50334    1.9029651   -107.60038   -1161.9937    4.4478476    4.4478476    4.4478476   -1161.9937    5489.3312    24979.695   -33955.007   -19721.026   -35542.168   -1959.8915     87.99332 
   69100    1698.1416    -109.1395    1.5365142   -107.60298   -21514.823    4.4525486    4.4525486    4.4525486   -21514.823   -11996.277   -32205.447   -20342.745    35102.249    13551.459    28233.943    88.272615 
   69200    1610.6295   -109.05894    1.4573314   -107.60161   -24739.528    4.4518257    4.4518257    4.4518257   -24739.528   -60227.474    15481.994   -29473.104   -10865.363   -26437.801   -16090.818    88.229633 
   69300    2067.8996    -109.4582     1.871079   -107.58712   -1081.3409    4.4348646    4.4348646    4.4348646   -1081.3409    19311.196   -26380.831    3825.6122    28390.063   -13720.441    16395.995    87.225022 
   69400    2053.5501    -109.4701    1.8580953     -107.612   -1856.8768    4.4274486    4.4274486    4.4274486   -1856.8768   -22657.776       926.28    16160.866    29548.786    6880.2925   -2683.8902     86.78818 
   69500    2363.1801   -109.75776     2.138255   -107.61951   -5547.5605    4.4393746    4.4393746    4.4393746   -5547.5605   -24400.429     24465.05   -16707.302   -19681.686   -32588.602   -18944.565    87.491403 
   69600    1138.3277   -108.66382    1.0299828   -107.63384   -4073.9706    4.4522968    4.4522968    4.4522968   -4073.9706   -26914.337   -31560.315     46252.74    60493.636   -7470.9207    10426.268    88.257645 
   69700    2354.7059   -109.72209    2.1305874    -107.5915    27608.384    4.4525418    4.4525418    4.4525418    27608.384     32204.78    36943.244    13677.128   -20871.851   -4692.3264    8441.4296    88.272213 
   69800    975.62638   -108.48419   0.88276725   -107.60142    -2930.272    4.4563993    4.4563993    4.4563993    -2930.272    11561.558   -63181.408    42829.034    72144.256   -8313.1048   -15720.138    88.501838 
   69900    2741.0793   -110.04931    2.4801861   -107.56913   -2173.3593    4.4475903    4.4475903    4.4475903   -2173.3593    21300.284   -26296.591   -1523.7703   -7203.2315    9628.8719   -18704.488     87.97805 
   70000    1519.6343   -108.96742     1.374997   -107.59242     25014.43    4.4346464    4.4346464    4.4346464     25014.43    15651.997    16638.541    42752.752    25716.608   -4951.7138    13576.589    87.212149 
   70100    2501.1555   -109.85405     2.263098   -107.59096    8536.4002    4.4443547    4.4443547    4.4443547    8536.4002    14502.952   -1639.8124    12746.061    29166.394   -3336.5845   -18307.379    87.786178 
   70200    1727.1769   -109.16188     1.562786    -107.5991   -22709.791    4.4522247    4.4522247    4.4522247   -22709.791   -19347.643   -10604.607   -38177.122    -27045.79    20164.216    1250.2646    88.253352 
   70300    1744.4015     -109.168    1.5783712   -107.58963     5198.141    4.4455366    4.4455366    4.4455366     5198.141    32492.244    -23845.03    6947.2089    42360.436   -6990.6794   -1803.7367    87.856234 
   70400    1822.7531   -109.23638    1.6492653   -107.58711    18529.902    4.4405776    4.4405776    4.4405776    18529.902    27697.804    22458.369    5433.5332   -34732.389    16018.474   -10478.827     87.56255 
   70500    1656.5499   -109.11102    1.4988812   -107.61214    245.19523    4.4372747    4.4372747    4.4372747    245.19523   -11641.367    8201.5995    4175.3536    10225.428   -3534.0367    1569.8876    87.367309 
   70600    2880.7897    -110.2102     2.606599    -107.6036    7897.5677    4.4414063    4.4414063    4.4414063    7897.5677    42968.539    6668.3244    -25944.16    5706.8012    12599.093    16449.458     87.61158 
   70700     1165.282   -108.69131    1.0543716   -107.63694    -33718.22    4.4536531    4.4536531    4.4536531    -33718.22   -72395.518   -5065.9497   -23693.192   -22955.074     11736.63   -1549.1883    88.338324 
   70800    2716.6546   -110.04943    2.4580861   -107.59134     16858.16    4.4434676    4.4434676    4.4434676     16858.16     29196.89     17889.15    3488.4404    3949.3921   -20366.409   -6749.7635    87.733618 
   70900    716.72717   -108.27117   0.64850981   -107.62266   -29485.894    4.4496572    4.4496572    4.4496572   -29485.894   -43403.259   -27755.194   -17299.229   -12738.557    43228.192   -3967.4506    88.100762 
   71000    2496.0831   -109.85003    2.2585085   -107.59152    -10756.48    4.4469159    4.4469159    4.4469159    -10756.48   -13923.551    11792.736   -30138.625    11002.892    2354.3035   -2568.6374    87.938034 
   71100    1666.8067   -109.10663    1.5081617   -107.59847    35253.137    4.4394634    4.4394634    4.4394634    35253.137     27119.36     34965.09    43674.959   -13558.758    16468.775    -13685.83     87.49665 
   71200    2449.0229   -109.80352    2.2159274    -107.5876   -22632.634      4.46267      4.46267      4.46267   -22632.634   -39179.363   -12368.479    -16350.06   -22940.859     30517.06   -1825.3474    88.875965 
   71300    1679.4968   -109.10978     1.519644   -107.59013   -12360.172    4.4459211    4.4459211    4.4459211   -12360.172   -5109.9005   -15201.738   -16768.877    38891.082   -10260.901    18954.968    87.879032 
   71400    1685.3476   -109.10337     1.524938   -107.57843    37192.405    4.4196427    4.4196427    4.4196427    37192.405    21391.604    39713.386    50472.226   -26526.683    14481.785   -9106.0846    86.329947 
   71500     1721.477   -109.15668    1.5576286   -107.59905   -21132.858    4.4392399    4.4392399    4.4392399   -21132.858   -2492.4756   -28401.226   -32504.873    37397.222   -2299.1186    36998.669    87.483441 
   71600    1660.0467   -109.12441    1.5020452   -107.62237   -15486.215    4.4432546    4.4432546    4.4432546   -15486.215   -49775.099    509.40396     2807.051    11428.962     3197.437    7222.7941    87.721004 
   71700    2903.3857   -110.23331    2.6270444   -107.60627   -1920.2754    4.4482189    4.4482189    4.4482189   -1920.2754   -28897.281    10978.044     12158.41    -1022.122    16534.856    12437.949    88.015355 
   71800    1313.3211   -108.80749    1.1883205   -107.61917   -34341.615     4.455747     4.455747     4.455747   -34341.615   -49993.232   -68048.465    15016.853    48045.011   -7745.6242     50451.87    88.462979 
   71900    2537.5973   -109.88231    2.2960713   -107.58624    15071.134     4.442306     4.442306     4.442306    15071.134   -10190.644    37428.186     17975.86    -9688.738   -3524.0287   -8781.0221    87.664833 
   72000    999.60332   -108.52361   0.90446209   -107.61914    4149.5079    4.4321029    4.4321029    4.4321029    4149.5079    10227.223   -43869.848    46091.148    36534.318    2884.5239    40518.308    87.062174 
   72100    2445.9348   -109.82706    2.2131332   -107.61393   -540.00898    4.4432525    4.4432525    4.4432525   -540.00898   -30837.182   -12364.626    41581.781    19243.939    215.03965   -5499.2853    87.720883 
   72200    2019.7218   -109.44042    1.8274867   -107.61293   -648.47563    4.4442643    4.4442643    4.4442643   -648.47563   -2015.7572   -15813.571    15883.901   -26203.656    3062.4095    28173.215     87.78082 
   72300    1918.0983   -109.34891    1.7355356   -107.61337    3159.7442    4.4371866    4.4371866    4.4371866    3159.7442   -18289.465   -13375.025    41143.722     31952.92    -13975.14    2507.8254      87.3621 
   72400    2204.9658   -109.59219    1.9950994    -107.5971   -4713.8698    4.4451524    4.4451524    4.4451524   -4713.8698    21419.622    -23047.51   -12513.721   -26239.804    7306.2151    15477.858    87.833453 
   72500    855.59711   -108.39161   0.77416224   -107.61745   -11915.556    4.4463737    4.4463737    4.4463737   -11915.556    18228.527   -39054.115   -14921.081   -7387.5854    1669.5406    33807.776    87.905871 
   72600    2730.2657   -110.05303    2.4704018   -107.58263   -7085.6778    4.4482289    4.4482289    4.4482289   -7085.6778   -2646.0902   -7535.9527   -11074.991    9130.9979    350.22892   -12597.782    88.015949 
   72700    1146.9004   -108.65318    1.0377396   -107.61544   -17713.692    4.4441681    4.4441681    4.4441681   -17713.692    20866.399   -64131.969   -9875.5063    -10751.83   -2581.1336    65665.585    87.775122 
   72800    3006.4187   -110.29905    2.7202708   -107.57878    22638.602    4.4283908    4.4283908    4.4283908    22638.602   -11773.689    9747.9077    69941.587    3395.9566      3595.68    -11768.83    86.843602 
   72900    1103.5953   -108.63416   0.99855617    -107.6356   -9104.3678    4.4430379    4.4430379    4.4430379   -9104.3678    27956.309   -71106.908    15837.496    3068.3244    3627.8101    27776.826     87.70817 
   73000     1938.953   -109.36874    1.7544054   -107.61434   -1366.6936    4.4498891    4.4498891    4.4498891   -1366.6936    25906.814   -54198.001    24191.106   -3032.7933   -1897.6995    5301.0789    88.114536 
   73100    1642.8809   -109.09646    1.4865131   -107.60994   -955.81834    4.4526769    4.4526769    4.4526769   -955.81834    4577.0461   -18019.106    10574.605    4345.9867    -12029.82      11864.7    88.280251 
   73200    1450.6241   -108.92825    1.3125552    -107.6157   -19213.294    4.4551668    4.4551668    4.4551668   -19213.294   -6431.4825   -46888.686   -4319.7147   -16680.892    9759.4052    47232.874    88.428427 
   73300    2661.9912   -109.99542    2.4086255    -107.5868     16407.29    4.4430586    4.4430586    4.4430586     16407.29   -7654.9992    16091.482    40785.387    8005.6955   -27354.555   -19342.042    87.709397 
   73400    1026.8913   -108.55316    0.9291528     -107.624   -16186.507    4.4495218    4.4495218    4.4495218   -16186.507    78825.688   -74225.638   -53159.571    10235.114   -18862.683    74714.072    88.092722 
   73500    3058.0461   -110.35723    2.7669844   -107.59025    4444.1865    4.4399393    4.4399393    4.4399393    4444.1865    13552.317   -16330.924    16111.166   -5054.2675    16791.339   -11501.875    87.524796 
   73600    981.79661    -108.5168   0.88835021   -107.62845   -6143.1633    4.4394817    4.4394817    4.4394817   -6143.1633    23611.331   -19719.929   -22320.891    22310.548    -12850.98    35950.601    87.497736 
   73700    2500.6562   -109.86739    2.2626463   -107.60474   -6252.1397    4.4545274    4.4545274    4.4545274   -6252.1397     6945.435   -24127.334   -1574.5201   -10333.959   -8760.5528    2973.0164    88.390358 
   73800    1324.0701   -108.81615    1.1980465    -107.6181    19754.068    4.4516669    4.4516669    4.4516669    19754.068    44392.186   -19950.783    34820.802    22600.304   -445.86604    9133.8889    88.220191 
   73900    2209.4481   -109.59685    1.9991551    -107.5977    12465.899     4.452518     4.452518     4.452518    12465.899    51484.072    -12943.64   -1142.7349    12797.193   -8961.6314    24846.465    88.270797 
   74000    2384.4066   -109.74251    2.1574612   -107.58505   -1805.8714    4.4490534    4.4490534    4.4490534   -1805.8714   -9958.1345    20173.483   -15632.963   -12464.916    7687.8056   -9480.3098    88.064903 
   74100    1462.4368   -108.91395    1.3232436   -107.59071    3094.8634    4.4383678    4.4383678    4.4383678    3094.8634    31905.034   -2355.6693   -20264.774    34054.531   -10144.049    40325.072    87.431892 
   74200    1714.9154   -109.14101    1.5516915   -107.58932   -7693.4805     4.449998     4.449998     4.449998   -7693.4805   -19664.782   -5412.7136    1997.0542   -42152.561    8440.6968   -12766.167    88.121007 
   74300    1319.4152   -108.80072    1.1938346   -107.60689    -21329.62     4.455136     4.455136     4.455136    -21329.62   -10759.422    -4728.224   -48501.213    20254.558   -13825.146     26876.73    88.426591 
   74400    2597.9812   -109.93588     2.350708   -107.58517   -7460.4492    4.4495652    4.4495652    4.4495652   -7460.4492   -15594.829   -20157.391    13370.873   -22715.754    16927.229    5186.3135    88.095297 
   74500    1861.5517    -109.2834    1.6843711   -107.59903   -32536.544    4.4511471    4.4511471    4.4511471   -32536.544   -62803.504   -23826.297   -10979.831   -12043.115    20607.706   -5115.2127    88.189288 
   74600    2301.9076   -109.66996    2.0828144   -107.58714    12277.862    4.4484859    4.4484859    4.4484859    12277.862   -1190.3507    9030.2696    28993.668   -1208.9509    2339.0035    16435.559    88.031209 
   74700    1516.3493   -108.97553    1.3720247   -107.60351   -18570.919    4.4608164    4.4608164    4.4608164   -18570.919   -70246.603   -1858.6963    16392.543   -31699.865     15209.92   -12687.551    88.765266 
   74800    2015.1413   -109.41418    1.8233422   -107.59084   -22463.542    4.4628112    4.4628112    4.4628112   -22463.542   -49136.877   -2109.1083    -16144.64    35970.098    17742.374   -7659.9654      88.8844 
   74900    1798.8105    -109.2203    1.6276015    -107.5927    11325.248    4.4443077    4.4443077    4.4443077    11325.248   -34135.076   -10890.884    79001.704   -74039.723   -12881.818   -4534.7563    87.783394 
   75000    2315.8944   -109.69079    2.0954699   -107.59532   -3237.6507    4.4388098    4.4388098    4.4388098   -3237.6507   -27869.773    -22463.75     40620.57    50645.946    5887.0787   -11619.818    87.458012 
   75100    1153.2651   -108.66636    1.0434985   -107.62286   -11803.927    4.4397415    4.4397415    4.4397415   -11803.927   -33841.727   -32040.931    30470.878   -46622.933    9665.2612   -543.12919    87.513098 
   75200    2092.4349   -109.52094    1.8932791   -107.62766   -13843.215    4.4471131    4.4471131    4.4471131   -13843.215   -20619.791    -50645.44    29735.586   -21617.566   -6381.9436    14225.839    87.949733 
   75300    2312.1993   -109.70854    2.0921265   -107.61642   -21253.791    4.4685202    4.4685202    4.4685202   -21253.791   -55233.706   -346.41819   -8181.2476   -1430.1744    11089.377    1443.5869    89.225947 
   75400    1733.0672   -109.16088    1.5681157   -107.59277   -30174.545    4.4737223    4.4737223    4.4737223   -30174.545   -34202.015   -50275.054   -6046.5648   -37196.167    5507.2931    9347.5462    89.537932 
   75500    2274.7765   -109.62505    2.0582656   -107.56678   -8743.9312    4.4560093    4.4560093    4.4560093   -8743.9312    -8355.767   -37795.981    19919.955     4559.494   -15425.448    23397.944    88.478603 
   75600    1382.1498   -108.83822    1.2505982   -107.58762    18760.879    4.4476652    4.4476652    4.4476652    18760.879   -22282.498   -3505.0563     82070.19   -61694.308   -3153.8376   -25171.053    87.982491 
   75700    2617.2443   -109.95301    2.3681376   -107.58487   -12394.417    4.4529253    4.4529253    4.4529253   -12394.417    22092.877   -50584.144   -8691.9846    16631.064   -3864.1854    16457.688    88.295023 
   75800    1594.6685    -109.0609    1.4428895   -107.61801    2083.4766    4.4527608    4.4527608    4.4527608    2083.4766    32930.172   -51797.394    25117.651   -51535.967    4992.7657    12676.206     88.28524 
   75900    2616.7098   -109.97956     2.367654    -107.6119   -368.78336    4.4600931    4.4600931    4.4600931   -368.78336   -4068.3575   -4621.5818    7583.5892   -6336.9534    998.90825   -9008.1835    88.722089 
   76000    1601.8473   -109.07633    1.4493851   -107.62694   -48745.242    4.4688697    4.4688697    4.4688697   -48745.242   -68304.116   -83426.898     5495.287   -44008.662   -2351.7901    21561.735    89.246884 
   76100    1798.3896   -109.24715    1.6272207   -107.61993   -12321.689    4.4432879    4.4432879    4.4432879   -12321.689   -42381.218   -19477.645    24893.797   -21674.354   -15814.756   -13282.187     87.72298 
   76200    2134.3137   -109.53248    1.9311719   -107.60131    8634.1298    4.4378736    4.4378736    4.4378736    8634.1298    862.65149    46132.602   -21092.865   -22985.262    -4187.174    4596.4871    87.402689 
   76300    1117.3729   -108.65317    1.0110225   -107.64215   -40243.031    4.4578621    4.4578621    4.4578621   -40243.031   -68057.726   -49584.946   -3086.4217   -76201.236     24105.61    23533.222    88.589018 
   76400    2641.7338   -110.00515    2.3902962   -107.61485   -8324.8001     4.462363     4.462363     4.462363   -8324.8001   -4791.8478    19361.799   -39544.351    47428.451   -17357.261   -22775.557    88.857624 
   76500    1081.6369   -108.61495   0.97868777   -107.63627       -12432    4.4619873    4.4619873    4.4619873       -12432   -7854.5965   -39646.235     10204.83   -76333.779    6045.3646    10111.588    88.835182 
   76600    2275.4404   -109.67996    2.0588663    -107.6211    981.16569    4.4488915    4.4488915    4.4488915    981.16569    40004.099   -26282.948   -10777.653   -14288.261     4479.255    13465.527    88.055289 
   76700    2025.4801   -109.46168     1.832697   -107.62898    14545.744    4.4495834    4.4495834    4.4495834    14545.744    54367.478   -4110.8846   -6619.3607   -11260.067   -6888.0323    1986.8654    88.096377 
   76800    1159.8306   -108.68144    1.0494391     -107.632    -17615.22    4.4747288    4.4747288    4.4747288    -17615.22   -2838.1754   -37895.177   -12112.308   -39109.086   -7903.6343    16918.528    89.598382 
   76900    2426.9267   -109.77573    2.1959343    -107.5798    7155.9451    4.4649388    4.4649388    4.4649388    7155.9451        58742   -10604.137   -26670.029    9685.1929   -1114.3399   -13658.898    89.011587 
   77000    1495.0754   -108.94283    1.3527757   -107.59005    33397.693     4.441484     4.441484     4.441484    33397.693    38101.304    60585.063    1506.7133   -49911.094    12222.095    21661.741    87.616181 
   77100    2840.5502   -110.15838    2.5701895   -107.58819    3822.4361    4.4443764    4.4443764    4.4443764    3822.4361   -3400.7498    33450.931   -18582.873    19700.039    7417.3609    9748.8431    87.787461 
   77200    1335.9144   -108.83725    1.2087634   -107.62849   -4468.6033    4.4503212    4.4503212    4.4503212   -4468.6033    32512.674   -33035.153   -12883.331   -11704.023   -8240.2888    12918.496    88.140209 
   77300    1957.3045   -109.38796    1.7710103   -107.61695    17759.027    4.4555323    4.4555323    4.4555323    17759.027    37859.035    35985.601   -20567.555   -2445.2084    5942.9497    5411.5623    88.450193 
   77400    1533.7071   -108.99531    1.3877304   -107.60758   -17463.065    4.4690112    4.4690112    4.4690112   -17463.065   -3867.7768   -54557.253    6035.8346   -17762.062   -4096.4351   -16026.796    89.255365 
   77500    2271.0381   -109.64165     2.054883   -107.58677   -2817.8684    4.4535408    4.4535408    4.4535408   -2817.8684    16116.328   -43858.829    19288.896    3268.9616    6249.8819    9250.5969    88.331642 
   77600    1868.0008   -109.27147    1.6902064   -107.58127    40397.603    4.4376825    4.4376825    4.4376825    40397.603    16382.722    91356.509    13453.578   -20368.384    15086.103    7514.2553    87.391399 
   77700    2235.1093   -109.62941    2.0223739   -107.60704   -21883.209    4.4515712    4.4515712    4.4515712   -21883.209   -36693.188   -53121.241    24164.803    7265.7994   -19286.281   -12329.048    88.214499 
   77800    1881.9896   -109.30329    1.7028637   -107.60043   -20160.665    4.4614368    4.4614368    4.4614368   -20160.665   -42011.087    31830.754   -50301.661    21125.116    10656.576     368.0752    88.802306 
   77900    1589.1106    -109.0207    1.4378606   -107.58283    5046.4463    4.4682463    4.4682463    4.4682463    5046.4463   -21837.725    42913.354    -5936.291    -38110.58    5316.4302    4367.5749    89.209542 
   78000    1729.8411   -109.14913    1.5651965   -107.58393   -35846.789    4.4716253    4.4716253    4.4716253   -35846.789   -73591.586    -35707.74     1758.959    25263.837    10439.006   -11649.108    89.412083 
   78100    2219.2341   -109.58386    2.0080097   -107.57585    19695.456    4.4585324    4.4585324    4.4585324    19695.456    87568.863   -11222.479   -17260.016   -18518.055   -2185.3856    12638.223    88.628987 
   78200    1679.1718   -109.12471    1.5193499   -107.60536    1701.0743    4.4498151    4.4498151    4.4498151    1701.0743    20292.677   -18380.678    3191.2246   -38661.075     6551.393     5302.916    88.110142 
   78300    1643.9713   -109.10184    1.4874998   -107.61434    15456.494    4.4521223    4.4521223    4.4521223    15456.494    98323.263   -271.52607   -51682.254    18869.656     19115.24    10031.596    88.247265 
   78400    1466.8818   -108.95896    1.3272655    -107.6317   -49681.876    4.4662427    4.4662427    4.4662427   -49681.876   -58747.009   -58327.593   -31971.027   -55949.612   -30157.209    7035.2932    89.089587 
   78500    1960.0789   -109.38835    1.7735205   -107.61483     -19229.1    4.4594217    4.4594217    4.4594217     -19229.1   -18956.728   -16081.542    -22649.03    -7179.101    3537.0464   -8543.0456     88.68203 
   78600    2237.1364   -109.62633    2.0242081   -107.60212    1881.1519    4.4463655    4.4463655    4.4463655    1881.1519    20375.465   -1103.9828   -13628.027    -10408.08   -1833.3561    43938.939    87.905387 
   78700    1619.9825   -109.09951    1.4657943   -107.63371   -37407.009     4.453836     4.453836     4.453836   -37407.009    -75979.09   -28992.351   -7249.5851   -55740.861   -9117.1121   -15736.629    88.349206 
   78800    2580.8229   -109.94673    2.3351828   -107.61155    7550.7264    4.4553369    4.4553369    4.4553369    7550.7264    27362.776    18743.224   -23453.821    -212.5497    11659.986    253.31204    88.438556 
   78900     945.4711   -108.50016   0.85548212   -107.64467   -26209.333      4.46764      4.46764      4.46764   -26209.333   -71160.037     965.1983   -8433.1589    -47589.54   -23509.224    5256.2856    89.173234 
   79000    2669.3974   -110.01792    2.4153268   -107.60259   -13048.966    4.4715496    4.4715496    4.4715496   -13048.966   -24047.039   -10850.517    -4249.342     3260.404    2799.1604   -1293.4528    89.407543 
   79100    1475.1422    -108.9456    1.3347396   -107.61086   -21991.598    4.4718064    4.4718064    4.4718064   -21991.598    -61867.08   -5019.0901    911.37507   -38579.286    -25118.62    11265.282    89.422948 
   79200    1978.7522   -109.39927    1.7904166   -107.60885   -31434.426    4.4637375    4.4637375    4.4637375   -31434.426   -53983.577    -26345.59   -13974.109   -20129.903   -15607.851    16580.576    88.939755 
   79300    2280.1789   -109.64846    2.0631537   -107.58531    26667.401    4.4401922    4.4401922    4.4401922    26667.401    9163.4363    72421.926   -1583.1589   -8420.6378    11844.387    8360.9054    87.539754 
   79400    1566.6852   -109.04721    1.4175697   -107.62964   -1964.7363     4.444311     4.444311     4.444311   -1964.7363   -52856.731    53667.776   -6705.2539   -36581.298   -40224.114    2430.0253    87.783587 
   79500    2407.6802   -109.79907    2.1785196   -107.62055    8341.4662    4.4642521    4.4642521    4.4642521    8341.4662    16632.243   -2361.8301    10753.986    13192.217    5949.7925   -3224.9373     88.97052 
   79600    982.57614    -108.5191   0.88905554   -107.63004    20453.645    4.4808075    4.4808075    4.4808075    20453.645    13506.415    26935.234    20919.287   -52442.556   -14911.578   -3431.5952    89.964019 
   79700    2902.8561   -110.18365    2.6265652   -107.55709   -21165.451    4.4995028    4.4995028    4.4995028   -21165.451    12422.065   -24802.405   -51116.014    26843.454    10518.154    9847.3969    91.094799 
   79800    1430.1882   -108.87191    1.2940644   -107.57784   -12222.704    4.4687303    4.4687303    4.4687303   -12222.704   -73557.842    -4266.424    41156.154   -50251.044   -2950.1247   -500.73934    89.238535 
   79900    2186.2015   -109.52341     1.978121   -107.54529    72591.985    4.4265635    4.4265635    4.4265635    72591.985    85938.779     57036.13    74801.045    8116.3941   -13971.206    6272.3495     86.73614 
   80000    1961.1601   -109.37304    1.7744989   -107.59854    20193.834    4.4387497    4.4387497    4.4387497    20193.834     8206.564    19596.382    32778.556   -18067.391    3539.7112   -11807.817    87.454459 
   80100    1164.5306   -108.71724    1.0536917   -107.66355   -10938.454    4.4690267    4.4690267    4.4690267   -10938.454   -45509.833   -12793.148     25487.62   -39252.597   -1049.8311    2057.9036    89.256294 
   80200    2734.9725   -110.07837    2.4746606   -107.60371   -21096.829    4.4860724    4.4860724    4.4860724   -21096.829    590.77274   -30990.588   -32890.672    17742.862     10621.04    17573.818    90.281517 
   80300    1218.7173   -108.69687    1.1027211   -107.59415    4935.5018    4.4637205    4.4637205    4.4637205    4935.5018   -15570.954    22704.121     7673.338   -56634.754   -18685.279   -11413.885    88.938738 
   80400    2426.5364   -109.75147    2.1955812   -107.55589    39903.043    4.4345428    4.4345428    4.4345428    39903.043    22474.585    69335.383    27899.162     21583.86    9411.3624    23910.572    87.206035 
   80500    1101.9212   -108.62307   0.99704142   -107.62603    4035.9856    4.4475072    4.4475072    4.4475072    4035.9856   -36548.378   -52536.741    101193.08   -55437.472    638.19563    16517.491     87.97312 
   80600    2486.9094   -109.85632    2.2502078   -107.60611   -22375.862    4.4775078    4.4775078    4.4775078   -22375.862    1677.0253   -44295.348   -24509.264    8178.0627    -11124.47    3806.6578    89.765415 
   80700    2162.9607   -109.53662    1.9570923   -107.57952   -26636.042    4.4800001    4.4800001    4.4800001   -26636.042   -33908.618   -54883.737     8884.227   -27097.518    5543.0079    13172.425    89.915398 
   80800    1754.8871   -109.15249    1.5878587   -107.56463    7700.6211     4.468143     4.468143     4.468143    7700.6211   -45131.703   -41478.643    109712.21   -13682.398   -20227.634   -2678.0858    89.203358 
   80900    2490.3818   -109.82085    2.2533498    -107.5675   -2045.2657    4.4471928    4.4471928    4.4471928   -2045.2657   -5372.8345   -7978.1045    7215.1418   -14440.304    15602.881    93.200195    87.954459 
   81000    1151.3111   -108.64636    1.0417305   -107.60463    58572.029    4.4330714    4.4330714    4.4330714    58572.029    9544.3419    2213.1005    163958.65   -19139.483   -5143.9554    1643.7468    87.119257 
   81100    2401.7163   -109.80639    2.1731234   -107.63327   -17148.759     4.458365     4.458365     4.458365   -17148.759   -18588.535   -45985.573     13127.83   -10205.694   -15973.834   -811.89519    88.619006 
   81200    1633.2594   -109.11394    1.4778074   -107.63613   -24980.843    4.4660582    4.4660582    4.4660582   -24980.843   -45436.309    -67978.39    38472.171   -62198.143    13431.372   -7655.9752    89.078548 
   81300    2508.7146   -109.86484    2.2699377    -107.5949    1350.8371    4.4626437    4.4626437    4.4626437    1350.8371   -22928.196   -2206.8954    29187.603     29333.93   -188.17174    9763.3829    88.874391 
   81400    1128.6683   -108.63651    1.0212428   -107.61527    -37073.94    4.4670481    4.4670481    4.4670481    -37073.94    -35739.79   -89908.638    14426.607   -71081.762   -3421.7215   -18225.496    89.137792 
   81500     2533.759   -109.88144    2.2925984   -107.58885     10058.21    4.4522712    4.4522712    4.4522712     10058.21    16124.166   -20677.927    34728.392    27669.679    2538.3499   -9507.7144    88.256122 
   81600    1655.9991    -109.1207    1.4983828   -107.62231   -20141.891    4.4515461    4.4515461    4.4515461   -20141.891    -24429.38   -71674.274    35677.982   -78211.488   -3257.1725    21668.543    88.213007 
   81700    2073.1701   -109.49468    1.8758479   -107.61883   -11424.348     4.466197     4.466197     4.466197   -11424.348    25239.214   -42170.786   -17341.472    8235.5886   -19350.572   -31387.008    89.086856 
   81800    2096.3726   -109.48566     1.896842   -107.58882   -24520.382    4.4792732    4.4792732    4.4792732   -24520.382   -19382.017   -83285.595    29106.465   -55133.442    6492.3179    2700.8984    89.871636 
   81900    2131.2704   -109.49835    1.9284183   -107.56993   -21861.727    4.4682809    4.4682809    4.4682809   -21861.727   -2295.5597   -29322.657   -33966.963    -3068.103   -22491.419   -18384.246    89.211615 
   82000    1404.1698   -108.83113    1.2705223   -107.56061    26365.414    4.4388751    4.4388751    4.4388751    26365.414    32920.708   -3010.7545    49186.288   -35918.556    14076.835   -6194.3247    87.461873 
   82100    2267.0926   -109.65043     2.051313   -107.59912    779.78386    4.4527617    4.4527617    4.4527617    779.78386    37189.594   -21234.732   -13615.511   -30924.578     -10205.6     1435.929    88.285293 
   82200    1727.3238   -109.14966    1.5629189   -107.58674   -55196.366    4.4803472    4.4803472    4.4803472   -55196.366   -49391.837   -71172.806   -45024.456   -27979.043    -15463.99   -14960.324      89.9363 
   82300    2031.3981    -109.3985    1.8380517   -107.56045   -16095.998    4.4514636    4.4514636    4.4514636   -16095.998   -10762.792   -59915.128    22389.926   -38454.013    4072.5896    3888.6127    88.208101 
   82400    2049.0999   -109.42314    1.8540687   -107.56908   -14584.548    4.4422827    4.4422827    4.4422827   -14584.548    4315.2427   -28702.228   -19366.658    10971.919   -15330.045    27175.534    87.663456 
   82500    1265.2833   -108.75504     1.144855   -107.61019    -32869.85    4.4557493    4.4557493    4.4557493    -32869.85   -94274.099   -44373.259    40037.808   -93182.221      3846.01    -11475.22     88.46312 
   82600    2771.5883   -110.09349    2.5077913    -107.5857    10681.269    4.4486485    4.4486485    4.4486485    10681.269    39936.817    11349.813   -19242.823    29903.385   -2395.4121    27553.703    88.040859 
   82700    1369.8063   -108.86507    1.2394295   -107.62564    -34156.13    4.4584169    4.4584169    4.4584169    -34156.13    -76545.61   -44342.111    18419.332   -65663.553   -16046.016    16862.051    88.622097 
   82800    2668.2893   -110.00187    2.4143242   -107.58755   -4799.4421    4.4617409    4.4617409    4.4617409   -4799.4421    -8243.714   -12336.861    6182.2489    10784.908    6601.4726   -9975.5196    88.820465 
   82900    829.50133   -108.34727   0.75055023   -107.59672    59950.477    4.4506567    4.4506567    4.4506567    59950.477    61942.349     8624.899    109284.18   -38151.836    769.09522    21554.417    88.160144 
   83000    2328.3872   -109.69363    2.1067737   -107.58686   -3080.0982    4.4654804    4.4654804    4.4654804   -3080.0982   -38825.198     15826.07    13758.834   -6839.1821   -18096.934   -8266.6921    89.043979 
   83100    2205.5143   -109.58855    1.9955957   -107.59295    -30798.68    4.4587893    4.4587893    4.4587893    -30798.68   -27805.947   -58778.173   -5811.9217   -28135.863    6802.1512    24321.844    88.644309 
   83200    1179.6223   -108.67966     1.067347   -107.61232    47574.789    4.4321892    4.4321892    4.4321892    47574.789    85128.911   -29350.316    86945.772   -49297.036   -4415.7022    14348.113    87.067262 
   83300    2580.1959   -109.94572    2.3346154   -107.61111    4354.6805    4.4464252    4.4464252    4.4464252    4354.6805    1593.0279   -33477.056     44948.07   -760.97187   -9170.7337   -21632.326    87.908924 
   83400    1429.2287   -108.91977    1.2931962   -107.62657   -38611.927    4.4590381    4.4590381    4.4590381   -38611.927   -56107.537   -85676.415     25948.17   -75497.277    -3314.513     31328.07    88.659148 
   83500    2097.6425   -109.49908     1.897991   -107.60108    12134.142    4.4605475    4.4605475    4.4605475    12134.142    18097.042   -18156.781    36462.166    27580.474    2667.6601    1753.6638    88.749215 
   83600    1381.5341   -108.85732    1.2500411   -107.60728   -28557.743    4.4737036    4.4737036    4.4737036   -28557.743   -74242.873   -68078.727    56648.373   -48430.652   -5575.3899   -13324.484    89.536812 
   83700    2569.0303   -109.90304    2.3245126   -107.57852   -2891.2503    4.4503364    4.4503364    4.4503364   -2891.2503   -3013.3916   -15562.934    9902.5752     8195.594   -8997.7293    27896.197    88.141112 
   83800    1423.5704   -108.87337    1.2880764    -107.5853     45183.45    4.4213792    4.4213792    4.4213792     45183.45    54268.676    37419.552    43862.122   -59024.239    5982.2576   -27639.792    86.431746 
   83900    2163.1831   -109.59329    1.9572936     -107.636    2225.9314     4.451615     4.451615     4.451615    2225.9314   -7944.5239    -10767.86    25390.179   -6311.6806    9820.2663    8961.7048      88.2171 
   84000     1291.083   -108.78541    1.1681991   -107.61721    23015.118    4.4816979    4.4816979    4.4816979    23015.118   -5018.0022    7111.0648    66952.292   -33903.133   -12632.918    -12452.85    90.017664 
   84100    2443.2168   -109.75151    2.2106739   -107.54084   -17793.075    4.4955155    4.4955155    4.4955155   -17793.075    15342.818   -63007.432   -5714.6115   -12873.334   -10832.358   -12293.315    90.852841 
   84200    1579.4455   -108.96623    1.4291155   -107.53712   -2152.8458    4.4665832    4.4665832    4.4665832   -2152.8458   -17168.249   -33624.288    44333.999    -14773.45   -5352.3089    10188.423    89.109968 
   84300    1947.9106   -109.27672    1.7625105   -107.51421    30958.043    4.4277546    4.4277546    4.4277546    30958.043      18643.5    9949.8258    64280.803   -31936.691    9976.9226   -25423.091    86.806179 
   84400    1805.7879   -109.21203    1.6339148   -107.57812    1890.5968    4.4253118    4.4253118    4.4253118    1890.5968   -11263.225    2513.8844    14421.131    58860.975   -2354.1205     8073.283    86.662583 
   84500    2101.1342   -109.52937    1.9011504   -107.62822    9971.0269    4.4396368    4.4396368    4.4396368    9971.0269    36073.763    7265.3864   -13426.068    -47082.36   -8317.5723    1755.1142    87.506907 
   84600    2069.6169   -109.51403    1.8726329    -107.6414   -21295.732    4.4735216    4.4735216    4.4735216   -21295.732   -17822.981   -19789.324   -26274.891    52724.264   -9208.2688   -2733.8524    89.525885 
   84700    1880.2832   -109.29672    1.7013198    -107.5954   -34814.812    4.4780711    4.4780711    4.4780711   -34814.812   -4544.8134   -26097.317   -73802.306    8687.9772    -12099.62   -14433.024    89.799303 
   84800    1898.6361    -109.2904    1.7179259   -107.57247    14708.905     4.438817     4.438817     4.438817    14708.905    57294.237    78.942749   -13246.465    17552.326      11862.6   -21285.465    87.458437 
   84900     1521.357   -108.96784    1.3765557   -107.59128    6986.5051    4.4216985    4.4216985    4.4216985    6986.5051   -30987.291    20801.532    31145.274     47766.47   -15683.751    18267.744    86.450476 
   85000    2232.0064   -109.63778    2.0195663   -107.61821    47329.796    4.4302393    4.4302393    4.4302393    47329.796    97703.358     48774.21   -4488.1805   -13012.579   -5474.2479   -8440.1457    86.952395 
   85100    1451.1934   -108.97877    1.3130703    -107.6657     12330.83    4.4651425    4.4651425    4.4651425     12330.83    22265.609    18956.039   -4229.1568    73405.948    11258.896   -4531.6816    89.023766 
   85200    2920.3996    -110.2378    2.6424389   -107.59536   -14531.076    4.4744617    4.4744617    4.4744617   -14531.076   -2625.1184   -618.94548   -40349.164   -20480.999    -13489.94    14686.692    89.582337 
   85300    941.11693   -108.44084   0.85154237    -107.5893    41954.297    4.4407659    4.4407659    4.4407659    41954.297    39348.536    31949.602    54564.753    72840.596    14847.565   -16558.454    87.573688 
   85400    2346.0291   -109.69186    2.1227364   -107.56912    17965.411    4.4420879    4.4420879    4.4420879    17965.411    5819.6868    14753.469    33323.076   -4770.0573    -3101.174    15249.932    87.651922 
   85500    1627.8397   -109.06829    1.4729036   -107.59539   -22736.047     4.455727     4.455727     4.455727   -22736.047   -18485.447    -65742.85    16020.154    51326.619   -4791.1742   -12647.485    88.461789 
   85600    1964.4108   -109.37899    1.7774402   -107.60155   -4898.4147    4.4636168    4.4636168    4.4636168   -4898.4147   -40412.906    -48908.42    74626.082    11785.959   -3395.9057   -7733.2878    88.932545 
   85700    2207.0634   -109.59166    1.9969974   -107.59466   -25602.572    4.4615793    4.4615793    4.4615793   -25602.572   -66410.532   -20094.367    9697.1843    29925.199   -13673.777    2586.7745    88.810816 
   85800    1129.6945   -108.62385    1.0221713   -107.60168    12059.715    4.4459222    4.4459222    4.4459222    12059.715   -38430.658    4323.6955    70286.107    38056.926    16670.922   -23525.115    87.879097 
   85900    2761.0618   -110.08752    2.4982668   -107.58925    -40.23415    4.4449834    4.4449834    4.4449834    -40.23415   -9330.0904   -13981.098    23190.486    21339.421   -13431.913     12712.99    87.823438 
   86000    1007.6687   -108.53041   0.91175981   -107.61865    39847.324    4.4587772    4.4587772    4.4587772    39847.324    6870.5468    35044.666     77626.76    61661.935    21597.125   -20911.479    88.643583 
   86100    2361.6797   -109.72034    2.1368974   -107.58344   -7725.7448    4.4862957    4.4862957    4.4862957   -7725.7448    8553.8167   -46273.512    14542.461   -4357.3673   -20471.451     2137.975    90.294998 
   86200    1366.4171   -108.79403    1.2363629   -107.55767   -45110.655    4.4868688    4.4868688    4.4868688   -45110.655   -87969.924   -53309.655    5947.6157    62149.385     11624.77   -2489.1761    90.329606 
   86300    2343.7154   -109.65156    2.1206429   -107.53092    7587.8863    4.4414185    4.4414185    4.4414185    7587.8863    35116.692    24818.659   -37171.692   -35455.765    19500.877   -22916.809    87.612302 
   86400    1939.0787    -109.3196    1.7545192   -107.56508    13891.921     4.426138     4.426138     4.426138    13891.921   -6760.9748   -22855.315    71292.052    55222.375    349.97759    5631.3256    86.711132 
   86500    1832.0103   -109.28261    1.6576414   -107.62497   -515.08729    4.4590623    4.4590623    4.4590623   -515.08729    98.192683   -3446.8016    1803.3471   -19651.458    11000.773   -17334.475    88.660594 
   86600    1380.6927   -108.85084    1.2492798   -107.60156   -5794.8265    4.4897509    4.4897509    4.4897509   -5794.8265    15104.202   -43532.111    11043.429    31623.262   -3497.5865   -25596.452    90.503783 
   86700    2357.8304   -109.65798    2.1334145   -107.52456   -44995.804    4.4984745    4.4984745    4.4984745   -44995.804   -71169.735    14469.941   -78287.618   -8921.9897   -13101.768    16046.105    91.032356 
   86800     2077.524   -109.37075    1.8797874   -107.49096   -37643.678    4.4822383    4.4822383    4.4822383   -37643.678   -51028.188   -55107.792    -6795.054    21701.746     10994.46    1450.6098    90.050227 
   86900    2144.5992   -109.43856    1.9404784   -107.49808    1524.1412    4.4492702    4.4492702    4.4492702    1524.1412   -41746.011    30162.127    16156.307    9312.8893   -20546.202    1423.2241    88.077776 
   87000    1383.3577   -108.81107    1.2516911   -107.55938    33271.578    4.4318676    4.4318676    4.4318676    33271.578    17419.121    73296.105     9099.508    3755.3371    2541.3052      1719.09    87.048306 
   87100    2089.0436   -109.49858    1.8902105   -107.60837     17067.77    4.4590711    4.4590711    4.4590711     17067.77   -10327.111    30271.359     31259.06    34980.671   -9099.3611   -9238.3524    88.661115 
   87200    1309.7841   -108.79793    1.1851202   -107.61281   -29879.232     4.483108     4.483108     4.483108   -29879.232   -87014.937    43735.374   -46358.132   -5607.5913    2905.9351    -11713.18    90.102658 
   87300    2749.3243   -110.06465    2.4876464     -107.577   -6691.6883    4.4680776    4.4680776    4.4680776   -6691.6883    -29116.56   -22460.181    31501.676   -15105.216    22889.316    10999.951     89.19944 
   87400    1515.5768   -108.95913    1.3713257   -107.58781    38618.544    4.4360458    4.4360458    4.4360458    38618.544    27061.439    76476.035    12318.158     1807.028   -28366.939    1743.2359    87.294735 
   87500    1973.0027     -109.399    1.7852143   -107.61378    38595.479    4.4424582    4.4424582    4.4424582    38595.479    1991.0675    43748.174    70047.196   -7620.4996    31547.352   -6207.3327    87.673844 
   87600    2040.5025   -109.46077    1.8462895   -107.61448   -11768.087    4.4713264    4.4713264    4.4713264   -11768.087    3495.8528   -34772.005   -4028.1092   -1443.5627   -3828.5231    21868.345    89.394157 
   87700    1224.4238   -108.71977    1.1078844   -107.61189    5796.8972    4.4760248    4.4760248    4.4760248    5796.8972   -2627.1095    58755.316   -38737.515    -4178.014   -1626.4701   -2232.3462    89.676251 
   87800    2888.2843   -110.19811    2.6133803   -107.58473    5719.3187     4.453918     4.453918     4.453918    5719.3187   -9081.7096    56761.101   -30521.436   -5842.4459    3311.5139    22188.749    88.354091 
   87900    1148.5077   -108.65832    1.0391939   -107.61912   -2437.4351    4.4424605    4.4424605    4.4424605   -2437.4351   -31064.787    75542.006   -51789.524   -1692.7937   -11898.159   -1484.0493    87.673983 
   88000    2939.4263   -110.26335    2.6596547    -107.6037   -3387.3496     4.446533     4.446533     4.446533   -3387.3496   -10943.998    7498.7796   -6716.8305    11110.717    6216.8654     17016.14    87.915317 
   88100    773.57069   -108.34502   0.69994302   -107.64508    28957.608    4.4504639    4.4504639    4.4504639    28957.608   -3226.1058       112990   -22891.069   -89.841273   -5950.1856    8059.7598    88.148689 
   88200    2808.3968   -110.16012    2.5410965   -107.61903   -16294.905    4.4733536    4.4733536    4.4733536   -16294.905   -10935.791   -19072.922   -18876.004    6170.4597    6125.4617    5819.9044    89.515796 
   88300    1604.3417   -109.05962     1.451642   -107.60798   -13105.382    4.4746483    4.4746483    4.4746483   -13105.382   -40404.224    86193.152   -85105.074    868.34018   -26388.464   -1578.9876    89.593547 
   88400    1864.1566   -109.27062    1.6867281   -107.58389   -8980.7019    4.4573109    4.4573109    4.4573109   -8980.7019   -26811.677   -13536.976    13406.547   -18577.566   -2735.8862    3034.7055     88.55616 
   88500     2262.273   -109.62805    2.0469522    -107.5811     -13874.5    4.4514388    4.4514388    4.4514388     -13874.5   -59352.605    40064.591   -22335.487   -2857.9161    1568.7632   -12305.937    88.206629 
   88600     1548.325   -109.01139     1.400957   -107.61044   -4575.5442    4.4556419    4.4556419    4.4556419   -4575.5442   -31208.427     58064.57   -40582.775    3002.6643   -26280.508    4727.7123     88.45672 
   88700     2547.522    -109.9037    2.3050515   -107.59865    11069.684    4.4725619    4.4725619    4.4725619    11069.684   -10266.643   -5877.6924    49353.388   -1717.8288    12411.921    6611.0755    89.468277 
   88800    861.14758    -108.3987   0.77918443   -107.61952   -15198.849    4.4701497    4.4701497    4.4701497   -15198.849   -5931.0798    6050.0288   -45715.496    -1764.288   -9753.6229   -2476.1265      89.3236 
   88900    2454.0233   -109.80818    2.2204518   -107.58773    21989.392     4.453789     4.453789     4.453789    21989.392   -43625.198    16060.794    93532.579    24125.856   -6323.6292    14005.133    88.346412 
   89000    1702.5618   -109.16298    1.5405137   -107.62247   -8285.1291    4.4465979    4.4465979    4.4465979   -8285.1291   -33684.726    46271.254   -37441.915   -4806.6674    5037.6301   -29241.133    87.919169 
   89100     1929.711   -109.37391     1.746043   -107.62787    31901.464    4.4422692    4.4422692    4.4422692    31901.464   -22378.762    63283.788    54799.367    16276.052   -5991.8998    17032.263    87.662653 
   89200    1919.7866   -109.36887    1.7370633   -107.63181   -4049.3422    4.4662601    4.4662601    4.4662601   -4049.3422   -23419.185    32363.436   -21092.278    17908.331   -7387.9565   -21919.065    89.090632 
   89300    1507.2114   -108.97928    1.3637566   -107.61553   -9995.0154    4.4743203    4.4743203    4.4743203   -9995.0154   -28406.848    22893.914   -24472.113   -8978.4025    8279.5948    4782.2604    89.573845 
   89400    2796.8633   -110.10403    2.5306607   -107.57337   -8074.9289    4.4660527    4.4660527    4.4660527   -8074.9289   -21923.051   -1044.7829   -1256.9525    5538.5476    2325.7996   -13138.887    89.078221 
   89500    1450.8175    -108.9134    1.3127301   -107.60067   -4597.1185     4.451793     4.451793     4.451793   -4597.1185   -7801.5574    41655.926   -47645.724   -4718.3166   -12055.603   -19237.183    88.227688 
   89600    2519.1496   -109.87133    2.2793795   -107.59195    5417.8339    4.4550477    4.4550477    4.4550477    5417.8339    3799.7254    12142.852    310.92385   -23008.687    9134.4447    5630.1583    88.421335 
   89700    1338.7527   -108.82118    1.2113316   -107.60985    -35974.11    4.4689314    4.4689314    4.4689314    -35974.11    20837.441   -48710.262   -80049.509   -11427.303   -14677.317   -48228.849    89.250586 
   89800    2161.2539   -109.53162     1.955548   -107.57607    14959.391    4.4646167    4.4646167    4.4646167    14959.391    36201.354    22089.221   -13412.403    2203.5114    21181.845    25867.639     88.99232 
   89900    1862.2694   -109.27688    1.6850205   -107.59186   -14901.129     4.469603     4.469603     4.469603   -14901.129    37287.061   -33923.904   -48066.543    3721.8794   -6825.3697   -53942.793    89.290827 
   90000    1840.8885   -109.25141    1.6656746   -107.58573   -13275.452     4.469275     4.469275     4.469275   -13275.452   -10529.449    19236.925   -48533.831   -6471.7382   -8303.3919    19174.097    89.271173 
   90100    1876.5549   -109.26913    1.6979463   -107.57118    25557.352    4.4467431    4.4467431    4.4467431    25557.352    42188.714    36206.752   -1723.4101    18288.501    1367.0396   -58794.289    87.927782 
   90200    1902.8933   -109.32334    1.7217779   -107.60156    11315.513     4.447733     4.447733     4.447733    11315.513    10038.106    26404.415   -2495.9813   -34511.301   -25454.344   -12874.457    87.986515 
   90300    1973.6663   -109.38397    1.7858147   -107.59816     15461.32    4.4580972    4.4580972    4.4580972     15461.32    70395.393    -9535.797   -14475.636    12197.102    14099.231   -10821.679    88.603037 
   90400    1676.6284   -109.12569    1.5170486   -107.60864   -3943.3644    4.4592583    4.4592583    4.4592583   -3943.3644    22687.374    15154.507   -49671.974   -3934.0113   -14792.449   -55888.296    88.672283 
   90500    2527.3871   -109.87686    2.2868329   -107.59002    8633.2161    4.4586393    4.4586393    4.4586393    8633.2161    12517.361     9654.058    3728.2289   -6888.3949   -17677.117    12822.022     88.63536 
   90600     1140.842   -108.65079    1.0322578   -107.61853   -3979.8747    4.4478734    4.4478734    4.4478734   -3979.8747    66890.271   -37171.786   -41658.109    30575.591    6124.8253   -96331.426    87.994849 
   90700    2836.9937   -110.16156    2.5669715   -107.59459    18787.246    4.4408224    4.4408224    4.4408224    18787.246   -5090.4345    18701.299    42750.874   -14988.454   -12522.349    32364.263    87.577029 
   90800    1006.8813   -108.55396   0.91104737   -107.64291   -18911.158    4.4590883    4.4590883    4.4590883   -18911.158    19275.682   -32403.379   -43605.777    7477.6015     4227.248   -86801.496    88.662142 
   90900    2457.6395   -109.82349    2.2237238   -107.59976   -21930.541    4.4672647    4.4672647    4.4672647   -21930.541   -38985.026   -28103.123    1296.5261    22928.265   -4456.6283    6838.1079    89.150763 
   91000    1993.4295   -109.40123    1.8036969   -107.59754    -4757.152     4.460174     4.460174     4.460174    -4757.152    15463.573   -24663.385   -5071.6445   -4568.4126   -590.35045    -48853.86    88.726917 
   91100    1843.8622    -109.2639    1.6683653   -107.59553   -19459.688     4.463889     4.463889     4.463889   -19459.688   -32532.981    11112.836   -36958.919     23148.81   -5764.2085   -15322.802    88.948811 
   91200    2099.9904   -109.48097    1.9001155   -107.58086   -20913.181    4.4668001    4.4668001    4.4668001   -20913.181   -48829.024   -4698.3545   -9212.1636    2399.3382   -8731.2199   -3677.2867    89.122951 
   91300    1815.7874   -109.22157    1.6429626   -107.57861    9911.2896    4.4666184    4.4666184    4.4666184    9911.2896    35764.617    15319.263   -21350.011   -5978.7517   -3769.1775   -44478.046    89.112076 
   91400    2218.5738   -109.55516    2.0074122   -107.54775    23426.462    4.4707762    4.4707762    4.4707762    23426.462   -12966.564    44924.649      38321.3    13078.756   -4149.5428   -13323.833     89.36116 
   91500    1232.5571   -108.66674    1.1152436    -107.5515   -3049.2559    4.4792705    4.4792705    4.4792705   -3049.2559    8857.3774   -30827.481    12822.335   -17462.684    17363.259   -55006.352    89.871474 
   91600    2293.7974   -109.60914    2.0754761   -107.53366   -19557.679    4.4784591    4.4784591    4.4784591   -19557.679   -52031.961    19579.101   -26220.178    9937.0176     11244.22    22756.975    89.822647 
   91700    1599.6068   -108.98966    1.4473579   -107.54231   -3307.4855    4.4634081    4.4634081    4.4634081   -3307.4855    75592.556   -52990.993    -32524.02   -10894.698    5137.2285   -60049.426     88.92007 
   91800    2501.2277   -109.80946    2.2631634    -107.5463   -228.49525    4.4608102    4.4608102    4.4608102   -228.49525   -24978.006   -16487.045    40779.565   -12709.729     16661.62    40042.696    88.764892 
   91900    1732.8929   -109.15394    1.5679579   -107.58598   -45343.077    4.4806872    4.4806872    4.4806872   -45343.077   -9104.8768   -70925.269   -55999.087    4033.2977    1931.8148   -68661.285    89.956774 
   92000    2307.4254   -109.66098     2.087807   -107.57317    2192.2417    4.4761675    4.4761675    4.4761675    2192.2417   -27492.327   -9754.3239    43823.376    -11712.25    5268.1063    -4032.037    89.684831 
   92100    1545.2849   -108.99861    1.3982063    -107.6004    11657.252    4.4420348    4.4420348    4.4420348    11657.252    75886.963   -27156.564   -13758.642   -7869.2767    15822.472   -51951.245    87.648776 
   92200    1354.8148   -108.82939    1.2258649   -107.60352    64935.265    4.4189727    4.4189727    4.4189727    64935.265    62841.475    611.50295    131352.82   -5460.5311    92.098007   -30594.624    86.290691 
   92300    2310.2081   -109.72184    2.0903249   -107.63151    990.74472    4.4509041    4.4509041    4.4509041    990.74472   -20987.198     21503.28    2456.1524    4850.9739    3424.9659    12880.699    88.174845 
   92400    1493.8888   -108.97759     1.351702   -107.62588   -14619.727    4.4747841    4.4747841    4.4747841   -14619.727     18023.52   -22991.592   -38891.108   -1106.7801    8500.5753   -70668.408    89.601704 
   92500     2278.064   -109.63598    2.0612402   -107.57474     14946.02    4.4665539    4.4665539    4.4665539     14946.02    35990.958    14.161837    8832.9392   -9245.7558    -13214.27    50564.299    89.108212 
   92600     1515.348   -108.94509    1.3711187   -107.57397    19868.589     4.467808     4.467808     4.467808    19868.589    86525.005   -12575.862   -14343.375    5351.4201   -7034.8315   -55869.187    89.183291 
   92700    2190.6608   -109.54596    1.9821559    -107.5638   -26746.899    4.4653985    4.4653985    4.4653985   -26746.899   -36179.741   -48531.333    4470.3784     9962.204   -17520.261    35635.744    89.039081 
   92800    1341.4761   -108.79225    1.2137958   -107.57846    27643.724    4.4346403    4.4346403    4.4346403    27643.724    76590.642   -23301.946    29642.476    6247.0398   -9178.1032   -15612.976    87.211788 
   92900    2456.4653   -109.82077    2.2226615   -107.59811    14362.112    4.4478779    4.4478779    4.4478779    14362.112    61200.509   -19712.751    1598.5788    9827.3582    1267.1612      287.154    87.995116 
   93000    947.47378   -108.48399   0.85729419   -107.62669   -55993.632    4.4702734    4.4702734    4.4702734   -55993.632   -14201.689   -105784.47   -47994.738    16901.882    -2120.855    27286.445    89.331011 
   93100    2621.9823   -109.95575    2.3724247   -107.58333    7214.7174    4.4554203    4.4554203    4.4554203    7214.7174    41620.096    643.61328   -20619.557   -12349.492    13296.453     -24912.8    88.443521 
   93200    1273.6226    -108.7541    1.1524005    -107.6017   -13263.183    4.4616858    4.4616858    4.4616858   -13263.183     33759.47   -77289.147    3740.1299   -1655.3354    12703.134    65924.709    88.817172 
   93300    2521.4257    -109.8494     2.281439   -107.56796   -7122.6446    4.4717978    4.4717978    4.4717978   -7122.6446   -2534.5181   -21009.455    2176.0393   -9893.4435   -5983.2698   -2198.0297     89.42243 
   93400    1776.2232   -109.17493    1.6071641   -107.56776   -30742.879     4.478676     4.478676     4.478676   -30742.879   -11992.501   -44949.219   -35286.917   -14409.139   -13719.872    38242.581    89.835698 
   93500    1769.9664   -109.15757    1.6015028   -107.55607   -13676.697    4.4648902    4.4648902    4.4648902   -13676.697     7021.093   -40870.399   -7180.7859    1369.0616    7881.6315   -3898.0804    89.008676 
   93600    2115.8356   -109.46844    1.9144525   -107.55398    3447.1006    4.4526108    4.4526108    4.4526108    3447.1006    30556.297   -4166.0358    -16048.96    4704.8949    9111.0924     41887.46    88.276317 
   93700     1479.875   -108.93283     1.339022   -107.59381   -9796.9362    4.4650672    4.4650672    4.4650672   -9796.9362    8552.3498   -11339.432   -26603.726   -8626.6036    8423.4194    32423.068    89.019262 
   93800    2729.2604   -110.04092    2.4694921   -107.57143   -9667.7291    4.4750299    4.4750299    4.4750299   -9667.7291    10949.433   -10238.601    -29714.02    21697.235    4767.7519    11635.466     89.61647 
   93900    1088.0076   -108.55191   0.98445216   -107.56746   -8996.9291     4.492968     4.492968     4.492968   -8996.9291     38110.05   -25294.253   -39806.585   -957.38826   -11600.044    23294.588    90.698473 
   94000    2342.7813   -109.62489    2.1197978   -107.50509    -13408.27    4.4809059    4.4809059    4.4809059    -13408.27   -35181.638    26121.596   -31164.766    5121.5658    8050.6128    14709.721    89.969948 
   94100    1651.1037   -109.01662    1.4939534   -107.52267   -1293.0609     4.447393     4.447393     4.447393   -1293.0609    29289.804    9334.7282   -42503.715    11395.123    1335.9952    37344.391    87.966338 
   94200    2561.8782   -109.87279    2.3180413   -107.55475    24373.813     4.432446     4.432446     4.432446    24373.813    37807.893    28029.336      7284.21   -21753.378    1996.9413   -31663.843    87.082393 
   94300     1312.368   -108.82363    1.1874581   -107.63617     18828.18    4.4525233    4.4525233    4.4525233     18828.18    25487.445    48555.292   -17558.198    21051.571   -4654.4753     59176.76    88.271114 
   94400    2466.2984   -109.83514    2.2315586   -107.60358    -35023.05    4.4905479    4.4905479    4.4905479    -35023.05   -36970.353   -32663.877   -35434.921    7259.0335   -5708.9497   -34684.562    90.551988 
   94500    1629.0495   -109.04037    1.4739982   -107.56637   -11523.189    4.4740812    4.4740812    4.4740812   -11523.189    61985.395   -62346.847   -34208.115   -89.808416   -3457.3123    66094.886    89.559483 
   94600    1832.5943   -109.18409    1.6581698   -107.52592    50888.037    4.4392084    4.4392084    4.4392084    50888.037    19231.168    71652.375    61780.569    31184.014    5129.8606   -22737.367    87.481576 
   94700    2098.6714   -109.46938     1.898922   -107.57046   -9237.9758    4.4421157    4.4421157    4.4421157   -9237.9758    17692.921   -32809.303   -12597.546   -16168.362   -9737.3209    44266.548     87.65357 
   94800    1570.0058   -109.03882    1.4205743   -107.61824    16076.997    4.4492369    4.4492369    4.4492369    16076.997     7738.372    15147.637    25344.982     22076.85   -6897.3131    44459.993    88.075796 
   94900     2289.681   -109.68479    2.0717515   -107.61303   -11619.799     4.465415     4.465415     4.465415   -11619.799   -18230.722   -27666.895    11038.219    14102.346   -10369.332   -9410.9549    89.040066 
   95000    1669.8704   -109.10737    1.5109339   -107.59644   -18429.491     4.470003     4.470003     4.470003   -18429.491    9778.2116   -50194.989   -14871.696     2693.826    4254.9538    63056.589    89.314804 
   95100     2216.176   -109.56546    2.0052426   -107.56022    21225.812    4.4629762    4.4629762    4.4629762    21225.812   -24659.684    74187.304    14149.817    19481.779    4021.5854   -10378.555    88.894259 
   95200    1269.4643   -108.71764     1.148638     -107.569    6944.5276    4.4593634    4.4593634    4.4593634    6944.5276    116439.31   -35758.339    -59847.39   -1371.2051   -5556.7442    76239.091    88.678555 
   95300     2600.769   -109.89869    2.3532304   -107.54546    11745.467    4.4483923    4.4483923    4.4483923    11745.467    36667.893   -6344.1188    4912.6255    10780.077   -5520.8876   -27781.931    88.025649 
   95400    1123.5357   -108.61655    1.0165987   -107.59995   -3336.0644    4.4481179    4.4481179    4.4481179   -3336.0644    48911.737   -1052.0825   -57867.848    19312.732   -9647.9164    65725.275    88.009364 
   95500    2686.7872   -110.02986    2.4310615    -107.5988   -22653.988    4.4603735    4.4603735    4.4603735   -22653.988   -10406.799   -33325.658   -24229.507    -24533.33   -1162.3969    21804.697    88.738827 
   95600      1747.84   -109.18457    1.5814824   -107.60309    11911.301    4.4550095    4.4550095    4.4550095    11911.301   -10112.275     58768.84   -12922.663   -109.35946    2967.5931    26103.784    88.419061 
   95700    1922.3749   -109.35277    1.7394052   -107.61336   -25004.569    4.4535751    4.4535751    4.4535751   -25004.569   -8883.3513   -2416.5894   -63713.767    13788.591   -20547.699    40950.272    88.333686 
   95800    2333.9763   -109.72441    2.1118308   -107.61258    13770.104    4.4344655    4.4344655    4.4344655    13770.104   -8080.8774    26554.378    22836.812   -17258.848   -1886.7062   -22861.896    87.201478 
   95900    1655.9594   -109.13411    1.4983469   -107.63577    6634.7301    4.4323705    4.4323705    4.4323705    6634.7301     39858.07   -38080.617    18126.738    17302.738   -5525.3081    68119.499    87.077944 
   96000    2224.6114   -109.63581    2.0128752   -107.62294   -30882.364    4.4660745    4.4660745    4.4660745   -30882.364   -34199.344   -11328.048     -47119.7   -14090.547   -11832.202   -17523.249    89.079527 
   96100    1614.4194   -109.03165    1.4607606   -107.57089    26106.564    4.4743746    4.4743746    4.4743746    26106.564    42594.114    19881.212    15844.365   -14656.525   -7145.4389    20081.819    89.577104 
   96200    2149.4752   -109.49113    1.9448903   -107.54624    1479.2293    4.4705697    4.4705697    4.4705697    1479.2293    13734.904     1484.087   -10781.303   -5681.0639   -27759.954    5636.3578    89.348779 
   96300    1630.5834   -109.03524    1.4753861   -107.55985   -6979.3101    4.4545155    4.4545155    4.4545155   -6979.3101   -16667.316   -32910.899    28640.284   -15427.834    3766.1449   -22152.683    88.389653 
   96400    2194.2622   -109.54923    1.9854145   -107.56382    39232.905    4.4322345    4.4322345    4.4322345    39232.905    22742.361     61514.53    33441.824    3471.8308   -3227.0036    15139.545    87.069929 
   96500    1177.0473   -108.69253    1.0650171   -107.62751    24356.809    4.4490474    4.4490474    4.4490474    24356.809   -12812.898    66222.632    19660.693     18719.74   -17876.978   -46623.175    88.064543 
   96600    2096.4925   -109.48314    1.8969505   -107.58619   -26114.499    4.4868269    4.4868269    4.4868269   -26114.499   -61006.919   -8224.1498   -9112.4291     6241.063    5463.6823    5125.9888    90.327076 
   96700    1813.1625   -109.17884    1.6405875   -107.53825   -35417.324    4.4920433    4.4920433    4.4920433   -35417.324   -58830.189    26449.294   -73871.076   -4412.5193   -42192.281    -15191.57    90.642487 
   96800    1752.6198    -109.1003    1.5858072   -107.51449    26528.123    4.4636023    4.4636023    4.4636023    26528.123   -258.39675    14519.796    65322.969   -13384.355    30527.084   -13306.444    88.931678 
   96900    1948.9525   -109.29545    1.7634532   -107.53199    6275.6426    4.4363577    4.4363577    4.4363577    6275.6426   -3896.7178    6649.6855     16073.96    2480.5439   -7103.4926   -11549.403    87.313153 
   97000    1212.3103   -108.70076    1.0969239   -107.60384    22792.459    4.4262742    4.4262742    4.4262742    22792.459    34222.417    35609.612   -1454.6507    5544.7061   -38479.896   -38761.323    86.719136 
   97100    2421.5901   -109.81171    2.1911057   -107.62061    174.10812    4.4504958    4.4504958    4.4504958    174.10812    3378.2403   -11327.195    8471.2787   -15152.631    12382.749    21762.402    88.150581 
   97200    944.25285   -108.48499   0.85437982   -107.63061   -58207.452    4.4735343    4.4735343    4.4735343   -58207.452    2032.1975   -66120.509   -110534.04   -1353.7509   -33473.999   -66484.986    89.526646 
   97300    3123.8422   -110.40565    2.8265181   -107.57913   -22221.935    4.4549304    4.4549304    4.4549304   -22221.935   -23308.195   -23513.085   -19844.526   -16672.724   -172.19532    24059.248    88.414352 
   97400     1237.586   -108.71638    1.1197938   -107.59658   -16209.235    4.4512664    4.4512664    4.4512664   -16209.235    25465.642    -41446.43   -32646.917   -29707.174   -41139.713   -21888.023    88.196381 
   97500    2313.8022   -109.66792    2.0935768   -107.57435   -8350.6128    4.4636857    4.4636857    4.4636857   -8350.6128   -17434.429    33912.381   -41529.791    21382.315   -21503.612    1982.7097    88.936663 
   97600     1642.583   -109.07142    1.4862436   -107.58518   -15071.669    4.4679839    4.4679839    4.4679839   -15071.669   -31695.418    4422.0058   -17941.596    1835.4501   -356.57143    -16993.05    89.193826 
   97700    1729.8539   -109.15072    1.5652082   -107.58551   -2430.5771    4.4518775    4.4518775    4.4518775   -2430.5771    -9235.974   -1535.3194    3479.5621   -5340.1431   -24891.557    -22799.38    88.232708 
   97800    1702.1515   -109.12798    1.5401424   -107.58784    33806.048    4.4381396    4.4381396    4.4381396    33806.048   -7432.7724    50952.053    57898.865    52026.248    10026.558   -324.48971    87.418407 
   97900    1916.4006    -109.3436    1.7339995    -107.6096    10676.299    4.4490378    4.4490378    4.4490378    10676.299    14441.895    22472.522   -4885.5192   -25125.975   -18467.605   -30450.657    88.063976 
   98000    1700.3641   -109.14161    1.5385252   -107.60308   -10871.777    4.4603416    4.4603416    4.4603416   -10871.777   -42927.544    26514.919   -16202.705    69765.535    16533.924    591.53703    88.736923 
   98100    1872.3167   -109.28569    1.6941115   -107.59158   -18836.318    4.4644585    4.4644585    4.4644585   -18836.318    10311.559   -35017.879   -31802.634   -6275.3871   -1835.2383   -13626.655    88.982862 
   98200    1867.2314   -109.26609    1.6895102   -107.57658   -29808.031    4.4668299    4.4668299    4.4668299   -29808.031   -26262.558   -68333.417    5171.8813    13431.643   -14152.151   -18595.897    89.124732 
   98300    2201.6207   -109.55853    1.9920726   -107.56646    15636.517    4.4420601    4.4420601    4.4420601    15636.517   -37579.844   -3414.5835    87903.979    33275.858    9941.2198   -801.72075    87.650277 
   98400    1207.5389   -108.68764    1.0926066   -107.59504    24090.021     4.432202     4.432202     4.432202    24090.021    13355.341    42544.498    16370.226   -27659.897   -18864.589   -31390.141    87.068012 
   98500    2461.0774   -109.83355    2.2268345   -107.60672   -2733.5653    4.4637152    4.4637152    4.4637152   -2733.5653    16586.605    -17714.81    -7072.491    47448.925    20269.074    18073.454    88.938425 
   98600    1609.9199   -109.05858    1.4566894   -107.60189   -2621.3934    4.4718926    4.4718926    4.4718926   -2621.3934    57974.163   -48593.472   -17244.871   -15421.657    3699.2556    -25755.26    89.428117 
   98700     1502.267   -108.94999    1.3592828   -107.59071    31379.173    4.4642507    4.4642507    4.4642507    31379.173    80907.794    8489.0027    4740.7229   -5289.9453    2776.5935     18990.86    88.970436 
   98800      2279.15   -109.63623    2.0622228     -107.574   -32383.789    4.4604232    4.4604232    4.4604232   -32383.789   -4239.5976   -67571.124   -25340.645    4507.1979    19018.922   -42886.361    88.741792 
   98900    1401.0986   -108.85666    1.2677435   -107.58892   -6037.7301    4.4395244    4.4395244    4.4395244   -6037.7301    34155.247   -60533.677    8265.2396   -56560.644   -22190.892    5001.2325     87.50026 
   99000    2953.4749   -110.26637    2.6723662   -107.59401    -18000.74    4.4564209    4.4564209    4.4564209    -18000.74   -36334.203   -11128.996   -6539.0228    12663.045    13448.847    15845.183    88.503125 
   99100    789.97842    -108.3245   0.71478908   -107.60971   -74807.325    4.4777351    4.4777351    4.4777351   -74807.325   -82499.938   -111613.34   -30308.694   -58652.504    479.34585   -39917.886    89.779086 
   99200      2804.67   -110.09842    2.5377243   -107.56069     9994.505    4.4475931    4.4475931    4.4475931     9994.505    21194.998    2274.1515    6514.3651    21448.435    2449.4635    7985.8689    87.978213 
   99300    1202.5439   -108.69161    1.0880869   -107.60352   -2359.1448    4.4434141    4.4434141    4.4434141   -2359.1448   -9821.7257   -18622.616    21366.907   -20815.365    24245.614   -19422.521     87.73045 
   99400    2076.1802   -109.47477    1.8785715    -107.5962   -13476.184    4.4506322    4.4506322    4.4506322   -13476.184   -7372.0188    -20036.28   -13020.253   -49880.929    9968.8014   -9429.9307     88.15869 
   99500    2012.9917   -109.41843    1.8213972   -107.59704    18299.941    4.4514261    4.4514261    4.4514261    18299.941    15997.976    28992.708    9909.1387    70071.601   -211.63726    2214.6128    88.205875 
   99600    1298.5407   -108.78942    1.1749469   -107.61447   -17197.942    4.4676739    4.4676739    4.4676739   -17197.942   -28133.255   -12435.844   -11024.728   -60089.759     5454.207   -7861.1525    89.175265 
   99700    2106.5988   -109.50212    1.9060949   -107.59602   -15048.682    4.4561996    4.4561996    4.4561996   -15048.682    14324.843   -35311.039   -24159.852    26541.996   -10762.801    23278.085    88.489941 
   99800    1759.5186   -109.19338    1.5920494   -107.60133    36477.018    4.4285984    4.4285984    4.4285984    36477.018    68077.081    20547.597    20806.376    21280.223    31344.818   -18439.355    86.855815 
   99900    1566.0139   -109.05836    1.4169623    -107.6414    19718.068    4.4416428    4.4416428    4.4416428    19718.068      55697.2   -19812.805     23269.81   -44282.011   -2158.9983     9679.745    87.625577 
  100000    1971.6169   -109.41325    1.7839604   -107.62929   -31336.993    4.4725905    4.4725905    4.4725905   -31336.993   -19716.077   -29591.865   -44703.038    27772.648   -262.50031    15945.303    89.469993 
Loop time of 21.2204 on 1 procs for 100000 steps with 8 atoms

Pair  time (%) = 6.10217 (28.7561)
Kspce time (%) = 5.35872 (25.2527)
Neigh time (%) = 0.232858 (1.09733)
Comm  time (%) = 0.805973 (3.7981)
Outpt time (%) = 0.0208409 (0.0982115)
Other time (%) = 8.69984 (40.9975)

Nlocal:    8 ave 8 max 8 min
Histogram: 1 0 0 0 0 0 0 0 0 0
Nghost:    1389 ave 1389 max 1389 min
Histogram: 1 0 0 0 0 0 0 0 0 0
Neighs:    1968 ave 1968 max 1968 min
Histogram: 1 0 0 0 0 0 0 0 0 0

Total # of neighbors = 1968
Ave neighs/atom = 246
Neighbor list builds = 3244
Dangerous builds = 0
unfix 20
unfix 21
print "seeds:7408153"
seeds:7408153
