LAMMPS (10 Feb 2015)
# ---- initialize simulations
clear
units metal
dimension 3
boundary p p p
atom_style charge
atom_modify map array
# ---- create atoms
read_data /Users/eugeneragasa/pyflamestk_git/pypospack/tests/tests_integration/workflow/WorkflowLammpsThermalExpansion/MgO_NaCl_unit.npt.T1400/lammps.structure
  triclinic box = (0 0 0) to (4.2565 4.2565 4.2565) with tilt (0 0 0)
  1 by 1 by 1 MPI processor grid
  reading atoms ...
  8 atoms
# ---- define interatomic potential
include potential.mod
mass 1 24.305
mass 2 15.999

group Mg type 1
4 atoms in group Mg
group O type 2
4 atoms in group O

set group Mg charge 1.7
  4 settings made for charge
set group O charge -1.7
  4 settings made for charge

variable R_cut equal 10.0

pair_style buck/coul/long ${R_cut}
pair_style buck/coul/long 10
pair_coeff 1 1 0.0 0.5 0.0 ${R_cut}
pair_coeff 1 1 0.0 0.5 0.0 10
pair_coeff 1 2 929.69 0.29909 0.0 ${R_cut}
pair_coeff 1 2 929.69 0.29909 0.0 10
pair_coeff 2 2 4870 0.2679 77 ${R_cut}
pair_coeff 2 2 4870 0.2679 77 10

kspace_style pppm 1.0e-5

neighbor 1.0 bin
neigh_modify every 1 delay 0 check yes
# ---- define settings
compute eng all pe/atom
compute eatoms all reduce sum c_eng
# ---- run minimization
reset_timestep 0
fix 1 all box/relax iso 0.0 vmax 0.001
thermo 10
thermo_style custom step pe lx ly lz xy xz yz press pxx pyy pzz pxy pxz pyz c_eatoms
min_style cg
minimize 1e-25 1e-25 5000 10000
PPPM initialization ...
  G vector (1/distance) = 0.353152
  grid = 8 8 8
  stencil order = 5
  estimated absolute RMS force accuracy = 4.10333e-05
  estimated relative force accuracy = 2.84961e-06
  using double precision FFTs
  3d grid and FFT values/proc = 3375 512
Neighbor list info ...
  1 neighbor list requests
  update every 1 steps, delay 0 steps, check yes
  master list distance cutoff = 11
Memory usage per processor = 4.06549 Mbytes
Step PotEng Lx Ly Lz Xy Xz Yz Press Pxx Pyy Pzz Pxy Pxz Pyz eatoms 
       0   -119.82944       4.2565       4.2565       4.2565            0            0            0   -43102.631   -43102.631   -43102.631   -43102.631 -1.1410716e-10 2.0651384e-11 1.0044018e-10   -119.82944 
       9    -119.8549     4.222448     4.222448     4.222448            0            0            0   -490.28356   -490.28356   -490.28356   -490.28356 -3.7927136e-11 -7.2182599e-11 3.2130495e-11    -119.8549 
Loop time of 0.209452 on 1 procs for 9 steps with 8 atoms

Minimization stats:
  Stopping criterion = linesearch alpha is zero
  Energy initial, next-to-last, final = 
        -119.829437963     -119.854898204     -119.854898204
  Force two-norm initial, final = 6.22404 0.0696885
  Force max component initial, final = 6.22404 0.069669
  Final line search alpha, max atom move = 1.75215e-06 1.2207e-07
  Iterations, force evaluations = 9 35

Pair  time (%) = 0.0142016 (6.78037)
Kspce time (%) = 0.0958853 (45.7791)
Neigh time (%) = 0 (0)
Comm  time (%) = 0.000666618 (0.318268)
Outpt time (%) = 0 (0)
Other time (%) = 0.0986986 (47.1223)

Nlocal:    8 ave 8 max 8 min
Histogram: 1 0 0 0 0 0 0 0 0 0
Nghost:    2189 ave 2189 max 2189 min
Histogram: 1 0 0 0 0 0 0 0 0 0
Neighs:    2344 ave 2344 max 2344 min
Histogram: 1 0 0 0 0 0 0 0 0 0

Total # of neighbors = 2344
Ave neighs/atom = 293
Neighbor list builds = 0
Dangerous builds = 0
unfix 1
# ---- define output variables ----
variable natoms equal "count(all)"
variable tot_energy equal "c_eatoms"
variable length_x equal "lx"
variable length_y equal "ly"
variable length_z equal "lz"
variable tilt_xy equal "xy"
variable tilt_xz equal "xz"
variable tilt_yz equal "yz"
variable tot_press equal "press"
variable press_xx equal "pxx"
variable press_yy equal "pyy"
variable press_zz equal "pzz"
variable press_xy equal "pxy"
variable press_xz equal "pxz"
variable press_yz equal "pyz"

# ---- output ----
print "pypospack:output_section:begin"
pypospack:output_section:begin
print "tot_energy = ${tot_energy}"
tot_energy = -119.854898204259
print "num_atoms = ${natoms}"
num_atoms = 8
print "xx = ${length_x}"
xx = 4.222448
print "yy = ${length_y}"
yy = 4.222448
print "zz = ${length_z}"
zz = 4.222448
print "xy = ${tilt_xy}"
xy = 0
print "xz = ${tilt_xz}"
xz = 0
print "yz = ${tilt_yz}"
yz = 0
print "tot_press = ${tot_press}"
tot_press = -490.283556338482
print "pxx = ${press_xx}"
pxx = -490.283556338668
print "pyy = ${press_yy}"
pyy = -490.283556338614
print "pzz = ${press_zz}"
pzz = -490.283556338163
print "pxy = ${press_xy}"
pxy = -3.79271362347293e-11
print "pxz = ${press_xz}"
pxz = -7.2182599384956e-11
print "pyz = ${press_yz}"
pyz = 3.21304951944417e-11
print "pypospack:output_section:done"
pypospack:output_section:done
print "pypospack:lammps_sim:done"
pypospack:lammps_sim:done
#------------------------------------------------------------------------------
# RUN THERMOSTAT
# running using an NPT Nose-Hoover style thermostat
#------------------------------------------------------------------------------
variable tempdamp equal 0.1
variable pressdamp equal 1.0
# set initial velocities
velocity all create 1400 4065415 mom yes dist gaussian loop all
# fix for Nose-Hoover style thermostat
fix 20 all npt temp 1400 1400 0.1 aniso 0.0 0.0 1.0 drag 1.0 couple xyz
variable boxx equal lx
variable boxy equal ly
variable boxz equal lz
variable boxp equal press
variable boxt equal temp
# calculate averages every 10000 steps
reset_timestep 0
fix 21 all ave/time 10 10 100 v_boxx v_boxy v_boxz v_boxp v_boxt file lattice.out
thermo_style custom step temp pe ke etotal press lx ly lz press pxx pyy pzz pxy pxz pyz vol
thermo_modify flush yes
thermo 100
run 100000
PPPM initialization ...
  G vector (1/distance) = 0.353501
  grid = 8 8 8
  stencil order = 5
  estimated absolute RMS force accuracy = 4.03791e-05
  estimated relative force accuracy = 2.80417e-06
  using double precision FFTs
  3d grid and FFT values/proc = 3375 512
Memory usage per processor = 3.06549 Mbytes
Step Temp PotEng KinEng TotEng Press Lx Ly Lz Press Pxx Pyy Pzz Pxy Pxz Pyz Volume 
       0         1400    -119.8549    1.2667494   -118.58815    17482.988     4.222448     4.222448     4.222448    17482.988     4780.039    25980.112    21688.813    -2374.113    -2847.864    9096.9093    75.282309 
     100    454.10632   -118.83316   0.41088494   -118.42227    30242.081    4.2522434    4.2522434    4.2522434    30242.081    5123.6663     30170.54    55432.037   -2644.9919    4320.9359    825.72488    76.887255 
     200    806.23208   -118.80964   0.72949573   -118.08015   -51153.219    4.2896452    4.2896452    4.2896452   -51153.219   -47742.685   -60380.976   -45335.997   -6118.4098   -14519.796    1477.9001    78.934001 
     300    979.25459   -118.66161   0.88605014   -117.77556    2893.3338    4.2724399    4.2724399    4.2724399    2893.3338   -16736.247    30349.376   -4933.1276   -7918.6238    8079.7009   -17526.282    77.988019 
     400    1993.8818   -119.33211    1.8041061     -117.528    6610.9349    4.2590087    4.2590087    4.2590087    6610.9349   -21220.834    33998.758    7054.8813   -642.68634   -6812.3374   -11166.202    77.254821 
     500    1210.1663   -118.49485    1.0949839   -117.39987   -29978.336    4.2918994    4.2918994    4.2918994   -29978.336   -18450.707   -30519.282   -40965.018    2163.2633    3233.7988   -9881.2796    79.058504 
     600    1100.2584   -118.29546   0.99553696   -117.29992   -34516.466    4.2953146    4.2953146    4.2953146   -34516.466    70.554956   -45193.947   -58426.006    11470.767    765.10923   -33685.478    79.247382 
     700    1535.3811   -118.64167    1.3892451   -117.25243    20828.217    4.2621347    4.2621347    4.2621347    20828.217   -33430.935    23794.698    72120.888     15000.66   -4357.6323    24817.143    77.425052 
     800     1447.747   -118.60075    1.3099519   -117.29079    15013.981    4.2796314    4.2796314    4.2796314    15013.981   -14800.917    61318.436    -1475.577    22025.652   -8598.1898   -15523.987    78.382495 
     900    1748.0433   -118.87719    1.5816663   -117.29553   -30196.548    4.3004207    4.3004207    4.3004207   -30196.548   -34392.725    -58623.76    2426.8405     7181.551    8376.5112    6049.8596     79.53034 
    1000    1304.2753   -118.46029    1.1801357   -117.28015   -799.97927    4.2784367    4.2784367    4.2784367   -799.97927   -10849.321    9174.0488   -724.66546    6267.5497    13197.573   -12914.149    78.316871 
    1100    1085.5392   -118.25267   0.98221871   -117.27045    31983.646    4.2655128    4.2655128    4.2655128    31983.646   -3661.4896    76296.845    23315.581     10288.86    4173.2234   -24132.423    77.609296 
    1200    1680.5784   -118.80906    1.5206227   -117.28844    1627.8361    4.2863481    4.2863481    4.2863481    1627.8361   -27618.866   -12312.451    44814.826    10884.146    3824.1027    8076.7106    78.752133 
    1300    1713.7478   -118.82529     1.550635   -117.27466   -27424.961    4.2997909    4.2997909    4.2997909   -27424.961   -53557.922     -29002.8    285.83789    6961.8202    12816.804   -7178.6731      79.4954 
    1400     972.2694   -118.14388   0.87972979   -117.26415    33142.785    4.2747529    4.2747529    4.2747529    33142.785     1342.584    90037.491    8048.2809   -1075.7929    6015.6039   -24086.681    78.114752 
    1500     1684.491   -118.78219    1.5241628   -117.25803        16236    4.2655827    4.2655827    4.2655827        16236    1815.5182    22325.491     24566.99    1592.3399   -4877.1472   -5481.2799    77.613111 
    1600    968.19689   -118.17061   0.87604489   -117.29457    -11042.16    4.2961852    4.2961852    4.2961852    -11042.16   -49029.821    32340.159   -16436.817   -5973.1501    15815.371   -15157.016    79.295583 
    1700    1797.6732   -118.91161    1.6265725   -117.28504   -28782.012    4.2969553    4.2969553    4.2969553   -28782.012   -46183.703   -8001.5046   -32160.828   -15394.952   -11290.923    13850.254    79.338232 
    1800    1419.7086   -118.56414    1.2845822   -117.27956    12695.646    4.2746378    4.2746378    4.2746378    12695.646   -14214.513      14944.1    37357.353   -12827.549    561.31652    11531.589    78.108439 
    1900    1252.2531   -118.42623    1.1330649   -117.29317    3250.2643    4.2774679    4.2774679    4.2774679    3250.2643   -20380.911    38009.305   -7877.6015   -13518.211    12578.693     -5078.59    78.263682 
    2000    1788.3019   -118.90584    1.6180931   -117.28775   -2895.9155     4.282225     4.282225     4.282225   -2895.9155   -39415.815   -10212.058    40940.127   -21071.969   -6576.7007    27683.078    78.525091 
    2100    1167.0187   -118.34714     1.055943   -117.29119    20004.682    4.2840739    4.2840739    4.2840739    20004.682   -29233.306    55552.199    33695.154   -12252.816    188.43268    486.55401    78.626846 
    2200    1499.2921    -118.6443     1.356591   -117.28771   -18833.649    4.2898533    4.2898533    4.2898533   -18833.649   -39907.126   -896.93985   -15696.881   -6620.7827   -6612.6426   -1059.2333    78.945491 
    2300    1808.9544   -118.91639    1.6367799   -117.27961   -2012.3375    4.2780278    4.2780278    4.2780278   -2012.3375   -34614.529    3757.7721    24819.744   -6813.2746    1272.0083   -6543.1579    78.294422 
    2400    1101.0422   -118.28603   0.99624609   -117.28978    18875.182    4.2838581    4.2838581    4.2838581    18875.182   -19134.556     62089.14    13670.962    -8229.067   -13148.854   -46743.875    78.614967 
    2500    1385.5296   -118.54326    1.2536563    -117.2896   -32484.661    4.2871646    4.2871646    4.2871646   -32484.661   -38453.912    754.32242   -59754.394    6596.1101   -35094.235    11148.075    78.797141 
    2600    1219.8481   -118.38441    1.1037442   -117.28067   -10070.058    4.2757517    4.2757517    4.2757517   -10070.058   -12109.897   -14142.943   -3957.3342    10442.853    3488.9726    2364.9638    78.169516 
    2700    1043.8487   -118.23171   0.94449627   -117.28721    4220.5277    4.2842776    4.2842776    4.2842776    4220.5277   -89.264776   -60467.224    73218.072    143.07972   -6902.4942   -28105.084    78.638062 
    2800    2011.6536   -119.08925    1.8201864   -117.26906   -28906.563    4.2850364    4.2850364    4.2850364   -28906.563    -45907.66    -27672.91   -13139.119    10305.292   -6793.2259    14819.088    78.679856 
    2900     1450.917   -118.58076    1.3128202   -117.26794    23844.804    4.2753733    4.2753733    4.2753733    23844.804    -26803.69   -5810.4912    104148.59    14569.989    4952.8144   -6181.3882    78.148766 
    3000    1361.5954    -118.5261    1.2320001    -117.2941   -15836.928    4.2900132    4.2900132    4.2900132   -15836.928   -29407.191    -13773.73   -4329.8637    8855.9373    7411.1777    11919.398    78.954316 
    3100    1430.8802   -118.59441    1.2946904   -117.29972   -29302.493    4.2888086    4.2888086    4.2888086   -29302.493   -17629.303   -26170.075   -44108.101    10740.803   -2979.6327    31438.641    78.887828 
    3200    1581.0479   -118.71624    1.4305654   -117.28568    8799.3287    4.2723907    4.2723907    4.2723907    8799.3287   -5548.8273    36898.234   -4951.4203    12979.175   -14534.791    -26874.61    77.985325 
    3300    1252.7522   -118.43563    1.1335165   -117.30211   -11548.861    4.2881213    4.2881213    4.2881213   -11548.861   -35978.817   -1728.3059     3060.539    6276.0875    7023.9657    24244.206    78.849909 
    3400    1770.7681   -118.89109    1.6022282   -117.28886   -19296.131    4.2850914    4.2850914    4.2850914   -19296.131   -36372.532    1756.4914   -23272.351    3399.2076    7912.0001   -6876.3117    78.682881 
    3500    1182.9688   -118.35485     1.070375   -117.28447    60615.322     4.272573     4.272573     4.272573    60615.322    24975.863    80510.011    76360.091    2026.2905    2872.7972    6032.4347    77.995308 
    3600     1490.772    -118.6472    1.3488818   -117.29832   -14488.918    4.3037065    4.3037065    4.3037065   -14488.918   -51375.672   -19746.774    27655.691   -14700.534     2294.411   -11847.536    79.712777 
    3700    1036.4277   -118.22093   0.93778158   -117.28315   -7256.4336    4.3033992    4.3033992    4.3033992   -7256.4336   -34491.857    6939.0591    5783.4975   -26159.534    16437.338   -9423.8604    79.695704 
    3800    1513.8422   -118.63074    1.3697562   -117.26099    36991.557    4.2668503    4.2668503    4.2668503    36991.557    7886.5035    39135.383    63952.783   -24794.241    5958.3731    -4660.574    77.682325 
    3900    1370.3153   -118.53836    1.2398901   -117.29847    -2974.618    4.2789039    4.2789039    4.2789039    -2974.618    8617.6283    26667.031   -44208.513   -13226.555    19693.652    11787.345    78.342533 
    4000    1033.9931   -118.22963   0.93557869   -117.29405   -32610.865    4.2984247    4.2984247    4.2984247   -32610.865   -11240.355   -37101.474   -49490.766    9668.9797    18764.318    17959.608     79.41965 
    4100     1134.224   -118.30237    1.0262697    -117.2761    18909.164    4.2758257    4.2758257    4.2758257    18909.164   -13487.432    36472.613     33742.31     21004.48   -3605.6309   -12560.438    78.173579 
    4200     1806.758   -118.92137    1.6347926   -117.28658   -6522.2932    4.2779406    4.2779406    4.2779406   -6522.2932   -30521.563   -1793.4639    12748.147    12509.343     4275.589   -8520.8254    78.289634 
    4300    1828.4415   -118.94774    1.6544123   -117.29333    1644.3217    4.2961867    4.2961867    4.2961867    1644.3217   -15890.549   -6504.2751    27327.789    3483.9158   -4046.5903     -7210.19    79.295662 
    4400    1297.8528   -118.45692    1.1743245    -117.2826   -3070.1324     4.297189     4.297189     4.297189   -3070.1324   -2014.3085   -33113.922    25917.834    14057.394    2729.3293    -2590.953    79.351178 
    4500    583.98643   -117.81535    0.5284032   -117.28695   -9754.0558    4.2881971    4.2881971    4.2881971   -9754.0558   -10878.114   -1106.2402   -17277.814    15588.749   -10886.732   -3221.7861     78.85409 
    4600    2096.1685   -119.16953    1.8966574   -117.27287   -80.559366    4.2709967    4.2709967    4.2709967   -80.559366   -4646.5598    -6528.825    10933.707   -1353.4244    1548.3277    25899.115    77.909012 
    4700    1385.4544    -118.5578    1.2535883   -117.30421    19278.339    4.2836145    4.2836145    4.2836145    19278.339     27527.65    -21329.54    51636.906    3095.1128   -675.54197    2986.2913    78.601556 
    4800    1471.4843   -118.62671    1.3314299   -117.29528   -40535.382    4.3069954    4.3069954    4.3069954   -40535.382   -29478.938   -65679.938   -26447.269    9815.9781    18882.055   -495.45123    79.895668 
    4900    707.61795   -117.92126    0.6402676   -117.28099    36761.859    4.2892055    4.2892055    4.2892055    36761.859    49457.651   -4799.8357    65627.762    17594.666    27703.665   -28689.116    78.909733 
    5000    2134.4492   -119.19305    1.9312945   -117.26176     6270.077    4.2623694    4.2623694    4.2623694     6270.077    15299.073   -20569.004    24080.162    1918.8926    3318.0937   -23299.418    77.437847 
    5100    1290.7833   -118.47131    1.1679279   -117.30338    32107.206    4.2811065    4.2811065    4.2811065    32107.206    36447.067    -8614.599    68489.149    5912.2955     26473.52   -23.334086    78.463576 
    5200    958.00577   -118.17068   0.86682375   -117.30386   -35217.154    4.3127603    4.3127603    4.3127603   -35217.154   -8114.7165   -49195.034   -48341.713   -715.53456    538.15044    14589.868    80.216915 
    5300    1040.9033   -118.22751   0.94183122   -117.28568   -22622.309    4.2904178    4.2904178    4.2904178   -22622.309   -17184.036   -12950.323   -37732.567   -4324.9667    11769.711    3100.7752    78.976657 
    5400    1850.4647   -118.92887    1.6743393   -117.25453    43075.134    4.2488254    4.2488254    4.2488254    43075.134    47837.162   0.37240461    81387.868   -9215.9831   -1504.4414    11939.646    76.701996 
    5500    1324.6997   -118.52866    1.1986161   -117.33005    9892.3095    4.2814558    4.2814558    4.2814558    9892.3095     3854.265   -17849.731    43672.394    5819.7032    2762.0411    13044.101    78.482785 
    5600    1268.7845   -118.44379    1.1480229   -117.29577   -42313.775    4.3137986    4.3137986    4.3137986   -42313.775   -56768.661   -30625.988   -39546.676   -12027.857    16534.594   -4928.0552    80.274865 
    5700    1079.6147   -118.24767   0.97685807   -117.27081    29585.227    4.2777505    4.2777505    4.2777505    29585.227    39857.057   -3884.8732    52783.497   -8287.1349    -4824.621    -10597.94    78.279194 
    5800    1925.1962   -119.02047     1.741958   -117.27851   -3523.8192    4.2724104    4.2724104    4.2724104   -3523.8192   -23561.507   -44266.955    57257.004   -1638.3716    18416.564   -766.17779    77.986405 
    5900    1253.7893   -118.42956    1.1344549   -117.29511    10987.897    4.2873502    4.2873502    4.2873502    10987.897   -24473.267   -16474.513    73911.472    2263.8921   -20124.086    5498.8244     78.80738 
    6000    1458.3319   -118.61173    1.3195294    -117.2922   -15910.664    4.2973251    4.2973251    4.2973251   -15910.664    307.23172   -44501.969   -3537.2556   -3967.6363    8423.2073    9184.4753    79.358717 
    6100    1010.6279   -118.19565   0.91443732   -117.28121   -46242.452    4.2991803    4.2991803    4.2991803   -46242.452   -49195.985   -49664.147   -39867.226    3818.7504   -1736.7342    23716.748     79.46154 
    6200    1024.2705   -118.19702    0.9267815   -117.27024     6407.013     4.254669     4.254669     4.254669     6407.013     -43700.8   -4907.4263    67829.265    5173.7894   -21320.327    12350.349    77.018905 
    6300     1923.984   -119.05152    1.7408611   -117.31066    22677.262     4.257841     4.257841     4.257841    22677.262    22868.939   -28205.683    73368.531   -9671.5362   -19866.599    16537.825    77.191296 
    6400    1336.4102   -118.53018    1.2092121   -117.32097    -27608.23    4.3097258    4.3097258    4.3097258    -27608.23   -16610.048   -69326.051    3111.4084    2228.7968    13901.304   -522.07566    80.047713 
    6500    1214.2528   -118.38346    1.0986815   -117.28478    9357.5962    4.2923062    4.2923062    4.2923062    9357.5962   -1739.9784   -34762.925    64575.692    4074.6524    23568.199    1211.2269    79.080988 
    6600    1504.5624   -118.63652    1.3613596   -117.27516    17011.797     4.267988     4.267988     4.267988    17011.797    31800.881   -31787.419     51021.93   -239.96066   -2465.9295    3783.6299    77.744483 
    6700    1710.0125   -118.84777    1.5472553   -117.30051    14240.114    4.2641064    4.2641064    4.2641064    14240.114   -9868.2592   -18483.038    71071.639    1274.8446   -4449.1656   -1466.5296    77.532554 
    6800    1561.6518   -118.73819    1.4130154   -117.32517    5742.2961     4.279582     4.279582     4.279582    5742.2961    44170.719   -26111.945   -831.88551    788.19661   -1043.0082    218.78842    78.379783 
    6900    1546.8275   -118.72413    1.3996021   -117.32452   -23412.095    4.2970857    4.2970857    4.2970857   -23412.095   -8129.8541   -63657.618    1551.1858   -832.23687    7478.9328    2674.2287    79.345451 
    7000    1349.8129   -118.53048    1.2213391   -117.30914   -242.42837    4.2738515    4.2738515    4.2738515   -242.42837   -17638.073   -40655.084    57565.872   -2414.5996    3925.4086   -23187.516    78.065346 
    7100    1440.1613   -118.59943    1.3030882   -117.29634    12095.571    4.2475943    4.2475943    4.2475943    12095.571      18172.8   -17331.412    35445.325    3089.3541     3212.114   -9108.8832    76.635338 
    7200    1345.6264   -118.55177     1.217551   -117.33422   -10247.764    4.2837083    4.2837083    4.2837083   -10247.764   -32191.875   -55800.141    57248.724    1379.7065   -16920.229     12909.92    78.606717 
    7300    1576.5559   -118.72891    1.4265009   -117.30241   -30203.575    4.2997022    4.2997022    4.2997022   -30203.575    -40528.07   -65927.046     15844.39    -5926.356    1694.8413    5659.4536    79.490481 
    7400    1540.4241   -118.67315    1.3938081   -117.27934   -7379.1933    4.2726211    4.2726211    4.2726211   -7379.1933   -34251.433   -13965.751    26079.605    1359.0253   -30241.215   -3376.8104    77.997944 
    7500    760.24856   -117.97708   0.68788888   -117.28919   -10345.364    4.2672553    4.2672553    4.2672553   -10345.364   -9191.0154   -33562.952    11717.874   -972.77323   -6143.3184    17310.003     77.70445 
    7600    1467.7706   -118.62759    1.3280696   -117.29952   -9828.6864    4.2737163    4.2737163    4.2737163   -9828.6864    11406.698   -51683.722    10790.965   -6994.0307    23852.185    17248.226    78.057935 
    7700    1488.0403   -118.65494    1.3464102   -117.30853    7545.8466    4.2955035    4.2955035    4.2955035    7545.8466    58209.607   -55057.283    19485.216   -8424.9772    1405.3372   -3742.6759    79.257841 
    7800    1825.0762   -118.94564    1.6513673   -117.29427   -14445.357    4.2910751    4.2910751    4.2910751   -14445.357    14113.365   -57525.651    76.216855   -7744.3293    19307.418   -3178.9854    79.012964 
    7900    914.52549   -118.09809   0.82748188   -117.27061    70745.659    4.2461038    4.2461038    4.2461038    70745.659    75404.036   -7002.3362    143835.28   -7620.6667    15031.815    9416.8392    76.554692 
    8000    1133.0956   -118.36673    1.0252487   -117.34149     7626.357    4.2698956    4.2698956    4.2698956     7626.357    25066.669   -18901.552    16713.954   -11173.174   -9100.3624    6075.4614    77.848771 
    8100    1104.1476   -118.31094   0.99905597   -117.31189    -55679.94    4.3082223    4.3082223    4.3082223    -55679.94   -65076.199   -65289.898   -36673.723    13100.939   -17078.482   -4833.4944    79.963961 
    8200    1967.4758   -119.05329    1.7802135   -117.27307   -3388.3876    4.2720595    4.2720595    4.2720595   -3388.3876   -981.55309    -27572.02     18388.41    19925.679    11752.605     4448.181    77.967187 
    8300    1605.8637   -118.73303    1.4530192   -117.28001    8065.9076    4.2684926    4.2684926    4.2684926    8065.9076    32084.037   -44690.383    36804.068   -2965.3953   -5305.6037    8794.7093    77.772059 
    8400    1096.7877   -118.29027   0.99239652   -117.29787    -40622.26    4.2938084    4.2938084    4.2938084    -40622.26    -31111.43   -64272.068   -26483.281    622.08379    18068.759   -8018.9854    79.164048 
    8500    833.59173   -118.04446   0.75425132   -117.29021    37249.746     4.278269     4.278269     4.278269    37249.746    74234.324   -15640.277     53155.19    11066.547   -3413.4751    432.94931    78.307661 
    8600    1947.1572   -119.04715    1.7618288   -117.28532    16669.906    4.2664174    4.2664174    4.2664174    16669.906    52852.904   -27448.326    24605.141   -7441.6774    3315.0786    1878.8459    77.658681 
    8700    1512.0769   -118.66265    1.3681589   -117.29449    8761.4729    4.2750639    4.2750639    4.2750639    8761.4729    5344.6144   -31890.472    52830.276   -17859.293    21324.452   -8092.8748      78.1318 
    8800    1009.1212   -118.21359   0.91307407   -117.30052     -31828.4    4.2880273    4.2880273    4.2880273     -31828.4   -22505.543   -52848.163   -20131.493    116.53958    -8660.527   -16716.049    78.844722 
    8900    1250.6339   -118.42237    1.1315998   -117.29078   -47744.407    4.2916639    4.2916639    4.2916639   -47744.407   -16663.007   -63866.951   -62703.263    2242.5527    8810.5924   -2057.2863    79.045495 
    9000    1636.7082   -118.76846    1.4809279   -117.28754    4463.1192    4.2705394    4.2705394    4.2705394    4463.1192    5196.9271   -22345.055    30537.486   -10965.841   -12789.941    3336.3431    77.883993 
    9100    1707.8738   -118.84169    1.5453201   -117.29637    24637.116    4.2615792    4.2615792    4.2615792    24637.116    95264.381   -25560.062    4207.0302    4873.1162       3506.4   -7488.0941    77.394786 
    9200     1321.144   -118.50559    1.1953988    -117.3102     -2329.37    4.2774862    4.2774862    4.2774862     -2329.37    17236.968    -55051.46    30826.382    15694.408   -3115.3096    5153.3305    78.264689 
    9300    1102.7042   -118.29504   0.99774995   -117.29729   -5148.1239    4.2802956    4.2802956    4.2802956   -5148.1239    32065.995   -46215.491   -1294.8758   -5189.6575    10525.612     14224.01    78.418999 
    9400     1576.357    -118.7233    1.4263209   -117.29698   -9994.8183    4.2751585    4.2751585    4.2751585   -9994.8183    7851.2573   -32003.416   -5832.2959   -28808.487   -1742.9904    4894.3763    78.136988 
    9500    1915.7767   -119.03103    1.7334351   -117.29759   -19795.712    4.2764169    4.2764169    4.2764169   -19795.712   -37334.867   -43948.146    21895.877    12103.517   -8763.9993   -10890.775    78.206008 
    9600    1265.9905   -118.44633    1.1454948   -117.30084    -15611.13    4.2853993    4.2853993    4.2853993    -15611.13    43078.872    -82574.34   -7337.9208    8681.8819    25.802358    9962.0216    78.699847 
    9700    1214.9406   -118.38931    1.0993038      -117.29   -7001.9068    4.2786259    4.2786259    4.2786259   -7001.9068    63757.222   -51473.527   -33289.415    2106.1813    19872.295   -640.86332    78.327261 
    9800    1664.8301   -118.78797    1.5063733   -117.28159    8072.9356     4.265066     4.265066     4.265066    8072.9356    67873.307   -22143.569   -21510.931    6446.5091    4148.6851   -12472.956    77.584913 
    9900    1805.2036   -118.93612    1.6333861   -117.30273   -14652.294    4.2784099    4.2784099    4.2784099   -14652.294   -2143.3623   -33690.567   -8122.9522     7931.085    27036.799    6565.8202    78.315398 
   10000    1485.7346   -118.64035    1.3443239   -117.29603   -42575.079    4.2849466    4.2849466    4.2849466   -42575.079   -35854.882   -81244.776    -10625.58    5393.9213    5163.9726    20489.089    78.674908 
   10100    1055.9928   -118.23931   0.95548445   -117.28382   -14384.125    4.2652548    4.2652548    4.2652548   -14384.125   -19051.773   -42795.306    18694.705    -19385.48   -7056.1583    4357.7944    77.595217 
   10200     1063.259   -118.27342   0.96205911   -117.31136    21695.059    4.2744009    4.2744009    4.2744009    21695.059    67194.593   -32939.045     30829.63    8504.2694   -19012.233    11453.529    78.095452 
   10300    2049.7724   -119.15614    1.8546771   -117.30146   -11313.409    4.2776129    4.2776129    4.2776129   -11313.409   -21309.084   -23047.559    10416.416   -3928.1949   -17012.883    4115.7587    78.271641 
   10400    1562.3618   -118.70368    1.4136578   -117.29002    37891.423    4.2571846    4.2571846    4.2571846    37891.423    53883.266   -6104.6794    65895.684   -518.77399    103.18173    11896.627    77.155597 
   10500     851.4754   -118.08789   0.77043284   -117.31746   -34396.708    4.2812394    4.2812394    4.2812394   -34396.708   -33956.793   -58691.591   -10541.739   -27184.627   -10845.997   -6603.3077    78.470882 
   10600    1354.1495   -118.52214    1.2252629   -117.29688   -28368.741    4.2797118    4.2797118    4.2797118   -28368.741   -2384.3903   -43487.843   -39233.989   -13165.018   -13491.982    -19826.46    78.386914 
   10700    1639.1374   -118.77428    1.4831259   -117.29116    5259.1527    4.2768562    4.2768562    4.2768562    5259.1527    35452.706   -6460.3703   -13214.878    20919.108    -8443.391    3754.2841    78.230111 
   10800    1554.7812   -118.70009    1.4067987   -117.29329   -18360.671    4.2938698    4.2938698    4.2938698   -18360.671    15664.822   -32525.501   -38221.335    21508.711    8117.2012    -4805.461    79.167441 
   10900    1318.5033   -118.47451    1.1930095    -117.2815    23042.767    4.2734791    4.2734791    4.2734791    23042.767    93255.726   -20498.982   -3628.4445    10712.294    7323.4483   -7248.8508    78.044942 
   11000    1434.8063   -118.58989    1.2982429   -117.29165    2945.4987    4.2654559    4.2654559    4.2654559    2945.4987    14873.299   -20564.533     14527.73   -9088.5102   -12768.103    2834.7032     77.60619 
   11100    1178.0892    -118.3694    1.0659598   -117.30344   -18885.623    4.2909841    4.2909841    4.2909841   -18885.623     6978.943   -47292.162   -16343.649    14909.259    584.00527    7536.0276    79.007937 
   11200    1250.3785   -118.42463    1.1313687   -117.29326   -7654.9358    4.2874738    4.2874738    4.2874738   -7654.9358    13920.787   -36711.775   -173.81957    6977.7665    7899.4563   -11813.593    78.814196 
   11300     1884.792   -118.98488    1.7053994   -117.27948    2678.0102    4.2615513    4.2615513    4.2615513    2678.0102    11215.419    20154.268   -23335.656   -3712.0362    5180.7011   -18095.625    77.393266 
   11400     1342.609   -118.51039    1.2148208   -117.29556    16390.201     4.258576     4.258576     4.258576    16390.201    72448.006    -5249.545   -18027.859   -10306.316   -15979.125     2213.435    77.231276 
   11500    961.94987   -118.18863   0.87039246   -117.31824    5325.3299    4.2837655    4.2837655    4.2837655    5325.3299    3142.5307     23277.62    -10444.16    1022.3433   -21859.597   -9216.5414     78.60987 
   11600    1603.9976   -118.74314    1.4513307   -117.29181   -26069.328    4.2864689    4.2864689    4.2864689   -26069.328    -35552.07   -31110.638   -11545.277    10593.961    5000.3564   -13481.051    78.758792 
   11700    1461.9859    -118.6005    1.3228356   -117.27767    3206.1272    4.2700647    4.2700647    4.2700647    3206.1272   -2139.7183    44811.387   -33053.286   -22046.195   -4574.4705   -10382.581    77.858022 
   11800    1244.7556   -118.40862     1.126281   -117.28234    8503.1861     4.265194     4.265194     4.265194    8503.1861    14833.743    29860.616   -19184.801   -10852.516    -7807.242   -10652.722    77.591899 
   11900     863.4434   -118.08358   0.78126173   -117.30232   -1126.6809    4.2785693    4.2785693    4.2785693   -1126.6809    42458.155   -37194.214   -8643.9833    21373.102    1939.2904   -9701.3841    78.324156 
   12000    1740.4007   -118.86112    1.5747511   -117.28637   -25267.597     4.292567     4.292567     4.292567   -25267.597    4901.6448   -32669.942   -48034.492    8704.2258    3162.9477   -14978.289    79.095403 
   12100    1922.6898   -119.00728    1.7396901   -117.26759   -4582.8706    4.2741108    4.2741108    4.2741108   -4582.8706    3750.3552    30383.422   -47882.389   -9876.4873    271.92035    3319.7131    78.079554 
   12200    1154.8851   -118.31965    1.0449643   -117.27469    11905.696    4.2596923    4.2596923    4.2596923    11905.696    8289.8346    37590.077   -10162.824   -9080.2702   -8128.4094    3956.3944    77.292026 
   12300    1040.8744   -118.24573     0.941805   -117.30392     -12334.7    4.2858649    4.2858649    4.2858649     -12334.7   -25738.632    32041.628   -43307.094   -16513.363   -3242.6465   -6884.8651    78.725499 
   12400    1592.1612   -118.71988    1.4406209   -117.27926   -9069.3478    4.2938758    4.2938758    4.2938758   -9069.3478    5541.4031   -5810.7234   -26938.723   -2938.9619   -2480.6332   -9269.0212    79.167776 
   12500    1538.7699   -118.65666    1.3923114   -117.26435    8666.1399    4.2757737    4.2757737    4.2757737    8666.1399    42073.399    4104.7115   -20179.691   -4357.1158    -9627.046   -8875.7828    78.170723 
   12600    1157.9281   -118.31934    1.0477177   -117.27162    27650.968     4.270564     4.270564     4.270564    27650.968    43742.214     63097.62   -23886.932   -3011.6077   -2674.2077   -5968.5307    77.885337 
   12700    1134.6955   -118.31386    1.0266964   -117.28716   -10425.113    4.2854742    4.2854742    4.2854742   -10425.113    68124.549   -41092.728   -58307.159   -3018.6279    5725.6101    -9887.382    78.703972 
   12800    1092.8083   -118.27463   0.98879589   -117.28583   -38103.643    4.2929383    4.2929383    4.2929383   -38103.643   -5783.4105   -60061.553   -48465.966    9284.7269   -2321.5826    -22151.12     79.11593 
   12900     1889.404   -118.98098    1.7095724    -117.2714   -9947.8813    4.2679094    4.2679094    4.2679094   -9947.8813   -13886.448   -5306.9594   -10650.237   -23626.836   -4642.2772   -2018.6995    77.740187 
   13000     1651.008   -118.77945    1.4938668   -117.28559   -1734.2623     4.263469     4.263469     4.263469   -1734.2623   -14696.919    18453.675   -8959.5427   -16796.525    2409.2276    8079.2259    77.497791 
   13100    1096.2483   -118.28721   0.99190848    -117.2953   -28377.375    4.2899768    4.2899768    4.2899768   -28377.375    -3773.953   -33372.779   -47985.393   -11922.836    -3608.563   -11387.512    78.952308 
   13200    1240.5312   -118.39811    1.1224587   -117.27565    12210.058    4.2811547    4.2811547    4.2811547    12210.058    44579.541    13777.387   -21726.752    854.74552    567.54875   -4306.2573    78.466225 
   13300    1757.2389   -118.86389    1.5899867    -117.2739    15452.939    4.2673218    4.2673218    4.2673218    15452.939    26842.509    15604.653     3911.655    4025.2794   -14158.104    10509.302    77.708081 
   13400     1325.074   -118.49259    1.1989548   -117.29364    3703.3556    4.2778524    4.2778524    4.2778524    3703.3556   -5130.7552    11824.865     4415.957   -23349.982    -4150.596    1135.9148    78.284791 
   13500     1259.408   -118.42505    1.1395388   -117.28551    3720.7308    4.2703753    4.2703753    4.2703753    3720.7308    25244.319    8883.4304   -22965.556   -12614.636   -13453.196    1689.0799    77.875013 
   13600    846.00628   -118.05777   0.76548426   -117.29228    10940.382    4.2717305    4.2717305    4.2717305    10940.382    67805.355   -9615.4153   -25368.795    15311.863     1102.696    4022.5774    77.949178 
   13700    1587.8941   -118.73561    1.4367599   -117.29885   -8267.0763    4.2830822    4.2830822    4.2830822   -8267.0763    5336.4377   -14893.866     -15243.8    152.05602    9373.2593    1771.3152    78.572259 
   13800    1631.4017   -118.76495    1.4761265   -117.28883    16189.296    4.2798048    4.2798048    4.2798048    16189.296    51590.286    20389.837   -23412.235   -709.39208   -2489.7664    4187.4506    78.392026 
   13900    1363.8831   -118.51648      1.23407   -117.28241   -3945.4859      4.27619      4.27619      4.27619   -3945.4859    24723.187   -13320.592   -23239.052    11395.216   -2590.9697     6615.928    78.193562 
   14000    783.45195    -117.9886   0.70888379   -117.27972    9587.2702    4.2798869    4.2798869    4.2798869    9587.2702    46606.768    17985.824   -35830.781    14771.478   -11429.682    4279.5619    78.396538 
   14100    1481.9606   -118.61645    1.3409091   -117.27554   -734.15766    4.2856894    4.2856894    4.2856894   -734.15766   -10428.791    24754.081   -16527.763   -757.47412    9158.9498   -2636.6069    78.715829 
   14200    1911.7271   -119.00298    1.7297708   -117.27321   -15695.914    4.2797954    4.2797954    4.2797954   -15695.914   -23242.287   -19623.239   -4222.2146    -10114.97    6193.5541   -2063.9201     78.39151 
   14300    1652.0848   -118.77671     1.494841   -117.28187    13864.732    4.2723434    4.2723434    4.2723434    13864.732    28806.298    188.35042    12599.548   -7735.2189    2580.8515    21935.314    77.982732 
   14400    1242.0827   -118.41679    1.1238625   -117.29293   -21686.816    4.2831776    4.2831776    4.2831776   -21686.816     13852.04   -33992.891   -44919.596   -3718.5156    598.78915    16718.232    78.577507 
   14500    1340.9166   -118.50068    1.2132895   -117.28739   -11391.372     4.269868     4.269868     4.269868   -11391.372      17609.9   -31024.455   -20759.561    -621.2597    3626.9565    -6882.682    77.847261 
   14600     1829.314   -118.94541    1.6552017   -117.29021    11691.944    4.2612968    4.2612968    4.2612968    11691.944    2808.6732   -2065.1706     34332.33    4261.3576   -1624.5259    1150.2641    77.379397 
   14700    1529.4668   -118.70081    1.3838937   -117.31691   -25097.118    4.2845269    4.2845269    4.2845269   -25097.118   -27753.033   -55725.502    8187.1818    6413.8131   -14489.682    19232.964    78.651791 
   14800    1232.2765   -118.41303    1.1149897   -117.29804   -20545.378    4.2819575    4.2819575    4.2819575   -20545.378   -999.68529    -63823.27    3186.8215    -1743.064    8249.8558    9301.9855    78.510376 
   14900    1185.9956    -118.3496    1.0731137   -117.27649    5657.1789    4.2712593    4.2712593    4.2712593    5657.1789     52795.26   -18701.296   -17122.428   -2899.4156    2919.7142   -3687.0406    77.923388 
   15000    918.14762   -118.11488   0.83075926   -117.28412     638.8304     4.285324     4.285324     4.285324     638.8304    86221.135   -22923.444     -61381.2    -3001.247    1274.1939    17606.563    78.695699 
   15100    1555.9627   -118.68531    1.4078677   -117.27744     11791.98     4.279488     4.279488     4.279488     11791.98    86885.793   -41550.521   -9959.3317    3315.5595   -8982.3255    19918.187    78.374616 
   15200    1706.3531     -118.828    1.5439441   -117.28406    16811.218    4.2808503    4.2808503    4.2808503    16811.218    64627.324   -35936.464    21742.793    1817.1884   -17341.776   -664.44717    78.449487 
   15300    967.25982   -118.15933   0.87519701   -117.28414   -8303.4109    4.2906006    4.2906006    4.2906006   -8303.4109    59118.176   -59629.084   -24399.325    14022.852   -11086.145    10571.711    78.986752 
   15400    987.90822   -118.16456   0.89388012   -117.27068    6611.2671    4.2716493    4.2716493    4.2716493    6611.2671    57445.162   -26288.588   -11322.772   -2848.6394   -9695.4759    13809.316    77.944732 
   15500    1665.3061   -118.78843     1.506804   -117.28162   -1758.5516    4.2789138    4.2789138    4.2789138   -1758.5516    11936.483   -18807.361    1595.2234   -656.07516    17165.777   -13146.174    78.343076 
   15600    1983.7902   -119.06421     1.794975   -117.26924   -31192.746    4.3007785    4.3007785    4.3007785   -31192.746   -63739.308   -49669.616    19830.687   -899.81227    4920.7562   -9320.7794     79.55019 
   15700    1306.0272   -118.43658    1.1817209   -117.25486    24425.574    4.2769136    4.2769136    4.2769136    24425.574    47085.242   -22306.389    48497.868    4686.1223    -9621.326    15988.293     78.23326 
   15800    646.83697   -117.85371   0.58527168   -117.26844    9503.7372    4.2737589    4.2737589    4.2737589    9503.7372    61159.406    -42772.43    10124.236    3233.6509   -13397.733   -4397.3071     78.06027 
   15900    1181.0812   -118.33482    1.0686671   -117.26616   -35739.805    4.2910472    4.2910472    4.2910472   -35739.805    3566.6884   -63657.381   -47128.724   -2486.9521   -12182.457    -21628.75    79.011423 
   16000     2003.638   -119.06575    1.8129338   -117.25282   -11331.508    4.2893435    4.2893435    4.2893435   -11331.508   -32249.076    12906.397   -14651.843    13223.463    8639.8885    6191.7424     78.91735 
   16100    1729.9546   -118.82471    1.5652993   -117.25941   -4166.8003    4.2931769    4.2931769    4.2931769   -4166.8003   -3660.3032    10603.679   -19443.777    11843.715    7876.0216    10197.213    79.129122 
   16200    1065.8235   -118.22224   0.96437948   -117.25786   -3605.2368    4.2913649    4.2913649    4.2913649   -3605.2368    27117.803   -9229.8347   -28703.679    15294.679   -15607.217    2920.7064    79.028975 
   16300    1185.0664   -118.31537     1.072273    -117.2431   -18270.962    4.2815301    4.2815301    4.2815301   -18270.962    -12740.99   -12159.653   -29912.244   -4947.8308   -10160.833    19807.566    78.486871 
   16400    1664.3509   -118.76195    1.5059397   -117.25601   -31485.722    4.2867116    4.2867116    4.2867116   -31485.722    913.67685   -33603.598   -61767.244   -3796.2426    4380.0131    7348.4104    78.772169 
   16500    1813.9093   -118.90847    1.6412632    -117.2672   -8966.3371    4.2891286    4.2891286    4.2891286   -8966.3371    14415.276   -15066.694   -26247.594    1229.4883   -10233.789   -1849.6717    78.905487 
   16600    1158.7236   -118.31836    1.0484375   -117.26993    9391.6908    4.2781349    4.2781349    4.2781349    9391.6908    39450.537   -17047.651    5772.1869    6238.3026    3771.8321    1677.5378    78.300299 
   16700    1200.2604   -118.35811    1.0860209   -117.27209   -11660.271    4.2778763    4.2778763    4.2778763   -11660.271    4998.4049   -22454.859   -17524.358    25186.504    5026.5985    4913.4778      78.2861 
   16800    1225.8191   -118.37955    1.1091469    -117.2704   -1785.4464    4.2828985    4.2828985    4.2828985   -1785.4464   -14594.025     5924.517    3313.1687   -1568.3458    6552.9813   -9525.5011    78.562145 
   16900    1622.6162   -118.73657    1.4681772   -117.26839   -15744.074    4.2903859    4.2903859    4.2903859   -15744.074   -14741.169   -30518.102   -1972.9496   -10265.489    -5508.228   -8083.1825    78.974899 
   17000    1763.0948   -118.85957    1.5952852   -117.26428   -2907.2002    4.2873183    4.2873183    4.2873183   -2907.2002   -270.51129    5648.5479   -14099.637    14340.273   -17004.592    1540.7291    78.805617 
   17100     1289.697   -118.42741     1.166945   -117.26046    24819.479    4.2763102    4.2763102    4.2763102    24819.479    60432.144   -1599.0031    15625.297     31478.12    1368.7362   -17628.183    78.200153 
   17200     987.9732   -118.16666   0.89393891   -117.27272    19245.805     4.284518     4.284518     4.284518    19245.805      37152.8    9590.8231    10993.792    14348.371    20757.367   -8483.4929      78.6513 
   17300    1679.3429   -118.77326    1.5195047   -117.25376   -45084.697    4.2980416    4.2980416    4.2980416   -45084.697   -38180.853   -15020.681   -82052.556   -5102.1436    1391.3407   -4657.1963    79.398415 
   17400    1416.7157   -118.52743    1.2818741   -117.24556   -22694.453    4.2905199    4.2905199    4.2905199   -22694.453   -14066.301    1548.3648   -55565.422    5378.7585   -4583.2967   -15982.548    78.982299 
   17500    1306.5582   -118.43613    1.1822013   -117.25393    8483.0146    4.2838828    4.2838828    4.2838828    8483.0146    17036.095   -18792.767    27205.716    10765.526    22021.214   -21374.408    78.616326 
   17600    1822.4512   -118.91387    1.6489922   -117.26488   -18516.014    4.2911085    4.2911085    4.2911085   -18516.014    -22831.47    -24566.01   -8150.5616    13690.375    11697.432   -12510.364     79.01481 
   17700    1589.0373    -118.7046    1.4377943    -117.2668    6647.6544    4.2842386    4.2842386    4.2842386    6647.6544     -22795.6    30374.686    12363.877   -6572.9356   -1503.0725    15885.104    78.635918 
   17800     1076.094   -118.24146   0.97367245   -117.26779    32087.502    4.2605567    4.2605567    4.2605567    32087.502    13915.449    70696.616     11650.44   -7583.6556    5304.0414    17266.963    77.339086 
   17900    816.91802   -118.03614    0.7391646   -117.29697    13652.928    4.2759814    4.2759814    4.2759814    13652.928    5471.8005    41513.127   -6026.1443    15852.402    10856.518   -285.55858    78.182118 
   18000    1666.0062   -118.78327    1.5074374   -117.27583   -40844.228    4.2996092    4.2996092    4.2996092   -40844.228   -60921.472   -32957.885   -28653.328    13560.023   -4313.4937    6823.9331    79.485322 
   18100    1747.4517   -118.83821     1.581131   -117.25708   -8134.4901    4.2821499    4.2821499    4.2821499   -8134.4901   -15904.264   -29591.308    21092.101   -6198.5531    957.31182   -1292.2355    78.520961 
   18200    1483.2334   -118.60336    1.3420608    -117.2613    12731.348    4.2656696    4.2656696    4.2656696    12731.348   -1948.3261   -10253.668    50396.039    4733.7672   -2342.6324    4911.5783    77.617855 
   18300    966.16551   -118.16396   0.87420686   -117.28975   -6389.2701    4.2791601    4.2791601    4.2791601   -6389.2701   -30319.199    8483.9456    2667.4431    24030.934   -7791.2835    17744.378    78.356603 
   18400    1455.5416   -118.59932    1.3170046   -117.28232   -1576.0603    4.2818735    4.2818735    4.2818735   -1576.0603   -40062.276     18876.35    16457.745   -5340.5465   -3736.9818    8483.7394    78.505754 
   18500    1448.9042   -118.59173     1.310999   -117.28073    226.45681    4.2881599    4.2881599    4.2881599    226.45681   -61996.393   -11026.924    73702.687    7141.0453   -19171.485    7502.9652    78.852038 
   18600    1248.8224   -118.40058    1.1299608   -117.27062   -20730.389    4.2861873    4.2861873    4.2861873   -20730.389    -51996.41   -28121.902    17927.146    14492.341    -25457.39   -10055.932     78.74327 
   18700    1316.3945   -118.45398    1.1911014   -117.26288    4219.9973    4.2746864    4.2746864    4.2746864    4219.9973    2545.1956    29412.634   -19297.838    4409.2351   -2949.9447   -9500.4503    78.111102 
   18800    1736.2052   -118.84557    1.5709549   -117.27461   -12045.779    4.2882417    4.2882417    4.2882417   -12045.779   -6213.6148   -20433.819   -9489.9029   -12507.482     14696.38    4554.5217     78.85655 
   18900    1560.4565   -118.67864    1.4119338   -117.26671   -5254.6768    4.2978917    4.2978917    4.2978917   -5254.6768   -61301.557    15371.914    30165.613   -11800.025    609.60888    15727.544    79.390111 
   19000    1215.9936   -118.36175    1.1002566   -117.26149   -8463.4633    4.2899251    4.2899251    4.2899251   -8463.4633   -26987.052    9148.8153   -7552.1536    5012.2036    5023.8136    14645.515    78.949455 
   19100     856.4182   -118.03149   0.77490519   -117.25659   -5940.7019    4.2735453    4.2735453    4.2735453   -5940.7019   -9418.4635    -2107.715   -6295.9271   -12981.507    25335.793    11805.184    78.048566 
   19200    1732.8845   -118.83382    1.5679503   -117.26587    4843.7724    4.2668176    4.2668176    4.2668176    4843.7724    8220.4037   -12907.949    19218.863   -22442.605    12726.074    -451.5488    77.680539 
   19300    2150.8072   -119.23071    1.9460955   -117.28462   -9976.1379     4.282739     4.282739     4.282739   -9976.1379    9720.3604    -20217.01   -19431.764   -8933.5112   -9304.6383   -6520.2651    78.553369 
   19400    1427.9967    -118.5742    1.2920814   -117.28212   -650.33527    4.2804877    4.2804877    4.2804877   -650.33527   -36695.843    7916.8419    26827.996     7275.233   -2618.1572    9008.8114    78.429558 
   19500    434.26911   -117.68316   0.39293582   -117.29023    8048.3092    4.2649222    4.2649222    4.2649222    8048.3092   -16090.464     45811.58   -5576.1885   -3537.9781    20463.581    13229.327    77.577062 
   19600    1212.0833   -118.39619    1.0967184   -117.29947   -16176.299    4.2667448    4.2667448    4.2667448   -16176.299   -41657.797    4982.9487   -11854.049   -7642.2995     4546.888   -9497.6363    77.676562 
   19700    1776.0625   -118.90872    1.6070187    -117.3017    3985.8797    4.2780781    4.2780781    4.2780781    3985.8797   -18982.742   -26787.148     57727.53   -13624.817    -8545.158    1219.9439    78.297183 
   19800    1985.9222   -119.08352    1.7969042   -117.28662   -12792.029     4.281216     4.281216     4.281216   -12792.029   -21998.135   -33371.109    16993.157    5581.8063      2134.96   -3172.5655    78.469596 
   19900    867.63576    -118.0718   0.78505507   -117.28674   -4000.1521    4.2787335    4.2787335    4.2787335   -4000.1521    -84085.66   -8435.8435    80521.047   -13614.204    12428.984    2317.3042     78.33317 
   20000    846.40354    -118.0518   0.76584371   -117.28596   -5106.5233    4.2749003    4.2749003    4.2749003   -5106.5233   -59150.991    9853.5109     33977.91   -19331.178    3800.4715   -4334.2518    78.122831 
   20100    1750.3537   -118.86759    1.5837568   -117.28384    4212.6125    4.2743791    4.2743791    4.2743791    4212.6125    5154.0951     17796.91   -10313.168    15534.921   -9159.0448    4407.7733    78.094261 
   20200    2198.4004   -119.26801    1.9891589   -117.27885   -29257.477    4.2820444    4.2820444    4.2820444   -29257.477   -12662.789   -34051.959   -41057.683    3341.8793   -838.36244    11418.547    78.515156 
   20300    1747.6837   -118.86006    1.5813409   -117.27872   -18270.639    4.2736578    4.2736578    4.2736578   -18270.639   -34085.761   -14295.365    -6430.791   -9763.1692    9553.1823   -6594.5272    78.054733 
   20400    998.46583   -118.18979   0.90343286   -117.28636    24345.822    4.2583353    4.2583353    4.2583353    24345.822   -18437.816    65363.904    26111.378    7376.9341   -1493.5562   -3225.7611     77.21818 
   20500    1120.4196   -118.31207    1.0137792   -117.29829    16999.876     4.266563     4.266563     4.266563    16999.876   -45708.002    36968.213    59739.417    8709.9741   -7141.2662   -8968.3969    77.666635 
   20600    1375.5676   -118.54065    1.2446425   -117.29601   -1531.7013    4.2880408    4.2880408    4.2880408   -1531.7013   -35476.595    11970.877    18910.614    9685.9385    9728.3177   -13133.722    78.845464 
   20700    1780.6277   -118.88422    1.6111494   -117.27308    3818.1593    4.2809165    4.2809165    4.2809165    3818.1593   -14309.608       1378.1    24385.986   -8164.3213    14057.727   -8153.3657     78.45313 
   20800     1451.223   -118.58316    1.3130971   -117.27006    13000.639    4.2742559    4.2742559    4.2742559    13000.639   -20117.627     20933.19    38186.354   -1772.4499   -10417.095   -1044.4639    78.087505 
   20900    1179.5697   -118.33911    1.0672995   -117.27181   -38106.535    4.2864076    4.2864076    4.2864076   -38106.535   -107824.62   -2810.1864   -3684.8005    11253.209    11597.323    11483.405     78.75541 
   21000    1403.3116   -118.53866    1.2697459   -117.26891   -11332.946    4.2746754    4.2746754    4.2746754   -11332.946   -58852.882    28467.963   -3613.9181    9294.9343    12584.624    10305.107    78.110501 
   21100     1764.674   -118.87714    1.5967141   -117.28043    18728.934     4.270327     4.270327     4.270327    18728.934    28322.491    30373.233   -2508.9213    12812.798   -5145.2581    10122.292     77.87237 
   21200    1447.1169    -118.6001    1.3093818   -117.29072    6178.6738    4.2815264    4.2815264    4.2815264    6178.6738   -13050.266     58622.35   -27036.062    -3715.088    13900.427   -4106.5837    78.486664 
   21300    1079.7769   -118.25862   0.97700486   -117.28162     17918.12    4.2799667    4.2799667    4.2799667     17918.12   -17464.385    69637.037     1581.709   -4328.2557    2501.8013    -11820.94    78.400924 
   21400     1097.358    -118.2654   0.99291254   -117.27248    12687.074    4.2735354    4.2735354    4.2735354    12687.074   -17457.028    12117.977    43400.273   -15434.914    -22536.69   -5087.5327    78.048023 
   21500    1741.7644   -118.85217     1.575985   -117.27619   -26441.056    4.2741444    4.2741444    4.2741444   -26441.056   -51848.788   -11315.624   -16158.756   -2754.4254    -6636.242    3750.9991    78.081394 
   21600    1544.2313   -118.68385    1.3972529    -117.2866    9373.8763    4.2776808    4.2776808    4.2776808    9373.8763    24976.691   -10500.474    13645.413   -2662.2909    10941.865   -682.19415    78.275368 
   21700    1217.5917   -118.38564    1.1017026   -117.28394   -2025.6533    4.2882664    4.2882664    4.2882664   -2025.6533    7242.4828    -35527.98    22208.538   -1499.6795    6776.1624     1095.517    78.857909 
   21800    996.94551   -118.17297   0.90205725   -117.27091   -9752.2139    4.2843861    4.2843861    4.2843861   -9752.2139   -6639.1467   -50770.908    28153.412    7958.4953    16912.417    3570.3946    78.644036 
   21900    1646.4562   -118.75421    1.4897482   -117.26446    24511.974    4.2654816    4.2654816    4.2654816    24511.974    14099.068     30093.27    29343.584    1210.1926    25571.841   -379.51752    77.607596 
   22000    1875.2023   -118.97761    1.6967225   -117.28089   -9536.8932    4.2761973    4.2761973    4.2761973   -9536.8932   -19272.963   -1832.6317    -7505.085     4939.417    2186.9604   -1430.7889     78.19396 
   22100    1134.1503   -118.30969    1.0262031   -117.28349   -19097.705    4.2872727    4.2872727    4.2872727   -19097.705    -23500.34   -19970.141   -13822.633   -1246.2921   -4562.7862    4014.2131    78.803106 
   22200    1188.6081   -118.35216    1.0754776   -117.27669   -15703.453    4.2732618    4.2732618    4.2732618   -15703.453    -32534.23   -11071.271   -3504.8573    2441.0413     -1679.83   -6703.6635    78.033033 
   22300    1492.5324   -118.63167    1.3504747    -117.2812    568.79045    4.2682474    4.2682474    4.2682474    568.79045    21779.664   -11712.521   -8360.7714    5690.5216    9644.0926   -18475.858    77.758657 
   22400     1613.135   -118.75376    1.4595984   -117.29416   -2182.3486    4.2819107    4.2819107    4.2819107   -2182.3486    42077.262   -7900.7021   -40723.606    4633.3331   -7867.3805   -4018.5859    78.507802 
   22500    1340.5815   -118.49317    1.2129863   -117.28019   -14238.652    4.2866025    4.2866025    4.2866025   -14238.652    3703.3247   -6055.0447   -40364.236    -3357.949   -15270.341    3499.5694    78.766153 
   22600    1104.4061   -118.26915   0.99928983   -117.26986    7969.6472      4.27746      4.27746      4.27746    7969.6472    36201.409   -11682.345   -610.12318   -9112.8927   -14956.938   -6095.6465    78.263249 
   22700    1511.9262   -118.64284    1.3680226   -117.27482   -1049.1621       4.2653       4.2653       4.2653   -1049.1621     19160.94   -28325.669    6017.2434   -2749.7486   -6778.4237   -6251.1378    77.597682 
   22800     1571.744    -118.7115     1.422147   -117.28935    7138.7177     4.260683     4.260683     4.260683    7138.7177   -18243.945    21250.611    18409.487    8081.6818   -5643.9087   -8482.8084    77.345967 
   22900    1171.5667   -118.35849    1.0600581   -117.29843   -2510.0665    4.2722033    4.2722033    4.2722033   -2510.0665   -35449.851    23340.508    4579.1435   -12395.747    -16970.46   -561.57146    77.975061 
   23000    1091.9544   -118.27982   0.98802331    -117.2918   -25284.053    4.2802206    4.2802206    4.2802206   -25284.053   -51845.959    10108.708   -34114.907   -11462.787   -17561.716   -5123.8315    78.414873 
   23100    1639.2875   -118.76599    1.4832617   -117.28273    24028.896    4.2683421    4.2683421    4.2683421    24028.896    34750.368    43487.763   -6151.4427    11545.124   -7922.2467   -14931.543    77.763833 
   23200     1685.684   -118.81714    1.5252423   -117.29189    8125.9529    4.2723742    4.2723742    4.2723742    8125.9529    30239.496    11661.293    -17522.93    29919.621   -2815.5608   -9108.8311     77.98442 
   23300    920.37586   -118.12481   0.83277542   -117.29203   -13291.245    4.2788897    4.2788897    4.2788897   -13291.245   -15362.384    16054.043   -40565.395    9769.8608   -10032.671    7977.6364     78.34175 
   23400    1289.4144   -118.44635    1.1666893   -117.27966   -4413.1342    4.2669723    4.2669723    4.2669723   -4413.1342    11017.309    7755.4257   -32012.138   -21564.069   -4648.0237    -1515.473    77.688988 
   23500    2035.7624   -119.13403    1.8420006   -117.29203   -30284.074     4.273552     4.273552     4.273552   -30284.074    -48542.91   -20131.604    -22177.71    332.48486   -3310.8309   -12570.047    78.048933 
   23600    1594.0339   -118.73854    1.4423153   -117.29622   -7686.1736    4.2759942    4.2759942    4.2759942   -7686.1736   -24812.813   -14855.407    16609.699    20024.005   -9222.8553   -1249.1723     78.18282 
   23700    905.46355   -118.11407   0.81928245   -117.29479    6138.4669    4.2762758    4.2762758    4.2762758    6138.4669    2030.3118    23170.625    -6785.536    -4036.847   -8904.0453    1061.2303    78.198268 
   23800    1391.7952   -118.54437    1.2593255   -117.28504    9703.4347    4.2688986    4.2688986    4.2688986    9703.4347    7099.1676    23995.576   -1984.4394   -12441.296   -7637.7456   -2218.0865    77.794254 
   23900    1777.7461   -118.90036     1.608542   -117.29182    18959.031    4.2672113    4.2672113    4.2672113    18959.031    41277.989    195.12878    15403.976    19524.663    6861.8162    -14274.73    77.702043 
   24000    1502.5769   -118.65502    1.3595632   -117.29546   -28652.531    4.2821866    4.2821866    4.2821866   -28652.531   -54313.064   -45153.718    13509.189     32813.62    19482.103   -4105.2087    78.522981 
   24100    1169.8547   -118.33597    1.0585091   -117.27746   -15345.295    4.2744905    4.2744905    4.2744905   -15345.295   -16225.485   -27360.631   -2449.7695    2472.3011    16098.741    -6401.539    78.100366 
   24200    1164.2413   -118.33055      1.05343   -117.27712    1169.1534    4.2736993    4.2736993    4.2736993    1169.1534    1509.3796    20630.035   -18631.954   -6050.1564    6137.3674   -198.93018    78.057004 
   24300     1508.318   -118.64615    1.3647579   -117.28139   -7892.9745    4.2761594    4.2761594    4.2761594   -7892.9745   -41565.793    34313.325   -16426.456    15212.764   -4064.0705    12953.871    78.191883 
   24400    1501.3024   -118.63944    1.3584099   -117.28103    35708.205    4.2707868    4.2707868    4.2707868    35708.205    29505.536    69895.932    7723.1465    22898.413     9041.507    2617.2178     77.89753 
   24500    1159.6278   -118.33472    1.0492556   -117.28547   -4021.1087      4.28574      4.28574      4.28574   -4021.1087   -16395.454    42304.158    -37972.03    3548.6588   -4455.8803   -10643.818    78.718617 
   24600     901.1846    -118.0922   0.81541076   -117.27679   -40199.324    4.2810806    4.2810806    4.2810806   -40199.324   -38414.898   -3477.9454   -78705.128   -10357.337   -9642.6057     -4566.25    78.462151 
   24700    1684.8359   -118.79181    1.5244749   -117.26733    11436.369    4.2506376    4.2506376    4.2506376    11436.369    14044.536    13046.508    7218.0625     17477.91   -106.74637    22755.785    76.800181 
   24800    1862.7119   -118.99205    1.6854209   -117.30663    8321.7755    4.2642783    4.2642783    4.2642783    8321.7755   -4652.4591   -15653.177    45270.963    2239.0853   -13408.863    7984.8833    77.541934 
   24900    1165.2164   -118.34731    1.0543123     -117.293   -14167.363    4.2947754    4.2947754    4.2947754   -14167.363    10467.409   -41449.245   -11520.253    1843.6691   -1789.9831   -17783.198    79.217542 
   25000    957.03599   -118.13702   0.86594627   -117.27107    13975.295    4.2809462    4.2809462    4.2809462    13975.295    12276.591    29526.311    122.98191    2143.5827   -4188.4636   -7919.7014    78.454761 
   25100    1661.4009    -118.7581    1.5032704   -117.25483    6206.2323    4.2687981    4.2687981    4.2687981    6206.2323    -9018.167    17400.693     10236.17    -426.4385    24.602788    14.266985    77.788761 
   25200     1891.193   -118.98277    1.7111912   -117.27158    -18141.22    4.2801439    4.2801439    4.2801439    -18141.22    7219.4401   -28189.175   -33453.924    802.06007   -8043.4547   -28594.626    78.410659 
   25300    1561.7403   -118.68544    1.4130955   -117.27234   -15238.725    4.2880188    4.2880188    4.2880188   -15238.725   -15280.408   -41557.573    11121.805   -4047.2261    123.51187   -10290.024    78.844254 
   25400    1085.6513   -118.24951   0.98232008   -117.26719   -18863.171    4.2866938    4.2866938    4.2866938   -18863.171     13123.47   -40835.966   -28877.016    7392.5636    -5534.483    3993.2714    78.771185 
   25500    854.72297   -118.04465   0.77337131   -117.27128    15516.688    4.2623115    4.2623115    4.2623115    15516.688    98739.775   -23113.041    -29076.67    3757.0978   -6475.7272   -32766.048     77.43469 
   25600    1538.5932   -118.68278    1.3921514   -117.29063    32869.427    4.2619014    4.2619014    4.2619014    32869.427    108398.52   -18620.378    8830.1421   -7047.8851   -1029.7743   -10303.833    77.412341 
   25700    1497.3326   -118.64925     1.354818   -117.29443   -28902.049    4.2915166    4.2915166    4.2915166   -28902.049    -478.1619   -54331.956    -31896.03   -14835.386   -1885.9656     7457.374    79.037352 
   25800    641.94996   -117.86196   0.58084982   -117.28111     -4387.93    4.2779418    4.2779418    4.2779418     -4387.93    30501.096   -32384.263   -11280.623   -5235.1755    2701.2326   -37045.173      78.2897 
   25900    1239.9887   -118.39302    1.1219678   -117.27105    32276.326      4.26166      4.26166      4.26166    32276.326    110729.14    5213.2803   -19113.446    4740.7682   -1636.9821   -11331.575    77.399184 
   26000    2168.1851   -119.24355    1.9618194   -117.28173   -15302.102    4.2775717    4.2775717    4.2775717   -15302.102    27245.912    -19763.18   -53389.039    16873.354    2867.7954    10354.267    78.269382 
   26100     1051.149   -118.23573   0.95110174   -117.28463    12776.044     4.281149     4.281149     4.281149    12776.044    44362.562    5220.2388    -11254.67    6665.1076    -680.6637   -27880.451    78.465914 
   26200    1107.0095   -118.27405    1.0016455    -117.2724   -24373.884    4.2836182    4.2836182    4.2836182   -24373.884   -42124.586   -7574.3271   -23422.739    6385.0089    1438.3506    -3049.081    78.601757 
   26300    1604.4192   -118.71846    1.4517122   -117.26675   -10382.584    4.2721093    4.2721093    4.2721093   -10382.584   -3967.9986    5345.6317   -32525.384   -12632.376    4634.4789    14725.761    77.969915 
   26400    1732.5075   -118.84188    1.5676092   -117.27427    14324.262    4.2589981    4.2589981    4.2589981    14324.262    42805.452    32732.831   -32565.498    -15063.17    1999.6895   -19563.373     77.25424 
   26500    1372.1912   -118.53782    1.2415875   -117.29623    -2479.236    4.2765596    4.2765596    4.2765596    -2479.236    50586.534   -16280.794   -41743.447   -8977.1819   -2911.4268   -9034.9854    78.213835 
   26600    1448.2759   -118.59117    1.3104304   -117.28074   -20246.729    4.2821887    4.2821887    4.2821887   -20246.729   -24654.367   -27521.386   -8564.4329    7253.1464   -3076.3017    8500.2269    78.523096 
   26700    1301.0248   -118.44994    1.1771946   -117.27274    8848.8419    4.2675209    4.2675209    4.2675209    8848.8419    49156.692   -20414.898   -2195.2687     6770.836    8793.5505   -31078.769    77.718961 
   26800    1650.3112   -118.78036    1.4932362   -117.28712   -9668.0841     4.273164     4.273164     4.273164   -9668.0841    9248.6471   -3655.6355   -34597.264     5812.672   -7706.5472   -3184.5368     78.02768 
   26900    1673.7971   -118.80022    1.5144868   -117.28573    -3226.236    4.2736278    4.2736278    4.2736278    -3226.236   -562.42452    24258.216   -33374.499   -213.96519   -25399.473    9382.4244     78.05309 
   27000     845.2098   -118.05108   0.76476359   -117.28631    18178.047    4.2724869    4.2724869    4.2724869    18178.047     75263.72   -23486.786    2757.2074   -9641.3874   -7153.2362   -27563.242    77.990594 
   27100    1253.9195   -118.41722    1.1345727   -117.28265   -21145.973    4.2865427    4.2865427    4.2865427   -21145.973    40350.496   -81307.935    -22480.48   -3373.1505    1728.1663   -5834.2892    78.762857 
   27200    1720.4529   -118.82708    1.5567019   -117.27037    20759.023    4.2688892    4.2688892    4.2688892    20759.023    82109.948   -6276.1214   -13556.758    3726.4404    2073.2518    10210.083    77.793739 
   27300    1042.2165   -118.22957    0.9430194   -117.28655    23175.663    4.2692461    4.2692461    4.2692461    23175.663    93180.394   -18945.828   -4707.5769    15557.416    1796.0265   -30664.386    77.813254 
   27400     928.4903   -118.12164   0.84011754   -117.28152   -23128.094    4.2863526    4.2863526    4.2863526   -23128.094    22432.534   -59257.235   -32559.579    497.57127    2338.3077    -13042.24    78.752376 
   27500    1732.4806   -118.83527    1.5675848   -117.26768    5868.1426    4.2712275    4.2712275    4.2712275    5868.1426     49555.62   -41155.422    9204.2298    6164.4662    17580.477    5104.2741    77.921645 
   27600    1364.3454   -118.52123    1.2344884   -117.28675     7675.799     4.272541     4.272541     4.272541     7675.799    63949.136    -34099.14   -6822.5988    -94.48075     3843.026   -35469.321    77.993556 
   27700    1526.1652   -118.65501    1.3809063   -117.27411   -20308.737    4.2753288    4.2753288    4.2753288   -20308.737    -20097.93   -18400.823   -22427.458    9039.1018    3031.1338   -8987.5108    78.146324 
   27800    1685.0634   -118.79162    1.5246808   -117.26694    2298.4385    4.2684706    4.2684706    4.2684706    2298.4385    5882.9387   -129.06713    1141.4439     299.3566   -5247.1659    3667.3672    77.770857 
   27900    1033.7169   -118.22037   0.93532874   -117.28505   -28022.036    4.2837843    4.2837843    4.2837843   -28022.036     6265.788   -59540.583   -30791.312    11484.605    3822.1996   -43197.175    78.610902 
   28000    1511.8063   -118.64443    1.3679141   -117.27651   -1014.1752    4.2651291    4.2651291    4.2651291   -1014.1752    27499.656   -38763.462    8221.2803   -2401.4138     4990.113   -7476.0354    77.588354 
   28100    1544.3676   -118.67511    1.3973762   -117.27774    12124.425    4.2605315    4.2605315    4.2605315    12124.425    27416.512   -8697.0494    17653.812   -4311.9618    12039.192    12308.778    77.337717 
   28200    1301.1846   -118.46614    1.1773392    -117.2888   -8820.5286    4.2842217    4.2842217    4.2842217   -8820.5286    14169.362   -27937.632   -12693.316   -9589.7522    2941.4387   -24327.364    78.634983 
   28300    1514.1325   -118.63846    1.3700189   -117.26845   -2733.7627    4.2811983    4.2811983    4.2811983   -2733.7627    25274.893   -45432.941     11956.76   -19330.122   -1886.4611    4153.4345    78.468622 
   28400    1724.0389   -118.81334    1.5599467    -117.2534   -19365.068    4.2742064    4.2742064    4.2742064   -19365.068     13308.83   -69385.119   -2018.9148   -14704.438    1512.2864    24423.883    78.084796 
   28500    1375.2727   -118.50696    1.2443756   -117.26258   -12256.852    4.2673962    4.2673962    4.2673962   -12256.852    8026.0687   -33952.679   -10843.946   -3521.5324    357.44453   -16691.959    77.712147 
   28600    1179.6608   -118.34629    1.0673818    -117.2789    -4947.719    4.2658899    4.2658899    4.2658899    -4947.719    13843.705   -14573.586   -14113.276   -6625.0331    4538.6741       -22721    77.629883 
   28700    1497.5898   -118.63856    1.3550508   -117.28351    -4206.404    4.2762301    4.2762301    4.2762301    -4206.404    5087.5669   -37804.791    20098.012    20.637202    4823.1957    15895.195    78.195758 
   28800    1490.7504   -118.62498    1.3488623   -117.27612   -8706.5747    4.2841879    4.2841879    4.2841879   -8706.5747   -9984.9502    -65922.06    49787.286    7110.4897    12636.438    20759.567    78.633122 
   28900    1093.3081   -118.25884   0.98924811   -117.26959     1612.324    4.2740272    4.2740272    4.2740272     1612.324    5768.8481   -60263.254    59331.378    3263.1861    1324.1823   -8642.4219    78.074972 
   29000    1232.4585   -118.38543    1.1151543   -117.27028   -8678.9232    4.2694295    4.2694295    4.2694295   -8678.9232    453.30933   -41501.726    15011.647    3929.6308   -8126.4667    19073.035    77.823282 
   29100    1488.5767   -118.63139    1.3468955   -117.28449   -10721.058    4.2743766    4.2743766    4.2743766   -10721.058    20931.724     -19047.6   -34047.299    3548.8914   -16387.737    36794.096    78.094123 
   29200    2090.5108   -119.16821    1.8915381   -117.27667   -9845.0852    4.2679874    4.2679874    4.2679874   -9845.0852    12392.494    -27776.39    -14151.36   -9674.4848   -12041.068   -7305.4022    77.744447 
   29300    1249.4006   -118.41097    1.1304839   -117.28049    14229.033    4.2673917    4.2673917    4.2673917    14229.033    69564.357   -34948.476    8071.2171   -13835.607   -8725.6665   -1480.4062    77.711898 
   29400    709.39939   -117.92978   0.64187947   -117.28791   -11703.237    4.2778671    4.2778671    4.2778671   -11703.237    52099.408   -58599.181   -28609.938     -18294.7    10249.042     30592.91    78.285595 
   29500    1406.3543   -118.54948    1.2724989   -117.27699   -14982.269    4.2820484    4.2820484    4.2820484   -14982.269   -6172.5216    -44654.29    5880.0058    15554.812    6083.8849     7005.875    78.515376 
   29600     1958.145   -119.03832    1.7717707   -117.26655    1815.6505    4.2793056    4.2793056    4.2793056    1815.6505   -6726.9952   -7609.0127     19782.96    8125.5996    7195.1371   -5751.9558    78.364596 
   29700    1535.8212   -118.65743    1.3896433   -117.26778    4233.4113    4.2661212    4.2661212    4.2661212    4233.4113     21712.05   -21915.568    12903.752   -12587.391    1682.6692    35829.992    77.642508 
   29800    644.22565   -117.86189    0.5829089   -117.27898    15536.639    4.2562266    4.2562266    4.2562266    15536.639    31026.411   -46604.973    62188.479    7402.2708   -8922.1419    25602.362    77.103522 
   29900    1012.4062   -118.21356   0.91604644   -117.29751    3104.1079    4.2704058    4.2704058    4.2704058    3104.1079    1906.0444   -28443.641    35849.921    16733.329    2113.4731   -17456.052    77.876683 
   30000     2120.571    -119.2017    1.9187372   -117.28297   -12671.598    4.2810759    4.2810759    4.2810759   -12671.598    -33768.14   -5388.8816    1142.2269   -1269.4732    4300.7257    -15578.22    78.461891 
   30100    1905.5543    -118.9973    1.7241856   -117.27311   -21545.807    4.2796191    4.2796191    4.2796191   -21545.807   -25184.165   -36542.879   -2910.3785    4961.3885   -878.93816    21414.285    78.381822 
   30200    980.46822    -118.1622   0.88714825   -117.27505   -14100.856    4.2749495    4.2749495    4.2749495   -14100.856    9468.7589   -59175.022    7403.6961    18368.489    11665.068    7254.7588    78.125529 
   30300    750.03489   -117.95788   0.67864733   -117.27923    1254.7973    4.2721808    4.2721808    4.2721808    1254.7973    11950.317   -32918.294    24732.369    3299.6252   -1026.4833   -11848.415    77.973829 
   30400    1973.7711   -119.06601    1.7859096    -117.2801   -10451.533    4.2620493    4.2620493    4.2620493   -10451.533   -8500.7137   -14777.891   -8075.9947   -4830.4804    8666.5212    3352.9251    77.420398 
   30500     2372.411   -119.43504    2.1466073   -117.28844    10346.242    4.2511777    4.2511777    4.2511777    10346.242    3963.2462    11625.722    15449.756    6024.7719   -3582.1413    19290.249    76.829461 
   30600    1065.9161    -118.2759   0.96446333   -117.31144   -5739.4179    4.2712962    4.2712962    4.2712962   -5739.4179    919.66238   -43209.618    25071.702    10217.589     4248.797   -18398.536    77.925405 
   30700    557.58608   -117.80907   0.50451561   -117.30456   -21199.583    4.2791447    4.2791447    4.2791447   -21199.583     17426.55   -89498.133    8472.8333   -4263.1582   -2051.2217   -30814.007    78.355761 
   30800    1559.4011   -118.69504    1.4109789   -117.28406    531.81155    4.2696031    4.2696031    4.2696031    531.81155    21039.215    -48568.09     29124.31   -11155.103    7474.8806   -5462.4098    77.832778 
   30900    2300.2698   -119.36323    2.0813325    -117.2819   -4145.5351    4.2743576    4.2743576    4.2743576   -4145.5351   -25879.961   -16236.831    29680.187    2771.7068    16444.776     3158.875    78.093079 
   31000    1375.9944   -118.53009    1.2450287   -117.28506    8675.8213    4.2724756    4.2724756    4.2724756    8675.8213    8712.6762   -23148.609    40463.397    7671.9796   -10945.322   -23923.477    77.989975 
   31100    694.25749   -117.91325   0.62817877   -117.28507   -2563.0747    4.2690209    4.2690209    4.2690209   -2563.0747    32170.848   -83019.401    43159.329    3885.9386   -11899.778   -22214.497    77.800941 
   31200    1230.6098   -118.39765    1.1134816   -117.28417    2380.3956    4.2641037    4.2641037    4.2641037    2380.3956    9714.7521   -41131.767    38558.201    2780.9029   -4227.9978    16233.451    77.532409 
   31300    1971.4835   -119.07928    1.7838397   -117.29544    14300.726    4.2644985    4.2644985    4.2644985    14300.726    21554.952   -4441.7922    25789.017    826.67461   -7933.2142    15346.998    77.553943 
   31400    1382.7492   -118.55372    1.2511406   -117.30258    991.54867    4.2846213    4.2846213    4.2846213    991.54867   -3083.0437   -12894.475    18952.165   -11750.647    1534.5841   -15019.311    78.656991 
   31500    1022.6123   -118.20395   0.92528113   -117.27866   -5875.2998    4.2811194    4.2811194    4.2811194   -5875.2998   -12452.259   -51764.499    46590.859   -7365.1273    521.12898   -2410.3017    78.464287 
   31600    1000.9655   -118.18027   0.90569458   -117.27458   -2267.5385    4.2663779    4.2663779    4.2663779   -2267.5385    17712.506   -79743.178    55228.057     3884.641    4021.0198    22679.379    77.656525 
   31700    1983.9827   -119.07616    1.7951492   -117.28101   -9499.0733    4.2629789    4.2629789    4.2629789   -9499.0733    22379.535   -34269.042   -16607.713   -3593.8565    5320.9058    21238.842    77.471071 
   31800    1807.8041   -118.92715    1.6357392   -117.29141     14946.67    4.2682234    4.2682234    4.2682234     14946.67   -2921.0153    25484.025    22277.001   -11360.573   -3380.8106   -8016.9811    77.757346 
   31900    1128.2398    -118.3071    1.0208551   -117.28624    -26130.61    4.2912071    4.2912071    4.2912071    -26130.61   -45316.567   -12114.882    -20960.38    1657.4928    6457.0443    7403.4544    79.020256 
   32000    1050.4188   -118.21947   0.95044098   -117.26903   -25550.092    4.2831554    4.2831554    4.2831554   -25550.092   -12588.508   -45220.281   -18841.488    889.98096    2600.6621    28727.123    78.576285 
   32100    1526.0245   -118.63759    1.3807791   -117.25681    14914.387    4.2675307    4.2675307    4.2675307    14914.387    33027.444   -34897.764     46613.48    -15257.16   -9994.6245    2427.3897    77.719493 
   32200    1872.5257   -118.96315    1.6943006   -117.26885   -8037.9986    4.2733922    4.2733922    4.2733922   -8037.9986   -14160.592   -19931.607     9978.203   -8538.9006   -12720.514   -13753.908     78.04018 
   32300    1095.7074   -118.27039   0.99141912   -117.27897    19821.946    4.2622745    4.2622745    4.2622745    19821.946    -15280.37    36500.677    38245.531   -1163.2449   -1538.4142    11974.693     77.43267 
   32400    839.07046   -118.05902   0.75920858   -117.29981    23010.242    4.2682417    4.2682417    4.2682417    23010.242    29347.717   -4519.8875    44202.895   -12630.961    4822.6714    11255.635    77.758346 
   32500    1770.2104   -118.88562    1.6017236   -117.28389   -30914.752    4.2858264    4.2858264    4.2858264   -30914.752   -15909.192   -51072.418   -25762.648   -768.35085   -9765.8335   -3584.9617    78.723378 
   32600    1859.9581   -118.95141    1.6829292   -117.26848   -5782.6982     4.270661     4.270661     4.270661   -5782.6982    1642.0571   -26787.971    7797.8189    21245.985    13329.135    3812.5666    77.890643 
   32700    1398.1134   -118.54542    1.2650424   -117.28038   -6142.3074    4.2765293    4.2765293    4.2765293   -6142.3074   -6325.1512   -19329.239    7227.4679    24155.988    4949.0441    12450.231    78.212172 
   32800    991.37758   -118.16978   0.89701927   -117.27276   -2019.7031    4.2873543    4.2873543    4.2873543   -2019.7031    10308.555   -9170.9282   -7196.7365    4042.7397   -15778.465   -2443.4516    78.807602 
   32900    1421.6679   -118.54394     1.286355   -117.25759    8971.9033    4.2735141    4.2735141    4.2735141    8971.9033    49501.865   -24417.168    1831.0127   -13547.956    -7869.051   -10749.265    78.046856 
   33000     1738.441   -118.83699    1.5729779   -117.26401   -156.77927    4.2807166    4.2807166    4.2807166   -156.77927    54802.541   -39364.699   -15908.179    8896.9898    4240.8964    11158.741    78.442138 
   33100    1332.7153   -118.46724    1.2058689   -117.26137   -14095.249    4.2919593    4.2919593    4.2919593   -14095.249   -54478.852    12869.556   -676.45148     14344.77    7240.4888    2445.1723    79.061813 
   33200    1010.5552   -118.16769   0.91437154   -117.25331    14099.945    4.2771618    4.2771618    4.2771618    14099.945   -68605.643    45056.977    65848.501   -22028.035   -7379.5389   -10852.551    78.246882 
   33300    1295.3241   -118.42896    1.1720365   -117.25692    -5884.935    4.2771874    4.2771874    4.2771874    -5884.935   -15279.588   -29165.115    26789.898     7633.171    -17478.47    3547.3928    78.248285 
   33400    1673.2934   -118.77498     1.514031   -117.26095   -23512.341    4.2755533    4.2755533    4.2755533   -23512.341    2182.1188   -43281.603    -29437.54    36338.336   -4213.6168    9128.6488    78.158638 
   33500    1870.6381   -118.95999    1.6925927    -117.2674    4755.1742    4.2645507    4.2645507    4.2645507    4755.1742    39574.232   -32164.382    6855.6724   -6130.7072     -5392.42    13556.758    77.556793 
   33600    940.00565    -118.1379   0.85053687   -117.28736    13724.867    4.2768521    4.2768521    4.2768521    13724.867    43051.572   -32496.056    30619.085   -21948.137    14922.935   -768.53456    78.229883 
   33700       882.27   -118.08038   0.79829644   -117.28209   -10497.224    4.2784967    4.2784967    4.2784967   -10497.224    605.57899   -17545.857   -14551.395    6227.4151    23148.549   -945.11023    78.320168 
   33800    1451.6656   -118.58903    1.3134975   -117.27553    1057.1158    4.2710748    4.2710748    4.2710748    1057.1158    40059.375   -24606.205   -12281.822    14772.825    5477.5301     6140.902    77.913288 
   33900    1588.0256   -118.72382    1.4368789   -117.28694   -12490.542    4.2804487    4.2804487    4.2804487   -12490.542     15947.02   -80396.298    26977.651   -32235.053   -8768.9322    5340.8353    78.427411 
   34000    1511.4502   -118.64398    1.3675919   -117.27638   -8751.8472    4.2683623    4.2683623    4.2683623   -8751.8472   -23403.257   -38186.384    35334.099   -24489.211   -6943.5719   -6863.6322    77.764935 
   34100    1136.4421   -118.29591    1.0282767   -117.26764    19935.715    4.2578221    4.2578221    4.2578221    19935.715     36751.78    18618.769    4436.5967    13892.183    5071.4295   -1864.9801    77.190267 
   34200    1179.3576   -118.34829    1.0671075   -117.28118   -34386.325     4.278993     4.278993     4.278993   -34386.325   -30563.593   -44670.105   -27925.278   -13432.713     4995.565   -1309.2759    78.347426 
   34300    1607.3046    -118.7333     1.454323   -117.27897   -10477.886    4.2730524    4.2730524    4.2730524   -10477.886     24658.52   -47357.657   -8734.5198   -23496.325   -9852.2535   -6334.6406    78.021565 
   34400    1998.5882   -119.08277    1.8083646    -117.2744   -1256.5911    4.2598442    4.2598442    4.2598442   -1256.5911    9432.6957    794.74046    -13997.21    5963.6645    10227.694   -7211.9203    77.300296 
   34500    1082.2166   -118.26177   0.97921235   -117.28256   -10475.526    4.2665603    4.2665603    4.2665603   -10475.526   -53334.014    38908.232   -17000.796    14133.731    17883.532   -8527.7966    77.666487 
   34600     1105.231   -118.28596    1.0000362   -117.28592   -22171.499    4.2742735    4.2742735    4.2742735   -22171.499   -42681.689   -9660.4476   -14172.361   -30327.235   -5036.4973   -609.10188    78.088474 
   34700    1684.5345   -118.81266    1.5242022   -117.28846   -25244.833    4.2795558    4.2795558    4.2795558   -25244.833   -10175.542   -49868.298   -15690.658   -24496.341   -645.06789   -2713.5099    78.378343 
   34800    2133.0867    -119.2126    1.9300617   -117.28254   -19405.253    4.2750215    4.2750215    4.2750215   -19405.253    12161.484   -47790.687   -22586.558    16942.255    9987.7433   -4367.1661    78.129474 
   34900    1510.6785   -118.65118    1.3668937   -117.28428    2827.7638    4.2587894    4.2587894    4.2587894    2827.7638    10289.122    3220.1575   -5025.9875    10817.754    -2990.755    3379.3756    77.242889 
   35000    942.76403   -118.14248   0.85303271   -117.28944    4110.4146    4.2519151    4.2519151    4.2519151    4110.4146   -28464.279    47003.361   -6207.8381   -15518.664   -10595.267    1359.2723    76.869446 
   35100    1633.5354   -118.78423    1.4780571   -117.30618   -4220.2196    4.2756649    4.2756649    4.2756649   -4220.2196    15367.268   -6861.8398   -21166.087   -2870.6477    8484.9768   -1654.9364    78.164756 
   35200    2100.4007   -119.18274    1.9004867   -117.28226   -33795.999    4.2918027    4.2918027    4.2918027   -33795.999    438.28311   -67160.968   -34665.312    32200.268    6733.1245    4988.4393    79.053161 
   35300    1489.4588   -118.61439    1.3476937    -117.2667     10006.57     4.274092     4.274092     4.274092     10006.57    16086.164    39699.432   -25765.886    18181.724    -8813.248   -1634.0246    78.078524 
   35400    1036.4689   -118.20417   0.93781889   -117.26636    19472.934    4.2616327    4.2616327    4.2616327    19472.934    15354.545    60462.737   -17398.481   -18953.538    4702.8208   -1877.5497    77.397698 
   35500    1016.8861   -118.20583   0.92009996   -117.28573    24671.768    4.2672839    4.2672839    4.2672839    24671.768    9210.2942    63240.317    1564.6932   -15812.594    2011.2834   -2349.4978     77.70601 
   35600    1542.0514   -118.69052    1.3952805   -117.29524   -12933.417    4.2880819    4.2880819    4.2880819   -12933.417   -11603.772   -7333.3436   -19863.135    14587.781    -2238.775   -661.40529    78.847735 
   35700    1698.2226   -118.82398    1.5365875   -117.28739   -14896.119    4.2772192    4.2772192    4.2772192   -14896.119     15516.07   -30266.423   -29938.005    20476.242   -857.24793     2210.082    78.250033 
   35800    1222.1563   -118.37758    1.1058327   -117.27174    19316.153    4.2481982    4.2481982    4.2481982    19316.153    9688.3891    30511.555    17748.514   -16714.673   -801.83054   -3014.8854    76.668033 
   35900    878.30735    -118.0904   0.79471095   -117.29569     3459.777    4.2633627    4.2633627    4.2633627     3459.777   -5673.9352   -9793.2186    25846.485    -5031.552   -3345.7503    3748.4044    77.491995 
   36000    1573.5896   -118.71768     1.423817   -117.29386    -4312.844    4.2788366    4.2788366    4.2788366    -4312.844    37573.926   -39884.531   -10627.927    31361.959   -9167.6257   -3912.1249    78.338836 
   36100    1717.2827   -118.84042    1.5538334   -117.28659    27735.987    4.2704868    4.2704868    4.2704868    27735.987    88899.364    12022.335   -17713.737    19362.431    4555.1297    3748.8193    77.881112 
   36200    1111.5944   -118.28909    1.0057939    -117.2833    11413.689    4.2699897    4.2699897    4.2699897    11413.689    69133.604    2284.4714   -37177.008   -6600.4606    20391.585    6146.2931    77.853918 
   36300    841.75107   -118.04669   0.76163406   -117.28506   -10672.458    4.2735838    4.2735838    4.2735838   -10672.458   -8356.3836   -21644.304   -2016.6858    4740.8598    10209.228   -939.51468    78.050677 
   36400     1421.546    -118.5683    1.2862447   -117.28205   -15132.938    4.2723207    4.2723207    4.2723207   -15132.938   -21026.205   -38879.491    14506.883    9020.3572   -9057.5527     5403.053    77.981493 
   36500    1886.7817   -118.98576    1.7071998   -117.27856   -6424.3151    4.2663202    4.2663202    4.2663202   -6424.3151    21637.654   -9334.8646   -31575.735   -12071.243    5856.3955     8065.823    77.653378 
   36600    1364.2718   -118.51558    1.2344218   -117.28115    6109.8065    4.2738858    4.2738858    4.2738858    6109.8065    7896.0483    8851.4504    1581.9208   -14273.221   -4699.1984   -3743.4559    78.067227 
   36700    1114.1367   -118.28465    1.0080943   -117.27655   -4319.9136    4.2802963    4.2802963    4.2802963   -4319.9136   -36571.263    -39305.69    62917.212     16891.81    -15151.53    -2815.801    78.419039 
   36800    1202.3719   -118.36013    1.0879314    -117.2722    1188.2885    4.2797877    4.2797877    4.2797877    1188.2885   -19124.494   -39004.546    61693.906    8431.7529      21611.1    4785.5188    78.391086 
   36900    1640.9814   -118.75622    1.4847945   -117.27142   -3996.5146    4.2779662    4.2779662    4.2779662   -3996.5146   -2062.5017   -27253.311    17326.269    -6850.611    27346.331     12562.27    78.291039 
   37000    1657.6785   -118.76431    1.4999024   -117.26441   -5208.3244    4.2625369    4.2625369    4.2625369   -5208.3244    36308.342   -19380.507   -32552.808    17866.788    7160.5963   -5501.0203    77.446976 
   37100    1294.8216   -118.45238    1.1715818   -117.28079   -8086.6035    4.2675482    4.2675482    4.2675482   -8086.6035   -7317.3604   -16637.397   -305.05348    8224.6768    -943.9384   -678.00612     77.72045 
   37200    1351.7077   -118.50321    1.2230535   -117.28016   -32403.691     4.283314     4.283314     4.283314   -32403.691    -50018.79   -39006.154   -8186.1301   -8970.7631    7720.3284    13908.872    78.585017 
   37300    1736.8525   -118.83649    1.5715406   -117.26495   -253.60316    4.2681509    4.2681509    4.2681509   -253.60316    13163.845   -18713.664    4789.0098    12984.125    5452.6452    6008.2901    77.753382 
   37400    1397.2226   -118.54066    1.2642364   -117.27642    2521.3904    4.2736713    4.2736713    4.2736713    2521.3904    10015.957   -25009.156     22557.37    15074.128   -11453.427   -13292.359    78.055473 
   37500    1247.1435    -118.4091    1.1284416   -117.28066   -15174.304    4.2775046    4.2775046    4.2775046   -15174.304   -14188.573   -27896.579   -3437.7613   -6247.2406    995.47102   -8362.4765    78.265697 
   37600    1360.3761    -118.5014    1.2308969    -117.2705    15899.808    4.2625622    4.2625622    4.2625622    15899.808   -2537.3442    13051.989    37184.778   -1886.4859    6794.7765    7384.9278    77.448351 
   37700    1175.5434    -118.3451    1.0636564   -117.28144   -11401.698    4.2745923    4.2745923    4.2745923   -11401.698   -46850.951   -25611.398    38257.255    10300.098    11832.516    3436.9978    78.105947 
   37800    1280.7625   -118.44145    1.1588608   -117.28259    7061.4962     4.273134     4.273134     4.273134    7061.4962    9378.7902   -16969.187    28774.886   -4062.6364   -7117.7805    6361.8788    78.026033 
   37900    1704.7494   -118.82041    1.5424931   -117.27792    17288.989    4.2619159    4.2619159    4.2619159    17288.989    30833.128    15993.622    5040.2186   -18645.455    6062.9028    -5985.139    77.413131 
   38000    1473.7101    -118.6163    1.3334439   -117.28286   -21730.859    4.2744791    4.2744791    4.2744791   -21730.859    -50957.51   -6476.4192   -7758.6472   -5638.3138    28075.859     5755.927    78.099741 
   38100    1264.4313   -118.41778     1.144084    -117.2737    -15379.15    4.2735816    4.2735816    4.2735816    -15379.15   -38457.816   -7494.4792   -185.15479    2821.3814    10419.881    912.83424    78.050556 
   38200    1325.1856   -118.47507    1.1990558   -117.27602     1112.768    4.2684935    4.2684935    4.2684935     1112.768    13971.841     5986.183    -16619.72   -12120.455   -17449.614   -1953.5274    77.772107 
   38300    1716.1217   -118.83397     1.552783   -117.28119   -17322.374    4.2741405    4.2741405    4.2741405   -17322.374   -12719.801    14409.357   -53656.679    4558.4401    15774.331    2203.5689    78.081184 
   38400    1592.4342   -118.71781    1.4408679   -117.27695    9443.8844    4.2638262    4.2638262    4.2638262    9443.8844   -13635.989    132.11023    41835.532    18020.966    18326.759     -2155.25    77.517272 
   38500    965.60338   -118.16026   0.87369823   -117.28657     9167.943    4.2663797    4.2663797    4.2663797     9167.943   -40040.518    6697.5977    60846.749    3483.4897   -23287.656     1766.826    77.656627 
   38600     966.1868   -118.15729   0.87422612   -117.28306    3405.5312    4.2793737    4.2793737    4.2793737    3405.5312   -30116.504     1106.163    39226.934    8876.2558   -19397.772   -1988.2251     78.36834 
   38700    1590.0128   -118.70746     1.438677   -117.26878    4921.8114    4.2798171    4.2798171    4.2798171    4921.8114   -4536.6392   -16722.843    36024.916    2232.7316     26082.92   -538.97617      78.3927 
   38800    1555.2013   -118.67616    1.4071788   -117.26899    4286.3382    4.2697673    4.2697673    4.2697673    4286.3382    -8248.987    7482.4892    13625.512   -2706.2456   -8550.0431    -364.5937    77.841757 
   38900    1231.0134   -118.39258    1.1138468   -117.27873    7324.7788    4.2579327    4.2579327    4.2579327    7324.7788   -45544.144    30965.955    36552.525    1861.5259   -35481.783    10032.292    77.196281 
   39000    1226.4238   -118.39234     1.109694   -117.28265    12228.228    4.2579446    4.2579446    4.2579446    12228.228    3390.3111   -23905.975    57200.348   -6876.6087   -4952.1464   -8361.9488    77.196931 
   39100    1430.2602   -118.59173    1.2941295    -117.2976    904.03496    4.2765713    4.2765713    4.2765713    904.03496    -911.8652   -26762.391    30386.361   -1319.3524    12126.417    -864.8254    78.214478 
   39200    1458.4247   -118.60624    1.3196133   -117.28663   -6812.8969    4.2889984    4.2889984    4.2889984   -6812.8969    13649.376   -30169.554   -3918.5129   -1976.6548   -4813.8377    397.99327      78.8983 
   39300    1910.5995   -118.99166    1.7287505   -117.26291   -6005.7769    4.2731561    4.2731561    4.2731561   -6005.7769    4872.1479   -25017.438    2127.9589   -2626.2912    4202.7373   -9944.4131    78.027243 
   39400    984.67744   -118.15078   0.89095684   -117.25982    9934.6074    4.2572729    4.2572729    4.2572729    9934.6074   -15856.284     -3236.97    48897.076    12226.469    19860.484    1995.8386    77.160399 
   39500    847.57507   -118.04913   0.76690373   -117.28223    10749.364    4.2626114    4.2626114    4.2626114    10749.364   -18519.257    8019.1882     42748.16    3620.8108    655.96976    1722.1965    77.451035 
   39600    1964.6957   -119.06176    1.7776979   -117.28406   -14411.142    4.2804752    4.2804752    4.2804752   -14411.142     505.9667   -24968.012    -18771.38    2844.4698   -19555.868   -1024.8351    78.428868 
   39700    2180.3096   -119.24289      1.97279    -117.2701   -10974.829    4.2756008    4.2756008    4.2756008   -10974.829   -18023.705   -16404.262    1503.4783    9535.3829   -6680.8441    3858.5405    78.161243 
   39800    697.35276    -117.9055   0.63097944   -117.27452    24411.148    4.2679829    4.2679829    4.2679829    24411.148   -2264.9058    29445.706    46052.644    4231.2026   -8251.5012    704.56261    77.744202 
   39900    1052.8517   -118.22555   0.95264232   -117.27291    -30572.95    4.2823806    4.2823806    4.2823806    -30572.95   -36855.286   -37729.223    -17134.34    4471.8095    -7842.489    3658.7285    78.533649 
   40000    2242.3802    -119.2887    2.0289528   -117.25975    -18515.84    4.2702822    4.2702822    4.2702822    -18515.84    14584.617    -50022.21   -20109.928   -2173.8141    5976.0312   -8334.7553    77.869918 
   40100    1727.2005    -118.8366    1.5628073   -117.27379    3555.5551    4.2610336    4.2610336    4.2610336    3555.5551    7035.5218   -2875.3897    6506.5333    11425.521   -1217.3502     4474.523    77.365063 
   40200    711.09698   -117.93128   0.64341549   -117.28787   -11973.547    4.2684854    4.2684854    4.2684854   -11973.547   -32422.877    228.53114   -3726.2952    10079.696    1604.0201    -4936.567    77.771663 
   40300    1224.2088   -118.38325    1.1076899   -117.27556   -15489.039    4.2746377    4.2746377    4.2746377   -15489.039   -12720.465   -19007.859   -14738.793    5060.4658    9633.7927   -14488.402    78.108437 
   40400    1508.6302   -118.64197    1.3650403   -117.27693   -13231.529    4.2779772    4.2779772    4.2779772   -13231.529    7637.4548   -29305.248   -18026.795    12152.028   -743.98279    9634.4405     78.29164 
   40500    1614.6456   -118.73848    1.4609653   -117.27751    -7434.832    4.2660609    4.2660609    4.2660609    -7434.832    601.50448   -24618.523    1712.5222   -8712.3465   -6637.5429    5477.4782    77.639221 
   40600    1279.8807   -118.43947     1.158063   -117.28141    22918.725    4.2569489    4.2569489    4.2569489    22918.725    13123.602    27484.505    28148.067   -21127.404    4824.7669    8229.6969    77.142782 
   40700    1239.5351     -118.406    1.1215574   -117.28444    -13513.57    4.2719574    4.2719574    4.2719574    -13513.57   -12833.915   -22362.589   -5344.2073   -9944.2496    8773.3904    9615.1136    77.961597 
   40800    1304.2155   -118.46535    1.1800816   -117.28526   -12940.247    4.2769963    4.2769963    4.2769963   -12940.247    6058.4072   -45134.759    255.61056   -8010.6889   -20568.297   -2967.2591    78.237799 
   40900    1756.4646   -118.86652     1.589286   -117.27723   -3874.9863    4.2740884    4.2740884    4.2740884   -3874.9863    22989.384   -38374.966    3760.6227   -5960.0166   -10227.518    6491.2126    78.078328 
   41000    1786.7327    -118.8839    1.6166733   -117.26723   -15175.981    4.2688996    4.2688996    4.2688996   -15175.981   -10991.793   -28581.353   -5954.7971   -4747.7611    15545.032    9576.0069    77.794308 
   41100    916.54972   -118.09909   0.82931345   -117.26978    8301.4531    4.2586883    4.2586883    4.2586883    8301.4531   -18824.305    10499.719    33228.945    2316.0632   -2377.9019    4200.5851    77.237388 
   41200    1383.4507   -118.53772    1.2517752   -117.28594   -9090.9233    4.2660314    4.2660314    4.2660314   -9090.9233   -20801.219   -14172.879    7701.3273   -3091.4998   -12239.894    4537.3594    77.637609 
   41300    1960.4462    -119.0634    1.7738529   -117.28955   -5365.0388    4.2706761    4.2706761    4.2706761   -5365.0388    25570.632   -44762.129      3096.38   -13393.538    4572.8052   -1.7339237    77.891469 
   41400    1598.7156   -118.73534    1.4465515   -117.28878   -1700.7626    4.2667287    4.2667287    4.2667287   -1700.7626      2499.88   -7937.7748    335.60688   -3987.1895    9995.4466    1753.3383    77.675681 
   41500    896.12765   -118.09664   0.81083513   -117.28581   -7748.7652    4.2630383    4.2630383    4.2630383   -7748.7652   -56439.505    27960.594    5232.6157   -3902.8201    6160.3458    6702.7313    77.474307 
   41600    1512.4168   -118.65444    1.3684665   -117.28597    364.29695    4.2554547    4.2554547    4.2554547    364.29695    2202.6303   -19622.208    18512.469    2345.3296    -4151.222   -3112.6188    77.061581 
   41700    1658.7976   -118.80281     1.500915    -117.3019    13054.343    4.2601999    4.2601999    4.2601999    13054.343     55837.94   -27505.597    10830.687    6031.7736    26.840382   -4846.2125    77.319661 
   41800    1408.4587   -118.56948    1.2744031   -117.29508   -7877.2334     4.280214     4.280214     4.280214   -7877.2334     22624.74   -19513.162   -26743.279   -848.79371        13529    3855.9321    78.414512 
   41900    1324.9131   -118.47411    1.1988092    -117.2753   -11491.337    4.2700789    4.2700789    4.2700789   -11491.337   -6344.5882    -19482.01   -8647.4135    3723.1554    8881.0509    -4316.569    77.858799 
   42000    1229.6411   -118.38813    1.1126051   -117.27552    2418.8459    4.2518483    4.2518483    4.2518483    2418.8459   -12068.331   -4010.3859    23335.255   -3398.8175   -4554.1002    1949.8818    76.865823 
   42100    1680.1289   -118.81888     1.520216   -117.29866   -10909.971    4.2598129    4.2598129    4.2598129   -10909.971   -441.37475   -39915.158    7626.6199   -1931.9288    6112.5462   -9136.1033    77.298592 
   42200    1347.4945   -118.51878    1.2192413   -117.29953    -889.7097    4.2637459    4.2637459    4.2637459    -889.7097   -3469.3775   -40919.308    41719.557   -1429.0423    14220.596   -5900.8168    77.512894 
   42300    1197.1107   -118.37593    1.0831709   -117.29275   -15579.395    4.2723956    4.2723956    4.2723956   -15579.395   -15961.864   -33087.722    2311.4006   -5269.1282   -3317.6601    15897.773    77.985593 
   42400    1218.6335   -118.39349    1.1026452   -117.29084    1140.1761    4.2664362    4.2664362    4.2664362    1140.1761   -19411.755   -8859.3124    31691.596     9231.497   -12262.467    7176.9469    77.659712 
   42500      1689.34   -118.81402    1.5285503   -117.28547    30982.643    4.2477761    4.2477761    4.2477761    30982.643    59984.873   -3204.1923    36167.249    7171.8129    4631.4635   -7082.1348    76.645181 
   42600    1425.5064   -118.59165    1.2898282   -117.30182   -11317.263    4.2682093    4.2682093    4.2682093   -11317.263    15423.441   -32086.237   -17288.993   -3830.0621    7301.8471      13077.3    77.756576 
   42700    842.86956   -118.04506   0.76264609   -117.28241   -17207.991    4.2782712    4.2782712    4.2782712   -17207.991   -24923.762   -11706.462   -14993.749   -8575.5638   -9815.3784    16937.416    78.307783 
   42800    1390.8859   -118.52457    1.2585028   -117.26606    2078.4647    4.2637294    4.2637294    4.2637294    2078.4647   -13203.489    5702.4645    13736.419     7771.102    -11034.48    -2866.817    77.511995 
   42900    1878.9887   -118.97566    1.7001484   -117.27551   -9408.7641    4.2663803    4.2663803    4.2663803   -9408.7641   -3974.2213   -15326.388   -8925.6827    -4338.232    7459.1024     9366.407    77.656657 
   43000    1454.4102   -118.59978    1.3159809    -117.2838   -5024.6757    4.2650294    4.2650294    4.2650294   -5024.6757    21376.166   -33602.444   -2847.7496   -5993.3533   -2258.9514    26544.129    77.582912 
   43100    1061.2678   -118.24047   0.96025737   -117.28021    7532.8275    4.2634485    4.2634485    4.2634485    7532.8275    4635.9617    7430.0291    10532.492    13743.572   -7205.2934    8363.5726    77.496675 
   43200    1314.3549   -118.47169    1.1892559   -117.28244   -16159.694    4.2781712    4.2781712    4.2781712   -16159.694   -54050.388     17494.71   -11923.404    -4519.276    1355.0631   -8287.8764    78.302295 
   43300    1462.1366   -118.60855    1.3229719   -117.28557   -6111.8341    4.2678805    4.2678805    4.2678805   -6111.8341   -931.31461   -14228.187   -3176.0002   -18610.503    835.17105    4325.0205    77.738609 
   43400     1568.427   -118.69835    1.4191457    -117.2792    22728.432     4.255097     4.255097     4.255097    22728.432    56211.739     5126.084    6847.4737   -11422.444   -2993.5497    7657.3072     77.04215 
   43500    1604.0235   -118.73114    1.4513542   -117.27978   -15148.986    4.2753664    4.2753664    4.2753664   -15148.986   -34146.528   -917.89487   -10382.535      513.649      1889.14   -21008.751    78.148388 
   43600    1043.9033   -118.22267   0.94454563   -117.27812    -1834.034    4.2729456    4.2729456    4.2729456    -1834.034   -33908.453    8049.1084    20357.243    2076.2633    8521.3637   -1713.2435    78.015716 
   43700      1014.54   -118.19579   0.91797712   -117.27782    25736.409    4.2635084    4.2635084    4.2635084    25736.409   -7122.6457    18121.141    66210.731   -8212.4068   -6798.4147    20585.662     77.49994 
   43800    1835.7732     -118.936    1.6610462   -117.27496    3532.4227    4.2714499    4.2714499    4.2714499    3532.4227    22089.083     -17433.6     5941.785    3385.9456   -4501.8041   -6956.7459    77.933815 
   43900     1562.748   -118.68362    1.4140073   -117.26962   -14697.467    4.2684464    4.2684464    4.2684464   -14697.467    7282.6332   -58141.533    6766.4997    4307.3238    14452.235   -5787.8673    77.769535 
   44000    837.47601    -118.0389   0.75776589   -117.28114   -17340.738    4.2710797    4.2710797    4.2710797   -17340.738    -34497.47   -18052.929    528.18368   -8497.9823    16771.106     14063.88    77.913557 
   44100    1559.4422   -118.68855    1.4110161   -117.27753   -20576.631    4.2733837    4.2733837    4.2733837   -20576.631   -43351.439   -2164.0551   -16214.397    4776.8405    9080.3769   -2407.8201    78.039713 
   44200    2008.2423   -119.08908    1.8170999   -117.27198    5318.3922    4.2599128    4.2599128    4.2599128    5318.3922     23853.87   -14154.662    6255.9684    16363.707    591.11023   -1078.9966    77.304027 
   44300     1261.174   -118.42728    1.1411367   -117.28615   -1304.1773    4.2646574    4.2646574    4.2646574   -1304.1773     27820.85   -18865.794   -12867.588    9085.5696    15757.154    3699.2969    77.562617 
   44400    913.62171   -118.11406   0.82666413    -117.2874   -515.89072    4.2699732    4.2699732    4.2699732   -515.89072   -12207.232   -1467.5253    12127.086   -1039.5326    8710.7156    8969.3159    77.853015 
   44500    1394.0657   -118.54064    1.2613799   -117.27926    27397.295    4.2634012    4.2634012    4.2634012    27397.295    15669.775    9830.4591    56691.651    790.65834   -17473.376   -979.39549    77.494094 
   44600    1815.8723   -118.92954    1.6430394    -117.2865    -853.2881    4.2692582    4.2692582    4.2692582    -853.2881   -332.79951    3039.9232   -5266.9879    12182.267   -18214.101   -5259.4485    77.813915 
   44700    1269.0396    -118.4373    1.1482537   -117.28904    5663.8688    4.2616248    4.2616248    4.2616248    5663.8688    29224.354   -13801.107    1568.3585    4226.4121     3317.035    6215.0384    77.397266 
   44800    1187.2475   -118.36179    1.0742465   -117.28754    5597.5938    4.2587427    4.2587427    4.2587427    5597.5938    13428.651   -5607.1502    8971.2806    -7871.461    5183.8693    17079.117    77.240347 
   44900    1372.1062   -118.53028    1.2415105   -117.28877   -26062.729     4.276256     4.276256     4.276256   -26062.729    -53365.23   -15039.255   -9783.7032    10390.106    5070.7022    3469.7116    78.197178 
   45000    1769.5045   -118.88058    1.6010849   -117.27949   -4134.7325    4.2685785    4.2685785    4.2685785   -4134.7325   -1972.9086   -1404.5644   -9026.7246    13925.207    4642.5894   -15520.292    77.776756 
   45100    1520.2174   -118.65512    1.3755246   -117.27959    438.85002    4.2644427    4.2644427    4.2644427    438.85002    30495.597   -13178.025   -16001.022   -6854.0725    7676.3615    9873.4715    77.550904 
   45200    1095.2041   -118.27231   0.99096373   -117.28134   -29178.425    4.2745065    4.2745065    4.2745065   -29178.425   -10965.398   -48178.207   -28391.669    3627.4579    11445.755     17096.23    78.101243 
   45300    1321.0711   -118.46844    1.1953329   -117.27311    13692.633    4.2645616    4.2645616    4.2645616    13692.633    23932.729   -13785.207    30930.376     28719.52    4714.6316   -570.60298    77.557391 
   45400    1625.4972   -118.75454     1.470784   -117.28376    12984.099    4.2671489    4.2671489    4.2671489    12984.099    8531.2643    24015.805    6405.2276    8863.4895   -11459.358   -5250.6369    77.698637 
   45500    1457.5272   -118.60429    1.3188012   -117.28549   -25097.998    4.2723288    4.2723288    4.2723288   -25097.998   -2292.1106   -12522.692   -60479.192   -13261.024   -13525.852    12888.577    77.981933 
   45600    1222.2914   -118.38532    1.1059549   -117.27936    29850.727    4.2522635    4.2522635    4.2522635    29850.727    46606.474    11735.259    31210.449    6845.5767    4125.7327    14565.425    76.888342 
   45700    1471.8254   -118.62563    1.3317386   -117.29389   -13163.601    4.2695192    4.2695192    4.2695192   -13163.601   -53509.116   -13181.354    27199.668    9104.6549   -6123.0404    5471.5253    77.828189 
   45800    1481.0653   -118.62027     1.340099   -117.28017   -24880.147    4.2806662    4.2806662    4.2806662   -24880.147   -55448.786    22582.381   -41774.037   -3324.8493   -23527.052   -3675.0654    78.439366 
   45900    1372.8075   -118.50768     1.242145   -117.26553    19431.552    4.2601175    4.2601175    4.2601175    19431.552    56604.383    36880.502    -35190.23   -10624.025    5737.9057   -2833.0439    77.315171 
   46000    1217.0413   -118.37969    1.1012046   -117.27849   -5400.9394    4.2656323    4.2656323    4.2656323   -5400.9394   -12771.434   -4272.9201    841.53602    20525.044    13704.638    4272.1374    77.615822 
   46100       1371.5   -118.52596     1.240962     -117.285    5507.0953    4.2647512    4.2647512    4.2647512    5507.0953   -33459.615    34385.277    15595.624    20748.557   -6668.7685   -11374.267    77.567731 
   46200    1614.5877   -118.74849    1.4609129   -117.28758    14604.541    4.2595669    4.2595669    4.2595669    14604.541    28631.903    24177.358   -8995.6372   -1774.5251    1080.5679   -7877.3097    77.285197 
   46300    1260.7197   -118.42853    1.1407257    -117.2878   -15621.464    4.2714286    4.2714286    4.2714286   -15621.464    -9944.321   -3459.6179   -33460.454    -6208.403    21834.582     4904.261     77.93265 
   46400    1377.9342   -118.53495    1.2467838   -117.28817   -8907.5147    4.2605594    4.2605594    4.2605594   -8907.5147   -2374.4884   -24330.652   -17.403216    19343.569    12683.583    7468.0999    77.339236 
   46500    1690.8918   -118.81979    1.5299544   -117.28984    13663.061    4.2586122    4.2586122    4.2586122    13663.061    6303.9325    19725.307    14959.943    21757.438   -1459.0517    -9920.984    77.233247 
   46600    1408.4587   -118.56178    1.2744031   -117.28738   -19731.203    4.2791669    4.2791669    4.2791669   -19731.203   -53040.795    25404.594   -31557.409   -17350.911    3527.7306   -4474.5461    78.356975 
   46700    1041.6155   -118.22056   0.94247561   -117.27809    11942.431    4.2693986    4.2693986    4.2693986    11942.431     39188.42    27804.553   -31165.681   -8902.2563    -6941.136    2343.0268    77.821591 
   46800    1263.4318   -118.42102    1.1431796   -117.27784    31626.127    4.2636134    4.2636134    4.2636134    31626.127    65193.035    44370.649   -14685.304    22810.375   -18807.835   -7814.3373    77.505667 
   46900    1684.9401   -118.80187    1.5245692    -117.2773   -11832.746     4.271032     4.271032     4.271032   -11832.746   -44206.163    21395.638   -12687.714    6208.0321   -5773.4557   -2839.8868    77.910944 
   47000    1178.1706   -118.34869    1.0660335   -117.28266    23994.573     4.254949     4.254949     4.254949    23994.573    16080.442    31091.314    24811.962   -26716.889    3099.4052    2156.9532    77.034111 
   47100    1229.3316    -118.4061     1.112325   -117.29377    3241.7434    4.2611934    4.2611934    4.2611934    3241.7434     18284.13   -653.43273   -7905.4669   -14603.241   -3521.5103    10902.839    77.373766 
   47200     1785.201   -118.90247    1.6152874   -117.28719   -32018.367    4.2746843    4.2746843    4.2746843   -32018.367   -20602.958   -39636.033   -35816.111    15990.237    -3053.823   -7016.1576    78.110991 
   47300    1666.9924   -118.78655    1.5083298   -117.27822   -4647.8664    4.2628307    4.2628307    4.2628307   -4647.8664    -22588.71   -11149.172    19794.282   -5965.3784    17597.156    -16670.94    77.462989 
   47400    969.00569    -118.1633   0.87677671   -117.28653   -20572.859    4.2732785    4.2732785    4.2732785   -20572.859   -81530.448    3443.0812    16368.791    -26465.16    13015.657   -9034.8121     78.03395 
   47500    1124.0413   -118.29243    1.0170562   -117.27537   -25367.941    4.2758744    4.2758744    4.2758744   -25367.941   -53849.641    8223.5836   -30477.766    8753.3067   -2078.0398    1296.1323     78.17625 
   47600    1886.0558   -118.97393    1.7065429   -117.26739    19236.544    4.2544929    4.2544929    4.2544929    19236.544    12070.152    53840.306   -8200.8261    12037.646    8379.0888   -1926.0874    77.009342 
   47700    1214.8264   -118.39531    1.0992005   -117.29611   -9043.8401    4.2696918    4.2696918    4.2696918   -9043.8401   -62431.515    24889.382    10410.614    -43121.43    7790.0442   -9818.5963    77.837629 
   47800    928.74057   -118.12812   0.84034399   -117.28777   -26965.488    4.2736172    4.2736172    4.2736172   -26965.488    -86733.57    15854.284   -10017.177   -27232.567    167.05486   -5298.0242    78.052507 
   47900    1536.4534   -118.65669    1.3902154   -117.26648    2776.6347    4.2573866    4.2573866    4.2573866    2776.6347   -5865.4242     14735.22   -539.89187    18128.204   -6123.3784    2511.0645    77.166583 
   48000    1371.6742    -118.5251    1.2411197   -117.28398   -21629.089    4.2739837    4.2739837    4.2739837   -21629.089    11808.823   -48224.508   -28471.582    -14878.15   -12379.046   -13001.445     78.07259 
   48100     1469.921   -118.61043    1.3300155   -117.28041   -7609.3784    4.2689132    4.2689132    4.2689132   -7609.3784    24925.901   -28010.617   -19743.419   -35766.804    577.57273   -3541.4951    77.795052 
   48200    1468.9549   -118.60933    1.3291412   -117.28019    14914.811    4.2599799    4.2599799    4.2599799    14914.811    33383.978   -286.80658    11647.262   -16408.584    4581.2471    3283.6799    77.307684 
   48300    1258.0093   -118.42273    1.1382733   -117.28446   -5602.7028    4.2719766    4.2719766    4.2719766   -5602.7028    23183.773   -8167.5619   -31824.319    2203.2966    7115.0575    -364.8288    77.962649 
   48400     922.9971   -118.12769   0.83514717   -117.29254     1181.073    4.2674193    4.2674193    4.2674193     1181.073     37989.28    -7881.843   -26564.218   -32247.304    7517.3095   -4050.4077    77.713409 
   48500    1373.7566   -118.53827    1.2430039   -117.29527    9415.9816    4.2587463    4.2587463    4.2587463    9415.9816   -3608.2054   -5555.6923    37411.842    -25608.66   -43.936984   -2517.9908    77.240539 
   48600    1978.4349   -119.07635    1.7901295   -117.28622    1575.7718    4.2551275    4.2551275    4.2551275    1575.7718   -17225.103   -1523.6043    23476.023    10069.342   -12589.386    3209.3463    77.043807 
   48700    1207.6703   -118.38646    1.0927255   -117.29374   -6406.2276    4.2623792    4.2623792    4.2623792   -6406.2276   -32901.395    1876.9581    11805.754    -14072.76   -14734.439    3669.5262     77.43838 
   48800    1199.5338   -118.38463    1.0853634   -117.29926   -16465.424    4.2711201    4.2711201    4.2711201   -16465.424   -14216.768   -13889.103   -21290.401   -30997.692   -20703.289   -1065.5348    77.915768 
   48900    1687.7489   -118.81845    1.5271107   -117.29134   -12231.284    4.2679826    4.2679826    4.2679826   -12231.284    22884.678   -21889.656   -37688.872    2564.9482   -6464.4678   -7003.8115    77.744185 
   49000     1681.756   -118.80121    1.5216882   -117.27952    -5138.732    4.2569679    4.2569679    4.2569679    -5138.732   -29495.859   -1448.6906    15528.354    2788.2062     2335.807    8918.5944    77.143816 
   49100    807.75636   -118.01868   0.73087493   -117.28781    18546.842    4.2597497    4.2597497    4.2597497    18546.842    22730.195   -7038.9667    39949.298   -26224.932    1696.2722    6875.4824    77.295152 
   49200    1502.7227   -118.64818     1.359695   -117.28849   -12343.487    4.2729629    4.2729629    4.2729629   -12343.487    25550.197   -35854.968    -26725.69   -7659.8049   -3361.2184     -2396.05     78.01666 
   49300    1936.8553   -119.03073    1.7525074   -117.27822    2699.7854    4.2743521    4.2743521    4.2743521    2699.7854    47238.413   -41660.172    2521.1157    29186.095   -5818.6889    5023.7351     78.09278 
   49400    1417.6525   -118.55375    1.2827218   -117.27103   -9455.1819    4.2715806    4.2715806    4.2715806   -9455.1819   -3795.1084   -34258.585    9688.1481   -9528.5264   -11113.859    14856.883    77.940973 
   49500    720.84927   -117.92973   0.65223957   -117.27749    -17084.06    4.2584729    4.2584729    4.2584729    -17084.06   -59654.604   -21719.851    30122.276    -20319.86   -12357.034    6612.8352    77.225666 
   49600    1385.1445    -118.5399    1.2533079    -117.2866    19201.697    4.2493909    4.2493909    4.2493909    19201.697    33602.922   -26995.022     50997.19    25463.908   -20416.983   -90.631551    76.732623 
   49700    1930.8121   -119.04654    1.7470394    -117.2995    -8634.887    4.2715637    4.2715637    4.2715637    -8634.887    38975.335   -46021.609   -18858.387     17715.38     1558.055    15492.436    77.940046 
   49800    1616.4588    -118.7433    1.4626059   -117.28069   -13356.509     4.273219     4.273219     4.273219   -13356.509   -6624.1766   -22000.063   -11445.286   -17542.518    4728.4885    9942.3974     78.03069 
   49900     611.8091   -117.82888   0.55357773   -117.27531    25518.163    4.2563254    4.2563254    4.2563254    25518.163    16155.598   -10296.075    70694.966     4842.131   -3079.1486    3440.3296    77.108894 
   50000    1047.9886   -118.23574   0.94824209    -117.2875    -4740.635     4.259141     4.259141     4.259141    -4740.635    -32786.66   -34596.931    53161.687    33273.274    2475.4163    789.99474    77.262018 
   50100    2329.7966   -119.38841     2.108049   -117.28036   -3610.8449    4.2628752    4.2628752    4.2628752   -3610.8449    30291.236   -14763.407   -26360.364    -3756.181   -10298.553    6037.1307    77.465415 
   50200    1456.8613   -118.60361    1.3181987   -117.28541   -30.402313    4.2746246    4.2746246    4.2746246   -30.402313   -6876.7828    1488.3665    5297.2093   -1386.9786    15953.467    4664.0276    78.107717 
   50300    712.66982   -117.92164   0.64483863    -117.2768   -7197.4598    4.2755908    4.2755908    4.2755908   -7197.4598   -40007.443   -13496.331    31911.394    37154.703    4613.1507   -986.46355    78.160695 
   50400    1294.3472   -118.43293    1.1711526   -117.26178    15329.316    4.2583765    4.2583765    4.2583765    15329.316    29522.435    4696.7578    11768.756    18809.871   -9872.9228     3102.979    77.220423 
   50500    2061.6339   -119.13829    1.8654097   -117.27288    5636.7475    4.2610869    4.2610869    4.2610869    5636.7475    22759.702   -17639.839    11790.379   -8141.1604    12692.767    1343.5571    77.367965 
   50600    1494.5142   -118.63487    1.3522679   -117.28261    9352.7009    4.2729923    4.2729923    4.2729923    9352.7009    24839.397   -10800.164    14018.869    19095.886    5989.4509     2752.181     78.01827 
   50700    1112.6397   -118.27899    1.0067398   -117.27225    2071.3579    4.2747034    4.2747034    4.2747034    2071.3579   -7731.3004    3839.9088    10105.465    18626.573   -13869.604     4394.811    78.112038 
   50800    1364.0681   -118.49635    1.2342375   -117.26212   -17653.378     4.268973     4.268973     4.268973   -17653.378   -47547.859   -15366.256    9953.9799   -14199.022   -3895.4414   -6427.2862    77.798324 
   50900    1557.3912   -118.67895    1.4091603   -117.26979   -3850.1636    4.2621258    4.2621258    4.2621258   -3850.1636   -2381.7933   -28584.536    19415.838    4571.6852    15400.462    1942.9139     77.42457 
   51000    1331.6277   -118.48771    1.2048847   -117.28283      12711.9    4.2691973    4.2691973    4.2691973      12711.9    23302.445   -20063.082    34896.336    26922.085     1173.089   -2171.1522    77.810582 
   51100     1555.575   -118.67901    1.4075169   -117.27149   -6789.5561    4.2774419    4.2774419    4.2774419   -6789.5561   -10725.559   -11719.352    2076.2424   -8817.0263   -381.96678   -10758.782    78.262255 
   51200    1277.6014   -118.42218    1.1560006   -117.26618   -11692.355    4.2709722    4.2709722    4.2709722   -11692.355   -40707.431   -11945.652    17576.018    1714.3419    9526.2065   -4925.3388    77.907676 
   51300    1024.8771   -118.20145   0.92733038   -117.27412    13823.018    4.2610397    4.2610397    4.2610397    13823.018   -26145.555    40631.114    26983.495    32895.486      21876.6   -11480.627    77.365395 
   51400    1772.3761   -118.88053    1.6036832   -117.27685   -1798.3363     4.263363     4.263363     4.263363   -1798.3363    9766.4538    10316.802   -25478.265   -3934.3677    14830.016    163.01438    77.492011 
   51500     1722.041   -118.83597    1.5581389   -117.27783   -6295.9012     4.270222     4.270222     4.270222   -6295.9012    3275.8533    14040.109   -36203.666   -12840.641   -11628.856    1793.2244    77.866626 
   51600    784.50825   -117.99958   0.70983955   -117.28974    4123.1713    4.2656086    4.2656086    4.2656086    4123.1713   -26643.328    30251.692    8761.1494     26108.47    6018.4336   -4894.8671    77.614526 
   51700     1285.789   -118.44851    1.1634089    -117.2851   -238.33468    4.2573986    4.2573986    4.2573986   -238.33468   -46611.693    13155.958    32740.731    11745.999    13046.042    11770.479    77.167234 
   51800    1900.0292   -118.99798    1.7191863    -117.2788    2383.6421    4.2626397    4.2626397    4.2626397    2383.6421    1782.8111    2003.7488    3364.3665   -13750.721     1253.577    2373.6874     77.45258 
   51900    1394.3715   -118.54703    1.2616566   -117.28537   -12195.136    4.2680939    4.2680939    4.2680939   -12195.136    23699.789   -3326.6872    -56958.51    11547.691   -2081.7066    5961.6735    77.750266 
   52000    979.33037   -118.17457    0.8861187   -117.28845    422.38311    4.2666693    4.2666693    4.2666693    422.38311   -19498.016    24381.879   -3616.7134    29440.223    14764.886    892.70333    77.672439 
   52100    1875.5094   -118.96994    1.6970003   -117.27294    1058.0021    4.2667196    4.2667196    4.2667196    1058.0021   -24746.191    2291.5491    25628.648   -390.26039    18258.298    -6464.645    77.675188 
   52200    1624.1275   -118.74276    1.4695447   -117.27322    4242.0695    4.2659187    4.2659187    4.2659187    4242.0695    20814.348    18801.379   -26889.519   -11417.283    3568.3367   -1750.6591    77.631454 
   52300    1097.9546   -118.27362    0.9934524   -117.28016   -3055.5432    4.2679232    4.2679232    4.2679232   -3055.5432    36265.678    19299.502   -64731.809    4744.3201    6141.2097    7115.8908    77.740942 
   52400    1437.5342   -118.57161    1.3007112    -117.2709    1063.9329    4.2666434    4.2666434    4.2666434    1063.9329   -3729.9856    44812.228   -37890.444    5193.3679    12381.403    11502.124    77.671025 
   52500    1521.7232   -118.65806    1.3768871   -117.28117   -6986.4587    4.2672997    4.2672997    4.2672997   -6986.4587   -31483.599    5559.0181    4965.2043   -21091.595     1393.184   -2289.6432    77.706872 
   52600    1325.8291   -118.49023    1.1996381   -117.29059   -14209.161    4.2661686    4.2661686    4.2661686   -14209.161    1227.8361   -34583.692   -9271.6259   -24200.047    5906.2623    694.51906    77.645098 
   52700    1435.7504   -118.58064    1.2990972   -117.28154    6618.2838    4.2553882    4.2553882    4.2553882    6618.2838    49259.429    5905.2267   -35309.804    16080.983    9913.1279    8914.4439    77.057969 
   52800    1246.4118   -118.41279    1.1277796   -117.28501   -15292.043    4.2642277    4.2642277    4.2642277   -15292.043   -9747.8579    19497.015   -55625.286    6769.9502   -17447.352   -5403.2314    77.539174 
   52900    1167.3876   -118.34733    1.0562769   -117.29106    -8993.878    4.2679281    4.2679281    4.2679281    -8993.878   -25947.683   -4826.4695    3792.5182   -22564.264   -14519.771      -3206.8    77.741206 
   53000    1719.0115   -118.83986    1.5553977   -117.28447    18969.341    4.2576376    4.2576376    4.2576376    18969.341     38787.42   -20124.377     38244.98   -5543.3379    3028.1318   -4698.8654    77.180232 
   53100    1658.7763   -118.78488    1.5008957   -117.28399   -6027.4002    4.2655073    4.2655073    4.2655073   -6027.4002    25540.984    16853.067   -60476.251    17597.162    -13322.03    7114.5821    77.608996 
   53200     1013.504   -118.20239   0.91703976   -117.28535    2830.8283    4.2636523    4.2636523    4.2636523    2830.8283    15291.239    37698.243   -44496.996   -14822.567   -21602.468    4754.1575    77.507787 
   53300    1054.7392   -118.24082   0.95435017   -117.28647    18484.406    4.2614753    4.2614753    4.2614753    18484.406    13048.177   -5184.5912    47589.633   -29774.682   -3073.6334   -3083.4133    77.389122 
   53400    1817.1274   -118.92858     1.644175    -117.2844   -8582.3248    4.2719268    4.2719268    4.2719268   -8582.3248   -9455.7489   -18130.668    1839.4421    215.36354    2245.2038   -4617.0246    77.959927 
   53500     1720.747   -118.83229     1.556968   -117.27533    2558.1943      4.25887      4.25887      4.25887    2558.1943    23391.823    10285.373   -26002.613    5221.5391   -1938.7282   -8142.8649    77.247274 
   53600    827.78703    -118.0379    0.7489991    -117.2889     3684.402    4.2597853    4.2597853    4.2597853     3684.402   -19321.695    8102.2137    22272.687   -37936.419    -13486.77   -9227.4905    77.297086 
   53700    1279.2589   -118.43908    1.1575004   -117.28158   -21355.842    4.2747612    4.2747612    4.2747612   -21355.842   -56916.121   -30239.683    23088.278   -18732.464   -9546.7863   -11819.224    78.115203 
   53800    2098.2475   -119.16599    1.8985384   -117.26746    -14530.04    4.2724101    4.2724101    4.2724101    -14530.04   -1199.5332   -45508.338      3117.75     19805.92    5429.2132   -4687.5051    77.986385 
   53900    1283.7553   -118.43816    1.1615688   -117.27659   -12808.396    4.2749797    4.2749797    4.2749797   -12808.396   -25674.488   -34745.716    21995.017   -36558.309   -12611.822   -5165.2905    78.127183 
   54000    1041.7745   -118.21966   0.94261943   -117.27704    13.586063    4.2585828    4.2585828    4.2585828    13.586063   -8577.7126    1924.7809    6693.6899   -32643.301   -17345.399   -4282.9015    77.231647 
   54100    1436.4341     -118.575    1.2997158   -117.27528    8964.1041    4.2545934    4.2545934    4.2545934    8964.1041     11144.07    5121.6456    10626.596    12752.493   -2492.2654    1301.3063    77.014799 
   54200    1624.0493   -118.75603    1.4694739   -117.28655   -40301.659    4.2816708    4.2816708    4.2816708   -40301.659   -41255.369   -69599.471   -10050.138   -12402.215    4369.7581   -1934.2451    78.494607 
   54300    1443.6056   -118.59482    1.3062047   -117.28862   -5947.4922    4.2662516    4.2662516    4.2662516   -5947.4922   -12515.933   -8020.2838    2693.7399   -33171.807    -12138.58    3661.7442    77.649633 
   54400    1449.7969   -118.58794    1.3118067   -117.27613    11361.608    4.2483307    4.2483307    4.2483307    11361.608   -19262.642    52951.914    395.55204   -3062.1366   -21760.487    4597.1136    76.675205 
   54500    1225.7675   -118.39373    1.1091002   -117.28463   -21717.857    4.2636217    4.2636217    4.2636217   -21717.857   -39597.456   -29384.709     3828.593    7244.2609     2867.541    7929.9874    77.506118 
   54600    1176.1051   -118.35538    1.0641647   -117.29121    3865.6855    4.2648757    4.2648757    4.2648757    3865.6855    32971.011   -48076.894    26702.941   -23309.178    -6146.788    238.22996    77.574526 
   54700    1614.6451   -118.75253    1.4609648   -117.29156    15209.072    4.2654428    4.2654428    4.2654428    15209.072    11743.944   -9012.0867    42895.357   -9375.7387   -14074.362   -942.15823    77.605475 
   54800    1837.2729   -118.94397    1.6624032   -117.28156   -4740.5811    4.2637167    4.2637167    4.2637167   -4740.5811    -11949.29   -6556.5487    4284.0948    12629.811    2856.1234    1516.8857    77.511298 
   54900    894.43657   -118.09193     0.809305   -117.28263    28876.186    4.2506621    4.2506621    4.2506621    28876.186    7766.6237     23592.37    55269.564   -24022.932    8578.9093   -3807.9163    76.801509 
   55000    1141.9177   -118.33847    1.0332311   -117.30524    10746.244    4.2646854    4.2646854    4.2646854    10746.244   -5206.3689    -7791.047    45236.148   -31063.598    13528.108   -807.91793    77.564142 
   55100    2048.1297   -119.13928    1.8531908   -117.28609   -19399.895    4.2797523    4.2797523    4.2797523   -19399.895    8624.1487   -37821.436   -29002.397    6874.3579     4530.675   -1027.1259    78.389139 
   55200    1523.8885   -118.65151    1.3788464   -117.27266    12841.043    4.2571582    4.2571582    4.2571582    12841.043   -9739.7343    39721.467    8541.3965    3235.0395    2146.0816   -405.15331    77.154165 
   55300    640.36172   -117.86302   0.57941274   -117.28361    -4098.422    4.2581975    4.2581975    4.2581975    -4098.422   -63730.138    10648.411    40786.461   -29848.845    10730.632   -2154.8368    77.210685 
   55400    1541.5594   -118.67442    1.3948354   -117.27958   -27817.994    4.2750006    4.2750006    4.2750006   -27817.994   -36606.181     -26464.1   -20383.701   -15770.706    2415.9394   -5593.9267    78.128332 
   55500    2274.7964   -119.32936    2.0582836   -117.27108   -6742.0016    4.2677969    4.2677969    4.2677969   -6742.0016    7929.9813    -7647.769   -20508.217    13958.299   -1503.5759    8748.1465    77.734036 
   55600    1175.0616   -118.34218    1.0632204   -117.27896   -743.33242    4.2636211    4.2636211    4.2636211   -743.33242   -10964.031   -17604.318    26338.352   -13109.441      384.087    10387.799    77.506084 
   55700     817.0636   -118.01633   0.73929631   -117.27704   -14568.388     4.266598     4.266598     4.266598   -14568.388   -47038.291    6465.0418   -3131.9146   -18462.639   -9780.4814    3602.5629    77.668544 
   55800    1545.6636   -118.66997    1.3985489   -117.27142   -17659.867    4.2803905    4.2803905    4.2803905   -17659.867   -65122.749    12896.905   -753.75596    5958.9348   -9688.3173    88.907089    78.424212 
   55900    1548.0336   -118.66842    1.4006933   -117.26773   -7637.0153    4.2826469    4.2826469    4.2826469   -7637.0153   -18058.495   -22958.569    18106.019   -7736.8577    3117.1415    765.34084    78.548303 
   56000    1363.8891   -118.49252    1.2340755   -117.25845    22656.268    4.2616915    4.2616915    4.2616915    22656.268    9861.8476    40252.822    17854.134   -20885.472    890.73014   -2847.9049    77.400905 
   56100    1696.7573    -118.7939    1.5352616   -117.25864   -4328.0991    4.2712176    4.2712176    4.2712176   -4328.0991   -19559.447    11563.603   -4988.4534   -3676.5542   -3004.0206   -3878.7296    77.921101 
   56200     1121.915   -118.27357    1.0151323   -117.25844   -10223.954    4.2883105    4.2883105    4.2883105   -10223.954    -50561.68    6306.8917    13582.926   -7329.4881    9588.2774    5191.8246    78.860347 
   56300    723.10021   -117.90863   0.65427626   -117.25436    32452.656    4.2794771    4.2794771    4.2794771    32452.656    -10320.75    56403.704    51275.015    -9581.347     8993.007    5075.7096    78.374019 
   56400    2028.8878   -119.07295    1.8357803   -117.23717   -9148.8867     4.280857     4.280857     4.280857   -9148.8867    11358.623   -11038.673   -27766.611    8298.0311   -5702.2045   -7439.2408    78.449857 
   56500    1976.7183    -119.0284    1.7885762   -117.23982     1951.427    4.2727249    4.2727249    4.2727249     1951.427   -15586.148    28010.223   -6569.7942    -4822.726   -5466.9464    4407.3336    78.003624 
   56600    798.00155   -117.98378   0.72204858   -117.26173     21372.83    4.2696668    4.2696668    4.2696668     21372.83   -38582.622    25328.765    77372.347   -8118.6149    8441.3824    12970.615    77.836262 
   56700    974.10228   -118.14473   0.88138822   -117.26334   -4021.7174    4.2753711    4.2753711    4.2753711   -4021.7174    -44458.11    496.92614    31896.032    14001.036    7871.1185    -4906.584    78.148643 
   56800     1720.469   -118.80957    1.5567165   -117.25285   -2509.8227    4.2642101    4.2642101    4.2642101   -2509.8227   -16321.454    26738.688   -17946.702    963.58441    2411.1868   -8670.1289    77.538212 
   56900     1669.084    -118.7823    1.5102223   -117.27207   -5419.0211    4.2711283    4.2711283    4.2711283   -5419.0211    1774.0136   -10109.911    -7921.166   -13594.733    9239.4688   -6417.0915    77.916217 
   57000    1564.9065   -118.68689    1.4159603   -117.27093    -1934.079    4.2745822    4.2745822    4.2745822    -1934.079    -5691.236   -26807.348    26696.347   -2751.5762    8953.2441   -739.63348    78.105391 
   57100     1420.744   -118.54735     1.285519   -117.26183   -2002.8738    4.2629805    4.2629805    4.2629805   -2002.8738   -29972.437    7958.9663    16004.849    7629.2983   -3485.9689    2530.5304    77.471155 
   57200    1008.9161   -118.18559   0.91288846   -117.27271    -23498.88    4.2661172    4.2661172    4.2661172    -23498.88   -75709.907    7732.6522   -2519.3845   -24486.685   -3591.8891   -4191.1042    77.642295 
   57300    1381.1983   -118.52807    1.2497373   -117.27833    8649.3481    4.2600094    4.2600094    4.2600094    8649.3481   -20105.796    36394.899    9658.9413   -23718.389    2364.9611   -1312.7429     77.30929 
   57400    1902.0977   -119.00441     1.721058   -117.28335    10679.396    4.2640753    4.2640753    4.2640753    10679.396   0.46460016    17611.337    14426.386    15048.249   -7631.2358    -3495.578    77.530859 
   57500    1515.7581   -118.65009    1.3714898    -117.2786   -8797.6917    4.2709445    4.2709445    4.2709445   -8797.6917   -39147.638    22611.337   -9856.7738   -1954.0552    -3826.718   -6203.6534    77.906157 
   57600    825.68718   -118.02403   0.74709911   -117.27694    11387.601    4.2568855    4.2568855    4.2568855    11387.601   -49296.024    67725.425    15733.402   -25016.291    6264.7522   -1922.3756    77.139339 
   57700    1169.1135   -118.34222    1.0578385   -117.28438    -5005.845    4.2633653    4.2633653    4.2633653    -5005.845   -47386.345    8849.8788    23518.931   -5610.6626   -3769.3492   -9952.1137    77.492139 
   57800    2066.0312   -119.14672    1.8693884   -117.27733    -10044.12    4.2676628    4.2676628    4.2676628    -10044.12    -2979.861   -25201.224   -1951.2759    10191.107   -1107.7543    -6532.717    77.726709 
   57900    1491.4356   -118.62844    1.3494823   -117.27895    8224.7354    4.2652014    4.2652014    4.2652014    8224.7354    8719.4131   -7744.9405    23699.734   -14975.401    2908.2913    2077.5587    77.592299 
   58000    898.51149   -118.09081   0.81299208   -117.27782   -20252.021    4.2713985    4.2713985    4.2713985   -20252.021   -66231.806   -9703.8692    15179.614   -31854.684   -694.84587   -1045.4252    77.931004 
   58100    1233.0913   -118.38543    1.1157269    -117.2697    -14629.61    4.2643264    4.2643264    4.2643264    -14629.61   -59403.806    10834.704    4680.2721    5768.2541    -2363.835   -458.02282    77.544557 
   58200    1874.9404   -118.97188    1.6964855   -117.27539    3560.0421    4.2608449    4.2608449    4.2608449    3560.0421    7762.9525   -9132.6684    12049.842    4218.2481   -6341.6804   -10661.861    77.354785 
   58300    1529.9236   -118.67004    1.3843071   -117.28574   -1288.3878    4.2647916    4.2647916    4.2647916   -1288.3878    969.43703   -8104.4407    3269.8403   -27096.407   -3756.6565    5350.0848     77.56994 
   58400    1090.1921   -118.27017   0.98642874   -117.28374    6689.5204    4.2605005    4.2605005    4.2605005    6689.5204   -20169.955    4585.2505    35653.266   -2443.3088    -2513.114    10893.392    77.336027 
   58500    1139.6215   -118.31367    1.0311535   -117.28252    2958.1078    4.2650068    4.2650068    4.2650068    2958.1078   -35259.616    13666.365    30467.575    12610.581    -3568.546    6362.4916    77.581678 
   58600    1636.1271   -118.76396    1.4804021   -117.28356   -20328.617       4.2682       4.2682       4.2682   -20328.617   -39100.939   -13906.218   -7978.6955   -8653.4628   -20235.902   -5266.4387    77.756065 
   58700    1681.3235   -118.80119    1.5212968   -117.27989    8022.4857    4.2597263    4.2597263    4.2597263    8022.4857    20541.279   -7374.6529    10900.831   -15120.702   -19944.401     10654.78    77.293874 
   58800    1219.4012   -118.38552    1.1033399   -117.28218   -9950.5176     4.265064     4.265064     4.265064   -9950.5176    2985.4682   -16359.715   -16477.307   -1253.3511    1460.9842    23800.742    77.584802 
   58900    1144.7572   -118.31681    1.0358004   -117.28101   -13881.112    4.2668582    4.2668582    4.2668582   -13881.112   -42763.681   -6841.9285    7962.2721   -2973.7695   -12850.523   -6401.4184    77.682758 
   59000    1591.0662   -118.71996    1.4396302   -117.28033    2579.7336    4.2617353    4.2617353    4.2617353    2579.7336   -15856.574    13724.582    9871.1931   -10699.356   -18719.303   -6353.1346    77.403291 
   59100    1602.8586   -118.73285    1.4503001   -117.28255   -11399.553    4.2663875    4.2663875    4.2663875   -11399.553    20350.696   -14870.296    -39679.06   -7136.1985    3576.1435    28726.996    77.657051 
   59200    1164.7682   -118.33526    1.0539068   -117.28135   -541.00849    4.2634985    4.2634985    4.2634985   -541.00849    14301.829   -11528.493   -4396.3616     1431.956    -2001.903    12750.316    77.499401 
   59300    1188.2379   -118.35548    1.0751426   -117.28034    13887.514     4.259712     4.259712     4.259712    13887.514   -18240.234    6287.6852    53615.091   -4650.1777   -9863.5384   -15548.538      77.2931 
   59400     1526.444   -118.66558    1.3811586   -117.28442   -1028.7652    4.2683005    4.2683005    4.2683005   -1028.7652   -15099.115    481.77771    11531.042   -8061.3191   -13701.212   -482.28029    77.761559 
   59500    1632.1932   -118.75572    1.4768427   -117.27888    10377.151     4.265813     4.265813     4.265813    10377.151    19228.248   -13352.015    25255.219   -3687.3601    -3643.804    32452.454    77.625686 
   59600    1414.4451   -118.55681    1.2798196   -117.27699   -3389.3897    4.2617587    4.2617587    4.2617587   -3389.3897    16128.289   -14627.605   -11668.853   -4402.5296   -3696.5546    2425.8251    77.404563 
   59700    1159.9607   -118.32694    1.0495568   -117.27738    4629.6797    4.2604895    4.2604895    4.2604895    4629.6797   -12707.857    22000.704    4596.1921   -7342.3105    -21046.63   -31348.922    77.335431 
   59800    1296.4849   -118.46008    1.1730868   -117.28699   -4995.3703    4.2644167    4.2644167    4.2644167   -4995.3703    2447.5884   -14161.146   -3272.5536   -11005.712   -7698.6071    26879.715    77.549485 
   59900    1620.3638   -118.75258    1.4661392   -117.28644   -14740.366      4.26588      4.26588      4.26588   -14740.366     24584.59   -27476.962   -41328.726    -8290.302   -224.59842    33363.873    77.629342 
   60000    1669.4321   -118.78828    1.5105372   -117.27774   -8825.6335    4.2636679    4.2636679    4.2636679   -8825.6335   -3060.7705    4796.4324   -28212.562   -6769.9772    8012.4668   -26517.278    77.508641 
   60100    954.13231   -118.14719   0.86331896   -117.28387   -12509.084    4.2681113    4.2681113    4.2681113   -12509.084   -20774.554    1264.3185   -18017.016   -3514.7726    4563.4577    10111.606    77.751218 
   60200    1124.8718   -118.30331    1.0178076    -117.2855    759.15564    4.2673053    4.2673053    4.2673053    759.15564    26576.081   -4711.6719   -19586.942   -8736.6742     3322.443    42166.659    77.707179 
   60300    2003.2757   -119.08874    1.8126059   -117.27613     8993.928    4.2640926    4.2640926    4.2640926     8993.928    35234.756    3931.2026   -12184.175   -11042.018    14538.055   -8026.3191    77.531805 
   60400     1489.856   -118.62471     1.348053   -117.27665   -17181.154     4.268126     4.268126     4.268126   -17181.154   -20013.197    6568.3359   -38098.602   -2168.6564   -2355.2502    7448.0101    77.752022 
   60500    764.14748    -117.9754    0.6914167   -117.28398     13949.95    4.2593426    4.2593426    4.2593426     13949.95   -3136.8339    35472.838    9513.8459    -2373.258   -5758.6525    39748.542    77.272988 
   60600    1662.4079   -118.78994    1.5041816   -117.28576    6976.1141    4.2627892    4.2627892    4.2627892    6976.1141   -7968.7214    23629.596    5267.4678   -5050.3591   -4300.7589   -2310.3797    77.460728 
   60700    1844.4304   -118.95049    1.6688794   -117.28161   -14457.184    4.2701179    4.2701179    4.2701179   -14457.184   -9997.2952   -22895.799   -10478.459   -20888.219    2228.4012   -12800.331    77.860933 
   60800    942.74498   -118.13144   0.85301547   -117.27843   -1955.3977    4.2609418    4.2609418    4.2609418   -1955.3977   -4603.2241    14319.859   -15582.828    2267.3887   -4503.6658    21440.852    77.360061 
   60900    1218.3711   -118.38536    1.1024078   -117.28295   -8613.0415    4.2594725    4.2594725    4.2594725   -8613.0415   -41521.611    17854.072   -2171.5855   -578.52841   -11710.375    18647.175    77.280063 
   61000    1759.0732   -118.87881    1.5916464   -117.28717   -9818.4509    4.2644263    4.2644263    4.2644263   -9818.4509   -39371.839   -2944.6537     12861.14   -22955.965    9096.4792   -11260.493    77.550005 
   61100    1383.8688   -118.54036    1.2521536   -117.28821   -12038.856    4.2668289    4.2668289    4.2668289   -12038.856   -9304.6912    4578.0337   -31389.912   -10259.377    11189.088   -5992.9679    77.681156 
   61200    1085.0391    -118.2612   0.98176619   -117.27943   -4512.9186    4.2609361    4.2609361    4.2609361   -4512.9186   -25238.301    40280.442   -28580.897   -246.93998    -11637.94    14189.281    77.359749 
   61300    1449.2482   -118.59295    1.3113102   -117.28164   -7276.0623    4.2592714    4.2592714    4.2592714   -7276.0623   -56067.296    39558.997   -5319.8882   -15088.265   -4468.2834   -3422.7998    77.269116 
   61400    1405.6777   -118.56212    1.2718867   -117.29023   -12999.984    4.2704693    4.2704693    4.2704693   -12999.984   -42718.362    17594.326   -13875.916    -23875.93    12413.496   -29451.608    77.880154 
   61500    1367.4566   -118.52492    1.2373035   -117.28762   -19358.447    4.2623953    4.2623953    4.2623953   -19358.447   -24199.021    25.599741   -33901.921    6970.2507   -14288.874   -9060.5997    77.439256 
   61600    1397.3288   -118.53908    1.2643325   -117.27475   -4996.1562    4.2523428    4.2523428    4.2523428   -4996.1562   -10879.392    16379.586   -20488.663    -173.7517   -17657.264   -1712.8603    76.892645 
   61700    1406.0513   -118.56118    1.2722247   -117.28896   -13508.785    4.2647027    4.2647027    4.2647027   -13508.785   -43350.233    9220.6825   -6396.8057   -28313.957    9250.0126   -13554.971     77.56509 
   61800    1516.1905   -118.66387     1.371881   -117.29199    9814.0313    4.2607072    4.2607072    4.2607072    9814.0313   -33152.626    29300.378    33294.342   -6151.0061    2022.4028   -13550.126    77.347285 
   61900    1516.1037   -118.66028    1.3718025   -117.28848    6215.3156    4.2617183    4.2617183    4.2617183    6215.3156   -6163.8429    26790.896   -1981.1063    17190.149   -4601.5886   -10653.104    77.402365 
   62000    1206.9996   -118.37475    1.0921186   -117.28263   -14145.961     4.263529     4.263529     4.263529   -14145.961   -18172.938    8379.3013   -32644.246    6247.8625   -582.35764    8614.0051    77.501063 
   62100    1140.3708   -118.32038    1.0318315   -117.28855    5932.2921    4.2551837    4.2551837    4.2551837    5932.2921   -14760.933    12346.205    20211.605   -2478.0056    19343.131   -5324.5986     77.04686 
   62200    1804.7971   -118.92776    1.6330183   -117.29474   -11205.445    4.2673789    4.2673789    4.2673789   -11205.445   -14444.798   -32191.536        13020    9361.2297    7853.5136   -4100.5462    77.711202 
   62300    1604.2202   -118.72946    1.4515322   -117.27792   -25010.403    4.2726807    4.2726807    4.2726807   -25010.403   -16411.419   -7312.7784   -51307.012    4147.9099   -24031.805     11727.67    78.001206 
   62400    770.86145   -117.97017   0.69749164   -117.27268   -12906.048    4.2669479    4.2669479    4.2669479   -12906.048    8493.7006    8430.2101   -55642.054   -1529.9417   -4652.3401    12470.351    77.687654 
   62500    1309.1609   -118.45621    1.1845563   -117.27166   -7851.0977    4.2701282    4.2701282    4.2701282   -7851.0977   -4903.9754   -18731.991    82.673392   -4202.0239    7563.3505    9935.1571    77.861493 
   62600    2168.7151   -119.23047     1.962299   -117.26817    1461.0858    4.2617843    4.2617843    4.2617843    1461.0858   -23758.539    12257.842    15883.954   -3280.4389   -14797.749    3601.3341    77.405958 
   62700    1300.6461    -118.4551     1.176852   -117.27825    24792.292    4.2587667    4.2587667    4.2587667    24792.292    48260.942    24360.738    1755.1944    174.59737   -13088.282    9244.6864    77.241653 
   62800    748.79856   -117.95991   0.67752868   -117.28238   -1218.5599     4.267925     4.267925     4.267925   -1218.5599    23897.016    5394.0024   -32946.699   -9659.3373    13208.342    6173.1578    77.741037 
   62900    1349.2128   -118.49651    1.2207961   -117.27572     12740.13    4.2624573    4.2624573    4.2624573     12740.13    12121.786    39672.595   -13573.992   -737.77599    6488.9567    -8367.643    77.442636 
   63000    1828.5616   -118.93773     1.654521   -117.28321    5697.6403    4.2713456    4.2713456    4.2713456    5697.6403    20066.511    2966.8059   -5940.3962    11910.289   -9775.2858    1020.7621    77.928107 
   63100    1640.7339   -118.75923    1.4845705   -117.27465    -20512.46    4.2727039    4.2727039    4.2727039    -20512.46    -12267.95   -16822.123   -32447.307    1776.6794   -12055.814    4690.8811    78.002478 
   63200    1057.3477   -118.22017   0.95671046   -117.26346    9629.0375      4.25222      4.25222      4.25222    9629.0375    1911.4447    49358.563   -22382.895   -6664.7217     340.1721    -8529.004    76.885985 
   63300    1172.6462   -118.34622     1.061035   -117.28518   -4506.1888    4.2626078    4.2626078    4.2626078   -4506.1888   -6600.3391     2299.135   -9217.3623    16323.066   -9314.7568    1320.1659     77.45084 
   63400    1916.7653   -119.01592    1.7343296   -117.28159   -14614.484     4.269408     4.269408     4.269408   -14614.484    -18846.78   -13074.834   -11921.837    10227.731    -18658.22    13888.427    77.822108 
   63500    1832.0411   -118.93018    1.6576693   -117.27251    7730.9101    4.2623719    4.2623719    4.2623719    7730.9101    29907.616    801.30264    -7516.188    2275.7891   -2458.9797    14193.955    77.437983 
   63600    642.76438   -117.86144   0.58158672   -117.27985    -15030.81    4.2712939    4.2712939    4.2712939    -15030.81   -731.12286   -31002.662   -13358.646    -8696.824    7294.0067    2958.2145    77.925276 
   63700    981.20732   -118.16626   0.88781701   -117.27844   -3335.6894    4.2637327    4.2637327    4.2637327   -3335.6894    6128.6653    21255.684   -37391.418    -3782.892   -9132.3452    5622.1789    77.512172 
   63800    2367.8345   -119.41594    2.1424664   -117.27348   -8451.8569    4.2624645    4.2624645    4.2624645   -8451.8569   -15956.902    4558.9495   -13957.618   -1108.3518    2519.3766    7624.3182    77.443026 
   63900     1450.452   -118.59203    1.3123995   -117.27963   -14534.877    4.2673001    4.2673001    4.2673001   -14534.877    -55301.21     5112.497    6584.0837   -22828.828    4158.5059    1325.0833    77.706897 
   64000    580.33018   -117.80905   0.52509495   -117.28396    12332.211    4.2575245    4.2575245    4.2575245    12332.211   -20296.055    49587.129    7705.5588   -15793.038   -4158.1864   -7223.9836    77.174081 
   64100    1647.7497   -118.77448    1.4909186   -117.28356   -3627.5978    4.2617299    4.2617299    4.2617299   -3627.5978    11900.688   -2826.5884   -19956.893    9647.4313   -13874.746    8267.0425    77.402997 
   64200    2129.1777   -119.20926    1.9265247   -117.28274   -6563.8963    4.2633644    4.2633644    4.2633644   -6563.8963   -18838.173   -8544.6628    7691.1465   -4018.2468    -5425.647     22224.43    77.492087 
   64300    829.96681   -118.04382   0.75097141   -117.29285    13606.657    4.2600366    4.2600366    4.2600366    13606.657   -23304.226   -3274.4345    67398.633   -15800.123   -3989.8715   -643.11855    77.310769 
   64400    855.94578   -118.06244   0.77447773   -117.28797   -13156.694    4.2663486    4.2663486    4.2663486   -13156.694    -24912.45   -10035.178   -4522.4545    7011.3812   -2233.5684   -16540.541    77.654927 
   64500    2283.7434   -119.34257    2.0663791   -117.27619    -6495.983    4.2639593    4.2639593    4.2639593    -6495.983   -5629.8212   -25408.166    11550.039     6859.431    12714.708    13529.059    77.524531 
   64600    1332.1922   -118.49441    1.2053955   -117.28901   -1760.1735    4.2642896    4.2642896    4.2642896   -1760.1735   -11945.194   -11753.766     18418.44   -13333.293    11119.558    8951.6358     77.54255 
   64700    604.36031   -117.83619   0.54683791   -117.28935   -12360.847    4.2611177    4.2611177    4.2611177   -12360.847   -32904.414   -1340.6379   -2837.4899   -13362.771     6878.961   -14169.013    77.369642 
   64800    1787.2213   -118.89659    1.6171154   -117.27947    4997.0421    4.2581119    4.2581119    4.2581119    4997.0421   -19222.493    24095.848    10117.771    3624.6923    7417.1793   -4597.5109     77.20603 
   64900    1996.0253   -119.09704    1.8060456     -117.291   -1685.4803      4.26641      4.26641      4.26641   -1685.4803   -9680.2456    10435.384   -5811.5789   -1189.4246    897.62903    8361.4674    77.658282 
   65000    1048.3491   -118.24231   0.94856828   -117.29374     9561.362     4.263566     4.263566     4.263566     9561.362   -13693.824    8374.6592    34003.251   -25979.191   -7704.4887    10857.698    77.503081 
   65100    1071.6997   -118.25286   0.96969638   -117.28316   -5675.7842    4.2640318    4.2640318    4.2640318   -5675.7842   -40164.353     9706.155    13430.846   -11236.109   -7269.2322    7248.9787    77.528485 
   65200    1919.6923   -119.01892    1.7369779   -117.28194   -10809.896    4.2611966    4.2611966    4.2611966   -10809.896   -36911.451    -8203.502    12685.266    2985.3716    1257.2492    4131.4039     77.37394 
   65300     1486.445   -118.63876    1.3449667   -117.29379     5014.982     4.259236     4.259236     4.259236     5014.982   -11867.938   -10993.454    37906.338    -16251.94    900.80114    1643.9522    77.267189 
   65400    967.94322   -118.16881   0.87581537   -117.29299   -18175.839    4.2651581    4.2651581    4.2651581   -18175.839   -42128.048    2579.9742   -14979.444   -14981.099    2150.0822     22382.75    77.589937 
   65500    1269.8338    -118.4315    1.1489723   -117.28253   -4789.2312    4.2629561    4.2629561    4.2629561   -4789.2312   -42708.243    23428.132    4912.4173    10332.812     17780.16    1027.2314    77.469825 
   65600    1696.0455   -118.82162    1.5346176     -117.287    8585.3976     4.262316     4.262316     4.262316    8585.3976   -11529.312    18315.842    18969.662    1022.4098    9918.7663   -13547.292    77.434937 
   65700    1525.9357    -118.6677    1.3806987     -117.287    9254.3851    4.2641884    4.2641884    4.2641884    9254.3851   -16110.223    42429.828    1443.5507   -15450.564    -7713.156    46.091969    77.537026 
   65800    1265.6718   -118.42736    1.1452064   -117.28215   -3258.9378    4.2669013    4.2669013    4.2669013   -3258.9378   -6531.5283    30965.653   -34210.938   -2905.2267   -30.780157    9337.2718     77.68511 
   65900    1166.9619   -118.33409    1.0558916    -117.2782   -6347.2277    4.2709594    4.2709594    4.2709594   -6347.2277   -22604.495    13280.338   -9717.5258    9628.3914     6665.276   -2728.5603    77.906974 
   66000    1620.1251   -118.74033    1.4659233   -117.27441    8440.0985    4.2622675    4.2622675    4.2622675    8440.0985   -4153.4341    -9884.959    39358.689   -14861.818   -8233.0575    -6210.318    77.432292 
   66100    1422.2797   -118.56951    1.2869085    -117.2826    5622.6761    4.2613758    4.2613758    4.2613758    5622.6761    25380.195   -7360.7395   -1151.4271   -13107.528   -5845.7834    7945.4851      77.3837 
   66200    1319.1972   -118.47366    1.1936374   -117.28002   -32271.847    4.2721812    4.2721812    4.2721812   -32271.847   -43996.348    14228.651   -67047.845    6824.2825     16926.34    15104.474    77.973852 
   66300    1469.6048    -118.6011    1.3297293   -117.27137    2606.0938    4.2635482    4.2635482    4.2635482    2606.0938    3754.5016   -7035.9195    11099.699   -58.662723    13293.751    3039.3133    77.502111 
   66400    1403.2273   -118.54848    1.2696695   -117.27881   -12352.245    4.2683681    4.2683681    4.2683681   -12352.245   -3270.1287   -44460.109    10673.502   -33748.599    3048.2766    4443.9999    77.765257 
   66500    1131.9719   -118.30517     1.024232   -117.28094   -10816.125    4.2685997    4.2685997    4.2685997   -10816.125    3980.7489   -18506.002   -17923.122    -8918.237    11096.587    7903.0916    77.777915 
   66600    1643.9366   -118.75409    1.4874684   -117.26662   -4462.1076    4.2646783    4.2646783    4.2646783   -4462.1076   -18769.508    13005.156   -7621.9706    6747.3622     1808.064   -2713.7186    77.563758 
   66700    1636.4398   -118.75177    1.4806851   -117.27108   -17111.189    4.2742801    4.2742801    4.2742801   -17111.189   -61126.562   -14073.594     23866.59   -27716.493   -4704.0255     3512.062    78.088835 
   66800    1135.9312   -118.29819    1.0278144   -117.27038    7757.8521    4.2699299    4.2699299    4.2699299    7757.8521    3609.5536   -26318.423    45982.426   -10331.389    1646.8423    11233.758    77.850649 
   66900    1149.8964   -118.30153    1.0404504   -117.26108   -10619.535    4.2711827    4.2711827    4.2711827   -10619.535    5992.8374   -33987.263   -3864.1778    10057.603    -8328.778   -6472.8951    77.919192 
   67000     1601.399   -118.70922    1.4489795   -117.26025   -25802.788    4.2739308    4.2739308    4.2739308   -25802.788   -44035.807   -14195.759   -19176.798   -24139.065   -6667.1951   -2504.6178    78.069692 
   67100    1725.8708   -118.82267    1.5616042   -117.26106    489.05983    4.2676355    4.2676355    4.2676355    489.05983   -3961.3657    463.48465    4965.0605   -4795.1148    5620.2286    7940.3857    77.725217 
   67200    1320.8311   -118.46411    1.1951157   -117.26899    266.41072    4.2671452    4.2671452    4.2671452    266.41072    13643.955   -22649.796    9805.0731    11336.622   -1581.4984   -565.03846    77.698436 
   67300    1047.3775    -118.2154    0.9476892   -117.26771   -8443.9874     4.269344     4.269344     4.269344   -8443.9874    14500.705   -30907.184   -8925.4828   -9423.5489   -7263.0127    732.17455    77.818607 
   67400    1437.0849   -118.57002    1.3003046   -117.26972    8599.0803    4.2605782    4.2605782    4.2605782    8599.0803    30558.428    7828.4306   -12589.618   -23309.394    1231.8162    3037.1491    77.340261 
   67500    1709.1447   -118.82899    1.5464701   -117.28252    6910.3314    4.2601262    4.2601262    4.2601262    6910.3314   -13032.149    66162.569   -32399.425   -10040.901    16260.399    4616.1943    77.315646 
   67600    1279.1498   -118.44716    1.1574016   -117.28976   -3981.3542    4.2607947    4.2607947    4.2607947   -3981.3542    13964.407   -2196.6039   -23711.866    8296.7383    7518.0025    840.80619    77.352051 
   67700    1219.3867   -118.38699    1.1033267   -117.28366   -3995.4361    4.2592815    4.2592815    4.2592815   -3995.4361    21155.247   -38965.297    5823.7416    2512.8526   -7822.8954    1523.0449    77.269667 
   67800    1493.6564   -118.64146    1.3514917   -117.28997    -24582.94    4.2705708    4.2705708    4.2705708    -24582.94   -32968.113    381.56751   -41162.276   -8282.8017    22138.839    3116.9469    77.885707 
   67900    1662.0729   -118.79476    1.5038784   -117.29088    2168.5699    4.2569239    4.2569239    4.2569239    2168.5699   -12148.509    62354.215   -43699.996    9085.1963    17531.791   -2824.0219    77.141425 
   68000    1140.1572   -118.32212    1.0316382   -117.29048    6916.2261    4.2550467    4.2550467    4.2550467    6916.2261     30650.45   -92.796359    -9808.975     23385.45   -7397.1562   -13460.217    77.039416 
   68100     1064.392   -118.24789   0.96308424   -117.28481    -22546.47    4.2710642    4.2710642    4.2710642    -22546.47   -5094.9397    -51025.88    -11518.59     10464.68   -2367.1111   -3101.3146     77.91271 
   68200    1638.5783   -118.76063    1.4826201   -117.27801    8652.7058    4.2594449    4.2594449    4.2594449    8652.7058    2817.3729    19588.172    3552.5724   -2722.9166    10473.576   -2108.1994    77.278557 
   68300    1664.4522   -118.79095    1.5060313   -117.28492    7724.8528    4.2634964    4.2634964    4.2634964    7724.8528    4034.5942    17530.406    1609.5581    2024.3311    12051.784   -14835.868    77.499285 
   68400    1341.3075   -118.49165    1.2136432   -117.27801   -21004.395    4.2737279    4.2737279    4.2737279   -21004.395   -22859.347   -27859.578   -12294.259    10332.218   -13155.716   -760.65924    78.058574 
   68500    1096.2143   -118.25617   0.99187774    -117.2643    8898.8471    4.2615489    4.2615489    4.2615489    8898.8471     2965.629   -17601.298     41332.21   -1160.6846   -13750.079    11473.692    77.393136 
   68600    1222.1341   -118.38222    1.1058126   -117.27641   -1178.0849     4.270521     4.270521     4.270521   -1178.0849    -5201.502   -22395.312     24062.56   -7027.3212    8284.7021   -10387.467    77.882982 
   68700    1709.9575   -118.81575    1.5472054   -117.26855   -21419.273    4.2713059    4.2713059    4.2713059   -21419.273   -43270.923    -15742.34   -5244.5545   -3511.7823    1933.4378   -24245.123    77.925938 
   68800    1702.8665   -118.80494    1.5407894   -117.26415    20213.871    4.2510075    4.2510075    4.2510075    20213.871    -6987.912    28393.875    39235.649    1351.7906   -24706.122   -3620.1596    76.820233 
   68900    1190.0273   -118.35856    1.0767617    -117.2818   -22708.919    4.2693612    4.2693612    4.2693612   -22708.919    -9222.169   -35997.269   -22907.318    756.49393   -7008.6357   -8244.2343    77.819545 
   69000    1175.0811    -118.3438    1.0632381   -117.28056    -12086.75    4.2648815    4.2648815    4.2648815    -12086.75    606.27992   -31004.896   -5861.6342   -7290.3776    13755.829   -27975.322    77.574846 
   69100    1470.0532   -118.60819     1.330135   -117.27806    15245.663    4.2560116    4.2560116    4.2560116    15245.663   -5426.1837    43638.196    7524.9751   -10143.062   -6024.9693   -15300.445    77.091838 
   69200    1625.8187   -118.75175    1.4710749   -117.28068    -23703.57    4.2713337    4.2713337    4.2713337    -23703.57   -52829.308    12123.209    -30404.61   -6489.3088    -31335.74    10243.426    77.927456 
   69300    1423.8739   -118.56351     1.288351   -117.27516    15005.828    4.2620117    4.2620117    4.2620117    15005.828     22539.41   -10101.449    32579.522   -7366.7837    9679.9164   -6299.4723    77.418352 
   69400    1263.7475   -118.42169    1.1434653   -117.27822    4033.0928    4.2669099    4.2669099    4.2669099    4033.0928    16967.271   -25963.113     21095.12   -12318.639    8916.7625   -17075.525     77.68558 
   69500    1281.7097   -118.43196    1.1597179   -117.27224   -4337.8995    4.2698361    4.2698361    4.2698361   -4337.8995   -44359.675     28078.15     3267.827   -3886.6894   -25776.861    3204.5696    77.845517 
   69600    1517.8245   -118.64103    1.3733595   -117.26767    4991.6182    4.2578107    4.2578107    4.2578107    4991.6182   -35042.617    36929.458    13088.014     3002.057   -6237.3787    736.86721    77.189644 
   69700    1444.1025   -118.58944    1.3066543   -117.28279   -8307.4966     4.262257     4.262257     4.262257   -8307.4966    18356.325   -34227.749   -9051.0651   -3590.0174    19073.628   -24650.813    77.431719 
   69800    1462.4369   -118.60166    1.3232437   -117.27841   -10574.743    4.2664353    4.2664353    4.2664353   -10574.743    3479.3595   -31020.556   -4183.0319    4153.2432    942.50184   -5733.8839    77.659662 
   69900    1279.1888   -118.43466     1.157437   -117.27722    1224.8044    4.2609779    4.2609779    4.2609779    1224.8044    -35652.66    25481.392    13845.681    4382.8646   -10681.927    15336.241    77.362026 
   70000    1337.4392    -118.4925    1.2101431   -117.28236   -7766.7704    4.2631988    4.2631988    4.2631988   -7766.7704   -20042.256    942.93972   -4200.9955    3502.5957    6662.0581   -17375.489    77.483059 
   70100    1763.0451   -118.87585    1.5952402   -117.28061    14324.268    4.2580592    4.2580592    4.2580592    14324.268    40750.032   -23913.443    26136.214    10803.736    8690.9395   -16680.913    77.203163 
   70200    1367.9987    -118.5256    1.2377939    -117.2878    197.01964    4.2604163    4.2604163    4.2604163    197.01964    37149.642   -30303.455   -6255.1282   -5551.9941   -16785.786    16506.907    77.331445 
   70300    848.52853   -118.06126   0.76776645    -117.2935    -402.6236    4.2642648    4.2642648    4.2642648    -402.6236    6958.2311   -9689.5119    1523.4101    6132.1973   -18613.615    15670.607    77.541198 
   70400    1807.6516   -118.91587    1.6356011   -117.28027    8391.5644     4.260258     4.260258     4.260258    8391.5644    1442.7692    14421.846    9310.0778    16780.091   -4337.7743   -4392.1782    77.322821 
   70500    1704.8103   -118.82273    1.5425482   -117.28018   -14128.383    4.2666049    4.2666049    4.2666049   -14128.383    7016.9888   -22257.077   -27145.061   -498.37778    -8205.569    4598.2285    77.668921 
   70600    650.89094   -117.87785    0.5889398   -117.28891    5607.7444    4.2635727    4.2635727    4.2635727    5607.7444    37777.372   -23214.559    2260.4202   -12500.362   -6963.3823    11182.387    77.503446 
   70700    1461.6807   -118.60244    1.3225594   -117.27988     1974.875    4.2645583    4.2645583    4.2645583     1974.875    -14990.21    15266.854    5647.9812   -4523.4977   -4328.4078      6918.69     77.55721 
   70800    2204.1791   -119.26652    1.9943876   -117.27213   -18736.223    4.2673507    4.2673507    4.2673507   -18736.223   -46793.531   -4259.2951   -5155.8444    5462.5585    4789.7765   -6271.5734     77.70966 
   70900    947.07052   -118.13656   0.85692931   -117.27963    26660.527    4.2566104    4.2566104    4.2566104    26660.527    23464.896    5174.0792    51342.607    -14338.34   -2018.9143   -4205.4518    77.124383 
   71000    928.11591   -118.12678   0.83977878     -117.287   -8095.6247    4.2701167    4.2701167    4.2701167   -8095.6247   -5568.8318   -40432.294    21714.252   -16532.962   -4245.6313    11239.361    77.860869 
   71100    1817.7766   -118.91545    1.6447625   -117.27069    4215.8299    4.2712099    4.2712099    4.2712099    4215.8299   -25592.178    20745.856    17493.812    9597.1783   -1383.0725    10667.402    77.920681 
   71200    1475.7876    -118.6107    1.3353236   -117.27538    23373.954    4.2634542    4.2634542    4.2634542    23373.954   -7863.0532    30712.995    47271.921    7969.7514    717.81148   -678.14964    77.496986 
   71300    1181.7702    -118.3446    1.0692905   -117.27531   -28125.674    4.2710402    4.2710402    4.2710402   -28125.674     -33527.5   -36394.712   -14454.811   -3070.9316   -13266.005    4196.6923    77.911394 
   71400    1506.6174   -118.62434    1.3632191   -117.26112   -9373.1216    4.2624932    4.2624932    4.2624932   -9373.1216    14933.481   -30366.658   -12686.188    2399.6814    -9260.296    8808.5491     77.44459 
   71500    1277.9793   -118.43611    1.1563426   -117.27977   -9874.9665    4.2694265    4.2694265    4.2694265   -9874.9665    -20712.12     6881.367   -15794.147    17138.499    15915.772   -10691.652     77.82312 
   71600    1493.1033    -118.6198    1.3509912   -117.26881   -16975.559    4.2760183    4.2760183    4.2760183   -16975.559   -34856.999    6255.1001   -22324.779    5932.3484    -9022.151   -3298.0922    78.184139 
   71700    1753.9388   -118.83719    1.5870007   -117.25019    -20306.85    4.2732694    4.2732694    4.2732694    -20306.85   -28994.858   -35217.493    3291.8019   -5566.5733   -5692.4497   -2894.9087    78.033454 
   71800    1113.3163   -118.26862     1.007352   -117.26126   -10465.941    4.2680227    4.2680227    4.2680227   -10465.941    8066.3162   -39531.529    67.389369    5360.0206    31245.684   -21645.812    77.746377 
   71900    1166.2612   -118.31889    1.0552576   -117.26363    5784.2386    4.2603348    4.2603348    4.2603348    5784.2386   -16102.938    -10918.06    44373.714   -3858.9299    8196.5627   -8175.1315    77.327006 
   72000    1751.4594   -118.85587    1.5847573   -117.27111   -14880.513    4.2630999    4.2630999    4.2630999   -14880.513   -68493.931    23088.006    764.38652   -5393.8281   -16388.154    2365.0798    77.477668 
   72100     1270.826   -118.43057      1.14987    -117.2807   -3562.1264    4.2614743    4.2614743    4.2614743   -3562.1264    5525.7894    -11549.46   -4662.7092    14564.055   -882.79672    1373.0555    77.389067 
   72200    1126.4408   -118.31013    1.0192273    -117.2909    3644.5712    4.2614515    4.2614515    4.2614515    3644.5712     37017.02   -25413.683    -669.6235    10168.256     15595.97   -10049.538    77.387825 
   72300    1667.5278   -118.79678    1.5088142   -117.28797   -11206.809    4.2643702    4.2643702    4.2643702   -11206.809   -20381.812    6357.5197   -19596.133   -7371.0076   -6401.4725   -6700.8305    77.546948 
   72400    1623.2832   -118.74867    1.4687808   -117.27989    12669.745    4.2542943    4.2542943    4.2542943    12669.745   -15975.997    36713.814    17271.417    8399.5845   -12086.976    3522.8796    76.998558 
   72500    1092.6043   -118.28811   0.98861137    -117.2995   -9273.7549    4.2611064    4.2611064    4.2611064   -9273.7549   -10113.645   -3292.5003    -14415.12    12517.278     10168.58   -4543.2419    77.369026 
   72600     1324.943   -118.49825    1.1988363   -117.29941   -11584.201    4.2650857    4.2650857    4.2650857   -11584.201    22094.426   -16507.525   -40339.503    9668.6837    19789.568   -23761.885    77.585985 
   72700    1815.0674    -118.9252    1.6423111   -117.28289    1815.8899    4.2560996    4.2560996    4.2560996    1815.8899   -13568.751    17676.041    1340.3793    4648.2015    7982.5194   -5297.2734    77.096621 
   72800    1041.5085   -118.22578   0.94237879    -117.2834   -31793.573    4.2694597    4.2694597    4.2694597   -31793.573   -93874.767   -3182.7442    1676.7918    2032.8346    3597.1618    853.74114    77.824932 
   72900    1158.2344   -118.33343    1.0479948   -117.28544   -7156.8357    4.2642106    4.2642106    4.2642106   -7156.8357   -14813.251    8326.0936    -14983.35    17131.927    17233.162   -6721.0419    77.538237 
   73000    1829.6837   -118.93625    1.6555362   -117.28072    19217.219    4.2599467    4.2599467    4.2599467    19217.219    46739.907    5282.6218    5629.1291    7251.1097    4035.0817   -7933.9385    77.305873 
   73100    1672.2518   -118.78882    1.5130885   -117.27573   -12535.175    4.2730904    4.2730904    4.2730904   -12535.175   -17268.757   -14686.216   -5650.5517   -11707.218   -17138.352    1926.9816    78.023646 
   73200    899.61922   -118.08435   0.81399437   -117.27036    8491.0041    4.2630166    4.2630166    4.2630166    8491.0041   -37813.637    20113.872    43172.778    7332.9045   -8060.4136   -1422.0606    77.473127 
   73300    1031.9741   -118.21206   0.93375184    -117.2783    11350.487    4.2621582    4.2621582    4.2621582    11350.487   -9324.5546    26637.482    16738.534    7419.3555    4811.6383   -20489.212    77.426333 
   73400    1967.2887   -119.05194    1.7800441   -117.27189    -18158.31    4.2728052    4.2728052    4.2728052    -18158.31    1633.1514   -25744.278   -30363.803   -12995.704     1175.448   -4323.0307    78.008025 
   73500    1876.9866   -118.96685     1.698337   -117.26851    20203.648    4.2581349    4.2581349    4.2581349    20203.648    26266.002    20623.332    13721.612   -5853.9243    8360.0054    8214.2643    77.207279 
   73600    739.43908   -117.95299   0.66906002   -117.28393   -12950.218    4.2671207    4.2671207    4.2671207   -12950.218   -40927.187    583.32428    1493.2076    11861.553    5553.9886   -38984.654    77.697095 
   73700    992.12811   -118.17963   0.89769837   -117.28193   -26078.573    4.2685585    4.2685585    4.2685585   -26078.573   -63648.993   -23636.095    9049.3695    9101.6287    6757.4375   -27850.195    77.775659 
   73800    2126.3494   -119.19298    1.9239656   -117.26901    9340.5153    4.2555243    4.2555243    4.2555243    9340.5153   -1017.8033    21988.957    7050.3928   -3519.3794    13940.622    12642.493    77.065364 
   73900    1578.1413   -118.71352    1.4279354   -117.28559   -12146.117    4.2663336    4.2663336    4.2663336   -12146.117    24942.926   -22590.023   -38791.252   -1810.5985   -1287.0739   -23608.252     77.65411 
   74000    941.28732   -118.13794   0.85169654   -117.28625    7587.4563    4.2660794    4.2660794    4.2660794    7587.4563   -4823.0575    6562.3409    21023.085    10637.872    2398.2155   -38284.111    77.640227 
   74100    1434.2759    -118.5721     1.297763   -117.27433    4033.1672    4.2661692    4.2661692    4.2661692    4033.1672   -58712.552    24288.043    46524.011      2986.56   -3305.1988    7591.0386    77.645133 
   74200    1383.7241   -118.52917    1.2520227   -117.27714   -1038.7374    4.2687244    4.2687244    4.2687244   -1038.7374   -3765.1472    5770.1728   -5121.2379   -6366.7918   -4869.7681    4162.0093    77.784733 
   74300    1096.4517   -118.26748   0.99209254   -117.27539    13649.162    4.2628134    4.2628134    4.2628134    13649.162    55583.835    1894.0655   -16530.416   -3838.0744    4084.0855   -36540.251    77.462049 
   74400    1736.0934   -118.84166    1.5708538    -117.2708   -12171.273    4.2651667    4.2651667    4.2651667   -12171.273   -17388.231   -1652.2728   -17473.316    1660.5618   -1620.8227    1667.2927    77.590407 
   74500    1627.2006   -118.74359    1.4723253   -117.27127   -11188.915    4.2742525    4.2742525    4.2742525   -11188.915   -28363.861   -11483.885    6280.9997    10497.042   -557.55873     12448.84    78.087319 
   74600    1091.0676   -118.25802   0.98722091    -117.2708    21403.771    4.2696485    4.2696485    4.2696485    21403.771    43453.751    35005.711    -14248.15   -9298.4643    1254.7338   -40349.714    77.835258 
   74700    1438.5467    -118.5632    1.3016273   -117.26157   -9519.8649    4.2711849    4.2711849    4.2711849   -9519.8649    24184.023    9280.2438   -62023.862   -2648.1744    5797.2138   -19981.976    77.919312 
   74800    1402.6191   -118.52534    1.2691193   -117.25622   -2539.8256    4.2692995    4.2692995    4.2692995   -2539.8256    27957.708     27453.22   -63030.405    3610.6208   -2519.2274    13196.422    77.816172 
   74900    1008.3883   -118.18517   0.91241094   -117.27276    16373.064    4.2658493    4.2658493    4.2658493    16373.064     32836.74    30064.866   -13782.413      3796.44   -3516.2801   -29723.092    77.627664 
   75000    1699.1739   -118.80853    1.5374483   -117.27108   -6712.4038    4.2695421    4.2695421    4.2695421   -6712.4038    6523.5987   -24730.331   -1930.4788    3790.0823    5072.1587   -10766.378    77.829441 
   75100    1980.6487   -119.05501    1.7921326   -117.26287   -9073.0163     4.264044     4.264044     4.264044   -9073.0163   -5504.3159     8057.047    -29771.78   -9900.9671   -224.53033    17618.123    77.529152 
   75200    773.61747   -117.97784   0.69998534   -117.27785   -16300.381     4.269572     4.269572     4.269572   -16300.381    12993.291    4963.2765    -66857.71   -3247.1283   -8420.9392   -36221.785    77.831074 
   75300    840.08681   -118.03584    0.7601282   -117.27571   -10808.137    4.2671224    4.2671224    4.2671224   -10808.137    16410.045   -2287.7547   -46546.701   -4818.3566   -8821.8907   -26834.056    77.697189 
   75400    2104.9176   -119.17132    1.9045737   -117.26675    6047.6209    4.2568374    4.2568374    4.2568374    6047.6209   -12654.227    9338.1657    21458.924   -1948.3836   -802.00138    18661.695    77.136721 
   75500    1647.0599   -118.77027    1.4902944   -117.27998   -11358.797    4.2634649    4.2634649    4.2634649   -11358.797    10782.299   -23374.993   -21483.697   -2281.9718   -4674.4462   -26934.759     77.49757 
   75600    871.42289   -118.07237   0.78848174   -117.28389    2212.8933     4.261661     4.261661     4.261661    2212.8933    30558.908     28527.33   -52447.558    5310.1891   -8894.3285   -35676.126    77.399242 
   75700    1403.9412   -118.54833    1.2703155   -117.27802   -7384.1846    4.2700217    4.2700217    4.2700217   -7384.1846   -4692.4326    15169.553   -32629.674    43.331747   -9701.7041    10115.192    77.855672 
   75800    1728.5652   -118.84074    1.5640421    -117.2767    191.44586    4.2672607    4.2672607    4.2672607    191.44586    6474.4736   -27453.034    21552.898   -10048.424    1399.7003   -10393.579    77.704744 
   75900    1405.9441   -118.55062    1.2721277    -117.2785    27962.085    4.2538369    4.2538369    4.2538369    27962.085    26762.253    5085.8553    52038.146    3694.8643    10348.128   -45681.949    76.973722 
   76000    1228.9522   -118.39373    1.1119818   -117.28175   -16210.592    4.2684097    4.2684097    4.2684097   -16210.592   -15061.287    17608.615   -51179.103    9061.9014   -5494.4241   -5486.3713    77.767527 
   76100    1073.6288   -118.24155   0.97144188   -117.27011    1545.5019    4.2678952    4.2678952    4.2678952    1545.5019    31379.733    2880.7447   -29623.972    1542.2848   -8115.9447    2898.9027    77.739411 
   76200    1196.1926   -118.35979    1.0823402   -117.27745    26498.024    4.2636128    4.2636128    4.2636128    26498.024    80604.141    123.82578   -1233.8954   -6878.7999    1819.0991   -38265.361    77.505633 
   76300     1938.658   -119.02606    1.7541385   -117.27192   -10482.408    4.2771283    4.2771283    4.2771283   -10482.408    4496.6525   -18389.565   -17554.313   -6053.9343    17996.681   -11184.251    78.245045 
   76400    1733.6949   -118.82776    1.5686836   -117.25908   -7.9871197    4.2670384    4.2670384    4.2670384   -7.9871197   -20181.804    5061.8715    15095.971     15322.95    17023.997   -3504.6898      77.6926 
   76500     726.3953   -117.92148   0.65725773   -117.26422   -7186.6462    4.2620702    4.2620702    4.2620702   -7186.6462    9806.4148    11958.947     -43325.3    3905.6677   -4371.9282   -40585.144    77.421538 
   76600    1314.4429   -118.45817    1.1893356   -117.26883   -30811.933    4.2763649    4.2763649    4.2763649   -30811.933   -16673.788   -6343.0087   -69419.004    -584.7309    2597.7912   -6799.8206    78.203152 
   76700    1921.5521   -119.00285    1.7386607   -117.26419    12741.482    4.2671904    4.2671904    4.2671904    12741.482    20312.107    5686.3474    12225.991   -4189.5403    6423.6859    2323.5567    77.700905 
   76800    1226.9253   -118.38633    1.1101478   -117.27618    19177.452    4.2642995    4.2642995    4.2642995    19177.452    57098.858   -1147.3275    1580.8256   -1158.3907   -420.69328   -36468.569    77.543088 
   76900    1288.6917   -118.43635    1.1660354   -117.27031   -35390.316    4.2804107    4.2804107    4.2804107   -35390.316   -6220.5631   -35374.878   -64575.507    10734.661   -1423.8896   -16736.584    78.425325 
   77000     1411.467   -118.52699     1.277125   -117.24986    3241.9309     4.270983     4.270983     4.270983    3241.9309    -1059.938    13403.702   -2617.9717    8296.2631    5229.4285   -2332.8736    77.908262 
   77100    1058.6972   -118.22029   0.95793144   -117.26235    9531.4852    4.2717152    4.2717152    4.2717152    9531.4852    52023.201     7188.476   -30617.221    -11399.11    5246.4504   -42073.303    77.948338 
   77200    1620.2617   -118.72394    1.4660469    -117.2579    -15780.15    4.2731667    4.2731667    4.2731667    -15780.15   -12720.024   -19029.514   -15590.913    323.87589    10984.834   -21401.607    78.027827 
   77300      2009.99   -119.06716    1.8186812   -117.24847   -11477.658     4.267136     4.267136     4.267136   -11477.658   -32567.397   -9976.1636    8110.5854    19994.486    9421.6196    16202.493    77.697933 
   77400    1004.0506   -118.17657    0.9084861   -117.26809   -6826.3742    4.2770771    4.2770771    4.2770771   -6826.3742    48392.391   -27503.828   -41367.686    3619.7831    3615.3908   -26632.662    78.242231 
   77500    939.03657   -118.10675   0.84966002   -117.25709     921.1807    4.2733701    4.2733701    4.2733701     921.1807    45761.535   -35227.889   -7770.1043   -10060.105    395.45693   -19107.594    78.038968 
   77600    1667.0147   -118.75741    1.5083499   -117.24906   -7363.6978    4.2653373    4.2653373    4.2653373   -7363.6978   -13594.069   -33688.372    25191.348    4698.8364     6149.421    12102.351    77.599715 
   77700    1515.8143   -118.63679    1.3715406   -117.26525   -12457.313    4.2728503    4.2728503    4.2728503   -12457.313    -10826.48   -43625.871    17080.411    5103.1643    4579.3685   -25268.252    78.010493 
   77800    1432.9929   -118.56371    1.2966021   -117.26711   -2509.3609    4.2735922    4.2735922    4.2735922   -2509.3609    23280.369    -9742.646   -21065.806   -457.04929    281.12749   -14670.903    78.051134 
   77900    1425.5144   -118.54983    1.2898354      -117.26   -5402.7016    4.2639425    4.2639425    4.2639425   -5402.7016    20455.922    11745.782   -48409.809   -19696.502   -4678.7834    12434.204    77.523618 
   78000    1025.8358   -118.19879   0.92819776   -117.27059    2583.0799    4.2614198    4.2614198    4.2614198    2583.0799    8919.4274   -2129.4068    959.21914   -14007.981   -1900.9695   -27681.019    77.386101 
   78100    1542.2184   -118.67673    1.3954316    -117.2813   -5622.9838     4.268063     4.268063     4.268063   -5622.9838   -9676.7974   -35046.301    27854.147    8916.5301    7151.9149   -39367.226    77.748579 
   78200    1927.3845   -119.02023     1.743938   -117.27629    -1606.244    4.2629128    4.2629128    4.2629128    -1606.244   -424.98338   -3232.8513   -1160.8973   -2182.4479   -3503.0271    4151.4581    77.467465 
   78300    1012.3805   -118.20014   0.91602317   -117.28412     18114.98    4.2599215    4.2599215    4.2599215     18114.98    55499.979    10841.948   -11996.988   -20464.262   -2604.4947   -5280.0875    77.304502 
   78400    949.51714   -118.14598   0.85914306   -117.28684   -13041.951    4.2647955    4.2647955    4.2647955   -13041.951    35437.554   -51956.136   -22607.273   -13747.372    4591.6815   -36157.588    77.570148 
   78500    1932.0384   -119.02619    1.7481489   -117.27804   -5309.4156    4.2602917    4.2602917    4.2602917   -5309.4156   -10934.052   -25085.341    20091.146     9878.587    8461.9158    7404.2493    77.324657 
   78600    1561.8772   -118.69868    1.4132193   -117.28546   -25711.309    4.2714502    4.2714502    4.2714502   -25711.309   -46465.773   -15743.543    -14924.61   -6834.5014   -9616.1992    11832.142    77.933834 
   78700    934.16241    -118.1269   0.84524978   -117.28165   -15794.068    4.2673061    4.2673061    4.2673061   -15794.068    19455.265   -4751.4827   -62085.986    -15213.15   -15777.279   -27752.579    77.707225 
   78800    1529.3208   -118.65795    1.3837616   -117.27419    23470.013    4.2538062    4.2538062    4.2538062    23470.013    24123.761    26844.778    19441.501     2549.293     6989.587   -16193.926    76.972061 
   78900    1801.5133   -118.90782    1.6300471   -117.27777   -17951.909     4.266878     4.266878     4.266878   -17951.909   -70917.135    13529.948    3531.4609    7417.0987   -9307.8879    5606.9417    77.683839 
   79000    1055.3041   -118.23904   0.95486129   -117.28418    17609.388    4.2642248    4.2642248    4.2642248    17609.388   -25119.123    41946.134    36001.153   -13142.064   -23970.364   -3883.8068    77.539013 
   79100    1264.4447   -118.42839    1.1440962   -117.28429    4382.2888     4.263522     4.263522     4.263522    4382.2888    34369.232   -2514.0325   -18708.333   -3225.4649   -8194.9544    -11765.09    77.500685 
   79200    1676.2717   -118.79831    1.5167259   -117.28158   -9730.4009     4.261273     4.261273     4.261273   -9730.4009   -6691.6201   -6730.2605   -15769.322    17725.973   -8878.1997   -3380.0402    77.378101 
   79300    1316.1184   -118.47748    1.1908516   -117.28662    9051.6197    4.2585427    4.2585427    4.2585427    9051.6197   -20646.453    19304.639    28496.673    10586.447   -21521.114    9424.8037    77.229462 
   79400     1294.185   -118.45815    1.1710058   -117.28714   -19232.285    4.2669246    4.2669246    4.2669246   -19232.285   -52919.213    6716.9572   -11494.598   -7393.3341   -3585.4592   -125.28281    77.686382 
   79500    1509.5861   -118.64921    1.3659052    -117.2833    464.85666    4.2628745    4.2628745    4.2628745    464.85666    31820.602    9962.3637   -40388.396   -629.75344    14107.315   -12582.754    77.465376 
   79600    1323.9569   -118.48796     1.197944   -117.29001    6354.8519    4.2630099    4.2630099    4.2630099    6354.8519    14557.082    17430.113   -12922.639    19577.815   -16632.962    21.072594    77.472758 
   79700    1200.8092   -118.37602    1.0865174    -117.2895   -10521.783    4.2645228    4.2645228    4.2645228   -10521.783   -61028.707    9512.8914    19950.466    12642.455   -21557.806    8165.8892     77.55527 
   79800     1549.895   -118.67914    1.4023775   -117.27677    1174.7402    4.2544119    4.2544119    4.2544119    1174.7402   -30831.575    8028.3915    26327.404   -11071.624    12004.084   -864.56674    77.004945 
   79900    1517.1136   -118.66313    1.3727162   -117.29042   -8043.9073    4.2670174    4.2670174    4.2670174   -8043.9073   -7215.4995   -14899.021   -2017.2017   -5104.7037   -3658.8225    -5535.115    77.691452 
   80000    1418.6925   -118.57005    1.2836628   -117.28639   -13644.373    4.2739906    4.2739906    4.2739906   -13644.373   -20133.891   -2598.4832   -18200.747    9441.3671   -25001.618    804.40827    78.072967 
   80100    1482.8891   -118.61268    1.3417492   -117.27093    11320.077    4.2593639    4.2593639    4.2593639    11320.077   -11326.643     2654.242    42632.631    7299.0738   -5574.5622    21660.501    77.274148 
   80200    1090.1268   -118.26488   0.98636961   -117.27851    11078.183    4.2625719    4.2625719    4.2625719    11078.183   -3860.5734   -21527.038     58622.16   -3848.1224    2488.6062    7855.8619    77.448883 
   80300    1214.2578   -118.38091     1.098686   -117.28222   -5458.5821    4.2665713    4.2665713    4.2665713   -5458.5821    24106.526    -13586.74   -26895.533   -13556.808   -12938.107   -16532.026    77.667087 
   80400    2019.0958   -119.10662    1.8269203    -117.2797    10804.098    4.2587013    4.2587013    4.2587013    10804.098    37649.282    1977.0766   -7214.0655   -1998.7735    2045.6936    5631.9326    77.238094 
   80500     1542.995   -118.67865    1.3961343   -117.28252   -29280.145    4.2705182    4.2705182    4.2705182   -29280.145   -43670.777   -41842.766   -2326.8925   -5679.5223     19256.01    15485.804    77.882832 
   80600    577.58217   -117.80944   0.52260848   -117.28683    11182.694    4.2602582    4.2602582    4.2602582    11182.694   -5289.5454   -9711.0412     48548.67   -17752.607    2624.7377   -11279.087    77.322832 
   80700    1562.6254   -118.69745    1.4138963   -117.28355    14041.593    4.2585252    4.2585252    4.2585252    14041.593    24872.148   -21855.519    39108.151   -7068.8483   -13004.734   -12051.677    77.228509 
   80800    2155.5245   -119.23158    1.9503638   -117.28121   -8946.1168    4.2724104    4.2724104    4.2724104   -8946.1168    29195.328    -48108.74   -7924.9388    10763.635   -1080.2565    6189.1146    77.986402 
   80900    1133.0197   -118.30524    1.0251801   -117.28006    10176.062    4.2645603    4.2645603    4.2645603    10176.062    3072.6604   -13607.917    41063.442    1964.1742    7163.3027   -6492.7781    77.557318 
   81000    699.15272   -117.91493   0.63260807   -117.28232    -12619.23    4.2634695    4.2634695    4.2634695    -12619.23   -41865.654   -6641.1095    10649.073   -9078.2162      1011.29   -19221.791     77.49782 
   81100    1665.0047   -118.78303    1.5065313    -117.2765   -16726.194    4.2648861    4.2648861    4.2648861   -16726.194   -21177.457   -24498.129   -4502.9952    16789.521    6884.9469   -478.64497    77.575096 
   81200    2059.0791   -119.14298    1.8630981   -117.27988   -3755.4511     4.262077     4.262077     4.262077   -3755.4511    36998.267   -47962.176   -302.44441    16771.446    12389.698    -2120.259    77.421907 
   81300     1245.247   -118.41122    1.1267256   -117.28449   -10398.815    4.2680687    4.2680687    4.2680687   -10398.815    1718.5147   -26554.885   -6360.0745    2406.3078    13484.475    -24886.66     77.74889 
   81400    847.59507   -118.04764   0.76692183   -117.28072     4209.201    4.2626291    4.2626291    4.2626291     4209.201   -17639.971    7235.1684    23032.406    9655.9654    3551.0242   -6830.9115    77.451998 
   81500    1524.0062   -118.65418    1.3789528   -117.27523    932.84487    4.2615618    4.2615618    4.2615618    932.84487   -4076.6194   -21084.188    27959.342    17209.429    3822.6079    10310.965    77.393834 
   81600    1857.3268   -118.96357    1.6805483   -117.28302   -6674.6537    4.2687811    4.2687811    4.2687811   -6674.6537    28416.248   -43873.275   -4566.9341    2731.1975    7095.2048   -18746.768    77.787832 
   81700    1354.6536   -118.51132     1.225719    -117.2856    3600.6183    4.2652832    4.2652832    4.2652832    3600.6183    15496.496   -10752.512    6057.8713   -12890.669    8257.1695   -21041.505    77.596764 
   81800      1147.16   -118.31516    1.0379745   -117.27718    4503.0188    4.2599562    4.2599562    4.2599562    4503.0188   -42315.578    25795.059    30029.576    296.47321    6183.7911    13536.907    77.306389 
   81900    1373.8244   -118.51934    1.2430652   -117.27627   -18980.175    4.2686079    4.2686079    4.2686079   -18980.175   -53645.641   -3646.6899     351.8065    14910.956    -4596.001    785.10014    77.778364 
   82000    1377.7396   -118.52737    1.2466077   -117.28076   -2864.1883    4.2697955    4.2697955    4.2697955   -2864.1883    39765.452   -36272.663   -12085.354   -7507.2684    6268.9873   -21602.509      77.8433 
   82100    1577.4573     -118.707    1.4273165   -117.27968    18743.125    4.2617466    4.2617466    4.2617466    18743.125    64622.002   -8661.8625    269.23648   -21422.483    10706.704     2960.496    77.403905 
   82200    1588.6662   -118.71221    1.4374585   -117.27476   -4736.1213    4.2642386    4.2642386    4.2642386   -4736.1213   -26958.714    17305.132   -4554.7813   -4399.0696   -3556.7361    11818.661    77.539769 
   82300    1106.0329   -118.27441    1.0007618   -117.27365   -14056.965     4.268852     4.268852     4.268852   -14056.965   -27990.843   -16362.141    2182.0895    994.77463   -9786.7083   -17822.214    77.791705 
   82400    992.44336   -118.17816   0.89798361   -117.28018    504.41461    4.2717742    4.2717742    4.2717742    504.41461   -2433.3376   -24692.552    28639.133     -15729.3    13657.731   -6945.0305    77.951569 
   82500    1795.5486   -118.89561    1.6246501   -117.27096     12050.98    4.2698492    4.2698492    4.2698492     12050.98    33953.462   -17169.304    19368.782   -10247.622    9540.5105    17799.757    77.846234 
   82600    1875.7383   -118.95849    1.6972075   -117.26128   -5767.2323    4.2679318    4.2679318    4.2679318   -5767.2323   -3282.3499   -17663.181    3643.8343    9158.7804   -6376.7388    3254.1286    77.741409 
   82700    894.22566   -118.07636   0.80911417   -117.26724   -5006.9898    4.2682713    4.2682713    4.2682713   -5006.9898   -31404.435    2308.3352     14075.13    1088.6493    6375.4825   -14627.811    77.759961 
   82800    1020.7198   -118.19043   0.92356869   -117.26686   -13707.209    4.2728923    4.2728923    4.2728923   -13707.209   -22625.283   -1526.1907   -16970.152   -1564.4341    9272.3371   -6856.8369    78.012793 
   82900    1815.2027   -118.90615    1.6424336   -117.26372   -3346.0966    4.2679938    4.2679938    4.2679938   -3346.0966    19806.709   -23512.545   -6332.4542    20056.111   -9259.7673     4411.336    77.744801 
   83000    1801.1635    -118.9004    1.6297306   -117.27067    2131.9131    4.2607734    4.2607734    4.2607734    2131.9131    30016.341   -16342.006   -7278.5957    10621.989   -9487.1697   -5951.5532    77.350891 
   83100    1105.7818   -118.27823    1.0005346   -117.27769   -4756.4085    4.2576173    4.2576173    4.2576173   -4756.4085   -12534.774    7584.4534   -9318.9051   -7426.3751    7811.8997   -12613.865    77.179125 
   83200    944.10286   -118.14099   0.85424411   -117.28674   -13608.751    4.2640562    4.2640562    4.2640562   -13608.751   -31552.904   -14343.923     5070.573    16574.564    12640.853   -9018.7663    77.529817 
   83300    1678.0054   -118.80649    1.5182945   -117.28819   -16515.725    4.2673706    4.2673706    4.2673706   -16515.725   -13311.934    -31271.77   -4963.4712    28609.982   -3889.2507    880.62368    77.710748 
   83400    1909.5625   -119.01224    1.7278122   -117.28443    4888.9607     4.254394     4.254394     4.254394    4888.9607    40088.548   -1374.1355   -24047.531   -7835.8321    1340.4354   -7041.8341     77.00397 
   83500    907.04076   -118.11069   0.82070954   -117.28998    1857.6909    4.2601816    4.2601816    4.2601816    1857.6909    1587.4791    13998.072   -10012.478    -4915.448    20550.809   -12750.343    77.318661 
   83600    1139.0488   -118.31144    1.0306353   -117.28081   -16428.301    4.2690786    4.2690786    4.2690786   -16428.301   -43372.093   -5245.1458    -667.6654     13096.21    8849.3368    1342.0651    77.804095 
   83700    1639.5984   -118.76317     1.483543   -117.27962    8236.3218    4.2661893    4.2661893    4.2661893    8236.3218    1926.8226    19061.599    3720.5438    14145.813   -8336.3727    7210.0569    77.646227 
   83800    1639.2049   -118.76484    1.4831871   -117.28165     2712.608     4.267921     4.267921     4.267921     2712.608    21758.441    18981.057   -32601.673    210.06015    10835.358   -10848.054     77.74082 
   83900    1296.0206   -118.44819    1.1726667   -117.27552    3561.1892    4.2610127    4.2610127    4.2610127    3561.1892    -21457.04    31086.488    1054.1194   -1773.9567    7198.6198   -7630.2616    77.363924 
   84000      1166.43   -118.33322    1.0554104   -117.27781   -3292.4802    4.2632379    4.2632379    4.2632379   -3292.4802   -49415.716    904.28306    38633.993    1123.4166   -5104.4239    16199.592    77.485193 
   84100    1262.8155   -118.42785     1.142622   -117.28522   -9465.6055    4.2664093    4.2664093    4.2664093   -9465.6055   -14605.849   -14085.413    294.44633   -2820.1503    764.08542     19777.15    77.658244 
   84200    1714.9578   -118.83424    1.5517298   -117.28251    7953.8979    4.2566544    4.2566544    4.2566544    7953.8979    44192.471   -1268.9351   -19061.842   -6670.2826    8423.6727   -5279.0411    77.126775 
   84300    1585.2232    -118.7165    1.4343433   -117.28215   -4037.2907    4.2607218    4.2607218    4.2607218   -4037.2907    1784.5613   -25538.964    11642.531   -17033.987     3109.019    4229.6539    77.348082 
   84400    1221.4923   -118.39113    1.1052319    -117.2859   -15652.795    4.2654363    4.2654363    4.2654363   -15652.795   -34846.876   -11570.333   -541.17615   -659.04811   -1710.5309     23161.31     77.60512 
   84500    1327.6987   -118.48671    1.2013297   -117.28538    6851.8863    4.2657102    4.2657102    4.2657102    6851.8863     7202.261    17089.189    -3735.791    7432.9525    4070.9708    5663.0085     77.62007 
   84600    1855.2536    -118.9535    1.6786724   -117.27483   -16940.662    4.2716787    4.2716787    4.2716787   -16940.662    1192.0684   -48189.878   -3824.1772   -12509.312    7655.6682   -13443.134     77.94634 
   84700    1167.0982   -118.33274    1.0560149   -117.27672    -3596.516    4.2594868    4.2594868    4.2594868    -3596.516    18075.558   -42567.483    13702.377   -1398.1145    2008.4693    18367.124    77.280837 
   84800     1015.037   -118.20141   0.91842677   -117.28298    22840.145    4.2519478    4.2519478    4.2519478    22840.145    1592.8851    11414.527    55513.024    6854.8241   -5745.5773    26233.252    76.871218 
   84900    1719.7083   -118.84431    1.5560282   -117.28828   -10765.783    4.2681226    4.2681226    4.2681226   -10765.783   -29599.837    -5541.881    2844.3673   -6197.2855   -3652.8689   -9051.7861    77.751834 
   85000    1705.2013   -118.81988    1.5429019   -117.27698   -19550.986    4.2709645    4.2709645    4.2709645   -19550.986    5088.3668   -59184.528   -4556.7966   -14157.848    9555.9054   -3728.7583    77.907253 
   85100    680.62923   -117.89646   0.61584763   -117.28061    14580.282    4.2617529    4.2617529    4.2617529    14580.282    33155.756    -11242.24    21827.329    -9782.341    3206.6336    24420.254    77.404249 
   85200     1230.938   -118.39558    1.1137786    -117.2818    -5030.177    4.2598519    4.2598519    4.2598519    -5030.177   -16077.577     11188.29   -10201.244    1026.2467   -8222.9341    6026.4799    77.300713 
   85300    2222.6178   -119.29073    2.0110713   -117.27966    600.43694    4.2600376    4.2600376    4.2600376    600.43694   -29674.537    27745.919     3729.929    -12477.48    4751.4709   -14476.605    77.310822 
   85400    1412.5818   -118.56298    1.2781337   -117.28485   -15241.018     4.268697     4.268697     4.268697   -15241.018    4971.6741   -51674.851    980.12138   -7480.3259    14369.923    10017.673    77.783233 
   85500    477.95127   -117.71605   0.43246036   -117.28359   -23252.329    4.2706727    4.2706727    4.2706727   -23252.329     27754.16   -87332.119   -10179.027    8223.4907    660.84729    18378.158    77.891285 
   85600    1607.4485   -118.72548    1.4544532   -117.27102    -5736.641    4.2620752    4.2620752    4.2620752    -5736.641     -9343.53   -34798.551    26932.158   -5987.5332   -7069.2006   -2985.7098    77.421808 
   85700     2426.752   -119.47048    2.1957762    -117.2747     855.4559    4.2557302    4.2557302    4.2557302     855.4559   -11829.309    23131.863   -8736.1855   -11403.711    4789.9488   -3919.9373     77.07655 
   85800    1057.5081   -118.24705   0.95685554   -117.29019    13037.927    4.2569821    4.2569821    4.2569821    13037.927    29407.395   -12770.551    22476.939   -1273.0997    11719.986    24846.919    77.144591 
   85900    632.87544   -117.86188     0.572639   -117.28924   -4741.5967    4.2699181    4.2699181    4.2699181   -4741.5967     15430.73   -64664.151     35008.63    2048.3607   -4092.0876    19474.418    77.850003 
   86000    1811.8273   -118.91462    1.6393794   -117.27524   -7982.0337    4.2655263    4.2655263    4.2655263   -7982.0337   -14067.183   -30155.111    20276.193   -904.38084   -5548.1329   -3657.6357    77.610035 
   86100    1946.1769   -119.04391    1.7609417   -117.28297    11287.867    4.2517273    4.2517273    4.2517273    11287.867    5519.1672    37700.049   -9355.6143   -8402.9159    21616.304    18545.642    76.859259 
   86200     878.4813   -118.09276   0.79486834    -117.2979    7803.7399    4.2533459    4.2533459    4.2533459    7803.7399    10832.506     13729.74   -1151.0267    -2102.911     10592.96    33488.474    76.947073 
   86300    1022.3358   -118.21781   0.92503092   -117.29278   -13011.628    4.2659769    4.2659769    4.2659769   -13011.628     -509.954   -56988.691     18463.76    7079.2809   -3289.5503   -3358.7728    77.634633 
   86400    1826.3495   -118.93796    1.6525194   -117.28544   -10993.591    4.2681866    4.2681866    4.2681866   -10993.591   -6626.3889   -39984.908    13630.523   -387.38804    7535.2941   -9858.6165    77.755332 
   86500    1367.0885   -118.52482    1.2369704   -117.28785    9059.0841    4.2586994    4.2586994    4.2586994    9059.0841   -8233.1251    24622.151    10788.226   -993.41569    11175.309    26476.927    77.237988 
   86600    966.42099   -118.16383   0.87443802   -117.28939    5442.4918    4.2560557    4.2560557    4.2560557    5442.4918     1519.023   -1312.5321    16120.984    7916.4898    12363.967     12844.74    77.094237 
   86700    1699.6114   -118.81761    1.5378441   -117.27976   -7529.9546    4.2610093    4.2610093    4.2610093   -7529.9546    7265.5721   -48722.242    18866.806     7297.277    2371.9435   -14359.034    77.363741 
   86800    1691.7812   -118.81777    1.5307592   -117.28701    479.14754    4.2641924    4.2641924    4.2641924    479.14754    14300.936   -11972.197   -891.29653   -3632.8278    1491.9141    12826.822    77.537246 
   86900    1118.3761   -118.30328    1.0119302   -117.29135   -7849.4764       4.2666       4.2666       4.2666   -7849.4764   -4413.1044    11113.311   -30248.636    534.14695    15581.346    35797.528    77.668658 
   87000    1261.0643   -118.42234    1.1410375    -117.2813   -10725.848    4.2593943    4.2593943    4.2593943   -10725.848   -35931.925   -942.92315    4697.3051   -3187.4633    11665.369     5037.367    77.275802 
   87100    1831.8676   -118.93882    1.6575123   -117.28131   -4947.7793    4.2560065    4.2560065    4.2560065   -4947.7793    4258.8669   -18948.189   -154.01538   -14111.947   -7687.2478   -6808.8943    77.091562 
   87200    1542.2756   -118.68923    1.3954834   -117.29374    450.14148     4.261833     4.261833     4.261833    450.14148    29902.128   -15439.251   -13112.452   -2631.4377   -5522.6786    32967.958    77.408613 
   87300    1093.2451   -118.27682   0.98919116   -117.28763    720.40783     4.265188     4.265188     4.265188    720.40783   -14944.012    7775.4673    9329.7684     1331.349    5292.4091    18471.322    77.591571 
   87400    1247.0436   -118.40438    1.1283513   -117.27603   -11243.749     4.269251     4.269251     4.269251   -11243.749   -63943.191    16869.486    13342.459   -237.75107   -1273.6661   -14377.153     77.81352 
   87500    1558.5273   -118.69133    1.4101883   -117.28114    8635.2179    4.2601504    4.2601504    4.2601504    8635.2179     2872.102   -6685.7875    29719.339    -353.7463   -944.87815    5654.5625    77.316964 
   87600    1620.1203   -118.74964    1.4659189   -117.28372    12907.064    4.2572109    4.2572109    4.2572109    12907.064    52469.742     8215.985   -21964.536   -1283.9596    3775.8062    34868.095     77.15703 
   87700    1145.7891   -118.32068     1.036734   -117.28395   -10119.906    4.2619758    4.2619758    4.2619758   -10119.906   -45629.469    23023.835   -7754.0853   -766.48805    5988.8829    1810.4729    77.416395 
   87800    1067.8486   -118.25248    0.9662119   -117.28627   -20346.021    4.2631931    4.2631931    4.2631931   -20346.021   -75018.364   -8492.0759    22472.376     -13477.4    8941.0398   -24098.954    77.482749 
   87900    1649.2435   -118.78136    1.4922702   -117.28909   -6642.9224     4.260116     4.260116     4.260116   -6642.9224    20067.607    -30290.98   -9705.3937   -3546.4191    -5638.947    15808.497    77.315093 
   88000    1694.0849   -118.82057    1.5328437   -117.28773   -3528.0969    4.2567528    4.2567528    4.2567528   -3528.0969    24199.713   -20853.916   -13930.088   -1254.5492   -11030.276    28855.476    77.132123 
   88100    1125.8752   -118.30813    1.0187156   -117.28942   -14737.087    4.2586326    4.2586326    4.2586326   -14737.087   -45113.844   -4007.5415    4910.1257   -24700.227    1632.2602   -12405.994    77.234355 
   88200    1251.1985   -118.42337    1.1321107   -117.29125    5356.9449    4.2606069    4.2606069    4.2606069    5356.9449   -29561.333    7150.9474    38481.221   -8064.1699     1835.262   -11789.351    77.341821 
   88300    1825.1071   -118.94017    1.6513953   -117.28877   -7487.9722    4.2629604    4.2629604    4.2629604   -7487.9722    6147.5312   -27172.863   -1438.5851    21723.315   -3091.5799    17047.723    77.470058 
   88400    1345.7712   -118.50408     1.217682    -117.2864   -718.18082     4.259341     4.259341     4.259341   -718.18082    27487.716   -2318.2901   -27323.968   -17246.376   -7627.8397    5127.9326    77.272906 
   88500    1071.0864   -118.25663   0.96914151   -117.28749    3469.8912    4.2588556    4.2588556    4.2588556    3469.8912   -24594.226    13266.039     21737.86   -30256.006    5610.9172   -8723.5055     77.24649 
   88600    1665.5034   -118.79239    1.5069824   -117.28541    -11010.35    4.2625859    4.2625859    4.2625859    -11010.35   -48605.467   -16359.371    31933.787    19459.045    9786.6753   -776.18978    77.449647 
   88700    1549.7833    -118.6874    1.4022765   -117.28513   -5956.4478    4.2622447    4.2622447    4.2622447   -5956.4478    22233.123   -23990.291   -16112.175    10963.597    624.78995    3555.2398    77.431048 
   88800    794.38666   -118.00866   0.71877775   -117.28988   -12971.945    4.2649819    4.2649819    4.2649819   -12971.945    18541.229   -36174.158   -21282.906   -47022.801    2075.5153    10061.933    77.580319 
   88900    1456.9615   -118.60319    1.3182894    -117.2849   -6383.3247    4.2557842    4.2557842    4.2557842   -6383.3247   -18471.651   -18552.279    17873.955   -19534.348    10374.345    9717.6374    77.079483 
   89000    2338.3534   -119.40012    2.1157913   -117.28432    193.88175    4.2543134    4.2543134    4.2543134    193.88175    2791.3087   -15924.164      13714.5    17432.256    7843.2016    8200.9565    76.999597 
   89100    1040.2948   -118.23854   0.94128063   -117.29726   -10697.076    4.2658892    4.2658892    4.2658892   -10697.076    25070.067   -49110.882   -8050.4126   -35933.589    6899.2507    6305.8879    77.629843 
   89200    457.59674   -117.71022   0.41404315   -117.29618    1720.1399    4.2598185    4.2598185    4.2598185    1720.1399    53814.503   -27044.625   -21609.458   -32549.384     4522.468    6325.6376    77.298896 
   89300    1759.6282   -118.87851    1.5921486   -117.28636   -132.24711    4.2552229    4.2552229    4.2552229   -132.24711    17849.004   -17753.404   -492.34143    20781.541    7986.7107    9693.0479    77.048989 
   89400     2131.892   -119.21944    1.9289806   -117.29046   -5486.2585    4.2597389    4.2597389    4.2597389   -5486.2585   -18587.476   -27479.909    29608.609   -9729.9927    12419.768     401.3482    77.294565 
   89500    1179.5171    -118.3584    1.0672519   -117.29115   -6378.6877     4.261664     4.261664     4.261664   -6378.6877    3470.0723    5938.7021   -28544.838    -35278.58    5876.4345   -12312.876    77.399402 
   89600    774.95897   -117.98785   0.70119916   -117.28665   -18343.572    4.2635148    4.2635148    4.2635148   -18343.572     22269.46   -14388.452   -62911.723    6687.7972   -3998.5432    9590.4636    77.500287 
   89700    1412.7224   -118.56681     1.278261   -117.28855    4978.5305    4.2599099    4.2599099    4.2599099    4978.5305     8688.228   -16604.664    22852.027    17152.023    8199.3924    7290.9938    77.303872 
   89800    2057.5857    -119.1497    1.8617468   -117.28795    2850.7649    4.2592409    4.2592409    4.2592409    2850.7649    -20058.14   -14351.815    42962.249   -17257.931    10723.503     -13126.7    77.267453 
   89900    1513.7527   -118.65095    1.3696752   -117.28128   -1142.0001    4.2637997    4.2637997    4.2637997   -1142.0001   -9436.5369   -5192.5801    11203.117   -13013.192   -2347.7555      6914.18    77.515825 
   90000    569.38429   -117.80046   0.51519087   -117.28527   -243.54951    4.2687744    4.2687744    4.2687744   -243.54951    23314.891   -2577.6043   -21467.935    14671.604   -5438.6698    19492.845    77.787462 
   90100    1111.2788   -118.28948    1.0055084   -117.28397   -11595.932    4.2661778    4.2661778    4.2661778   -11595.932    11501.236   -31017.187   -15271.846    4326.4268    1038.2039   -11758.023      77.6456 
   90200    2392.8022   -119.43595    2.1650577   -117.27089   -10058.119    4.2597096    4.2597096    4.2597096   -10058.119    -31664.48   -23293.244    24783.368   -15572.414    8216.4316    -25346.52    77.292969 
   90300    1689.4186   -118.80495    1.5286214   -117.27632   -15750.937    4.2683024    4.2683024    4.2683024   -15750.937   -14958.271   -21662.906   -10631.633   -112.50104    14874.586    64.248888    77.761662 
   90400    566.70284   -117.79391   0.51276464   -117.28115   -4129.5605    4.2685217    4.2685217    4.2685217   -4129.5605    36842.809    127.14298   -49358.634    14125.389   -3489.7794    9219.5509    77.773651 
   90500    1302.2968   -118.45011    1.1783455   -117.27177   -287.27295    4.2664905    4.2664905    4.2664905   -287.27295    8645.7427    14751.291   -24258.852   -984.55855   -5304.1303   -9534.1136    77.662677 
   90600    2037.9369   -119.11126    1.8439681   -117.26729   -16506.578    4.2673546    4.2673546    4.2673546   -16506.578   -55161.832   -18173.737    23815.834   -9717.1744    10456.968   -1709.4218    77.709872 
   90700    1359.5105   -118.50584    1.2301137   -117.27573    14536.567    4.2568462    4.2568462    4.2568462    14536.567   -14061.074    14546.027    43124.747    3856.2485    12195.161    16020.727    77.137204 
   90800    978.78592   -118.17033   0.88562607   -117.28471    23999.923    4.2631594    4.2631594    4.2631594    23999.923    47091.743    10746.038    14161.989    8883.8768    2764.0551    3203.2046    77.480912 
   90900     1654.398    -118.7703     1.496934   -117.27336   -15917.071    4.2692499    4.2692499    4.2692499   -15917.071    4678.0202   -19153.628   -33275.604   -3660.5697    2318.8832   -601.36561    77.813462 
   91000    1551.8323    -118.6831    1.4041305   -117.27897    1519.0616    4.2578669    4.2578669    4.2578669    1519.0616   -45654.128    33497.884    16713.428   -1264.3455    13651.708   -2788.8531    77.192704 
   91100    1029.6241     -118.224   0.93162553   -117.29237     7541.288    4.2577973    4.2577973    4.2577973     7541.288   -34062.297    21546.772    35139.389    12566.605    6506.9409   -1243.0845    77.188919 
   91200    1347.6238    -118.5073    1.2193583   -117.28794   -6105.6567     4.263458     4.263458     4.263458   -6105.6567    5620.7551   -17541.414   -6396.3107    4073.6262   -3457.7176    -1486.871    77.497193 
   91300    1854.3659   -118.95397    1.6778692    -117.2761   -14235.577    4.2643549    4.2643549    4.2643549   -14235.577   -943.29723   -1181.1658   -40582.267   -1517.8021    1381.7138   -12315.884    77.546113 
   91400    1179.6216   -118.35455    1.0673464    -117.2872    6530.5478    4.2613432    4.2613432    4.2613432    6530.5478   -18237.838   -11105.551    48935.032    11762.687    4843.7228    6179.6996    77.381926 
   91500     1134.566   -118.31295    1.0265791   -117.28638    15211.451    4.2613585    4.2613585    4.2613585    15211.451   -42514.506    27199.492    60949.368    12635.515   -2488.0738    19457.972    77.382763 
   91600    1688.0739   -118.80537    1.5274047   -117.27796    -5861.058    4.2683882    4.2683882    4.2683882    -5861.058   -27596.496    31995.759   -21982.437   -7115.3762   -3739.3139    5131.9223    77.766351 
   91700    1568.7928   -118.69232    1.4194767   -117.27284   -5958.7189    4.2670567    4.2670567    4.2670567   -5958.7189    19246.543   -18597.241   -18525.459    4744.1417    5685.9923     1701.717    77.693601 
   91800    908.18515   -118.10005   0.82174501   -117.27831    6190.6235    4.2670209    4.2670209    4.2670209    6190.6235    16901.459    7540.4632   -5870.0514    18381.552     2183.704    2074.5054    77.691641 
   91900    1334.7791   -118.48092    1.2077362   -117.27319   -1194.5336    4.2696229    4.2696229    4.2696229   -1194.5336   -7985.9569    1058.0908    3344.2653   -2775.3106    -2752.286    8368.4414    77.833857 
   92000    1831.5527   -118.92562    1.6572273   -117.26839    3980.1022    4.2655934    4.2655934    4.2655934    3980.1022    13823.502   -9275.8225    7392.6272   -9078.4371   -36.146691   -7586.9934    77.613697 
   92100    1447.3815   -118.58439    1.3096212   -117.27477   -17076.832    4.2685239    4.2685239    4.2685239   -17076.832    19877.317   -47048.073   -24059.741    11731.618    5946.3741   -1936.6069     77.77377 
   92200    1048.2923   -118.22494   0.94851687   -117.27642    -8016.631    4.2673201    4.2673201    4.2673201    -8016.631   -5433.5683   -18390.823   -225.50155    1315.8964    1353.5757    16471.272    77.707988 
   92300    1375.1883   -118.51724    1.2442993   -117.27295     10043.73    4.2598348    4.2598348    4.2598348     10043.73   -52456.407    43934.428    38653.171   -8331.3642   -1106.3351    3421.7643    77.299782 
   92400    1584.0538   -118.71358    1.4332851    -117.2803       3678.7    4.2600687    4.2600687    4.2600687       3678.7   -5634.3317   -917.31186    17587.744    20990.889    5629.4461   -2341.7643    77.312517 
   92500     1528.457   -118.66752      1.38298   -117.28454    9118.9196    4.2651161    4.2651161    4.2651161    9118.9196    29446.783   -12998.127    10908.104    30991.917    351.52834    6115.5388    77.587645 
   92600    1598.7471    -118.7269      1.44658   -117.28032   -261.59915    4.2652215    4.2652215    4.2652215   -261.59915   -15485.244    3731.2596    10969.187   -3873.4359    1367.5042     1446.025    77.593399 
   92700     1188.116   -118.35757    1.0750323   -117.28253    7341.6435    4.2583895    4.2583895    4.2583895    7341.6435   -45894.138    34898.723    33020.345    11729.623   -2958.8189    586.09962    77.221129 
   92800    1153.7165   -118.33087    1.0439069   -117.28696    12153.628    4.2518237    4.2518237    4.2518237    12153.628    -43091.93    46074.059    33478.756     32066.63   -1155.7101   -2405.4114    76.864488 
   92900    1724.4194   -118.85231    1.5602909   -117.29202   -6529.7659    4.2598836    4.2598836    4.2598836   -6529.7659   -1119.4472   -9646.9088   -8822.9415   -3549.1151    4588.0489    4383.3937    77.302438 
   93000    1458.6631   -118.61358     1.319829   -117.29375   -3100.9973    4.2683893    4.2683893    4.2683893   -3100.9973    -5067.744    4462.5003   -8697.7483   -17158.774   -4490.6566    11665.024    77.766415 
   93100    1266.4042   -118.42918    1.1458691   -117.28332   -10404.359     4.263978     4.263978     4.263978   -10404.359   -73153.659      36707.5    5233.0802    14791.626    -3356.392    9367.4327    77.525551 
   93200    1348.0298   -118.49658    1.2197257   -117.27686   -5606.2284    4.2583583    4.2583583    4.2583583   -5606.2284    -62036.73    32832.103    12385.942    7556.1633    388.06193   -6189.8136    77.219429 
   93300    1349.7438      -118.51    1.2212766   -117.28872    1413.9347    4.2601182    4.2601182    4.2601182    1413.9347    7401.0433   -5807.9263    2648.6871   -21874.114   -6139.0872    2249.7034    77.315212 
   93400    1511.4438   -118.66001    1.3675861   -117.29242   -1474.9826    4.2682113    4.2682113    4.2682113   -1474.9826   -13917.893    21921.334   -12428.389   -13866.882   -11655.277     292.2652    77.756685 
   93500     1777.478   -118.88454    1.6082994   -117.27624   -9302.0886    4.2687725    4.2687725    4.2687725   -9302.0886   -44218.962    1796.5568     14516.14    2214.2571   -1818.6509   -8030.3336    77.787358 
   93600    939.71377   -118.12478   0.85027276   -117.27451    20257.345    4.2597916    4.2597916    4.2597916    20257.345   -36214.478    42098.453    54888.059   -11178.896    5676.7604    8133.9197    77.297432 
   93700     929.8891    -118.1261    0.8413832   -117.28472   -902.65743    4.2656905    4.2656905    4.2656905   -902.65743   -33777.158    16398.942    14670.243   -20599.317   -7090.3993    7727.2623    77.618997 
   93800    1978.0864   -119.06885    1.7898142   -117.27904   -13939.481    4.2698188    4.2698188    4.2698188   -13939.481    1700.2749   -16102.274   -27416.445    4291.2685   -2207.9246   -3372.0201    77.844571 
   93900    1956.5472   -119.04205     1.770325   -117.27173    -2077.987    4.2583189    4.2583189    4.2583189    -2077.987   -847.32799   -24626.207    19239.574    20170.842    1079.5062   -6126.4839    77.217291 
   94000    773.98106   -117.98075   0.70031433   -117.28043   -8763.7343     4.258247     4.258247     4.258247   -8763.7343   -60006.634    8182.3536    25533.078   -3730.8589   -3566.5519    5782.9021    77.213376 
   94100    898.69418   -118.10034   0.81315738   -117.28718   -7002.4632     4.262806     4.262806     4.262806   -7002.4632   -41725.029     16508.81    4208.8291   -5835.7931   -27545.929    9135.0286    77.461642 
   94200    2021.8116   -119.11367    1.8293776   -117.28429    9309.2844     4.262404     4.262404     4.262404    9309.2844    18492.137   -5742.0419    15177.758    17818.443   -8136.8813    2799.8028    77.439732 
   94300    2067.9557      -119.15    1.8711298   -117.27887   -14671.682    4.2686487    4.2686487    4.2686487   -14671.682   -7929.9345   -30677.956   -5407.1541    11376.966    10225.654    5152.5822    77.780594 
   94400    773.02761   -117.97491   0.69945163   -117.27546    -11711.24    4.2677182    4.2677182    4.2677182    -11711.24   -46335.795    20.943357    11181.131   -16044.707   -12476.003    5867.3303    77.729737 
   94500    667.13294   -117.87946    0.6036359   -117.27582    15048.693    4.2676319    4.2676319    4.2676319    15048.693   -7953.3762    35049.848    18049.606   -8661.3191   -14910.315    5051.6404    77.725023 
   94600    1947.6446   -119.02874    1.7622698   -117.26647   -911.39517    4.2745213    4.2745213    4.2745213   -911.39517    7685.9164    3789.0727   -14209.175    8361.6714      -1560.9    3855.3058    78.102055 
   94700    2010.4124   -119.08433    1.8190634   -117.26526    5195.1374    4.2690587    4.2690587    4.2690587    5195.1374    23473.476    20720.766   -28608.829   -3627.8431   -11420.495    1211.8359    77.803008 
   94800    1079.1623   -118.24378   0.97644872   -117.26733   -7289.9374    4.2719551    4.2719551    4.2719551   -7289.9374   -48608.956    21063.262    5675.8821   -11749.035   -11980.568     11506.25    77.961475 
   94900    844.59656    -118.0262   0.76420872   -117.26199   -15075.928    4.2729427    4.2729427    4.2729427   -15075.928   -84247.243   -3380.5182    42399.978    7755.0996   -1988.6487   -3048.8615    78.015554 
   95000     1348.148   -118.48128    1.2198326   -117.26145    14826.362    4.2648537    4.2648537    4.2648537    14826.362   -24648.505    25243.065    43884.524    19344.122   -11407.808    8103.9213    77.573329 
   95100    1940.1645    -119.0283    1.7555016    -117.2728   -6374.8755    4.2683648    4.2683648    4.2683648   -6374.8755    14020.319   -14665.663   -18479.282   -6996.7097   -21069.564    10917.102    77.765073 
   95200    1573.8437   -118.69913    1.4240469   -117.27508   -22153.098    4.2679034    4.2679034    4.2679034   -22153.098   -28246.014   -13497.507   -24715.773    866.86681    730.26015   -4253.9923    77.739861 
   95300    835.98138   -118.03142   0.75641352   -117.27501    20432.079    4.2535718    4.2535718    4.2535718    20432.079   -30831.998    54020.049    38108.186    24628.198    4007.0571    7297.3312    76.959337 
   95400    1125.0504   -118.30487    1.0179693    -117.2869    169.62756    4.2590568    4.2590568    4.2590568    169.62756   -46793.976     31904.55    15398.309   -5258.0962   -14083.402   -2242.6472    77.257438 
   95500    2090.3432    -119.1786    1.8913865   -117.28721   -9491.1619    4.2638534    4.2638534    4.2638534   -9491.1619   -13362.054    8511.0689     -23622.5    3678.7128     -10303.5   -1893.2424    77.518754 
   95600    1694.2191   -118.82341    1.5329651   -117.29045     5259.198    4.2586761    4.2586761    4.2586761     5259.198    -9321.323    30918.554   -5819.6366    29227.749    7212.2095    5353.7573    77.236723 
   95700    777.48292   -117.99896   0.70348288   -117.29548   -13069.792      4.25851      4.25851      4.25851   -13069.792   -77008.991    24616.013    13183.604    11839.553   -2717.1595   -5478.6773    77.227683 
   95800    1153.3031   -118.33577    1.0435329   -117.29223    7469.7973    4.2550636    4.2550636    4.2550636    7469.7973   -36096.909     49310.12    9196.1808   -7242.8412   -21818.532    3083.8661    77.040334 
   95900    2024.7305   -119.12733    1.8320187   -117.29531   -2467.2924    4.2623306    4.2623306    4.2623306   -2467.2924    16213.395    10743.968    -34359.24    6401.3887   -6361.2646    5719.9028     77.43573 
   96000    1422.9324   -118.57979    1.2874991   -117.29229   -8163.8801    4.2657053    4.2657053    4.2657053   -8163.8801   -1943.8416   -1864.3238   -20683.475    22342.057    6079.2128   -2954.2337    77.619806 
   96100    849.42286   -118.05725   0.76857566   -117.28868    5362.6309    4.2533706    4.2533706    4.2533706    5362.6309   -38303.266    34100.587    20290.572   -9012.4168   -12668.318    -673.2767    76.948417 
   96200    1424.2523   -118.57968    1.2886934   -117.29099   -7180.4266    4.2602412    4.2602412    4.2602412   -7180.4266   -50544.934    30866.337   -1862.6832   -16408.864   -16704.362     5146.685    77.321909 
   96300    1869.2984   -118.97973    1.6913805   -117.28835   -17316.873     4.262243     4.262243     4.262243   -17316.873   -7338.4193   -9151.2623   -35460.937    23100.034    6389.7582    1360.4271    77.430957 
   96400    1392.9992   -118.55071     1.260415    -117.2903   -2558.6658    4.2562721    4.2562721    4.2562721   -2558.6658   -4787.9124   -445.61671   -2442.4684    11050.039     1973.196   -2002.4667    77.105999 
   96500    1121.7874   -118.31099    1.0150168   -117.29597   -7496.4867    4.2641375    4.2641375    4.2641375   -7496.4867   -62711.248    18986.853    21234.934   -18866.846   -16144.742    1187.1473    77.534251 
   96600    1442.9968   -118.59437    1.3056538   -117.28872   -4439.4171    4.2613822    4.2613822    4.2613822   -4439.4171   -39671.785    17151.014    9202.5199    -5074.412    328.76475    4150.5528    77.384049 
   96700    1361.8863   -118.51815    1.2322633   -117.28589    10225.041    4.2605567    4.2605567    4.2605567    10225.041    9790.2302   -1321.0615    22205.953    10178.621    23327.337    2525.5698    77.339086 
   96800    1484.0713   -118.62669    1.3428189   -117.28387   -7984.4486    4.2683318    4.2683318    4.2683318   -7984.4486    -2714.497   -32381.945    11143.097   -12816.321   -877.85888   -314.61428     77.76327 
   96900    1513.9722   -118.64874    1.3698738   -117.27886    6416.9161    4.2643155    4.2643155    4.2643155    6416.9161   -45249.472      10188.9    54311.321   -15030.233   -13159.333   -315.57783    77.543959 
   97000    1239.1864   -118.40152    1.1212419   -117.28028   -13426.389    4.2671019    4.2671019    4.2671019   -13426.389   -72300.484    26587.893    5433.4238    2518.6377    21329.505     7695.354    77.696067 
   97100    1172.1867   -118.33838    1.0606192   -117.27776   -12941.543     4.262707     4.262707     4.262707   -12941.543   -603.93939   -3796.9043   -34423.785   -4934.0904    16706.878   -5699.4355    77.456246 
   97200    1709.6059   -118.82716    1.5468873   -117.28027    19203.102    4.2537151    4.2537151    4.2537151    19203.102    45447.994    2415.9742    9745.3362   -25938.671   -1466.1287   -1227.9264    76.967115 
   97300    1486.7384   -118.63662    1.3452321   -117.29139   -176.32935    4.2651072    4.2651072    4.2651072   -176.32935   -29981.435     14102.57    15349.877   -11167.971    12757.942    7806.5652    77.587159 
   97400    1079.5131   -118.26099   0.97676613   -117.28423   -2692.7386    4.2657683    4.2657683    4.2657683   -2692.7386   -42741.029    20231.941    14430.872    8676.7541    20868.354   -2591.4203    77.623241 
   97500    1393.7268   -118.53957    1.2610733   -117.27849    6811.7064    4.2615756    4.2615756    4.2615756    6811.7064   -7950.3192    13039.828     15345.61   -7434.7256    4037.8279    1320.0896     77.39459 
   97600    1880.9878   -118.98434    1.7019573   -117.28239   -8095.8113     4.270965     4.270965     4.270965   -8095.8113     -6827.26   -3373.2247   -14086.949   -11643.269    3461.7387    4913.7068    77.907278 
   97700    1368.2069   -118.51611    1.2379824   -117.27813    5486.5921    4.2678917    4.2678917    4.2678917    5486.5921   -34523.694    38319.737    12663.733    3474.5565    16927.159   -2207.5386    77.739218 
   97800     806.6065   -118.00462   0.72983451   -117.27479    12451.606    4.2608502    4.2608502    4.2608502    12451.606   -60416.449    59292.596    38478.671    -3593.999     6427.108   -1344.1329    77.355071 
   97900    1431.1637   -118.57029     1.294947   -117.27534   -23952.798    4.2730809    4.2730809    4.2730809   -23952.798   -48712.135   -16434.242   -6712.0163   -17371.693   -6562.2503    4272.5836    78.023125 
   98000    2082.0103   -119.15674    1.8838466   -117.27289   -6348.5431    4.2664363    4.2664363    4.2664363   -6348.5431   -7039.5957   -21778.988    9772.9544   -6196.0076    17110.689    2442.7545    77.659714 
   98100    1510.6892   -118.64368    1.3669034   -117.27678    12546.708    4.2618944    4.2618944    4.2618944    12546.708   -31960.272    34025.025    35575.371    498.05616    10923.065    144.37573    77.411956 
   98200    861.93257   -118.05563    0.7798947   -117.27574   -9166.2633    4.2714704    4.2714704    4.2714704   -9166.2633   -73053.593    26164.042     19390.76     -5888.91   -13762.122   -7157.6305    77.934942 
   98300    1094.7038   -118.26447   0.99051098   -117.27395    15601.524    4.2600685    4.2600685    4.2600685    15601.524   -36267.815    43907.938    39164.448   -4968.9801    4933.4103   -1112.8056    77.312505 
   98400    1747.4972   -118.86756    1.5811722   -117.28639    1001.5178    4.2603609    4.2603609    4.2603609    1001.5178   -13966.675    19876.628      -2905.4    7603.0031    22022.563    4226.1652    77.328427 
   98500    1827.9442   -118.93771    1.6539623   -117.28374   -23769.996    4.2703563    4.2703563    4.2703563   -23769.996   -19661.573   -23177.456   -28470.959    9102.1593    9411.7057    8377.5579    77.873972 
   98600    1282.7836   -118.43133    1.1606896   -117.27064   -5228.3346    4.2635995    4.2635995    4.2635995   -5228.3346    -35632.57    4675.4511    15272.115   -3660.6573    6032.3166   -2341.2655    77.504906 
   98700    740.43541   -117.95104   0.66996152   -117.28108   -1384.4775    4.2639758    4.2639758    4.2639758   -1384.4775   -43935.511    39506.227     275.8513   -9505.2518    22269.986    1319.6906    77.525429 
   98800    1415.7286   -118.56409     1.280981   -117.28311    5178.5569    4.2683445    4.2683445    4.2683445    5178.5569     21531.09    3852.0383   -9847.4571   -11226.915    9218.3791     5641.076    77.763962 
   98900    2236.0444   -119.29409      2.02322   -117.27087   -9927.6755    4.2720858    4.2720858    4.2720858   -9927.6755    11978.242   -32739.307   -9021.9609    -1518.349   -10143.572   -26.130551    77.968632 
   99000    1251.4777    -118.3991    1.1323634   -117.26674    -19652.09    4.2767131    4.2767131    4.2767131    -19652.09   -44381.969   -5518.6792   -9055.6222    1581.9873   -1282.8497   -1365.7154     78.22226 
   99100    555.46648   -117.76884   0.50259774   -117.26624    608.34455    4.2671067    4.2671067    4.2671067    608.34455   -51452.082    50130.486    3146.6296   -7256.5892    5190.0023    1327.1358    77.696328 
   99200    1667.8427   -118.77066    1.5090991   -117.26156    14407.645    4.2568456    4.2568456    4.2568456    14407.645   -10837.689    36716.629    17343.994   -9210.1527   -1839.3167    9028.6628    77.137171 
   99300    2084.2162   -119.15942    1.8858426   -117.27358   -4352.6752    4.2644334    4.2644334    4.2644334   -4352.6752    14926.959    -15451.26   -12533.725    5086.1998    -3695.217    -2162.582    77.550397 
   99400    1263.7784   -118.42635    1.1434933   -117.28285    -8574.894    4.2695639    4.2695639    4.2695639    -8574.894   -25112.428   -6.1640565   -606.08976    4494.5328    10778.658   -7292.5065    77.830634 
   99500    959.23407   -118.14651   0.86793515   -117.27858    12451.433    4.2623684    4.2623684    4.2623684    12451.433   -59321.702      45613.1    51062.901   -2034.9866     5210.061    501.90384     77.43779 
   99600    1587.8539   -118.70979    1.4367236   -117.27307    3958.3683    4.2578044    4.2578044    4.2578044    3958.3683   -46947.086    25766.586    33055.604    1536.4202   -6072.7602    2122.8477    77.189306 
   99700      1668.95   -118.79535     1.510101   -117.28525    5464.8553    4.2590816    4.2590816    4.2590816    5464.8553    4402.6251   -1349.1232    13341.064    5071.0739    10409.615   -2291.7501    77.258789 
   99800    1265.1843   -118.44155    1.1447654   -117.29678   -931.28304    4.2628557    4.2628557    4.2628557   -931.28304   -5183.1209    12624.332    -10235.06    3506.0097    8227.4092    725.68421    77.464354 
   99900    1206.2303    -118.3851    1.0914226   -117.29368   -5128.8206    4.2597778    4.2597778    4.2597778   -5128.8206   -54784.533    30156.921    9241.1502   -2210.7857   -10114.843    1358.5793    77.296678 
  100000    1417.0551   -118.56696    1.2821813   -117.28478    5659.4349    4.2577678    4.2577678    4.2577678    5659.4349   -61715.006    35480.184    43213.126   -6316.2629    -2019.186   -636.10871    77.187312 
Loop time of 221.712 on 1 procs for 100000 steps with 8 atoms

Pair  time (%) = 75.8691 (34.2196)
Kspce time (%) = 54.2173 (24.4539)
Neigh time (%) = 0.265487 (0.119744)
Comm  time (%) = 11.6524 (5.25564)
Outpt time (%) = 0.314324 (0.141771)
Other time (%) = 79.3937 (35.8093)

Nlocal:    8 ave 8 max 8 min
Histogram: 1 0 0 0 0 0 0 0 0 0
Nghost:    2189 ave 2189 max 2189 min
Histogram: 1 0 0 0 0 0 0 0 0 0
Neighs:    2346 ave 2346 max 2346 min
Histogram: 1 0 0 0 0 0 0 0 0 0

Total # of neighbors = 2346
Ave neighs/atom = 293.25
Neighbor list builds = 438
Dangerous builds = 0
unfix 20
unfix 21
print "seeds:4065415"
seeds:4065415
