LAMMPS (10 Feb 2015)
# ---- initialize simulations
clear
units metal
dimension 3
boundary p p p
atom_style charge
atom_modify map array
# ---- create atoms
read_data /Users/eugeneragasa/pyflamestk_git/pypospack/tests/tests_integration/workflow/WorkflowLammpsThermalExpansion/param_3867/MgO_NaCl_unit.npt.T700/lammps.structure
  triclinic box = (0 0 0) to (4.2565 4.2565 4.2565) with tilt (0 0 0)
  1 by 1 by 1 MPI processor grid
  reading atoms ...
  8 atoms
# ---- define interatomic potential
include potential.mod
mass 1 24.305
mass 2 15.999

group Mg type 1
4 atoms in group Mg
group O type 2
4 atoms in group O

set group Mg charge 1.73479148785
  4 settings made for charge
set group O charge -1.73479148785
  4 settings made for charge

variable R_cut equal 10.0

pair_style buck/coul/long ${R_cut}
pair_style buck/coul/long 10
pair_coeff 1 1 0.0 0.5 0.0 ${R_cut}
pair_coeff 1 1 0.0 0.5 0.0 10
pair_coeff 1 2 1225.32983502 0.291530354982 0.0 ${R_cut}
pair_coeff 1 2 1225.32983502 0.291530354982 0.0 10
pair_coeff 2 2 16858.6500597 0.120403294253 7.45918898041 ${R_cut}
pair_coeff 2 2 16858.6500597 0.120403294253 7.45918898041 10

kspace_style pppm 1.0e-5

neighbor 1.0 bin
neigh_modify every 1 delay 0 check yes
# ---- define settings
compute eng all pe/atom
compute eatoms all reduce sum c_eng
# ---- run minimization
reset_timestep 0
fix 1 all box/relax iso 0.0 vmax 0.001
thermo 10
thermo_style custom step pe lx ly lz xy xz yz press pxx pyy pzz pxy pxz pyz c_eatoms
min_style cg
minimize 1e-25 1e-25 5000 10000
PPPM initialization ...
  G vector (1/distance) = 0.3534
  grid = 8 8 8
  stencil order = 5
  estimated absolute RMS force accuracy = 4.23269e-05
  estimated relative force accuracy = 2.93944e-06
  using double precision FFTs
  3d grid and FFT values/proc = 3375 512
Neighbor list info ...
  1 neighbor list requests
  update every 1 steps, delay 0 steps, check yes
  master list distance cutoff = 11
Memory usage per processor = 4.06549 Mbytes
Step PotEng Lx Ly Lz Xy Xz Yz Press Pxx Pyy Pzz Pxy Pxz Pyz eatoms 
       0   -122.62677       4.2565       4.2565       4.2565            0            0            0    18600.794    18600.794    18600.794    18600.794 4.9707872e-11 4.7042733e-11 1.8950886e-10   -122.62677 
       5   -122.63132    4.2712858    4.2712858    4.2712858            0            0            0   -6.7076035   -6.7076035   -6.7076035   -6.7076035 9.5134085e-11 4.9732958e-12 8.6603347e-11   -122.63132 
Loop time of 0.00796199 on 1 procs for 5 steps with 8 atoms

Minimization stats:
  Stopping criterion = linesearch alpha is zero
  Energy initial, next-to-last, final = 
        -122.626768711     -122.631316441     -122.631316441
  Force two-norm initial, final = 2.68597 0.0019334
  Force max component initial, final = 2.68596 0.000975322
  Final line search alpha, max atom move = 0.00390625 3.80985e-06
  Iterations, force evaluations = 5 22

Pair  time (%) = 0.00222182 (27.9054)
Kspce time (%) = 0.00137901 (17.32)
Neigh time (%) = 0 (0)
Comm  time (%) = 0.000249863 (3.13819)
Outpt time (%) = 0 (0)
Other time (%) = 0.00411129 (51.6365)

Nlocal:    8 ave 8 max 8 min
Histogram: 1 0 0 0 0 0 0 0 0 0
Nghost:    2189 ave 2189 max 2189 min
Histogram: 1 0 0 0 0 0 0 0 0 0
Neighs:    2344 ave 2344 max 2344 min
Histogram: 1 0 0 0 0 0 0 0 0 0

Total # of neighbors = 2344
Ave neighs/atom = 293
Neighbor list builds = 0
Dangerous builds = 0
unfix 1
# ---- define output variables ----
variable natoms equal "count(all)"
variable tot_energy equal "c_eatoms"
variable length_x equal "lx"
variable length_y equal "ly"
variable length_z equal "lz"
variable tilt_xy equal "xy"
variable tilt_xz equal "xz"
variable tilt_yz equal "yz"
variable tot_press equal "press"
variable press_xx equal "pxx"
variable press_yy equal "pyy"
variable press_zz equal "pzz"
variable press_xy equal "pxy"
variable press_xz equal "pxz"
variable press_yz equal "pyz"

# ---- output ----
print "pypospack:output_section:begin"
pypospack:output_section:begin
print "tot_energy = ${tot_energy}"
tot_energy = -122.631316441343
print "num_atoms = ${natoms}"
num_atoms = 8
print "xx = ${length_x}"
xx = 4.27128583299446
print "yy = ${length_y}"
yy = 4.27128583299446
print "zz = ${length_z}"
zz = 4.27128583299446
print "xy = ${tilt_xy}"
xy = 0
print "xz = ${tilt_xz}"
xz = 0
print "yz = ${tilt_yz}"
yz = 0
print "tot_press = ${tot_press}"
tot_press = -6.70760353710228
print "pxx = ${press_xx}"
pxx = -6.70760353705429
print "pyy = ${press_yy}"
pyy = -6.70760353725253
print "pzz = ${press_zz}"
pzz = -6.70760353700002
print "pxy = ${press_xy}"
pxy = 9.51340852761742e-11
print "pxz = ${press_xz}"
pxz = 4.97329584958765e-12
print "pyz = ${press_yz}"
pyz = 8.66033470907354e-11
print "pypospack:output_section:done"
pypospack:output_section:done
print "pypospack:lammps_sim:done"
pypospack:lammps_sim:done
#------------------------------------------------------------------------------
# RUN THERMOSTAT
# running using an NPT Nose-Hoover style thermostat
#------------------------------------------------------------------------------
variable tempdamp equal 0.1
variable pressdamp equal 1.0
# set initial velocities
velocity all create 700 2413289 mom yes dist gaussian loop all
# fix for Nose-Hoover style thermostat
fix 20 all npt temp 700 700 0.1 aniso 0.0 0.0 1.0 drag 1.0 couple xyz
variable boxx equal lx
variable boxy equal ly
variable boxz equal lz
variable boxp equal press
variable boxt equal temp
# calculate averages every 10000 steps
reset_timestep 0
fix 21 all ave/time 10 10 100 v_boxx v_boxy v_boxz v_boxp v_boxt file lattice.out
thermo_style custom step temp pe ke etotal press lx ly lz press pxx pyy pzz pxy pxz pyz vol
thermo_modify flush yes
thermo 100
run 100000
PPPM initialization ...
  G vector (1/distance) = 0.353246
  grid = 8 8 8
  stencil order = 5
  estimated absolute RMS force accuracy = 4.26311e-05
  estimated relative force accuracy = 2.96057e-06
  using double precision FFTs
  3d grid and FFT values/proc = 3375 512
Memory usage per processor = 3.06549 Mbytes
Step Temp PotEng KinEng TotEng Press Lx Ly Lz Press Pxx Pyy Pzz Pxy Pxz Pyz Volume 
       0          700   -122.63132   0.63337471   -121.99795     8674.382    4.2712858    4.2712858    4.2712858     8674.382    7356.5514    4749.6104    13916.984   -2080.5824   -872.10446   -3741.2434    77.924838 
     100      310.762   -122.19284   0.28118399   -121.91165    3050.1505    4.2897213    4.2897213    4.2897213    3050.1505     12007.93   -5508.0575     2650.579    813.94786    4004.8869    4152.6551    78.938202 
     200    387.32512   -122.09793   0.35045991   -121.74747   -11524.583    4.2904563    4.2904563    4.2904563   -11524.583   -21.747685   -16879.743   -17672.258   -162.34198   -12424.293      17453.3    78.978783 
     300      328.409   -121.88543   0.29715136   -121.58828    10396.214    4.2864005    4.2864005    4.2864005    10396.214    1572.4646   -11451.628    41067.805   -1339.3849   -5166.6384    7305.5057    78.755017 
     400    842.94811   -122.23306   0.76271716   -121.47035    410.33416    4.2945878    4.2945878    4.2945878    410.33416    1310.4108   -13523.434    13444.026    3066.9038    3472.1481   -3413.7841    79.207165 
     500    827.61786     -122.146   0.74884603   -121.39715    10006.744    4.2940658    4.2940658    4.2940658    10006.744    21553.589    -5977.642    14444.285    616.70115    6797.7927    2001.1165    79.178286 
     600    527.19486   -121.84443   0.47701699   -121.36741   -14732.548     4.304494     4.304494     4.304494   -14732.548    8195.1314   -40068.507   -12324.269    2618.0324   -8330.6735    21983.318    79.756541 
     700    449.20356   -121.76098   0.40644882   -121.35453    8728.1434    4.2901064    4.2901064    4.2901064    8728.1434    44186.042   -13104.041   -4897.5713   -163.60321   -19384.343    15565.964    78.959462 
     800    876.12006   -122.14774   0.79273184   -121.35501   -6176.9404    4.3018267    4.3018267    4.3018267   -6176.9404    7397.8418   -18574.023     -7354.64    454.77276   -11417.938   -12044.828    79.608373 
     900     818.9958   -122.09362   0.74104461   -121.35258   -16310.969    4.3098268    4.3098268    4.3098268   -16310.969   -4284.3834   -29279.809   -15368.716   -1620.5866    2449.5237    7781.6254    80.053341 
    1000     776.8915   -122.05104   0.70294776   -121.34809    7731.9263    4.2852081    4.2852081    4.2852081    7731.9263    38789.867   -14296.533   -1297.5554    1548.4069    8511.1753    25943.977    78.689311 
    1100    506.47832   -121.81664   0.45827223   -121.35837   -649.65734    4.3047846    4.3047846    4.3047846   -649.65734    30517.734   -21572.891   -10893.815    508.72377   -10411.625   -1100.5274    79.772698 
    1200    585.29781   -121.88616   0.52958976   -121.35657    2646.5708    4.3049628    4.3049628    4.3049628    2646.5708    30752.058   -19933.916   -2878.4297   -1856.5205   -4313.8074   -5905.2114    79.782604 
    1300    661.57721   -121.95007   0.59860896   -121.35146    10490.397    4.2984785    4.2984785    4.2984785    10490.397    56310.304   -20567.136   -4271.9777    1411.4987    2568.2003    14852.572    79.422632 
    1400    965.01015   -122.22381   0.87316146   -121.35064   -4154.4448    4.3001566    4.3001566    4.3001566   -4154.4448    7575.9563   -27427.514     7388.223   -5200.8927    610.03634    7697.8453    79.515686 
    1500    856.81469   -122.13042   0.77526393   -121.35516   -1250.4226    4.3014856    4.3014856    4.3014856   -1250.4226    9855.5935   -12333.681   -1273.1808    237.25591   -12274.392   -7620.7284    79.589435 
    1600    733.04913   -122.01762   0.66327825   -121.35435   -22974.093    4.3129553    4.3129553    4.3129553   -22974.093   -15850.504   -21371.115   -31700.661    120.56748   -16912.644    -4440.986    80.227797 
    1700    726.69855   -122.00743   0.65753212    -121.3499    10661.974    4.2943302    4.2943302    4.2943302    10661.974    53858.459   -18404.412   -3468.1255   -4029.2823   -7298.3379    4689.1553    79.192911 
    1800    824.81652   -122.09956   0.74631132   -121.35325    3830.1585    4.3054966    4.3054966    4.3054966    3830.1585    42261.233   -29024.216   -1746.5413    210.56893    11497.677    4512.4257    79.812288 
    1900    431.73138   -121.74567   0.39063962   -121.35503    5206.5938    4.3109408    4.3109408    4.3109408    5206.5938    27855.687   -32922.113    20686.207   -3095.1892    15612.381   -5170.0083    80.115434 
    2000     239.1863   -121.57023   0.21642079   -121.35381    22844.278    4.3001213    4.3001213    4.3001213    22844.278    24327.901   -4855.5002    49060.434    -2344.994    7026.0463   -5034.5576    79.513726 
    2100    560.27883   -121.85785   0.50695206    -121.3509    7357.1396    4.3083848    4.3083848    4.3083848    7357.1396    18439.493   -28577.914    32209.839    -289.9616    7765.6584    8879.0705    79.973015 
    2200    793.61473   -122.06464   0.71807929   -121.34656    13284.393    4.3024327    4.3024327    4.3024327    13284.393    44426.615   -28601.621    24028.184   -2488.7007     8188.372    1738.4808    79.642016 
    2300    701.24737   -121.98748   0.63450335   -121.35298   -11707.229    4.3096845    4.3096845    4.3096845   -11707.229    11180.112   -20509.748    -25792.05   -2661.9431    1543.5424   -7459.9653    80.045411 
    2400    762.01602   -122.03736   0.68948811   -121.34787   -11693.112    4.3043154    4.3043154    4.3043154   -11693.112   -3371.8489   -4292.5712   -27414.915   -541.00835   -9121.6504    678.80245    79.746618 
    2500     1104.832   -122.34457   0.99967521    -121.3449   -14768.947    4.3037055    4.3037055    4.3037055   -14768.947   -18990.692   -13119.386   -12196.762   -5246.0515   -20066.919    627.96471    79.712722 
    2600    874.07154   -122.13471    0.7908783   -121.34384   -17788.435    4.3156435    4.3156435    4.3156435   -17788.435   -13307.481   -12850.063    -27207.76   -7771.6963   -6408.1821   -6071.2463    80.377905 
    2700    672.39356    -121.9501   0.60839583    -121.3417   -3141.2197    4.3029685    4.3029685    4.3029685   -3141.2197    16242.522    2940.8651   -28607.046   -10692.001   -645.40163   -2129.6637    79.671777 
    2800    786.94179   -122.05491   0.71204147   -121.34287    2278.8942    4.3002122    4.3002122    4.3002122    2278.8942    26062.174   -10966.107    -8259.384   -6343.2461   -5011.9975    10284.228    79.518771 
    2900    687.92558   -121.96777   0.62244953   -121.34532    3062.6991    4.3135631    4.3135631    4.3135631    3062.6991    14835.958   -11086.136    5438.2753   -4572.1419   -2260.4799    5732.5402    80.261719 
    3000    774.49462   -122.04596   0.70077901   -121.34518   -2524.0589    4.3005233    4.3005233    4.3005233   -2524.0589    26032.736   -23289.031   -10315.881   -5001.0087    8598.6403   -1200.0223    79.536031 
    3100    595.47938   -121.88649   0.53880226   -121.34768    13824.431    4.2894311    4.2894311    4.2894311    13824.431    19607.628   -1676.5108    23542.174    1763.1227    11381.617     -6890.04    78.922183 
    3200    680.48673   -121.96894    0.6157187   -121.35322   -9282.4736    4.3152868    4.3152868    4.3152868   -9282.4736   -24400.284   -2107.5477   -1339.5889    7352.5343    4153.3693    858.99008    80.357976 
    3300    877.69263    -122.1448   0.79415474   -121.35064   -2001.8507    4.2998969    4.2998969    4.2998969   -2001.8507   -10911.491    18871.365   -13965.426    12089.188   -9641.2952   -2918.4786    79.501282 
    3400    593.06589   -121.88482   0.53661848    -121.3482     29464.08    4.2782618    4.2782618    4.2782618     29464.08    8283.1431    55436.872    24672.225    258.53434    1850.1242   -17111.083    78.307266 
    3500    460.46091   -121.77561   0.41663471   -121.35898   -20160.273    4.3196683    4.3196683    4.3196683   -20160.273   -31237.733    1398.0895   -30641.177   -6530.5721    12769.412   -9646.0093    80.602999 
    3600     733.3175   -122.01809   0.66352109   -121.35457   -6486.7163    4.2976374    4.2976374    4.2976374   -6486.7163   -19733.539    26718.862   -26445.471   -4497.7871   -9328.7565   -177.54308    79.376017 
    3700    917.80264   -122.17358   0.83044712   -121.34313    31490.951    4.2703925    4.2703925    4.2703925    31490.951    33801.166    42860.068    17811.619   -1750.9993   -8118.4175    2257.5368    77.875956 
    3800    777.98278   -122.05661   0.70393517   -121.35268   -28371.213     4.315919     4.315919     4.315919   -28371.213   -20674.652   -27266.707    -37172.28    3682.2976    6660.0412   -9742.1689    80.393297 
    3900    560.94186   -121.85955   0.50755198     -121.352   -4502.5415    4.2967427    4.2967427    4.2967427   -4502.5415     11843.38    1196.0843   -26547.089   -5438.1823    14260.189   -2861.3714    79.326453 
    4000    659.45796   -121.94542   0.59669142   -121.34872    20642.681    4.2833381    4.2833381    4.2833381    20642.681    7467.6884    59250.026   -4789.6712   -2509.8385    4801.2315    1014.5985    78.586341 
    4100    973.16845   -122.23016   0.88054326   -121.34962   -13978.317    4.3054963    4.3054963    4.3054963   -13978.317   -16657.295   -2000.3627   -23277.294    4520.7236   -7618.0214    2697.2089    79.812272 
    4200    528.84743   -121.83245   0.47851227   -121.35394    13377.807    4.2919472    4.2919472    4.2919472    13377.807    16894.312    28478.236   -5239.1276    1697.5359    8941.7052   -10439.905     79.06115 
    4300    491.34552   -121.80278   0.44457975    -121.3582   -18699.483    4.3013253    4.3013253    4.3013253   -18699.483   -21153.741   -15534.205   -19410.504   -3068.8474    18726.691   -9051.8862    79.580538 
    4400    750.89294    -122.0325   0.67942371   -121.35308   -3823.0883     4.292659     4.292659     4.292659   -3823.0883    319.53554   -9883.4994    -1905.301   -18750.096   -3561.6018    1458.1295     79.10049 
    4500    844.52291   -122.11564   0.76414208    -121.3515    6047.7347    4.2935443    4.2935443    4.2935443    6047.7347    13715.721   -13211.664    17639.147    4546.7883    -7901.929   -888.12549    79.149442 
    4600    608.00168   -121.90529   0.55013269   -121.35515   -27156.813    4.3075708    4.3075708    4.3075708   -27156.813   -31268.187   -38801.212   -11401.038    19632.816    6386.6351   -4460.9653     79.92769 
    4700    423.79362   -121.73798   0.38345738   -121.35452    5993.8788    4.2828681    4.2828681    4.2828681    5993.8788    22343.686   -4311.1997   -50.850234   -11098.753    10239.299   -13384.902    78.560473 
    4800    873.14183   -122.14848   0.79003707   -121.35844   -3884.9047    4.2979226    4.2979226    4.2979226   -3884.9047    4168.3252   -8744.7305   -7078.3089   -6215.0657    6095.2862   -721.73981    79.391824 
    4900     957.2444   -122.22198   0.86613485   -121.35585   -1090.6227    4.3002604    4.3002604    4.3002604   -1090.6227    19796.655   -16246.169   -6822.3546   -1992.5309   -2592.6848    5422.2872    79.521442 
    5000    568.90251   -121.87135   0.51475494   -121.35659    17366.965    4.2817484    4.2817484    4.2817484    17366.965     22618.75    31394.272   -1912.1263    11581.978     4316.784   -7800.0854    78.498877 
    5100    342.93992    -121.6744   0.31029925    -121.3641   -14572.339    4.3054952    4.3054952    4.3054952   -14572.339    22475.445   -30999.171   -35193.291    2024.3242    15885.953   -14952.039     79.81221 
    5200    956.04249   -122.22131   0.86504734   -121.35626   -1923.8188    4.2888003    4.2888003    4.2888003   -1923.8188   -3585.2479    5914.3556   -8100.5641   -4247.0899    6573.5592   -2869.7461     78.88737 
    5300    882.60269    -122.1602   0.79859746    -121.3616    10090.457    4.2958847    4.2958847    4.2958847    10090.457    23807.122    6191.3047    272.94555    3550.4596   -9237.9802    81.542378    79.278943 
    5400    589.13457    -121.8914   0.53306134   -121.35834   -27054.527     4.311237     4.311237     4.311237   -27054.527   -5094.7548   -45871.228     -30197.6    10854.979   -2575.4817   -12746.103    80.131947 
    5500    504.45521   -121.80468   0.45644167   -121.34824    23903.458    4.2680022    4.2680022    4.2680022    23903.458    40086.243    17971.715    13652.415     6353.663    9581.0391   -14994.755    77.745257 
    5600    824.43483    -122.1105   0.74596596   -121.36454   -15363.341    4.3071953    4.3071953    4.3071953   -15363.341    -23124.24   -11389.981   -11575.802   -6726.1561      9501.01    1385.4545    79.906789 
    5700    878.15442   -122.15006   0.79457257   -121.35549   -16988.022    4.3046013    4.3046013    4.3046013   -16988.022   -18942.159   -4541.0296   -27480.876   -303.08054   -2784.0172    6054.1348    79.762505 
    5800    531.65461   -121.82475   0.48105226    -121.3437    23971.275    4.2629993    4.2629993    4.2629993    23971.275     22730.98    3756.6749    45426.169     26269.67   -8815.4416   -5257.0146    77.472182 
    5900    534.01595   -121.84288   0.48318885   -121.35969   -30969.885    4.3110967    4.3110967    4.3110967   -30969.885   -19955.916   -45459.171   -27494.567    4742.0301    10032.148   -16482.475    80.124121 
    6000    923.99886   -122.18581   0.83605359   -121.34976   -11208.259    4.2992777    4.2992777    4.2992777   -11208.259    8785.3266   -17453.377   -24956.727   -6721.3802    8203.6655   -5644.4514    79.466943 
    6100    708.51004   -121.98402   0.64107478   -121.34294    28778.666     4.276074     4.276074     4.276074    28778.666    50591.427    16969.322    18775.249    7889.6528   -10157.612    11839.606    78.187196 
    6200     563.4099   -121.86354   0.50978512   -121.35376   -22659.195    4.3080784    4.3080784    4.3080784   -22659.195     3242.178   -41328.412   -29891.352       5233.3   -11738.148   -11777.695    79.955951 
    6300     643.0316   -121.93051    0.5818285   -121.34868   -3503.5549    4.2981971    4.2981971    4.2981971   -3503.5549    19378.502   -3940.8343   -25948.333    3302.9915   -5149.4201    -20676.79    79.407035 
    6400    1041.3905   -122.28754     0.942272   -121.34527    5035.4167    4.2887736    4.2887736    4.2887736    5035.4167    3467.2972    11288.109    350.84378   -78.100129    10262.964    2517.1378    78.885898 
    6500    914.36271   -122.17949   0.82733459   -121.35215   -7300.6763    4.2992728    4.2992728    4.2992728   -7300.6763   -580.22279   -4393.3333   -16928.473   -4846.4164    4831.6829    743.36213    79.466671 
    6600    294.41134   -121.62667   0.26638957   -121.36028    4689.7465    4.2989934    4.2989934    4.2989934    4689.7465    34010.619    13222.329   -33163.708    9333.6646   -2683.9729   -17176.179    79.451179 
    6700    438.51353   -121.75957   0.39677626   -121.36279   -5743.4911    4.2971384    4.2971384    4.2971384   -5743.4911    42080.602   -27394.271   -31916.804    6306.0905   -571.14706   -21169.675    79.348373 
    6800    868.00492   -122.14091    0.7853891   -121.35552    22011.839    4.2839654    4.2839654    4.2839654    22011.839    49000.404    16065.151    969.96127    5239.5203    4018.6561     6285.439    78.620875 
    6900    896.55828    -122.1735   0.81122478   -121.36228   -16586.832    4.3095079    4.3095079    4.3095079   -16586.832    9939.4919     -23307.2   -36392.789   -5826.9148   -1212.8339    104.90473    80.035568 
    7000    439.59052   -121.76438   0.39775074   -121.36663   -24409.751    4.2970028    4.2970028    4.2970028   -24409.751    13210.535   -44014.564   -42425.224    7719.3324   -3584.7694   -32504.425    79.340863 
    7100    620.10803   -121.91347   0.56108678   -121.35238    19540.215    4.2666618    4.2666618    4.2666618    19540.215    34468.359    5939.5729    18212.712    6561.8592   -13713.881   -12145.766    77.672028 
    7200    1011.7791   -122.26732   0.91547896   -121.35184   -36446.932    4.3237887    4.3237887    4.3237887   -36446.932   -28438.435   -34183.594   -46718.769    2503.1022    -5647.744    7336.4835    80.833874 
    7300    923.38362   -122.19952    0.8354969   -121.36403    1265.0384    4.2852885    4.2852885    4.2852885    1265.0384    21774.004   -5405.8764   -12573.013   -7869.9557    2723.0154   -12247.056     78.69374 
    7400    613.79471   -121.90422   0.55537435   -121.34884    30216.564    4.2617894    4.2617894    4.2617894    30216.564    81928.968    8219.1062    501.61787    4472.8889   -3499.6557   -23128.985    77.406235 
    7500     440.1868   -121.74362   0.39829027   -121.34533   -37335.499    4.3247261    4.3247261    4.3247261   -37335.499   -26590.836   -25798.654   -59617.007    14497.583    -10356.04   -6066.5741    80.886458 
    7600    704.04324   -121.98475   0.63703312   -121.34771    17255.492    4.2776159    4.2776159    4.2776159    17255.492    15054.923    41272.189   -4560.6349    9531.1941   -12361.893    6479.7252    78.271808 
    7700    755.29965   -122.03089     0.683411   -121.34748    14906.462    4.2753222    4.2753222    4.2753222    14906.462    46355.687    8646.9424   -10283.244   -661.87174    7817.0402   -12983.219    78.145963 
    7800    716.91637   -121.99315     0.648681   -121.34447   -25026.625    4.3099814    4.3099814    4.3099814   -25026.625   -9074.5545   -11206.256   -54799.063   -9360.0835     7577.658   -23101.823    80.061957 
    7900    723.22459   -122.00111    0.6543888   -121.34672    12741.777    4.2815048    4.2815048    4.2815048    12741.777    24981.317    16167.983   -2923.9677    12305.902   -8000.7776   -1240.9674    78.485478 
    8000     764.7816   -122.04448   0.69199046   -121.35249   -10379.317    4.2898824    4.2898824    4.2898824   -10379.317   -11249.353   -6419.2567    -13469.34    11667.922   -9903.8918    5507.5121    78.947098 
    8100    692.97944   -121.98133   0.62702236   -121.35431   -719.42805    4.2899623    4.2899623    4.2899623   -719.42805    15809.658    2322.8037   -20290.746    6372.4149    4611.2992   -12288.448    78.951507 
    8200      720.023    -122.0081   0.65149194   -121.35661   -4211.3311     4.292712     4.292712     4.292712   -4211.3311    39764.933   -22343.705   -30055.222   -4114.1438    3907.7891   -10426.619    79.103422 
    8300    684.47752   -121.97548   0.61932965   -121.35615   -16694.178    4.2945157    4.2945157    4.2945157   -16694.178   -1776.0604   -30243.739   -18062.735    9903.9874   -5441.1426    2902.6545    79.203175 
    8400    691.94872   -121.97987   0.62608974   -121.35378    9350.2853     4.272855     4.272855     4.272855    9350.2853    7552.1553    6517.0615    13981.639     27115.95   -8226.4278    5520.4561    78.010751 
    8500    692.00362   -121.98837   0.62613941   -121.36223   -10823.052    4.2976817    4.2976817    4.2976817   -10823.052    -16745.66    1166.1831   -16889.678   -983.41241    2216.5796   -7373.9685    79.378474 
    8600    742.44019   -122.03284   0.67177548   -121.36107   -6739.7568    4.2929131    4.2929131    4.2929131   -6739.7568    520.91926    1190.3466   -21930.536   -8269.0177    10387.079   -14009.212    79.114537 
    8700    637.84383   -121.93349    0.5771345   -121.35636    20302.611    4.2721388    4.2721388    4.2721388    20302.611    18684.888    28882.232    13340.713    13869.768   -275.97435     6474.579    77.971532 
    8800    583.90369   -121.88819   0.52832833   -121.35987   -3292.9556     4.299878     4.299878     4.299878   -3292.9556    6721.1408   -16160.164   -439.84351    12252.392   -2311.4153    9294.5242    79.500232 
    8900    672.98948   -121.96209   0.60893502   -121.35316    9793.0496    4.2937713    4.2937713    4.2937713    9793.0496    18199.722    13821.192   -2641.7654   -1805.8883    2199.8409   -4891.7913    79.161992 
    9000    908.27388   -122.17136   0.82182529   -121.34953    9626.0395    4.2800405    4.2800405    4.2800405    9626.0395    9802.3089    22784.704    -3708.894   -8701.4772     3961.852   -9220.9218    78.404977 
    9100    633.11867   -121.92885   0.57285908   -121.35599    5626.1092    4.2906278    4.2906278    4.2906278    5626.1092    23764.151    2389.2045   -9275.0274    11264.849    3206.3244    509.71755    78.988254 
    9200    587.45683   -121.88851   0.53154328   -121.35697   -4025.1433    4.2970653    4.2970653    4.2970653   -4025.1433   -14777.515    13321.951   -10619.866    19809.972   -4033.6894    11393.206    79.344322 
    9300     748.9225   -122.03607   0.67764081   -121.35843    -9244.897    4.2889148    4.2889148    4.2889148    -9244.897   -26008.459   -587.56156   -1138.6706   -6885.1492    1027.2095   -812.44408    78.893686 
    9400    859.55551   -122.13285   0.77774389   -121.35511    16701.394    4.2722024    4.2722024    4.2722024    16701.394    20005.502    19345.045    10753.633   -13547.438    5569.6286    -9917.323    77.975013 
    9500     835.9854   -122.11992   0.75641716   -121.36351   -15249.659    4.3025111    4.3025111    4.3025111   -15249.659    -14497.68    631.03834   -31882.334    2409.7225   -1749.2305    13927.679     79.64637 
    9600    500.99002   -121.81873    0.4533063   -121.36542   -16079.904    4.2968762    4.2968762    4.2968762   -16079.904   -21988.049   -8818.5479   -17433.116    27632.452   -991.89301    17062.059     79.33385 
    9700    598.54147   -121.89116    0.5415729   -121.34958     27357.28    4.2597772    4.2597772    4.2597772     27357.28    17881.018    29123.348    35067.474    5194.1699   -2711.6374   -62.934717    77.296645 
    9800    729.32047    -122.0179   0.65990449   -121.35799   -18814.251     4.306903     4.306903     4.306903   -18814.251   -37625.639    1462.0741   -20279.188   -25064.358    6674.8577    -1694.168    79.890525 
    9900    750.03715   -122.03665   0.67864937   -121.35801   -12314.325    4.2941859    4.2941859    4.2941859   -12314.325     -13775.6   -12250.641   -10916.733    99.716493    3284.5949    8564.6231    79.184926 
   10000    646.62175   -121.92824   0.58507694   -121.34317    23562.239    4.2591469    4.2591469    4.2591469    23562.239    30280.042    12079.038    28327.638    21139.479   -4694.5288    18981.671    77.262339 
   10100    566.83727   -121.86692   0.51288627   -121.35404   -19331.614    4.3055623    4.3055623    4.3055623   -19331.614   -29490.178   -12703.505   -15801.159   -2177.9252    3046.8389    6243.0278    79.815941 
   10200     733.4799     -122.015   0.66366803   -121.35133    -398.1755    4.2922655    4.2922655    4.2922655    -398.1755    -27769.86     16679.32    9896.0136   -27312.191    1871.9135   -10333.752    79.078738 
   10300    882.80805   -122.14225   0.79878328   -121.34347    20503.747    4.2677094    4.2677094    4.2677094    20503.747    18823.171    22001.084    20686.987   -11956.012    3820.3778    12932.058    77.729255 
   10400     725.2756   -122.00853    0.6562446   -121.35228    -15852.09    4.2989421    4.2989421    4.2989421    -15852.09    -12442.64   -5291.9024   -29821.729    21954.273   -41.393883    16378.436    79.448335 
   10500     634.5193   -121.92948   0.57412639   -121.35535   -15669.914    4.2907813    4.2907813    4.2907813   -15669.914   -26601.574   -17577.308   -2830.8596     7746.039   -5571.8613    3138.6032    78.996737 
   10600    744.50866   -122.02818   0.67364708   -121.35453    3062.2892    4.2749033    4.2749033    4.2749033    3062.2892   -19493.781   -2434.4717     31115.12   -25217.244    894.45134   -799.98191    78.122997 
   10700    829.03798   -122.10395   0.75013099   -121.35382   -11339.414     4.297829     4.297829     4.297829   -11339.414   -13516.567   -1061.4263    -19440.25    -12990.42   -805.90152   -2940.3683    79.386635 
   10800    645.68134   -121.94188   0.58422604   -121.35765   -4432.6904     4.288123     4.288123     4.288123   -4432.6904   -3940.2652    11347.272   -20705.078    11378.568   -2488.2457     9650.987    78.849999 
   10900    454.70203   -121.76996   0.41142395   -121.35854    8181.4198    4.2777544    4.2777544    4.2777544    8181.4198   -11023.472     2474.453    33093.279    6502.8841   -3627.2636    7717.2534    78.279411 
   11000    691.71055   -121.98335   0.62587424   -121.35748   -9034.5954    4.2978488    4.2978488    4.2978488   -9034.5954   -32163.016   -10207.788    15267.018   -12055.401   -4513.9703   -2155.3247     79.38773 
   11100    878.56455   -122.14897   0.79494367   -121.35402    14218.583    4.2849439    4.2849439    4.2849439    14218.583    12417.877    17698.393    12539.478   -14788.597    3035.7926   -3682.0272    78.674759 
   11200    701.19529   -121.99076   0.63445623    -121.3563    10503.946    4.2809448    4.2809448    4.2809448    10503.946    13739.677   -1732.5866    19504.747    7144.1387   -2114.0436    2481.5609    78.454684 
   11300    481.54483   -121.79602   0.43571188   -121.36031   -39.989057    4.2927562    4.2927562    4.2927562   -39.989057   -12097.612     12180.41   -202.76534    17302.989   -3629.2978    6545.5083    79.105861 
   11400    761.27415    -122.0463   0.68881685   -121.35748   -3177.2856    4.2879144    4.2879144    4.2879144   -3177.2856   -17407.612   -3247.9912    11123.747    8520.3706    396.91976     4904.313    78.838492 
   11500     820.6822   -122.09844    0.7425705   -121.35587    4576.6086    4.2787132    4.2787132    4.2787132    4576.6086    -2786.159    3290.4925    13225.492   -12725.294    3308.9576   -7360.1358    78.332058 
   11600    677.37474   -121.97337    0.6129029   -121.36047   -11101.141    4.2898447    4.2898447    4.2898447   -11101.141    4703.9867   -19784.578   -18222.832   -2606.2379    8040.6645   -10529.201    78.945017 
   11700    531.67795   -121.84289   0.48107339   -121.36181   -18452.386    4.2932763    4.2932763    4.2932763   -18452.386   -5535.1021   -36213.157     -13608.9    14874.551   -1982.5084    6497.8396     79.13462 
   11800    760.98258    -122.0456   0.68855303   -121.35705    10178.993    4.2731534    4.2731534    4.2731534    10178.993    9706.4528   -9183.9827    30014.509    16702.858    196.92672    7697.9464    78.027095 
   11900    906.61083   -122.17938   0.82032053   -121.35906    6740.9868    4.2882869    4.2882869    4.2882869    6740.9868   -3717.7366    19527.979    4412.7181   -198.39128    4806.3976   -6413.3265    78.859042 
   12000    653.36739   -121.95178   0.59118055    -121.3606   -1714.9736     4.294333     4.294333     4.294333   -1714.9736    25395.958   -13962.676   -16578.203   -6553.0297    1570.4222   -16214.698    79.193065 
   12100    504.59073   -121.81569    0.4565643   -121.35913    10656.597    4.2725825    4.2725825    4.2725825    10656.597     20602.05    316.65515    11051.087     17960.04    5334.1145   -6117.7989    77.995826 
   12200    662.49266   -121.96248   0.59943728   -121.36305   -9626.4534    4.2895154    4.2895154    4.2895154   -9626.4534   -19252.716   -18588.497    8961.8529    26872.527   -4796.6435    10562.086    78.926836 
   12300    895.03205   -122.16494   0.80984381    -121.3551    -9542.885    4.2922475    4.2922475    4.2922475    -9542.885    655.02906   -27365.828   -1917.8565    11393.284   -3308.2452   -1804.7599    79.077744 
   12400    783.36563   -122.06328   0.70880568   -121.35447    2362.5811    4.2795808    4.2795808    4.2795808    2362.5811    33845.297   -8754.0071   -18003.547   -11126.592    3855.8861   -27938.311    78.379718 
   12500    533.38825   -121.84181    0.4826209   -121.35919   -13636.621    4.2903789    4.2903789    4.2903789   -13636.621    14538.461   -28393.781   -27054.541    11077.583    2473.9823    -7982.796    78.974512 
   12600    520.11314    -121.8306    0.4706093   -121.35999   -4193.1126    4.2867423    4.2867423    4.2867423   -4193.1126    4852.0265   -18305.122     873.7573    26535.226    6.8792373     14460.94    78.773858 
   12700    708.86668   -121.99973   0.64139747   -121.35833    94.074762    4.2872963    4.2872963    4.2872963    94.074762    5154.6726    -6539.826    1667.3776     8406.571   -4718.5218    64.851111    78.804405 
   12800    840.64944   -122.11708   0.76063728   -121.35645    1945.2564    4.2853968    4.2853968    4.2853968    1945.2564    10013.797    14793.105   -18971.133   -7873.0841    2370.5219   -19068.427     78.69971 
   12900    750.92793   -122.03818   0.67945537   -121.35873    10194.494    4.2817146    4.2817146    4.2817146    10194.494    30664.325   -4095.2841    4014.4399    4074.2549    6082.6153   -10384.224    78.497015 
   13000    643.14522   -121.94118   0.58193131   -121.35925   -10713.385    4.2982645    4.2982645    4.2982645   -10713.385   -13792.672   -25269.923    6922.4412    29682.229      1502.02    9998.5323    79.410772 
   13100     698.5595     -121.988   0.63207132   -121.35593    3134.4638    4.2836154    4.2836154    4.2836154    3134.4638    1239.3074   -2948.1033    11112.187    12003.559   -1878.4193    3121.5026    78.601606 
   13200    882.04048   -122.15206   0.79808876   -121.35397    11963.772    4.2751079    4.2751079    4.2751079    11963.772     27709.34    1164.9085    7017.0665   -12078.644   -5630.8225   -7877.9423    78.134213 
   13300    739.01471   -122.02525   0.66867604   -121.35657    -7006.577     4.296806     4.296806     4.296806    -7006.577   -2158.5123   -399.73456   -18461.484   -1586.0428    9837.8319   -8955.8982     79.32996 
   13400    547.07001    -121.8541   0.49500044    -121.3591   -11519.019    4.2881839    4.2881839    4.2881839   -11519.019   -16786.042   -8784.9016   -8986.1126    21144.176    11503.132    7145.8753    78.853362 
   13500    533.33519   -121.84054   0.48257289   -121.35797      951.728    4.2749732    4.2749732    4.2749732      951.728   -2310.3422   -2915.8659    8081.3921    19238.342   -6915.4956    7159.7216    78.126825 
   13600    836.64026   -122.11476   0.75700969   -121.35775     -10909.4    4.2922066    4.2922066    4.2922066     -10909.4   -7756.4637   -7360.8371   -17610.898   -13083.567   -5512.2644   -8030.5051    79.075482 
   13700    819.19983   -122.09793   0.74122922    -121.3567   -11943.345    4.2940586    4.2940586    4.2940586   -11943.345   -5607.5552   -2687.8318   -27534.646   -2110.7666    11368.019    -2656.452    79.177884 
   13800    547.16372   -121.85325   0.49508524   -121.35816    3894.9826    4.2732845    4.2732845    4.2732845    3894.9826    14818.615   -287.54529   -2846.1217    26231.405    14257.831    5901.9231    78.034277 
   13900    623.11389   -121.92604   0.56380654   -121.36223    -2825.982    4.2842583    4.2842583    4.2842583    -2825.982   -6389.9445   -4727.9064    2639.9049    17692.553   -750.08464    7253.1745    78.636999 
   14000    780.90681   -122.06287   0.70658089   -121.35629   -2558.4154    4.2971887    4.2971887    4.2971887   -2558.4154    6016.6409   -2357.9479   -11333.939   -11793.061   -7236.3732     1435.871    79.351159 
   14100     963.9945   -122.22571   0.87224248   -121.35347    7719.0339    4.2765558    4.2765558    4.2765558    7719.0339    9602.5382    18505.761   -4951.1978   -14633.934    15205.654   -5128.2985     78.21363 
   14200    539.60089   -121.84784   0.48824222   -121.35959    4336.5818    4.2809245    4.2809245    4.2809245    4336.5818   -10939.205    34656.483   -10707.533    17567.072    25975.563     2048.952    78.453571 
   14300    604.44107   -121.90715   0.54691098   -121.36024   -15076.346    4.2935281    4.2935281    4.2935281   -15076.346   -11919.084   -28649.406   -4660.5485    25110.193    3482.1141    8202.3125    79.148543 
   14400    742.81236   -122.03046   0.67211224   -121.35835    1011.2788    4.2824304    4.2824304    4.2824304    1011.2788    11812.366   -12111.472    3332.9425   -107.75668   -10809.096    6143.4996    78.536392 
   14500    775.16064     -122.059   0.70138164   -121.35762    418.15008      4.27864      4.27864      4.27864    418.15008    473.45611    10023.038   -9242.0439   -12373.728    14418.379   -1203.8082    78.328034 
   14600    589.93335   -121.89562   0.53378409   -121.36184   -9821.1584    4.2902842    4.2902842    4.2902842   -9821.1584   -2556.4991   -8019.7247   -18887.251    2479.9975    25465.616    -1382.984    78.969281 
   14700    637.95765    -121.9386   0.57723749   -121.36137   -8822.5815    4.2884387    4.2884387    4.2884387   -8822.5815    4376.6347   -25342.778   -5501.6011    25081.903    4117.7605    4703.0896     78.86742 
   14800    850.35107   -122.12517   0.76941552   -121.35576    11457.077    4.2748348    4.2748348    4.2748348    11457.077    18673.268    480.95748    15217.005    1357.9024   -7169.3951    5805.3222    78.119238 
   14900    639.85801   -121.93802   0.57895698   -121.35906    1851.8317    4.2913814    4.2913814    4.2913814    1851.8317    22243.669    5012.9361    -21701.11   -11829.467    14649.717    410.79083    79.029885 
   15000    604.49288   -121.90751   0.54695786   -121.36055   -5792.0306    4.2898498    4.2898498    4.2898498   -5792.0306   -12764.395    11865.467   -16477.163    -1234.742    30693.191    -383.4407    78.945295 
   15100    696.71955    -121.9865   0.63040649    -121.3561    23226.341    4.2716115    4.2716115    4.2716115    23226.341    18227.684    37906.774    13544.565    10807.143    5905.0411    3314.8447    77.942664 
   15200    962.65509   -122.22773   0.87103055   -121.35669   -7718.4849    4.2927835    4.2927835    4.2927835   -7718.4849    8430.7431   -19431.739   -12154.459     9402.387   -7947.0476    5040.3191    79.107372 
   15300    571.46463   -121.87762   0.51707321   -121.36055   -3317.2975    4.2872479    4.2872479    4.2872479   -3317.2975   -17333.437    6253.3379    1128.2071   -6958.1798    10237.703    187.82423    78.801736 
   15400    438.94561   -121.75784   0.39716722   -121.36067       1125.8    4.2751027    4.2751027    4.2751027       1125.8   -14521.756    36482.211   -18583.055    -9918.371    28777.982   -1964.3583    78.133929 
   15500    711.11219   -122.00418   0.64342926   -121.36075   -11455.436    4.2931737    4.2931737    4.2931737   -11455.436   -569.15817   -8605.5258   -25191.624    4871.0303    5244.5093    1326.8549    79.128944 
   15600    1096.8515    -122.3474   0.99245425   -121.35494    6667.5201    4.2831325    4.2831325    4.2831325    6667.5201    22691.653   -9542.9305    6853.8381     1642.438   -9029.4093    9395.4188    78.575024 
   15700    739.44479   -122.03039   0.66906519   -121.36133    4405.4653    4.2801342    4.2801342    4.2801342    4405.4653    14064.665    7023.3342   -7871.6028   -3111.2396    18848.162    4839.2624    78.410127 
   15800    245.30788   -121.58947   0.22195972   -121.36751   -12195.207    4.2902013    4.2902013    4.2902013   -12195.207   -15181.192    7526.6305    -28931.06   -11559.591    33070.888   -539.90203    78.964703 
   15900    616.94533   -121.92404    0.5582251   -121.36582   -6892.5138    4.2845191    4.2845191    4.2845191   -6892.5138   -12729.689    11478.294   -19426.146    -6226.919   -1072.6667   -5209.9944    78.651361 
   16000    1075.1154    -122.3294   0.97278698   -121.35661    1949.7246    4.2845663    4.2845663    4.2845663    1949.7246    3953.5854   -200.85183    2096.4403    8533.3551   -21536.083    -2089.951    78.653964 
   16100     909.8343   -122.18127   0.82323719   -121.35804   -7665.0895    4.2866069    4.2866069    4.2866069   -7665.0895   -1573.6938   -6859.3219   -14562.253   -2872.2264    17561.175    2878.8755    78.766397 
   16200     333.1355    -121.6659     0.301428   -121.36447   -6423.0738    4.2863799    4.2863799    4.2863799   -6423.0738   -28013.981    7260.4592    1484.2998   -9168.9046    22511.858    803.36412    78.753886 
   16300    516.16676   -121.83081   0.46703853   -121.36377   -4223.4392     4.285118     4.285118     4.285118   -4223.4392   -8469.3206    11775.359   -15976.356   -4144.7436   -2999.9165   -37.255366    78.684347 
   16400    981.82837    -122.2457   0.88837894   -121.35732    12033.667    4.2806386    4.2806386    4.2806386    12033.667    21975.558    2207.3265    11918.116    2266.4855   -18065.332   -1125.6568    78.437854 
   16500    797.37668   -122.08111   0.72148318   -121.35963    6589.4263    4.2880722    4.2880722    4.2880722    6589.4263   -6927.9569   -7911.6077    34607.844     10995.24    7252.5931   -2242.5948    78.847198 
   16600    546.34748   -121.85655   0.49434668   -121.36221   -6373.8256    4.2872161    4.2872161    4.2872161   -6373.8256   -7004.2699    2836.8565   -14954.064    -1227.029    33527.598    124.65927    78.799981 
   16700     623.9095   -121.92468   0.56452642   -121.36015    2095.9396    4.2800329    4.2800329    4.2800329    2095.9396   -13334.929    19938.156   -315.40828    -13094.03    13398.188    1805.5032    78.404559 
   16800    940.44846   -122.20626   0.85093753   -121.35532   -8222.1855    4.2879927    4.2879927    4.2879927   -8222.1855   -15012.163   -7179.7707   -2474.6226    4944.6716   -13088.538    1194.4321    78.842816 
   16900     790.6461   -122.07331   0.71539321   -121.35791   -10245.252    4.2858326    4.2858326    4.2858326   -10245.252   -14007.421    -7462.348   -9265.9872    17448.352   -1477.6392   -3395.2439     78.72372 
   17000    439.86044   -121.76068   0.39799497   -121.36269   -2648.0221    4.2811608    4.2811608    4.2811608   -2648.0221   -15758.176    17046.311   -9232.2007    5001.9119    33013.907    1214.0234    78.466559 
   17100    615.76667   -121.91893   0.55715863   -121.36177   -575.23732    4.2853675    4.2853675    4.2853675   -575.23732   -16910.728    17620.591   -2435.5745   -16254.628    22422.725    662.91244    78.698092 
   17200    866.72831   -122.14105   0.78423399   -121.35681    6924.7099    4.2883505    4.2883505    4.2883505    6924.7099    15439.042   -4578.0583    9913.1457   -5147.9845   -6927.0362   -2899.6858    78.862552 
   17300     718.9948   -122.00818    0.6505616   -121.35761     13368.66    4.2837124    4.2837124    4.2837124     13368.66    8895.9429    13212.018    17998.018     22163.32    1027.9221   -5155.3761    78.606947 
   17400    538.55564   -121.84747   0.48729646   -121.36018    7250.0592    4.2824073    4.2824073    4.2824073    7250.0592   -15202.987    18593.111    18360.054     11178.15    18740.979   -2932.6675    78.535122 
   17500    553.66534   -121.86025   0.50096804   -121.35929   -4425.2784    4.2912448    4.2912448    4.2912448   -4425.2784   -4981.3568   -15311.664    7017.1854   -17076.553    16101.994    4357.2221    79.022336 
   17600    803.88759   -122.08335   0.72737439   -121.35597      125.556    4.2828798    4.2828798    4.2828798      125.556   -10796.664   -11164.442    22337.774   -23629.802    149.30151    3375.3291    78.561118 
   17700    984.62242   -122.24625   0.89090706   -121.35534    1934.0797    4.2790638    4.2790638    4.2790638    1934.0797   -1605.1273    -5031.724     12439.09    12250.436   -6617.1348   -3719.2862    78.351317 
   17800     712.5486   -122.00467   0.64472895   -121.35994   -13118.914    4.2925463    4.2925463    4.2925463   -13118.914   -23032.157   -9500.9239   -6823.6592    18155.111    13540.542   -1686.0682    79.094259 
   17900    432.15465   -121.75283   0.39102261    -121.3618   -9362.1138    4.2862413    4.2862413    4.2862413   -9362.1138   -35519.459   -4204.8446    11637.963   -25492.502    18302.508    4468.6561    78.746243 
   18000    591.07212   -121.89397   0.53481447   -121.35915   -1999.3812     4.282748     4.282748     4.282748   -1999.3812   -20686.363    147.44485    14540.775   -25009.494   -1900.2958    2112.4158    78.553868 
   18100    948.50508   -122.21177   0.85822733   -121.35355   -3068.1649    4.2889387    4.2889387    4.2889387   -3068.1649   -3082.9427   -4606.6744   -1514.8778    5965.6574   -8310.0754   -7265.4513    78.895005 
   18200    840.11349   -122.11582   0.76015234   -121.35566    7255.9855    4.2834075    4.2834075    4.2834075    7255.9855    2082.9848    7320.6588    12364.313    7178.6968    7259.2718   -8072.3621    78.590161 
   18300    472.15256   -121.79037   0.42721355   -121.36316   -2115.4971    4.2852761    4.2852761    4.2852761   -2115.4971   -30138.094   -1714.9385    25506.541   -17321.034    27413.288    1042.9924    78.693059 
   18400    420.18004   -121.74426   0.38018773   -121.36407   -5385.8894    4.2897999    4.2897999    4.2897999   -5385.8894   -11933.985   -9300.1128    5076.4293   -22848.432    2242.3333    1004.8478    78.942539 
   18500    852.34063   -122.12771   0.77121571   -121.35649     8169.532    4.2835677    4.2835677    4.2835677     8169.532    2765.3154    4537.2594    17206.021    96.093981   -20260.912    1792.1088    78.598977 
   18600    978.56207   -122.23902   0.88542353    -121.3536    5830.1117    4.2863847    4.2863847    4.2863847    5830.1117    4806.3406    5257.8944       7426.1    5863.1184   -1726.3035   -2955.0803    78.754146 
   18700    590.19336   -121.89477   0.53401935   -121.36075   -687.06041    4.2857361    4.2857361    4.2857361   -687.06041    1480.4962    89.087497   -3630.7649   -21422.613    20849.057    -1159.188    78.718406 
   18800    393.50927   -121.71983   0.35605546   -121.36377    3054.2451    4.2816659    4.2816659    4.2816659    3054.2451   -17629.014    13156.264    13635.485   -23958.672    12554.494    5233.7367     78.49434 
   18900    760.96222   -122.04912   0.68853461   -121.36058   -1226.7567    4.2900258    4.2900258    4.2900258   -1226.7567   -5013.6962   -2026.9065    3360.3326   -1569.1631   -16265.937    922.86463    78.955012 
   19000    1057.5379   -122.31169   0.95688256   -121.35481    1049.5915    4.2845583    4.2845583    4.2845583    1049.5915   -298.18756    5226.8709   -1779.9089    7539.3064   -8719.2797    2673.5533    78.653522 
   19100    635.59734   -121.93578   0.57510183   -121.36068    7725.1643     4.276883     4.276883     4.276883    7725.1643   -13195.819    9644.3362    26726.976   -10149.795     13540.46    1432.0886    78.231579 
   19200    440.12335   -121.76332   0.39823285   -121.36509   -20123.287     4.293354     4.293354     4.293354   -20123.287   -36258.412   -28638.026    4526.5775    -28782.31    19547.757    2641.4802    79.138915 
   19300    649.14385   -121.95121     0.587359   -121.36385   -5399.1027    4.2880542    4.2880542    4.2880542   -5399.1027    -6.332972   -8290.9426   -7900.0324   -7169.8704   -8040.2702    4787.7492    78.846208 
   19400    1174.0424   -122.41623    1.0622982   -121.35393    18702.558    4.2688407    4.2688407    4.2688407    18702.558    24430.445    15375.968    16301.261    8834.7219   -13079.308   -3144.7081    77.791089 
   19500    677.32406   -121.97784   0.61285704   -121.36499   -1840.0404    4.2940788    4.2940788    4.2940788   -1840.0404    8632.4347   -16328.221    2175.6651   -3185.5176    7012.0972   -1808.1874    79.179006 
   19600    265.96625   -121.60898   0.24065185   -121.36833   -17879.972     4.294066     4.294066     4.294066   -17879.972   -31329.106    -26215.96    3905.1479   -27931.835    15042.055   -390.49763    79.178295 
   19700      578.957   -121.88378   0.52385246   -121.35993    19078.463    4.2640723    4.2640723    4.2640723    19078.463    8137.2628    21699.818    27398.307   -14587.762    13013.413    4748.0182    77.530694 
   19800    1106.5892   -122.35942    1.0012651   -121.35815     -5776.72    4.2935875    4.2935875    4.2935875     -5776.72    8111.8689   -7862.4572   -17579.572    6580.5631     -5477.38    3984.4762    79.151826 
   19900    747.72395   -122.03798   0.67655634   -121.36142   -12996.402    4.2946397    4.2946397    4.2946397   -12996.402    -22993.35   -20089.516    4093.6586   -1046.6402   -2694.9865   -5467.7263    79.210037 
   20000    223.18596   -121.56169   0.20194335   -121.35975    7830.5467    4.2689929    4.2689929    4.2689929    7830.5467   -13906.901    2672.2705    34726.271   -21742.081    22525.955      592.783    77.799408 
   20100    586.25622   -121.89407   0.53045694   -121.36362   -15941.873    4.2919626    4.2919626    4.2919626   -15941.873   -9755.1555    -21926.15   -16144.314   -15901.377    16852.375    420.12429       79.062 
   20200     1105.913   -122.35487    1.0006533   -121.35422    4082.8471    4.2872729    4.2872729    4.2872729    4082.8471    12227.134   -6654.9171    6676.3245    6621.5237   -6193.1862    2778.3393    78.803114 
   20300    928.66095   -122.19615   0.84027194   -121.35588    4775.6108    4.2777489    4.2777489    4.2777489    4775.6108    11421.732   -3668.0087    6573.1091   -2964.4402   -12103.797    2118.3608    78.279106 
   20400     443.2035   -121.76403   0.40101984   -121.36301   -13803.277    4.2881766    4.2881766    4.2881766   -13803.277   -13216.461   -27090.734   -1102.6359   -20913.577    12176.645   -3793.8652    78.852959 
   20500    585.18121   -121.89059   0.52948426   -121.36111   -2372.9224    4.2839025    4.2839025    4.2839025   -2372.9224   -13185.825    -8750.923    14817.981   -13990.727    25366.175    1194.8748    78.617412 
   20600    852.59011   -122.12837   0.77144145   -121.35692   -1165.9768     4.286988     4.286988     4.286988   -1165.9768   -9788.0714    6247.5262    42.614774    4370.7422   -16546.619   -5004.1473    78.787406 
   20700    810.21721   -122.08948   0.73310156   -121.35637    4206.3919    4.2815694    4.2815694    4.2815694    4206.3919     1793.831    7290.6648    3534.6799    984.75724   -25034.246   -2288.3495    78.489031 
   20800    575.65699   -121.87992   0.52086654   -121.35905    2115.9275    4.2868057    4.2868057    4.2868057    2115.9275   -19508.367   -3060.1147    28916.264    -20298.09    2916.1041   -3587.1197    78.777354 
   20900    626.51052   -121.92342   0.56687988   -121.35654   -4412.3585    4.2905686    4.2905686    4.2905686   -4412.3585   -13782.955   -7480.0561    8025.9357   -16497.434    20445.443   -3923.1117    78.984989 
   21000    747.72253   -122.03003   0.67655505   -121.35347    10879.371    4.2762217    4.2762217    4.2762217    10879.371    18075.411    24752.357   -10189.655    4428.8147   -5242.0587    770.05386    78.195298 
   21100      751.234   -122.03584   0.67973231   -121.35611   -2020.8767    4.2882371    4.2882371    4.2882371   -2020.8767   -12794.587    14509.366   -7777.4092    367.67283   -32010.722   -3489.2075    78.856298 
   21200    735.75006   -122.02092   0.66572211    -121.3552   -5382.3236    4.2897169    4.2897169    4.2897169   -5382.3236     -7547.48    -12412.94    3813.4489   -17683.471   -4295.7579    1408.6975    78.937957 
   21300    677.56148   -121.96899   0.61307186   -121.35592   -1560.4297    4.2794514    4.2794514    4.2794514   -1560.4297   -4930.9498     -6351.12    6600.7808   -17850.985    23163.347   -2809.0773    78.372606 
   21400    569.47199   -121.87415   0.51527022   -121.35888   -5943.3936     4.283346     4.283346     4.283346   -5943.3936   -21623.263    15429.752   -11636.671    401.37728    519.86534    1088.4918    78.586778 
   21500    637.90554   -121.93644   0.57719034   -121.35925   -3144.9326    4.2887167    4.2887167    4.2887167   -3144.9326   -13763.253    16195.083   -11866.627    5806.9936   -27806.904    5879.4724    78.882757 
   21600    766.33741   -122.04897   0.69339819   -121.35557   -2250.7347    4.2897165    4.2897165    4.2897165   -2250.7347   -4597.4383   -5210.7564    3055.9905   -10053.823   -11078.926    2905.6049     78.93794 
   21700    726.19025   -122.01138    0.6570722   -121.35431    12286.245    4.2780763    4.2780763    4.2780763    12286.245   -2120.3603    10144.208    28834.887   -13528.805    16146.894    5319.3334    78.297084 
   21800    568.57965   -121.87298   0.51446282   -121.35851    3408.7049    4.2870344    4.2870344    4.2870344    3408.7049     3463.522    26435.474   -19672.881   -1640.8436    5483.8524   -3622.1216    78.789962 
   21900    615.08548   -121.91255   0.55654227     -121.356   -4333.6049    4.2938487    4.2938487    4.2938487   -4333.6049   -2688.9369    23849.282   -34161.159    5104.8593   -19399.157   -1269.4547    79.166273 
   22000    855.24182   -122.12561   0.77384077   -121.35176    13580.694    4.2760339    4.2760339    4.2760339    13580.694    4324.3048    15992.617    20425.161    1534.6862   -9902.6292     1232.744    78.184997 
   22100    769.40632    -122.0536   0.69617501   -121.35742    2734.7148    4.2831765    4.2831765    4.2831765    2734.7148    8452.9563    -3671.103    3422.2909   -6268.2942    10587.933    3376.8546    78.577448 
   22200    522.53046   -121.83162   0.47279654   -121.35883   -10861.187    4.2925821    4.2925821    4.2925821   -10861.187    -13480.15     5941.483   -25044.894   -7019.7669    18191.117   -52.682849    79.096241 
   22300    609.93803   -121.90729   0.55188475   -121.35541   -4991.3463     4.283431     4.283431     4.283431   -4991.3463   -17702.637    17136.699   -14408.101    3987.7304   -5828.0482   -8809.0636    78.591455 
   22400    726.35033    -122.0108   0.65721705   -121.35359   -1467.1676    4.2832769    4.2832769    4.2832769   -1467.1676   -11232.918    -10690.09    17521.505    8017.5958   -20832.553    863.25372     78.58297 
   22500    771.80063   -122.05255   0.69834143   -121.35421   -2105.9285    4.2847739    4.2847739    4.2847739   -2105.9285   -849.52262   -10997.948    5529.6853    1781.3398    8372.2273    2085.9437    78.665396 
   22600    604.28647   -121.90348    0.5467711   -121.35671   -6497.1596    4.2909635    4.2909635    4.2909635   -6497.1596   -17132.336    10613.192   -12972.334   -5565.3834    16299.441    4409.3895      79.0068 
   22700    653.19999   -121.94669   0.59102908   -121.35566   -4820.6647    4.2849442    4.2849442    4.2849442   -4820.6647   -12805.188    13035.062   -14691.868    1714.2445    1632.2297    3002.1349    78.674774 
   22800     849.2008   -122.12185   0.76837473   -121.35348     6510.486    4.2763429    4.2763429    4.2763429     6510.486    6450.3829    2770.1042    10310.971    18265.628   -10161.701   -1954.7447    78.201949 
   22900    795.74474   -122.07631   0.72000657    -121.3563   -2940.7253    4.2922378    4.2922378    4.2922378   -2940.7253   -10690.154    -9748.679    11616.657    11092.901   -801.57469    5409.2179    79.077209 
   23000    697.57642   -121.98885    0.6311818   -121.35766   -6399.1777     4.288168     4.288168     4.288168   -6399.1777   -1677.0627    3430.0731   -20950.543    -3191.273    31142.789    3070.9027    78.852485 
   23100    628.42598   -121.92432   0.56861303   -121.35571    10617.477    4.2735487    4.2735487    4.2735487    10617.477    7956.5542     21005.67    2890.2057    245.21931    18335.201    5577.4783    78.048756 
   23200    756.05801   -122.04092   0.68409718   -121.35682   -5781.0389    4.2901861    4.2901861    4.2901861   -5781.0389   -19630.757   -13465.873    15753.513     15617.14   -12720.222   -1450.5419    78.963866 
   23300    735.88321   -122.02035   0.66584259   -121.35451   -7157.8969       4.2901       4.2901       4.2901   -7157.8969   -6853.5115   -19393.411    4773.2314    17460.504   -6370.7268   -2499.5481    78.959111 
   23400    518.62438   -121.82583   0.46926224   -121.35657    2728.1407    4.2760148    4.2760148    4.2760148    2728.1407    6569.7225    11026.505   -9411.8055   -4268.7615    29896.117    5216.2764    78.183949 
   23500    598.99692   -121.90142     0.541985   -121.35943   -8737.8281    4.2846584    4.2846584    4.2846584   -8737.8281   -20428.353    3235.9802   -9021.1118   -2842.7789    30429.124    701.76624    78.659036 
   23600     845.8938   -122.12077   0.76538249   -121.35539   -2771.3519    4.2909459    4.2909459    4.2909459   -2771.3519   -9030.1176   -13422.618     14138.68    12706.095   -6711.0426   -86.347789    79.005828 
   23700    976.97633    -122.2374   0.88398871   -121.35341    2570.2563    4.2824712    4.2824712    4.2824712    2570.2563     1387.382   -10110.684     16434.07    11465.161   -3341.9783   -3568.2442    78.538636 
   23800    592.53934   -121.89454   0.53614205    -121.3584    2947.5402    4.2795573    4.2795573    4.2795573    2947.5402   -12622.829    8278.5276    13186.922   -775.46213    26570.214   -80.807723    78.378426 
   23900    455.42981    -121.7755   0.41208246   -121.36342   -4805.8226    4.2858302    4.2858302    4.2858302   -4805.8226    3035.6479    718.26103   -18171.377   -2055.0166    29484.152    7164.4121    78.723586 
   24000    753.26188   -122.04043   0.68156718   -121.35886   -1295.1844     4.288715     4.288715     4.288715   -1295.1844     2967.878   -12799.473    5946.0417    14111.876   -2177.3694    4230.0819    78.882662 
   24100    975.01887   -122.23638   0.88221757   -121.35416    7490.0555    4.2801708    4.2801708    4.2801708    7490.0555   -2318.2715   -11377.303    36165.741    16926.437   -9379.0441   -2247.4496    78.412141 
   24200    694.88073   -121.98861   0.62874269   -121.35987    3386.0692    4.2789141    4.2789141    4.2789141    3386.0692    9876.4018    9160.6917   -8878.8859   -1826.3515     18439.38   -2485.8424    78.343094 
   24300    445.07991   -121.76609   0.40271766   -121.36337   -7302.0932    4.2908789    4.2908789    4.2908789   -7302.0932   -2601.0639   -1212.0096   -18093.206   -1941.0734    32939.371    4241.6838    79.002126 
   24400    679.18659   -121.97311    0.6145423   -121.35857    940.90015    4.2870627    4.2870627    4.2870627    940.90015   -6303.5229   -13566.017    22692.241    8436.7271    3843.4591    4438.3946    78.791527 
   24500    1012.4573   -122.26735   0.91609261   -121.35126    12803.154    4.2750624    4.2750624    4.2750624    12803.154    22427.246   -1812.3965    17794.612    7881.0224   -10626.401    3201.8336    78.131719 
   24600     619.9191   -121.92025   0.56091583   -121.35933   -239.10769    4.2868763    4.2868763    4.2868763   -239.10769   -7034.5061    5382.9631    934.21997    2661.4654    6972.1682   -3622.5589     78.78125 
   24700    429.47444   -121.75058    0.3885975   -121.36198   -15838.336    4.2906312    4.2906312    4.2906312   -15838.336    -20909.84   -1919.0026   -24686.166   -9574.7972    27433.379   -2427.5398    78.988445 
   24800    685.27652    -121.9793    0.6200526   -121.35925    4656.6257    4.2754581    4.2754581    4.2754581    4656.6257    20783.394   -2375.4735    -4438.043   -5218.8521    14448.349    6827.5129    78.153415 
   24900     1058.049   -122.31298   0.95734496   -121.35564    640.73197    4.2825784    4.2825784    4.2825784    640.73197    5823.3208   -2927.2247   -973.90018    3256.2771   -20499.134   -328.90084    78.544534 
   25000    693.01947   -121.98814   0.62705858   -121.36108   -8339.1702    4.2898408    4.2898408    4.2898408   -8339.1702   -6748.0368    11248.584   -29518.057    770.11228   -4680.6778  -0.94114891      78.9448 
   25100    324.21689    -121.6577   0.29335826   -121.36434   -113.60541    4.2797154    4.2797154    4.2797154   -113.60541    17725.385    16127.831   -34194.032   -3000.8383    21871.686     -150.589    78.387113 
   25200    706.46652    -122.0009   0.63922576   -121.36168   -1047.9078    4.2823445    4.2823445    4.2823445   -1047.9078    9739.3986   -5215.5684   -7667.5537   -13255.325    20484.466   -781.70118    78.531665 
   25300    958.83444   -122.22328   0.86757355   -121.35571    13038.757    4.2855938    4.2855938    4.2855938    13038.757    21528.057   -3524.3598    21112.574   -4434.8293   -9294.3625    3274.3561    78.710561 
   25400    811.98674   -122.09396   0.73470266   -121.35925   -2582.3362    4.2842224    4.2842224    4.2842224   -2582.3362    9708.7392    5591.7814   -23047.529    7294.5032   -16667.274   -2433.0108    78.635026 
   25500    300.76802   -121.63704   0.27214122    -121.3649   -4675.0655    4.2807017    4.2807017    4.2807017   -4675.0655   -19307.848    16256.703   -10974.052   -3963.3684     13632.62    303.48534    78.441319 
   25600    643.90926   -121.94724   0.58262263   -121.36461   -8025.9929    4.2808166    4.2808166    4.2808166   -8025.9929   -10223.921    151.02959   -14005.087   -6207.9311    28661.727    179.33789    78.447635 
   25700    1005.5585   -122.26757   0.90985044   -121.35772   -3507.0042    4.2881956    4.2881956    4.2881956   -3507.0042    9164.6408    -11883.06   -7802.5938   -2416.7614    -6221.846    -573.8263    78.854007 
   25800    830.23695   -122.11098   0.75121584   -121.35976    1870.0359    4.2795925    4.2795925    4.2795925    1870.0359    6893.4252    4088.6248   -5371.9423    3833.2346   -14956.008     637.4308    78.380358 
   25900    375.89821   -121.70547    0.3401206   -121.36535   -2599.5757    4.2798648    4.2798648    4.2798648   -2599.5757      8542.32    20824.007   -37165.054    5156.7097    20247.322   -4590.8221    78.395324 
   26000     500.5193   -121.81785   0.45288038   -121.36497   -9239.6408    4.2889829    4.2889829    4.2889829   -9239.6408    11377.908    5903.3495    -45000.18   -7764.8259    32308.221   -527.44009    78.897446 
   26100    1097.9268   -122.34925   0.99342725   -121.35582    5423.5692    4.2794239    4.2794239    4.2794239    5423.5692     20986.87   -4911.2619    195.09977    310.46175    332.85568    189.22829    78.371097 
   26200    849.24034   -122.12776    0.7684105   -121.35935    5202.9842    4.2819025    4.2819025    4.2819025    5202.9842    21720.088   -11179.845    5068.7098    14631.355   -7402.9907    -282.7789    78.507348 
   26300     332.2125   -121.66919   0.30059286    -121.3686   -12843.349    4.2846668    4.2846668    4.2846668   -12843.349   -11681.615    13561.626    -40410.06    3981.2833    25397.288    924.04288    78.659496 
   26400    310.64983   -121.65156    0.2810825   -121.37048   -1177.5148    4.2816614    4.2816614    4.2816614   -1177.5148   -10245.657    24011.903    -17298.79    -143.9851    26496.006   -1623.2616    78.494088 
   26500    1046.2468   -122.30848    0.9466661   -121.36182    1282.7465    4.2855878    4.2855878    4.2855878    1282.7465    19748.093   -4165.9459   -11733.908   -2481.2004   -3038.6264   -154.31051    78.710234 
   26600    1104.5099   -122.35859   0.99938377   -121.35921      12684.1    4.2798618    4.2798618    4.2798618      12684.1    25552.828   -3725.5642    16225.038   -1590.5851   -4271.3857   -507.93682    78.395157 
   26700    539.24343   -121.85637   0.48791879   -121.36845   -2257.0922    4.2833188    4.2833188    4.2833188   -2257.0922   -4039.6663    16695.984   -19427.594    7419.4413     30139.26    1250.9497     78.58528 
   26800    323.66094   -121.66079   0.29285522   -121.36794   -7042.6142    4.2876271    4.2876271    4.2876271   -7042.6142    5537.8972    18667.877   -45333.617    5.2148713    24301.519    371.50417    78.822646 
   26900    819.20002   -122.10152   0.74122939   -121.36029    3882.1895    4.2809685    4.2809685    4.2809685    3882.1895    12602.515    3982.2189    -4938.165   -7273.0481   -9379.5191   -2757.3354    78.455989 
   27000     971.2219   -122.23568   0.87878199    -121.3569     5651.949    4.2802022    4.2802022    4.2802022     5651.949    24515.933    -6037.981   -1522.1045   -6119.3772   -10569.736    2753.5949    78.413864 
   27100    583.45365      -121.89   0.52792112   -121.36208   -3592.1105    4.2857987    4.2857987    4.2857987   -3592.1105    9721.1415    2012.0314   -22509.504   -2798.3358    33580.673    3645.4322    78.721855 
   27200    480.96634    -121.7981   0.43518845   -121.36291   -10539.565    4.2853393    4.2853393    4.2853393   -10539.565   -18136.315    15925.279   -29407.658     4951.767    31435.944    1249.4925    78.696541 
   27300    669.50115   -121.96567   0.60577871    -121.3599    5471.9268    4.2787509    4.2787509    4.2787509    5471.9268    467.17859    9520.9086    6427.6933   -3000.0738    -17767.22    1661.5097    78.334125 
   27400    907.86935   -122.17852   0.82145926   -121.35706     1700.561    4.2853289    4.2853289    4.2853289     1700.561    410.03453   -7889.9495    12581.598   -13067.431   -12891.166    2604.1332    78.695969 
   27500    662.61957   -121.95807   0.59955211   -121.35852   -3041.2429    4.2901172    4.2901172    4.2901172   -3041.2429    -15612.46   -1067.5576    7556.2889    -1627.822    23548.999    2396.1794    78.960062 
   27600    722.19829   -122.01046   0.65346019     -121.357    1186.7987    4.2774114    4.2774114    4.2774114    1186.7987   -1917.7003    19081.282   -13603.186    3039.8804    31566.204    1673.7212    78.260581 
   27700    716.19584   -122.00595   0.64802904   -121.35792    3847.4292    4.2819215    4.2819215    4.2819215    3847.4292    6647.7849     3543.868    1350.6348   -2559.2732   -4364.7297   -2810.5854    78.508396 
   27800    777.42697   -122.05962   0.70343226   -121.35618   -9032.7671    4.2921212    4.2921212    4.2921212   -9032.7671   -18379.791   -19648.923    10930.412   -10451.788     -20642.3   -1681.7008    79.070764 
   27900    594.17845   -121.89504   0.53762515   -121.35741    3659.2895    4.2800452    4.2800452    4.2800452    3659.2895    8784.4855   -3967.8647    6161.2477   -9514.1148    18630.836    2888.4854    78.405238 
   28000    584.33272   -121.88729   0.52871653   -121.35857    2313.3768    4.2790703    4.2790703    4.2790703    2313.3768    13997.728   -1031.1713   -6026.4259     3979.558     27400.65   -1815.3118    78.351673 
   28100    658.74998   -121.95382   0.59605082   -121.35777   -3233.8732    4.2900278    4.2900278    4.2900278   -3233.8732   -1683.6357   -13781.975    5763.9909   -1044.2178   -5256.6137   -1832.0571    78.955123 
   28200    736.63399   -122.02414   0.66652191   -121.35762    3688.5083      4.28291      4.28291      4.28291    3688.5083    8337.0556   -14008.098    16736.567   -14566.576   -16668.755   -2774.5179    78.562781 
   28300    765.87915   -122.05197   0.69298355   -121.35898    3138.9652    4.2796383    4.2796383    4.2796383    3138.9652   -7100.2398   -9575.2383    26092.374   -7713.1907    5858.3237    92.330011    78.382874 
   28400    682.95378   -121.97743   0.61795093   -121.35948   -6474.6605    4.2903137    4.2903137    4.2903137   -6474.6605   -10808.469   -11607.649    2992.1366    3214.1122    26104.288    4490.4711    78.970911 
   28500    753.42647   -122.03925    0.6817161   -121.35753   -3891.2237     4.284671     4.284671     4.284671   -3891.2237     5659.849   -7219.6902    -10113.83   -708.64789    1887.5059    215.17775    78.659726 
   28600    680.71817   -121.97277   0.61592811   -121.35684    4810.5417    4.2812399    4.2812399    4.2812399    4810.5417   -4973.7814   -18203.554    37608.961   -10457.188   -16549.038   -1458.8355    78.470913 
   28700    711.00055   -122.00082   0.64332824   -121.35749   -9165.9671    4.2879741    4.2879741    4.2879741   -9165.9671   -23179.988   -25386.167    21068.254   -4732.2163    2793.2751    1771.0969    78.841787 
   28800    601.53144   -121.90314   0.54427829   -121.35886    5365.7964    4.2795188    4.2795188    4.2795188    5365.7964    10634.909   -1336.9073    6799.3873    8573.6019    23387.231    3139.4463    78.376311 
   28900    689.65288   -121.98378   0.62401242   -121.35976   -4444.1923    4.2851437    4.2851437    4.2851437   -4444.1923    12582.983   -13355.602   -12559.957    255.65939    9683.3535   -359.61383    78.685762 
   29000    689.44856   -121.98158   0.62382755   -121.35775   -7319.8601    4.2881671    4.2881671    4.2881671   -7319.8601    3383.9266    -24123.44   -1220.0664   -8983.7022   -20782.481   -3480.9538    78.852433 
   29100    715.06825   -122.00369   0.64700878   -121.35668    6383.8766    4.2768324    4.2768324    4.2768324    6383.8766    18457.213   -12638.014    13332.431     2406.939   -2034.2399   -1178.1481    78.228804 
   29200    671.14604   -121.96672   0.60726704   -121.35946   -5621.3638    4.2855947    4.2855947    4.2855947   -5621.3638   -16207.152   -15864.467    15207.527    10732.558    22054.828    2585.5794    78.710611 
   29300    632.48584    -121.9314   0.57228648   -121.35911    778.21143    4.2846943    4.2846943    4.2846943    778.21143     6054.549   -9332.3563    5612.4416    3009.9233    4530.6935   -5048.1547    78.661009 
   29400    761.41116   -122.04713   0.68894082   -121.35819    3157.8907    4.2796872    4.2796872    4.2796872    3157.8907    21569.607   -4874.8005   -7221.1343   -4415.9743   -18343.738   -9793.5002    78.385563 
   29500     742.4202   -122.02939    0.6717574   -121.35763    94.789935    4.2865032    4.2865032    4.2865032    94.789935   -4598.7203    -19945.81      24828.9    1402.8666   -12242.478   -2063.2815    78.760683 
   29600    752.75684   -122.03784   0.68111021   -121.35673    735.02144    4.2824976    4.2824976    4.2824976    735.02144   -511.25673   -13056.886    15773.207    12476.639    17739.978    888.43977     78.54009 
   29700    628.53597   -121.92844   0.56871255   -121.35973   -5092.1772    4.2829069    4.2829069    4.2829069   -5092.1772    9203.0197   -7308.2833   -17171.268    5811.0229    14082.486    767.30186    78.562608 
   29800    631.08591   -121.93116   0.57101979   -121.36014   -1852.0284    4.2818619    4.2818619    4.2818619   -1852.0284    760.78911    7419.2617   -13736.136   -5391.6585    -20242.76   -5866.7021    78.505118 
   29900    795.16483   -122.07885   0.71948185   -121.35937   -365.58137    4.2833407    4.2833407    4.2833407   -365.58137     2575.994   -4966.5148    1293.7767    6236.6743   -21888.033   -3745.0208    78.586484 
   30000     849.5038   -122.12657   0.76864889   -121.35792   -2601.0392    4.2850711    4.2850711    4.2850711   -2601.0392    2837.5355   -13144.401    2503.7479    10959.043     15506.14    4731.7567    78.681766 
   30100    574.59701   -121.88077   0.51990745   -121.36087        397.6    4.2790714    4.2790714    4.2790714        397.6   -6487.3491     2881.964    4798.1851    4503.1335    14623.818    -985.3262    78.351732 
   30200    378.93276   -121.70752   0.34286632   -121.36465    -6844.292     4.287445     4.287445     4.287445    -6844.292   -2213.2102    7179.2342     -25498.9    186.76537   -24840.904   -4723.9446    78.812607 
   30300    758.69941   -122.04723   0.68648717   -121.36074    1140.0239    4.2831427    4.2831427    4.2831427    1140.0239    17721.294    2725.2041   -17026.427   -5538.3015   -29080.597   -5867.0485    78.575584 
   30400    1050.3008    -122.3057   0.95033426   -121.35536    14788.789    4.2774191    4.2774191    4.2774191    14788.789    16917.044    7181.3468    20267.976    4645.8793    10233.366     2403.134    78.261005 
   30500    737.24711     -122.028   0.66707668   -121.36092   -3284.7773    4.2897733    4.2897733    4.2897733   -3284.7773    12463.264   -4055.8415   -18261.755    7000.5903    14135.309    6450.1864    78.941072 
   30600    472.66102   -121.79071   0.42767363   -121.36303   -4020.5171    4.2816355    4.2816355    4.2816355   -4020.5171    6169.5731    8451.1469   -26682.271    286.15211   -13006.396   -7512.6851    78.492667 
   30700    623.15775   -121.92562   0.56384623   -121.36177    6102.7187    4.2785029    4.2785029    4.2785029    6102.7187   -86.579731     11717.05    6677.6853   -3659.7492   -23711.145    -6939.653     78.32051 
   30800    951.87392   -122.21678   0.86127553    -121.3555   -4857.8736    4.2900284    4.2900284    4.2900284   -4857.8736    3503.4193   -18051.374   -25.666088   -13116.352   -4655.7839    4367.5377    78.955155 
   30900    788.42073   -122.07027   0.71337964   -121.35689   -1825.3086    4.2829979    4.2829979    4.2829979   -1825.3086    11831.174   -11328.141   -5978.9586   -1730.1232    15667.277    10597.981    78.567616 
   31000    538.61347   -121.84696   0.48734878   -121.35961   -4162.3178    4.2795723    4.2795723    4.2795723   -4162.3178   -951.10137     8864.057   -20399.909    8701.7788   -13113.371    1144.8799    78.379248 
   31100    583.51494   -121.88858   0.52797658    -121.3606   -8144.0139    4.2850095    4.2850095    4.2850095   -8144.0139    -5624.694     2554.427   -21361.775    -8203.037   -25147.497   -7453.1045     78.67837 
   31200    695.57013   -121.98788   0.62936647   -121.35851   -910.76364    4.2859355    4.2859355    4.2859355   -910.76364     10042.21   -15758.849    2984.3472   -16369.286   -405.55988    6240.6792    78.729391 
   31300     847.1114   -122.12201    0.7664842   -121.35553   -6335.1125    4.2835746    4.2835746    4.2835746   -6335.1125    8642.5595   -19518.599   -8129.2977   -8218.7842    4089.1597    12850.719    78.599357 
   31400    706.01241   -121.99577   0.63881487   -121.35696   -126.89636    4.2811656    4.2811656    4.2811656   -126.89636    16106.197    1044.3158   -17531.202      5867.67   -8989.7555    5698.0607    78.466825 
   31500      675.935   -121.96972   0.61160019   -121.35812   -3714.6285    4.2845823    4.2845823    4.2845823   -3714.6285   -3266.4248    3551.1652   -11428.626   -2224.1526    -20940.07   -4883.1892    78.654844 
   31600    659.21099   -121.95522   0.59646795   -121.35875   -563.04408     4.283547     4.283547     4.283547   -563.04408   -6883.7412   -18544.132    23738.741   -23091.909   -3888.0618    2766.7006    78.597837 
   31700    698.23187   -121.98971   0.63177487   -121.35794    1625.0578    4.2821562    4.2821562    4.2821562    1625.0578    18594.727   -27039.403     13319.85   -10785.619    5636.9905    17421.096    78.521308 
   31800    756.30052   -122.04262    0.6843166    -121.3583    -3719.329    4.2830484    4.2830484    4.2830484    -3719.329    14567.407   -13902.988   -11822.406    5980.1969    -9605.943     7124.181    78.570398 
   31900    630.43177   -121.92978   0.57042791   -121.35936    5282.1247    4.2825549    4.2825549    4.2825549    5282.1247     5764.305    1469.6113     8612.458   -1695.1182   -15306.012   -10361.909    78.543238 
   32000    815.27108   -122.09338    0.7376744   -121.35571   -8865.2491    4.2878853    4.2878853    4.2878853   -8865.2491    -5922.635   -16363.109   -4310.0032   -15439.859    -9227.889   -3247.2771    78.836889 
   32100    687.03139   -121.97725   0.62164044   -121.35561   -1014.8128    4.2834161    4.2834161    4.2834161   -1014.8128    9308.7225   -22394.731     10041.57   -11404.449    6852.0492    23305.241    78.590636 
   32200    644.52155   -121.93939   0.58317664   -121.35621   -4204.0533    4.2796608    4.2796608    4.2796608   -4204.0533    9374.9737   -16370.177   -5616.9563    7685.5419   -1022.6549    19335.825    78.384115 
   32300    618.53527   -121.91804   0.55966371   -121.35838   -8977.8139    4.2878546    4.2878546    4.2878546   -8977.8139   -3086.5432   -5106.2727   -18740.626    4533.5543   -21951.075   -12869.166    78.835197 
   32400    773.18443   -122.05745   0.69959352   -121.35786    611.05526    4.2809812    4.2809812    4.2809812    611.05526   -659.07288    3108.4535   -616.21481   -7365.8132   -11025.088   -11799.852    78.456688 
   32500    809.81632   -122.08989   0.73273883   -121.35715    5829.7575    4.2795468    4.2795468    4.2795468    5829.7575    16700.842   -8387.3268    9175.7577   -4019.4754    4870.1648    20745.805    78.377851 
   32600     663.2495   -121.95908   0.60012209   -121.35895   -6764.3972    4.2877354    4.2877354    4.2877354   -6764.3972     4761.712    -20467.28   -4587.6239   -1132.9402   -2876.3209    24085.369    78.828624 
   32700    604.10359   -121.90627   0.54660562   -121.35967   -597.17751    4.2812463    4.2812463    4.2812463   -597.17751    1326.9403    4223.9339   -7342.4067    4980.4916   -18078.572    -11686.21     78.47126 
   32800    655.62487    -121.9519   0.59322316   -121.35868    1850.8649    4.2833005    4.2833005    4.2833005    1850.8649   -4082.2578   -915.51389    10550.366    2832.6805   -18380.983   -22590.205     78.58427 
   32900    847.78228   -122.12421   0.76709122   -121.35712   -902.73506     4.282562     4.282562     4.282562   -902.73506    9063.8158   -13313.006    1540.9848   -5485.1477    5690.1462    11108.974    78.543629 
   33000    740.14062   -122.02839   0.66969478   -121.35869     4553.218    4.2809358    4.2809358    4.2809358     4553.218    4661.5383    302.19208    8695.9236   -5148.9036    7226.5118    24619.086    78.454191 
   33100    615.56825   -121.91799   0.55697909   -121.36101   -10662.517    4.2870022    4.2870022    4.2870022   -10662.517   -9064.6016   -6305.6956   -16617.253   -2490.3727   -18727.243     -4783.25    78.788191 
   33200     632.5029   -121.93307   0.57230192   -121.36077   -896.36753    4.2783227    4.2783227    4.2783227   -896.36753    2602.4109    13021.282   -18312.796    2880.8946   -19344.123   -22701.787    78.310614 
   33300    750.08223   -122.03859   0.67869016    -121.3599    322.53561    4.2836146    4.2836146    4.2836146    322.53561    3864.5787    6761.1655   -9658.1374      3178.51    1868.9157    1707.8934    78.601563 
   33400    818.92796   -122.09905   0.74098322   -121.35806   -2255.1648     4.286041     4.286041     4.286041   -2255.1648    8545.9305   -3911.5455   -11399.879    -7583.227    8140.8409    23690.149    78.735208 
   33500    630.72081   -121.93071   0.57068944   -121.36002    8459.8101    4.2764579    4.2764579    4.2764579    8459.8101    7020.0154    16464.986     1894.429   -4399.7887   -18675.681    4879.3818    78.208256 
   33600    578.44218   -121.88385   0.52338664   -121.36046   -2693.0331    4.2879533    4.2879533    4.2879533   -2693.0331   -13370.017    12564.081   -7273.1625    298.77485   -28373.892   -14437.092    78.840639 
   33700    828.57202   -122.10491   0.74970938    -121.3552   -477.56108    4.2855221    4.2855221    4.2855221   -477.56108   -5880.8162    655.67335    3792.4596    5606.9298    5316.7787   -8548.5859    78.706612 
   33800    716.27844   -122.00338   0.64810379   -121.35528    9059.2631    4.2770133    4.2770133    4.2770133    9059.2631    7330.3854    3602.4564    16244.948    4224.3262    12348.465    10845.564     78.23873 
   33900    606.32221   -121.90824   0.54861308   -121.35962   -12085.876    4.2850112    4.2850112    4.2850112   -12085.876   -24439.018   -5062.6448   -6755.9655    -13683.89   -13854.412    13553.852    78.678468 
   34000     614.1664    -121.9167   0.55571067   -121.36099   -6081.1317    4.2832196    4.2832196    4.2832196   -6081.1317   -12761.302     2995.906   -8477.9985   -6726.9572   -25053.332    -3869.722    78.579818 
   34100    820.71352   -122.10027   0.74259884   -121.35767    645.67871    4.2839056    4.2839056    4.2839056    645.67871    3349.6069    1404.2153   -2816.7861     11125.53   -1358.8298   -8743.7346     78.61758 
   34200    836.20426   -122.11297   0.75661519   -121.35636   -6034.2366    4.2853327    4.2853327    4.2853327   -6034.2366   -6253.8763   -9168.1342   -2680.6994    4301.4742    17430.041     3298.816    78.696176 
   34300     498.3317   -121.81058   0.45090099   -121.35968    1683.7542    4.2826316    4.2826316    4.2826316    1683.7542    86.871556    5029.5831   -65.191976   -13465.226   -9748.1063    6105.8549    78.547461 
   34400    677.25211   -121.97185   0.61279194   -121.35906   -2648.1671    4.2835838    4.2835838    4.2835838   -2648.1671   -12006.064    6088.7661   -2027.2032   -17808.915   -24074.245    5174.0695    78.599863 
   34500    833.52338   -122.11114   0.75418947   -121.35695    7445.0874     4.282027     4.282027     4.282027    7445.0874    345.74663    4168.9838    17820.532    14179.238   -3423.2175   -2603.4796    78.514201 
   34600    769.92538   -122.05498   0.69664467   -121.35834    1946.3192    4.2851094    4.2851094    4.2851094    1946.3192   -11934.029   -84.952172    17857.939    20235.811    13434.499   -4192.1245    78.683875 
   34700    614.22236   -121.91521    0.5557613   -121.35945   -2993.4125    4.2838421    4.2838421    4.2838421   -2993.4125   -14211.045   -5389.6798    10620.488   -13498.051    1782.9338     889.6649    78.614082 
   34800    549.05847   -121.85647   0.49679964   -121.35967   -7130.2106    4.2836791    4.2836791    4.2836791   -7130.2106   -13095.813   -4808.1759   -3486.6428   -16633.473   -19900.589    7098.9597    78.605113 
   34900    736.29918   -122.02329   0.66621897   -121.35707   -10506.019    4.2855272    4.2855272    4.2855272   -10506.019   -12643.961   -7381.9225   -11492.173    9317.5228   -6008.5567     10731.24     78.70689 
   35000    815.09096   -122.09244   0.73751143   -121.35493   -1807.1054    4.2817722    4.2817722    4.2817722   -1807.1054   -7886.9682   -5430.2556    7895.9074    21543.806    12968.118   -1972.2251    78.500186 
   35100     724.0546   -122.01167   0.65513982   -121.35653   -7169.9763    4.2849856    4.2849856    4.2849856   -7169.9763   -20911.572   -3086.5999     2488.243   -7332.3712   -1362.2152   -2501.3388    78.677059 
   35200    537.47475     -121.846   0.48631845   -121.35968   -6601.3596    4.2846442    4.2846442    4.2846442   -6601.3596   -10048.939    3640.1656   -13395.305   -24921.611   -10871.951    6850.5079     78.65825 
   35300    644.00325    -121.9434   0.58270767   -121.36069    2874.3558    4.2785718    4.2785718    4.2785718    2874.3558    1644.6049    4880.6115     2097.851    7757.4188   -10723.446    15137.188    78.324292 
   35400    830.37312   -122.11043   0.75133905   -121.35909    5547.1394    4.2855126    4.2855126    4.2855126    5547.1394   -6593.1303    9516.1144    13718.434    17385.739    949.62515     5426.458     78.70609 
   35500    866.22071   -122.14175    0.7837747   -121.35797     3517.501    4.2850109    4.2850109    4.2850109     3517.501   -12512.877    10120.867    12944.513    -12511.35    4599.9949   -7222.2921    78.678447 
   35600    523.69629   -121.83458   0.47385141   -121.36073    3677.7458    4.2786741    4.2786741    4.2786741    3677.7458   -7126.9184   -8499.4714    26659.627    -25003.95   -4354.5612    1259.7752    78.329912 
   35700    530.18714   -121.84133   0.47972446   -121.36161   -9620.1666    4.2858716    4.2858716    4.2858716   -9620.1666   -2921.7373   -10461.375   -15477.388   -5127.0762   -9208.9264    13603.581    78.725872 
   35800    814.53935   -122.09487   0.73701232   -121.35786   -4336.5477    4.2849468    4.2849468    4.2849468   -4336.5477   -4230.3842    4673.8102   -13453.069    15492.513   -8468.6586     13534.45    78.674918 
   35900    839.42973   -122.11568   0.75953366   -121.35615    4281.2291    4.2793631    4.2793631    4.2793631    4281.2291   -12038.574    4539.1785    20343.083   -14947.558    2522.4046   -2282.7737    78.367755 
   36000    718.83338   -122.00963   0.65041555   -121.35922   -5164.4767    4.2818725    4.2818725    4.2818725   -5164.4767   -17604.136   -3219.5336    5330.2391   -34137.361    1190.2927   -1006.1994    78.505699 
   36100    519.69316   -121.83194   0.47022929   -121.36171   -6020.5866    4.2870759    4.2870759    4.2870759   -6020.5866   -3798.5068    12273.875   -26537.128   -1457.7416   -11621.514    17506.409    78.792251 
   36200    715.14191   -122.00515   0.64707543   -121.35807   -4706.8164    4.2821579    4.2821579    4.2821579   -4706.8164    4077.1776    9845.2162   -28042.843    5229.6842   -11018.102    12648.623    78.521398 
   36300    799.88692    -122.0803   0.72375449   -121.35654    5302.2127    4.2771497    4.2771497    4.2771497    5302.2127   -3249.8894    5994.5586    13161.969    -17194.09     839.5091    -2748.159    78.246215 
   36400    720.46743   -122.01014   0.65189407   -121.35824   -1687.2295    4.2875259    4.2875259    4.2875259   -1687.2295   -22498.406     6349.482    11087.235   -26631.362    4010.8267   -4243.0363    78.817066 
   36500    726.18619    -122.0148   0.65706853   -121.35774   -2859.3422    4.2829082    4.2829082    4.2829082   -2859.3422    1675.6088   -4444.9748   -5808.6608   -6375.8446   -5005.6285    13903.718    78.562683 
   36600     617.7243     -121.917   0.55892993   -121.35807    8143.5664    4.2774643    4.2774643    4.2774643    8143.5664    15380.522    7553.9845     1496.193    10646.554   -12213.804     21811.79    78.263485 
   36700    572.69295   -121.87754   0.51818461   -121.35936   -2161.9226    4.2873383    4.2873383    4.2873383   -2161.9226    -4839.484    2388.3914   -4034.6751   -14948.401   -4818.3003     1935.069    78.806723 
   36800    705.18469   -121.99646   0.63806593   -121.35839    2274.1189    4.2804813    4.2804813    4.2804813    2274.1189   -14487.917   -2881.0681    24191.342   -28683.171    6092.6256   -4837.8393    78.429204 
   36900    763.56345   -122.04846   0.69088826   -121.35758    4074.6186    4.2799235    4.2799235    4.2799235    4074.6186   -3416.4052    2064.3553    13575.906   -4831.0104    4190.4073    7853.5016    78.398547 
   37000    797.98217   -122.07949   0.72203103   -121.35746   -10415.985    4.2869045    4.2869045    4.2869045   -10415.985    756.73623   -2508.9077   -29495.785    6850.2117   -10893.494    18218.296    78.782805 
   37100    579.21091   -121.88394    0.5240822   -121.35986   -4046.1939    4.2806862    4.2806862    4.2806862   -4046.1939   -9511.5598    5940.1289   -8567.1507   -13585.385   -14877.453    7004.8513    78.440469 
   37200    673.15655   -121.96912    0.6090862   -121.36003   -8350.8052    4.2814168    4.2814168    4.2814168   -8350.8052   -25932.167   -11957.857    12837.609   -30310.407    1175.9192   -10794.661    78.480639 
   37300    833.43519   -122.11226   0.75410968   -121.35815   -2583.9035    4.2833217    4.2833217    4.2833217   -2583.9035    -13309.28    7838.3054    -2280.736   -6170.3417    14531.113    4633.5542    78.585441 
   37400    820.07095   -122.09932   0.74201743   -121.35731   -987.04456    4.2834472    4.2834472    4.2834472   -987.04456   -4971.4008     11995.86   -9985.5924    13510.031    -5207.173    11785.061    78.592349 
   37500    541.11961   -121.84851    0.4896164   -121.35889   -1202.8012    4.2844182    4.2844182    4.2844182   -1202.8012   -14311.274   -31.032784    10733.903   -13486.492   -21424.072    6555.2323    78.645808 
   37600    579.97873   -121.88359   0.52477694   -121.35881    2416.1108    4.2810215    4.2810215    4.2810215    2416.1108   -15049.803    8292.3389    14005.796   -28815.335   -4058.1665    1337.9093    78.458904 
   37700    791.59092    -122.0734    0.7162481   -121.35715    6349.0068    4.2813715    4.2813715    4.2813715    6349.0068   -3532.4504    2487.0019    20092.469   -10343.837    14258.133   -6678.9546    78.478147 
   37800    810.63337   -122.09109   0.73347811   -121.35761    2316.2688    4.2831972    4.2831972    4.2831972    2316.2688   -6304.4601    10990.233    2263.0339    9111.2677    6834.3449    6119.9217    78.578588 
   37900    591.26292   -121.89623   0.53498712   -121.36124   -6825.3074    4.2840378    4.2840378    4.2840378   -6825.3074   -9225.2098     795.0409   -12045.753   -4812.6805   -17039.568    8967.5924    78.624858 
   38000    476.95694   -121.79335   0.43156067   -121.36179   -5165.2327    4.2835357    4.2835357    4.2835357   -5165.2327   -12275.699   -11628.317     8408.317   -27018.346   -16673.946    5024.7358    78.597215 
   38100    852.10982   -122.12937   0.77100687   -121.35836   -2138.5945    4.2805157    4.2805157    4.2805157   -2138.5945   -16473.096    2208.0935    7849.2192    -11915.19    15538.052    1243.7515    78.431098 
   38200    977.95977   -122.24104   0.88487855   -121.35616    2764.0104    4.2838046    4.2838046    4.2838046    2764.0104   -7876.1097    15770.658    397.48308    7342.6765    12018.216    -2643.961    78.612019 
   38300    661.96738   -121.96016     0.598962   -121.36119   -2221.2524    4.2847918    4.2847918    4.2847918   -2221.2524   -12909.288    4166.7379    2078.7926   -5319.0265   -15926.917     13452.27    78.666379 
   38400    383.90374   -121.71241   0.34736417   -121.36505   -1894.8528    4.2803433    4.2803433    4.2803433   -1894.8528   -20423.284   -1414.1751    16152.901   -24563.878    -21256.73    6525.4033    78.421619 
   38500    694.03147    -121.9908   0.62797426   -121.36283    3258.6849    4.2830838    4.2830838    4.2830838    3258.6849   -17358.556    5509.3445    21625.267   -18454.212   -1280.5982   -3130.1072    78.572343 
   38600    1105.0073   -122.35554    0.9998338   -121.35571    7812.8535    4.2828757    4.2828757    4.2828757    7812.8535     -3485.16    8048.7597    18874.961    8656.2296    13072.797    2595.6328    78.560891 
   38700    795.57517   -122.08107   0.71985313   -121.36122   -2953.7058    4.2834374    4.2834374    4.2834374   -2953.7058   -11654.764    5280.7788    -2487.132    124.07422    -12422.71    1552.2307    78.591805 
   38800    218.67817   -121.56575    0.1978646   -121.36788   -9572.2227    4.2826422    4.2826422    4.2826422   -9572.2227   -26869.851    3249.2753   -5096.0927   -24279.651   -28737.233    8839.8539    78.548046 
   38900    513.41032   -121.83183   0.46454444   -121.36729   -4247.4655    4.2811509    4.2811509    4.2811509   -4247.4655   -18694.534   -2817.4614    8769.5992   -25296.964   -5214.2845    2363.0731    78.466014 
   39000    1133.0804   -122.38312     1.025235   -121.35788   -1811.4476    4.2880231    4.2880231    4.2880231   -1811.4476   -8310.2513   -1342.4076    4218.3162   -87.559165    7558.8752    -4402.485    78.844489 
   39100     963.3834   -122.23265   0.87168954   -121.36096     3988.475    4.2803385    4.2803385    4.2803385     3988.475   -9105.2544    22255.717   -1185.0379    7095.9814   -10888.873    4425.0964    78.421354 
   39200    297.51109   -121.63922   0.26919429   -121.37002   -4424.0442    4.2781704    4.2781704    4.2781704   -4424.0442   -24484.704    4398.7079    6813.8638   -24734.689   -23180.698    2953.7586    78.302247 
   39300    302.88712   -121.64572   0.27405863   -121.37166   -14785.922    4.2896871    4.2896871    4.2896871   -14785.922   -25522.791   -26340.578    7505.6017   -27154.441   -9317.5929    13894.102    78.936316 
   39400    983.46285   -122.25069   0.88985785   -121.36083    6731.7378    4.2816392    4.2816392    4.2816392    6731.7378    6662.4365    3481.3074    10051.469    -70.61353     5359.233    5479.4243     78.49287 
   39500    1144.3538   -122.39197    1.0354354   -121.35654    9974.4933    4.2776522    4.2776522    4.2776522    9974.4933    2329.8374    17686.977    9906.6655    6268.3887    541.22313   -7442.9655    78.273796 
   39600    508.97666   -121.82755   0.46053278   -121.36702   -8539.9159    4.2874397    4.2874397    4.2874397   -8539.9159   -14290.487   -15881.255    4551.9934   -19474.491   -13606.057    6389.3218    78.812315 
   39700    281.57756   -121.62223   0.25477729   -121.36746   -5726.1426    4.2852435    4.2852435    4.2852435   -5726.1426   -3358.8384   -11972.273    -1847.316   -32681.006   -12898.783    4291.8562    78.691261 
   39800    838.32525   -122.12034   0.75853431    -121.3618    3870.8326    4.2782361    4.2782361    4.2782361    3870.8326    2461.2402    10657.221   -1505.9632   -2131.2108    5451.1961    8500.3506    78.305857 
   39900    1045.6465   -122.30335    0.9461229   -121.35723    10635.517    4.2814829    4.2814829    4.2814829    10635.517    13359.826    13367.446    5179.2806    9115.4592    12624.086     510.9829    78.484276 
   40000    713.30776   -122.00722   0.64541585    -121.3618   -4665.4774    4.2887274    4.2887274    4.2887274   -4665.4774   -17269.256    6864.8425   -3592.0184   -15538.341   -2989.5166   -9210.8882    78.883347 
   40100    412.43571   -121.73703   0.37318049   -121.36385   -3743.7159    4.2802473    4.2802473    4.2802473   -3743.7159   -16902.262   -3152.7102    8823.8249   -30608.483   -16914.652    11060.876    78.416342 
   40200     612.3138   -121.91598   0.55403439   -121.36194    1098.1358    4.2784124    4.2784124    4.2784124    1098.1358    3064.9562   -5813.9188    6043.3699   -8443.9778    -5472.788    10981.856    78.315536 
   40300    915.59412    -122.1858    0.8284488   -121.35735   -8507.3767    4.2886254    4.2886254    4.2886254   -8507.3767   -9882.0702   -2708.6639   -12931.396    14096.919    18525.731    8686.7086    78.877717 
   40400    762.59361   -122.04923   0.69001072   -121.35922   -1217.7386    4.2794072    4.2794072    4.2794072   -1217.7386   -17098.241    7413.8515    6031.1739    -12116.68    8094.5543   -3860.8839    78.370181 
   40500    594.05262   -121.89887   0.53751129   -121.36136   -2374.3515     4.277905     4.277905     4.277905   -2374.3515    -18548.93   -5384.6351    16810.511   -30714.439   -13080.643   -804.00166    78.287676 
   40600    599.40301   -121.90247   0.54235244   -121.36012   -10698.959    4.2910202    4.2910202    4.2910202   -10698.959   -14823.429    -214.7203   -17058.728    -8850.656   -2363.5953    19978.479    79.009928 
   40700    711.22543   -122.00161   0.64353172   -121.35807    4501.3323    4.2801777    4.2801777    4.2801777    4501.3323    3640.4312    20524.048   -10660.483    8547.3752    10119.067    8076.1453    78.412517 
   40800    753.82553   -122.03887   0.68207718    -121.3568      8360.99    4.2759004    4.2759004    4.2759004      8360.99    -10121.88    15795.903    19408.947   -10301.135    12683.706   -2673.6815    78.177672 
   40900    718.41675   -122.00855   0.65003857   -121.35851   -5137.4841    4.2886643    4.2886643    4.2886643   -5137.4841   -19800.206   -4361.2655    8749.0193   -29358.734   -2750.7177   -2347.6069    78.879866 
   41000    695.05819   -121.98715   0.62890326   -121.35825    1815.9619    4.2833035    4.2833035    4.2833035    1815.9619    5036.5275   -8027.2799    8438.6382   -9745.0346   -7948.9852    14181.612    78.584436 
   41100    741.24541   -122.02753   0.67069443   -121.35683    1825.3515     4.278017     4.278017     4.278017    1825.3515    15262.667   -233.98463    -9552.628    10750.339    9702.4591    28170.192    78.293827 
   41200    678.44573   -121.97273   0.61387195   -121.35885   -2550.0384    4.2838475    4.2838475    4.2838475   -2550.0384    -3418.483    2461.8195   -6693.4518   -7164.8474    9298.7391   -1638.4488    78.614384 
   41300    637.35862   -121.93603   0.57669547   -121.35933   -7196.9451    4.2864825    4.2864825    4.2864825   -7196.9451    -21805.33   -5343.1596    5557.6544   -31267.446    6824.2977   -12188.812    78.759537 
   41400    647.90559   -121.94521   0.58623859   -121.35897   -2128.6824    4.2806933    4.2806933    4.2806933   -2128.6824    2583.3575   -5601.6046      -3367.8   -14786.851   -2539.2597    13726.565    78.440859 
   41500    799.42573   -122.08046    0.7233372   -121.35712   -132.78193    4.2817603    4.2817603    4.2817603   -132.78193    10691.102    9178.5545   -20268.002    8392.0086   -3848.5876    20979.945    78.499529 
   41600    767.24244   -122.05066   0.69421708   -121.35645   -3584.2246    4.2877434    4.2877434    4.2877434   -3584.2246   -13880.649    9387.8609   -6259.8854   -5467.2186    12388.664    9186.4102    78.829061 
   41700    629.35686   -121.92814   0.56945531   -121.35869    1119.2584    4.2816372    4.2816372    4.2816372    1119.2584   -19032.945    5230.8369    17159.883   -26277.722    5055.2074   -9980.2603    78.492759 
   41800    646.38505    -121.9433   0.58486278   -121.35844    2420.3279    4.2794855    4.2794855    4.2794855    2420.3279     3041.039    2834.9335    1385.0112   -18995.633   -558.15789    3395.3818    78.374482 
   41900    688.60254   -121.98228   0.62306205   -121.35922    4881.3906    4.2849223    4.2849223    4.2849223    4881.3906    18709.684    2731.9039   -6797.4159    6641.2725   -327.74438    22500.547    78.673571 
   42000    777.25916   -122.06054   0.70328042   -121.35726    -294.7551    4.2850297    4.2850297    4.2850297    -294.7551    3534.6025    1765.7588   -6184.6266    3975.2092    3912.6947    8264.3243    78.679483 
   42100    697.61967   -121.98879   0.63122094   -121.35757    964.89039    4.2802025    4.2802025    4.2802025    964.89039   -8617.3545    1589.9587     9922.067   -21829.425    10450.177   -3714.5128     78.41388 
   42200    674.63477   -121.96956   0.61042371   -121.35913     -2185.12    4.2797822    4.2797822    4.2797822     -2185.12    4083.2756   -13475.889    2837.2533   -20481.739   -1503.4276   -6123.4677    78.390782 
   42300    629.75985   -121.92924   0.56981995   -121.35942   -11273.215    4.2877783    4.2877783    4.2877783   -11273.215    12308.052   -14656.803   -31470.894    2038.3756   -4337.3518    10332.829    78.830989 
   42400    656.65811   -121.95296   0.59415806    -121.3588   -8212.4182    4.2845888    4.2845888    4.2845888   -8212.4182   -753.15414    785.29711   -24669.398    6844.5696   -1691.6943    16872.952    78.655202 
   42500    799.38706   -122.07941   0.72330221    -121.3561    7481.4066    4.2740252    4.2740252    4.2740252    7481.4066   -10550.379    11989.104    21005.495   -4829.2422    659.37926   -2189.5525    78.074863 
   42600    866.68484   -122.14091   0.78419466   -121.35672   -5638.1223    4.2867542    4.2867542    4.2867542   -5638.1223   -12379.933    5141.4289   -9675.8629   -9804.5459    4340.0038   -3776.2826    78.774515 
   42700    538.81127   -121.84891   0.48752776   -121.36139   -14461.856    4.2884447    4.2884447    4.2884447   -14461.856    9779.7582   -15976.799   -37188.528   -2272.7961   -8072.5718    10173.944    78.867751 
   42800    439.18252   -121.75937   0.39738157   -121.36199    2421.8066    4.2725169    4.2725169    4.2725169    2421.8066    17659.129   -1473.6717   -8920.0377    16042.038   -8492.1991    11589.321    77.992233 
   42900    808.17631   -122.09244   0.73125491   -121.36118   -3576.7209    4.2877562    4.2877562    4.2877562   -3576.7209   -10809.413   -4480.4394    4559.6897    16674.611    413.64902    293.53132    78.829771 
   43000     1052.597   -122.30749    0.9524119   -121.35508    1722.6531     4.287665     4.287665     4.287665    1722.6531   -878.75621    8805.3249   -2758.6094    -2740.188     5.599241   -2754.1588    78.824739 
   43100    689.46361   -121.98246   0.62384116   -121.35862    13846.166    4.2720486    4.2720486    4.2720486    13846.166    32036.336    22623.733   -13121.572   -7752.6405   -230.07168    1387.7255    77.966593 
   43200    307.69107   -121.64345   0.27840535   -121.36504   -10154.568    4.2880233    4.2880233    4.2880233   -10154.568    7659.1489   -10489.748   -27633.107    9890.5639   -7632.1129    4727.4273    78.844504 
   43300    627.95874   -121.93106   0.56819026   -121.36287   -2349.4692    4.2833899    4.2833899    4.2833899   -2349.4692   -4745.7009    2630.3751    -4933.082    20890.413   -3414.5338    3304.1843    78.589195 
   43400    990.83971   -122.25259   0.89653259   -121.35605    12188.781    4.2775841    4.2775841    4.2775841    12188.781    2520.6461    20893.084    13152.613     11618.49    7184.1767   -3943.4999     78.27006 
   43500    794.22694   -122.07635   0.71863323   -121.35772   -7800.7115    4.2884821    4.2884821    4.2884821   -7800.7115   -7387.9763    4127.0103   -20141.168   -7442.2662    2963.6267    2703.4896    78.869812 
   43600    432.74175    -121.7521   0.39155383   -121.36054   -5755.7844    4.2822052    4.2822052    4.2822052   -5755.7844    6569.2932    974.21314    -24810.86     5084.482   -6088.6527    4861.3731    78.524001 
   43700    611.12913   -121.91051   0.55296248   -121.35754   -5598.6473    4.2830551    4.2830551    4.2830551   -5598.6473   -6764.8252   -3032.6343   -6998.4825    23454.401   -6649.9097    1995.6489    78.570765 
   43800    846.99069   -122.12016   0.76637498   -121.35379   -255.71259    4.2839362    4.2839362    4.2839362   -255.71259   -20224.706    8108.6043    11348.963    3188.7485    9436.3386    1207.6387    78.619267 
   43900    750.18101   -122.03526   0.67877954   -121.35648   -1301.6549    4.2810934    4.2810934    4.2810934   -1301.6549    -11028.21    18197.053   -11073.808   -16511.703    9622.1782   -1783.8155    78.462855 
   44000    620.02556   -121.92019   0.56101216   -121.35917   -6256.7329    4.2851757    4.2851757    4.2851757   -6256.7329   -1954.0203     2600.287   -19416.465   -3424.0952   -8945.3079    11818.691    78.687529 
   44100    803.86008   -122.08465   0.72734949    -121.3573    3995.4303    4.2798246    4.2798246    4.2798246    3995.4303    9920.9973     7491.395   -5426.1014    11357.732   -6810.9436    7277.1923    78.393112 
   44200    889.61747   -122.16117   0.80494458   -121.35623    2659.7695    4.2829036    4.2829036    4.2829036    2659.7695   -7928.1192     19536.24   -3628.8123    2201.8596    12376.365   -5193.0038    78.562427 
   44300    532.29986   -121.84176    0.4816361   -121.36013   -2143.9115    4.2857945    4.2857945    4.2857945   -2143.9115    -21425.97    19435.614   -4441.3777   -16008.516    19542.197    2709.3767     78.72162 
   44400    477.35448   -121.79407   0.43192037   -121.36215    1105.8944    4.2786695    4.2786695    4.2786695    1105.8944   -7869.5397    12349.101   -1161.8776   -12515.715   -5195.3562    5142.2363    78.329655 
   44500    765.78245   -122.05191   0.69289606   -121.35901    2143.5121    4.2836482    4.2836482    4.2836482    2143.5121    5357.0351    4105.6358   -3032.1345    2884.3866   -17390.423    7868.3087    78.603409 
   44600    913.98257   -122.18291   0.82699064   -121.35592    -643.0891    4.2852479    4.2852479    4.2852479    -643.0891   -8597.9667    10892.671   -4223.9717    2135.1213    13240.931    1840.9967    78.691508 
   44700    576.90269   -121.88278   0.52199367   -121.36079    -2420.823    4.2808569    4.2808569    4.2808569    -2420.823   -27450.806    11186.217    9002.1202   -15752.359    27889.559   -3029.9457    78.449854 
   44800    476.12017   -121.79303   0.43080354   -121.36223   -7234.9715     4.281667     4.281667     4.281667   -7234.9715   -24923.755   -2545.6748    5764.5153   -18021.788    2402.1556    3205.8748    78.494397 
   44900    826.83578   -122.10743   0.74813839   -121.35929   -4531.1595     4.282933     4.282933     4.282933   -4531.1595   -3687.7705    2401.7293   -12307.437   -214.78914   -20842.724    7172.0265    78.564049 
   45000    835.65526     -122.113   0.75611844   -121.35689    3202.4884    4.2844282    4.2844282    4.2844282    3202.4884      1382.26    14583.826   -6358.6204    5249.8795    3954.4399    4470.5649    78.646354 
   45100    655.40292   -121.95191   0.59302234   -121.35889   -3492.9399    4.2819587    4.2819587    4.2819587   -3492.9399   -10439.401    5040.6729   -5080.0915   -9025.6501    29779.702   -1521.9264    78.510442 
   45200     550.0192   -121.85843   0.49766893   -121.36076    4643.0023    4.2788711    4.2788711    4.2788711    4643.0023     2291.602    15336.116   -3698.7116   -18389.185    9105.8837    1643.6405    78.340729 
   45300    847.73282   -122.12471   0.76704647   -121.35767   -696.98685    4.2847568    4.2847568    4.2847568   -696.98685    15043.536   -4031.0031   -13103.494   -7145.1274   -11432.406    14511.399    78.664452 
   45400    840.87282   -122.11847    0.7608394   -121.35763   -3391.9389    4.2835382    4.2835382    4.2835382   -3391.9389    14148.605   -9043.6765   -15280.745    11341.651    4689.2828    7796.1288    78.597355 
   45500    536.36991   -121.84639   0.48531877   -121.36107   -3878.5482    4.2792321    4.2792321    4.2792321   -3878.5482   -14868.586    10670.945   -7438.0037    7614.3636    28999.061   -3482.1099    78.360559 
   45600    544.35277   -121.85438   0.49254182   -121.36184    -7407.476    4.2835613    4.2835613    4.2835613    -7407.476   -12857.262   -5898.1384   -3467.0279    -15487.51    19727.957   -1208.8747    78.598625 
   45700    792.64059   -122.07621   0.71719786   -121.35901   -2521.6144    4.2849634    4.2849634    4.2849634   -2521.6144    7907.5654   -21636.291    6163.8828   -17318.397   -9615.4927    8443.6692    78.675834 
   45800     898.8123   -122.16889   0.81326426   -121.35563    4003.2983    4.2788031    4.2788031    4.2788031    4003.2983    13038.868   -518.57465   -510.39871    -336.5872     3578.026    13088.735    78.336994 
   45900    560.43241   -121.86755   0.50709102   -121.36046    3281.4035    4.2833582    4.2833582    4.2833582    3281.4035    3274.5462    20395.265   -13825.601    7897.2677    27555.686   -555.11132    78.587447 
   46000    582.53214    -121.8867   0.52708732   -121.35962    -7694.137      4.28677      4.28677      4.28677    -7694.137   -18400.253   -11388.548    6706.3904   -6095.2569     14083.15   -3403.5291    78.775388 
   46100    756.55829   -122.04031   0.68454984   -121.35576    6698.1747    4.2780339    4.2780339    4.2780339    6698.1747    3897.4374   -1596.4836     17793.57   -16599.113    -3188.913     5465.871    78.294753 
   46200    823.39464   -122.10186   0.74502478   -121.35683    676.64523    4.2824817    4.2824817    4.2824817    676.64523    6761.8897    9599.2405   -14331.194    -1160.166   -5456.9393      11801.7    78.539211 
   46300    684.05173   -121.97736   0.61894438   -121.35842   -4914.3843    4.2860253    4.2860253    4.2860253   -4914.3843    -6357.409    949.71393   -9335.4579    5997.6639    11164.223    7061.8249    78.734338 
   46400    573.44544   -121.87799   0.51886549   -121.35912    4921.6266    4.2819934    4.2819934    4.2819934    4921.6266   -7285.1741    -1330.002    23380.056    632.81969    15548.398   -5366.7952    78.512351 
   46500    818.18898   -122.09617   0.74031458   -121.35585   -3985.4771    4.2842975    4.2842975    4.2842975   -3985.4771   -436.57612   -20162.167    8642.3122   -6291.0923   -5211.7629    -241.6481     78.63916 
   46600    765.75327   -122.04859   0.69286965   -121.35572    6771.5672    4.2799026    4.2799026    4.2799026    6771.5672    14385.552   -2869.3977    8798.5471   -7709.5683   -9373.4888    3961.1422    78.397401 
   46700    685.00371   -121.97836   0.61980575   -121.35856   -2759.7074    4.2842013    4.2842013    4.2842013   -2759.7074   -17360.399    10305.582   -1224.3058    5796.0234   -2177.1506    6634.1686    78.633863 
   46800    607.49889   -121.90909   0.54967776   -121.35941   -4108.9013    4.2854076    4.2854076    4.2854076   -4108.9013   -10485.491     1687.862   -3529.0751    6207.7133    11630.433   -3745.2196    78.700303 
   46900    664.74996   -121.95802   0.60147974   -121.35654     7069.283     4.278909     4.278909     4.278909     7069.283    12092.541   -5262.5319     14377.84    1117.9829    6507.1186   -14182.182    78.342813 
   47000    776.24355   -122.05723   0.70236147   -121.35487    -6600.359    4.2897572    4.2897572    4.2897572    -6600.359    -10718.39    1094.8641   -10177.551   -5299.3504   -16584.969   -2613.5401    78.940185 
   47100    644.37918   -121.93843   0.58304783   -121.35539    909.50995    4.2841142    4.2841142    4.2841142    909.50995   -12401.521    32492.958   -17362.908   -1450.4707   -8435.7797    3153.5096    78.629065 
   47200    675.76219   -121.96621   0.61144383   -121.35476    7848.4621     4.275022     4.275022     4.275022    7848.4621   -2023.8882    19310.799    6258.4757    16766.697    9708.9752    3013.4422    78.129505 
   47300    661.33471   -121.95552   0.59838954   -121.35713   -6219.7383    4.2896211    4.2896211    4.2896211   -6219.7383   -7153.4311   -15322.873    3817.0894    12130.809    6757.0865   -11451.671    78.932673 
   47400    664.06196   -121.95745   0.60085722   -121.35659   -1372.8196     4.285909     4.285909     4.285909   -1372.8196   -1598.3454    4689.0657   -7209.1791    107.84965   -15033.142   -11959.558    78.727932 
   47500    720.05934   -122.00666   0.65152482   -121.35513    1924.2729    4.2781349    4.2781349    4.2781349    1924.2729   -8248.1294    26382.559   -12361.611   -3188.8233   -28421.428    2257.2928      78.3003 
   47600    779.77789   -122.06044   0.70555942   -121.35488   -6866.4222     4.287315     4.287315     4.287315   -6866.4222    -21147.17    468.09719    79.806421    8303.0349    1757.4465    797.56301    78.805438 
   47700    795.10425    -122.0732   0.71942703   -121.35377   -8947.0839    4.2877399    4.2877399    4.2877399   -8947.0839   -8794.8924   -21593.869    3547.5094    17693.245    12059.964   -4287.4165    78.828867 
   47800    628.11031   -121.92287   0.56832741   -121.35454   -5031.3999    4.2811545    4.2811545    4.2811545   -5031.3999   -6574.5068   -1167.2835   -7352.4094     125.5095   -21869.549   -14588.562    78.466217 
   47900    647.22836   -121.94246   0.58562582   -121.35684   -7670.2732    4.2825189    4.2825189    4.2825189   -7670.2732   -19940.942    18819.855   -21889.732   -5108.3233   -31409.099    -6993.396    78.541259 
   48000    887.89248   -122.15888   0.80338378    -121.3555       497.05    4.2839324    4.2839324    4.2839324       497.05   -9486.8843    12331.363   -1353.3288    3849.3664    314.67962    3065.0403    78.619058 
   48100    829.17547   -122.10508   0.75025539   -121.35482     3375.628     4.285628     4.285628     4.285628     3375.628    312.85641    5947.2575      3866.77    14807.213    13920.953   -2592.7368    78.712447 
   48200    429.98593    -121.7485    0.3890603   -121.35944   -1384.5114    4.2850881    4.2850881    4.2850881   -1384.5114   -10284.327    27801.242   -21670.449    10547.647   -23356.999    -5245.386      78.6827 
   48300    506.30719   -121.81742   0.45811739    -121.3593    1795.4532    4.2832796    4.2832796    4.2832796    1795.4532   -5623.5162    35348.035    -24338.16    -4355.539   -34998.832   -9986.9463    78.583122 
   48400    942.21727   -122.20621   0.85253798   -121.35367    8687.7903    4.2842715    4.2842715    4.2842715    8687.7903    9086.8606    20105.747   -3129.2365    3277.2355    2111.1247    -1444.438     78.63773 
   48500    946.26331   -122.21052   0.85619893   -121.35432    5478.6873    4.2839598    4.2839598    4.2839598    5478.6873   -626.17021    12248.626    4813.6063    12698.816    7511.3248    5733.5763    78.620567 
   48600    436.61009   -121.75923   0.39505398   -121.36417   -9436.1509    4.2828973    4.2828973    4.2828973   -9436.1509   -16272.724    4477.6206   -16513.349    11869.709   -28468.779   -3526.4793    78.562082 
   48700    337.66026   -121.67233    0.3055221    -121.3668   -2118.0529    4.2800133    4.2800133    4.2800133   -2118.0529    9471.7234    4380.5458   -20206.428    626.36728   -33663.269   -11078.057    78.403484 
   48800    923.51532   -122.19627   0.83561607   -121.36065    78.102692    4.2857292    4.2857292    4.2857292    78.102692     15640.75    391.66607   -15798.108   -4647.6865   -405.03697   -9543.9901    78.718023 
   48900    1023.3559   -122.28211   0.92595395   -121.35616    3779.9878    4.2850046    4.2850046    4.2850046    3779.9878   -246.83179    6919.7237    4667.0715    9460.0562    5696.6762    2313.5156    78.678104 
   49000    559.38551   -121.86762   0.50614376   -121.36147    4125.2166    4.2787594    4.2787594    4.2787594    4125.2166   -135.47179    19017.797   -6506.6753    11170.749   -27829.413    412.59808    78.334592 
   49100    468.77677    -121.7873   0.42415908   -121.36314    -9535.311    4.2861207    4.2861207    4.2861207    -9535.311   -17613.919    17837.611   -28829.625    2813.7227   -32625.706   -11147.705    78.739595 
   49200     838.3622   -122.11754   0.75856774   -121.35898    2364.0858    4.2824414    4.2824414    4.2824414    2364.0858    4525.9868    18348.103   -15781.832    -5304.959    4285.4807   -16921.359    78.536997 
   49300     978.3934   -122.24088   0.88527091   -121.35561    4422.3882    4.2800586    4.2800586    4.2800586    4422.3882    5733.5723    7915.4504   -381.85808    1956.1594    8800.1642    1254.7273    78.405971 
   49400    589.29635   -121.89421   0.53320772     -121.361   -6204.4164    4.2844694    4.2844694    4.2844694   -6204.4164   -23582.214    14362.116   -9393.1503    13708.561   -24439.032    7175.7696    78.648623 
   49500    358.52427    -121.6884    0.3244003     -121.364   -4086.7496     4.281757     4.281757     4.281757   -4086.7496   -11815.528    11797.537   -12242.258    10429.588   -32188.118   -10176.444    78.499346 
   49600    682.99044   -121.97955    0.6179841   -121.36157   -4530.8186    4.2848578    4.2848578    4.2848578   -4530.8186    12980.233   -18289.274    -8283.415    1538.6655   -3892.6461   -21270.766    78.670016 
   49700    952.46962   -122.21729   0.86181453   -121.35548    3970.9068    4.2825413    4.2825413    4.2825413    3970.9068    20487.739   -8500.3381   -74.680667   -1452.0278    7112.8979   -7934.9777    78.542492 
   49800    746.55075   -122.03438   0.67549481   -121.35888    1280.8413    4.2814586    4.2814586    4.2814586    1280.8413   -13996.607    13651.865    4187.2658    3141.6736   -23721.376    10448.709     78.48294 
   49900    444.59061   -121.76504   0.40227492   -121.36276   -14375.258    4.2869695    4.2869695    4.2869695   -14375.258   -17326.338     -4510.88   -21288.556    11973.761   -25645.994   -9867.6826    78.786386 
   50000    527.59367   -121.83861   0.47737784   -121.36123    454.57574    4.2810051    4.2810051    4.2810051    454.57574    19195.867   -8498.3745   -9333.7649     3951.888   -1039.4778   -32937.103    78.457998 
   50100    1041.4882   -122.29907   0.94236044   -121.35671    403.03215    4.2816734    4.2816734    4.2816734    403.03215    6967.9255   -4376.0473   -1382.7817   -2271.9636    6949.2478   -12275.091     78.49475 
   50200    983.04861   -122.24678   0.88948304   -121.35729    6221.9159    4.2826313    4.2826313    4.2826313    6221.9159    1063.8495    13795.358    3806.5401   -324.41573   -10039.647    10063.776    78.547444 
   50300    506.15045    -121.8215   0.45797556   -121.36352    720.74437    4.2837442    4.2837442    4.2837442    720.74437   -454.18134    5537.6623   -2921.2478    4670.0394   -24198.046   -8799.0608    78.608693 
   50400    403.62604   -121.72958   0.36520932   -121.36437   -9907.8326    4.2858875    4.2858875    4.2858875   -9907.8326    6512.3984   -21008.071   -15227.826    7417.3977   -5368.0589   -34338.042    78.726744 
   50500    759.52442    -122.0475   0.68723366   -121.36026    11837.841    4.2759245    4.2759245    4.2759245    11837.841      29150.4   -1464.3369    7827.4594    251.09344    7783.7313   -17499.342    78.178995 
   50600    1038.6108   -122.29665   0.93975685   -121.35689    2315.9786    4.2854358    4.2854358    4.2854358    2315.9786    1397.4481    3508.0492    2042.4385    -2884.186   -4108.5986    11856.429    78.701859 
   50700    601.93341   -121.90676     0.544642   -121.36212   -9681.1088    4.2883795    4.2883795    4.2883795   -9681.1088   -3274.7698   -5503.8077   -20264.749    3001.4023    -20224.39   -7178.0914    78.864151 
   50800     318.4607   -121.65208   0.28814994   -121.36393    2291.5364    4.2722426    4.2722426    4.2722426    2291.5364     22211.53   -669.35795   -14667.563    10448.699   -16898.161   -32063.954    77.977215 
   50900     704.9409   -122.00195   0.63784534    -121.3641   -10264.731    4.2864651    4.2864651    4.2864651   -10264.731    463.40623   -25274.513   -5983.0868     12399.29    8551.0359   -17849.369    78.758582 
   51000     1035.251   -122.29248   0.93671687   -121.35576   -6389.7528    4.2885004    4.2885004    4.2885004   -6389.7528   -14487.402    2619.8447   -7301.7008     1510.283    11054.652    9638.7786    78.870821 
   51100    793.53665   -122.07585   0.71800864   -121.35784    5539.2358    4.2727175    4.2727175    4.2727175    5539.2358    1498.8694    20654.273   -5535.4345    -4942.214   -11740.281   -3216.9305    78.003222 
   51200    424.45407   -121.74768   0.38405497   -121.36362   -10255.202    4.2848431    4.2848431    4.2848431   -10255.202    5429.6895   -24663.128   -11532.168    8175.1451   -14298.594   -32784.671    78.669209 
   51300    607.19777   -121.91039    0.5494053   -121.36098   -5258.6028    4.2888184    4.2888184    4.2888184   -5258.6028    1115.7645   -13435.304   -3456.2694    9309.6889    265.19627   -18099.114    78.888368 
   51400    946.06159   -122.21026   0.85601641   -121.35424    13065.961    4.2758581    4.2758581    4.2758581    13065.961     7738.501    21189.209    10270.172    4813.8429    19801.989    7503.3488    78.175356 
   51500    785.77002   -122.06838   0.71098122    -121.3574    8330.0531    4.2793475    4.2793475    4.2793475    8330.0531    20965.809    6995.4625   -2971.1127   -2860.1683    5086.2887   -3981.2871    78.366896 
   51600    490.56583   -121.80658   0.44387427    -121.3627   -6051.5579     4.288376     4.288376     4.288376   -6051.5579    19674.887   -12545.896   -25283.665   -413.51481   -16645.673   -26026.426    78.863956 
   51700    542.55379   -121.85262   0.49091407   -121.36171     2905.245    4.2798445    4.2798445    4.2798445     2905.245     20600.82    1449.8811   -13334.966    11624.202   -10810.442   -19482.959    78.394209 
   51800    909.52922   -122.18089   0.82296116   -121.35793    3833.5468     4.277581     4.277581     4.277581    3833.5468     4334.264    3368.9322     3797.444    12838.804     11569.16    7404.7703    78.269891 
   51900    866.77943   -122.14138   0.78428025    -121.3571   -7617.4118    4.2885524    4.2885524    4.2885524   -7617.4118   -4403.3068    -2631.777   -15817.152    847.26819    11801.536   -972.25922    78.873693 
   52000    588.22915   -121.89229    0.5322421   -121.36005   -9583.9868    4.2816444    4.2816444    4.2816444   -9583.9868    5849.4351   -2156.6435   -32444.752   -3301.5014   -13794.887    -31516.35    78.493154 
   52100    513.59978   -121.82559   0.46471588   -121.36088    -5602.892    4.2780531    4.2780531    4.2780531    -5602.892    1257.9027    -4132.581   -13933.998     12517.37    -16136.84   -17202.655    78.295807 
   52200    772.37873   -122.05631   0.69886451   -121.35744   -9348.8918    4.2879134    4.2879134    4.2879134   -9348.8918   -15277.042   -13427.859    658.22537    20288.838    5507.2341    8139.2203    78.838439 
   52300    861.76203   -122.13561    0.7797404   -121.35587    2958.9228    4.2803319    4.2803319    4.2803319    2958.9228    1720.5768    7879.7254   -723.53379    1514.1337     8308.603    1653.0596    78.420994 
   52400    642.91911   -121.94041   0.58172672   -121.35868     4848.221    4.2778853    4.2778853    4.2778853     4848.221     20816.22    5673.7993   -11945.356   -8416.4442   -4401.1317   -22592.528    78.286595 
   52500    528.63868   -121.83962   0.47832339   -121.36129   -2581.1754     4.286049     4.286049     4.286049   -2581.1754    7932.3584    -5073.289   -10602.596    7454.2381   -16083.708   -18437.344    78.735644 
   52600    643.09375   -121.94055   0.58188474   -121.35867    8669.0457    4.2840492    4.2840492    4.2840492    8669.0457    8160.7623    8178.0913    9668.2836     22812.93   -5383.2142    11053.042    78.625489 
   52700    880.63602   -122.15079   0.79681798   -121.35397    6624.1969      4.28239      4.28239      4.28239    6624.1969    7606.9523    5030.5664    7235.0719    8030.4369    5664.6186    5309.4576     78.53417 
   52800    815.43131   -122.09264   0.73781939   -121.35482    6673.3549    4.2813183    4.2813183    4.2813183    6673.3549     13497.44    6393.6175    129.00719   -12475.768    751.61958   -18289.544    78.475223 
   52900     709.4028   -121.99944   0.64188256   -121.35755   -4123.4419    4.2844816    4.2844816    4.2844816   -4123.4419    4557.2755   -5265.5015     -11662.1    1197.7141   -5709.4207   -13770.254    78.649297 
   53000    543.28175   -121.85127   0.49157274    -121.3597   -5489.2077    4.2837219    4.2837219    4.2837219   -5489.2077   -7054.6219   -2177.6363   -7235.3648    25236.508   -10016.559    10667.996    78.607467 
   53100    727.56206   -122.01689   0.65831344   -121.35858   -2658.3535    4.2788389    4.2788389    4.2788389   -2658.3535   -3834.3324   -9021.5244    4880.7962    15531.839   -1194.7215    12105.016     78.33896 
   53200    912.99613   -122.18205   0.82609809   -121.35596   -3758.4249    4.2854074    4.2854074    4.2854074   -3758.4249    10840.197    -9264.454   -12851.018   -16521.964    4524.7126   -14891.397    78.700294 
   53300    702.57834   -121.99202   0.63570765   -121.35631    -7564.238    4.2874984    4.2874984    4.2874984    -7564.238    4887.3175   -8721.7475   -18858.284   -2538.1106   -8227.3982   -13427.301     78.81555 
   53400    417.06108   -121.73682   0.37736563   -121.35945   -6220.0305    4.2796755    4.2796755    4.2796755   -6220.0305   -12631.277   -2714.0417   -3314.7728    34110.387   -9696.3507    8494.9705    78.384919 
   53500    546.78357   -121.85691   0.49474127   -121.36217   -126.76664    4.2786106    4.2786106    4.2786106   -126.76664   -3782.7972   -4548.1292    7950.6265     22629.14   -2738.3455    11171.639    78.326424 
   53600    983.08053   -122.24743   0.88951192   -121.35791    183.47622    4.2858088    4.2858088    4.2858088    183.47622    6083.7302   -6979.9627    1446.6611   -12229.685    3514.2104     1336.694    78.722409 
   53700    959.88998   -122.22663   0.86852862    -121.3581    1460.9334    4.2841253    4.2841253    4.2841253    1460.9334   -4013.3234    3017.1441    5378.9795   -3042.1628    1448.0426   -9595.3225    78.629679 
   53800    456.40849   -121.77722     0.412968   -121.36425   -567.82055    4.2778708    4.2778708    4.2778708   -567.82055   -12104.499   -15689.952    26090.989    32758.471   -11365.711    2623.3025      78.2858 
   53900    351.49219   -121.68444   0.31803752    -121.3664    -3284.794    4.2852542    4.2852542    4.2852542    -3284.794   -1502.4152   -14315.864    5963.8977    23155.347   -7474.9438    12659.888    78.691851 
   54000     944.2875   -122.21225   0.85441118   -121.35783   -1340.7537    4.2878383    4.2878383    4.2878383   -1340.7537     3112.605    5018.7155   -12153.582   -12027.836    4412.5151    7450.1515    78.834295 
   54100    1011.5437   -122.26968   0.91526599   -121.35441    14895.246     4.275525     4.275525     4.275525    14895.246    14177.964    8885.0113    21622.762    3631.2922    3241.5804   -1764.1583    78.157086 
   54200    623.72347   -121.92885    0.5643581    -121.3645   -764.77619    4.2796136    4.2796136    4.2796136   -764.77619   -8880.3203   -1081.8841    7667.8758     28700.24   -7749.2788   -2897.1161    78.381521 
   54300    313.72334   -121.65062   0.28386347   -121.36676   -12906.123    4.2901069    4.2901069    4.2901069   -12906.123   -20671.326    9705.7923   -27752.836    18353.257   -14344.304    9807.2491    78.959491 
   54400    673.18364   -121.97031   0.60911071    -121.3612    545.23623    4.2800634    4.2800634    4.2800634    545.23623    6233.3325    14948.372   -19545.996   -3965.2879    818.92307    12973.256    78.406238 
   54500    1038.6537   -122.29447   0.93979567   -121.35467    2160.1188    4.2789938    4.2789938    4.2789938    2160.1188    5191.7952    5996.5069   -4707.9457   -3648.1296    10421.441   -1508.6904    78.347467 
   54600    741.23882   -122.02825   0.67068846   -121.35756   -2960.0144    4.2874701    4.2874701    4.2874701   -2960.0144   -13076.242     1252.018    2944.1808    26354.802   -6076.5588   -5215.9518    78.813989 
   54700    562.25203   -121.86817   0.50873746   -121.35944   -7015.5907    4.2861492    4.2861492    4.2861492   -7015.5907   -13738.684    -1062.779   -6245.3089    18243.047   -14424.087    3695.4327    78.741166 
   54800    736.35441   -122.02353   0.66626894   -121.35726      3862.29    4.2772942    4.2772942    4.2772942      3862.29    1179.8557    16897.129   -6490.1147    -6728.651   -2189.4276    16463.935    78.254148 
   54900    862.26455   -122.13686   0.78019508   -121.35667    11294.228    4.2773387    4.2773387    4.2773387    11294.228     12458.31    19348.274    2076.0992    979.14151    8863.4346    6878.2696    78.256593 
   55000    585.03116    -121.8896   0.52934849   -121.36025   -5273.3173    4.2921763    4.2921763    4.2921763   -5273.3173   -15905.952   -10970.842    11056.842    15780.702    1017.8804   -8842.0437     79.07381 
   55100    451.90791   -121.76962   0.40889578   -121.36072   -3654.4016    4.2819919    4.2819919    4.2819919   -3654.4016   -19799.759   -1704.1927    10540.747     18646.63   -11336.565   -5096.9855    78.512267 
   55200    770.50318   -122.05452   0.69716747   -121.35735     13813.85    4.2714736    4.2714736    4.2714736     13813.85    15893.668    31060.031   -5512.1474    -2277.354   -10788.998    3352.7371    77.935115 
   55300    1009.9371   -122.26891   0.91381231    -121.3551   -7711.1283    4.2920334    4.2920334    4.2920334   -7711.1283   -12274.024    2862.9486    -13722.31   -2833.9373   -1743.9096    5412.1852    79.065912 
   55400    603.51323   -121.90813   0.54607145   -121.36206   -10000.952    4.2840655    4.2840655    4.2840655   -10000.952   -18472.926   -17410.498    5880.5675    26626.129    6078.7897   -9200.7396    78.626386 
   55500    324.66038   -121.65747   0.29375954   -121.36371   -1605.7252    4.2715251    4.2715251    4.2715251   -1605.7252   -8941.3382   -2079.7629    6203.9255      17557.5   -10934.805   -14753.902    77.937936 
   55600    748.91667   -122.04054   0.67763555    -121.3629   -13926.739    4.2888249    4.2888249    4.2888249   -13926.739   -24875.918    3973.3056   -20877.603   -6580.4435   -21797.024   -4632.4203    78.888727 
   55700    1081.8761    -122.3344   0.97890423    -121.3555   -525.66445    4.2847553    4.2847553    4.2847553   -525.66445   -13746.149    11248.382    920.77325    581.80554   -5007.4748    5352.7449    78.664369 
   55800    775.42446   -122.06066   0.70162034   -121.35904    4466.1851    4.2747407    4.2747407    4.2747407    4466.1851   -10708.048   -2534.1237    26640.727    21651.554    5039.5267    3768.3689    78.114083 
   55900    408.90435   -121.73408   0.36998525    -121.3641   -5706.4575     4.282797     4.282797     4.282797   -5706.4575   -25418.493   -10116.733    18415.853    16179.462   -3622.6314    -11418.49    78.556562 
   56000    540.72465   -121.85039   0.48925902   -121.36113   -3550.8916    4.2882295    4.2882295    4.2882295   -3550.8916   -20974.709    8873.2102    1448.8243   -7246.1075   -20898.009   -10664.279    78.855874 
   56100    880.23426   -122.15219   0.79645446   -121.35573     5865.881    4.2798996    4.2798996    4.2798996     5865.881    3605.4942    14742.012   -749.86317   -1137.5044    -9836.392    6981.5421    78.397236 
   56200    777.22102   -122.05948   0.70324591   -121.35623    11632.841     4.275761     4.275761     4.275761    11632.841    1842.5186    8311.7139     24744.29    17510.733    7129.4682    9908.0715     78.17003 
   56300    664.94623   -121.96091   0.60165732   -121.35925   -7794.0958    4.2885705    4.2885705    4.2885705   -7794.0958   -20278.415    -5020.204    1916.3314    11248.638   -2358.1424   -7138.6145    78.874691 
   56400    620.87367   -121.92042   0.56177954   -121.35864   -3984.5191    4.2844521    4.2844521    4.2844521   -3984.5191   -2288.1494    5721.1761   -15386.584   -6356.7694   -12586.032   -17794.677    78.647674 
   56500    729.09574   -122.01632   0.65970114   -121.35662    6187.7327    4.2746328    4.2746328    4.2746328    6187.7327      10550.8    9490.6606    -1478.262   -5626.3313   -9164.9889    4829.9225    78.108164 
   56600    790.99033   -122.07313   0.71570468   -121.35743   -1984.1327    4.2861619    4.2861619    4.2861619   -1984.1327   -5689.7613    -7229.725    6967.0881    11244.724    6888.0436    22116.061    78.741867 
   56700    785.85776   -122.06725   0.71106061   -121.35619    -16.71288    4.2862117    4.2862117    4.2862117    -16.71288   -4232.9351   -8296.6938     12479.49    11327.937      2780.83   -2956.6282    78.744615 
   56800     616.2323   -121.91489   0.55757994   -121.35731    1313.5918    4.2778817    4.2778817    4.2778817    1313.5918   -7328.2487   -2645.7757      13914.8   -5055.6705   -12671.535   -19805.037    78.286398 
   56900    522.16254   -121.83273   0.47246364   -121.36027   -5620.9713    4.2814923    4.2814923    4.2814923   -5620.9713   -9345.4502    5534.5254   -13051.989   -6905.3477    -12286.86    5833.8301    78.484791 
   57000     718.2907   -122.00883   0.64992452    -121.3589   -2471.4194    4.2854035    4.2854035    4.2854035   -2471.4194   -3448.3453    10661.789   -14627.702    2076.6533     84.42438    25853.901     78.70008 
   57100     984.0146   -122.24435   0.89035709   -121.35399    58.714836    4.2836901    4.2836901    4.2836901    58.714836   -6739.2315    4113.9402    2801.4358    4751.1881    2935.6073    2437.3502    78.605719 
   57200    692.14826   -121.98447   0.62627029    -121.3582     245.5981      4.28124      4.28124      4.28124     245.5981   -12104.776     13581.95   -740.38005   -1300.9366   -12894.956   -24092.521    78.470918 
   57300    381.19236    -121.7083   0.34491086   -121.36339   -2551.3568    4.2812885    4.2812885    4.2812885   -2551.3568   -8466.1635      10408.1    -9596.007   -4916.7901   -12432.125   -2021.9283    78.473583 
   57400    640.15464   -121.94231   0.57922537   -121.36308   -3240.1494    4.2839512    4.2839512    4.2839512   -3240.1494   -517.96254    -6545.282   -2657.2038   -497.58386    1386.2642    29933.605    78.620091 
   57500    1034.3912   -122.29184   0.93593887    -121.3559    1017.7082    4.2834509    4.2834509    4.2834509    1017.7082    605.94986    643.55308    1803.6216      1731.47    4284.1758    13001.152     78.59255 
   57600    833.92133    -122.1124   0.75454954   -121.35785   -2126.6083    4.2806843    4.2806843    4.2806843   -2126.6083   -6349.6548    11307.235   -11337.405   -2190.7278   -8094.8825   -23509.046    78.440366 
   57700    443.28177   -121.76337   0.40109066   -121.36228   -12892.786    4.2844242    4.2844242    4.2844242   -12892.786   -8427.8594   -4025.3727   -26225.127   -5360.3789   -9487.6013   -12471.042    78.646135 
   57800    538.18962   -121.84949   0.48696528   -121.36253   -5578.4154    4.2842256    4.2842256    4.2842256   -5578.4154   -1650.7087   -5933.9509   -9150.5867   -4025.3341    689.98768    25459.792    78.635202 
   57900    926.75377   -122.19554   0.83854629     -121.357    8523.4191    4.2775909    4.2775909    4.2775909    8523.4191   -2243.5246    8887.0873    18926.695     1791.669    1522.9259    13335.098    78.270431 
   58000    776.27775   -122.06122   0.70239242   -121.35883    1508.3842    4.2837537    4.2837537    4.2837537    1508.3842   -7240.2527   -784.83283    12550.238    5183.2665   -3854.2727   -19806.312    78.609216 
   58100    486.01944   -121.80189   0.43976061   -121.36213   -6946.7064    4.2856745    4.2856745    4.2856745   -6946.7064   -4621.0754    2015.2745   -18234.318   -1387.0824   -11087.423    -8529.104     78.71501 
   58200    622.53582   -121.92147    0.5632835   -121.35818   -81.354067    4.2803095    4.2803095    4.2803095   -81.354067    -4495.733    6415.2849   -2163.6142   -5859.2214   -5592.8136    13779.019    78.419763 
   58300    889.14864   -122.15795   0.80452037   -121.35343   -4297.8638    4.2853958    4.2853958    4.2853958   -4297.8638   -11867.481   -8224.4444    7198.3339    5748.4695    2905.0428    13983.772    78.699651 
   58400    761.74397   -122.04478   0.68924195   -121.35554   -3159.3273    4.2823543    4.2823543    4.2823543   -3159.3273   -9209.7657    340.71432   -608.93046    13688.511   -1120.9062   -13676.765    78.532205 
   58500    540.98355   -121.84912   0.48949329   -121.35963    270.85979    4.2808946    4.2808946    4.2808946    270.85979   -12419.413    19153.739    -5921.747    988.34598   -10564.234   -19269.003    78.451926 
   58600    640.39651   -121.94025   0.57944422    -121.3608   -2604.6431    4.2856245    4.2856245    4.2856245   -2604.6431   -14921.121    4382.9969    2724.1945   -4387.1578   -9279.1938    9485.7073    78.712252 
   58700    889.06724    -122.1606   0.80444673   -121.35615    9110.5528    4.2803075    4.2803075    4.2803075    9110.5528   -6355.0181    6439.6235    27247.053    7287.0661    3382.5129    10617.174    78.419654 
   58800    770.06228   -122.05444   0.69676853   -121.35767   -2218.4093    4.2859515    4.2859515    4.2859515   -2218.4093    -20191.17   -2864.7068    16400.648    16203.073     3395.047    -9884.547     78.73027 
   58900    510.60542   -121.82251   0.46200651    -121.3605   -13050.617    4.2848422    4.2848422    4.2848422   -13050.617   -21514.175   -2520.2917   -15117.383    6001.2049   -10699.477   -15272.053     78.66916 
   59000    613.80499    -121.9155   0.55538366   -121.36011    4002.8203    4.2747949    4.2747949    4.2747949    4002.8203   -6395.6999    24734.701   -6330.5403   -4268.8426   -13642.642    2076.8553    78.117052 
   59100    986.18898   -122.24894   0.89232451   -121.35661   -4905.6908    4.2886392    4.2886392    4.2886392   -4905.6908   -18229.525   -3123.9454    6636.3977    5100.2017   -2121.8652    15262.578    78.878479 
   59200    803.82524   -122.08566   0.72731797   -121.35834    4213.9482    4.2836129    4.2836129    4.2836129    4213.9482   -9187.4057   -10465.957    32295.208    11640.158   -328.68727   -9448.1083    78.601467 
   59300    330.88138   -121.66267   0.29938842   -121.36328    6306.3397     4.275145     4.275145     4.275145    6306.3397   -4745.7449    16340.544    7324.2197    4490.3494   -16251.942   -22001.151     78.13625 
   59400    400.26126   -121.72608    0.3621648   -121.36392   -9267.9763    4.2907243    4.2907243    4.2907243   -9267.9763   -24983.392     12460.08   -15280.616   -5501.9686   -13013.439   -8726.8211    78.993586 
   59500    996.65736   -122.25694   0.90179652   -121.35515    3356.4145    4.2834753    4.2834753    4.2834753    3356.4145   -8050.1271    10170.728    7948.6426   -2338.8462    2466.3461    5858.2435    78.593891 
   59600    1009.4542   -122.26837   0.91337541     -121.355    12741.697    4.2740901    4.2740901    4.2740901    12741.697    11717.639    11981.595    14525.856    4971.2933    3705.6561   -2434.9848    78.078422 
   59700    453.93689   -121.77613   0.41073164    -121.3654   -2259.8689    4.2849634    4.2849634    4.2849634   -2259.8689   -3967.1821   -273.33954   -2539.0849    5073.2497   -10474.267   -23583.992    78.675831 
   59800    345.72827   -121.67895   0.31282221   -121.36612   -5682.8478     4.288658     4.288658     4.288658   -5682.8478   -20589.569    2154.2284    1386.7973   -1366.0238   -13061.711   -7716.7555    78.879519 
   59900    918.75808   -122.19043   0.83131162   -121.35912     6512.111    4.2756018    4.2756018    4.2756018     6512.111   -13304.972    20340.401    12500.905   -11055.754    2229.4253    4404.4097    78.161294 
   60000    1039.5634   -122.29786   0.94061884   -121.35724    7394.2277    4.2789192    4.2789192    4.2789192    7394.2277   -294.01671    1354.6222    21122.078   -7052.2065    4017.0683   -1345.5776     78.34337 
   60100    646.68452   -121.94608   0.58513375   -121.36095   -20481.407    4.2936668    4.2936668    4.2936668   -20481.407   -9676.4237   -15961.809   -35805.989    3799.6965   -9318.6329   -13856.536    79.156213 
   60200    460.55715   -121.77764   0.41672178   -121.36092   -2782.9108    4.2759129    4.2759129    4.2759129   -2782.9108    -11604.26     28345.58   -25090.053    1152.3812    -22510.07   -16195.955    78.178359 
   60300     839.1255   -122.11711   0.75925839   -121.35785    1321.0177    4.2794165    4.2794165    4.2794165    1321.0177   -22842.184    20232.189    6573.0481   -6933.8137   -7919.1776    3106.8335    78.370693 
   60400     905.4447   -122.17214   0.81926539   -121.35288   -5603.7407    4.2915757    4.2915757    4.2915757   -5603.7407   -17895.505      -7488.6    8572.8825   -10300.019    6139.5858    2594.2275    79.040618 
   60500    512.77547   -121.82201   0.46397002   -121.35804    10302.939    4.2750808    4.2750808    4.2750808    10302.939     11948.87     18678.84    281.10801    549.00008   -5945.3147   -12284.559    78.132728 
   60600    408.44334   -121.73222   0.36956811   -121.36265   -9087.2273    4.2852501    4.2852501    4.2852501   -9087.2273   -9642.1479    6115.6067   -23735.141    2832.1245   -16448.395   -8840.1219    78.691624 
   60700    847.03549   -122.12405   0.76641551   -121.35763   -3412.3268    4.2839041    4.2839041    4.2839041   -3412.3268   -14228.155    10304.274   -6313.0987   -7215.9799   -10694.958   -243.02671      78.6175 
   60800    1109.4185   -122.35784    1.0038252   -121.35402    9992.7433    4.2779314    4.2779314    4.2779314    9992.7433    11319.703    12917.564    5740.9624   -5688.4013    7330.7272    3689.8369    78.289124 
   60900    570.85087   -121.87971   0.51651786   -121.36319   -13078.293    4.2906008    4.2906008    4.2906008   -13078.293    1471.4064   -15197.718   -25508.567   -1125.1377   -658.48941   -9502.5415    78.986765 
   61000     335.4276   -121.66887   0.30350194   -121.36537    667.93972    4.2774668    4.2774668    4.2774668    667.93972     14513.09    5756.4489    -18265.72    3771.3826   -18656.659   -13965.129    78.263622 
   61100    836.19756   -122.11755   0.75660913   -121.36094    7030.0254    4.2849899    4.2849899    4.2849899    7030.0254    4314.3614    10839.344    5936.3707    3054.7068   -12781.893    546.30539    78.677295 
   61200    1081.0781   -122.32988   0.97818217    -121.3517   -108.35302    4.2907763    4.2907763    4.2907763   -108.35302   -12418.021    1598.9679    10493.994   -2959.8418    5173.7556    2646.9653    78.996457 
   61300    566.78059   -121.87203   0.51283499    -121.3592    6780.1243     4.272615     4.272615     4.272615    6780.1243    15432.643    14233.754    -9326.024   -2919.8606    9084.7938   -7385.1992    77.997609 
   61400    330.53278   -121.66472     0.299073   -121.36565   -11367.842    4.2825986    4.2825986    4.2825986   -11367.842    7172.1734   -8818.3509   -32457.348    2286.5697   -11429.684   -12180.988    78.545645 
   61500    776.31517   -122.06197   0.70242628   -121.35955   -12446.875    4.2888425    4.2888425    4.2888425   -12446.875   -16450.911   -5841.7704   -15047.943    10341.522     -13865.8   -141.65176    78.889698 
   61600    933.38604   -122.19907   0.84454731   -121.35453   -977.87178    4.2811083    4.2811083    4.2811083   -977.87178   -16125.718     16953.08   -3760.9773    8376.2926    13386.567    2480.6984    78.463673 
   61700    618.23272   -121.91786   0.55938996   -121.35847   -2327.1317    4.2769853    4.2769853    4.2769853   -2327.1317    1700.2367    9545.4711   -18227.103   -3639.3455     19178.54   -8374.4735    78.237195 
   61800    450.40139   -121.76887   0.40753264   -121.36133   -4144.8781    4.2860619    4.2860619    4.2860619   -4144.8781   -1385.8382   -2656.1564   -8392.6397    489.34157    -2324.748   -11169.003    78.736356 
   61900    736.62052   -122.02403   0.66650972   -121.35752   -4753.2862    4.2872471    4.2872471    4.2872471   -4753.2862   -18068.555    4789.1412   -980.44451    11714.155   -11178.706   -2100.9068    78.801691 
   62000    875.97832   -122.14671   0.79260359    -121.3541    14807.302    4.2705452    4.2705452    4.2705452    14807.302   -8402.5643    25707.951     27116.52    7732.9535    12971.881    3667.5064     77.88431 
   62100    642.34675   -121.94192   0.58120883   -121.36071   -3446.5844    4.2839438    4.2839438    4.2839438   -3446.5844   -12351.999      11550.3   -9538.0542   -1750.2472    22777.468   -7355.3648    78.619687 
   62200     587.9103   -121.89247    0.5319536   -121.36051   -9763.9304    4.2889428    4.2889428    4.2889428   -9763.9304   -10404.228    18089.458   -36977.021   -3959.8011   -3200.6602   -12462.741    78.895234 
   62300    875.82808   -122.14701   0.79246765   -121.35454    9583.2372    4.2738702    4.2738702    4.2738702    9583.2372    11232.413     14797.72    2719.5788    4486.6829   -15996.271   -5271.1815    78.066371 
   62400    859.26978   -122.13306   0.77748535   -121.35557     400.1378    4.2829995    4.2829995    4.2829995     400.1378   -10923.489     12134.54    -10.63722    5557.6863    11272.015    4570.8625    78.567705 
   62500    552.48002   -121.85923   0.49989554   -121.35933   -4512.0348    4.2853458    4.2853458    4.2853458   -4512.0348   -25937.851    26311.843   -13910.096   -572.58655    31417.649   -627.34322    78.696899 
   62600     496.2147    -121.8094   0.44898549   -121.36041   -3869.0738    4.2809678    4.2809678    4.2809678   -3869.0738    363.95834   -2784.5624   -9186.6174   -1102.4327    2619.8714   -13139.947    78.455948 
   62700     776.1845   -122.06063   0.70230804   -121.35832   -2494.1088    4.2775424    4.2775424    4.2775424   -2494.1088    13693.288   -7914.6712   -13260.943   -2328.1209   -18644.691   -11383.311    78.267773 
   62800    855.54176   -122.13166   0.77411216   -121.35755   -3666.0207     4.282151     4.282151     4.282151   -3666.0207   -12955.541    14958.955   -13001.476    915.90313    15093.763    643.78713     78.52102 
   62900    591.06817   -121.89311    0.5348109    -121.3583   -18214.097      4.29145      4.29145      4.29145   -18214.097       -29542    7249.7691    -32350.06    2653.6888    39586.394   -208.83129    79.033674 
   63000    572.63546   -121.87523    0.5181326    -121.3571    1218.6239    4.2752864    4.2752864    4.2752864    1218.6239    10574.499    3415.5008   -10334.128   -1112.8898    5668.3883   -13122.675       78.144 
   63100    779.45529   -122.06055   0.70526753   -121.35528    5711.6488    4.2772908    4.2772908    4.2772908    5711.6488    17925.229    3139.2092   -3929.4919   -249.83381   -20946.102   -13732.564    78.253963 
   63200    655.79401   -121.95098    0.5933762    -121.3576   -3669.7794    4.2896601    4.2896601    4.2896601   -3669.7794   -9255.9945    16994.105   -18747.448   -506.16104    15288.652    3505.3132    78.934822 
   63300    586.79212   -121.88965   0.53094185   -121.35871    6075.8553     4.279982     4.279982     4.279982    6075.8553   -4546.3411    31085.993   -8312.0855    2305.8215    42939.015    5791.2101    78.401763 
   63400    854.73689   -122.12911    0.7733839   -121.35573    5532.8563    4.2779337    4.2779337    4.2779337    5532.8563     7079.833    16042.123   -6523.3876    1954.5001    10619.886   -8413.3751    78.289253 
   63500     922.4649   -122.18956   0.83466562    -121.3549    3107.7671    4.2844597    4.2844597    4.2844597    3107.7671    15244.789   -1883.7416   -4037.7458   -3969.2068   -14324.526   -11597.106     78.64809 
   63600    547.66099   -121.85583   0.49553517    -121.3603   -9478.8442    4.2861173    4.2861173    4.2861173   -9478.8442   -5684.5369    10041.456   -32793.451   -1891.5831    22699.235   -5450.6113     78.73941 
   63700    405.99769   -121.73021   0.36735524   -121.36285   -3757.0774    4.2772468    4.2772468    4.2772468   -3757.0774   -13334.855    31003.958   -28940.335   -3018.3211    42707.365    5393.5871    78.251545 
   63800    817.96861   -122.10046   0.74011519   -121.36035    5773.2223    4.2801678    4.2801678    4.2801678    5773.2223    13648.731    3190.5858    480.35036    1843.5169    5212.8802   -519.65335    78.411972 
   63900    991.20768   -122.25219   0.89686554   -121.35532   -3718.0531     4.289759     4.289759     4.289759   -3718.0531     16593.04   -21700.666   -6046.5334    4107.7504   -11695.762   -11347.505    78.940283 
   64000    475.60101   -121.79408   0.43033379   -121.36374   -4991.2876    4.2780217    4.2780217    4.2780217   -4991.2876    -4158.204    17975.717   -28791.376   -2010.4934    34067.581   -6153.1961    78.294083 
   64100    358.18187   -121.68898   0.32409048   -121.36489   -7325.4046    4.2766929    4.2766929    4.2766929   -7325.4046   -13003.123    31905.586   -40878.677    303.71808    45281.561    3298.6206    78.221151 
   64200    847.41527   -122.12607   0.76675915   -121.35931   -7415.3639    4.2898192    4.2898192    4.2898192   -7415.3639    4799.0986   -3570.5345   -23474.656    1571.3334   -5947.0147    9568.5995    78.943606 
   64300    1032.6526   -122.28916   0.93436576   -121.35479    4330.9362    4.2815853    4.2815853    4.2815853    4330.9362    16019.321     2175.026   -5201.5378    5711.7849   -10526.667     2412.656    78.489905 
   64400    610.04902   -121.91029   0.55198517   -121.35831    7277.0615    4.2746364    4.2746364    4.2746364    7277.0615   -170.25648    30577.728   -8576.2873    5339.6098    40416.756   -2685.1268    78.108364 
   64500    481.56752   -121.79683   0.43573241   -121.36109   -9651.7576    4.2885536    4.2885536    4.2885536   -9651.7576   -14746.878    11863.674   -26072.069   -1852.5628    37763.906    3989.6064    78.873754 
   64600    806.63891     -122.086   0.72986384   -121.35613    930.15238    4.2813318    4.2813318    4.2813318    930.15238    3915.8838    348.72527    -1474.152    620.72399   -13893.867    6868.7249    78.475963 
   64700    822.39149   -122.09961    0.7441171   -121.35549    7208.0023    4.2750888    4.2750888    4.2750888    7208.0023    3696.0054    9022.5204    8905.4811    3166.1045    -15853.75    8476.0472    78.133166 
   64800    554.15052   -121.86193   0.50140704   -121.36052   -15025.827    4.2868212    4.2868212    4.2868212   -15025.827   -32658.932    7720.4468   -20138.997     4124.619    36336.621    26.575837    78.778212 
   64900    593.29529   -121.89561   0.53682604   -121.35879   -5057.6152    4.2835695    4.2835695    4.2835695   -5057.6152   -16010.531    11602.382   -10764.696   -1598.1675    39546.579   -5735.5998    78.599078 
   65000    871.90152   -122.14317   0.78891482   -121.35425    375.46124    4.2812987    4.2812987    4.2812987    375.46124    7237.9696   -4163.8517   -1947.7342   -6434.7581   -10105.325     1824.997    78.474141 
   65100    769.54325   -122.05177    0.6962989   -121.35548    5055.4641    4.2786423    4.2786423    4.2786423    5055.4641    6249.5154     2302.111    6614.7659    1173.2398   -14332.933    6030.6732    78.328164 
   65200    527.35163   -121.83626   0.47715883    -121.3591   -3323.8747     4.284886     4.284886     4.284886   -3323.8747   -19641.252    15267.715   -5598.0876    3347.2366    24693.521     4683.105    78.671569 
   65300     706.2302   -121.99652   0.63901193   -121.35751   -7527.6368    4.2850385    4.2850385    4.2850385   -7527.6368   -23623.674    8991.1924   -7950.4282    333.13514    30245.917   -4130.1798    78.679972 
   65400    839.44884   -122.11393   0.75955095   -121.35438    11006.921     4.272478     4.272478     4.272478    11006.921     15768.28    6338.2647    10914.217   -4559.8639    -2992.789   -9263.0986    77.990108 
   65500     684.5332   -121.97816   0.61938002   -121.35878   -6335.0404    4.2868979    4.2868979    4.2868979   -6335.0404   -2680.6712   -6814.3231    -9510.127   -5486.3344   -6334.4736    4121.4142    78.782437 
   65600    624.76118   -121.92283   0.56529704   -121.35753   -4214.1994    4.2861792    4.2861792    4.2861792   -4214.1994   -25032.499    18528.083   -6138.1823    3785.1727    21684.103    7511.7413    78.742822 
   65700    794.11939    -122.0716   0.71853591   -121.35306    7136.9604    4.2754569    4.2754569    4.2754569    7136.9604   -11649.339    28008.233     5051.987    127.69321    23129.549   -2847.5665    78.153352 
   65800    733.20729   -122.01831   0.66342137   -121.35488   -5050.6206    4.2844327    4.2844327    4.2844327   -5050.6206   -83.583628   -13095.005   -1973.2729   -7411.4947   -370.60917   -20859.576    78.646604 
   65900    602.70491   -121.90366   0.54534007   -121.35832   -4708.4427    4.2825059    4.2825059    4.2825059   -4708.4427    1141.7838   -7402.5105   -7864.6013   -6841.1283   -8598.3216   -12427.562    78.540543 
   66000    627.77311   -121.92708   0.56802231   -121.35906   -3744.8153    4.2807989    4.2807989    4.2807989   -3744.8153   -16714.386    22396.876   -16916.936   -3539.3398    12804.689    12986.792    78.446663 
   66100    817.29083   -122.09562   0.73950192   -121.35612   -1748.1727    4.2806659    4.2806659    4.2806659   -1748.1727   -13357.904    21551.135   -13437.749    5163.1088    17521.575    3115.5079     78.43935 
   66200    752.81216   -122.03765   0.68116026   -121.35649    311.01207    4.2837491    4.2837491    4.2837491    311.01207    2085.7245     849.7825   -2002.4708   -1811.9505   -988.27379   -21736.787    78.608967 
   66300    645.49399   -121.94258   0.58405652   -121.35852   -1760.3676    4.2837597    4.2837597    4.2837597   -1760.3676    6605.9403   -7452.8317   -4434.2112   -9777.0198   -3328.5212   -18604.872     78.60955 
   66400    775.24811   -122.05793   0.70146078   -121.35647    13523.546    4.2733478    4.2733478    4.2733478    13523.546    3936.0603    19577.101    17057.478   -4247.8823    8208.3738    7107.2815    78.037748 
   66500    722.10105   -122.01184   0.65337221   -121.35847    1934.6516    4.2856221    4.2856221    4.2856221    1934.6516   -13141.257    11505.695    7439.5173    7286.6628    16206.883    6760.2914    78.712123 
   66600      523.551   -121.83245   0.47371994   -121.35873   -5854.8699    4.2872019    4.2872019    4.2872019   -5854.8699    2843.6312   -13761.498   -6646.7427     13828.45    5743.1368       -28024    78.799199 
   66700    679.54595   -121.97011   0.61486746   -121.35525    5445.7398    4.2762598    4.2762598    4.2762598    5445.7398    24849.965   -13096.179    4583.4344    218.52415   -3772.6052   -29560.435    78.197387 
   66800    966.71046   -122.22635   0.87469994   -121.35165   -2874.9762    4.2842179    4.2842179    4.2842179   -2874.9762   -6140.4292    956.69548   -3441.1951   -7777.7398    7720.4061    5347.0777    78.634778 
   66900    701.76221   -121.99258   0.63496919   -121.35761    123.82272    4.2812447    4.2812447    4.2812447    123.82272   -14451.729    13733.383    1089.8143    6640.0271    13906.248    4432.5198    78.471177 
   67000    283.61716   -121.62215   0.25662277   -121.36552   -8950.6863    4.2796624    4.2796624    4.2796624   -8950.6863    2267.4498   -14576.831   -14542.678    15409.803    5540.5425   -33813.268    78.384199 
   67100     465.7085   -121.78862   0.42138284   -121.36724   -8291.4613     4.282286     4.282286     4.282286   -8291.4613    12950.229    -22872.71   -14951.904    8713.4841   -5169.9228   -35935.285    78.528445 
   67200    1074.9243   -122.33066    0.9726141   -121.35804    6984.0333    4.2805132    4.2805132    4.2805132    6984.0333    5910.5272    8671.2942    6370.2786   -3826.1039   -1491.3998    5802.8797    78.430956 
   67300    898.42459   -122.17155   0.81291345   -121.35864   -3606.6712    4.2878907    4.2878907    4.2878907   -3606.6712   -7199.8679    -794.7625   -2825.3833   -3769.3569    11914.755     3012.658    78.837185 
   67400    328.18771   -121.66109   0.29695114   -121.36414   -7358.6909    4.2803031    4.2803031    4.2803031   -7358.6909    15512.737   -18105.741   -19483.069    9678.9733    8824.0732   -38127.942    78.419408 
   67500    471.35475   -121.78996   0.42649168   -121.36346   -2226.1898    4.2788721    4.2788721    4.2788721   -2226.1898    16858.463   -5983.6392   -17553.393    10090.021   -4992.5357   -29431.185    78.340786 
   67600    1088.9797   -122.34067   0.98533173   -121.35534   -2183.8709    4.2869586    4.2869586    4.2869586   -2183.8709   -10048.627    2650.9137    846.10018    338.56363   -7550.9915    7854.7959    78.785785 
   67700    1023.9117   -122.28407   0.92645685   -121.35761    9740.5027    4.2760428    4.2760428    4.2760428    9740.5027    7959.8353    19448.331    1813.3419   -5289.4219     5211.705    756.08762    78.185483 
   67800    432.32832   -121.75892   0.39117975   -121.36774   -4487.1585    4.2790657    4.2790657    4.2790657   -4487.1585    10990.098   -4413.0215   -20038.552    2152.3449    11111.315   -38300.697     78.35142 
   67900    360.41139   -121.69467    0.3261078   -121.36856   -11068.188    4.2865513    4.2865513    4.2865513   -11068.188   -9824.5989   -24278.955    898.98833    15297.111    1615.7556   -29340.947    78.763329 
   68000     947.7996   -122.21613   0.85758899   -121.35855    2718.8021    4.2812893    4.2812893    4.2812893    2718.8021   -14066.517    10814.097    11408.826    11006.883   -8773.6276    8466.1177    78.473625 
   68100    1001.1947   -122.26053     0.905902   -121.35463    5564.2521    4.2794006    4.2794006    4.2794006    5564.2521    2619.3541    14661.214   -587.81154   -3043.7066   -6282.1903   -194.32209    78.369817 
   68200    552.86596   -121.86113   0.50024474   -121.36088   -792.50997    4.2815285    4.2815285    4.2815285   -792.50997    12772.893   -5222.0159   -9928.4074   -910.26205    7588.4136   -34091.144    78.486778 
   68300    450.10623   -121.76979   0.40726557   -121.36253   -9943.7992    4.2863782    4.2863782    4.2863782   -9943.7992   -6522.1445     1973.772   -25283.025     11812.64    9781.6412   -23312.896    78.753793 
   68400    764.14642   -122.05062   0.69141574   -121.35921    2172.3209    4.2761772    4.2761772    4.2761772    2172.3209   -10499.689    10826.289    6190.3618    16774.809   -2583.0444    6713.2346    78.192858 
   68500    836.66826   -122.11583   0.75703503   -121.35879    7600.0458    4.2766999    4.2766999    4.2766999    7600.0458    2859.3225    10718.946    9221.8686   -1564.8092   -8828.3579    358.18085    78.221533 
   68600    658.38949   -121.95566   0.59572465   -121.35993   -12292.873    4.2910684    4.2910684    4.2910684   -12292.873    7132.6541   -14133.206   -29878.068   -9810.0149    1388.1177   -30696.556    79.012593 
   68700    614.62489   -121.91608   0.55612552   -121.35995    1240.2733    4.2755705    4.2755705    4.2755705    1240.2733    21654.199   -6196.9853   -11736.393    8448.4814    9682.5005   -21474.418     78.15958 
   68800    754.12942   -122.04019   0.68235214   -121.35783     5257.809    4.2754601    4.2754601    4.2754601     5257.809   -4794.7287    514.96082    20053.195    20552.583    3349.5249     12048.19    78.153523 
   68900    680.56111   -121.97296   0.61578599   -121.35718   -8169.4524    4.2912959    4.2912959    4.2912959   -8169.4524   -18212.162    -9832.097    3535.9014    4675.7743   -4147.5273   -1959.7283    79.025161 
   69000    626.38017    -121.9249   0.56676194   -121.35814    2193.6652    4.2785038    4.2785038    4.2785038    2193.6652    15026.643     686.2161   -9131.8633   -13418.741   -6862.3307   -30334.116    78.320555 
   69100    783.86947   -122.06576   0.70926157    -121.3565    5927.2439    4.2734956    4.2734956    4.2734956    5927.2439    10893.747     4583.422     2304.563    783.80479   -663.63494   -17878.601    78.045846 
   69200    829.48659   -122.10738    0.7505369   -121.35684   -4257.3904    4.2860853    4.2860853    4.2860853   -4257.3904   -16588.589    1636.3923    2180.0258    22361.578    5211.4592    11871.866    78.737649 
   69300     690.1037   -121.98341   0.62442033   -121.35899    -10135.11    4.2851658    4.2851658    4.2851658    -10135.11   -19667.063   -6100.9415   -4637.3252    7950.3248    3543.3309    5515.2992    78.686984 
   69400    524.93588    -121.8354   0.47497302   -121.36043   -1441.4799    4.2738482    4.2738482    4.2738482   -1441.4799    619.38871   -3626.0695   -1317.7589   -21218.346   -4132.2003   -24187.682    78.065167 
   69500    675.41944     -121.972    0.6111337   -121.36087   -2661.0862    4.2797131    4.2797131    4.2797131   -2661.0862    633.03634   -3954.8048   -4661.4902   -8597.9541   -9963.2866   -17029.509    78.386984 
   69600    843.39015   -122.12041   0.76311713   -121.35729   -6905.1501    4.2888368    4.2888368    4.2888368   -6905.1501   -5852.5891    -10700.02   -4162.8417     15108.77   -3208.5073    11092.394    78.889386 
   69700    738.74295    -122.0265   0.66843015   -121.35807     7725.939    4.2757373    4.2757373    4.2757373     7725.939    1717.4519   -688.91734    22149.282    8364.8757    7845.5964    6233.6968    78.168729 
   69800    502.39328   -121.81639     0.454576   -121.36181    4149.3467    4.2769607    4.2769607    4.2769607    4149.3467   -4219.6918   -1859.4717    18527.204    -12730.55    5074.5044   -16641.638    78.235844 
   69900    525.19422   -121.83708   0.47520676   -121.36187   -5756.1763     4.287977     4.287977     4.287977   -5756.1763     -1269.58   -3977.1062   -12021.843   -10406.634   -11592.324   -18942.792    78.841946 
   70000    834.93432   -122.11419   0.75546612   -121.35872    8861.0438    4.2773167    4.2773167    4.2773167    8861.0438    2309.3141    16699.943    7573.8743    8866.4527   -16981.472    3816.8945    78.255384 
   70100    1084.2063   -122.33708   0.98101261   -121.35607    7282.8393    4.2775468    4.2775468    4.2775468    7282.8393   -3709.9726    8651.1752    16907.315    5742.3465    1137.0505    8972.8921    78.268015 
   70200    671.09226   -121.96907   0.60721838   -121.36185    -5524.022    4.2860376    4.2860376    4.2860376    -5524.022   -6740.2894   -9247.3436   -584.43297   -10370.714     8265.296   -13533.635     78.73502 
   70300    320.41062   -121.65532   0.28991426   -121.36541   -7402.9984    4.2813409    4.2813409    4.2813409   -7402.9984   -19438.919    4253.0577   -7023.1338   -14646.995   -11510.416   -19498.927    78.476463 
   70400    689.71684    -121.9881   0.62407029   -121.36403   -3175.4208     4.278444     4.278444     4.278444   -3175.4208   -20997.094     14535.23   -3064.3978   -1817.1748   -24170.747   -1931.2628    78.317271 
   70500    1133.9485   -122.38266    1.0260205   -121.35664    6034.3784    4.2805684    4.2805684    4.2805684    6034.3784    1513.1155    6198.7069    10391.313    6045.6468   -2560.1571    5524.4897    78.433994 
   70600    849.86162   -122.13101   0.76897266   -121.36204   -2238.8606    4.2839004    4.2839004    4.2839004   -2238.8606   -3025.8803   -9168.3543    5477.6529   -7400.2487    8891.3574   -9592.1763    78.617294 
   70700    185.95072    -121.5373   0.16825212   -121.36905   -5173.9425    4.2810923    4.2810923    4.2810923   -5173.9425   -16786.844    2501.3013   -1236.2843   -15609.381   -12756.067   -16504.976    78.462794 
   70800    406.03978   -121.73449   0.36739333    -121.3671   -891.81082    4.2793932    4.2793932    4.2793932   -891.81082   -12950.149    16818.722   -6544.0053   -4235.6658   -21779.512   -3915.0719     78.36941 
   70900    1004.2723   -122.26618   0.90868672   -121.35749    1336.9377    4.2839368    4.2839368    4.2839368    1336.9377   -8656.0618    9021.9431    3644.9318    8092.2037   -7440.3316    7557.6924    78.619298 
   71000      915.017   -122.18582   0.82792661   -121.35789    5291.0315      4.28025      4.28025      4.28025    5291.0315    1128.2428     90.12685    14654.725    6142.2374    7226.7388    2668.8438    78.416489 
   71100    554.60574   -121.86511   0.50181893   -121.36329   -4062.0275    4.2785314    4.2785314    4.2785314   -4062.0275   -6798.7908    6264.2771   -11651.569   -9161.4288   -9335.4018   -12870.903    78.322071 
   71200    510.12971   -121.82438   0.46157608   -121.36281   -6996.9293    4.2818951    4.2818951    4.2818951   -6996.9293   -22460.758    17256.818   -15786.848   -6838.5328   -24171.895   -13729.856    78.506944 
   71300    797.01468   -122.08007   0.72115563   -121.35891   -4699.9573    4.2827616    4.2827616    4.2827616   -4699.9573   -21912.158    1732.6701    6079.6158    13903.083   -6078.8614    6603.9231    78.554616 
   71400    865.82862   -122.14055   0.78341993   -121.35713   -1790.6156    4.2788034    4.2788034    4.2788034   -1790.6156   -1464.9267   -16202.113    12295.193    14661.066    5638.1479    6348.4316    78.337014 
   71500    692.88095   -121.98653   0.62693324    -121.3596    114.28489    4.2773508    4.2773508    4.2773508    114.28489    7655.6872   -1953.1254   -5359.7072   -268.65542   -7671.2688   -7473.8221    78.257253 
   71600    630.12178   -121.93043   0.57014743   -121.36029   -2322.0856    4.2849768    4.2849768    4.2849768   -2322.0856   -13895.535     17548.37   -10619.092   -8042.9082   -24993.503   -11331.609    78.676572 
   71700    709.27895    -122.0005    0.6417705   -121.35873     2360.296    4.2809563    4.2809563    4.2809563     2360.296   -9648.0104    9334.1443    7394.7539     14557.68   -12948.213    706.30685    78.455318 
   71800    766.37612   -122.05025   0.69343322   -121.35682    13161.221    4.2742685    4.2742685    4.2742685    13161.221    11138.824    12787.731    15557.107    23305.718    9301.3536    10654.202    78.088195 
   71900    686.08427   -121.97925   0.62078347   -121.35847    1378.8745    4.2851177    4.2851177    4.2851177    1378.8745    6845.6179    10437.909   -13146.903    2616.3918   -5493.9364    2078.7447    78.684331 
   72000    553.33184   -121.86139   0.50066628   -121.36072    723.69308    4.2817173    4.2817173    4.2817173    723.69308     8332.857    18523.516   -24685.294   -6125.5066   -28882.005   -10189.441    78.497163 
   72100    674.97182   -121.97032   0.61072869   -121.35959    3440.9807    4.2751623    4.2751623    4.2751623    3440.9807   -262.95492    23802.897       -13217    6229.4642   -20019.214   -9481.9961    78.137193 
   72200    846.83861   -122.12344   0.76623737   -121.35721   -6460.4765    4.2849002    4.2849002    4.2849002   -6460.4765   -8822.2469   -11418.433    859.25044    25048.087    4916.2513    7827.5434    78.672352 
   72300    797.88745   -122.07879   0.72194534   -121.35685   -6918.2836    4.2828004    4.2828004    4.2828004   -6918.2836   -739.78691    -13243.74   -6771.3234     12149.58   -661.77892    6608.1369    78.556752 
   72400     630.5512   -121.92915   0.57053597   -121.35861   -5331.1118    4.2764308    4.2764308    4.2764308   -5331.1118   -1472.8553    12673.551   -27194.032   -10441.236   -30506.211   -9318.7705    78.206769 
   72500    548.47197   -121.85708   0.49626897   -121.36081   -5501.3394    4.2797892    4.2797892    4.2797892   -5501.3394    -10658.13    13070.594   -18916.482    6949.3571   -18095.905    -11519.99    78.391171 
   72600    682.55823   -121.97726   0.61759303   -121.35967   -6725.2837    4.2845849    4.2845849    4.2845849   -6725.2837   -13542.657   -11056.162    4422.9678    25278.617    12414.332   -3176.0394    78.654985 
   72700    776.02811   -122.05939   0.70216654   -121.35722    39.201564    4.2812808    4.2812808    4.2812808    39.201564   -5036.3347    2470.8994      2683.04    13855.223    3919.0658    5906.5583    78.473162 
   72800    831.15758   -122.10806   0.75204884   -121.35602    7373.8986    4.2758065    4.2758065    4.2758065    7373.8986    8819.9914    24650.029   -11348.325   -9521.4579   -18810.059   -4028.6467    78.172524 
   72900     689.0777   -121.98294   0.62349199   -121.35945   -2289.2127    4.2831598    4.2831598    4.2831598   -2289.2127    3076.7279   -1606.0243   -8338.3418    4658.8083    -15675.66   -8066.4937    78.576526 
   73000    487.31354   -121.80355   0.44093154   -121.36262   -5066.7953    4.2821305    4.2821305    4.2821305   -5066.7953   -10257.441   -7712.0227    2769.0782    32290.202    10882.376   -4371.4699     78.51989 
   73100    641.67244   -121.94273   0.58059871   -121.36213    1808.4093    4.2759757    4.2759757    4.2759757    1808.4093   -8797.9672    4222.4892    10000.706     14676.37    15333.947     728.4744    78.181806 
   73200    1001.2718   -122.26276   0.90597178   -121.35678    1742.1657    4.2826503    4.2826503    4.2826503    1742.1657    1454.2273     220.2025    3552.0675   -15711.319   -6579.2904    4621.0582    78.548491 
   73300    823.40787   -122.10188   0.74503675   -121.35685    827.98089    4.2854138    4.2854138    4.2854138    827.98089     1380.563    5778.8144   -4675.4348   -295.22625   -10978.116   -5045.4748    78.700647 
   73400    396.27458   -121.72019   0.35855757   -121.36163   -3606.5826    4.2793374    4.2793374    4.2793374   -3606.5826   -11085.218   -3234.5818    3500.0525     36202.93    5374.1042   -7295.7713    78.366345 
   73500    483.05202   -121.80026   0.43707562   -121.36319   -831.36667    4.2771622    4.2771622    4.2771622   -831.36667   -9066.7789   -5860.9851    12433.664    26245.075    13886.639   -1605.2081    78.246901 
   73600    986.67104    -122.2521   0.89276069   -121.35934    4199.9987     4.281581     4.281581     4.281581    4199.9987    -3085.168    17703.316   -2018.1517   -15571.285     6471.746    1755.9021    78.489666 
   73700    976.68695    -122.2432   0.88372688   -121.35947   -956.86257     4.283187     4.283187     4.283187   -956.86257    570.68628    -147.9754   -3293.2986   -3743.2753   -5600.8352    -2517.035    78.578024 
   73800    419.20678    -121.7462    0.3793071   -121.36689    -3791.156    4.2768364    4.2768364    4.2768364    -3791.156   -6141.4584   -17257.252    12025.242     39009.27    1046.6499   -10885.044    78.229026 
   73900    401.18265   -121.73043   0.36299849   -121.36743    -9533.627    4.2816879    4.2816879    4.2816879    -9533.627   -21578.436    190.11964   -7212.5644    29202.161    15659.531   -3441.7999    78.495547 
   74000    940.96728   -122.20985   0.85140697   -121.35844   -7842.1241    4.2867761    4.2867761    4.2867761   -7842.1241   -9417.4371     9011.939   -23120.874   -10245.152     12708.46    7074.1326    78.775721 
   74100    1022.7828   -122.28025   0.92543535   -121.35481    6032.7911    4.2755114    4.2755114    4.2755114    6032.7911    8969.9964    5507.2086    3621.1682    421.11011   -1338.6156    2573.2513    78.156337 
   74200    606.92391   -121.91078   0.54915751   -121.36162   -1274.1142    4.2773812    4.2773812    4.2773812   -1274.1142   -14541.599   -6622.9076    17342.164    35514.103     -3771.51   -6718.1153    78.258926 
   74300    433.21113   -121.75601   0.39197853   -121.36403   -10014.266    4.2856329    4.2856329    4.2856329   -10014.266    -9465.661   -11144.381   -9432.7544    24443.858    10372.134   -5708.7318    78.712718 
   74400    631.89888   -121.93255   0.57175538   -121.36079   -693.59545    4.2804368    4.2804368    4.2804368   -693.59545    19090.152     2873.564   -24044.502   -9045.5835    18080.057    9645.6276    78.426761 
   74500    839.69487   -122.11699   0.75977356   -121.35721    2806.4074    4.2757511    4.2757511    4.2757511    2806.4074    1585.2712    7351.3856   -517.43473    2749.8381    1492.9822    10770.573    78.169484 
   74600    674.32452   -121.97014     0.610143      -121.36    3484.2287    4.2812709    4.2812709    4.2812709    3484.2287   -6609.9782   -1856.9733    18919.638     29379.24   -10363.627    -723.9392    78.472618 
   74700    644.28506   -121.94263   0.58296266   -121.35967   -5130.1463    4.2857479    4.2857479    4.2857479   -5130.1463   -9096.0656   -7508.5625    1214.1892    21922.322    3058.8404   -5587.3456    78.719051 
   74800    785.93409   -122.06887   0.71112968   -121.35774    5524.7885    4.2756947    4.2756947    4.2756947    5524.7885    6187.7271     18458.23   -8071.5911   -4248.7085    19552.346    1845.3368    78.166394 
   74900     738.2786   -122.02683   0.66800999   -121.35882    7016.0884    4.2782478    4.2782478    4.2782478    7016.0884     7732.335    22382.519   -9066.5884   -2038.9018    9873.3178    8746.1611    78.306497 
   75000    619.55304   -121.91991   0.56058461   -121.35933   -7224.1025    4.2881749    4.2881749    4.2881749   -7224.1025   -12441.153   -7958.7485    -1272.406    27992.928   -13775.502    3224.2707    78.852863 
   75100     672.2142   -121.96707   0.60823354   -121.35884    5352.0598    4.2762923    4.2762923    4.2762923    5352.0598    -520.6796    3735.5013    12841.358    23471.807   -8730.8527   -4033.2972    78.199169 
   75200    906.86562    -122.1773   0.82055107   -121.35675    7138.5202    4.2754574    4.2754574    4.2754574    7138.5202    11838.258    15323.112     -5745.81   -6527.5997    10469.954   -2138.3404    78.153375 
   75300    836.40783   -122.11519   0.75679938   -121.35839   -6286.7267    4.2856687    4.2856687    4.2856687   -6286.7267    10678.336   -12140.053   -17398.463   -1775.5037    11557.349    6212.4799    78.714689 
   75400    412.62613   -121.73809    0.3733528   -121.36474   -6398.3936     4.279946     4.279946     4.279946   -6398.3936   -6406.1366   -18091.142    5302.0983    27555.935   -6361.9498    5890.1245    78.399786 
   75500    421.41299   -121.74644   0.38130333   -121.36514    -7262.049    4.2776928    4.2776928    4.2776928    -7262.049   -23393.385    -8331.997    9939.2353    29217.947   -23599.666    123.81283    78.276027 
   75600    931.39299   -122.20168   0.84274395   -121.35894   -5301.6206     4.284577     4.284577     4.284577   -5301.6206    -2621.976   -3110.2442   -10172.642   -6987.9079   -7240.0816   -3278.5274    78.654554 
   75700    1010.3277   -122.26899   0.91416571   -121.35482   -5398.9739    4.2843876    4.2843876    4.2843876   -5398.9739    11008.613   -14078.637   -13126.898    -3087.963    8127.7838    2649.2365    78.644123 
   75800    547.00918   -121.85703    0.4949454   -121.36208   -601.51067    4.2737444    4.2737444    4.2737444   -601.51067   -5821.9823   -6621.7101     10639.16    33974.254   -6603.2032    4487.2762    78.059475 
   75900    364.21227   -121.69777   0.32954692   -121.36822   -2849.3767    4.2806004    4.2806004    4.2806004   -2849.3767   -17636.773    5776.6897    3311.9527    28666.257   -23761.707    1801.7906     78.43575 
   76000    834.53538   -122.11749   0.75510515   -121.36239   -3578.7945    4.2869461    4.2869461    4.2869461   -3578.7945   -5724.4705    9402.3982   -14414.311   -3690.9698   -19336.038     278.1112    78.785098 
   76100    1060.1314   -122.31555   0.95922919   -121.35632    15256.604    4.2735258    4.2735258    4.2735258    15256.604    15765.134    17896.041    12108.637   -7034.0889    5905.1105   -1249.7655      78.0475 
   76200    555.01465   -121.86671   0.50218892   -121.36452   -840.38565    4.2822227    4.2822227    4.2822227   -840.38565   -7490.5938   -9657.9964    14627.433     23020.15    1808.1684    2615.3229    78.524962 
   76300    264.28023   -121.60347    0.2391263   -121.36435   -10207.315    4.2877943    4.2877943    4.2877943   -10207.315   -28810.769   -6875.9316    5064.7558    28086.398    -26060.31    5118.1569    78.831872 
   76400     727.9412   -122.01804   0.65865649   -121.35938    7400.2104    4.2767843    4.2767843    4.2767843    7400.2104   -9277.6278    27274.852     4203.407   -1371.9515   -21599.362   -764.66569    78.226165 
   76500    1148.3733   -122.39273    1.0390723   -121.35366    8642.6578    4.2789554    4.2789554    4.2789554    8642.6578    5235.4315    13382.597     7309.945   -6097.2463    3994.7242    211.06236     78.34536 
   76600    815.38001   -122.10184   0.73777297   -121.36407    99.977052    4.2805474    4.2805474    4.2805474    99.977052   -6704.8797   -2152.1686    9156.9795    16644.545    5628.5124    2060.9837    78.432838 
   76700    250.41059   -121.59882   0.22657676   -121.37224   -9624.3713    4.2806632    4.2806632    4.2806632   -9624.3713   -21595.198    6518.1928   -13796.108    25111.919    -26862.13    5378.5469    78.439201 
   76800    487.53259   -121.81162   0.44112973   -121.37049   -7583.0678     4.281699     4.281699     4.281699   -7583.0678   -17572.583    15862.748   -21039.368    3286.1351   -31802.066   -709.90396    78.496159 
   76900    1131.9772   -122.38179    1.0242367   -121.35755    1844.7536    4.2826839    4.2826839    4.2826839    1844.7536   -463.14668    7826.8841   -1829.4767   -12253.058    3488.3997   -6650.5471     78.55034 
   77000    965.98982   -122.23055   0.87404789    -121.3565   -646.55361    4.2831439    4.2831439    4.2831439   -646.55361   -6783.8638    503.64529    4340.5577    11532.957    5830.0629     2723.225    78.575655 
   77100    346.01399   -121.67718   0.31308073    -121.3641   -3931.3979     4.279733     4.279733     4.279733   -3931.3979   -25213.365    12671.143    748.02811    24989.504   -27362.554    4378.4006     78.38808 
   77200    398.50176     -121.727   0.36057277   -121.36642   -7159.8927    4.2808359    4.2808359    4.2808359   -7159.8927   -25047.159    6040.9655   -2473.4846    5825.7132   -32006.387    5306.6097    78.448701 
   77300    924.61809   -122.19896   0.83661387   -121.36234    6667.8134    4.2781126    4.2781126    4.2781126    6667.8134    897.30406    5703.3446    13402.791   -15123.839   -1023.4484   -205.41591    78.299076 
   77400    1032.3869   -122.29401   0.93412539   -121.35988    7479.6356    4.2808392    4.2808392    4.2808392    7479.6356    3110.3265    862.19943    18466.381   -3571.7262    5621.4655   -5159.0742    78.448882 
   77500    536.05015   -121.84987   0.48502944   -121.36484   -6491.6093    4.2858446    4.2858446    4.2858446   -6491.6093   -16849.575    6971.0739   -9596.3269    20196.506   -27014.487    1977.8578    78.724383 
   77600    362.31674   -121.69086    0.3278318   -121.36303    148.65026    4.2793676    4.2793676    4.2793676    148.65026   -7884.9858    16382.008   -8051.0716    13694.627   -34139.632    4913.3817    78.368005 
   77700    822.53055   -122.10052   0.74424292   -121.35627    -1242.843     4.282376     4.282376     4.282376    -1242.843    7907.3343   -5490.2612   -6145.6021   -8624.1574    597.79891    3444.0061    78.533398 
   77800    931.82528    -122.1973    0.8431351   -121.35417   -2317.1269    4.2820294    4.2820294    4.2820294   -2317.1269    9255.5196   -5567.9053   -10638.995   -9404.5264    6352.4359   -6922.8891    78.514332 
   77900    554.66903   -121.86327    0.5018762    -121.3614   -785.29661    4.2755677    4.2755677    4.2755677   -785.29661   -13301.964    16324.516   -5378.4418    9265.2585   -25611.433   -6514.5513    78.159427 
   78000    496.97782   -121.81339   0.44967598   -121.36371   -8972.7118    4.2834106    4.2834106    4.2834106   -8972.7118   -21307.288      8315.39   -13926.237    15633.326   -30175.389    7390.7491    78.590333 
   78100    809.97544   -122.09255    0.7328828   -121.35966   -1201.1125    4.2828496    4.2828496    4.2828496   -1201.1125    8362.8066    -1028.059   -10938.085   -788.88563    1708.4051    4860.7327    78.559455 
   78200    907.97968   -122.17752    0.8215591   -121.35596    9988.4171    4.2768354    4.2768354    4.2768354    9988.4171    20123.428    6947.5455    2894.2781   -9442.4869    7839.4355   -4654.8932    78.228967 
   78300    655.02419   -121.95215   0.59267965   -121.35947   -1878.4076    4.2832231    4.2832231    4.2832231   -1878.4076   -1462.4085    8141.2907   -12314.105   -2390.4404   -27037.516   -10732.323    78.580013 
   78400     593.0472    -121.8972   0.53660157    -121.3606    320.84774     4.281474     4.281474     4.281474    320.84774    -5791.419    20181.231   -13427.269    7460.5998   -31305.564   -473.67764    78.483782 
   78500    840.15725   -122.11777   0.76019194   -121.35758    4947.5165    4.2761719    4.2761719    4.2761719    4947.5165    6919.5908    10162.302   -2239.3439    9074.3289    4144.7072    15323.902    78.192565 
   78600    740.75156   -122.02934   0.67024757   -121.35909   -2783.5891     4.281674     4.281674     4.281674   -2783.5891     10968.05   -3771.0404   -15547.777   -944.70109    13868.012    3340.1077    78.494783 
   78700     545.3192    -121.8541   0.49341628   -121.36068   -7733.0895    4.2835488    4.2835488    4.2835488   -7733.0895   -4502.1298    8877.9897   -27575.128   -6982.0685   -19502.483   -13124.824    78.597941 
   78800    689.89367   -121.98222   0.62423029   -121.35799   -4153.6734    4.2787459    4.2787459    4.2787459   -4153.6734   -12971.405    16040.437   -15530.052    48.113337   -26454.806   -7111.4985     78.33385 
   78900     758.9062   -122.04371   0.68667428   -121.35704     1375.321    4.2783182    4.2783182    4.2783182     1375.321   -331.54214    15756.088   -11298.583    4723.1482    8308.8649    13982.193    78.310365 
   79000    609.93471   -121.91195   0.55188174   -121.36007   -820.99915    4.2818471    4.2818471    4.2818471   -820.99915    13315.256     8035.494   -23813.748    5430.2311    19052.813    7363.8041    78.504305 
   79100    608.28128   -121.91087   0.55038568   -121.36048    -1365.832     4.281931     4.281931     4.281931    -1365.832    3116.9647    10131.754   -17346.215   -21.207071   -8062.7966   -15925.531    78.508917 
   79200    843.71388   -122.12129   0.76341005   -121.35788    9271.9145    4.2765828    4.2765828    4.2765828    9271.9145    12201.796    15760.078   -146.13016   -7675.6809   -17658.303   -12284.983     78.21511 
   79300    844.81623   -122.12257   0.76440747   -121.35817    5872.0073    4.2802709    4.2802709    4.2802709    5872.0073    6964.6403    9835.6152    815.76624    -6569.566    4607.7877    11499.393     78.41764 
   79400    575.31611     -121.882    0.5205581   -121.36144   -8296.2022    4.2851135    4.2851135    4.2851135   -8296.2022   -8382.7737    -2676.951   -13828.882    1723.2123    20550.098    12019.566    78.684101 
   79500    614.28708   -121.91729   0.55581986   -121.36147   -1273.5747     4.275401     4.275401     4.275401   -1273.5747    11815.881   -542.29212   -15094.313    10940.899    7020.3969   -13847.609    78.150282 
   79600    863.74299   -122.14061   0.78153281   -121.35908   -117.29592    4.2785634    4.2785634    4.2785634   -117.29592    6335.1771   -2345.3102   -4341.7547   -5448.0205   -12522.563   -17824.399    78.323832 
   79700    812.41537   -122.09301    0.7350905   -121.35792   -10836.196    4.2862712    4.2862712    4.2862712   -10836.196   -20701.978   -7812.9865   -3993.6248   -22509.339    1246.9587    8162.1921     78.74789 
   79800    522.32548   -121.83391   0.47261107    -121.3613   -4049.3997    4.2769129    4.2769129    4.2769129   -4049.3997   -5201.5042    9768.6883   -16715.383   -5541.4747    18467.341    9805.4469    78.233224 
   79900    567.35601   -121.87447   0.51335564   -121.36111   -1615.6863    4.2772814    4.2772814    4.2772814   -1615.6863    15319.651    6781.1244   -26947.834    11324.243    12834.148   -7414.4559    78.253444 
   80000    788.15234   -122.07068    0.7131368   -121.35754   -6197.3602    4.2848924    4.2848924    4.2848924   -6197.3602   -2309.6646   -1766.2552   -14516.161   -2215.0493   -872.28792   -15045.171    78.671924 
   80100    714.03739   -122.00415   0.64607603   -121.35808   -388.54334    4.2805078    4.2805078    4.2805078   -388.54334   -14332.704    4773.2127    8393.8609   -28864.946   -3896.7121   -2726.5057    78.430662 
   80200    661.73458   -121.95765   0.59875136    -121.3589    392.69237    4.2767554    4.2767554    4.2767554    392.69237   -8461.4402    9917.0325   -277.51525   -19479.236    15246.726    9182.3841    78.224577 
   80300    762.36586   -122.04886   0.68980465   -121.35905   -268.04705    4.2806951    4.2806951    4.2806951   -268.04705   -4288.8754    15728.016   -12243.282     9190.732    18651.133   -3731.6176    78.440957 
   80400    754.21495   -122.04141   0.68242954   -121.35898   -758.96574    4.2827152    4.2827152    4.2827152   -758.96574   -4275.5447    671.95758    1326.6899   -1956.3797    -1346.425   -8942.6099    78.552063 
   80500    641.07249   -121.94065   0.58005586   -121.36059   -812.48387      4.27834      4.27834      4.27834   -812.48387   -12248.044   -9333.6682     19144.26   -29301.213   -7566.9819   -5091.3001    78.311564 
   80600    604.97229   -121.90847   0.54739164   -121.36108    1237.6985    4.2784676    4.2784676    4.2784676    1237.6985   -21582.143    4604.4928    20690.746   -21847.209    7404.7391    2807.5802    78.318567 
   80700    806.47815   -122.08786   0.72971838   -121.35814   -1215.7631    4.2829808    4.2829808    4.2829808   -1215.7631   -15236.118    18627.966   -7039.1373    6271.7652    21020.948     946.8457    78.566679 
   80800    785.43993   -122.06852   0.71068256   -121.35784   -1714.0144    4.2808343    4.2808343    4.2808343   -1714.0144    6182.7185    1882.9715   -13207.733    19.899025    8630.1355   -12761.396     78.44861 
   80900    613.56884   -121.91483   0.55516998   -121.35966   -724.72201    4.2769663    4.2769663    4.2769663   -724.72201   -4503.8131   -13033.868    15363.515   -32189.641   -7539.8791   -9915.4656    78.236155 
   81000    643.07477   -121.94199   0.58186757   -121.36012   -6103.7843    4.2811895    4.2811895    4.2811895   -6103.7843   -24862.164   -1033.1577     7583.969   -24231.157     286.9036    1197.6898     78.46814 
   81100    655.25782   -121.95156   0.59289105   -121.35867   -6368.7383    4.2849626    4.2849626    4.2849626   -6368.7383   -18921.011    17043.648   -17228.853    8328.2869    13145.172    2055.7792    78.675788 
   81200    698.99286   -121.99054   0.63246343   -121.35807     -338.119    4.2771111    4.2771111    4.2771111     -338.119    -9064.417    7350.9239    699.13614    6074.4569    12348.198   -3575.1964    78.244101 
   81300    767.21357   -122.05263   0.69419096   -121.35844    5459.0852    4.2767008    4.2767008    4.2767008    5459.0852   -5025.8054   -11944.204    33347.265   -16366.173   -2279.9438   -9132.5956    78.221586 
   81400    835.14312   -122.11375   0.75565505    -121.3581   -3157.9451    4.2859974    4.2859974    4.2859974   -3157.9451    -16001.35   -8083.2333    14610.748   -18276.513    -4697.909   -716.39616    78.732803 
   81500     547.9822   -121.85858   0.49582581   -121.36275   -3718.2651    4.2796927    4.2796927    4.2796927   -3718.2651   -26679.014    15549.873    -25.65453    4655.4215    11363.855    7353.2515    78.385864 
   81600    418.78145   -121.74438   0.37892225   -121.36546   -2239.2505    4.2746153    4.2746153    4.2746153   -2239.2505       -23855    12064.191     5073.057    15194.275    15756.085    2183.7614    78.107207 
   81700    905.17674   -122.18072   0.81902293   -121.36169   -4318.5177    4.2850941    4.2850941    4.2850941   -4318.5177   -13819.659   -10083.992    10948.099    3394.4953    758.48673   -3854.2147    78.683031 
   81800    1172.4205   -122.41539    1.0608307   -121.35456    1659.1518     4.284968     4.284968     4.284968    1659.1518   -5657.6669   -2423.9828    13059.105   -5571.6887   -2126.7441   -3064.1616    78.676086 
   81900    549.87489   -121.86213   0.49753836    -121.3646    794.53762    4.2745779    4.2745779    4.2745779    794.53762   -19805.829    16659.122    5530.3198   -91.080157    10540.346    4087.5059    78.105156 
   82000    143.79896   -121.50175   0.13011232   -121.37164   -9964.3097    4.2793295    4.2793295    4.2793295   -9964.3097   -33396.021     10200.22   -6697.1282    14109.612    10330.558     5036.654    78.365912 
   82100    664.65074    -121.9703   0.60138995   -121.36891   -4314.3946     4.285328     4.285328     4.285328   -4314.3946   -22906.433    2268.3107    7694.9382    13144.628   -1207.9089    198.85646     78.69592 
   82200    1192.0155   -122.43622    1.0785607   -121.35765    9347.2791    4.2779749    4.2779749    4.2779749    9347.2791   -1948.2998    3286.2396    26703.897   -3795.3082   -2852.8377   -1144.4924    78.291515 
   82300    773.91248   -122.06463   0.70025227   -121.36438    220.31713    4.2775732    4.2775732    4.2775732    220.31713   -8557.2352    9455.1772   -236.99063   -5734.0906     4905.853    273.67318    78.269461 
   82400    349.63398   -121.68407   0.31635617   -121.36771   -5098.8001    4.2818848    4.2818848    4.2818848   -5098.8001   -30955.933    19903.154   -4243.6211    10845.491    9491.1405    6820.1536    78.506378 
   82500    603.50133   -121.90893   0.54606069   -121.36287   -3233.1095    4.2841952    4.2841952    4.2841952   -3233.1095   -33038.837    5114.9944    18224.514    16650.409    4027.5841    5523.7878    78.633528 
   82600    897.85391   -122.16997   0.81239708   -121.35757    5624.0589    4.2762137    4.2762137    4.2762137    5624.0589   -9259.0313   -3962.9057    30094.114   -10281.435   -3437.7797   -7430.0169    78.194859 
   82700    745.52723   -122.03417   0.67456871    -121.3596    5527.9857    4.2762029    4.2762029    4.2762029    5527.9857   -12637.265    2848.6603    26372.562   -23791.145    3446.8205   -8480.3104    78.194266 
   82800    665.90773   -121.96289    0.6025273   -121.36036   -11441.159    4.2889047    4.2889047    4.2889047   -11441.159   -32170.972    5429.3626   -7581.8684    2997.4301    11462.558    2761.7519    78.893133 
   82900    791.90493   -122.07473   0.71653222    -121.3582    -1629.276    4.2768553    4.2768553    4.2768553    -1629.276   -18741.961      20153.3   -6299.1666    9603.1513     6161.773    8764.9257     78.23006 
   83000    731.62872   -122.02029   0.66199305   -121.35829    1465.1548    4.2737778    4.2737778    4.2737778    1465.1548   -12665.428     3540.699    13520.193   -17058.912   -3580.9105   -7107.5286    78.061307 
   83100    570.40278   -121.87696   0.51611242   -121.36085   -15062.706    4.2874365    4.2874365    4.2874365   -15062.706   -22251.673   -21283.988   -1652.4573   -26076.457   -2575.8675   -19499.625    78.812136 
   83200    637.94682   -121.93791   0.57722769   -121.36069   -2791.3749     4.279568     4.279568     4.279568   -2791.3749    3483.1596    3384.7777   -15242.062   -4448.1417     11345.61   -435.36346    78.379016 
   83300    816.00135    -122.0953   0.73833517   -121.35697    4899.3165    4.2754936    4.2754936    4.2754936    4899.3165    4804.9173    19209.461   -9316.4292    7757.9897    13293.266    15380.188    78.155365 
   83400    741.68848   -122.02932   0.67109532   -121.35823    593.10814    4.2822565    4.2822565    4.2822565    593.10814   -10001.132   -2179.1883    13959.644   -14071.359    1376.6782    2029.7619    78.526826 
   83500    534.86931   -121.84539   0.48396099   -121.36143    2407.4565    4.2824077    4.2824077    4.2824077    2407.4565    8713.6447   -14409.124    12917.849   -23164.723   -2750.5459   -21781.788    78.535142 
   83600     591.3122   -121.89567    0.5350317   -121.36064    3102.2427    4.2780298    4.2780298    4.2780298    3102.2427    12906.011    945.66851   -4544.9513   -4717.1169    3789.4211   -16024.539    78.294527 
   83700    812.95389   -122.09455   0.73557776   -121.35897     8377.978    4.2761629    4.2761629    4.2761629     8377.978    6823.4851     18494.46   -184.01102    7007.0165    14069.488    13201.567    78.192074 
   83800    835.27162   -122.11532   0.75577131   -121.35954   -784.99972    4.2831637    4.2831637    4.2831637   -784.99972    2910.5176    3105.1497   -8370.6664   -5316.4743    8613.1334    13406.229    78.576744 
   83900    659.69737   -121.95791   0.59690804     -121.361   -6561.0495    4.2819066    4.2819066    4.2819066   -6561.0495    5164.1754   -19411.071   -5436.2526   -22978.005   -3441.4399   -20517.694    78.507575 
   84000    650.52851   -121.94959   0.58861187   -121.36098   -4181.3614    4.2755649    4.2755649    4.2755649   -4181.3614    8817.5178   -17190.833   -4170.7693    -14761.62    1366.0846   -26983.799    78.159273 
   84100    823.33629   -122.10406   0.74497198   -121.35909   -5427.1512    4.2817965    4.2817965    4.2817965   -5427.1512    4902.2666   -3639.6901    -17544.03    4107.9254    11654.822    6488.5212    78.501521 
   84200    873.34006   -122.14761   0.79021644   -121.35739   -4201.0908     4.282063     4.282063     4.282063   -4201.0908    3126.0227   -2312.5017   -13416.794   -190.07722    11789.561    17260.488     78.51618 
   84300    514.67911   -121.82744   0.46569247   -121.36175    -2997.146    4.2770641    4.2770641    4.2770641    -2997.146    5486.6473   -26293.621    11815.535   -17005.411   -1353.2105   -16118.358     78.24152 
   84400    361.77984   -121.69281     0.327346   -121.36546   -4390.0603    4.2799651    4.2799651    4.2799651   -4390.0603    8594.8227   -33566.283     11801.28   -15142.683   -4539.0702   -32188.256    78.400832 
   84500    762.43818   -122.05166   0.68987009   -121.36179    2821.6899    4.2813409    4.2813409    4.2813409    2821.6899    12449.552   -4503.5024    519.02002    3166.6166    8163.0337   -7617.5328    78.476465 
   84600    1012.8942   -122.27279   0.91648799    -121.3563    9476.1418    4.2806456    4.2806456    4.2806456    9476.1418     8948.077    6469.9208    13010.428     4642.801    9599.1803    10879.497    78.438239 
   84700    634.85669   -121.93804   0.57443167   -121.36361    2962.5695    4.2793669    4.2793669    4.2793669    2962.5695    9454.1685   -11838.903    11272.443   -10848.344    3166.6175   -12855.128    78.367967 
   84800    343.12151    -121.6778   0.31046355   -121.36733   -4655.4545    4.2797077    4.2797077    4.2797077   -4655.4545    16202.958   -30764.874    595.55167   -15668.275   -3541.2782   -34674.622     78.38669 
   84900    668.69913   -121.97035   0.60505303    -121.3653   -319.23503    4.2806218    4.2806218    4.2806218   -319.23503     17244.01   -20625.829    2424.1133   -501.44859    1314.9874   -13393.729    78.436927 
   85000    1119.3294   -122.37066    1.0127928   -121.35786    6252.4749     4.279408     4.279408     4.279408    6252.4749     10156.88    8911.9231   -311.37857    8181.9487    10457.411    10062.972    78.370225 
   85100    890.60606   -122.16666   0.80583908   -121.36082   -820.07026    4.2806721    4.2806721    4.2806721   -820.07026    14441.537   -3457.8727   -13443.875   -4268.4541    2841.9863   -8795.4917    78.439695 
   85200    424.39718   -121.74976   0.38400348   -121.36575   -7592.0719    4.2799262    4.2799262    4.2799262   -7592.0719    26290.446   -31820.516   -17246.145   -17034.463   -4936.2501   -32724.639    78.398695 
   85300     565.0676   -121.87579   0.51128504    -121.3645   -6973.1549    4.2807281    4.2807281    4.2807281   -6973.1549    7051.9715   -23695.033   -4276.4036   -8573.0082    -2881.197   -16476.119    78.442774 
   85400    998.94621   -122.26204   0.90386753   -121.35818   -430.11497     4.281544     4.281544     4.281544   -430.11497   -2404.4554    321.06449    793.04606    10315.571    4068.5449    10046.931    78.487633 
   85500    847.29944   -122.12586   0.76665434   -121.35921    3432.8643    4.2779624    4.2779624    4.2779624    3432.8643     26173.56   -2581.8829   -13293.084    5664.4766    6401.3516   -2401.0198     78.29083 
   85600    346.29757   -121.67945   0.31333732   -121.36611   -8662.7611    4.2816579    4.2816579    4.2816579   -8662.7611    20444.349       -19538   -26894.632   -13018.939   -3259.3696   -24942.736    78.493895 
   85700    381.48732   -121.71187   0.34517775   -121.36669   -7349.1366    4.2819174    4.2819174    4.2819174   -7349.1366   -4857.0149   -15527.302   -1663.0933   -19451.264   -7282.3077   -15673.348     78.50817 
   85800    917.67792   -122.19014   0.83033427    -121.3598    7864.6904    4.2769249    4.2769249    4.2769249    7864.6904    79.013966    8978.9613    14536.096   -4994.0604   -2919.0782    5653.3943    78.233879 
   85900    1027.3231   -122.28757   0.92954354   -121.35803    1029.7514    4.2821222    4.2821222    4.2821222    1029.7514    10454.404    5992.4841   -13357.634    8998.1365    1381.5799    3005.0762    78.519433 
   86000    450.16805    -121.7738   0.40732151   -121.36648   -7008.7495    4.2824619    4.2824619    4.2824619   -7008.7495    9044.6221   -16663.671   -13407.199    -10833.18    903.62433   -13713.726    78.538126 
   86100     324.2895   -121.66137   0.29342395   -121.36795    -5954.219     4.277829     4.277829     4.277829    -5954.219   -5735.7471    -11454.03    -672.8795   -30697.341   -5841.6217   -14043.469    78.283505 
   86200    903.99288   -122.18114   0.81795175   -121.36319   -2035.4197    4.2808375    4.2808375    4.2808375   -2035.4197   -12505.116    10708.445   -4309.5877   -11671.766   -6000.2131    2192.2846    78.448788 
   86300    1161.4317   -122.40758    1.0508878    -121.3567    3147.1179    4.2822403    4.2822403    4.2822403    3147.1179   -512.79526    18495.197   -8541.0483    11516.443    915.85911    3980.6602    78.525933 
   86400     724.8216   -122.01913   0.65583382    -121.3633   -3144.6359    4.2798532    4.2798532    4.2798532   -3144.6359    6554.8972   -2306.3926   -13682.412   -5407.0081    479.25867   -15566.865    78.394687 
   86500    373.82943   -121.70506   0.33824873   -121.36681   -6559.6278    4.2790864    4.2790864    4.2790864   -6559.6278    5078.7226   -14425.175   -10332.431   -28492.478   -3726.8655   -17431.079    78.352553 
   86600    612.32803    -121.9182   0.55404727   -121.36415   -1399.4221    4.2821109    4.2821109    4.2821109   -1399.4221   -6103.7199    5030.9176   -3125.4641    -12768.68   -7176.2218   -1402.3685    78.518815 
   86700    925.56007   -122.19445    0.8374662   -121.35699    3092.9677    4.2817471    4.2817471    4.2817471    3092.9677   -7004.0189    17190.503    -907.5815    20345.909   -86.304334    4173.5719    78.498805 
   86800    742.65801   -122.03002   0.67197257   -121.35805    3513.5027    4.2784428    4.2784428    4.2784428    3513.5027    8476.0888    29.845529    2034.5736    6266.7876    5261.5937    -6147.068    78.317205 
   86900    479.08534   -121.79502   0.43348648   -121.36153   -2127.3914    4.2817118    4.2817118    4.2817118   -2127.3914    10736.116    -14850.42   -2267.8705   -30396.692    -338.0099   -15167.886    78.496864 
   87000    570.63026   -121.87629   0.51631825   -121.35998   -3059.3116    4.2821517    4.2821517    4.2821517   -3059.3116   -2440.9363   -7682.0825    945.08412   -19130.298    -1421.422   -3865.6274    78.521059 
   87100    808.67219    -122.0888   0.73170359    -121.3571    2295.7865    4.2787083    4.2787083    4.2787083    2295.7865     -4185.99    2248.6986    8824.6509    26065.195   -1380.3891    6559.6675     78.33179 
   87200    783.97699   -122.06759   0.70935886   -121.35823   -117.44391     4.279909     4.279909     4.279909   -117.44391   -2018.0838   -6556.5132    8222.2652    22406.453    228.98158   -1310.3326    78.397749 
   87300    663.43925   -121.96158   0.60029378   -121.36128   -1191.2429    4.2796445    4.2796445    4.2796445   -1191.2429   -2698.4272   -12602.771     11727.47   -27808.881    1441.3324   -10258.104    78.383218 
   87400    642.16333   -121.94309   0.58104288   -121.36205   -1380.2051    4.2824998    4.2824998    4.2824998   -1380.2051   -5363.8369   -10581.778    11804.999   -34854.953   -3092.1367   -11153.561    78.540209 
   87500    834.20701   -122.11279   0.75480803   -121.35798     3365.307    4.2806801    4.2806801    4.2806801     3365.307    3767.6039   -5871.0037    12199.321    16384.183   -2610.5972   -2971.3216    78.440135 
   87600    849.87391   -122.12538   0.76898378   -121.35639    3977.0355    4.2794026    4.2794026    4.2794026    3977.0355    4151.8118   -9367.8984    17147.193    26095.825   -916.55224    5239.4061    78.369928 
   87700    504.43329   -121.81739   0.45642184   -121.36097   -5550.9455    4.2832886    4.2832886    4.2832886   -5550.9455    -11205.77    -30830.12    25383.053   -25764.398   -28.885157   -1352.5077    78.583617 
   87800    466.54858   -121.78429   0.42214296   -121.36215    -1929.851    4.2783523    4.2783523    4.2783523    -1929.851   -823.83339   -31197.761    26232.042   -40230.654   -998.84376   -13239.234    78.312235 
   87900    815.39831   -122.09677   0.73778952   -121.35898    804.23856    4.2800406    4.2800406    4.2800406    804.23856    11843.996   -15038.715    5607.4351    3760.8337    -2982.867   -14265.705    78.404985 
   88000    945.36211   -122.21188   0.85538351   -121.35649    -1581.411    4.2831594    4.2831594    4.2831594    -1581.411   -4110.6534   -14140.473    13506.894     15587.89   -1665.4731   -301.56563    78.576506 
   88100    584.48604   -121.89207   0.52885525   -121.36321   -4096.8239    4.2769813    4.2769813    4.2769813   -4096.8239   -19453.863   -29047.554    36210.945   -23928.576    154.09096    5430.5324    78.236975 
   88200    308.03927   -121.64558   0.27872041   -121.36686   -13120.905    4.2816509    4.2816509    4.2816509   -13120.905   -2553.0547   -41249.936    4440.2764   -33579.063    420.67697   -14832.094     78.49351 
   88300    673.01022   -121.97287   0.60895379   -121.36391    -5126.197    4.2826321    4.2826321    4.2826321    -5126.197    28060.923    -26515.17   -16924.343    368.89712    4248.3324    -20108.11    78.547489 
   88400    1060.8438   -122.31665    0.9598738   -121.35678    6562.2259    4.2767965    4.2767965    4.2767965    6562.2259    16466.125   -7919.8683    11140.421    5733.5023    1784.4236   -211.64189    78.226837 
   88500    831.36014   -122.11145   0.75223213   -121.35921     3797.134     4.280568     4.280568     4.280568     3797.134    1178.8329   -15481.668    25694.237   -24718.586   -1361.2423    5833.5447    78.433968 
   88600     559.4613   -121.86817   0.50621234   -121.36196    230.51002    4.2829174    4.2829174    4.2829174    230.51002    14545.097   -25276.816     11423.25   -26869.943   -977.23896   -13318.797     78.56319 
   88700    625.83751   -121.92721   0.56627093   -121.36094    4084.5322    4.2776419    4.2776419    4.2776419    4084.5322    23390.096   -22938.309     11801.81    3391.7729   -929.94325   -23749.013    78.273231 
   88800    743.27558   -122.03213   0.67253137    -121.3596    7732.5435    4.2771613    4.2771613    4.2771613    7732.5435    23716.075   -11889.941    11371.497    6978.6843    2461.4782   -1254.7199    78.246854 
   88900    747.56159    -122.0358   0.67640943   -121.35939    1704.5822    4.2824805    4.2824805    4.2824805    1704.5822   -714.90538   -7880.2909    13708.943   -17646.244   -1499.9281    16467.187    78.539148 
   89000    687.38002   -121.98125   0.62195589   -121.35929   -2527.9971    4.2817882    4.2817882    4.2817882   -2527.9971   -18429.699   -15135.661    25981.368    -20693.01   -3887.0356   -7882.3296    78.501065 
   89100    631.03251   -121.92942   0.57097148   -121.35845    -1013.541    4.2776246    4.2776246    4.2776246    -1013.541     3411.449   -15852.268    9400.1957   -2115.2091   -443.47844   -27298.603    78.272286 
   89200    647.48006   -121.94503   0.58585357   -121.35917    -5250.565    4.2802201    4.2802201    4.2802201    -5250.565     15568.77   -20638.215    -10682.25      8942.72   -130.11584   -2311.8143    78.414847 
   89300    741.16089   -122.02928   0.67061795   -121.35866   -9106.0963    4.2829358    4.2829358    4.2829358   -9106.0963   -7092.0751   -23402.442    3176.2282   -7877.9816    510.89564    24140.336    78.564201 
   89400    776.67411    -122.0615   0.70275106   -121.35875   -1121.6078    4.2777977    4.2777977    4.2777977   -1121.6078   -12163.194   -7081.0057    15879.376   -18834.274   -6454.3146    2416.2754    78.281787 
   89500     755.5826   -122.04373   0.68366702   -121.36007    808.27763    4.2763315    4.2763315    4.2763315    808.27763    6524.4191   -5248.0369    1148.4507   -3087.9198   -8270.9088   -28780.775     78.20132 
   89600     622.6241   -121.92409   0.56336337   -121.36072   -3000.9343    4.2846949    4.2846949    4.2846949   -3000.9343    16123.298    -25824.58    698.47865    4638.3082    3126.6421   -6907.5554    78.661042 
   89700    625.58661   -121.92553   0.56604391   -121.35949   -1364.5864    4.2828935    4.2828935    4.2828935   -1364.5864    5770.4501   -19825.849    9961.6396   -2349.8022    2630.1347    28382.443    78.561872 
   89800    774.86133     -122.058   0.70111082   -121.35689    8613.8432     4.272332     4.272332     4.272332    8613.8432    3974.1705    5372.5201    16494.839   -6366.0452   -5481.3878    15060.159    77.982112 
   89900    745.23236    -122.0334    0.6743019    -121.3591    1891.0834    4.2811162    4.2811162    4.2811162    1891.0834   -2476.2024   -2722.0077     10871.46   -5888.1166   -10935.791   -22855.114    78.464109 
   90000    580.21424   -121.88644   0.52499004   -121.36145   -11537.657    4.2860725    4.2860725    4.2860725   -11537.657    5518.4964   -28932.746   -11198.721    1885.3146   -6836.0633   -14586.716    78.736941 
   90100    586.21503   -121.89235   0.53041968   -121.36193   -2247.1031    4.2732837    4.2732837    4.2732837   -2247.1031    27484.532    -28596.98    -5628.861    3551.9933    4574.6197    30332.694    78.034235 
   90200    836.78187   -122.11776   0.75713782   -121.36063   -1455.5637    4.2788402    4.2788402    4.2788402   -1455.5637    7205.4341   -18228.073    6655.9481   -725.04822   -2119.2369    28038.106    78.339033 
   90300    1006.4282   -122.26748   0.91063741   -121.35684    -5841.264    4.2854844    4.2854844    4.2854844    -5841.264   -13508.388   -10695.179    6679.7748   -3715.1661   -8668.1868    -14542.37    78.704536 
   90400    651.44245   -121.95099   0.58943882   -121.36155   -1243.9034    4.2767495    4.2767495    4.2767495   -1243.9034    15457.375   -17066.473   -2122.6122   -3671.8242   -2527.1806   -10327.375    78.224255 
   90500    330.77145   -121.66487   0.29928896   -121.36558    -6982.259    4.2776456    4.2776456    4.2776456    -6982.259    29217.604   -39107.154   -11057.227    2569.7187   -46.551564    24646.741    78.273436 
   90600    646.67564   -121.94944   0.58512571   -121.36432   -4585.5144    4.2827397    4.2827397    4.2827397   -4585.5144    6015.8423    -25569.72    5797.3346     4084.381    4811.9576    23831.076    78.553411 
   90700    1007.9238   -122.26898    0.9119906   -121.35699    9286.5095    4.2803889    4.2803889    4.2803889    9286.5095   -294.84025    8922.6918    19231.677    1153.9921    60.288897   -4174.9374    78.424128 
   90800    828.83489   -122.11041   0.74994723   -121.36047    6652.5316    4.2762138    4.2762138    4.2762138    6652.5316    12832.951   -9454.2173    16578.861    46.520796   -7256.1586    -3391.597    78.194867 
   90900    343.84173   -121.67912   0.31111522   -121.36801   -6220.3305    4.2797954    4.2797954    4.2797954   -6220.3305     28755.39   -40555.045   -6861.3368    613.29824   -1326.0765    15600.005     78.39151 
   91000    413.02467    -121.7419    0.3737134   -121.36818   -4741.1739    4.2817069    4.2817069    4.2817069   -4741.1739     23081.56   -28674.468   -8630.6138    3393.4606    3529.0985    12392.174    78.496595 
   91100     1026.892    -122.2891   0.92915351   -121.35995    3776.4186    4.2788288    4.2788288    4.2788288    3776.4186   -3266.8025   -4939.0426    19535.101    2193.1546    9383.7169    -4243.742    78.338408 
   91200    1066.1194   -122.32306   0.96464725   -121.35841    4755.2636    4.2783398    4.2783398    4.2783398    4755.2636   -3966.6678   -1994.4212     20226.88   -2632.4061     6478.884     -176.076    78.311551 
   91300    546.30709   -121.86046   0.49431014   -121.36615     218.2611    4.2784411    4.2784411    4.2784411     218.2611    22846.342   -29138.591    6947.0324   -2877.8287   -5956.7957    18133.246    78.317116 
   91400    397.32575    -121.7264   0.35950869    -121.3669   -11146.217    4.2838668    4.2838668    4.2838668   -11146.217     16193.91    -45119.05   -4513.5109    1496.3703    2112.8638    11215.541    78.615446 
   91500    760.98548   -122.05083   0.68855566   -121.36227    1299.5653    4.2786176    4.2786176    4.2786176    1299.5653   -4125.7154   -1954.2579    9978.6691    2166.2678     13872.76   -8968.6765    78.326804 
   91600     1045.945   -122.30306   0.94639306   -121.35667    8339.5005    4.2749891    4.2749891    4.2749891    8339.5005   -8106.0424    7958.8874    25165.656   -3504.8924     6109.928    20.887636    78.127702 
   91700    653.01762    -121.9531   0.59086407   -121.36223    -6697.612    4.2845172    4.2845172    4.2845172    -6697.612    4201.9181    -29271.07    4976.3155   -4946.0838   -3117.5719    23401.669    78.651256 
   91800    317.85357   -121.65427   0.28760059   -121.36667   -3794.2014    4.2791456    4.2791456    4.2791456   -3794.2014    25592.025   -31686.362   -5288.2676    -1487.142     -3216.87    11519.874    78.355808 
   91900    639.38514   -121.94312   0.57852912    -121.3646    5.1084901    4.2761112    4.2761112    4.2761112    5.1084901    17571.889   -20121.792     2565.228   -154.45101    6431.0487   -18300.921    78.189235 
   92000    1009.8608   -122.27158   0.91374329   -121.35783    1042.1008    4.2822147    4.2822147    4.2822147    1042.1008   -3935.5514   -7000.1737    14062.027   -2758.4761    5012.8736   -10930.266    78.524525 
   92100    785.35798     -122.072   0.71060841   -121.36139   -2164.9483    4.2804689    4.2804689    4.2804689   -2164.9483   -2962.8812   -9889.2274    6357.2639   -5567.0036   -9164.2154    18784.315    78.428526 
   92200    366.97332   -121.69806   0.33204517   -121.36601   -9046.9065    4.2788571    4.2788571    4.2788571   -9046.9065    15315.274   -31625.027   -10830.967   -3078.1852    -6831.544    5685.5762    78.339961 
   92300    507.51856   -121.82511   0.45921346    -121.3659   -3841.7154    4.2798383    4.2798383    4.2798383   -3841.7154    22749.945   -32659.761   -1615.3304    1383.1666    1519.5232   -21042.696    78.393867 
   92400    1048.1664   -122.30732     0.948403   -121.35892    4500.3994    4.2793838    4.2793838    4.2793838    4500.3994    1074.9401   -10154.401    22580.659    1316.0784    2380.6964   -13221.479    78.368891 
   92500    983.58381   -122.24863    0.8899673   -121.35866    5719.4449     4.279935     4.279935     4.279935    5719.4449   -13735.529    1447.2633    29446.601   -3014.6853   -459.96169    7944.7103    78.399181 
   92600    539.52059   -121.85283   0.48816956   -121.36466   -5262.6744    4.2807486    4.2807486    4.2807486   -5262.6744    5121.3171   -25092.148     4182.808   -5490.2941   -6049.0301    4229.3626    78.443901 
   92700    440.98148   -121.76431   0.39900931    -121.3653   -6115.1606    4.2769153    4.2769153    4.2769153   -6115.1606    27606.925    -31673.23   -14279.177   -532.70415   -3685.7119   -11283.985    78.233352 
   92800      697.383    -121.9936   0.63100679   -121.36259   -1811.3107      4.28092      4.28092      4.28092   -1811.3107      4975.84   -10444.756    34.983554     3788.616    6219.8423   -10924.015    78.453322 
   92900    893.35287   -122.16639   0.80832445   -121.35806   -2392.2903    4.2825135    4.2825135    4.2825135   -2392.2903   -18742.724   -7038.8854    18604.738    3889.0612    7492.0691    2607.2146    78.540964 
   93000    763.16686   -122.04941   0.69052941   -121.35888    7077.8446    4.2740422    4.2740422    4.2740422    7077.8446    7985.0681   -4268.4786    17516.944    35.539151    324.35393    7411.7597    78.075795 
   93100     500.6364   -121.81585   0.45298634   -121.36286   -3951.7049    4.2820453    4.2820453    4.2820453   -3951.7049    25708.038   -30044.922   -7518.2306   -3174.7469    -3501.417   -3491.6077    78.515208 
   93200    506.47055   -121.82032    0.4582652   -121.36206   -8341.7248    4.2834984    4.2834984    4.2834984   -8341.7248    7213.6678   -29010.448   -3228.3939    4041.0183    4621.7056   -11393.088    78.595162 
   93300    764.37483   -122.05051   0.69162241   -121.35889    6846.9014    4.2739845    4.2739845    4.2739845    6846.9014   -11512.026    9855.3719    22197.358     9639.097    17032.031   -1339.3883    78.072635 
   93400    921.68362   -122.19162   0.83395871   -121.35766    1484.1317    4.2805793    4.2805793    4.2805793    1484.1317   -11674.263   -3571.0259    19697.684    4642.0929    6442.1947    2236.7288    78.434592 
   93500    671.15545   -121.96858   0.60727556    -121.3613   -5540.1433     4.283193     4.283193     4.283193   -5540.1433    13001.789   -29822.865    200.64659    -3927.589   -7373.7262   -10547.587    78.578355 
   93600    448.75491   -121.77043   0.40604287   -121.36439   -3931.6697    4.2780001    4.2780001    4.2780001   -3931.6697    18494.027    -28722.77   -1566.2665    1339.2338   -131.07031   -11946.493      78.2929 
   93700    804.92768   -122.09022   0.72831548   -121.36191   -585.53743    4.2770878    4.2770878    4.2770878   -585.53743   -4924.9623   -16140.059    19308.409    12868.587    8662.3165    1460.5798    78.242818 
   93800    1092.8564   -122.34551   0.98883941   -121.35667      3730.66    4.2819515    4.2819515    4.2819515      3730.66   -10081.141   -9910.1142    31183.235    8635.7332    4208.6229    1673.5535    78.510047 
   93900      692.763   -121.98972   0.62682652    -121.3629   -5213.4933    4.2820319    4.2820319    4.2820319   -5213.4933    13572.652   -27270.199   -1942.9327   -2764.1795   -4231.4308   -15135.715    78.514471 
   94000    263.34239   -121.60547   0.23827773   -121.36719   -5217.7528    4.2752149    4.2752149    4.2752149   -5217.7528    28654.768   -36371.184   -7936.8422    -1082.581   -6978.0539   -9243.4753    78.140081 
   94100    553.65842   -121.86808   0.50096177   -121.36712   -2785.1446    4.2813035    4.2813035    4.2813035   -2785.1446    12198.637   -31528.372    10974.302    8297.6011    193.35108    8934.3555    78.474409 
   94200    1096.4975   -122.34991   0.99213395   -121.35777    5193.0054     4.281747     4.281747     4.281747    5193.0054    1301.3318   -10735.641    25013.325    6529.5741    2367.8795    6542.5421      78.4988 
   94300    823.06415   -122.10741   0.74472574   -121.36269    7126.9891     4.275367     4.275367     4.275367    7126.9891    7655.4428   -3385.3766    17110.901   -5113.0109   -3154.3402   -10072.717    78.148419 
   94400    286.62275   -121.62933   0.25934229   -121.36999   -9376.3697    4.2811881    4.2811881    4.2811881   -9376.3697     18072.08   -36037.624   -10163.565   -6089.2093   -3345.5882   -8199.1907    78.468064 
   94500    485.41886   -121.80665   0.43921718   -121.36744   -4960.9735    4.2820498    4.2820498    4.2820498   -4960.9735    19181.082   -32228.189   -1835.8127    2453.1745   -1972.2752    7758.4069    78.515451 
   94600    1035.6943   -122.29597   0.93711797   -121.35885    5377.8208    4.2787659    4.2787659    4.2787659    5377.8208    362.67872   -1227.7227    16998.506    1988.4886    7529.9622    7608.6173     78.33495 
   94700    966.79531    -122.2342   0.87477671   -121.35942     4310.889    4.2772786    4.2772786    4.2772786     4310.889   -9427.4427     1160.154    21199.956   -5125.0475    11544.256   -7608.5048    78.253293 
   94800    563.55746    -121.8751   0.50991863   -121.36519   -6695.0874    4.2810549    4.2810549    4.2810549   -6695.0874    7025.1108   -25228.543   -1881.8301   -7802.6602   -3317.4373    -11996.18     78.46074 
   94900    522.20124   -121.83723   0.47249866   -121.36473   -6891.3704    4.2818466    4.2818466    4.2818466   -6891.3704    24132.189   -36689.538   -8116.7627   -2493.7089   -7288.4007    4844.3653    78.504278 
   95000    834.91171    -122.1153   0.75544566   -121.35985    2783.3829    4.2769884    4.2769884    4.2769884    2783.3829     6856.082   -8482.3395    9976.4062    2232.0769    9293.5011     13627.85    78.237367 
   95100    855.08297   -122.13242   0.77369704   -121.35873    4407.7398     4.279307     4.279307     4.279307    4407.7398     -12629.9    9620.5787    16232.541    887.36153    21271.177   -1562.7918    78.364676 
   95200     703.3904   -121.99616   0.63644242   -121.35972    835.89518    4.2808197    4.2808197    4.2808197    835.89518     3162.199   -12148.153    11493.639   -3846.5296    9123.7955   -8458.2239    78.447809 
   95300    599.72091   -121.90322   0.54264008   -121.36058   -4618.5917    4.2801945    4.2801945    4.2801945   -4618.5917    19237.918   -32150.771   -942.92127   -6022.0328   -7889.1432    2365.7702    78.413442 
   95400    529.09748   -121.83994   0.47873852    -121.3612   -5075.8603    4.2781589    4.2781589    4.2781589   -5075.8603    14512.386   -17438.944   -12301.023    2311.3314    5688.2147    12673.658    78.301615 
   95500    662.71486   -121.95944   0.59963833    -121.3598   -3624.3523    4.2794531    4.2794531    4.2794531   -3624.3523    -8064.777    155.92351   -2964.2034    10528.903    23837.134    3921.9236      78.3727 
   95600    799.54274   -122.08139   0.72344308   -121.35795   -5795.9937    4.2834539    4.2834539    4.2834539   -5795.9937   -10294.742   -8575.8588    1482.6201    5475.3087    10904.696   -3280.6195    78.592715 
   95700    707.51741   -121.99989   0.64017662   -121.35971    5184.8558    4.2753181    4.2753181    4.2753181    5184.8558    24539.509   -15504.315    6519.3729   -3957.4148   -6988.8285    4752.6045     78.14574 
   95800    567.77338   -121.87676   0.51373328   -121.36303    2513.3254     4.278135     4.278135     4.278135    2513.3254    29297.819   -24309.774    2551.9306   -1646.6807    -1381.244     8539.484    78.300305 
   95900    678.53962   -121.97516   0.61395691    -121.3612   -1909.9817    4.2851282    4.2851282    4.2851282   -1909.9817    -2506.206   -14675.281    11451.543    10622.414    12158.137    2356.7872    78.684911 
   96000    928.29784   -122.19717    0.8399434   -121.35723     10046.36    4.2759042    4.2759042    4.2759042     10046.36   -6603.3537    4392.0912    32350.342    15109.499    11706.574   -2942.2337    78.177881 
   96100    832.10108   -122.11194   0.75290254   -121.35903    1619.1485    4.2782919    4.2782919    4.2782919    1619.1485    10166.517   -13485.378    8176.3064    2879.6477   -3913.0706     289.4285    78.308921 
   96200    558.12041    -121.8673   0.50499908    -121.3623   -7340.1715    4.2829625    4.2829625    4.2829625   -7340.1715    18766.787   -28420.808   -12366.493   -5730.5868   -8185.4834    3118.4697    78.565669 
   96300    588.63072   -121.89517   0.53260545   -121.36257    -2976.706    4.2786506    4.2786506    4.2786506    -2976.706    4319.0202   -20880.625    7631.4871    8162.2597    5174.5657    1678.6947    78.328616 
   96400    892.11625   -122.16615   0.80720553   -121.35895     1124.956    4.2783485    4.2783485    4.2783485     1124.956   -11874.952   -11308.004    26557.824    19014.053    6482.6068   -843.88586     78.31203 
   96500     843.8253   -122.12186   0.76351086   -121.35835    1027.9432    4.2798296    4.2798296    4.2798296    1027.9432   -1216.6192   -12594.318    16894.767    5862.0455   -4043.5498    370.49872    78.393386 
   96600    425.84251   -121.74942   0.38531125   -121.36411   -10074.668    4.2830029    4.2830029    4.2830029   -10074.668    14111.841   -30290.936    -14044.91   -6910.5353   -8126.0968    6066.0243    78.567891 
   96700    401.45349    -121.7296   0.36324355   -121.36635    -6824.857    4.2760715    4.2760715    4.2760715    -6824.857    23856.033   -28622.554   -15708.051    3857.1572   -3963.6787    4005.8152    78.187058 
   96800    882.61449   -122.16067   0.79860813   -121.36206    4097.3948     4.277192     4.277192     4.277192    4097.3948    9705.0244    -16443.88     19031.04    14033.024    2215.6284   -3140.2328    78.248537 
   96900    1027.9145   -122.28823    0.9300786   -121.35815   -3212.5612    4.2866914    4.2866914    4.2866914   -3212.5612   -8637.9457   -18022.431    17022.693    2867.2486    1865.6135    2783.6637    78.771055 
   97000    489.31892   -121.80949   0.44274605   -121.36675    858.15735    4.2753963    4.2753963    4.2753963    858.15735     19145.47   -20787.981    4216.9831   -9278.5936   -2986.6264    9091.9798    78.150026 
   97100    368.74992   -121.70241   0.33365268   -121.36876   -2831.5852    4.2776997    4.2776997    4.2776997   -2831.5852    29855.678   -37409.125   -941.30836   -4785.8265   -5834.1713    1008.0636    78.276408 
   97200    932.87878   -122.20567   0.84408832   -121.36158   -3088.1198    4.2859549    4.2859549    4.2859549   -3088.1198    9693.9123   -26460.224    7501.9522    3673.1355    312.97095   -8013.4877    78.730458 
   97300    1124.4358   -122.37439    1.0174132   -121.35697    12067.827    4.2750835    4.2750835    4.2750835    12067.827    6448.8954    4959.9036    24794.683    411.63372    10167.992   -1225.3442    78.132873 
   97400    645.51936   -121.94908   0.58407948     -121.365   -580.95362    4.2770277    4.2770277    4.2770277   -580.95362    3774.6157   -12862.459    7344.9823   -9134.5051    4657.5297    5618.7635    78.239525 
   97500    365.51236   -121.69751   0.33072327   -121.36679   -7336.3249    4.2840157    4.2840157    4.2840157   -7336.3249    12913.447   -35802.908     880.4864   -9257.6814   -6185.0837    1389.9597    78.623641 
   97600    652.18116   -121.95156   0.59010722   -121.36145    -2819.401    4.2808346    4.2808346    4.2808346    -2819.401    18614.776   -25251.592   -1821.3875    1656.6034    -2846.838    -4747.534    78.448625 
   97700     791.3728   -122.07392   0.71605074   -121.35787    3794.4295    4.2752383    4.2752383    4.2752383    3794.4295    5749.8346     4595.243    1038.2109    6195.9311    19906.248   -2925.9059    78.141361 
   97800    693.79522   -121.98795   0.62776049   -121.36019    373.86406      4.27897      4.27897      4.27897    373.86406   -9111.4912    12475.125   -2242.0418    1590.5889    22636.435    1722.6422    78.346161 
   97900    742.70671   -122.03159   0.67201664   -121.35957   -5887.6209    4.2841304    4.2841304    4.2841304   -5887.6209    10912.849    -16809.73   -11765.982   -5827.0932   -5430.0105    2718.5543    78.629959 
   98000    726.41131   -122.01663   0.65727222   -121.35936     1562.017     4.275556     4.275556     4.275556     1562.017    28936.931   -18813.126   -5437.7541   -1110.0771   -5813.6718    2522.4732    78.158782 
   98100    535.86696   -121.84737   0.48486369   -121.36251   -2277.7981    4.2784817    4.2784817    4.2784817   -2277.7981   -13403.246    3611.6794    2958.1717    11615.583    22854.755   -1913.1208    78.319341 
   98200    616.28826   -121.91967   0.55763057   -121.36204   -7164.5896    4.2849054    4.2849054    4.2849054   -7164.5896   -26409.506    3916.3601    999.37667    11460.853    29333.139    -51.91316     78.67264 
   98300     941.3467   -122.20908   0.85175028   -121.35733    9379.1316    4.2762518    4.2762518    4.2762518    9379.1316    19757.617   -2001.7546    10381.533   -125.15735    1088.1402    6984.0906     78.19695 
   98400    939.95919   -122.20872   0.85049483   -121.35822    6338.2268    4.2768843    4.2768843    4.2768843    6338.2268    21096.591   -11669.828    9587.9169   -4425.9506   -9515.1484    3211.0734    78.231652 
   98500    464.86914   -121.78685   0.42062336   -121.36623    -7250.742    4.2826635    4.2826635    4.2826635    -7250.742     583.3182   -9691.0099   -12644.534    6482.1502    22680.008    -3547.775    78.549217 
   98600     384.3863   -121.71539    0.3478008   -121.36759   -5896.6684    4.2806087    4.2806087    4.2806087   -5896.6684   -11988.715    2275.4052   -7976.6957    16246.744     37225.43   -4320.0049    78.436207 
   98700    939.68545   -122.21236   0.85024715   -121.36212    1337.9928      4.27748      4.27748      4.27748    1337.9928   -7060.7224   -2609.3394     13684.04    9082.0268    5583.1345    1337.6776    78.264345 
   98800    1118.2396   -122.36947    1.0118067   -121.35766    6988.5108    4.2794437    4.2794437    4.2794437    6988.5108     19417.28   -8411.0107    9959.2633   -4599.4337    -10508.27    1591.7512    78.372186 
   98900    516.60909   -121.83373   0.46743876   -121.36629   -7137.4081    4.2851952    4.2851952    4.2851952   -7137.4081   -6156.4212    -7067.853   -8187.9501    1230.9465    21550.928   -4948.7822    78.688604 
   99000    201.15348   -121.55117    0.1820079   -121.36916   -9023.7317    4.2779173    4.2779173    4.2779173   -9023.7317   -26404.663    1059.3454   -1725.8775    14542.526    37285.191    -4770.319    78.288354 
   99100    681.29468   -121.98338   0.61644974   -121.36693    2592.6187    4.2752882    4.2752882    4.2752882    2592.6187   -5460.3813    1719.4541    11518.784    13138.896    3760.8906    1293.6002    78.144098 
   99200     1130.513    -122.3813    1.0229119   -121.35839   -96.445573    4.2854216    4.2854216    4.2854216   -96.445573    1977.3996    -7984.246    5717.5097   -1369.5205    -16918.19    870.93387    78.701075 
   99300    822.94495   -122.10882   0.74461789    -121.3642   -1646.3764    4.2790871    4.2790871    4.2790871   -1646.3764   -6301.1298    4797.0534   -3435.0527   -3127.7818    21846.907   -1429.3822    78.352593 
   99400    305.30449   -121.64435   0.27624592   -121.36811   -2921.3895    4.2757204    4.2757204    4.2757204   -2921.3895   -12427.876    9178.0353   -5514.3276    13599.734    39551.738   -2081.7405    78.167803 
   99500    501.40436    -121.8196   0.45368121   -121.36592   -8141.0594    4.2863049    4.2863049    4.2863049   -8141.0594   -16760.904   -12236.919    4574.6445    18770.071    3074.5435    -829.2426     78.74975 
   99600    999.02833   -122.26146   0.90394183   -121.35752    5897.2349    4.2790377    4.2790377    4.2790377    5897.2349    4237.8876   -4460.6667    17914.484    2852.8674   -17836.804    2618.7962    78.349879 
   99700    917.93346   -122.18829   0.83056548   -121.35772    9237.5522     4.274527     4.274527     4.274527    9237.5522    7057.3554    18876.914    1778.3866   -6111.8231     12233.32    2395.9125    78.102365 
   99800    567.84522   -121.87725   0.51379829   -121.36346   -6941.3064    4.2839959    4.2839959    4.2839959   -6941.3064   -18925.694    5055.2714   -6953.4971     7243.384    35323.495   -3007.2029    78.622554 
   99900    564.69678   -121.87329   0.51094951   -121.36234   -6229.2717      4.28107      4.28107      4.28107   -6229.2717   -7720.3775   -14384.875    3417.4378    18991.764    8610.7662   -5356.7346    78.461571 
  100000    796.83735   -122.07938   0.72099518   -121.35839   -413.76192    4.2783046    4.2783046    4.2783046   -413.76192    14554.781   -15030.623   -765.44377    7984.1047   -16593.579   -3126.4737    78.309616 
Loop time of 22.6263 on 1 procs for 100000 steps with 8 atoms

Pair  time (%) = 7.48237 (33.0694)
Kspce time (%) = 5.35579 (23.6707)
Neigh time (%) = 0 (0)
Comm  time (%) = 1.07112 (4.73396)
Outpt time (%) = 0.0253623 (0.112092)
Other time (%) = 8.69164 (38.4139)

Nlocal:    8 ave 8 max 8 min
Histogram: 1 0 0 0 0 0 0 0 0 0
Nghost:    2189 ave 2189 max 2189 min
Histogram: 1 0 0 0 0 0 0 0 0 0
Neighs:    2344 ave 2344 max 2344 min
Histogram: 1 0 0 0 0 0 0 0 0 0

Total # of neighbors = 2344
Ave neighs/atom = 293
Neighbor list builds = 0
Dangerous builds = 0
unfix 20
unfix 21
print "seeds:2413289"
seeds:2413289
