LAMMPS (10 Feb 2015)
# ---- initialize simulations
clear
units metal
dimension 3
boundary p p p
atom_style charge
atom_modify map array
# ---- create atoms
read_data /Users/eugeneragasa/pyflamestk_git/pypospack/tests/tests_integration/workflow/WorkflowLammpsThermalExpansion/param_7521/MgO_NaCl_unit.npt.T1700/lammps.structure
  triclinic box = (0 0 0) to (4.2565 4.2565 4.2565) with tilt (0 0 0)
  1 by 1 by 1 MPI processor grid
  reading atoms ...
  8 atoms
# ---- define interatomic potential
include potential.mod
mass 1 24.305
mass 2 15.999

group Mg type 1
4 atoms in group Mg
group O type 2
4 atoms in group O

set group Mg charge 1.63791250839
  4 settings made for charge
set group O charge -1.63791250839
  4 settings made for charge

variable R_cut equal 10.0

pair_style buck/coul/long ${R_cut}
pair_style buck/coul/long 10
pair_coeff 1 1 0.0 0.5 0.0 ${R_cut}
pair_coeff 1 1 0.0 0.5 0.0 10
pair_coeff 1 2 1465.92328509 0.282476486176 0.0 ${R_cut}
pair_coeff 1 2 1465.92328509 0.282476486176 0.0 10
pair_coeff 2 2 5816.20442115 0.096233749689 18.932341092 ${R_cut}
pair_coeff 2 2 5816.20442115 0.096233749689 18.932341092 10

kspace_style pppm 1.0e-5

neighbor 1.0 bin
neigh_modify every 1 delay 0 check yes
# ---- define settings
compute eng all pe/atom
compute eatoms all reduce sum c_eng
# ---- run minimization
reset_timestep 0
fix 1 all box/relax iso 0.0 vmax 0.001
thermo 10
thermo_style custom step pe lx ly lz xy xz yz press pxx pyy pzz pxy pxz pyz c_eatoms
min_style cg
minimize 1e-25 1e-25 5000 10000
PPPM initialization ...
  G vector (1/distance) = 0.35267
  grid = 8 8 8
  stencil order = 5
  estimated absolute RMS force accuracy = 3.88211e-05
  estimated relative force accuracy = 2.69597e-06
  using double precision FFTs
  3d grid and FFT values/proc = 3375 512
Neighbor list info ...
  1 neighbor list requests
  update every 1 steps, delay 0 steps, check yes
  master list distance cutoff = 11
Memory usage per processor = 4.06549 Mbytes
Step PotEng Lx Ly Lz Xy Xz Yz Press Pxx Pyy Pzz Pxy Pxz Pyz eatoms 
       0   -108.70031       4.2565       4.2565       4.2565            0            0            0    82041.316    82041.316    82041.316    82041.316 -4.6499549e-11 -1.1702618e-10 1.7098221e-10   -108.70031 
      10   -108.77917     4.299065     4.299065     4.299065            0            0            0    28384.418    28384.418    28384.418    28384.418 -2.893711e-10 1.1285336e-10 8.1895601e-11   -108.77917 
      19   -108.79132    4.3240425    4.3240425    4.3240425            0            0            0 -0.024351241 -0.024351241 -0.024351241 -0.024351241 1.5580285e-11 -3.1606067e-12 1.2588801e-10   -108.79132 
Loop time of 0.00823689 on 1 procs for 19 steps with 8 atoms

Minimization stats:
  Stopping criterion = linesearch alpha is zero
  Energy initial, next-to-last, final = 
        -108.700309346      -108.79131697      -108.79131697
  Force two-norm initial, final = 11.8468 7.13952e-05
  Force max component initial, final = 11.8468 1.5084e-05
  Final line search alpha, max atom move = 0.5 7.54202e-06
  Iterations, force evaluations = 19 24

Pair  time (%) = 0.00228643 (27.7585)
Kspce time (%) = 0.00133443 (16.2006)
Neigh time (%) = 0 (0)
Comm  time (%) = 0.000253201 (3.07398)
Outpt time (%) = 1.3113e-05 (0.159199)
Other time (%) = 0.00434971 (52.8077)

Nlocal:    8 ave 8 max 8 min
Histogram: 1 0 0 0 0 0 0 0 0 0
Nghost:    2189 ave 2189 max 2189 min
Histogram: 1 0 0 0 0 0 0 0 0 0
Neighs:    2344 ave 2344 max 2344 min
Histogram: 1 0 0 0 0 0 0 0 0 0

Total # of neighbors = 2344
Ave neighs/atom = 293
Neighbor list builds = 0
Dangerous builds = 0
unfix 1
# ---- define output variables ----
variable natoms equal "count(all)"
variable tot_energy equal "c_eatoms"
variable length_x equal "lx"
variable length_y equal "ly"
variable length_z equal "lz"
variable tilt_xy equal "xy"
variable tilt_xz equal "xz"
variable tilt_yz equal "yz"
variable tot_press equal "press"
variable press_xx equal "pxx"
variable press_yy equal "pyy"
variable press_zz equal "pzz"
variable press_xy equal "pxy"
variable press_xz equal "pxz"
variable press_yz equal "pyz"

# ---- output ----
print "pypospack:output_section:begin"
pypospack:output_section:begin
print "tot_energy = ${tot_energy}"
tot_energy = -108.791316969709
print "num_atoms = ${natoms}"
num_atoms = 8
print "xx = ${length_x}"
xx = 4.32404254484564
print "yy = ${length_y}"
yy = 4.32404254484564
print "zz = ${length_z}"
zz = 4.32404254484564
print "xy = ${tilt_xy}"
xy = 0
print "xz = ${tilt_xz}"
xz = 0
print "yz = ${tilt_yz}"
yz = 0
print "tot_press = ${tot_press}"
tot_press = -0.0243512411551094
print "pxx = ${press_xx}"
pxx = -0.0243512413415371
print "pyy = ${press_yy}"
pyy = -0.0243512409516822
print "pzz = ${press_zz}"
pzz = -0.024351241172109
print "pxy = ${press_xy}"
pxy = 1.55802849425254e-11
print "pxz = ${press_xz}"
pxz = -3.16060668162342e-12
print "pyz = ${press_yz}"
pyz = 1.25888006757422e-10
print "pypospack:output_section:done"
pypospack:output_section:done
print "pypospack:lammps_sim:done"
pypospack:lammps_sim:done
#------------------------------------------------------------------------------
# RUN THERMOSTAT
# running using an NPT Nose-Hoover style thermostat
#------------------------------------------------------------------------------
variable tempdamp equal 0.1
variable pressdamp equal 1.0
# set initial velocities
velocity all create 1700 788864 mom yes dist gaussian loop all
# fix for Nose-Hoover style thermostat
fix 20 all npt temp 1700 1700 0.1 aniso 0.0 0.0 1.0 drag 1.0 couple xyz
variable boxx equal lx
variable boxy equal ly
variable boxz equal lz
variable boxp equal press
variable boxt equal temp
# calculate averages every 10000 steps
reset_timestep 0
fix 21 all ave/time 10 10 100 v_boxx v_boxy v_boxz v_boxp v_boxt file lattice.out
thermo_style custom step temp pe ke etotal press lx ly lz press pxx pyy pzz pxy pxz pyz vol
thermo_modify flush yes
thermo 100
run 100000
PPPM initialization ...
  G vector (1/distance) = 0.351996
  grid = 8 8 8
  stencil order = 5
  estimated absolute RMS force accuracy = 4.00454e-05
  estimated relative force accuracy = 2.781e-06
  using double precision FFTs
  3d grid and FFT values/proc = 3375 512
Memory usage per processor = 3.06549 Mbytes
Step Temp PotEng KinEng TotEng Press Lx Ly Lz Press Pxx Pyy Pzz Pxy Pxz Pyz Volume 
       0         1700   -108.79133    1.5381957   -107.25313    20319.938    4.3240425    4.3240425    4.3240425    20319.938    16427.801     30179.74    14352.273    12299.079    1777.8519   -8602.7204    80.848111 
     100    411.31751   -107.44448   0.37216873   -107.07231    23321.322    4.3561223    4.3561223    4.3561223    23321.322   -5955.5906    37562.062    38357.494   -10624.803    10858.876    6318.1487    82.660913 
     200     1403.837   -107.90729    1.2702212   -106.63706   -28842.621    4.4067557    4.4067557    4.4067557   -28842.621   -41667.009   -4867.2714   -39993.582    16034.015    1282.5902   -1391.7157    85.576974 
     300    1616.5293   -107.74346    1.4626697    -106.2808   -36423.286    4.4144292    4.4144292    4.4144292   -36423.286   -62755.936   -1915.5534   -44598.369   -21535.203     5681.206   -4819.2281    86.024802 
     400    980.24974    -106.8414   0.88695057   -105.95445     39709.75     4.384695     4.384695     4.384695     39709.75    11888.725    99065.743    8174.7817    14223.602    13102.288    26857.001    84.298174 
     500     1781.198   -107.38686    1.6116653    -105.7752    36153.727    4.3843944    4.3843944    4.3843944    36153.727    16301.911    23420.618    68738.653   -31329.051   -11515.094    -7511.999    84.280838 
     600    2038.8506   -107.55348    1.8447949   -105.70868   -25307.042    4.4125784    4.4125784    4.4125784   -25307.042   -72582.223    49708.969   -53047.873    4609.9704    18795.303    16494.872    85.916645 
     700    1747.8425   -107.22756    1.5814846   -105.64607   -28463.936    4.4396263    4.4396263    4.4396263   -28463.936   -28474.417    5023.1348   -61940.525    1966.3111   -6885.3559   -21005.014    87.506288 
     800    1568.0963   -107.03727    1.4188465   -105.61842   -25561.505    4.4232755    4.4232755    4.4232755   -25561.505   -38768.608   -49319.888     11403.98    406.44077    30306.245   -10846.316    86.543005 
     900    1704.1082   -107.14934    1.5419129   -105.60742    34292.524    4.3853939    4.3853939    4.3853939    34292.524    1833.8117    67736.531     33307.23    19769.403    5667.3192    1383.2382     84.33849 
    1000    1634.7294   -107.12847    1.4791375   -105.64933    1961.2084    4.3778686    4.3778686    4.3778686    1961.2084    5433.2281    10585.343   -10134.946   -12928.861    14393.371   -14112.817    83.905062 
    1100    1762.1226   -107.28808    1.5944055   -105.69367   -8356.2516    4.4107644    4.4107644    4.4107644   -8356.2516   -16418.442   -27042.068    18391.755    26179.368    8119.7893   -1486.4896     85.81073 
    1200    1465.0094   -106.98782    1.3255713   -105.66225   -4560.1238    4.4300035    4.4300035    4.4300035   -4560.1238    2711.2915    3456.8252   -19848.488   -22787.582   -1582.3165   -21977.603    86.938516 
    1300    1761.6259   -107.21694    1.5939561   -105.62299   -28399.287    4.4187935    4.4187935    4.4187935   -28399.287   -42385.172    13898.787   -56711.476    15962.463     21996.48    5494.7328    86.280197 
    1400    1801.3787   -107.23706    1.6299253   -105.60713    11175.527     4.391207     4.391207     4.391207    11175.527    906.80555     3933.206    28686.568    -17607.71    1511.6837    2822.9751    84.674321 
    1500    1632.7854   -107.11293    1.4773785   -105.63555     27193.24    4.3851561    4.3851561    4.3851561     27193.24    50528.374     8554.765    22496.581   -21532.246     19362.84   -16929.099    84.324771 
    1600    1802.1754   -107.29311    1.6306462   -105.66246   -13866.854    4.4133281    4.4133281    4.4133281   -13866.854   -33145.716    20111.582   -28566.429   -11351.721   -12713.667    21686.126    85.960442 
    1700    1754.4034   -107.23293    1.5874211   -105.64551   -21804.347    4.4200797    4.4200797    4.4200797   -21804.347   -22065.761   -37398.454   -5948.8263    -37927.03     21790.65   -2503.3431     86.35556 
    1800    1943.1892   -107.38044    1.7582385    -105.6222    30678.473    4.4013795    4.4013795    4.4013795    30678.473    53683.663    74599.002   -36247.245    12787.384   -3094.3115   -13905.756    85.264147 
    1900    1470.7089   -106.97192    1.3307283   -105.64119    23774.507    4.3842232    4.3842232    4.3842232    23774.507   -7907.9865    90984.777   -11753.268   -39586.292    4660.6684    26026.237    84.270962 
    2000    2084.9674   -107.55535    1.8865223   -105.66883        17857    4.3936083    4.3936083    4.3936083        17857    37404.859    32204.529   -16038.389    12700.131    13782.618    5394.9772     84.81331 
    2100    1443.5821   -106.97449    1.3061834   -105.66831   -19167.948    4.4197599    4.4197599    4.4197599   -19167.948   -42057.481    26823.204   -42269.567    -29288.04    12138.456   -3762.1618    86.336815 
    2200    1733.0571   -107.20055    1.5681065   -105.63244   -34942.579    4.4154102    4.4154102    4.4154102   -34942.579    -46081.11   -737.64498   -58008.982   -17127.735    7161.2085    10169.129    86.082161 
    2300    1972.0332   -107.38938    1.7843371   -105.60504    18364.083    4.3781368    4.3781368    4.3781368    18364.083    35375.162    44648.532   -24931.447    3945.2463   -47.819308   -10939.112    83.920484 
    2400    1114.5562   -106.65978    1.0084739   -105.65131     27108.28     4.371006     4.371006     4.371006     27108.28   -6904.5321    51828.064    36401.309   -36381.561    14095.868    17607.085    83.511101 
    2500    2328.4886   -107.79329    2.1068655   -105.68642   -3132.4823    4.3978802    4.3978802    4.3978802   -3132.4823    20158.176   -11264.848   -18290.774    15368.479   -2316.9008   -7401.2963    85.060942 
    2600    1222.4323   -106.77935    1.1060824   -105.67326   -19785.191    4.4271622    4.4271622    4.4271622   -19785.191    -66736.67   -6106.6054    13487.703   -37101.584    14412.269    15950.179    86.771338 
    2700    1801.3788   -107.25074    1.6299254   -105.62081   -15266.862     4.412637     4.412637     4.412637   -15266.862     14525.36   -13803.878   -46522.069    4541.9869    8679.9119    6328.1866    85.920067 
    2800    1874.5514   -107.29912    1.6961335   -105.60299    9543.6771    4.3880926    4.3880926    4.3880926    9543.6771   -32161.244    43084.637    17707.638   -19560.131    4792.5032    881.45681    84.494285 
    2900    1345.9241   -106.85814    1.2178204   -105.64032   -127.48994    4.3800886    4.3800886    4.3800886   -127.48994     32245.55    -19625.07   -13002.951   -29674.074    6130.6505    17875.318    84.032771 
    3000    2078.4928   -107.56665     1.880664   -105.68599    18757.185    4.3980471    4.3980471    4.3980471    18757.185   -1957.2244    17364.835    40863.944    994.83214    984.60942    2879.8776    85.070628 
    3100    1527.1574   -107.06686    1.3818041   -105.68506   -40127.976     4.418885     4.418885     4.418885   -40127.976   -68351.619   -45334.393   -6697.9146   -31476.068    8788.8144    15941.365    86.285557 
    3200    1843.8431   -107.29972     1.668348   -105.63138    2720.3064    4.4078876    4.4078876    4.4078876    2720.3064   -25369.592    10847.746    22682.765    -1571.142   -12559.329    12049.366    85.642936 
    3300    1830.4933   -107.27419    1.6562688   -105.61792   -14145.579    4.3952112    4.3952112    4.3952112   -14145.579   -29427.773     7122.122   -20131.085   -20798.097    11718.326   -8049.5614    84.906169 
    3400    1221.0938   -106.74707    1.1048713    -105.6422    16522.987    4.3978552    4.3978552    4.3978552    16522.987    -32441.03    6336.7896    75673.203   -730.87327    14634.713    15400.777     85.05949 
    3500    1902.8056   -107.36009    1.7216985   -105.63839    16415.527    4.3960448    4.3960448    4.3960448    16415.527   -11643.042    70038.951   -9149.3274   -10300.113    3807.1521   -24425.273    84.954486 
    3600     1311.039   -106.85332    1.1862556   -105.66706    10421.614    4.4143072    4.4143072    4.4143072    10421.614   -23131.749   -48634.503    103031.09   -50.082436    17898.558    15307.378    86.017667 
    3700    2239.1158   -107.64697    2.0259991   -105.62097    -13618.08    4.4274722    4.4274722    4.4274722    -13618.08    -53274.69    22058.522   -9638.0717    13085.074     1260.857   -22365.819    86.789569 
    3800    800.80256   -106.33888   0.72458298    -105.6143    50864.972    4.4048681    4.4048681    4.4048681    50864.972    48879.116    46389.086    57326.713   -31374.023    26988.373   -18588.142    85.467052 
    3900    2205.0849   -107.62316    1.9952072   -105.62796   -11099.659    4.3986704    4.3986704    4.3986704   -11099.659   -11056.138   -5903.9263   -16338.912    17513.546   -1960.6221   -7112.4825      85.1068 
    4000    1132.1227   -106.67295    1.0243684   -105.64858    53641.237    4.3924313    4.3924313    4.3924313    53641.237    99328.619   -32700.797    94295.888     7903.448    37537.742   -8895.6897    84.745166 
    4100     1861.056    -107.3537    1.6839226   -105.66978     10956.18    4.4167427    4.4167427    4.4167427     10956.18    18690.184     2686.439    11491.916    10512.932    15965.507   -3810.4165    86.160121 
    4200    1374.5793   -106.88946    1.2437482   -105.64571   -59552.413    4.4384317    4.4384317    4.4384317   -59552.413   -79149.422   -63769.727   -35738.089   -4984.9116   -33540.611   -9081.8787    87.435664 
    4300    1611.5199   -107.04777     1.458137   -105.58963    24258.009    4.4078023    4.4078023    4.4078023    24258.009     64276.24   -15372.683    23870.471   -17861.348    8960.6507    8490.6818    85.637961 
    4400    1670.3485   -107.12053    1.5113664   -105.60916   -2057.1355    4.3965334    4.3965334    4.3965334   -2057.1355    63109.469   -43192.438   -26088.437     5667.247   -10046.569   -2828.9306    84.982816 
    4500     1139.617    -106.7098    1.0311494   -105.67866   -30719.715    4.4078769    4.4078769    4.4078769   -30719.715   -38742.731   -41255.167   -12161.248    6244.1989    -37515.03   -6096.8467    85.642307 
    4600    2177.1608   -107.63447    1.9699408   -105.66453    18223.665    4.3918597    4.3918597    4.3918597    18223.665    5125.6559    19352.775    30192.565    5603.6095    19889.133    19034.496    84.712088 
    4700    1238.5996    -106.8138    1.1207109   -105.69309   -15244.977    4.4081458    4.4081458    4.4081458   -15244.977     29018.65   -30551.723   -44201.856   -1782.6465   -16626.591   -14883.905    85.657983 
    4800    1535.9512   -107.06135    1.3897609   -105.67159    9226.5448    4.4131948    4.4131948    4.4131948    9226.5448    62221.569   -24570.496   -9971.4389    4717.9362     33817.27    4495.7089    85.952655 
    4900    1807.1258   -107.29567    1.6351254   -105.66054    12569.675    4.3969551    4.3969551    4.3969551    12569.675   -3464.8484    60920.024    -19746.15    573.59025   -8452.6772    6475.1067    85.007272 
    5000    2186.3718   -107.64272    1.9782752   -105.66445   -2412.7076    4.3941893    4.3941893    4.3941893   -2412.7076   -6129.1263   -3954.7827    2845.7864     2606.355    4581.5331   -14525.633    84.846962 
    5100    1672.0981   -107.20212    1.5129495   -105.68917     6538.298    4.4011658    4.4011658    4.4011658     6538.298    24375.164   -19107.424    14347.153    5236.2518    30176.035    15549.245    85.251728 
    5200    1536.1038   -107.07505     1.389899   -105.68515    9494.3092    4.4118617    4.4118617    4.4118617    9494.3092    63014.847   -4391.0935   -30140.826   -15979.323    1935.0919    -13266.03    85.874784 
    5300    1446.7774   -106.99677    1.3090746   -105.68769    3283.0415     4.392387     4.392387     4.392387    3283.0415    23279.027   -19755.333    6325.4298     5992.473    37793.824    13078.541    84.742601 
    5400    2218.3217   -107.69391    2.0071841   -105.68673    6237.4499    4.3851525    4.3851525    4.3851525    6237.4499    5703.2707    13272.394   -263.31481    16669.143   -155.82933   -20000.502    84.324562 
    5500    1293.6673   -106.86429    1.1705373   -105.69376    17647.604    4.3997927    4.3997927    4.3997927    17647.604    15524.981    63380.216   -25962.385   -11307.677    24890.381    12302.529     85.17196 
    5600    2023.0723   -107.50143    1.8305184   -105.67091   -17297.397    4.4139949    4.4139949    4.4139949   -17297.397   -853.95605   -55258.561    4220.3261     9691.447    195.42095   -14767.423    85.999409 
    5700    1408.7464   -106.91701    1.2746633   -105.64235   -8973.2179    4.4279888    4.4279888    4.4279888   -8973.2179   -30959.905    35075.443   -31035.191    5967.6632    19197.373   -11763.447    86.819951 
    5800    1615.1823   -107.09708    1.4614509   -105.63563   -42254.037    4.3948915    4.3948915    4.3948915   -42254.037    6035.5907   -45016.019   -87781.684    5018.1813    7473.4383    33224.334    84.887644 
    5900    1717.9997   -107.17512    1.5544823   -105.62063    74874.798    4.3507361    4.3507361    4.3507361    74874.798    136887.76    38245.165    49491.471   -18890.471   -4122.4698   -18946.879    82.354669 
    6000    1182.4743    -106.7774    1.0699276   -105.70747    12237.726     4.376299     4.376299     4.376299    12237.726    115751.14   -17497.082    -61540.88   -2086.9499    9243.6279    39317.756    83.814848 
    6100    2103.0905   -107.58324    1.9029204   -105.68032   -22342.676    4.4229969    4.4229969    4.4229969   -22342.676    -14385.42   -35259.492   -17383.116    2561.5234     -4310.26   -12546.646    86.526652 
    6200    1374.1691   -106.87645    1.2433771   -105.63308   -50628.897    4.4278973    4.4278973    4.4278973   -50628.897   -38231.076   -50494.864   -63160.751   -8924.9721    17515.811    36957.987    86.814568 
    6300    1691.5243   -107.13124    1.5305267   -105.60071    12115.362    4.3847036    4.3847036    4.3847036    12115.362    21694.312    43489.276   -28837.503    16681.746    21253.626    4183.6583     84.29867 
    6400    2103.9458   -107.51218    1.9036944   -105.60849    140.15516    4.3660185    4.3660185    4.3660185    140.15516   -605.32343    19736.845   -18711.056   -6365.6079   -22658.997    24462.537    83.225558 
    6500    1071.1198   -106.64602   0.96917172   -105.67685    20180.183    4.3906015    4.3906015    4.3906015    20180.183   -2024.3085    98852.856   -36287.999    3590.4536    30443.783    25623.321    84.639299 
    6600    1997.4455   -107.45873    1.8073306    -105.6514   -20788.875    4.4166369    4.4166369    4.4166369   -20788.875   -65137.418    16365.371   -13594.577   -8908.5186    -23872.61   -1853.8948    86.153927 
    6700    1628.8095   -107.10129     1.473781   -105.62751   -42819.273    4.4139177    4.4139177    4.4139177   -42819.273    -53922.93    10543.762   -85078.652    9377.6145    19465.591    30526.655    85.994898 
    6800    1906.5321   -107.32632    1.7250703   -105.60125    18202.406    4.3902442    4.3902442    4.3902442    18202.406   -17048.654    63478.687    8177.1846   -14558.222    2711.8889   -15806.743    84.618641 
    6900     1117.762   -106.64067    1.0113746   -105.62929    3919.8162    4.3771265    4.3771265    4.3771265    3919.8162    -33477.68    64992.265   -19755.137    6356.0696   -9782.3088    9178.0343    83.862401 
    7000    2247.6998   -107.67473     2.033766   -105.64096    38692.497    4.3793388    4.3793388    4.3793388    38692.497   -22195.494    80758.796    57514.191   -3284.4649     9759.753    3728.3326    83.989625 
    7100    1267.1235    -106.8401    1.1465199   -105.69358   -23909.134    4.4024644    4.4024644    4.4024644   -23909.134   -44553.333   -5489.5644   -21684.503   -1540.0486   -14354.192   -19410.316    85.327213 
    7200    2313.7581    -107.7367     2.093537   -105.64316      4638.29    4.4078715    4.4078715    4.4078715      4638.29   -34815.248    36647.264    12082.854    10524.492    4307.4848   -4284.5919    85.641994 
    7300    1247.5481   -106.77237    1.1288078   -105.64357   -19035.277    4.3862455    4.3862455    4.3862455   -19035.277   -58271.046   -5344.4725    6509.6872   -3818.7531   -17786.053    2754.6767    84.387632 
    7400    2077.4026   -107.51793    1.8796775   -105.63825     1422.004    4.3742004    4.3742004    4.3742004     1422.004   -8862.1524    5719.2849    7408.8794    -9344.162   -351.66541   -25313.894    83.694327 
    7500    1584.8848     -107.104     1.434037   -105.66996   -26077.252    4.3815795    4.3815795    4.3815795   -26077.252   -33662.177   -9907.6242   -34661.953    1051.1302   -8664.3522    32233.414    84.118612 
    7600    1900.8973   -107.38532    1.7199718   -105.66535   -22553.998    4.3989592    4.3989592    4.3989592   -22553.998    -39088.04    3207.2138   -31781.168    9121.8427   -23291.293   -15723.657    85.123565 
    7700    1194.7536   -106.74357    1.0810381   -105.66253    12453.951    4.3874248    4.3874248    4.3874248    12453.951    48327.932    27007.866   -37973.947   -197.25536    22418.415    19047.364    84.455715 
    7800     1789.853    -107.2741    1.6194966    -105.6546   -7900.3221    4.3831018    4.3831018    4.3831018   -7900.3221   -10963.511   -18137.149    5399.6938   -3460.7344   -26491.306    2368.5104    84.206318 
    7900    1902.8642   -107.36441    1.7217515   -105.64266    2203.0323    4.3960503    4.3960503    4.3960503    2203.0323    7888.0863    35522.214   -36801.204     11903.91    38684.304   -13131.333    84.954808 
    8000    1151.3427   -106.67661    1.0417591   -105.63485    -36032.66    4.4123016    4.4123016    4.4123016    -36032.66   -12514.624   -41682.033   -53901.324   -7893.5251   -21774.561    16921.001    85.900474 
    8100    2377.2651   -107.76466    2.1509995   -105.61366   -18745.767    4.3835152    4.3835152    4.3835152   -18745.767   -12146.809   -18858.291   -25232.202   -6953.2607     13316.47   -27582.869    84.230147 
    8200    1710.5476   -107.16962    1.5477394   -105.62188    26696.663    4.3521376    4.3521376    4.3521376    26696.663    27934.029    41857.352    10298.609    3289.7091     21189.29    17646.607    82.434282 
    8300    1517.8148   -107.04652    1.3733507   -105.67317     24901.22    4.3676277    4.3676277    4.3676277     24901.22    35799.919   -5510.7225    44414.463    -25567.74   -4735.2462   -7092.4829    83.317617 
    8400    1542.0137   -107.06263    1.3952464   -105.66739    -9192.243    4.4084879    4.4084879    4.4084879    -9192.243     39781.91   -19505.813   -47852.826    16185.957    24538.235   -18739.352    85.677931 
    8500    1715.1703   -107.18801    1.5519221   -105.63609   -26659.576    4.4017741    4.4017741    4.4017741   -26659.576   -27691.496    153.00563   -52440.239    -9919.966   -7800.9851    25528.992    85.287079 
    8600    2078.8373   -107.50017    1.8809756   -105.61919    18348.793    4.3722267    4.3722267    4.3722267    18348.793    27565.256    21614.217    5866.9066     17082.71    2307.5525   -28985.714    83.581087 
    8700    1296.9202   -106.83015    1.1734807   -105.65667    20799.657    4.3670683    4.3670683    4.3670683    20799.657    84772.873     8627.205   -31001.108    301.15557    6198.4723    56454.627    83.285607 
    8800     2110.204   -107.59026     1.909357    -105.6809   -1793.2286    4.3764182    4.3764182    4.3764182   -1793.2286    5023.4492   -8644.9542   -1758.1807    3229.4485   -27016.282   -24356.547    83.821696 
    8900    1519.4061   -107.05377    1.3747906   -105.67898   -14414.335    4.4099335    4.4099335    4.4099335   -14414.335    67952.537   -39788.272   -71407.271    4319.7518    7564.7016    39696.748    85.762242 
    9000    1939.0598   -107.39686    1.7545021   -105.64236   -25204.116    4.4010074    4.4010074    4.4010074   -25204.116    19900.208   -50636.301   -44876.255   -10350.615   -23040.926   -2071.6225    85.242523 
    9100    1310.3353   -106.82121    1.1856189   -105.63559    7935.0709    4.3640539    4.3640539    4.3640539    7935.0709    36096.346   -5996.7793   -6294.3543   -10051.371   -1404.3153    21714.855    83.113259 
    9200      1923.33   -107.39069    1.7402694   -105.65042    33661.476    4.3578004    4.3578004    4.3578004    33661.476    112206.79   -4504.7338    -6717.625   -6055.5773    8740.2207    26437.161    82.756478 
    9300    1726.2424   -107.24308    1.5619404   -105.68114    361.78988    4.3767762    4.3767762    4.3767762    361.78988    9610.5665   -9330.6981    805.50124   -16678.221   -5782.6956    7378.2348     83.84227 
    9400    1014.0231   -106.59357   0.91750937   -105.67606   -24486.765    4.3973653    4.3973653    4.3973653   -24486.765    18351.005   -70497.243   -21314.058    2872.0885   -11233.225     50755.46    85.031066 
    9500    2483.2319   -107.89604    2.2468804   -105.64916    9309.1608    4.3750221    4.3750221    4.3750221    9309.1608    25927.239   -17661.162    19661.405    10795.092    8485.3142   -9722.6157    83.741505 
    9600    1395.6558    -106.9238    1.2628187   -105.66098    22955.339     4.356357     4.356357     4.356357    22955.339    39692.355    36136.698   -6963.0369   -15696.663   -11523.171    38427.233    82.674276 
    9700    1592.0222   -107.12081    1.4404951   -105.68032    29080.291    4.3645574    4.3645574    4.3645574    29080.291    2430.5105    49774.772    35035.589    32685.864     4301.438   -51.338503    83.142032 
    9800    1990.0981   -107.47458    1.8006826   -105.67389   -4970.7282    4.3910164    4.3910164    4.3910164   -4970.7282     31610.21   -9698.5694   -36823.825    1016.9325   -10431.852     14320.95    84.663299 
    9900    1423.5804    -106.9461    1.2880855   -105.65801    -19898.53    4.3862577    4.3862577    4.3862577    -19898.53   -39322.038   -36249.019    15875.468    35039.843    1505.7433    12610.727    84.388338 
   10000    1928.0596   -107.37296    1.7445488   -105.62841    12991.738    4.3615444    4.3615444    4.3615444    12991.738   -10974.728    37453.262    12496.679    1733.4441     24937.89    -4075.987    82.969963 
   10100    1618.5204   -107.11222    1.4644712   -105.64775   -14466.088    4.3646431    4.3646431    4.3646431   -14466.088    13286.672   -41026.045   -15658.893     16293.13   -22782.979    23703.642     83.14693 
   10200    1588.1586   -107.11284    1.4369993   -105.67584    6098.3614    4.3811163    4.3811163    4.3811163    6098.3614   -50792.078    49827.169    19259.993    19314.608    19489.651   -6017.1518    84.091935 
   10300     1577.028   -107.07995    1.4269281   -105.65302   -16301.525    4.3969017    4.3969017    4.3969017   -16301.525   -18027.262   -7844.5177   -23032.795   -4676.7797   -5524.2573    24276.462    85.004178 
   10400    1250.7882    -106.7744    1.1317395   -105.64266   -30721.531    4.3747134    4.3747134    4.3747134   -30721.531    -29841.62   -56522.152    -5800.822    45064.989    -14106.29    20723.875    83.723777 
   10500     2351.481   -107.75526    2.1276694   -105.62759    46552.114    4.3499078    4.3499078    4.3499078    46552.114   -71.449777    81771.948    57955.843   -24646.161    7441.2234   -17966.141    82.307639 
   10600      1075.37   -106.67078   0.97301737   -105.69776    24295.448    4.3630617    4.3630617    4.3630617    24295.448   -14141.703    16836.384    70191.664    35811.831   -23241.565     16438.82    83.056585 
   10700    2198.7782   -107.66733    1.9895007   -105.67783   -10251.338    4.4047555    4.4047555    4.4047555   -10251.338    1895.2457    -13820.76   -18828.499   -5675.6188    2302.9742    6703.5869    85.460499 
   10800    1444.9363   -106.94844    1.3074087   -105.64103   -61487.307    4.4151423    4.4151423    4.4151423   -61487.307   -92047.768   -70560.466   -21853.687    26296.342   -14113.625    10633.816    86.066493 
   10900    1647.4757   -107.11596    1.4906707   -105.62529    2419.8787    4.3584991    4.3584991    4.3584991    2419.8787   -9617.6362   -12311.637    29188.909    19760.717   -8498.7839    31021.374    82.796291 
   11000    2386.0503   -107.77717    2.1589485   -105.61822    48114.804    4.3332976    4.3332976    4.3332976    48114.804    48891.192    59482.725    35970.495   -8427.2235    13217.293    976.97839     81.36836 
   11100    1056.8303   -106.66619   0.95624228   -105.70995    3311.8701    4.3623212    4.3623212    4.3623212    3311.8701   -4975.5324    23210.111   -8298.9688     37225.46   -15616.499    27394.315      83.0143 
   11200    1965.3064   -107.46968    1.7782505   -105.69143   -10078.323    4.4017699    4.4017699    4.4017699   -10078.323    22757.178   -5626.5388   -47365.608   -9540.9539    17991.369    7824.6376     85.28684 
   11300    1893.5315   -107.37205    1.7133071   -105.65874   -21862.592    4.3942134    4.3942134    4.3942134   -21862.592   -27799.574   -5954.2955   -31833.906    29651.141   -6185.3376   -786.31921    84.848358 
   11400    1207.2344   -106.74058    1.0923311   -105.64825    1075.2228    4.3439333    4.3439333    4.3439333    1075.2228    11036.822        33295   -41106.153    13956.577    13912.737    30563.544    81.968963 
   11500    1757.3796   -107.25104     1.590114   -105.66093    53384.275    4.3343845    4.3343845    4.3343845    53384.275    32829.679    121241.12    6082.0283    607.30387    11086.493   -20373.021    81.429602 
   11600    1913.7966   -107.43479    1.7316434   -105.70314   -27097.694    4.3813397    4.3813397    4.3813397   -27097.694   -18965.726   -20355.828   -41971.529    29663.597    1723.1954    14777.329    84.104798 
   11700    1188.7209   -106.75303    1.0755797   -105.67745   -44557.351    4.3958794    4.3958794    4.3958794   -44557.351   -60508.945    2974.8033    -76137.91   -1877.1461    37818.709    18310.065      84.9449 
   11800    1596.2079   -107.10069    1.4442825   -105.65641    15274.022    4.3660221    4.3660221    4.3660221    15274.022    98648.572   -46482.641    -6343.866   -16336.042   -9980.0713    -25096.56    83.225761 
   11900    2139.1028   -107.59469    1.9355052   -105.65919    13222.793    4.3527899    4.3527899    4.3527899    13222.793     26648.63    45411.292   -32391.542    1912.2476    26609.585     23088.46    82.471351 
   12000    1343.9291   -106.90318    1.2160153   -105.68717     6069.653    4.3672943    4.3672943    4.3672943     6069.653    4349.4654     44192.57   -30333.076   -20369.377    3287.1972   -30338.819    83.298539 
   12100    1741.2556    -107.2496    1.5755247   -105.67407   -25697.216    4.3925263    4.3925263    4.3925263   -25697.216   -52132.994    38035.816   -62994.471   -8844.3008   -8585.3138   -11217.399    84.750663 
   12200    1531.2459   -107.03791    1.3855034   -105.65241   -8011.5774    4.3856246    4.3856246    4.3856246   -8011.5774   -34023.479    49188.139   -39199.392    8077.2127    40735.325    4925.2316    84.351804 
   12300    1766.0018   -107.22538    1.5979156   -105.62746     8574.589    4.3633538    4.3633538    4.3633538     8574.589     3673.659    41054.179   -19004.071    -24295.32   -23417.427   -31676.101    83.073267 
   12400    1570.4032   -107.06197    1.4209338   -105.64104   -4631.7161    4.3686684    4.3686684    4.3686684   -4631.7161    304.12423    18772.182   -32971.454    13418.584     25896.49    4880.0644    83.377186 
   12500    1911.8497   -107.38241    1.7298818   -105.65253   -26959.213    4.3791087    4.3791087    4.3791087   -26959.213    16672.664   -57419.252    -40131.05    14814.304    7336.3108   -27978.683    83.976386 
   12600    2274.2477   -107.70873    2.0577871   -105.65094   -7061.6656    4.3708644    4.3708644    4.3708644   -7061.6656   -5651.1361    11990.765   -27524.625   -859.43649   -25380.611   -1702.7984    83.502985 
   12700    1243.9261   -106.80024    1.1255305   -105.67471   -20272.347    4.3688495    4.3688495    4.3688495   -20272.347    -22132.65   -10661.215   -28023.176     33464.99    31264.147     358.2274    83.387555 
   12800    1854.8702   -107.34209    1.6783255   -105.66376    10709.038    4.3673233    4.3673233    4.3673233    10709.038    19128.385   -5471.7358    18470.466   -15990.487   -5894.6239    -6810.622      83.3002 
   12900    1848.4571   -107.34023    1.6725228   -105.66771   -16432.209    4.3732091    4.3732091    4.3732091   -16432.209   -60682.724    19077.213   -7691.1171    5700.0648   -394.58805    458.15833    83.637441 
   13000    1714.7986    -107.2165    1.5515858   -105.66491   -28239.921    4.3817119    4.3817119    4.3817119   -28239.921   -32124.024   -58393.722    5797.9848    14614.806    13226.535   -3236.4925    84.126237 
   13100    1277.3993   -106.82017    1.1558177   -105.66435     8141.242    4.3615497    4.3615497    4.3615497     8141.242    -50669.29    7832.6632    67260.353   -35095.507   -2466.3919   -2664.7433    82.970263 
   13200    1938.1732   -107.41589    1.7536999   -105.66219    25690.533    4.3557349    4.3557349    4.3557349    25690.533   -6886.1114     68694.16     15263.55    8521.9355    3479.5028    4641.3039    82.638861 
   13300    1896.2135   -107.38773    1.7157338   -105.67199   -24711.382    4.3743151    4.3743151    4.3743151   -24711.382    -47887.47    -54569.58    28322.905   -37342.919   -8768.9163    3895.0156    83.700914 
   13400    1046.8429   -106.62447   0.94720548   -105.67727   -750.46591    4.3675392    4.3675392    4.3675392   -750.46591   -45072.459    19030.691     23790.37   -1740.7921   -715.40991   -11027.892    83.312554 
   13500    2050.0671   -107.52404    1.8549438    -105.6691     12710.83    4.3599401    4.3599401    4.3599401     12710.83   -18428.862    29845.043     26716.31   -13673.153    2895.8211    25704.815    82.878441 
   13600    2016.8246   -107.49986    1.8248652     -105.675   -9852.6204    4.3742429    4.3742429    4.3742429   -9852.6204   -30672.296   -18105.588    19220.023    -16481.62   -3197.8558    5202.6507     83.69677 
   13700    1394.7276    -106.9382    1.2619788   -105.67622   -30071.413    4.3808281    4.3808281    4.3808281   -30071.413   -74218.535    18763.297   -34759.002    31292.429   -499.52753    5509.5114    84.075342 
   13800     2238.678    -107.6759    2.0256029    -105.6503    19668.777    4.3738396    4.3738396    4.3738396    19668.777    -34922.48   -7779.3065    101708.12   -13678.368   -891.16946    18736.319    83.673618 
   13900    1309.4419   -106.85009    1.1848106   -105.66528   -3625.7752    4.3741959    4.3741959    4.3741959   -3625.7752   -74639.632   -15250.984    79013.291    22119.187    11398.106    6021.7564    83.694068 
   14000    1963.0798   -107.44432    1.7762358   -105.66808   -15964.915    4.3757376    4.3757376    4.3757376   -15964.915   -57137.353    13290.906   -4048.2991    1381.5344    4776.5979   -17810.582    83.782596 
   14100    2156.3865   -107.61865    1.9511438    -105.6675    5044.2914    4.3761873    4.3761873    4.3761873    5044.2914   -29154.748   -7555.5808    51843.203    7272.4304    4542.3678    5486.1749    83.808431 
   14200    1042.9418   -106.62492   0.94367569   -105.68124    3568.3363    4.3793867    4.3793867    4.3793867    3568.3363   -89025.255    46455.181    53275.082    4602.6616    6182.0975   -17397.233    83.992381 
   14300    1727.9969   -107.23002    1.5635279   -105.66649    12818.087    4.3743521    4.3743521    4.3743521    12818.087   -38594.417    4007.7409    73040.937   -19315.278    -4103.458   -257.57697    83.703039 
   14400    1939.2058   -107.41518    1.7546342   -105.66054    11789.515    4.3679593    4.3679593    4.3679593    11789.515   -15651.151    54451.559   -3431.8617    9727.6141    12589.594    5010.2761    83.336594 
   14500    1185.5334     -106.757    1.0726955    -105.6843   -33269.271    4.3790295    4.3790295    4.3790295   -33269.271   -81722.306    37215.394   -55300.901   -14150.743   -26788.003    9447.2987    83.971827 
   14600    2238.8238   -107.68575    2.0257348   -105.66001    2415.2484    4.3829684    4.3829684    4.3829684    2415.2484   -48346.247   -14976.032    70568.024   -4263.6057    6271.3053     5969.223    84.198628 
   14700    1463.7255   -106.98266    1.3244096   -105.65825   -19873.174    4.3838337    4.3838337    4.3838337   -19873.174   -114199.43    50136.864    4443.0488    170.58988   -877.06283    23899.757    84.248508 
   14800    1685.4513   -107.16623    1.5250318    -105.6412    7936.9106    4.3745521    4.3745521    4.3745521    7936.9106   -52533.195   -3093.4963    79437.423   -17487.618   -18153.547   -5856.3699     83.71452 
   14900    1804.5053   -107.28043    1.6327543   -105.64768   -16507.398    4.3703622    4.3703622    4.3703622   -16507.398   -29893.914    2706.2774   -22334.558    25275.773    21385.973    -13144.98    83.474203 
   15000    1351.5878   -106.88753     1.222945   -105.66459   -15910.078     4.367584     4.367584     4.367584   -15910.078   -69549.902     53429.92   -31610.252    -18869.32   -2165.4589      2186.64    83.315117 
   15100    2453.3287   -107.87397    2.2198233   -105.65415   -4008.5341    4.3650099    4.3650099    4.3650099   -4008.5341   -41285.697   -5727.0093    34987.104    15433.749   -72.039155   -10179.609    83.167895 
   15200    1214.9623   -106.77099    1.0993234   -105.67167   -49796.771    4.3839593    4.3839593    4.3839593   -49796.771   -80154.367    26956.912   -96192.859    14131.768    2486.4091   -4462.4332    84.255749 
   15300     1949.829    -107.4184    1.7642463   -105.65416   -522.87008    4.3775252    4.3775252    4.3775252   -522.87008    -16774.02    29937.679   -14732.269    6212.3719     9310.727    5772.6155    83.885321 
   15400     1843.309   -107.32526    1.6678647   -105.65739    976.07547    4.3594237    4.3594237    4.3594237    976.07547   -30362.648   -4212.4426    37503.317    22226.692   -10787.061   -14625.463    82.848992 
   15500     1292.343   -106.85808    1.1693391   -105.68874   -20405.154    4.3599767    4.3599767    4.3599767   -20405.154    -55088.48    38724.906   -44851.888   -9400.4634   -197.07218    2823.9387    82.880527 
   15600    2152.3734   -107.64199    1.9475127   -105.69447    20542.944    4.3722781    4.3722781    4.3722781    20542.944    16471.292    2490.3494    42667.192   -11676.026    3946.6601     1526.273    83.584035 
   15700    1510.6696   -107.06391    1.3668856   -105.69703   -5414.9043    4.3772446    4.3772446    4.3772446   -5414.9043   -63785.506    11874.004     35666.79    4577.0746    -2200.766   -3801.2586    83.869191 
   15800    1265.7567   -106.84021    1.1452832   -105.69493   -4678.1794    4.3625365    4.3625365    4.3625365   -4678.1794   -65426.525    37554.773    13837.214   -34588.092    286.21051     3207.737    83.026593 
   15900    2430.9785   -107.86849    2.1996004   -105.66889    35244.978    4.3627449    4.3627449    4.3627449    35244.978    6230.8106    40440.878    59063.247   -11103.619   -1242.7986    22559.871    83.038492 
   16000    1650.2356   -107.17575    1.4931678   -105.68258   -30607.828    4.3778188    4.3778188    4.3778188   -30607.828    -77118.91    14264.183   -28968.756   -7639.1045   -4321.4549   -1290.8958    83.902197 
   16100    988.69625   -106.58368   0.89459314   -105.68908    11175.516    4.3675221    4.3675221    4.3675221    11175.516   -51738.207     47265.75    37999.004   -28951.999    9174.4611   -329.98075    83.311573 
   16200    2254.6261   -107.72972    2.0400331   -105.68969   -434.23023    4.3579029    4.3579029    4.3579029   -434.23023   -30083.912   -2312.2605    31093.482    36986.079   -6847.0585    15258.541    82.762316 
   16300    1764.2164   -107.29081    1.5963001   -105.69451    29210.843    4.3551824    4.3551824    4.3551824    29210.843   -18932.987     79460.04    27105.475   -27199.429    7216.0375   -8900.6594    82.607419 
   16400    1313.3473    -106.8954    1.1883442   -105.70705   -37595.081    4.3757524    4.3757524    4.3757524   -37595.081   -77939.088   -61712.173    26866.017    43953.994    5847.1627    6345.7222    83.783444 
   16500    2192.9299   -107.65366     1.984209   -105.66945   -12140.147    4.3801268    4.3801268    4.3801268   -12140.147   -37770.616   -3310.3194    4660.4928    6247.5562   -6850.4164    11404.334    84.034967 
   16600    1206.7165   -106.76186    1.0918624      -105.67    13608.123     4.365993     4.365993     4.365993    13608.123    -31573.47    59907.089    12490.749    581.38198    3586.7934   -26369.527    83.224097 
   16700    1817.9282   -107.32137    1.6448997   -105.67647   -29060.105    4.3630234    4.3630234    4.3630234   -29060.105   -72596.494   -41591.023    27007.203    43788.269   -1863.1606    23760.897    83.054397 
   16800    1900.5373   -107.39703    1.7196461   -105.67739    6879.1272    4.3670516    4.3670516    4.3670516    6879.1272   -11552.064    25983.439     6206.006   -7709.7768   -968.81452   -31352.949    83.284649 
   16900    1380.4102   -106.93801    1.2490242   -105.68899    6767.9004    4.3687191    4.3687191    4.3687191    6767.9004   -33061.759    1747.4858    51617.975    43858.727   -5597.3937    12351.595     83.38009 
   17000    1725.2229   -107.23337    1.5610179   -105.67235   -13941.387    4.3891959    4.3891959    4.3891959   -13941.387   -25857.084    -26401.17    10434.093   -16575.505   -4243.3459   -7534.4352    84.558036 
   17100    1827.7586   -107.31597    1.6537944   -105.66218    -18904.82    4.3728489    4.3728489    4.3728489    -18904.82   -32168.575   -1426.6697   -23119.215    13413.698   -2072.1957   -35781.548    83.616775 
   17200    1513.4974   -107.02375    1.3694443    -105.6543    20392.879    4.3451307    4.3451307    4.3451307    20392.879    -40181.16    35100.808    66258.988    12698.386   -9866.1594    20610.236    82.036766 
   17300    1551.4536   -107.09122    1.4037878   -105.68743   -12097.281    4.3635686    4.3635686    4.3635686   -12097.281    6725.5472   -42968.755   -48.635657   -24831.269    8083.4973    -25287.14    83.085537 
   17400    2157.8585   -107.62594    1.9524757   -105.67346    7587.8566    4.3787885    4.3787885    4.3787885    7587.8566   -19507.549   -336.96668    42608.085    11117.106    -11289.95   -7188.4319    83.957965 
   17500    1058.3739   -106.65256   0.95763895   -105.69492   -43539.009     4.385127     4.385127     4.385127   -43539.009   -66350.688   -17928.024   -46338.314   -8036.3125    9037.9794    24566.545    84.323091 
   17600     1879.636   -107.37346    1.7007342   -105.67272     9818.217    4.3645879    4.3645879    4.3645879     9818.217   -10854.936   -20449.862    60759.448   -5467.2397   -589.27501   -11347.599    83.143775 
   17700    1516.5591   -107.05221    1.3722145      -105.68    59.064226    4.3637611    4.3637611    4.3637611    59.064226   -56703.181    109440.01   -52559.639    17283.627     8972.851    9756.5049    83.096533 
   17800    1581.3659   -107.10882    1.4308531   -105.67797   -16381.375      4.37871      4.37871      4.37871   -16381.375   -45459.346    2983.9256   -6668.7042   -5685.0845    15062.748    17394.483    83.953449 
   17900    1795.7025   -107.28922    1.6247894   -105.66444    5003.0282    4.3727775    4.3727775    4.3727775    5003.0282   -70493.569    33297.703    52204.951    25889.928   -7009.4112   -13770.539    83.612681 
   18000    1317.7785   -106.87003    1.1923537   -105.67768   -8601.4357     4.372839     4.372839     4.372839   -8601.4357   -30745.411    64409.202   -59468.098    5772.8498    21424.731      7039.81    83.616208 
   18100     1939.485   -107.42806    1.7548868   -105.67317   -6080.7633    4.3641414    4.3641414    4.3641414   -6080.7633   -19614.494   -17712.358    19084.562      27581.7   -2315.4225     11009.71    83.118257 
   18200    1632.0442   -107.15488    1.4767079   -105.67817    31437.836    4.3612595    4.3612595    4.3612595    31437.836   -4951.2649    46405.162     52859.61    17029.492    6674.4373   -13675.835    82.953707 
   18300     1184.491   -106.75459    1.0717523   -105.68284   -17331.863    4.3798923    4.3798923    4.3798923   -17331.863   -2372.6951    4049.9755   -53672.869    10368.295     17228.83    24142.355    84.021473 
   18400    1835.6159   -107.32662    1.6609038   -105.66572     5180.464    4.3746328    4.3746328    4.3746328     5180.464   -14514.778   -19763.401     49819.57    30076.163   -7976.8707   -14765.728    83.719153 
   18500    2319.3047   -107.75275    2.0985556   -105.65419   -1767.4229    4.3727523    4.3727523    4.3727523   -1767.4229   -27464.419    21357.542    804.60792   -3249.6637    6487.0174    6176.1956    83.611231 
   18600    751.67713    -106.3619   0.68013327   -105.68177   -34697.767    4.3737286    4.3737286    4.3737286   -34697.767   -12525.244   -53651.845   -37916.213    33232.768    6967.9391    9584.9692    83.667249 
   18700    1795.3168   -107.30537    1.6244403   -105.68093    20216.787    4.3607754    4.3607754    4.3607754    20216.787    23767.129    11090.532    25792.701    9220.8754   -1819.6058   -33338.784    82.926082 
   18800    2250.4953   -107.72079    2.0362954   -105.68449    24554.751    4.3617345    4.3617345    4.3617345    24554.751    17014.234   -1670.6726    58320.691    11344.509   -9788.8237    32833.636     82.98081 
   18900    1023.3793   -106.62348   0.92597508    -105.6975    -18885.63    4.3783815    4.3783815    4.3783815    -18885.63   -14934.481     -17775.1    -23947.31    42244.039    11511.747    -35327.64    83.934556 
   19000     1928.729   -107.40227    1.7451546   -105.65712    16922.216    4.3884732    4.3884732    4.3884732    16922.216   -28098.059    23291.243    55573.463    1922.7058    3238.6176     9025.528    84.516274 
   19100    1484.8115   -107.00105    1.3434886   -105.65756   -6046.8908     4.383608     4.383608     4.383608   -6046.8908   -15862.876   -18193.551    15915.755    36482.447     -2948.87   -22898.538    84.235493 
   19200    1328.8328   -106.86758    1.2023558   -105.66523    14349.603    4.3563416    4.3563416    4.3563416    14349.603   -23956.351    63465.191    3539.9696    10328.599    14502.584   -23892.667    82.673398 
   19300    1929.5064   -107.41724    1.7458579   -105.67138    28393.078    4.3549098    4.3549098    4.3549098    28393.078   -19520.453     67353.66    37346.025    18464.668   -476.57605     4124.015    82.591909 
   19400    1460.6458   -107.00917     1.321623   -105.68755    4528.9434    4.3790607    4.3790607    4.3790607    4528.9434    3898.6838    3351.2661    6336.8805    25342.922    9720.6772   -20536.407    83.973622 
   19500    1699.7586   -107.20425    1.5379773   -105.66627   -8364.6698    4.3896974    4.3896974    4.3896974   -8364.6698   -48262.517    5264.7937    17903.714   -915.90594    -3968.763    -1010.359    84.587026 
   19600    2132.5759   -107.59136    1.9295995   -105.66176   -12563.811    4.3750504    4.3750504    4.3750504   -12563.811   -18557.367    -40163.07    21029.004    25845.314   -11262.556    20666.823     83.74313 
   19700     1390.474   -106.92016    1.2581301   -105.66203    33560.959    4.3448092    4.3448092    4.3448092    33560.959   -1726.5588    31499.878    70909.558     856.7555    9332.8198    3449.9053    82.018557 
   19800    1509.5699   -107.06188    1.3658905   -105.69598   -8111.0454    4.3573553    4.3573553    4.3573553   -8111.0454   -11084.696    13770.639   -27019.078   -2111.9049   -29684.077    6665.7978    82.731124 
   19900    2374.1569   -107.82379     2.148187   -105.67561   -29794.834    4.3853122    4.3853122    4.3853122   -29794.834    -8402.956   -63866.022   -17115.525    8552.2008    3575.0987    50916.762    84.333778 
   20000    1715.0788   -107.21714    1.5518393    -105.6653   -23290.312    4.3827182    4.3827182    4.3827182   -23290.312   -55592.121    6024.0787   -20302.896   -18082.995   -15858.159    -8428.059    84.184212 
   20100    969.44923   -106.55168   0.87717803   -105.67451    11635.135    4.3656725    4.3656725    4.3656725    11635.135    9720.4948   -158.26413    25343.174    1766.7773   -5170.6714    34893.231    83.205773 
   20200    2294.2247   -107.73535    2.0758628   -105.65949    26115.637    4.3569066    4.3569066    4.3569066    26115.637    21764.751   -41096.863    97679.023   -18811.888     23236.06    7258.0094    82.705566 
   20300    1659.4629    -107.1863    1.5015169   -105.68478    -6623.176    4.3705024    4.3705024    4.3705024    -6623.176   -20474.508     3369.454   -2764.4743   -5158.9471   -10981.175    18110.505    83.482238 
   20400    1214.1679   -106.78297    1.0986046   -105.68437   -25495.162    4.3836827    4.3836827    4.3836827   -25495.162    14428.462   -42179.194   -48734.753    1173.9902    1286.4682    16073.128    84.239803 
   20500    1936.4962    -107.4147    1.7521825   -105.66252    4420.9142    4.3725965    4.3725965    4.3725965    4420.9142     12814.33   -39066.248    39514.661   -13329.335    12279.675   -21421.088    83.602297 
   20600    2204.9606   -107.66427    1.9950947   -105.66917     2516.164    4.3551646    4.3551646    4.3551646     2516.164    21087.637    -2546.256   -10992.889    8117.4418   -93.375708    33292.165    82.606406 
   20700    1154.1252   -106.74493    1.0442767   -105.70065    6799.1099    4.3455033    4.3455033    4.3455033    6799.1099    66096.399   -34561.255   -11137.814    -1262.852   -6456.0885   -38933.604    82.057873 
   20800    1778.5012   -107.32092    1.6092253    -105.7117    11638.292    4.3659525    4.3659525    4.3659525    11638.292   -16103.288    9253.5054     41764.66   -1204.3462    20929.233    7424.3633    83.221786 
   20900    2078.5423   -107.57655    1.8807088   -105.69584   -8977.4507    4.3781278    4.3781278    4.3781278   -8977.4507     7833.225   -49724.405    14958.828    6781.5801   -9924.5128   -29814.297    83.919967 
   21000    1131.1835   -106.73259    1.0235186   -105.70907   -14976.428    4.3636741    4.3636741    4.3636741   -14976.428   -6265.8729   -33276.372   -5387.0393   -7803.6235    17846.011   -21442.036    83.091565 
   21100    1694.7135   -107.23339    1.5334124   -105.69997    10493.006    4.3563559    4.3563559    4.3563559    10493.006    9466.4361   -450.28418    22462.865   -992.37451   -7353.1347     22909.04    82.674211 
   21200    2342.2105   -107.81194    2.1192813   -105.69266     18293.07    4.3585522    4.3585522    4.3585522     18293.07   -2854.3855    2267.5257    55466.069   -849.14276   -10654.763   -12869.657    82.799317 
   21300    1075.8159   -106.69037   0.97342081   -105.71695   -25313.243    4.3692868    4.3692868    4.3692868   -25313.243   -29786.513   -37853.238   -8299.9766   -10459.239     29307.86   -3163.7533    83.412599 
   21400    1468.3089   -107.04182    1.3285567   -105.71327   -16501.635    4.3677852    4.3677852    4.3677852   -16501.635    20161.196   -25582.174   -44083.928    10330.103   -30250.219    36331.567    83.326627 
   21500    2593.7625   -108.03792    2.3468908   -105.69103    24224.719    4.3609129    4.3609129    4.3609129    24224.719    21503.206    6588.4979    44582.453   -4505.5844     23496.49   -22382.888     82.93393 
   21600    1494.2897   -107.06536    1.3520647   -105.71329   -19728.933     4.360316     4.360316     4.360316   -19728.933    5589.6391   -54265.442   -10510.995    16874.393    8953.6364    38658.926    82.899879 
   21700    1126.4279   -106.73796    1.0192156   -105.71874    325.28314     4.362549     4.362549     4.362549    325.28314    26993.702   -16788.946   -9228.9065   -2608.4521   -879.85561    -20912.69     83.02731 
   21800    2081.1995   -107.57222     1.883113   -105.68911    28423.132     4.369288     4.369288     4.369288    28423.132    25934.381   -11278.426    70613.441   -13925.281    14964.263    7935.8938    83.412669 
   21900    1705.9553   -107.24272    1.5435842   -105.69913   -14323.086    4.3667064    4.3667064    4.3667064   -14323.086    6374.7508   -78363.384    29019.375    12590.382   -5136.3882   -5169.6523    83.264901 
   22000    1255.5897   -106.83904    1.1360839   -105.70296   -24810.386    4.3599049    4.3599049    4.3599049   -24810.386    -13415.14   -31015.981   -30000.036   -5158.4832   -3280.2165   -36640.143    82.876434 
   22100    2011.4268   -107.51833    1.8199812   -105.69835   -1714.0014    4.3535732    4.3535732    4.3535732   -1714.0014   -7402.1061   -9267.8533    11527.955   -13744.469   -5729.9707    13410.224    82.515884 
   22200    1704.6461   -107.25354    1.5423996   -105.71114    14330.088    4.3558988    4.3558988    4.3558988    14330.088    15710.057   -53275.367    80555.576    18515.031   -13419.646   -29050.178    82.648189 
   22300    1524.2493   -107.09243    1.3791728   -105.71326    643.20851    4.3769779    4.3769779    4.3769779    643.20851   -37942.256   -23056.367    62928.249   -12894.918   -3290.9051   -3998.2683    83.853858 
   22400    1702.5319   -107.22782    1.5404866   -105.68733   -26008.838    4.3899022    4.3899022    4.3899022   -26008.838   -4768.6035   -65833.036    -7424.875    26793.074    6177.4616    1574.6174    84.598865 
   22500     2243.045   -107.69682    2.0295542   -105.66727    1996.5376    4.3682968    4.3682968    4.3682968    1996.5376    24198.298   -37457.294    19248.608    1713.7063    1845.2424   -23822.986    83.355914 
   22600    1290.3193   -106.84638     1.167508   -105.67887   -1360.2999    4.3521073    4.3521073    4.3521073   -1360.2999   -37000.428    27772.981    5146.5467    10872.944    15432.483     20151.72    82.432559 
   22700    1499.5103   -107.06406    1.3567884   -105.70727   -5238.5754    4.3619423    4.3619423    4.3619423   -5238.5754   -16407.926   -46097.334    46789.533    28497.973    10318.332   -8750.9173    82.992675 
   22800    2350.5511   -107.81575     2.126828   -105.68892     7307.759    4.3755236    4.3755236    4.3755236     7307.759   -15454.563   -11682.996    49060.837   -17626.468    -10156.65    5539.2351    83.770301 
   22900    905.53519   -106.51603   0.81934727   -105.69668    3619.4039    4.3806325    4.3806325    4.3806325    3619.4039   -22027.704    42695.593   -9809.6771    39662.153    14856.212     13458.01    84.064081 
   23000    1980.9451   -107.44076    1.7924008   -105.64836   -11554.762    4.3866101    4.3866101    4.3866101   -11554.762   -35626.359   -37623.777     38585.85   -27519.482   -8561.0417   -7132.0027     84.40868 
   23100    1960.5588   -107.42542    1.7739548   -105.65146   -18225.002    4.3645565    4.3645565    4.3645565   -18225.002   -24862.436   -12004.295   -17808.275    1489.2018    6946.7483    33466.101    83.141982 
   23200    1487.6405   -107.00229    1.3460483   -105.65625    12059.237    4.3465184    4.3465184    4.3465184    12059.237    -20377.76    31852.904    24702.566    8481.7156    6342.0604    938.91032    82.115392 
   23300    2005.1109   -107.49767    1.8142665   -105.68341   -10772.796    4.3720275    4.3720275    4.3720275   -10772.796   -37250.097   -38253.514    43185.224   -41983.347    5764.1686    11156.993    83.569662 
   23400    2007.1285   -107.48748     1.816092   -105.67139   -16322.355    4.3896191    4.3896191    4.3896191   -16322.355   -15732.389   -29680.258   -3554.4183    20394.714    3603.8771    21564.153    84.582498 
   23500    1152.5609   -106.72984    1.0428613   -105.68698   -8740.5209    4.3708868    4.3708868    4.3708868   -8740.5209   -71504.812    11687.716    33595.533   -42712.562    1466.3214    2638.9606    83.504269 
   23600    2549.4013   -107.96594    2.3067519   -105.65919    3622.9504    4.3651946    4.3651946    4.3651946    3622.9504   -22696.394    13418.491    20146.754    15994.285    3736.0082    1721.4529    83.178452 
   23700    1519.4889   -107.04072    1.3748654   -105.66586   -6826.9477     4.382088     4.382088     4.382088   -6826.9477   -47583.636   -4239.5069      31342.3   -34727.833   -10402.884        15783    84.147898 
   23800    1223.4197   -106.77565    1.1069759   -105.66868    -16157.97    4.3915918    4.3915918    4.3915918    -16157.97   -62516.463    17601.532   -3558.9767   -11897.917     18489.02   -13042.973    84.696586 
   23900    2273.0134   -107.71087    2.0566703   -105.65419    884.56378    4.3751397    4.3751397    4.3751397    884.56378   -36600.482    31048.483    8205.6909    12664.647    11543.851    22394.664    83.748259 
   24000    1865.1589   -107.35237     1.687635   -105.66473    18548.218    4.3527207    4.3527207    4.3527207    18548.218   -30670.558    56159.636    30155.576   -24869.538    498.32484    -11169.95    82.467418 
   24100    1088.6138   -106.68675   0.98500064   -105.70175    12081.912    4.3656322    4.3656322    4.3656322    12081.912   -49992.801    74074.968     12163.57    16923.068    18798.581   -7239.8862     83.20347 
   24200    2333.5697   -107.77814    2.1114629   -105.66668   -3565.8992    4.3931477    4.3931477    4.3931477   -3565.8992   -42459.055   -7239.1683    39000.526    10514.483    1866.2614    136.64462    84.786635 
   24300    1054.9725   -106.63622   0.95456131   -105.68166   -25491.869    4.3851628    4.3851628    4.3851628   -25491.869   -100563.72     8130.292    15957.821    10301.176    7857.0078   -17372.814    84.325158 
   24400    1571.3081   -107.09912    1.4217526   -105.67737     7920.227    4.3534979    4.3534979    4.3534979     7920.227   -49809.323   -9230.6339    82800.637    33815.488    8412.7222   -10551.797    82.511601 
   24500    2547.9424   -107.97912    2.3054318   -105.67369     15343.27    4.3569054    4.3569054    4.3569054     15343.27   -22847.781    17821.878    51055.711   -23715.187   -11761.828    4975.5759    82.705499 
   24600    1057.5523   -106.65733   0.95689553   -105.70044   -19148.181     4.375626     4.375626     4.375626   -19148.181    -85215.29    31173.222   -3402.4744    42237.605    13988.208   -20292.685    83.776186 
   24700    1839.0515   -107.34567    1.6640125   -105.68166   -36844.013    4.3927798    4.3927798    4.3927798   -36844.013   -68889.982   -39733.896   -1908.1603   -31777.683   -8974.0103    397.14162    84.765337 
   24800    2063.5423    -107.5264    1.8671365   -105.65926    10638.021     4.378019     4.378019     4.378019    10638.021   -45607.045    63626.637    13894.471    293.17468    1809.9791   -1195.0275    83.913713 
   24900     1019.811   -106.59406   0.92274646   -105.67131    3006.1375    4.3629903    4.3629903    4.3629903    3006.1375   -58015.073    31615.419    35418.067    1516.7448   -3603.1035     3567.493    83.052505 
   25000    2029.4033   -107.51565    1.8362468   -105.67941   -14831.566    4.3746361    4.3746361    4.3746361   -14831.566   -52675.823    4116.3133    4064.8132   -33990.703    -601.8762   -6091.3507    83.719343 
   25100    2358.0535   -107.80344    2.1336164   -105.66982    2141.7598    4.3845511    4.3845511    4.3845511    2141.7598   -39052.255    11126.871    34350.663    9177.6614   -572.55278   -6724.1541    84.289878 
   25200    617.67212   -106.24548   0.55888271    -105.6866    -12313.15    4.3807484    4.3807484    4.3807484    -12313.15   -76769.307    6870.2267    32959.631   -45614.636   -13047.175    422.63086    84.070751 
   25300    2361.9983   -107.79484    2.1371857   -105.65766    5869.1297    4.3754398    4.3754398    4.3754398    5869.1297    -28116.91    24026.432    21697.867    17456.216    349.52909   -12642.958    83.765494 
   25400    2096.8208   -107.56309    1.8972475   -105.66584   -8574.2704    4.3750496    4.3750496    4.3750496   -8574.2704   -60821.184   -6705.3151    41803.688   -50916.655   -1921.9307   -16073.346    83.743085 
   25500    979.53885   -106.57379   0.88630734   -105.68748    7390.5427    4.3651098    4.3651098    4.3651098    7390.5427   -50652.561    30115.624    42708.565    10804.931   -9273.9984    9243.4252    83.173601 
   25600    1699.4159   -107.24069    1.5376672   -105.70302   -11671.811    4.3701983    4.3701983    4.3701983   -11671.811   -69014.849    18676.884    15322.533    16178.006   -674.14839   -21232.814    83.464816 
   25700    2347.8964   -107.81243     2.124426   -105.68801    6414.0566    4.3727046    4.3727046    4.3727046    6414.0566   -31188.617   -9393.8101    59824.597    -23552.06   -6528.4366     13872.11      83.6085 
   25800    1038.4853   -106.64578   0.93964332   -105.70614   -16132.583    4.3714013    4.3714013    4.3714013   -16132.583   -81991.343    37750.693   -4157.1004    40314.971   -11594.189    652.84297    83.533763 
   25900    1879.7221   -107.39522    1.7008121   -105.69441     3071.326    4.3796037    4.3796037    4.3796037     3071.326   -34825.847   -4466.8667    48506.692   -4407.0808   -613.82514    19002.255    84.004867 
   26000    2029.7329    -107.5147     1.836545   -105.67816    7316.8167    4.3747978    4.3747978    4.3747978    7316.8167   -39854.263    4958.0787    56846.634    13648.112    809.05638    20243.333    83.728626 
   26100    1111.3071   -106.69471     1.005534   -105.68917    4487.1722    4.3749634    4.3749634    4.3749634    4487.1722   -74822.045    52523.929    35759.633    15216.984   -1210.5295    621.72088    83.738135 
   26200    1840.4765   -107.34005    1.6653018   -105.67475    2112.4082    4.3744805    4.3744805    4.3744805    2112.4082   -36659.049    28989.475    14006.798   -25492.229   -3368.2769    25384.969    83.710409 
   26300    1928.0964   -107.41658    1.7445821   -105.67199    6136.0878    4.3721442    4.3721442    4.3721442    6136.0878    -24433.96   -10492.384    53334.607    19530.445    5361.8085    4468.7059    83.576353 
   26400     1241.558   -106.81766    1.1233878   -105.69427   -12223.537    4.3737809    4.3737809    4.3737809   -12223.537   -79764.841    37055.713    6038.5185   -27596.473    3875.9516   -4593.5843    83.670249 
   26500    1876.4971   -107.39078     1.697894   -105.69289    22366.812    4.3638051    4.3638051    4.3638051    22366.812   -9340.7006   -15588.236    92029.374   -4665.6856   -5658.6645    21897.826    83.099048 
   26600    1717.7466   -107.24891    1.5542532   -105.69466    10855.588    4.3698866    4.3698866    4.3698866    10855.588   -31771.656    25022.745    39315.675   -9333.3275   -7025.6442   -28708.032    83.446956 
   26700     968.6597   -106.58142   0.87646365   -105.70496   -12701.092    4.3816962    4.3816962    4.3816962   -12701.092   -83455.965    47615.294   -2262.6062   -30412.732    2210.1947    13284.094    84.125333 
   26800    2689.9853   -108.11734    2.4339552   -105.68339   -7478.0721    4.3766776    4.3766776    4.3766776   -7478.0721   -23923.733   -15291.741    16781.258    21433.274   -5567.5993   -4483.9375    83.836601 
   26900    1241.5065   -106.82137    1.1233412   -105.69803    13092.547    4.3670639    4.3670639    4.3670639    13092.547   -49759.714    87987.377    1049.9769    -13011.11   -631.94204   -6375.7658    83.285353 
   27000    1763.2187   -107.29272    1.5953973   -105.69732   -22052.232    4.3717817    4.3717817    4.3717817   -22052.232    -50095.92     -26638.6    10577.823   -462.35492    3634.7751    1798.7361    83.555571 
   27100     1760.956   -107.27986      1.59335   -105.68651    27909.418    4.3812351    4.3812351    4.3812351    27909.418   -10356.306    50328.078     43756.48     33697.61    541.18907    -998.2391    84.098779 
   27200    1602.3679   -107.12572    1.4498561   -105.67587   -1729.4025    4.3853454    4.3853454    4.3853454   -1729.4025   -52256.733    47400.939    -332.4136    -24549.57    121.17536    8427.5341    84.335691 
   27300    1455.7864   -106.98675    1.3172261   -105.66952   -11948.739    4.3760899    4.3760899    4.3760899   -11948.739    -81511.88   -4103.6293    49769.292     53301.59   -7802.5178   -7634.8232    83.802835 
   27400    2129.4984   -107.58068    1.9268149   -105.65386    35821.198    4.3680797    4.3680797    4.3680797    35821.198    12923.667     60827.61    33712.315   -2248.3352    5466.0752    4510.6616    83.343487 
   27500    1423.2989   -106.97606    1.2878308   -105.68823    -6688.731    4.3712403    4.3712403    4.3712403    -6688.731   -54497.173    22068.783    12362.198    37036.119    3417.1671    15776.088    83.524528 
   27600    1470.9866   -107.01679    1.3309796   -105.68581   -27979.867    4.3863833    4.3863833    4.3863833   -27979.867   -81787.452   -40714.151    38562.003   -6687.8694   -5632.2986   -5029.0619    84.395587 
   27700    2023.5869   -107.49762    1.8309839   -105.66663    374.34714    4.3829829    4.3829829    4.3829829    374.34714   -23889.728    58098.572   -33085.802   -7454.1069   -2934.4446    21027.464    84.199466 
   27800    1560.4099   -107.09084    1.4118917   -105.67895   -10522.559    4.3689414    4.3689414    4.3689414   -10522.559   -35726.332   -38674.481    42833.135    38423.439   -8991.1507   -7559.5699    83.392822 
   27900    1623.7856   -107.15467    1.4692353   -105.68544    7886.4758    4.3636832    4.3636832    4.3636832    7886.4758   -38984.878    52351.556    10292.749   -36217.632    2995.2413    12722.172    83.092081 
   28000    1682.1475   -107.21897    1.5220424   -105.69693   -11255.412    4.3736997    4.3736997    4.3736997   -11255.412   -24195.022   -976.13009   -8595.0831    32575.724    4434.2867    15645.477    83.665588 
   28100    1741.4025   -107.26971    1.5756576   -105.69405    3156.2187    4.3752384    4.3752384    4.3752384    3156.2187   -30043.075    14706.885    24804.846    12279.183   -2857.8748   -9383.7613    83.753923 
   28200     1842.838   -107.35938    1.6674386   -105.69194    -9188.238    4.3840558    4.3840558    4.3840558    -9188.238   -25144.648      -7168.4    4748.3344   -18135.975    8846.7242    35114.628    84.261314 
   28300    1500.1524   -107.03723    1.3573694   -105.67986   -23114.671    4.3907305    4.3907305    4.3907305   -23114.671   -25735.988   -36334.706   -7273.3193    23811.194   -6290.5049   -3247.8265    84.646761 
   28400    1853.6372   -107.34545    1.6772099   -105.66824   -5306.9494    4.3630114    4.3630114    4.3630114   -5306.9494    -39283.75    14004.762    9358.1394    3297.9142   -1002.1852    -15643.81    83.053712 
   28500    1661.0184   -107.17893    1.5029243   -105.67601    16092.503    4.3533171    4.3533171    4.3533171    16092.503    2628.2081    379.19819    45270.103   -7351.3455    7994.6953    30977.676     82.50132 
   28600    1596.5586   -107.14069    1.4445998    -105.6961   -17036.004    4.3765787    4.3765787    4.3765787   -17036.004   -16129.005   -24628.946    -10350.06    15558.396   -11082.256   -59027.934    83.830921 
   28700    2099.4319   -107.57847    1.8996101   -105.67886   -16027.006    4.3843112    4.3843112    4.3843112   -16027.006   -57998.414     14407.99   -4490.5932   -199.48535    3063.7503    14881.479    84.276037 
   28800    1289.3388   -106.85324    1.1666208   -105.68662    -12145.39    4.3797401    4.3797401    4.3797401    -12145.39   -24063.864   -11927.462   -444.84363   -2875.5664   -3116.7904   -40840.983    84.012714 
   28900    1411.7222   -106.96643    1.2773559   -105.68908   -6313.6858    4.3665604    4.3665604    4.3665604   -6313.6858   -19778.341    3049.2722   -2211.9885    18226.617   -4281.1339     -23387.6    83.256552 
   29000    2416.3512   -107.86379    2.1863654   -105.67742    8883.1754    4.3610131    4.3610131    4.3610131    8883.1754   -13209.021     39951.81   -93.262479   -1140.6335    11406.418   -6880.8873    82.939643 
   29100    1327.3609   -106.90062     1.201024    -105.6996    -1343.586     4.370528     4.370528     4.370528    -1343.586    12973.778   -6025.6909   -10978.845    14811.254   -2158.8976   -40617.602    83.483707 
   29200     948.9338   -106.55825   0.85861524   -105.69964   -19677.325    4.3789203    4.3789203    4.3789203   -19677.325    -45216.08    45326.958   -59142.852    9797.4247    6128.9124    33285.726     83.96555 
   29300    2601.6877   -108.03049    2.3540617   -105.67643   -4899.9804    4.3722811    4.3722811    4.3722811   -4899.9804   -16250.175     4384.732   -2834.4981    3656.9698   -2043.8654    18927.962    83.584206 
   29400    1557.4325   -107.10588    1.4091977   -105.69668   -7231.6979    4.3657614    4.3657614    4.3657614   -7231.6979   -23931.298   -4883.6104    7119.8144    20222.957    6712.1411   -18528.093    83.210859 
   29500    1230.4776   -106.81204     1.113362   -105.69868   -12548.365    4.3617115    4.3617115    4.3617115   -12548.365    6834.5501    22642.634   -67122.281   -6453.9467   -1046.2457     50032.09    82.979498 
   29600    2004.4921   -107.50622    1.8137066   -105.69252   -4437.2974    4.3689375    4.3689375    4.3689375   -4437.2974   -28153.605   -156.33653    14998.049    27338.526    4108.2886   -25920.944    83.392594 
   29700    1553.0347    -107.0967    1.4052184   -105.69148   -20116.754    4.3799376    4.3799376    4.3799376   -20116.754   -29729.893   -4649.4536   -25970.914   -8239.9531   -1266.0331    24987.711    84.024082 
   29800    1681.2483   -107.20192    1.5212288   -105.68069   -12261.435    4.3715797    4.3715797    4.3715797   -12261.435    11767.435    6360.4553   -54912.196   -62.381219    2693.5013    8224.3575    83.543989 
   29900    1565.7351     -107.098      1.41671   -105.68129    -6016.714    4.3678977    4.3678977    4.3678977    -6016.714    -9077.958   -26952.565    17980.381    16310.018    1695.0037   -14312.825    83.333067 
   30000     1771.444   -107.28888    1.6028398   -105.68604   -3952.7175    4.3717001    4.3717001    4.3717001   -3952.7175   -10770.967    16740.936   -17828.122   -31890.241   -9913.2076     30178.07    83.550889 
   30100     1643.199   -107.18701     1.486801   -105.70021    10231.275    4.3603907    4.3603907    4.3603907    10231.275    30524.194     22216.02   -22046.387    20929.423    11247.263   -29774.421     82.90414 
   30200    1546.5172   -107.11499    1.3993213   -105.71567    5507.1187    4.3652481    4.3652481    4.3652481    5507.1187   -4214.1942   -26607.079    47342.629   -16073.683   -6199.6066    4882.6837    83.181507 
   30300    1888.5789   -107.41095    1.7088259   -105.70213   -13160.951    4.3748588    4.3748588    4.3748588   -13160.951    2261.8132   -1608.3653     -40136.3   -11750.512    5162.6271   -7577.6472    83.732124 
   30400    1558.6457   -107.10301    1.4102954   -105.69271    14597.763     4.363252     4.363252     4.363252    14597.763    47753.853   -2242.1091   -1718.4551    11035.055    5726.5037   -40396.674    83.067452 
   30500    1827.4265   -107.33912    1.6534939   -105.68562    2590.2061    4.3614255    4.3614255    4.3614255    2590.2061   -1943.5791   -22217.827    31932.025    -40810.69   -5231.4944    6921.7885    82.963176 
   30600    1692.1104   -107.21573     1.531057   -105.68467    -2373.621    4.3712867    4.3712867    4.3712867    -2373.621    26275.834    32183.304   -65580.002    14652.944    19942.866   -38515.672     83.52719 
   30700    1758.0287   -107.28079    1.5907013   -105.69009    7137.0795    4.3669405    4.3669405    4.3669405    7137.0795    24205.513   -16278.103    13483.828   -37217.095   -8871.2191     7028.597    83.278297 
   30800    1572.5112   -107.12058    1.4228411   -105.69774   -15471.875    4.3696573    4.3696573    4.3696573   -15471.875   -29199.175    4808.4469   -22024.895   -374.62802    12412.817   -14566.017    83.433819 
   30900    1887.0986   -107.40129    1.7074865    -105.6938   -7582.2514     4.369116     4.369116     4.369116   -7582.2514    18935.304    23574.551   -65256.609    3277.2683    14666.979   -11730.278    83.402817 
   31000    1830.8114   -107.34867    1.6565567   -105.69212    17723.541    4.3638463    4.3638463    4.3638463    17723.541    3004.6619    57815.084   -7649.1235   -11706.466   -11301.364    8507.0514    83.101402 
   31100    952.61438   -106.57362   0.86194551   -105.71167   -50954.489    4.3722662    4.3722662    4.3722662   -50954.489   -32478.836   -42788.366   -77596.265    18474.168    20153.202    -29104.89    83.583354 
   31200    2462.1333   -107.91952      2.22779   -105.69173    21776.218    4.3632934    4.3632934    4.3632934    21776.218    28962.186    41164.043   -4797.5756   -13144.387   -18479.211    11181.139    83.069819 
   31300    1322.1663   -106.89846    1.1963238   -105.70213    5388.7763    4.3669792    4.3669792    4.3669792    5388.7763    62442.425    10626.718   -56902.814    7183.4358    19647.822   -26849.568    83.280509 
   31400    1305.7929   -106.88316    1.1815088   -105.70165   -31694.945    4.3662423    4.3662423    4.3662423   -31694.945   -20296.707   -29555.584   -45232.543    13589.648   -8745.6163   -19345.813    83.238356 
   31500    2254.3803   -107.71968    2.0398107   -105.67987    25540.897    4.3632062    4.3632062    4.3632062    25540.897    78453.664   -31530.341    29699.368   -9446.3132    3760.4673    11502.304    83.064837 
   31600    1899.9524   -107.40431    1.7191169   -105.68519   -22304.499    4.3748515    4.3748515    4.3748515   -22304.499    46577.759   -39712.656   -73778.601    8094.2626    724.23656   -31937.174    83.731707 
   31700    1496.0115   -107.04621    1.3536227   -105.69259   -11748.896    4.3691159    4.3691159    4.3691159   -11748.896   -50385.231    7209.6278    7928.9162    12304.046    3994.3224     749.3086    83.402815 
   31800    1186.6251   -106.78292    1.0736833   -105.70924    9913.1371    4.3585661    4.3585661    4.3585661    9913.1371    41622.283   -56874.386    44991.515   -8362.9474    2337.6692   -11976.177    82.800112 
   31900    2414.9413   -107.90194    2.1850897   -105.71685    7853.2431    4.3699332    4.3699332    4.3699332    7853.2431    89625.929   -49361.319    -16704.88     4977.208   -4637.9066   -796.48388    83.449624 
   32000    1752.1077   -107.30554    1.5853439    -105.7202    -5831.981    4.3758898    4.3758898    4.3758898    -5831.981   -38085.516   -47803.732    68393.306   -12112.378   -2545.4536   -1475.0758    83.791337 
   32100    1186.8662   -106.79875    1.0739014   -105.72484    716.29389    4.3722264    4.3722264    4.3722264    716.29389    36283.837   -49552.253    15417.298    6331.5668   -4446.2184   -12895.376     83.58107 
   32200    2135.9508   -107.63814    1.9326532   -105.70549   -11359.113    4.3843069    4.3843069    4.3843069   -11359.113    2141.1001   -62792.954    26574.514   -3669.3639   -8592.7351     39024.14    84.275794 
   32300    1986.1849   -107.48985    1.7971419   -105.69271   -4833.1713    4.3824876    4.3824876    4.3824876   -4833.1713   -2615.8686   -52466.048    40582.402    3401.7247    984.17222   -19737.285    84.170924 
   32400    875.67258   -106.49535   0.79232695   -105.70302   -41474.166    4.3951677    4.3951677    4.3951677   -41474.166    35099.855   -125829.51   -33692.838    15898.268    876.61539    20215.137    84.903647 
   32500     2304.763   -107.74194     2.085398   -105.65654    21897.942    4.3826953    4.3826953    4.3826953    21897.942    41515.026   -1651.5119    25830.311   -1630.1145   -3704.0518    5480.1615    84.182893 
   32600    1407.1582   -106.95089    1.2732263   -105.67767     12206.92    4.3692911    4.3692911    4.3692911     12206.92    11469.584   -33890.963    59042.139    18786.156    9028.3599   -2915.8316    83.412849 
   32700    1206.2725   -106.80704    1.0914607   -105.71558    3158.4836    4.3735862    4.3735862    4.3735862    3158.4836    44932.544   -84541.561    49084.468   -1242.4766   -3958.9192    17014.859     83.65908 
   32800    2230.7461    -107.7211    2.0184259   -105.70267    99.325097    4.3935891    4.3935891    4.3935891    99.325097     9059.588   -40496.919    31735.306   -15058.294    26498.351   -8994.6077    84.812196 
   32900     1992.358   -107.50051    1.8027274   -105.69778   -7213.1544    4.3863324    4.3863324    4.3863324   -7213.1544     32522.29   -35845.529   -18316.224    5733.5248    1955.2014    17782.077    84.392651 
   33000    1509.9011   -107.06469    1.3661902    -105.6985    -16463.91    4.3647764    4.3647764    4.3647764    -16463.91    52721.226   -80830.842   -21282.113   -18461.921    6359.4177   -815.12323    83.154549 
   33100    1642.0333   -107.19985    1.4857463    -105.7141   -7960.1981    4.3764091    4.3764091    4.3764091   -7960.1981   -2375.9918   -25593.257    4088.6541    15706.741    17999.552    1636.4063    83.821174 
   33200    2397.4119    -107.8644    2.1692286   -105.69517   -40953.109    4.3979452    4.3979452    4.3979452   -40953.109   -6317.2972   -56215.811   -60326.221   -15715.357   -29868.944    7933.3692    85.064715 
   33300     1067.484   -106.65458   0.96588199    -105.6887   -34726.304    4.3974868    4.3974868    4.3974868   -34726.304   -2084.2014   -63762.519   -38332.191    9037.1395    21587.893    -11114.22    85.038118 
   33400    1942.4754   -107.42783    1.7575926   -105.67024   -9947.7553    4.3734101    4.3734101    4.3734101   -9947.7553    2891.7347   -8805.1374   -23929.863    9413.4403   -22063.498    9736.7641    83.648974 
   33500    2187.3832   -107.66548    1.9791902   -105.68629    5525.2335    4.3669924    4.3669924    4.3669924    5525.2335    58422.149    15817.823   -57664.271    -1029.772   -10578.015   -1337.1746    83.281265 
   33600    1822.1723   -107.35841    1.6487398   -105.70967     20412.41     4.366288     4.366288     4.366288     20412.41    104135.43   -13056.296   -29841.904    10714.721     9160.783    4299.7676    83.240968 
   33700    868.54795   -106.52419   0.78588044   -105.73831   -13470.176    4.3838125    4.3838125    4.3838125   -13470.176   -53056.595    46165.589   -33519.521    4040.6985   -6902.8652    6906.8467    84.247286 
   33800    1560.5652   -107.10828    1.4120322   -105.69625    4732.0682    4.3916188    4.3916188    4.3916188    4732.0682     52549.17    17067.442   -55420.407   -16259.228    10076.961   -14503.235    84.698149 
   33900    2223.3558   -107.67612     2.011739   -105.66438   -1256.0067     4.382323     4.382323     4.382323   -1256.0067    31968.495    12245.158   -47981.673    789.09833   -4535.9771   -905.35351    84.161441 
   34000    789.07009   -106.40182    0.7139672   -105.68785   -3988.0483    4.3699644    4.3699644    4.3699644   -3988.0483   -62950.222    37185.504    13800.573   -24.907216   -20583.732   -5785.4979    83.451415 
   34100    1746.7038   -107.27781    1.5804543   -105.69735    8118.0124    4.3676161    4.3676161    4.3676161    8118.0124    18432.399     5347.775    573.86302   -12474.744    16704.803   -12599.095    83.316954 
   34200    2611.9382   -108.06162    2.3633365   -105.69828   -12920.879    4.3929676    4.3929676    4.3929676   -12920.879    26462.914   -22113.482   -43112.068   -2338.4378   -14100.126    16506.057    84.776213 
   34300    948.69267   -106.57849   0.85839707   -105.72009   -9426.1644    4.3821647    4.3821647    4.3821647   -9426.1644   -39721.372   -45056.366    56499.245   -13299.645    4533.7206   -2335.7102    84.152318 
   34400    1824.4859   -107.33562    1.6508332   -105.68479    2312.4749    4.3592453    4.3592453    4.3592453    2312.4749    10330.528   -17931.904      14538.8    138.97762    3710.3847    698.80744    82.838823 
   34500    2306.2864   -107.76886    2.0867764   -105.68209   -4333.0851    4.3849216    4.3849216    4.3849216   -4333.0851    6536.5614   -12066.134   -7469.6827   -8596.9531    421.78174    18195.884    84.311247 
   34600     1151.779   -106.71509    1.0421538   -105.67293   -33038.069    4.4024347    4.4024347    4.4024347   -33038.069    -58946.45   -54886.399    14718.643   -4469.9851    15838.729   -17164.687    85.325487 
   34700    1668.4516   -107.16444      1.50965   -105.65479   -5288.8839    4.3881545    4.3881545    4.3881545   -5288.8839    18471.933   -7549.2591   -26789.325   -2489.7624   -5599.5673     27158.26    84.497863 
   34800    2009.0428   -107.46687    1.8178241   -105.64905     28188.33    4.3716217    4.3716217    4.3716217     28188.33    30015.248    41242.326    13307.415   -16822.729    8217.1384    -9154.455    83.546398 
   34900    1221.8158   -106.78064    1.1055246   -105.67511    18285.495    4.3645651    4.3645651    4.3645651    18285.495    19062.598    85.771442    35708.115    10172.712    1418.2342   -1448.1468    83.142473 
   35000    1712.9732   -107.24079    1.5499341   -105.69085   -18543.537    4.3908955    4.3908955    4.3908955   -18543.537    17372.822   -54004.987   -18998.446    10536.881    -14283.75    28745.802    84.656306 
   35100     1842.097   -107.31594    1.6667681   -105.64918    8571.6981    4.4029928    4.4029928    4.4029928    8571.6981    17748.061    28074.294    -20107.26   -20589.156    20471.169   -7893.8286    85.357939 
   35200    1226.1459   -106.75797    1.1094426   -105.64853   -32638.041    4.3892299    4.3892299    4.3892299   -32638.041   -7068.4504   -81766.886   -9078.7865    41412.042   -16863.583    32289.626    84.560002 
   35300    1999.7845   -107.46337    1.8094471   -105.65393    3611.6007    4.3611107    4.3611107    4.3611107    3611.6007    6561.8448   -16588.218    20861.175   -1326.7643    23407.212   -6816.3486    82.945213 
   35400    2227.3573   -107.68877    2.0153597   -105.67341    12224.495    4.3527238    4.3527238    4.3527238    12224.495   -331.47671    27532.236    9472.7271     12973.68    9546.9724     12446.67    82.467597 
   35500    1075.9685   -106.68756    0.9735589     -105.714    -45752.97    4.3849511    4.3849511    4.3849511    -45752.97   -65122.123   -73654.439     1517.651    18326.863   -16570.462    15524.703    84.312947 
   35600    1677.5357   -107.20738    1.5178695   -105.68951   -9090.5407    4.3910344    4.3910344    4.3910344   -9090.5407    15998.081   -4480.0611   -38789.642   -29085.515    8406.2938   -21219.109    84.664338 
   35700    2429.6169   -107.88075    2.1983684   -105.68238   -10519.502    4.3705836    4.3705836    4.3705836   -10519.502    10844.171   -25393.054   -17009.622    22848.458   -2000.5476    2315.3708    83.486892 
   35800    1164.8025   -106.75391    1.0539378   -105.69997    9342.7231    4.3575876    4.3575876    4.3575876    9342.7231    1560.3869   -25651.992    52119.775   -32957.198   -11021.434   -8242.7158    82.744358 
   35900    1668.3036   -107.21547    1.5095162   -105.70595    7860.4958    4.3805676    4.3805676    4.3805676    7860.4958    63900.648   -6368.5964   -33950.565   -7335.5315   -300.19777   -28439.079    84.060345 
   36000      1859.66   -107.35992    1.6826594   -105.67726   -30570.325    4.3940928    4.3940928    4.3940928   -30570.325   -42089.593   -24733.289   -24888.094   -13166.048    -8463.248    5045.0166    84.841368 
   36100     1456.727   -106.98847    1.3180772    -105.6704   -2690.8755     4.368212     4.368212     4.368212   -2690.8755   -10988.457    -27409.61     30325.44   -19260.959    1223.5851   -38783.461    83.351062 
   36200    1834.8072   -107.33082    1.6601721   -105.67065   -2253.6893    4.3649885    4.3649885    4.3649885   -2253.6893    20695.351   -2147.3432   -25309.076    7653.4729   -24951.551    22060.137    83.166669 
   36300    1566.7053   -107.09572    1.4175879   -105.67814   -16543.356    4.3798631    4.3798631    4.3798631   -16543.356   -55733.906    9937.8621   -3834.0236   -9790.1669    4392.4328   -8030.7526    84.019791 
   36400    2234.9312   -107.68543    2.0222127   -105.66322   -2902.5273    4.3744064    4.3744064    4.3744064   -2902.5273   -10360.151   -39013.754    40666.323    5550.4949   -1817.9169    9733.4264    83.706151 
   36500    909.88853   -106.51411   0.82328626   -105.69083   -22918.786    4.3809134    4.3809134    4.3809134   -22918.786   -43232.125    25298.314   -50822.547   -9023.2489   -23815.499    20269.765    84.080255 
   36600    1879.1558   -107.37976    1.7002996   -105.67946   -696.01538    4.3795016    4.3795016    4.3795016   -696.01538   -22469.613   -22699.767    43081.333   -10636.855    2492.7661   -2140.6786    83.998991 
   36700    1933.4567   -107.42828    1.7494323   -105.67885    19136.033    4.3702851    4.3702851    4.3702851    19136.033     16585.06   -2402.1814     43225.22   -1314.6573   -11973.956    9187.2359    83.469789 
   36800    1246.7648    -106.8215     1.128099    -105.6934   -42069.877    4.3777176    4.3777176    4.3777176   -42069.877   -59375.296   -37847.499   -28986.837   -35042.119   -2658.2689    4068.2346     83.89638 
   36900    2026.5684   -107.50593    1.8336817   -105.67225    19509.347    4.3841822    4.3841822    4.3841822    19509.347    3834.8428    200.86686     54492.33    9457.6684    1665.5486   -14801.087    84.268599 
   37000     1870.172   -107.36773    1.6921709   -105.67556   -18117.967    4.3860068    4.3860068    4.3860068   -18117.967   -59539.438    576.65942    4608.8765   -14496.118   -17033.241    6988.2385    84.373858 
   37100    858.88485   -106.46476   0.77713706   -105.68762   -7263.6605    4.3672906    4.3672906    4.3672906   -7263.6605   -5543.8156   -9187.2124   -7059.9533   -6090.1221     11927.72   -13963.605    83.298328 
   37200    2312.5816   -107.78115    2.0924725   -105.68867    15333.916    4.3631234    4.3631234    4.3631234    15333.916    10962.851   -16027.623    51066.519    4144.9067   -4990.5061   -13533.901    83.060109 
   37300    1905.6862   -107.42234    1.7243049   -105.69803    28317.972    4.3789987    4.3789987    4.3789987    28317.972    9701.5089    50809.771    24442.638   -13481.217    1833.7963   -10098.202    83.970059 
   37400    1276.3534   -106.85001    1.1548714   -105.69514   -7777.0599    4.3937895    4.3937895    4.3937895   -7777.0599    11978.217   -12334.692   -22974.705     5876.008    20208.473   -18999.071    84.823801 
   37500    2081.2015   -107.53454    1.8831149   -105.65142   -21109.327    4.3938492    4.3938492    4.3938492   -21109.327   -37957.276   -36703.108    11332.404   -28375.867   -32010.016    5110.1029     84.82726 
   37600    1867.3712   -107.33633    1.6896367   -105.64669    21680.856    4.3667737    4.3667737    4.3667737    21680.856    29103.213    23514.794    12424.561   -17783.531     8567.822    -22649.45    83.268752 
   37700    1711.0951   -107.22018    1.5482348   -105.67194   -474.16326    4.3638779    4.3638779    4.3638779   -474.16326    9738.5583    5343.8421    -16504.89   -9496.8928   -12260.611   -5924.9847    83.103206 
   37800    1673.6445   -107.19917    1.5143487   -105.68482    15845.808    4.3846415    4.3846415    4.3846415    15845.808   -12156.962    48077.885    11616.501   -29432.131   -22746.616    14703.028    84.295088 
   37900    1864.9997   -107.35406    1.6874909   -105.66657    13035.087    4.3948489    4.3948489    4.3948489    13035.087   -3285.5759    51631.298    -9240.462    5124.0558    14362.347   -23691.936    84.885173 
   38000    1428.8825   -106.96554    1.2928829   -105.67265   -32862.008    4.3793369    4.3793369    4.3793369   -32862.008   -27413.115   -27617.462   -43555.446   -24294.868   -13491.496    2269.2582    83.989512 
   38100    1413.6601    -106.9516    1.2791094   -105.67249    60268.931     4.351862     4.351862     4.351862    60268.931    31773.483    75999.417    73033.893   -15536.508    977.19436    19946.911     82.41862 
   38200    2286.2326   -107.76828    2.0686313   -105.69965    3773.0333    4.3641043    4.3641043    4.3641043    3773.0333   -26203.726     3125.053    34397.773    24722.763    2237.7824   -24487.502     83.11614 
   38300    1231.1708   -106.81542    1.1139892   -105.70143    5095.9638    4.3877056    4.3877056    4.3877056    5095.9638   -307.37846    16509.722   -914.45171   -25418.883   -23888.865    7138.8296    84.471936 
   38400    1624.5662   -107.14299    1.4699416   -105.67305   -4174.5736    4.3945793    4.3945793    4.3945793   -4174.5736    -25886.91    2479.1248    10884.064    20554.565    10476.852     15307.88    84.869555 
   38500    2275.3568   -107.71244    2.0587907   -105.65365   -20845.423    4.3810321    4.3810321    4.3810321   -20845.423   -31211.712   -35225.539     3900.982    5859.6292    7102.1768   -19920.784    84.087089 
   38600    1117.4788   -106.67996    1.0111183   -105.66884    23447.893    4.3586646    4.3586646    4.3586646    23447.893    50165.438     27858.47   -7680.2303   -20220.829   -18042.237    29926.998    82.805723 
   38700    1956.6646   -107.45942    1.7704312   -105.68899     -13128.1    4.3625362    4.3625362    4.3625362     -13128.1   -43255.083   -7053.3126    10924.094     28670.92    41284.695    6984.4852    83.026577 
   38800    1714.2249   -107.25091    1.5510667   -105.69984     16217.07    4.3811477    4.3811477    4.3811477     16217.07     37064.33   -11366.811     22953.69   -11112.715    6040.6031   -11258.454    84.093744 
   38900    1270.7501   -106.84346    1.1498014   -105.69366   -10982.789    4.3910703    4.3910703    4.3910703   -10982.789   -33094.478   -36890.027    37036.138    6046.6648    11447.013     23911.69    84.666412 
   39000    1575.2363   -107.10077    1.4253069   -105.67547   -8764.2826    4.3893641    4.3893641    4.3893641   -8764.2826   -37550.489    -13852.69    25110.332    6361.2515    44446.655   -9113.0142    84.567758 
   39100    1888.1097   -107.36819    1.7084013   -105.65979    16177.433    4.3804988    4.3804988    4.3804988    16177.433    23248.722   -2051.6169    27335.194   -6365.2418   -8900.5101    5523.4764    84.056382 
   39200    1490.3469   -107.01463    1.3484972   -105.66614   -13362.173    4.3679443    4.3679443    4.3679443   -13362.173   -43492.503    16150.784     -12744.8    10960.221    45926.532     10407.91    83.335737 
   39300    1593.5384   -107.12104    1.4418671   -105.67917    17913.531    4.3764992    4.3764992    4.3764992    17913.531     5058.153     6303.738    42378.702   -4922.8485   -16943.305    703.09184     83.82635 
   39400    2015.7783   -107.49394    1.8239186   -105.67002   -19916.291    4.3851504    4.3851504    4.3851504   -19916.291   -733.80392   -25348.002   -33667.067    2762.7356    13040.684    17606.247    84.324441 
   39500    1071.8163   -106.63937    0.9698019   -105.66957    20627.159    4.3814708    4.3814708    4.3814708    20627.159   -30487.627    9711.7197    82657.385    7167.9406   -2592.8533   -5834.0558    84.112348 
   39600    1792.2844   -107.29304    1.6216966   -105.67134    -1818.228    4.3779845    4.3779845    4.3779845    -1818.228    14143.263   -31831.947        12234   -5994.5055   -20262.528    12897.992    83.911728 
   39700    2073.2248   -107.54384    1.8758974   -105.66794    16339.924    4.3721316    4.3721316    4.3721316    16339.924     14756.63   -17020.491    51283.633     1526.402    7845.3184   -10605.376    83.575631 
   39800      1237.25    -106.8036    1.1194898   -105.68411   -15039.021    4.3877673    4.3877673    4.3877673   -15039.021    -22628.44    11438.522   -33927.144    11585.253   -3914.3428     13127.31    84.475496 
   39900     1825.358   -107.32622    1.6516223    -105.6746   -15709.796     4.385233     4.385233     4.385233   -15709.796    10583.325   -50310.401   -7402.3119   -24424.166    11881.438    12517.951    84.329209 
   40000    2099.8384   -107.56937    1.8999779   -105.66939     29338.77    4.3736706    4.3736706    4.3736706     29338.77   -7308.8767    58685.157     36640.03    13180.383   -6572.3167    -6664.505    83.663921 
   40100    1336.2106   -106.90167    1.2090314   -105.69264   -23908.212    4.3791664    4.3791664    4.3791664   -23908.212   -46419.956   -4203.8708   -21100.809   -5228.1682   -3354.7996    12534.233    83.979702 
   40200    1645.8226   -107.17961    1.4891749   -105.69044    30709.354    4.3779224    4.3779224    4.3779224    30709.354   -1743.5861    694.71714    93176.932   -26978.968    9508.1063    2427.2199    83.908158 
   40300    2600.0156   -108.03428    2.3525487   -105.68173   -14661.552    4.3871566    4.3871566    4.3871566   -14661.552   -35485.211   -21871.145    13371.701    11932.447   -17520.822    7821.6424    84.440229 
   40400    685.55366   -106.31994   0.62030336   -105.69963   -38265.391     4.390287     4.390287     4.390287   -38265.391   -99759.755    -42817.02    27780.603   -51463.907   -9323.2176    15242.028    84.621116 
   40500    2422.6152   -107.86168    2.1920332   -105.66964    9836.4618    4.3766644    4.3766644    4.3766644    9836.4618    -6088.391    19066.941    16530.835    12738.803    4497.4945    3117.8465    83.835842 
   40600    1745.4155   -107.26212    1.5792886   -105.68283   -7932.3698    4.3782321    4.3782321    4.3782321   -7932.3698   -22543.592   -29919.495    28665.977   -30607.961     -15174.8    3115.8364    83.925967 
   40700    1374.0881   -106.92928    1.2433038   -105.68598   -18237.602    4.3801413    4.3801413    4.3801413   -18237.602     -66406.1   -7130.8426    18824.138   -11270.462    2524.8457    9370.5596    84.035807 
   40800    1760.1774   -107.26311    1.5926455   -105.67046    28965.308    4.3908045    4.3908045    4.3908045    28965.308     6552.785    81131.649     -788.509    18686.087     2662.593   -22615.474    84.651043 
   40900    1815.3545   -107.30721    1.6425709   -105.66464   -25270.584    4.3978077    4.3978077    4.3978077   -25270.584   -27068.244   -14045.362   -34698.147   -12798.104   -6283.9396    17215.687    85.056736 
   41000      1227.82   -106.78906    1.1109574    -105.6781   -11281.273    4.3725198    4.3725198    4.3725198   -11281.273    -57462.26    45431.633   -21813.193    16069.651    16764.294   -841.30611    83.597897 
   41100    2041.9198    -107.5273    1.8475719   -105.67973    42340.439    4.3688062    4.3688062    4.3688062    42340.439    67533.328    42695.435    16792.555    17105.487     943.8686   -3622.0973     83.38508 
   41200    1742.6888   -107.26679    1.5768214   -105.68996    2091.2985    4.3871399    4.3871399    4.3871399    2091.2985    -9480.414    1887.2335    13867.076    2627.8078    20938.957    6109.6791    84.439264 
   41300     1281.307   -106.84056    1.1593535   -105.68121   -6742.1292    4.3990954    4.3990954    4.3990954   -6742.1292    -65614.94    24267.872     21120.68   -110.35099   -7751.0482   -4502.4376    85.131471 
   41400     2093.255   -107.53753    1.8940211   -105.64351    4167.4955    4.3992254    4.3992254    4.3992254    4167.4955    -24232.59    5465.0856    31269.991   -3730.8267    8016.9909   -6073.1388    85.139019 
   41500    1558.7146    -107.0563    1.4103577   -105.64595    20388.617    4.3710647    4.3710647    4.3710647    20388.617   -22624.015    30550.434    53239.434    25696.742    10897.583   -14703.674    83.514464 
   41600    1213.0222    -106.7675     1.097568   -105.66993   -4201.9505    4.3608088    4.3608088    4.3608088   -4201.9505   -33961.496   -3459.9159    24815.561    -21774.66   -17056.399   -2724.8723    82.927992 
   41700    2188.7117   -107.67114    1.9803924   -105.69074    5995.3584    4.3756019    4.3756019    4.3756019    5995.3584    3476.6848   -16368.323    30877.713   -17696.783   -8790.5088   -6097.5048    83.774801 
   41800    1961.7139   -107.48025    1.7749999   -105.70525   -31442.161    4.3975362    4.3975362    4.3975362   -31442.161   -76912.639    13087.216    -30501.06     3470.596   -11114.854    21568.325    85.040981 
   41900    937.64499   -106.54376   0.84840089   -105.69536   -28303.182    4.3972196    4.3972196    4.3972196   -28303.182   -55700.661   -48250.199    19041.314    -18354.17   -13951.908   -22409.644    85.022616 
   42000    2271.8604   -107.71724     2.055627   -105.66161    7679.8917    4.3666945    4.3666945    4.3666945    7679.8917    10736.866   -455.51035    12758.319    23433.482    6663.2212    13242.595    83.264224 
   42100    1872.9865   -107.36645    1.6947175   -105.67173    6252.9847    4.3623961    4.3623961    4.3623961    6252.9847    6608.6066    37171.363   -25021.016   -15565.703   -32626.743    8537.8906    83.018578 
   42200    1003.5021   -106.61143   0.90798979   -105.70344   -17540.085    4.3855889    4.3855889    4.3855889   -17540.085   -26078.052   -52540.081    25997.879    9576.4895    5195.2457   -18041.604     84.34974 
   42300    2104.6249   -107.58722    1.9043089   -105.68291   -26920.621    4.3938356    4.3938356    4.3938356   -26920.621   -40248.298   -3205.7822   -37307.783    15451.157   -3315.0639    25019.255    84.826471 
   42400    1838.0673   -107.33283    1.6631219   -105.66971   -4998.4376    4.3873215    4.3873215    4.3873215   -4998.4376   -36414.211    12346.748    9072.1498   -3818.0778   -20297.344   -14598.779    84.449753 
   42500    967.72687   -106.54251   0.87561961   -105.66689    6303.3011    4.3837237    4.3837237    4.3837237    6303.3011    3208.5808   -22057.295    37758.618     15110.98    14590.562    9768.3822    84.242164 
   42600    2401.6168    -107.8187    2.1730333   -105.64567   -18515.306     4.380959     4.380959     4.380959   -18515.306   -19643.006   -807.35742   -35095.554   -3166.2284    -7055.494    17458.395    84.082878 
   42700     1775.451   -107.27176    1.6064653    -105.6653   -105.63267    4.3751404    4.3751404    4.3751404   -105.63267   -20658.044     20068.76    272.38628    28284.406   -956.01717   -3784.5469    83.748298 
   42800     1380.119   -106.93702    1.2487606   -105.68826   -24008.715    4.3802972    4.3802972    4.3802972   -24008.715   -1501.5639   -35403.066   -35121.514   -18531.897    18481.692    23674.405    84.044778 
   42900     1943.088   -107.43638    1.7581469   -105.67824    13039.061    4.3879395    4.3879395    4.3879395    13039.061    19338.697    4866.3946    14912.092     7669.348    2234.7716   -6059.2569    84.485443 
   43000    1805.9063   -107.29848     1.634022   -105.66445   -24976.353    4.3949539    4.3949539    4.3949539   -24976.353   -9819.9473   -42397.645   -22711.465    4908.7805    63.055853    16632.352    84.891259 
   43100      1059.83    -106.6259    0.9589565   -105.66694   -8452.1104    4.3794018    4.3794018    4.3794018   -8452.1104    57111.237   -47789.095   -34678.474   -14634.927    13930.496    11050.496    83.993251 
   43200     2331.329   -107.76365    2.1094355   -105.65421    42270.534     4.365609     4.365609     4.365609    42270.534     59642.59    39209.145    27959.867   -7622.7783    -9423.314   -8404.8778    83.202141 
   43300    1641.0786   -107.18328    1.4848824    -105.6984   -21996.929    4.3749371    4.3749371    4.3749371   -21996.929   -15939.287   -28935.582   -21115.918   -4433.1607    5594.7904    25696.153    83.736624 
   43400    1194.1087   -106.78921    1.0804547   -105.70876    13355.602    4.3794137    4.3794137    4.3794137    13355.602    32869.296    898.34103    6299.1684   -11477.341    17356.595   -5987.0737    83.993933 
   43500    1914.8348   -107.41615    1.7325827   -105.68357     3612.427    4.3904962    4.3904962    4.3904962     3612.427   -44821.613    24269.084     31389.81    33405.615   -16540.052   -1279.8064    84.633213 
   43600    1943.0497   -107.42994    1.7581122   -105.67182   -23997.442    4.3816542    4.3816542    4.3816542   -23997.442   -8072.3329   -21155.709   -42764.283   -19797.705    25404.996   -4366.4169    84.122912 
   43700    1453.7112    -106.9836    1.3153485   -105.66825    39736.438    4.3552029    4.3552029    4.3552029    39736.438   -14097.246    33597.672    99708.888    31946.275   -2922.4062   -2667.0818    82.608581 
   43800    1729.5894   -107.25879    1.5649689   -105.69383   -1882.7848    4.3705974    4.3705974    4.3705974   -1882.7848    -30654.09    30868.427    -5862.691    11292.229    4905.4108    -11795.35    83.487682 
   43900    1776.0942   -107.29091    1.6070473   -105.68386   -10692.883    4.3884261    4.3884261    4.3884261   -10692.883   -55892.953   -8895.1587    32709.463    9326.3291    19537.373    9.1135327    84.513556 
   44000     1662.363    -107.1737    1.5041409   -105.66956    4405.4716    4.3836771    4.3836771    4.3836771    4405.4716   -25647.462    17519.476    21344.401    22043.014   -5898.6456    1908.7853     84.23948 
   44100     1231.055   -106.79284    1.1138844   -105.67895   -24727.134    4.3823314    4.3823314    4.3823314   -24727.134    -80127.51    32023.182   -26077.073    -15720.28    5720.3443    -5321.967    84.161922 
   44200    2377.8632   -107.82489    2.1515406   -105.67335     2759.164    4.3625765    4.3625765    4.3625765     2759.164    9333.6337   -34213.802     33157.66    18875.014    5883.5432    18149.413    83.028875 
   44300    1376.7853   -106.95119    1.2457443   -105.70544    10420.786    4.3620703    4.3620703    4.3620703    10420.786   -24797.653    6544.3342    49515.676   -24341.538    9784.2472   -158.17906    82.999978 
   44400    1336.9326   -106.92399    1.2096847    -105.7143   -24663.511    4.3873362    4.3873362    4.3873362   -24663.511   -70644.329      5928.55   -9274.7542    11293.965    3256.5603    15342.306    84.450599 
   44500    2161.7569   -107.61804    1.9560031   -105.66204   -2949.2965    4.4033894    4.4033894    4.4033894   -2949.2965   -24840.459   -19828.987    35821.556   -12353.463    -525.0976    1248.0384    85.381006 
   44600    1045.8321   -106.59183   0.94629085   -105.64554   -42699.624    4.4034285    4.4034285    4.4034285   -42699.624   -76674.208   -1647.8385   -49776.827   -33435.984    19652.142     10041.22    85.383281 
   44700    2465.5889   -107.83753    2.2309166   -105.60661    18067.434    4.3742326    4.3742326    4.3742326    18067.434    2623.3441    18721.475    32857.482    10543.793   -9096.1493   -5090.9363    83.696175 
   44800    1307.2684   -106.82359    1.1828439   -105.64075    6981.9523    4.3691356    4.3691356    4.3691356    6981.9523   -42284.451    36193.542    27036.765   -29411.562    14770.785    -2564.482     83.40394 
   44900    1657.2588   -107.16312    1.4995225   -105.66359   -1356.7786    4.3896774    4.3896774    4.3896774   -1356.7786   -9260.9328    16280.155   -11089.558   -2683.9952   -4010.2489   -4135.1705    84.585867 
   45000    1442.5736   -106.95076    1.3052709   -105.64549    5836.8564    4.4016178    4.4016178    4.4016178    5836.8564   -2339.9105    7672.5846    12177.895    12981.054    217.18988   -23121.051    85.277996 
   45100    1623.1055   -107.08788    1.4686199   -105.61926   -19724.343    4.3902105    4.3902105    4.3902105   -19724.343   -47114.244     18626.51   -30685.294    -22790.61    19392.096   -18723.985    84.616687 
   45200    1449.7814    -106.9254    1.3117927   -105.61361    23174.093    4.3719318    4.3719318    4.3719318    23174.093    21724.183   -40884.624    88682.721    47578.227    -4701.703    6021.4952    83.564179 
   45300    1891.0878   -107.33879     1.711096   -105.62769   -9073.6234    4.3795222    4.3795222    4.3795222   -9073.6234   -34726.989    15964.437   -8458.3182   -16694.874    29118.287   -17749.998    84.000174 
   45400    1341.0348   -106.84905    1.2133965   -105.63565    6899.7085    4.3960224    4.3960224    4.3960224    6899.7085   -14548.726   -10230.067    45477.918    46405.561    2204.4779   -2573.5861    84.953191 
   45500    1688.7958   -107.14442    1.5280579   -105.61636    3904.4009    4.3974246    4.3974246    4.3974246    3904.4009   -6149.3258   -43721.921    61584.449    974.26083    34218.451    1231.8168     85.03451 
   45600    1381.1486   -106.86189    1.2496923    -105.6122    6938.2873    4.3914342    4.3914342    4.3914342    6938.2873   -8679.2144   -54128.304     83622.38    30819.376    28503.454    1205.1031    84.687468 
   45700    1644.3774   -107.10175    1.4878672   -105.61388    27889.295    4.3827757    4.3827757    4.3827757    27889.295    63128.415   -23452.102    43991.572    18595.004     10392.56    3761.4152    84.187525 
   45800    1676.6942   -107.14724    1.5171082   -105.63014    15193.611    4.3819498    4.3819498    4.3819498    15193.611    17235.889     8293.439    20051.504    27604.487    45207.446   -6878.7636    84.139937 
   45900    1672.4769   -107.16283    1.5132923   -105.64954   -15069.851    4.3967199    4.3967199    4.3967199   -15069.851   -44534.644   -41467.667    40792.759    45317.623   -3246.3863    5231.1496    84.993636 
   46000    1947.0388   -107.39359    1.7617216   -105.63187    12278.102    4.3912884    4.3912884    4.3912884    12278.102   -3546.5189   -3246.7161     43627.54   -917.92513   -6112.3252   -12116.862    84.679033 
   46100    1295.7152   -106.80433    1.1723904   -105.63194    19989.613    4.3849022    4.3849022    4.3849022    19989.613    -5802.739    38724.854    27046.723     62168.98    8853.4698   -4460.3337    84.310125 
   46200    2318.5897   -107.71374    2.0979086   -105.61583    10226.083    4.3910676    4.3910676    4.3910676    10226.083    55862.006    -1218.753   -23965.004   -18017.081   -30914.467    6238.6931    84.666258 
   46300    1133.2731   -106.66771    1.0254093    -105.6423    5184.5116    4.3783816    4.3783816    4.3783816    5184.5116     4345.221   -2481.4886    13689.803    67217.445    12130.633    1160.8152    83.934564 
   46400    2465.0043    -107.8793    2.2303877   -105.64891    14974.789    4.3819714    4.3819714    4.3819714    14974.789     30669.37    15037.623     -782.627   -17473.653    5860.4663    2447.8322    84.141184 
   46500    1423.9045   -106.96666    1.2883787   -105.67829    6693.0289    4.3745537    4.3745537    4.3745537    6693.0289    28913.029   -30143.165    21309.223     52856.68   -7553.9069    4424.5389    83.714611 
   46600    1527.0441   -107.06519    1.3817016   -105.68349    20396.449    4.3751524    4.3751524    4.3751524    20396.449      67732.1    39178.114   -45720.866    3109.3887    43032.877   -7848.0035    83.748987 
   46700    1900.0083   -107.38683    1.7191674   -105.66766   -34815.818    4.3931796    4.3931796    4.3931796   -34815.818   -44850.004   -51109.489   -8487.9605    45339.857   -15949.948    5165.4981    84.788487 
   46800    1463.3845   -106.98491     1.324101   -105.66081   -9945.7691    4.3861727    4.3861727    4.3861727   -9945.7691    864.22479   -8577.2201   -22124.312    33036.552     22868.08   -3881.2619    84.383429 
   46900    1493.1497   -106.99276    1.3510332   -105.64173    13526.599    4.3820918    4.3820918    4.3820918    13526.599    33650.644    52868.217   -45939.063    10719.049     12770.82   -4959.0567    84.148122 
   47000    1785.8913   -107.26648     1.615912   -105.65057   -28979.913     4.374693     4.374693     4.374693   -28979.913    -56517.92    -26907.27   -3514.5489    73315.294    2751.2773   -4747.3679    83.722609 
   47100    2198.5474   -107.64891    1.9892919   -105.65962    6543.0304    4.3640849    4.3640849    4.3640849    6543.0304    4475.3208    74990.837   -59837.067   -9951.0487    20092.913   -17595.282    83.115034 
   47200    1471.3007    -107.0137    1.3312638   -105.68243   -5228.7442    4.3782075    4.3782075    4.3782075   -5228.7442   -27341.242    11936.018    -281.0085    62615.214   -6782.0011   -9627.2993    83.924552 
   47300    2065.7636   -107.52896    1.8691463   -105.65982   -12751.819    4.3966344    4.3966344    4.3966344   -12751.819   -22005.996    9569.6706   -25819.132    2231.6156    18337.041   -7565.9547    84.988673 
   47400    1525.8312   -107.01731    1.3806041   -105.63671    -902.1471    4.3944674    4.3944674    4.3944674    -902.1471    18754.636   -3497.5231   -17963.554    30093.465    206.32116   -12668.801    84.863069 
   47500      1190.28    -106.7143    1.0769903   -105.63731    20343.929    4.3812201    4.3812201    4.3812201    20343.929    29077.512    37589.607   -5635.3326    8900.4036    9353.6069    17853.497    84.097912 
   47600    2325.6796   -107.73393    2.1043237    -105.6296   -3290.5777    4.3729415    4.3729415    4.3729415   -3290.5777    20685.671      9579.68   -40137.084   -2255.0973    16317.959   -2205.4217    83.622089 
   47700    1043.3215    -106.6124   0.94401926   -105.66838    10113.117    4.3649539    4.3649539    4.3649539    10113.117   -35465.206     28505.26    37299.295    62993.792   -8394.4203   -3355.6838    83.164692 
   47800    1982.7913   -107.46609    1.7940713   -105.67202    23462.157    4.3803843    4.3803843    4.3803843    23462.157    74587.179    19213.879   -23414.588   -35991.665    16717.745   -4062.4509    84.049789 
   47900    1355.8006   -106.90333    1.2267568   -105.67657   -22362.427    4.3933642    4.3933642    4.3933642   -22362.427   -5833.1266   -61622.615    368.46017    75140.421   -10179.544     1712.689    84.799176 
   48000    2231.7409   -107.65625     2.019326   -105.63692    2574.4005    4.3831211    4.3831211    4.3831211    2574.4005    13631.279   -6563.8626    655.78532   -36411.421    7370.1776    2031.9526    84.207427 
   48100     953.4436   -106.51212   0.86269581   -105.64942    675.30692    4.3732782    4.3732782    4.3732782    675.30692   -11824.314   -42471.101    56321.335    78597.929    2512.4311   -6165.5741    83.641403 
   48200     2383.236   -107.79025     2.156402   -105.63385    314.87556    4.3705777    4.3705777    4.3705777    314.87556     31554.53    -40941.34    10331.437   -10994.524    8006.5748   -6181.6779    83.486555 
   48300    1241.0168   -106.78456     1.122898   -105.66166   -22937.551    4.3802656    4.3802656    4.3802656   -22937.551   -38174.094   -71895.484    41256.924    50117.017    1622.3953    4448.8335    84.042962 
   48400    1960.0936   -107.41493    1.7735339   -105.64139    3208.0807    4.3839085    4.3839085    4.3839085    3208.0807    20350.642   -43561.307    32834.907    28672.631    17101.763    4810.2611    84.252819 
   48500    1308.0712   -106.81869    1.1835703   -105.63512    2958.8471     4.387881     4.387881     4.387881    2958.8471    8326.8962    -7795.769    8345.4142      399.763    12704.804   -4885.2562    84.482065 
   48600    1515.7401   -107.00659    1.3714735   -105.63512   -2206.9038    4.3772805    4.3772805    4.3772805   -2206.9038   -15102.135   -34601.138    43082.562     39314.19    15567.417    5179.0068    83.871255 
   48700    2191.8246   -107.61093     1.983209   -105.62772    708.45979    4.3786851    4.3786851    4.3786851    708.45979     11526.74   -26741.397    17340.036    5472.4941    7692.5732   -5325.3663    83.952021 
   48800    1360.1193    -106.8709    1.2306645   -105.64023   -18443.805    4.3811494    4.3811494    4.3811494   -18443.805   -47870.143   -61515.656    54054.383    48672.697   -2350.8311    4537.2275    84.093839 
   48900    2242.5817   -107.65181    2.0291351   -105.62267    9750.3139    4.3792906    4.3792906    4.3792906    9750.3139     39531.63   -35331.925    25051.236   -12505.397    12384.455   -6487.7727    83.986851 
   49000    861.28136   -106.43091   0.77930547   -105.65161    25480.626    4.3709913    4.3709913    4.3709913    25480.626   -31990.717   -40961.675    149394.27     74859.94   -5721.1061   -2492.3368    83.510259 
   49100    2441.7866   -107.83889    2.2093799   -105.62951     3384.833    4.3799546    4.3799546    4.3799546     3384.833    12784.352   -6161.8347    3531.9814   -28676.314     11468.49   -1542.2758    84.025058 
   49200    1270.3862   -106.79563    1.1494721   -105.64616   -26845.906    4.3835197    4.3835197    4.3835197   -26845.906   -79137.149   -72410.015    71009.445    93133.182   -9818.3657   -8499.1558    84.230402 
   49300    2365.8649   -107.76743    2.1406843   -105.62674    14480.953    4.3713981    4.3713981    4.3713981    14480.953    5423.1546    22707.699    15312.006   -26505.547    12980.467   -10676.419    83.533577 
   49400    935.30047   -106.50037   0.84627952   -105.65409   -11894.602    4.3782297    4.3782297    4.3782297   -11894.602   -75137.942   -22208.409    61662.546     83981.32    3148.2728    18657.844    83.925825 
   49500    2627.2311   -108.00513     2.377174   -105.62796    6240.8799    4.3822208    4.3822208    4.3822208    6240.8799   -10578.861    23251.764    6049.7372   -19978.759    6609.8309   -26947.751    84.155549 
   49600    1029.4301   -106.57613   0.93145001   -105.64468   -37803.124    4.3934983    4.3934983    4.3934983   -37803.124   -103844.68   -32606.084    23041.388    80052.541    2482.3424    5828.5899    84.806938 
   49700    2590.2337   -107.94841    2.3436979   -105.60471   -5111.9326    4.3835348    4.3835348    4.3835348   -5111.9326   -16379.509   -2165.1111    3208.8222   -10607.488    22084.376   -20320.539    84.231276 
   49800    1504.9794   -106.97462     1.361737   -105.61288   -30880.219        4.378        4.378        4.378   -30880.219   -59312.028   -76095.968    42767.338    77914.519   -1320.8422   -11427.053    83.912615 
   49900    2132.1686   -107.53499     1.929231   -105.60576   -3029.3748    4.3970158    4.3970158    4.3970158   -3029.3748    471.52748   -6328.2072   -3231.4446   -13517.825    30215.749   -5747.2415    85.010797 
   50000    1261.9322   -106.75081    1.1418228   -105.60899   -30249.988    4.4000311    4.4000311    4.4000311   -30249.988   -22933.561   -67120.384   -696.01964    65769.213    9130.7616   -27060.043    85.185806 
   50100    2577.8403   -107.92159    2.3324841    -105.5891   -5716.1657    4.3868551    4.3868551    4.3868551   -5716.1657   -15187.384   -13132.106    11170.994   -11698.512    10463.535     9609.701    84.422824 
   50200    877.32656   -106.42348   0.79382351   -105.62965   -5258.7158    4.3680627    4.3680627    4.3680627   -5258.7158    12293.392   -39697.831    11628.292    61548.342    27620.152   -32143.092    83.342513 
   50300    2279.1094   -107.69053    2.0621861   -105.62835    10748.585    4.3589768    4.3589768    4.3589768    10748.585    34721.342   -14584.339    12108.751    16113.479   -9740.4152   -2273.8111    82.823518 
   50400    1261.2395   -106.80633     1.141196   -105.66513   -28285.003     4.391413     4.391413     4.391413   -28285.003   -36283.787   -53833.175    5261.9516    47517.679    4721.7313   -4961.9368    84.686241 
   50500    1487.2493   -106.98094    1.3456944   -105.63524   -32887.944    4.4011543    4.4011543    4.4011543   -32887.944   -44248.224   -68495.827    14080.219    35461.824   -2322.1022   -14087.287    85.251057 
   50600    1740.9444   -107.18065    1.5752431   -105.60541     30249.57    4.3680897    4.3680897    4.3680897     30249.57   -521.68592    9102.9078    82167.487    34091.313   -7518.3555    9008.6751    83.344058 
   50700    1262.8341   -106.76984    1.1426388    -105.6272    8171.1302    4.3699824    4.3699824    4.3699824    8171.1302   -20027.935    43511.851    1029.4748    24368.804    23755.988   -5833.7666    83.452444 
   50800    1929.4729   -107.36869    1.7458277   -105.62286    4874.0566    4.3809711    4.3809711    4.3809711    4874.0566   -13193.294    10240.602    17574.862    14253.232   -2350.6086   -2545.6649    84.083577 
   50900    1262.7757   -106.78703     1.142586   -105.64445    8588.0614    4.3899998    4.3899998    4.3899998    8588.0614   -79657.022    9612.5043    95808.702    43042.166   -7221.4445    18334.463    84.604505 
   51000    2119.0871   -107.53001    1.9173945   -105.61261   -2091.3303    4.3942682    4.3942682    4.3942682   -2091.3303    8277.5067    1432.4091   -15983.907    14468.216   -8294.9186   -1805.0769    84.851532 
   51100    1091.9348   -106.61111   0.98800553    -105.6231     9042.311    4.3809273    4.3809273    4.3809273     9042.311   -53150.795    30962.827    49314.901    53427.568   -14452.626    3322.7966    84.081055 
   51200     2786.556   -108.12857    2.5213344   -105.60724    9098.4805    4.3675136    4.3675136    4.3675136    9098.4805    19690.189    2946.6014    4658.6507   -10456.406   -59.037265    21025.461    83.311086 
   51300     803.4661   -106.38189   0.72699302    -105.6549    27124.882    4.3653187    4.3653187    4.3653187    27124.882     10206.05    37149.348    34019.247    78389.258   -4065.3951   -2626.5758    83.185546 
   51400    2452.5269   -107.86307    2.2190979   -105.64398   -51.301531    4.3807024    4.3807024    4.3807024   -51.301531    14032.979    28003.141   -42190.024   -30193.237   -6682.7136    11307.207    84.068101 
   51500    1304.8992   -106.84989    1.1807002   -105.66919   -394.29431    4.3711535    4.3711535    4.3711535   -394.29431    33145.838   -34554.366     225.6446    62156.639   -1364.4363    6403.0262    83.519556 
   51600      1789.77   -107.28582    1.6194215   -105.66639    12682.722    4.3646686    4.3646686    4.3646686    12682.722    17235.996    42580.899   -21768.729     17348.85   -10661.467   -20351.753    83.148385 
   51700    2036.2041   -107.51091    1.8424003   -105.66851    13626.444    4.3681603    4.3681603    4.3681603    13626.444     39933.24    -10652.73    11598.824    23978.194    3899.4491    16992.287    83.348102 
   51800    1644.7153   -107.18177     1.488173    -105.6936     -27449.3    4.3868315    4.3868315    4.3868315     -27449.3   -34696.524   -31807.989   -15843.386    48159.283   -8615.7579   -8174.6778     84.42146 
   51900    1999.6406   -107.47192    1.8093169    -105.6626    9913.5747    4.3831392    4.3831392    4.3831392    9913.5747   -17117.172    58060.628   -11202.732   -14785.731     4073.211   -12043.277    84.208472 
   52000      1435.28   -106.94624    1.2986715   -105.64757    36942.037    4.3616737    4.3616737    4.3616737    36942.037    68978.633    5813.9047    36033.574    79972.418     9165.128    17698.955    82.977343 
   52100    2415.9373   -107.82719    2.1859908    -105.6412    12112.608    4.3771671    4.3771671    4.3771671    12112.608    4157.1126    30164.509    2016.2025   -30098.349   -4255.5341    -16985.93    83.864733 
   52200    1085.1043   -106.63818   0.98182519   -105.65635    13124.528    4.3854175    4.3854175    4.3854175    13124.528   -13877.419    2954.6809    50296.323    63853.424    6428.1443     8365.557    84.339855 
   52300    1985.4106    -107.4385    1.7964412   -105.64206    11161.854    4.3936237    4.3936237    4.3936237    11161.854    59330.578   -4094.6742   -21750.343   -20231.727   -6937.5947    12194.251    84.814204 
   52400    1710.3871   -107.18645    1.5475942   -105.63885   -22645.811    4.3848681    4.3848681    4.3848681   -22645.811   -64173.485   -31009.359    27245.409    47999.821   -14460.562   -17723.451    84.308159 
   52500    1559.3523   -107.03625    1.4109347   -105.62531    53498.589    4.3630838    4.3630838    4.3630838    53498.589     102746.9    24111.179    33637.684    6505.5074    1176.5925    34674.565    83.057847 
   52600    1740.8572   -107.22283    1.5751642   -105.64767   -23171.604    4.3841808    4.3841808    4.3841808   -23171.604   -68504.464   -13298.035    12287.688     45442.46   -16690.711   -5770.8584    84.268519 
   52700    1612.2025   -107.09907    1.4587547   -105.64031   -29271.997    4.3884313    4.3884313    4.3884313   -29271.997     597.9281   -49887.026   -38526.894    15458.435    19607.659    35370.212    84.513858 
   52800    1690.0115   -107.16575    1.5291579    -105.6366    26392.384    4.3747796    4.3747796    4.3747796    26392.384    47390.971    25291.828    6494.3543    15965.347    6739.4794    12078.336    83.727581 
   52900    1479.5483   -106.98854    1.3387264   -105.64981    -11655.73    4.3698741    4.3698741    4.3698741    -11655.73    -1783.382   -29677.394   -3506.4137    34924.517    3822.7963    15829.334    83.446238 
   53000    1794.8373   -107.27872    1.6240065   -105.65471   -1523.3649    4.3697254    4.3697254    4.3697254   -1523.3649    50410.508    -7914.205   -47066.398   -18719.188    22631.491    42437.678    83.437723 
   53100    1763.7563   -107.24802    1.5958838   -105.65214   -19471.424    4.3809798    4.3809798    4.3809798   -19471.424   -34058.161   -36313.024    11956.914    49519.939   -581.28169   -11684.903    84.084078 
   53200    1435.0724   -106.95138    1.2984837   -105.65289    -20972.07    4.3675165    4.3675165    4.3675165    -20972.07    41920.425   -45704.523   -59132.112    4523.7231    15664.215    60074.132    83.311255 
   53300    2048.8115   -107.50275    1.8538077   -105.64894   -11373.059    4.3636569    4.3636569    4.3636569   -11373.059   -25496.896   -29130.565    20508.284    13526.907    9102.3378   -19677.784    83.090582 
   53400    1608.8194   -107.10498    1.4556936   -105.64928   -28560.106    4.3797308    4.3797308    4.3797308   -28560.106   -1006.0417   -68636.043   -16038.233    39082.855   -3332.0272    20472.805    84.012182 
   53500    1795.8292   -107.25491     1.624904   -105.63001    7436.2071    4.3752127    4.3752127    4.3752127    7436.2071    20073.268    8630.7978   -6395.4442    581.02061     18815.47    1588.7567    83.752447 
   53600    1505.5583   -107.00869    1.3622608   -105.64643   -27283.281    4.3761646    4.3761646    4.3761646   -27283.281   -46554.795   -17932.101   -17362.946    30449.749    1230.2485   -7081.4967    83.807125 
   53700    2497.4091    -107.8933    2.2597082   -105.63359    11328.346    4.3716034    4.3716034    4.3716034    11328.346    15768.596    28313.047   -10096.605   -6192.3872   -1213.7561     10855.01    83.545344 
   53800    1052.8035   -106.61491    0.9525987   -105.66232   -14453.269    4.3720697    4.3720697    4.3720697   -14453.269   -46205.181   -1111.9729    3957.3474    41233.001    8826.6215   -26754.634    83.572081 
   53900    2020.1766   -107.47565    1.8278983   -105.64775    2409.5134    4.3766686    4.3766686    4.3766686    2409.5134    9810.1862    26527.915   -29109.561   -10174.613   -9127.0455   -8174.2203    83.836086 
   54000      1640.77   -107.13659    1.4846032   -105.65199    40362.314    4.3574743    4.3574743    4.3574743    40362.314    447.36691    77408.197    43231.379    31840.014   -14478.764   -10185.318    82.737904 
   54100    1832.3245   -107.32675    1.6579257   -105.66882   -9058.8062    4.3633445    4.3633445    4.3633445   -9058.8062   -1790.7846   -29967.632    4581.9981    15271.699    1124.1279    -20548.21    83.072734 
   54200    1469.9678    -106.9912    1.3300578   -105.66114    991.25119    4.3775731    4.3775731    4.3775731    991.25119    15034.774     38773.37   -50834.391   -6114.9224   -29092.206    13996.149    83.888072 
   54300    1790.5798   -107.27159    1.6201542   -105.65144    7885.7671    4.3782615    4.3782615    4.3782615    7885.7671    12874.396    -21261.34    32044.245    37677.887    18780.562    -17853.04    83.927655 
   54400    1963.5265   -107.42353      1.77664   -105.64689   -23277.856    4.3789544    4.3789544    4.3789544   -23277.856    -31458.71    12036.711    -50411.57   -14003.762   -33412.734   -11020.437    83.967511 
   54500     1512.764   -107.02204    1.3687807   -105.65326    28764.283    4.3576913    4.3576913    4.3576913    28764.283    24799.658    22182.115    39311.075    27544.735   -4827.7793    17529.875    82.750265 
   54600    1604.5824   -107.12149    1.4518599   -105.66963    -8993.049    4.3754097    4.3754097    4.3754097    -8993.049   -19112.685   -15096.002    7229.5395   -6799.6922   -12241.778   -35855.079    83.763765 
   54700    1722.4695   -107.21678    1.5585266   -105.65825    -13843.16    4.3792011    4.3792011    4.3792011    -13843.16   -62310.714   -3596.5347    24377.769    4087.0267   -47628.256    11594.403    83.981702 
   54800    1782.2015   -107.26689    1.6125734   -105.65432    19973.307    4.3680684    4.3680684    4.3680684    19973.307   -24988.413   -1329.3608    86237.694    11827.293    31230.121   -4115.9668     83.34284 
   54900    1359.2555    -106.9018    1.2298829   -105.67192   -32091.214    4.3741878    4.3741878    4.3741878   -32091.214   -13917.486   -24168.359   -58187.798    13698.854   -27627.265   -17306.753    83.693606 
   55000    1660.3911   -107.18045    1.5023567   -105.67809    15157.153    4.3703923    4.3703923    4.3703923    15157.153   -40391.219   -24570.458    110433.14    35603.934   -27040.162    20797.006    83.475931 
   55100    2135.8614   -107.60327    1.9325722    -105.6707    9301.6489     4.376604     4.376604     4.376604    9301.6489    8021.7065   -11084.632    30967.872    -6239.362   -3055.9954   -11097.813    83.832371 
   55200    786.83721   -106.39359   0.71194684   -105.68164   -18716.603    4.3780655    4.3780655    4.3780655   -18716.603   -66437.544   -28392.615     38680.35    53849.199   -24186.772    5836.3227    83.916386 
   55300    2389.3124    -107.8173    2.1619001    -105.6554   -4133.3708    4.3747491    4.3747491    4.3747491   -4133.3708    23091.031   -35975.705    484.56155   -7347.3788    566.95379    32003.154    83.725825 
   55400    1694.7407   -107.19357     1.533437   -105.66014   -16703.599     4.376852     4.376852     4.376852   -16703.599   -38873.108   -12927.701    1690.0123    35269.457   -28787.376   -4209.2975    83.846627 
   55500    1669.5079   -107.17138    1.5106059   -105.66078   -29191.014    4.3784735    4.3784735    4.3784735   -29191.014   -33560.999   -4679.2819    -49332.76    13703.916    -20037.41    27501.856    83.939848 
   55600    2254.0168   -107.68828    2.0394818   -105.64879   -6374.9408    4.3860987    4.3860987    4.3860987   -6374.9408    19072.774   -37825.817   -371.77988    7387.7674     19637.58    17311.635    84.379161 
   55700    1464.9607   -106.98422    1.3255272   -105.65869   -22915.997     4.375739     4.375739     4.375739   -22915.997   -51685.391   -5998.9522   -11063.647    23950.083   -34228.917    9350.5738    83.782675 
   55800    1793.9726   -107.27603    1.6232242    -105.6528    22944.712    4.3670029    4.3670029    4.3670029    22944.712    71301.774   -20228.096    17760.458   -5678.1685    16313.204    32239.628    83.281862 
   55900    1957.4455   -107.42735    1.7711379   -105.65621   -16783.996     4.375239     4.375239     4.375239   -16783.996   -47619.803   -31773.637    29041.453    28976.712     5879.639   -8585.6726    83.753958 
   56000    1252.4905    -106.8078    1.1332798   -105.67452    9217.6666    4.3671408    4.3671408    4.3671408    9217.6666     37242.45   -35059.341    25469.891    -2892.859   -30760.724    47860.648    83.289755 
   56100    1872.7614   -107.37256    1.6945138   -105.67804    3289.9483    4.3685268    4.3685268    4.3685268    3289.9483   -2429.6198   -8161.8486    20461.313   -21431.775    37033.599   -17933.138    83.369082 
   56200    1870.0309   -107.36483    1.6920433   -105.67278    -8959.231    4.3685923    4.3685923    4.3685923    -8959.231    13354.979   -30333.006   -9899.6661     17126.08   -2534.5629    28260.949     83.37283 
   56300    1603.7229   -107.12675    1.4510822   -105.67566   -1772.7669    4.3787559    4.3787559    4.3787559   -1772.7669    1028.2746    -6360.021    13.445498    -39841.88     9473.037    25660.087    83.956091 
   56400    1743.4463   -107.23124    1.5775069   -105.65373   -21144.694    4.3935079    4.3935079    4.3935079   -21144.694   -28801.507    1191.4583   -35824.034   -4922.4879    32504.011    -5704.511    84.807494 
   56500    1366.8148   -106.87611    1.2367227   -105.63938    1929.0904    4.3866307    4.3866307    4.3866307    1929.0904    13541.336   -15491.445    7737.3808    1002.0295    1563.7084    64840.524    84.409867 
   56600    2573.7944   -107.93824    2.3288232   -105.60941   -3103.3406    4.3809192    4.3809192    4.3809192   -3103.3406   -26634.231    40034.849    -22710.64   -18783.268    18048.649   -15611.434    84.080588 
   56700    792.22557   -106.35855   0.71682234   -105.64173   -5860.4541    4.3807334    4.3807334    4.3807334   -5860.4541    21348.962   -12806.893   -26123.431     9299.211    15637.062     66885.24    84.069888 
   56800    2197.8898   -107.61236    1.9886969   -105.62367     21868.15    4.3847389    4.3847389    4.3847389     21868.15   -17341.479    85253.425   -2307.4948     810.1765   -10218.596   -5012.4563    84.300704 
   56900    906.69842   -106.46734   0.82039978   -105.64694   -7644.0434    4.3833224    4.3833224    4.3833224   -7644.0434    24109.646   -14110.861   -32930.915   -2687.9763    14077.691    94377.881    84.219029 
   57000    1902.3633   -107.35328    1.7212982   -105.63199    27327.668    4.3728415    4.3728415    4.3728415    27327.668   -6661.2316   -24793.424    113437.66    13505.132    4281.6003   -3444.4387    83.616353 
   57100    1400.7977   -106.92471    1.2674712   -105.65724   -10407.316    4.3890622    4.3890622    4.3890622   -10407.316   -11034.755   -991.55508   -19195.637   -5350.2373   -304.97095    58350.117     84.55031 
   57200    1628.3508   -107.12727     1.473366    -105.6539   -40129.687    4.3923447    4.3923447    4.3923447   -40129.687   -57375.444   -28872.261   -34141.356    11994.048    19365.726    23420.092    84.740152 
   57300    2191.7072   -107.61755    1.9831027   -105.63444   -11652.629    4.3794658    4.3794658    4.3794658   -11652.629     3313.095   -14746.869   -23524.112    6669.5087   -9660.1718     22514.46    83.996933 
   57400    1326.8699   -106.84108    1.2005798    -105.6405   -30427.642    4.3719613    4.3719613    4.3719613   -30427.642   -1102.5263   -19291.152   -70889.247    2775.6993    18543.045    72151.946    83.565868 
   57500    2329.8843   -107.73703    2.1081282    -105.6289   -6732.1903    4.3732596    4.3732596    4.3732596   -6732.1903   -24438.891    12395.325   -8153.0052    3288.7864    14336.281   -11780.404    83.640338 
   57600    1469.7229   -106.97313    1.3298362   -105.64329   -43904.823    4.3959976    4.3959976    4.3959976   -43904.823    4026.3044   -52152.258   -83588.517   -6512.4256   -1196.8777    80440.679    84.951752 
   57700    2039.8451   -107.45979    1.8456947   -105.61409    9113.0258    4.3833847    4.3833847    4.3833847    9113.0258   -17268.492    38242.481    6365.0879    6377.5347    21411.381   -15110.329    84.222625 
   57800    1189.6999   -106.70138    1.0764654   -105.62491    38427.919    4.3671546    4.3671546    4.3671546    38427.919    24014.441     8956.423    82312.891   -4282.8742    16745.743    74533.025    83.290544 
   57900    2400.1646   -107.78874    2.1717194   -105.61702   -5764.9367    4.3819246    4.3819246    4.3819246   -5764.9367   -67188.715    6399.8349     43494.07    11186.331    17590.738   -24037.069    84.138488 
   58000    1284.7855   -106.80285    1.1625009   -105.64035   -40233.016    4.3811531    4.3811531    4.3811531   -40233.016   -9030.3726   -48950.937   -62717.738   -4217.4619    15031.742    68961.082    84.094055 
   58100    2354.5555   -107.76167    2.1304513   -105.63121    7379.0179    4.3746054    4.3746054    4.3746054    7379.0179   -19712.956    17562.215    24287.794    3329.9207    1571.7575   -4064.2452    83.717578 
   58200    1047.7103   -106.60201   0.94799028   -105.65402   -15222.628    4.3861341    4.3861341    4.3861341   -15222.628   -49153.749   -20070.042    23555.907    6259.5852    20244.604    16321.374    84.381201 
   58300     1424.923   -106.94424    1.2893003   -105.65494   -6097.8719    4.3781158    4.3781158    4.3781158   -6097.8719    4192.5641   -53249.288    30763.108   -6978.6956    1058.1495    54366.936    83.919279 
   58400     2074.751   -107.51915    1.8772783   -105.64187    3825.0841    4.3624251    4.3624251    4.3624251    3825.0841   -18800.846     28232.13    2043.9679    11074.613    26804.674   -26868.947    83.020235 
   58500    1429.6464    -106.9538    1.2935741   -105.66022   -40957.893    4.3724444    4.3724444    4.3724444   -40957.893    1090.8345   -63367.703    -60596.81   -6062.6104    7250.8789    78774.617    83.593571 
   58600    2185.2429   -107.62234    1.9772537   -105.64508     11125.68    4.3734469    4.3734469    4.3734469     11125.68   -32926.482    13516.056    52787.467   -2337.0781   -1137.0141   -12427.794    83.651085 
   58700    758.57022   -106.35491   0.68637027   -105.66854    26057.517    4.3784638    4.3784638    4.3784638    26057.517   -25421.837    31060.996    72533.391    1001.9758    15690.902    39426.981    83.939289 
   58800    2126.8504   -107.55885    1.9244189   -105.63443    3426.0956    4.3925521    4.3925521    4.3925521    3426.0956    3397.3737   -22876.291    29757.205   -5759.7336   -7391.7742    1213.4055     84.75216 
   58900    1205.7463   -106.73342    1.0909846   -105.64243   -39360.197    4.3829194    4.3829194    4.3829194   -39360.197   -31541.614   -7368.0954   -79170.883    5298.9833    6886.3693   -13583.544    84.195807 
   59000    2378.7422   -107.77215    2.1523359   -105.61981    12946.935    4.3596344    4.3596344    4.3596344    12946.935    17312.265    20389.253     1139.287   -13013.324   -7012.3222    35688.279    82.861007 
   59100    1195.4243   -106.73344     1.081645   -105.65179   -7925.3896    4.3623573    4.3623573    4.3623573   -7925.3896    26537.074   -23595.955   -26717.288   -12042.803     5103.781    -66894.59    83.016363 
   59200     1936.128   -107.40709    1.7518493   -105.65524    14733.568    4.3678848    4.3678848    4.3678848    14733.568    5338.4953   -3104.7493    41966.958   -838.35663    6156.4964    27955.054    83.332332 
   59300    1104.3918   -106.67044   0.99927695   -105.67117   -440.31935     4.387861     4.387861     4.387861   -440.31935    35755.495    -11931.83   -25144.622    5453.8436    4217.6393    -51891.13    84.480912 
   59400    1950.9015   -107.39587    1.7652167   -105.63066   -17773.851     4.395258     4.395258     4.395258   -17773.851   -41529.882   -29329.263    17537.591   -17778.378   -1126.6228    2297.4816     84.90888 
   59500    1604.2535   -107.07654    1.4515623   -105.62498    8728.3552    4.3727423    4.3727423    4.3727423    8728.3552    23674.884   -3729.5065    6239.6881    19245.439     4589.526   -41528.026    83.610662 
   59600    1852.4882   -107.30876    1.6761703   -105.63259   -10261.675    4.3543396    4.3543396    4.3543396   -10261.675   -9587.7726    26952.211   -48149.464   -4409.0787   -13961.387   -28368.682    82.559468 
   59700    1779.7372    -107.2589    1.6103436   -105.64855    21790.864    4.3633755    4.3633755    4.3633755    21790.864    27597.035    28551.381    9224.1747   -1581.1416   -1154.8818   -3407.4165    83.074508 
   59800    1381.8793   -106.91773    1.2503534   -105.66738   -1879.0198    4.3844546    4.3844546    4.3844546   -1879.0198    6576.1073   -25730.484    13517.317    9525.6432   -15261.381   -48999.568    84.284307 
   59900    1912.8926   -107.36456    1.7308254   -105.63373    4007.2166    4.3965864    4.3965864    4.3965864    4007.2166   -43063.284    15613.538    39471.395    -12190.66   -6354.5751    2380.6351    84.985894 
   60000    1176.1361   -106.69261    1.0641927   -105.62841   -7162.5881    4.3841171    4.3841171    4.3841171   -7162.5881     61308.01   -70638.496   -12157.278    13140.403   -8934.0074   -75111.769    84.264845 
   60100    2233.9102   -107.61619    2.0212889    -105.5949    25528.044    4.3658755    4.3658755    4.3658755    25528.044   -12456.363    78323.131    10717.365   -9830.8949   -22713.296    17196.941    83.217381 
   60200    1145.9833   -106.67855    1.0369098   -105.64164   -667.02746    4.3724141    4.3724141    4.3724141   -667.02746    32785.216    1115.0472   -35901.345    11807.032    5203.4131   -70669.159    83.591836 
   60300    2040.8463   -107.48035    1.8466006   -105.63375    3914.0602    4.3830164    4.3830164    4.3830164    3914.0602    -42015.05    58982.503   -5225.2721    -7883.137   -12047.569    11255.429    84.201394 
   60400    1470.4566   -106.97893       1.3305   -105.64843   -17149.926    4.3741439    4.3741439    4.3741439   -17149.926   -27475.978   -2021.4158   -21952.385   -9668.0609    3528.3962   -45230.615    83.691086 
   60500    1785.6745   -107.26411    1.6157158   -105.64839    13542.833    4.3758645    4.3758645    4.3758645    13542.833   -13365.804    80870.552    -26876.25    15567.849   -13538.021   -10261.402    83.789885 
   60600      1707.76   -107.19334    1.5452171   -105.64812   -14912.156    4.3715392    4.3715392    4.3715392   -14912.156    -13366.58   -7396.9613   -23972.927   -8967.9563    6291.5256     630.0407    83.541664 
   60700    1607.6727   -107.10326     1.454656    -105.6486    23444.126    4.3694004    4.3694004    4.3694004    23444.126   -2201.3401    89000.796   -16467.078    9524.0746    195.20237   -58990.753    83.419104 
   60800    1657.2606   -107.15036    1.4995242   -105.65083   -29431.267    4.3781645    4.3781645    4.3781645   -29431.267   -50479.689    29595.178   -67409.291    5570.1702   -24226.215    31756.355    83.922078 
   60900    1787.5439   -107.25808    1.6174073   -105.64067    22383.711    4.3688869    4.3688869    4.3688869    22383.711    41468.644    44039.912   -18357.422   -17413.784    22547.926   -54999.018    83.389698 
   61000    1544.1074    -107.0386    1.3971408   -105.64146   -13630.838    4.3800808    4.3800808    4.3800808   -13630.838   -49017.885    64563.765   -56438.394    8974.3943   -45869.236    24425.206    84.032323 
   61100    1906.6734   -107.37143    1.7251982   -105.64624   -12148.929    4.3605221    4.3605221    4.3605221   -12148.929   -6292.5387    13235.914   -43390.163   -9070.1514    29604.565   -11315.198    82.911632 
   61200    1529.2663   -107.03633    1.3837123   -105.65262    31476.204    4.3521705    4.3521705    4.3521705    31476.204    3445.0321    114363.62   -23380.041     1001.717       -60319   -3955.5079    82.436149 
   61300    1661.3375   -107.17119     1.503213   -105.66798   -22551.386     4.374116     4.374116     4.374116   -22551.386   -14599.743    4832.3536   -57886.768   -28380.572   -8497.0671    5736.5088    83.689482 
   61400    1488.2447   -107.01483    1.3465951   -105.66823     4563.053     4.372184     4.372184     4.372184     4563.053    20331.604    37957.795    -44600.24    225.10737   -21690.652    7329.3484    83.578638 
   61500    1730.3805   -107.22956    1.5656847   -105.66388   -23781.986    4.3773729    4.3773729    4.3773729   -23781.986   -9072.7744    12118.843   -74392.029    -15893.23   -65300.676   -12735.752    83.876564 
   61600    2103.4288   -107.55235    1.9032266   -105.64912    23031.693    4.3626961    4.3626961    4.3626961    23031.693    48793.716    33457.484   -13156.121    4317.4586    5378.0772     16462.22    83.035707 
   61700    1148.0912   -106.71744     1.038817   -105.67862    -21136.08    4.3640896    4.3640896    4.3640896    -21136.08   -48177.684    43797.499   -59028.054   -6989.1466   -69752.401   -9503.6699    83.115302 
   61800    2079.2702   -107.53204    1.8813673   -105.65068      19919.9    4.3723421    4.3723421    4.3723421      19919.9    44945.951    19763.719   -4949.9708   -524.82625    24019.994   -14692.535    83.587707 
   61900    1400.1605   -106.93272    1.2668947   -105.66582   -8067.2203    4.3706366    4.3706366    4.3706366   -8067.2203   -30032.208    35226.001   -29395.454   -1379.9621   -61050.471    4083.6051    83.489932 
   62000     1676.002   -107.17589    1.5164818   -105.65941   -7858.0051    4.3731979    4.3731979    4.3731979   -7858.0051     66373.91   -34699.554   -55248.371   -3119.5463    34835.081   -16598.106    83.636798 
   62100    2001.8927   -107.45552    1.8113546   -105.64417   -14457.471    4.3762728    4.3762728    4.3762728   -14457.471    19653.314   -2290.8643   -60734.862   -3888.3428   -32783.093   -11617.202     83.81334 
   62200    1666.5682   -107.15084    1.5079459    -105.6429   -23905.169    4.3824691    4.3824691    4.3824691   -23905.169   -1184.3728   -1982.5173   -68548.616   -4065.4599    2362.9507   -7079.7528    84.169858 
   62300    1509.7596   -107.01132    1.3660622   -105.64526   -50004.697    4.3808695    4.3808695    4.3808695   -50004.697    -29117.33   -28447.375   -92449.385    2945.3766    8684.8439   -31400.865    84.077726 
   62400    2705.7669   -108.07159    2.4482347   -105.62335    28660.982    4.3499184    4.3499184    4.3499184    28660.982     21947.39    63893.597    141.95931     7986.263    -20903.66    5534.8402     82.30824 
   62500    446.69601   -106.09224   0.40417994   -105.68806     9358.002    4.3505002    4.3505002    4.3505002     9358.002     54679.17    39886.538   -66491.701    1206.9305    37183.151   -15661.575    82.341276 
   62600     2365.183   -107.81815    2.1400673   -105.67808    14240.885    4.3767058    4.3767058    4.3767058    14240.885    -23391.01    68251.964   -2138.2976    20732.451   -11906.791   -10902.561    83.838224 
   62700     1546.209   -107.08263    1.3990424   -105.68359   -31170.685    4.3877131    4.3877131    4.3877131   -31170.685    -51678.19    15175.748   -57009.614    965.26419    12500.253    7816.1596    84.472366 
   62800    1151.6864   -106.72894    1.0420701   -105.68687   -11641.635    4.3549159    4.3549159    4.3549159   -11641.635    51198.056   -44441.971   -41680.992    1106.8872    7606.0382   -32238.567    82.592256 
   62900    2130.8638   -107.59485    1.9280503    -105.6668    22650.299    4.3398842    4.3398842    4.3398842    22650.299    2021.3419    68827.505   -2897.9516    16769.233   -38119.025    1455.2031    81.739962 
   63000     1942.668   -107.43545    1.7577668   -105.67768   -12867.937     4.368634     4.368634     4.368634   -12867.937    26265.342    -13629.52   -51239.632   -21734.458    24371.156   -33350.914    83.375218 
   63100    879.93681   -106.47185   0.79618532   -105.67567     14832.66    4.3804886    4.3804886    4.3804886     14832.66    23970.351    44242.584   -23714.954   -6585.5072   -54393.936   -2292.2408    84.055795 
   63200    2161.7659   -107.59535    1.9560112   -105.63933     17926.82    4.3811732    4.3811732    4.3811732     17926.82    9138.4996    39271.885     5370.075    922.67025    8467.7711    570.72494     84.09521 
   63300    1321.0727    -106.8535    1.1953343   -105.65816   -1735.0344    4.3656028    4.3656028    4.3656028   -1735.0344   -4074.9813    65884.365   -67014.486   -9400.6777    -48168.57   -21195.901    83.201791 
   63400    1771.5995   -107.25509    1.6029804   -105.65211    14614.525    4.3532167    4.3532167    4.3532167    14614.525    9078.0589    32459.266      2306.25     10168.79   -559.05556    5779.6174    82.495616 
   63500    1773.5371   -107.27046    1.6047337   -105.66573   -15534.154    4.3705056    4.3705056    4.3705056   -15534.154    -45763.26    30020.999     -30860.2   -11283.402   -13086.317    -12433.72    83.482424 
   63600    1374.0376   -106.90534    1.2432581   -105.66208   -36388.843    4.3776034    4.3776034    4.3776034   -36388.843   -39833.654   -14491.497   -54841.379   -5151.4742   -50046.859   -21592.934    83.889815 
   63700    1979.1064   -107.44574    1.7907371   -105.65501    -14143.05    4.3653125    4.3653125    4.3653125    -14143.05   -32981.519    -30106.55     20658.92    30559.201    32332.908    3982.9139    83.185191 
   63800    1785.0225   -107.28234    1.6151258   -105.66722    6800.7712    4.3629067    4.3629067    4.3629067    6800.7712    1373.4254     36228.36   -17199.472   -23158.351   -41318.593    -12481.86    83.047734 
   63900    1145.4135   -106.71587    1.0363942   -105.67947   -2468.9389    4.3682492    4.3682492    4.3682492   -2468.9389    16927.905   -43019.779    18685.056    42469.127   -9490.1188   -15149.116    83.353186 
   64000    1933.2108   -107.41055    1.7492098   -105.66134   -3673.3477    4.3724996    4.3724996    4.3724996   -3673.3477   -1835.8303    518.69852   -9702.9112    10751.775   -294.42488    16258.455    83.596741 
   64100    1503.0373   -107.02623    1.3599797   -105.66625   -3997.3862    4.3697661    4.3697661    4.3697661   -3997.3862    18516.894     -7014.62   -23494.432    16226.575   -18948.128   -36013.269    83.440052 
   64200    1594.8167   -107.10614    1.4430237   -105.66311    21188.134    4.3648406    4.3648406    4.3648406    21188.134    13096.529    25086.266    25381.607    51665.736    8615.0466    6195.6717    83.158218 
   64300    1997.4991   -107.47313    1.8073792   -105.66576   -10586.813    4.3659801    4.3659801    4.3659801   -10586.813   -2169.0689    11098.003   -40689.372   -15589.969    -8924.744   -17826.579    83.223362 
   64400     990.5925    -106.5911   0.89630891   -105.69479    -8185.045    4.3653146    4.3653146    4.3653146    -8185.045    9241.6626     -31307.7   -2489.0973    43714.674   -14449.038    -21224.27    83.185309 
   64500    2490.2469   -107.91971    2.2532278   -105.66648    5271.6506    4.3656866    4.3656866    4.3656866    5271.6506    5903.8737    9095.1426    815.93557   -2540.9979    7582.4011    20804.603    83.206576 
   64600    1324.2372   -106.87539    1.1981976   -105.67719   -44627.759    4.3758757    4.3758757    4.3758757   -44627.759    -34065.53   -52371.855   -47445.892    27644.632   -5405.0217   -44758.263    83.790527 
   64700    1489.2051   -107.02365     1.347464   -105.67618   -13484.303    4.3694638    4.3694638    4.3694638   -13484.303   -32603.274   -25366.366     17516.73     46837.23   -16747.678    28717.116    83.422737 
   64800    2271.2913   -107.70762    2.0551121   -105.65251    7981.6202    4.3590746    4.3590746    4.3590746    7981.6202    19730.337    -5193.481    9408.0051   -16517.281    10584.614   -18624.116    82.829093 
   64900    1211.1035   -106.78207    1.0958319   -105.68623   -33781.492    4.3631958    4.3631958    4.3631958   -33781.492   -49396.968   -40219.921   -11727.587    76480.078   -7761.3627   -14898.007    83.064244 
   65000    2494.3519   -107.90766     2.256942   -105.65072   -16990.247    4.3828059    4.3828059    4.3828059   -16990.247   -18532.875   -14233.332   -18204.534   -13537.635   -10496.122    12708.721    84.189264 
   65100    958.43224   -106.51288   0.86720963   -105.64567   -36067.704    4.3907218    4.3907218    4.3907218   -36067.704    -64775.43   -51260.982    7833.3015    42746.454    13165.232   -31475.384     84.64626 
   65200    2297.5655   -107.69631    2.0788855   -105.61743   -246.64479     4.375923     4.375923     4.375923   -246.64479   -27338.721    35047.419   -8448.6317   -18696.555   -11470.752    2853.3137    83.793244 
   65300    2087.0081   -107.51964    1.8883688   -105.63127   -21493.396    4.3673348    4.3673348    4.3673348   -21493.396   -27547.255   -42363.655    5430.7218    27288.919   -15621.039   -13152.008    83.300858 
   65400    1738.0319   -107.21988    1.5726078   -105.64728   -21342.535    4.3641016    4.3641016    4.3641016   -21342.535   -27094.694   -35884.985   -1047.9269    6751.9159     8717.848   -15591.421    83.115985 
   65500    2057.2072    -107.5144    1.8614043   -105.65299   -31396.397     4.390392     4.390392     4.390392   -31396.397   -46365.841   -1463.9527   -46359.397     -22352.9   -27703.435    10374.526    84.627183 
   65600    1432.0229   -106.92923    1.2957244   -105.63351   -67556.785    4.3992607    4.3992607    4.3992607   -67556.785   -68630.577    -85460.23   -48579.546     54413.69    13947.724    -35829.72    85.141069 
   65700    2159.6342   -107.57565    1.9540824   -105.62157    5529.9881    4.3603491    4.3603491    4.3603491    5529.9881   -15977.525     22534.42     10033.07   -38292.723   -11285.173    25110.197    82.901768 
   65800     1868.288   -107.32763    1.6904662   -105.63717   -9101.9338    4.3465853    4.3465853    4.3465853   -9101.9338   -12524.789   -21616.215    6835.2028    26917.467   -25083.291    -18253.06    82.119184 
   65900    1468.8667   -107.00938    1.3290614   -105.68032    4119.8436     4.362219     4.362219     4.362219    4119.8436   -16804.769    40484.019   -11319.719    17193.127    31363.701   -21308.692    83.008465 
   66000    1969.8913   -107.44825     1.782399   -105.66585   -37755.808    4.3970461    4.3970461    4.3970461   -37755.808   -43031.754   -30458.889   -39776.781   -12263.135   -27720.602    7712.0702    85.012552 
   66100    1425.5493   -106.93879    1.2898669   -105.64892    -34811.63    4.3930723    4.3930723    4.3930723    -34811.63    -10691.13   -54136.976   -39606.784    26643.751     19683.67   -26593.805     84.78227 
   66200    2098.5834    -107.5365    1.8988424   -105.63766     28727.57    4.3503199    4.3503199    4.3503199     28727.57    24022.874    38307.913    23851.922   -1378.6403    27035.792    12270.668    82.331037 
   66300    1649.6133   -107.14241    1.4926048    -105.6498    42393.391    4.3384115    4.3384115    4.3384115    42393.391    5785.7835    61660.293    59734.098    15399.052   -27837.203   -16289.501    81.656773 
   66400    1102.7667   -106.70629   0.99780644   -105.70849    15726.994    4.3655474    4.3655474    4.3655474    15726.994    29873.388    7918.1143    9389.4811    15576.877    58698.389   -23942.136    83.198619 
   66500    2748.9325   -108.14185    2.4872919   -105.65456   -16661.135    4.3971366    4.3971366    4.3971366   -16661.135   -16255.415    -32174.24   -1553.7494   -5450.8388   -9000.5285    11131.528    85.017803 
   66600    1198.1591   -106.77252    1.0841196    -105.6884   -12484.347    4.3676914    4.3676914    4.3676914   -12484.347   -27177.151    31642.744   -41918.633    26326.861    39506.597    -11927.78    83.321262 
   66700    1701.9806   -107.18959    1.5399878   -105.64961     49564.67    4.3387083    4.3387083    4.3387083     49564.67    48531.736    46487.085    53675.189   -7634.7654    19587.372   -15368.163    81.673535 
   66800    2165.4865   -107.62465    1.9593777   -105.66528   -9175.8776    4.3600345    4.3600345    4.3600345   -9175.8776   -22863.695   -9919.5595    5255.6221    708.80355    13580.388    6664.0548    82.883825 
   66900    780.82641   -106.40105   0.70650814   -105.69454      822.551    4.3748488    4.3748488    4.3748488      822.551   -51796.673    31869.004    22395.322    17332.629    45586.929   -38686.538    83.731555 
   67000    2401.4607   -107.84803    2.1728921   -105.67513    5200.8205    4.3796567    4.3796567    4.3796567    5200.8205   -857.27146    4463.7492    11995.984   -18228.322   -23775.739    11406.793    84.007916 
   67100     1256.642   -106.80867    1.1370361   -105.67164    3193.6385    4.3754406    4.3754406    4.3754406    3193.6385   -43535.837    54330.534   -1213.7809    30984.604    49140.774   -19165.773    83.765538 
   67200    2121.3261   -107.55672    1.9194204    -105.6373    15643.295    4.3825759    4.3825759    4.3825759    15643.295   -4458.2742    45029.026    6359.1332   -6533.2431   -14446.627   -8968.9484    84.176009 
   67300    1540.5087   -107.04125    1.3938846   -105.64736   -10462.503    4.3776409    4.3776409    4.3776409   -10462.503    -50825.21    47287.839   -27850.138    25604.818    32087.572    4613.5393    83.891974 
   67400    1186.6676   -106.73504    1.0737218   -105.66132    6316.9383    4.3558975    4.3558975    4.3558975    6316.9383    26401.731    -20045.84    12594.923    38077.686    25434.868    -34659.23    82.648114 
   67500    2241.5463    -107.6867    2.0281982    -105.6585    21288.653    4.3696207    4.3696207    4.3696207    21288.653   -29465.779    38892.775    54438.963    -11259.74    25195.414    3472.8904    83.431726 
   67600    1165.8089   -106.71862    1.0548484   -105.66377   -12316.534    4.3994853    4.3994853    4.3994853   -12316.534   -13965.685   -23260.188    276.27082    24011.642    28046.471   -8571.7754    85.154111 
   67700    1989.0814   -107.40087    1.7997626   -105.60111   -26559.075    4.4106742    4.4106742    4.4106742   -26559.075    1716.0807   -57114.763   -24278.543    497.91539    4548.5605   -12125.151    85.805462 
   67800    1585.7287   -107.06086    1.4348007   -105.62606   -12696.852    4.3731411    4.3731411    4.3731411   -12696.852   -19310.775     499.0397   -19278.822    24716.328    58057.509   -8508.5109    83.633536 
   67900    1745.2412   -107.18802     1.579131   -105.60889    35479.655     4.320662     4.320662     4.320662    35479.655    50621.791    26604.423    29212.751    18092.319   -5892.8116   -53254.922    80.658636 
   68000     1925.663   -107.40216    1.7423803   -105.65978    42836.312    4.3374429    4.3374429    4.3374429    42836.312    46015.307    30592.639    51900.989   -13678.152    16957.383    26981.657    81.602097 
   68100    1087.2011   -106.67167    0.9837224   -105.68795   -27846.431    4.3894978    4.3894978    4.3894978   -27846.431   -9030.6149   -24580.838   -49927.839    46971.359    23860.209   -43197.757    84.575485 
   68200    2444.1498   -107.84023    2.2115181   -105.62871   -7725.6625    4.3972433    4.3972433    4.3972433   -7725.6625    5640.9966   -1791.6432   -27026.341   -29014.595    2290.6125    3725.3162    85.023994 
   68300    1010.7086   -106.55281   0.91451037    -105.6383    26154.856    4.3606911    4.3606911    4.3606911    26154.856    16913.605    25839.513    35711.449    39484.438    19193.041   -19833.069    82.921273 
   68400    2191.5591   -107.61667    1.9829688    -105.6337   -1696.6702    4.3492112    4.3492112    4.3492112   -1696.6702     17971.75   -4264.4745   -18797.286    1060.8525   -9308.6992   -32965.284    82.268105 
   68500    2151.3171   -107.60037     1.946557   -105.65381    42031.917    4.3492776    4.3492776    4.3492776    42031.917    31150.807    35301.887    59643.057     4738.764    13658.285    15751.733    82.271872 
   68600    969.53147   -106.57973   0.87725245   -105.70247    2410.9298    4.3708166    4.3708166    4.3708166    2410.9298    9506.8781   -2822.4611    548.37232    35412.463    9291.1607   -43569.767    83.500245 
   68700     2443.069   -107.85853    2.2105402   -105.64799   -23202.849    4.3941135    4.3941135    4.3941135   -23202.849   -31587.695   -1149.3362   -36871.517   -22857.355   -24112.934    12854.198    84.842567 
   68800    1275.5635   -106.79826    1.1541567    -105.6441    15925.722    4.3704546    4.3704546    4.3704546    15925.722    3420.1124    34066.112    10290.943    38568.946    29060.664   -11475.125    83.479499 
   68900    1805.8491   -107.26279    1.6339702   -105.62882    18501.933    4.3585719    4.3585719    4.3585719    18501.933    22494.139    18854.747    14156.914   -6598.8654   -13463.418   -29246.996    82.800442 
   69000    1694.4569   -107.17704    1.5331802   -105.64386    14710.759    4.3586367    4.3586367    4.3586367    14710.759   -37467.066    81562.599    36.743628    7368.4664    15913.219    17731.695    82.804133 
   69100    1301.3843    -106.8623    1.1775198   -105.68478    -16674.62    4.3640283    4.3640283    4.3640283    -16674.62   -7000.5935   -39466.029   -3557.2372    35640.501    5640.3058    -58073.69    83.111798 
   69200    2193.6978   -107.65561    1.9849038    -105.6707    11846.787    4.3724963    4.3724963    4.3724963    11846.787    7264.9679    26733.245    1542.1466   -23330.462   -16161.536    11998.871    83.596547 
   69300      1203.18   -106.76644    1.0886625   -105.67777    -14934.23    4.3725883    4.3725883    4.3725883    -14934.23    7379.6592   -21678.753   -30503.597    33490.534    27557.021   -18785.288    83.601829 
   69400    2090.8481   -107.53945    1.8918433   -105.64761   -11071.741    4.3798155    4.3798155    4.3798155   -11071.741    16460.501    -25376.19   -24299.534    8357.1921   -3225.4064   -34402.389    84.017052 
   69500    1905.1693   -107.36462    1.7238372   -105.64078   -8410.1931    4.3753994    4.3753994    4.3753994   -8410.1931   -28736.752    25219.175   -21713.002    3781.7666    11814.229    15903.613    83.763172 
   69600     1055.671   -106.62842   0.95519328   -105.67323   -16680.305    4.3651464    4.3651464    4.3651464   -16680.305   -7681.8648   -39313.881   -3045.1683    22706.432    11367.704   -59492.423    83.175694 
   69700    2530.4097   -107.94085    2.2895679   -105.65128    27430.963    4.3640085    4.3640085    4.3640085    27430.963   -19396.516    64807.692    36881.713    -2705.282   -9372.4866      27708.1    83.110669 
   69800    1143.6664   -106.72197    1.0348134   -105.68716   -32947.083    4.3704024    4.3704024    4.3704024   -32947.083    3161.0456   -59939.213   -42063.083    16678.841    30285.932   -59411.221    83.476508 
   69900     1583.167   -107.11809    1.4324827   -105.68561   -3202.3608    4.3625301    4.3625301    4.3625301   -3202.3608   -34570.419    20163.078    4800.2586    15153.504   -6548.7702   -7437.5525    83.026227 
   70000    2075.6678   -107.55552    1.8781079   -105.67741    211.60801    4.3659138    4.3659138    4.3659138    211.60801   -739.63979   -37367.744    38742.208    -1225.067     -18344.5   -25205.297    83.219568 
   70100    1341.7979   -106.88936    1.2140869   -105.67527   -34911.726    4.3814701    4.3814701    4.3814701   -34911.726   -25838.657   -58489.697   -20406.823     21639.78    16758.565   -40289.433    84.112309 
   70200    2208.2117   -107.65061    1.9980364   -105.65257   -11187.542    4.3760475    4.3760475    4.3760475   -11187.542   -46501.308     24375.65   -11436.967   -8509.4767   -48350.588    22264.352    83.800397 
   70300    1595.5575   -107.10691     1.443694   -105.66322   -6523.7649    4.3622491    4.3622491    4.3622491   -6523.7649    3811.2624   -30424.962    7042.4052    13475.739    12177.783   -45772.109    83.010184 
   70400      1814.28   -107.32199    1.6415987   -105.68039   -4966.5062    4.3512923    4.3512923    4.3512923   -4966.5062   -12112.785    9267.6417   -12054.375    11478.566    18213.329   -1662.1018    82.386256 
   70500    1641.7961   -107.17469    1.4855317   -105.68916    22616.147    4.3581298    4.3581298    4.3581298    22616.147   -5739.1666    3022.8556    70564.751   -17827.474   -30196.942    -2346.455    82.775244 
   70600    1783.0991   -107.29388    1.6133856   -105.68049   -19293.964    4.3803641    4.3803641    4.3803641   -19293.964   -18625.088   -13562.672    -25694.13    14631.773    43781.664   -28674.063    84.048629 
   70700    1465.2783   -106.99158    1.3258146   -105.66576   -12061.551     4.374877     4.374877     4.374877   -12061.551   -28731.681   -5544.2852   -1908.6864   -2955.0173    16118.684    16965.592    83.733174 
   70800     1875.138   -107.35408    1.6966642   -105.65741   -1560.7561    4.3584192    4.3584192    4.3584192   -1560.7561    9885.5734   -14085.099   -482.74303   -17235.547   -21411.885   -15635.978    82.791739 
   70900    1664.8842   -107.17391    1.5064222   -105.66748    3479.4503    4.3568356    4.3568356    4.3568356    3479.4503    -19767.18    40717.475   -10511.944    13089.046    76034.482   -4355.6731    82.701523 
   71000    2020.6688   -107.49774    1.8283436    -105.6694   -11885.522    4.3689537    4.3689537    4.3689537   -11885.522   -20149.454      10309.9    -25817.01   -8658.3005   -41556.335    11356.091    83.393522 
   71100    1074.6663   -106.65611   0.97238063   -105.68373    -22991.19    4.3785958    4.3785958    4.3785958    -22991.19   -51298.588    5883.2216   -23558.205   -13187.119    50512.402   -6333.1498    83.946883 
   71200    2510.6448   -107.92623    2.2716842   -105.65455   -3467.6511    4.3656412    4.3656412    4.3656412   -3467.6511     3331.535    9754.1965   -23488.685    25592.924    17459.582     9760.377    83.203982 
   71300    1403.0222   -106.93441     1.269484   -105.66493    15821.478    4.3598703    4.3598703    4.3598703    15821.478   -4180.7883    48599.089    3046.1346   -11622.209    21756.598    3610.3235    82.874461 
   71400     1476.093   -107.00464    1.3355999   -105.66904   -14804.504    4.3727365    4.3727365    4.3727365   -14804.504    5494.5394    446.37524   -50354.428    6775.1775    39181.654   -7484.2062    83.610326 
   71500    1778.9938   -107.26337     1.609671   -105.65369   -3962.2643    4.3740948    4.3740948    4.3740948   -3962.2643   -31676.422   -8629.9993    28419.628    19394.882    5817.0861     9764.776    83.688268 
   71600    1470.7017   -106.99075    1.3307218   -105.66002    28433.336    4.3652792    4.3652792    4.3652792    28433.336     35747.55    96323.542   -46771.086   -41113.301    41207.975     1957.402    83.183288 
   71700    1892.4448   -107.36751    1.7123239   -105.65519    17344.194    4.3666725    4.3666725    4.3666725    17344.194    32123.493    33259.521   -13350.431    25321.942   -11072.447   -6445.0073    83.262964 
   71800    1151.9559   -106.71761    1.0423139   -105.67529   -7338.0445    4.3681446    4.3681446    4.3681446   -7338.0445    -41841.72    39459.835   -19632.249     -12657.3    51917.252    8076.2116    83.347202 
   71900    2392.6604   -107.82346    2.1649294   -105.65853    3198.5982    4.3711643    4.3711643    4.3711643    3198.5982     24711.81   -960.66756   -14155.348    -20718.85   -6065.7537    7571.9934    83.520174 
   72000     1558.938   -107.08071    1.4105599   -105.67015   -23919.939    4.3743468    4.3743468    4.3743468   -23919.939   -50832.088    5108.7834   -26036.514    51905.031    38672.937   -1613.9722    83.702731 
   72100    1682.6668   -107.18005    1.5225123   -105.65753   -10726.622    4.3695726    4.3695726    4.3695726   -10726.622   -12074.184   -12299.942   -7805.7387   -41734.277    28632.344    9398.5051    83.428971 
   72200    1960.4626   -107.42869    1.7738678   -105.65482   -1748.1136    4.3676835    4.3676835    4.3676835   -1748.1136   -25176.594    43070.617   -23138.364    20753.277   -13535.083    7795.6477    83.320807 
   72300    1197.9033   -106.75926    1.0838881   -105.67537     22755.31    4.3616343    4.3616343    4.3616343     22755.31    36852.932    41556.411   -10143.413    26286.664    58000.228    2712.7326    82.975093 
   72400    2137.5957   -107.59672    1.9341415   -105.66258    3280.8049    4.3727958    4.3727958    4.3727958    3280.8049    1543.0078    17792.935   -9493.5284   -29342.329   -28350.094    22833.922    83.613731 
   72500    1116.3962   -106.67745    1.0101388   -105.66732   -23213.439    4.3813395    4.3813395    4.3813395   -23213.439   -44847.858    51042.286   -75834.745    16043.271    39883.409    3252.2705    84.104787 
   72600    2174.2428   -107.62312    1.9673006   -105.65582    473.98749    4.3626536    4.3626536    4.3626536    473.98749     7474.236   -30386.679    24334.405    11463.463    6988.4687    20346.667    83.033277 
   72700    1391.5201   -106.92917    1.2590766   -105.67009    4378.1599    4.3573634    4.3573634    4.3573634    4378.1599   -13936.231     72865.73    -45795.02   -7413.8525    9300.2849    9010.0835    82.731584 
   72800    1617.7438   -107.15249    1.4637686   -105.68873   -21736.904    4.3602261    4.3602261    4.3602261   -21736.904   -43694.924    3125.7102   -24641.497    23506.337    32413.452    4549.4507    82.894753 
   72900    1964.9537   -107.45909    1.7779314   -105.68116    13466.761    4.3671581    4.3671581    4.3671581    13466.761    45165.768    6076.4498   -10841.935    6995.9969   -4751.6854    17069.015    83.290745 
   73000    1572.7356   -107.11178    1.4230442   -105.68874   -17024.111    4.3679687    4.3679687    4.3679687   -17024.111   -23786.109    4916.3022   -32202.525   -6857.0907    32855.826    -1322.684    83.337135 
   73100    1844.6083   -107.34384    1.6690404    -105.6748    38341.738    4.3577355    4.3577355    4.3577355    38341.738    85219.191     34443.43   -4637.4073    28427.196   -7261.0944   -4606.3091    82.752779 
   73200    1582.4851   -107.11372    1.4318658   -105.68185   -26713.122    4.3589783    4.3589783    4.3589783   -26713.122   -5892.1759   -38192.745   -36054.445   -21813.178    30733.871    6673.3724    82.823605 
   73300    1591.0334   -107.12485    1.4396005   -105.68525    17624.254    4.3648549    4.3648549    4.3648549    17624.254    56555.764    27090.366   -30773.368    3977.0512   -4067.6377   -5736.3829    83.159036 
   73400    1799.8956   -107.31608    1.6285834    -105.6875    -22688.98    4.3702794    4.3702794    4.3702794    -22688.98    25295.628   -73188.291   -20174.276   -6710.8385    17.541247   -28811.056    83.469462 
   73500    1603.2379   -107.12979    1.4506434   -105.67915   -6631.9232    4.3637826    4.3637826    4.3637826   -6631.9232   -26769.932    39518.506   -32644.344    -21325.23    25775.142    12985.894    83.097762 
   73600    1793.9539   -107.30419    1.6232072   -105.68098   -13200.259     4.361365     4.361365     4.361365   -13200.259    6815.0075   -29248.049   -17167.736    25033.705   -15214.312   -40179.592    82.959724 
   73700    1758.5706   -107.27961    1.5911916   -105.68842   -9021.1935    4.3592514    4.3592514    4.3592514   -9021.1935    2157.3818    3838.9283   -33059.891   -14490.478    23766.088   -20059.422    82.839173 
   73800    1615.2036    -107.1535    1.4614701   -105.69203    -18041.57     4.363174     4.363174     4.363174    -18041.57   -42157.404    22062.002    -34029.31    -1651.003    21901.553    3895.4371    83.062995 
   73900    1489.7692   -107.03426    1.3479744   -105.68629   -33926.832    4.3662765    4.3662765    4.3662765   -33926.832   -10603.747   -56236.587    -34940.16    38571.846   -21729.421   -44602.344    83.240314 
   74000    1768.2942   -107.28343    1.5999898   -105.68344    5464.3725    4.3537078    4.3537078    4.3537078    5464.3725    240.18707    5175.9164    10977.014   -19586.575    53623.084    4814.4244    82.523539 
   74100    1640.7448   -107.17969    1.4845804   -105.69511   -18548.073    4.3602471    4.3602471    4.3602471   -18548.073    -4967.873    -39265.65   -11410.696    14118.477   -10766.355   -16119.178    82.895948 
   74200    1315.2821   -106.88776    1.1900949   -105.69766    -6635.033    4.3709836    4.3709836    4.3709836    -6635.033    23782.701   -44162.569    474.76927    30060.517   -10897.918   -17301.961    83.509817 
   74300    2280.0769   -107.74471    2.0630615   -105.68165   -142.30143    4.3603637    4.3603637    4.3603637   -142.30143    1135.2347   -17568.278    16006.139   -20608.734    31972.537     7017.949    82.902599 
   74400    1231.1823   -106.80894    1.1139996   -105.69494    14752.943    4.3552672    4.3552672    4.3552672    14752.943    54195.085   -45122.923    35186.667    21044.347   -15393.028   -29111.617    82.612241 
   74500    1984.3263   -107.48184    1.7954602   -105.68638   -19738.549    4.3663267    4.3663267    4.3663267   -19738.549   -10859.133   -21434.505   -26922.009     14352.07   -26251.162    15672.253    83.243184 
   74600    1713.6482   -107.23894    1.5505449    -105.6884     13698.09     4.362741     4.362741     4.362741     13698.09      35673.6   -22284.423    27705.094   -27185.957     23072.21   -19504.529    83.038271 
   74700    1562.9634   -107.10467    1.4142021   -105.69047    266.24307    4.3634136    4.3634136    4.3634136    266.24307   -8757.3208    25384.083   -15828.033    24689.607    -66470.29   -10317.999     83.07668 
   74800    2041.8177   -107.52456    1.8474796   -105.67708    10265.972    4.3693909    4.3693909    4.3693909    10265.972    23327.212   -23713.155    31183.858   -18382.627   -1570.5564    75.051652     83.41856 
   74900    1333.1132   -106.89069    1.2062288   -105.68446   -8802.8759    4.3661628    4.3661628    4.3661628   -8802.8759   -15864.218    3121.5295   -13665.939   -5056.6961   -26051.004     -24105.1    83.233809 
   75000    1378.8977   -106.93771    1.2476556   -105.69006   -2521.9378    4.3582437    4.3582437    4.3582437   -2521.9378   -26522.925    26216.824   -7259.7122    17037.959   -50342.964   -3055.0034    82.781735 
   75100    2479.9742   -107.92118    2.2439328   -105.67725     11057.03     4.366059     4.366059     4.366059     11057.03    52872.208   -21216.285    1515.1662   -15404.115    3303.0151   -8035.4094    83.227872 
   75200    1256.4327   -106.83452    1.1368467   -105.69767   -33988.699    4.3662716    4.3662716    4.3662716   -33988.699   -55612.384    14392.635   -60746.347    14538.947   -73838.227   -2712.2247    83.240035 
   75300    1605.2665    -107.1422    1.4524788   -105.68972   -16001.502    4.3636181    4.3636181    4.3636181   -16001.502   -42390.532   -35033.011    29419.037    7038.7229     43172.92   -7464.9077    83.088365 
   75400    1760.9806   -107.27316    1.5933723   -105.67979   -18762.533    4.3662637    4.3662637    4.3662637   -18762.533     8618.662   -22111.494   -42794.767    -32138.73   -45170.274    -5201.419    83.239582 
   75500    1742.2844   -107.25425    1.5764555   -105.67779   -10355.813    4.3601582    4.3601582    4.3601582   -10355.813   -14957.325   -34095.132    17985.018    42681.329   -11545.481   -7623.8119    82.890877 
   75600    1450.3399    -107.0039     1.312298    -105.6916   -4110.2287     4.363229     4.363229     4.363229   -4110.2287    11328.069   -50215.909    26557.154   -37228.777    12800.687    4111.9865    83.066141 
   75700    2249.8863   -107.70129    2.0357444   -105.66555   -28888.906    4.3802476    4.3802476    4.3802476   -28888.906    12080.869   -58717.597   -40029.989    2197.4875   -33972.246   -13404.676    84.041925 
   75800    1275.6418   -106.82304    1.1542275   -105.66881   -32427.657    4.3743243    4.3743243    4.3743243   -32427.657   -22404.025   -77930.439    3051.4934    16296.053    15889.367   -2494.4143     83.70144 
   75900    1585.9902   -107.11666    1.4350373   -105.68162   -430.87954    4.3504883    4.3504883    4.3504883   -430.87954    65.956842   -31590.615    30232.019   -51467.594    13579.466    2677.6761    82.340597 
   76000    2484.9218   -107.93082    2.2484095   -105.68241    38172.298    4.3401337    4.3401337    4.3401337    38172.298    100012.42   -9581.8095    24086.288    7389.3745   -17989.918   -10478.589    81.754062 
   76100    1042.2511   -106.66957   0.94305071   -105.72652   -39570.378     4.361102     4.361102     4.361102   -39570.378   -60269.076   -95890.583    37448.524   -56882.225    20233.971    3369.8277    82.944718 
   76200    1711.4064    -107.2449    1.5485165   -105.69639   -35575.691    4.3750253    4.3750253    4.3750253   -35575.691   -34244.659   -23600.322   -48882.094    23832.905   -14786.269   -2958.1066    83.741688 
   76300    1635.1597   -107.16788    1.4795269   -105.68835   -3667.6221    4.3641229    4.3641229    4.3641229   -3667.6221    22099.256   -20082.573   -13019.548   -40617.386    -35670.33     691.2771    83.117204 
   76400    2247.1723   -107.71998    2.0332887   -105.68669    4719.5685    4.3456264    4.3456264    4.3456264    4719.5685    11708.669   -7987.1316    10437.168   -1405.5319    24510.964    969.61139    82.064848 
   76500    959.48152   -106.59591   0.86815904   -105.72775    1724.8929    4.3507605    4.3507605    4.3507605    1724.8929    1506.3286    61884.117   -58215.767    24526.897   -58529.495   -1902.4791    82.356055 
   76600    2195.7055   -107.68178    1.9867205   -105.69506      12526.2    4.3725106    4.3725106    4.3725106      12526.2    53472.689    13939.143   -29833.232   -3215.6608    19240.133    5054.9692    83.597372 
   76700    1844.6377   -107.36546    1.6690669   -105.69639   -19555.512    4.3709464    4.3709464    4.3709464   -19555.512   -17214.656   -15707.351   -25744.531    32879.351   -47138.012    -4381.526    83.507683 
   76800    1170.5709   -106.75531    1.0591571   -105.69615   -32623.397    4.3702034    4.3702034    4.3702034   -32623.397   -68937.356    38545.977    -67478.81   -561.40267    26373.987   -4352.8718    83.465107 
   76900    1926.7712   -107.41596    1.7433831   -105.67258    21320.113     4.360754     4.360754     4.360754    21320.113    52733.498    23254.401   -12027.561   -31393.987    1969.7604    7146.1447    82.924864 
   77000    1829.1756   -107.33179    1.6550765   -105.67671    3101.3681    4.3659456    4.3659456    4.3659456    3101.3681   -7992.2365    23769.795   -6473.4543    24348.789   -15720.437    2965.1612    83.221389 
   77100    1208.1983   -106.77479    1.0932032   -105.68159   -61.554593    4.3746684    4.3746684    4.3746684   -61.554593    -4867.636    12430.583   -7747.6112   -29195.986    28499.512   -9128.1588    83.721192 
   77200    2272.8404    -107.7142    2.0565137   -105.65768   -11506.655    4.3810216    4.3810216    4.3810216   -11506.655    6930.6734   -25011.778   -16438.862   -15991.683   -8494.4424    4627.2117    84.086484 
   77300    1569.7957    -107.0706    1.4203841   -105.65022    20274.319    4.3744291    4.3744291    4.3744291    20274.319    70157.439    -24767.38    15432.897    -7840.214    26200.774    6603.2472    83.707456 
   77400    1277.2125   -106.81899    1.1556487   -105.66334   -32444.054    4.3782223    4.3782223    4.3782223   -32444.054   -36993.075   -81668.316    21329.227   -39848.156    3645.7512    -2279.083    83.925403 
   77500    2397.1168   -107.82012    2.1689617   -105.65116    24517.274    4.3659449    4.3659449    4.3659449    24517.274    82522.959   -4392.0737   -4579.0635    33194.691   -11644.168   -4236.9857     83.22135 
   77600    1561.5502   -107.09276    1.4129234   -105.67984    10322.177     4.350619     4.350619     4.350619    10322.177    22517.979   -13704.315    22152.867   -83049.298    26173.558    419.70319    82.348019 
   77700     1684.501   -107.21881    1.5241719   -105.69463    413.31264    4.3665848    4.3665848    4.3665848    413.31264   -13976.208    14771.597    444.54929    21039.622   -14839.874   -5327.5368    83.257947 
   77800    1457.1005   -107.00874    1.3184151   -105.69033   -10034.838    4.3793387    4.3793387    4.3793387   -10034.838    749.40416    1802.7958   -32656.714   -10033.675   -34985.268    6522.9588    83.989617 
   77900    1803.5578   -107.31906     1.631897   -105.68717    2566.0988    4.3631654    4.3631654    4.3631654    2566.0988   -9403.6244    45086.098   -27984.177   -40274.001    41006.669   -6564.5349    83.062504 
   78000    1561.7297   -107.10357    1.4130859   -105.69049    27426.649     4.351089     4.351089     4.351089    27426.649    53576.809    42732.914   -14029.777    30179.294   -34074.581    9446.0006    82.374708 
   78100    1898.1284   -107.41342    1.7174665   -105.69595    2117.1027    4.3630702    4.3630702    4.3630702    2117.1027    20778.067   -4237.8861   -10188.872   -898.07444    3250.6566   -8399.6275    83.057071 
   78200    1558.8621   -107.10948    1.4104912   -105.69899    468.93601    4.3702578    4.3702578    4.3702578    468.93601    32291.619     24518.16   -55402.972   -19898.844    17569.988   -14485.221    83.468221 
   78300    1429.6002   -106.99209    1.2935323   -105.69855   -371.75672    4.3697079    4.3697079    4.3697079   -371.75672    12363.174   -9014.3005   -4464.1435      49690.3   -36048.062    10999.671     83.43672 
   78400    2281.5301   -107.74186    2.0643764   -105.67749    11279.388    4.3585765    4.3585765    4.3585765    11279.388    30558.174   -30672.146    33952.135     4431.454    15490.167   -9594.2907    82.800704 
   78500    1424.7819   -106.98201    1.2891726   -105.69284   -10415.459    4.3600902    4.3600902    4.3600902   -10415.459    -12842.49    10465.717   -28869.605    636.13328    -27195.22   -5787.2706    82.886999 
   78600    1202.7322   -106.78813    1.0882574   -105.69988   -29931.965    4.3757244    4.3757244    4.3757244   -29931.965   -49730.256   -48529.599    8463.9606    47601.224   -18256.601    4588.5532    83.781839 
   78700    2640.2883   -108.05761    2.3889883   -105.66862    13005.616    4.3668818    4.3668818    4.3668818    13005.616    42544.848    6836.2332   -10364.232   -24327.923   -3842.5085   -107.42589    83.274937 
   78800    1177.3896   -106.76887    1.0653268   -105.70354   -15783.938    4.3623281    4.3623281    4.3623281   -15783.938   -51298.752   -8107.5943    12054.531    52077.183   -51635.666    388.27389    83.014695 
   78900    1583.0977   -107.13147      1.43242   -105.69905   -7471.5446    4.3505428    4.3505428    4.3505428   -7471.5446   -50552.573   -8951.2397    37089.179   -8588.0074    692.17508    17556.429    82.343693 
   79000    1951.6851   -107.47426    1.7659257   -105.70833    4160.6177    4.3623468    4.3623468    4.3623468    4160.6177    33803.779   -14678.704    -6643.222    -16278.48    20814.854   -12344.885    83.015763 
   79100    1857.2172   -107.38158    1.6804492   -105.70113    -24264.87     4.378719     4.378719     4.378719    -24264.87   -43759.369   -25050.422   -3984.8202    28829.848    -27444.69    13371.941    83.953967 
   79200    924.13675   -106.53875   0.83617835   -105.70257    19135.653    4.3621259    4.3621259    4.3621259    19135.653    38944.871   -2896.6309    21358.719   -35760.307    27511.232     4395.868     83.00315 
   79300    2378.4567   -107.84098    2.1520776    -105.6889   -4728.9267    4.3613027    4.3613027    4.3613027   -4728.9267    20896.147    -4344.114   -30738.813   -14385.803    26260.343   -6845.8314     82.95617 
   79400    1889.7813   -107.40528    1.7099139   -105.69537    36331.543    4.3600075    4.3600075    4.3600075    36331.543    72615.255    7896.5744      28482.8   -5693.7749   -13237.543    5973.5171    82.882282 
   79500    751.80573   -106.38962   0.68024962   -105.70937   -28094.452    4.3742503    4.3742503    4.3742503   -28094.452   -73431.032   -15601.838    4749.5141   -32679.499    33880.574   -623.79322    83.697195 
   79600    2422.9855   -107.87574    2.1923682   -105.68337   -6369.1668    4.3690274    4.3690274    4.3690274   -6369.1668   -1399.5488   -14217.922   -3490.0293    24877.734   -17492.938   -4718.7341    83.397742 
   79700    1629.1413   -107.16622    1.4740813   -105.69214    38558.753    4.3509642    4.3509642    4.3509642    38558.753    26625.478    31863.988    57186.794    -30483.24    28606.689    4738.8926    82.367624 
   79800    1302.6517   -106.87942    1.1786666   -105.70076   -14919.765    4.3576163    4.3576163    4.3576163   -14919.765   -40146.276   -14121.954    9508.9349     12388.43    15207.182   -1259.0338    82.745993 
   79900    1806.8776    -107.3301    1.6349009    -105.6952    8432.1889    4.3668065    4.3668065    4.3668065    8432.1889   -15074.444   -7489.5081    47860.519    33930.255   -17642.551    5687.2629    83.270626 
   80000     2201.911   -107.68582    1.9923353   -105.69348   -2967.4138     4.371625     4.371625     4.371625   -2967.4138    16823.418   -18489.609   -7236.0504   -18471.985    30578.226    1779.7978    83.546587 
   80100    1089.5944   -106.69807   0.98588792   -105.71218    6316.2863    4.3575722    4.3575722    4.3575722    6316.2863   -1086.2564   -7537.9987    27573.114    35480.046   -8423.8994    4502.6152    82.743477 
   80200    1723.1836   -107.26666    1.5591727   -105.70748    12074.929    4.3555787    4.3555787    4.3555787    12074.929    2803.4806    32503.255    918.05183    374.49582    -31723.45   -7802.9609    82.629969 
   80300    2496.9053   -107.93872    2.2592524   -105.67947    2040.8992    4.3737351    4.3737351    4.3737351    2040.8992    40645.385   -28154.213   -6368.4743    18804.889     13906.95    10244.481     83.66762 
   80400    828.66434   -106.45342    0.7497929   -105.70362   -20435.919    4.3754395    4.3754395    4.3754395   -20435.919   -29263.097    16654.329   -48698.988    16130.014   -61828.572   -2146.4596    83.765476 
   80500    1907.2396   -107.41341    1.7257105    -105.6877   -1036.4277    4.3659041    4.3659041    4.3659041   -1036.4277   -24515.092     12375.56     9030.249   -2898.1082    33167.464    5842.5659    83.219017 
   80600    2001.7691    -107.4916    1.8112427   -105.68036    11636.772     4.355956     4.355956     4.355956    11636.772    15065.841    51845.501   -32001.026   -2533.1687   -27244.491   -5853.9272    82.651444 
   80700     1445.077   -107.00341    1.3075361   -105.69588   -2287.0223    4.3566475    4.3566475    4.3566475   -2287.0223   -6150.0829    19334.145   -20045.129    13826.157   -23275.184    9239.7524    82.690813 
   80800    1082.3676   -106.69598   0.97934898   -105.71663   -17237.779    4.3708987    4.3708987    4.3708987   -17237.779   -57925.642    18315.076   -12102.771   -25577.637    49392.747    10450.191     83.50495 
   80900    2730.8972   -108.15079    2.4709732   -105.67982   -2577.2467    4.3773466    4.3773466    4.3773466   -2577.2467    28656.262   -5938.4208   -30449.582   -13252.591    -32233.21    627.89931    83.875052 
   81000    1013.0675   -106.60292   0.91664475   -105.68627   -11710.599    4.3802122    4.3802122    4.3802122   -11710.599   -12950.949    13808.529   -35989.377   -8243.3029    36105.956   -1694.5427    84.039885 
   81100    1545.7608   -107.07032    1.3986369   -105.67169   -22959.673    4.3758701    4.3758701    4.3758701   -22959.673   -20796.768   -39137.268   -8944.9837   -39658.117    1537.7259    12662.049    83.790204 
   81200    2525.7929   -107.94488    2.2853905   -105.65949    29989.815    4.3594348    4.3594348    4.3594348    29989.815    34671.405    41800.187    13497.852   -2926.7066   -21057.636   -5143.5786    82.849629 
   81300    1404.4037   -106.96272    1.2707339   -105.69199    19667.932     4.361826     4.361826     4.361826    19667.932    59852.071   -43889.412    43041.137   -40318.094    16184.981    11326.693    82.986033 
   81400    1417.0037   -106.97846    1.2821347   -105.69633   -44655.949    4.3829333    4.3829333    4.3829333   -44655.949   -59225.113   -14176.473   -60566.261    6340.5885   -47596.236   -2225.5966    84.196608 
   81500    2305.4887   -107.75746    2.0860546   -105.67141     -1285.17    4.3727165    4.3727165    4.3727165     -1285.17    36114.991   -19267.891    -20702.61    12978.167   -1384.2328    4211.5733    83.609179 
   81600    1881.5371   -107.36996    1.7024543   -105.66751   -21561.631     4.371701     4.371701     4.371701   -21561.631   -26513.454   -20829.271   -17342.168   -19688.681   -27194.003    6295.9969    83.550944 
   81700    1140.6891   -106.70817    1.0321195   -105.67605   -45594.912    4.3763336    4.3763336    4.3763336   -45594.912   -95106.615   -3659.8282   -38018.293    41679.196   -31257.403    -4047.995    83.816835 
   81800    2586.4254   -108.00101     2.340252   -105.66076    9367.8716    4.3628906    4.3628906    4.3628906    9367.8716    13805.686    17079.766   -2781.8366   -10839.163    33492.844    -1900.793     83.04681 
   81900    1474.4373   -107.01657    1.3341019   -105.68247   -32244.465    4.3757964    4.3757964    4.3757964   -32244.465   -59209.479   -11035.058   -26488.858    18558.769   -49002.204   -5301.9794    83.785976 
   82000    1279.5506   -106.84769    1.1577643   -105.68993   -38371.042    4.3701618    4.3701618    4.3701618   -38371.042   -61167.753   -25179.279   -28766.093    26465.147    39282.379   -6381.9791    83.462723 
   82100    2318.8799   -107.77851    2.0981713   -105.68034    31770.733    4.3592172    4.3592172    4.3592172    31770.733    49123.024    18245.546     27943.63   -16459.619   -7955.8391   -940.25239    82.837219 
   82200     1772.594   -107.30547    1.6038803   -105.70159   -295.27577    4.3624482    4.3624482    4.3624482   -295.27577   -8237.1277    2900.4633    4450.8371    34338.269   -8147.4153   -19778.488    83.021552 
   82300    971.02963   -106.58899   0.87860802   -105.71038    10279.853    4.3629007    4.3629007    4.3629007    10279.853    28073.529   -28385.712    31151.744   -19906.239    33797.807    7423.9852    83.047392 
   82400    2128.3619   -107.61748    1.9257866   -105.69169    11578.582    4.3758785    4.3758785    4.3758785    11578.582    17886.289    23206.955   -6357.4993   -20160.658   -27898.348    2106.0572    83.790691 
   82500    2050.5183    -107.5401    1.8553521   -105.68475   -4359.2176    4.3688242    4.3688242    4.3688242   -4359.2176    13754.681   -13186.547   -13645.786    21576.397    30920.659   -10351.694    83.386111 
   82600    1145.4329   -106.73109    1.0364118   -105.69468    4692.2882    4.3535564    4.3535564    4.3535564    4692.2882   -11289.756   -4453.4733    29820.094   -49622.246     4837.283    7060.9758    82.514927 
   82700    2237.5315    -107.7162    2.0245656   -105.69163    12680.757    4.3594844    4.3594844    4.3594844    12680.757    28164.859    27842.847   -17965.434    1354.6031   -42885.126     11646.09    82.852454 
   82800    1779.4359   -107.30837     1.610071    -105.6983    17394.694    4.3760977    4.3760977    4.3760977    17394.694   -3972.2716    3395.8011    52760.551   -24843.893    39457.706    -7362.521    83.803282 
   82900    961.19878   -106.56765   0.86971286   -105.69794   -36476.861    4.3809181    4.3809181    4.3809181   -36476.861   -35845.853   -5818.1373   -67766.593   -30052.993   -50343.941    7496.9949    84.080523 
   83000    2148.8204   -107.61526    1.9442979   -105.67096    13319.468    4.3563809    4.3563809    4.3563809    13319.468     55136.45    12248.303    -27426.35    3749.1574   -7687.9061     22330.69    82.675635 
   83100    1828.4046   -107.33352    1.6543789   -105.67914    13118.855    4.3554185    4.3554185    4.3554185    13118.855   -25602.222    56974.701     7984.088   -22747.263    -21186.88   -1169.8258    82.620851 
   83200    1006.0626     -106.605   0.91030662    -105.6947   -28773.131    4.3748911    4.3748911    4.3748911   -28773.131   -60905.637    35522.807   -60936.563   -7189.7367   -43613.472    25172.631    83.733984 
   83300    2014.1546   -107.48531    1.8224494   -105.66286    3440.0576    4.3761769    4.3761769    4.3761769    3440.0576    -7054.603    14311.898     3062.878    27922.399    13342.177    13173.978    83.807832 
   83400    1659.2693   -107.16929    1.5013417   -105.66795   -38542.796    4.3827299    4.3827299    4.3827299   -38542.796   -76780.398    -11900.15    -26947.84   -31777.615    -51545.46   -3742.6944    84.184887 
   83500    1708.1998   -107.21429    1.5456151   -105.66868   -15380.105    4.3650575    4.3650575    4.3650575   -15380.105    -7625.431   -30740.183   -7774.7016    8228.8924   -10538.164     36192.02    83.170614 
   83600     1780.619    -107.2753    1.6111415   -105.66416    22485.932    4.3465825    4.3465825    4.3465825    22485.932   -21688.152    14374.885    74771.063   -1568.7613   -6387.6775    -9647.013    82.119022 
   83700    1352.1003   -106.91343    1.2234088   -105.69002   -49071.033    4.3738892    4.3738892    4.3738892   -49071.033   -71635.898    -38187.52   -37389.681   -37767.905   -36822.599    20290.622    83.676466 
   83800    2358.9886   -107.78745    2.1344625   -105.65299    7061.5408     4.377011     4.377011     4.377011    7061.5408    14618.095   -4633.0979    11199.625    16697.617    12438.277    26448.199    83.855764 
   83900    1553.6823   -107.06546    1.4058044   -105.65966    -27580.01    4.3831816    4.3831816    4.3831816    -27580.01   -74688.382   -7268.9912   -782.65613   -35646.034   -16460.261     3588.895    84.210917 
   84000    1613.4763   -107.11828    1.4599073   -105.65837   -33795.659    4.3674248    4.3674248    4.3674248   -33795.659    20730.426   -77487.004   -44630.398    12592.796    1833.5751    35494.761    83.306002 
   84100    1837.1302   -107.31492     1.662274   -105.65265    40859.064    4.3412619    4.3412619    4.3412619    40859.064    1704.0837    68989.163    51883.945    15728.112    12423.041   -11756.768    81.817833 
   84200    2052.3077   -107.53432    1.8569711   -105.67735   -12048.084    4.3659136    4.3659136    4.3659136   -12048.084    10552.224   -3132.0673   -43564.409    -10378.57   -10042.351    32575.767    83.219561 
   84300    1449.1852   -106.99344    1.3112532   -105.68219   -4315.6111    4.3744401    4.3744401    4.3744401   -4315.6111    6159.2965   -17925.196   -1180.9339    33436.338    414.97195    4007.7133    83.708088 
   84400     1758.512   -107.25675    1.5911386   -105.66561    1115.4016    4.3822606    4.3822606    4.3822606    1115.4016   -720.28872    26397.044    -22330.55   -7482.7907    18347.987   -474.29463    84.157845 
   84500    1800.3202   -107.28968    1.6289675   -105.66071   -19109.369    4.3732795    4.3732795    4.3732795   -19109.369    25858.401    -45364.86   -37821.649   -1047.1098   -10570.148    55911.318    83.641478 
   84600     1646.929    -107.1405     1.490176   -105.65032    41286.748    4.3407755    4.3407755    4.3407755    41286.748    33131.405    54628.359    36100.479     34174.03    37985.448   -24844.768    81.790335 
   84700     1768.334   -107.27361    1.6000258   -105.67358    -2807.469    4.3613324    4.3613324    4.3613324    -2807.469    23118.882   -2842.3792    -28698.91   -23657.819    5436.1958     30123.03    82.957867 
   84800    2008.0625   -107.47926    1.8169372   -105.66233   -13734.278    4.3771119    4.3771119    4.3771119   -13734.278   -2995.8214    -20954.17   -17252.843    18900.098   -6895.8105    10451.366    83.861562 
   84900    1394.1624   -106.91984    1.2614675   -105.65838    4642.2901    4.3781953    4.3781953    4.3781953    4642.2901    26472.567    41685.511   -54231.208    4375.5434      46483.1   -8913.7021    83.923848 
   85000    1674.4827   -107.15876    1.5151072   -105.64365   -9528.1259    4.3784138    4.3784138    4.3784138   -9528.1259   -16350.414     32549.02   -44782.984    15640.555   -34666.663    21250.879    83.936413 
   85100    1854.6636   -107.32143    1.6781386   -105.64329   -7332.6485    4.3615052    4.3615052    4.3615052   -7332.6485   -14004.202    7660.2916   -15654.035    20679.026    29634.826   -12963.858    82.967724 
   85200    1928.0526   -107.39154    1.7445425     -105.647   -4183.2385    4.3714722    4.3714722    4.3714722   -4183.2385   -2350.1848    48686.462   -58885.993   -10926.501   -9353.2155   -6921.8671    83.537825 
   85300    1353.3184   -106.87669    1.2245109   -105.65218   -39737.782    4.3874736    4.3874736    4.3874736   -39737.782   -65266.192   -19070.552   -34876.603    44996.809   -24167.252    4647.1385    84.458533 
   85400    2262.7154   -107.67075    2.0473524    -105.6234   -14714.024    4.3809684    4.3809684    4.3809684   -14714.024    4234.3675   -9929.2447   -38447.194   -4357.5262    19775.584   -10097.383    84.083416 
   85500    1092.9216   -106.62616   0.98889844   -105.63726   -38890.795    4.3809596    4.3809596    4.3809596   -38890.795   -56577.091    625.26145   -60720.556    9285.5311   -48214.595   -704.81084    84.082911 
   85600    2433.5222   -107.82398     2.201902   -105.62208    -5732.453    4.3748857    4.3748857    4.3748857    -5732.453   -22614.465   -27716.769    33133.875    38624.797      14050.7    11011.732    83.733671 
   85700    1587.7369   -107.10004    1.4366177   -105.66342    -10741.96    4.3587878    4.3587878    4.3587878    -10741.96   -15473.153    5785.9374   -22538.665   -18585.757   -52651.694   -14915.273    82.812748 
   85800    1464.0897   -107.00846    1.3247391   -105.68372   -8415.0269    4.3513395    4.3513395    4.3513395   -8415.0269    -3481.909   -14363.577    -7399.595    33938.569   -5952.2017    11855.022    82.388941 
   85900     2111.107   -107.59493    1.9101739   -105.68476   -8370.1204    4.3743993    4.3743993    4.3743993   -8370.1204   -37336.588    7230.2849    4995.9417   -10958.091    17039.805   -14203.983    83.705748 
   86000     1518.359   -107.04649    1.3738431   -105.67264   -24847.779    4.3894138    4.3894138    4.3894138   -24847.779   -19466.851   -9702.7819   -45373.703   -3358.1893   -36498.369   -3506.9129    84.570633 
   86100    1397.9419   -106.94338    1.2648872   -105.67849   -22720.399    4.3642579    4.3642579    4.3642579   -22720.399   -47394.576    37288.079   -58054.702     6177.684    61076.869    6597.3949    83.124915 
   86200    2144.5793   -107.60321    1.9404604   -105.66275    53294.077    4.3428942    4.3428942    4.3428942    53294.077   -1990.8246    107923.53    53949.524   -5719.5901   -8815.9434     -21140.3    81.910155 
   86300    1303.9576   -106.88613    1.1798482   -105.70628    10256.343    4.3556035    4.3556035    4.3556035    10256.343   -37431.643    75011.357   -6810.6854    -13875.03    49330.351    9631.5461    82.631382 
   86400     1415.768   -106.97997    1.2810167   -105.69895   -7819.1575    4.3839616    4.3839616    4.3839616   -7819.1575   -20507.292    10948.281   -13898.461    6112.0148    3359.0814    9763.2809    84.255881 
   86500    2113.8553   -107.57355    1.9126607   -105.66089   -5823.9048      4.38535      4.38535      4.38535   -5823.9048   -38127.033    15631.387    5023.9308   -8425.7089     11148.99   -7052.1511    84.335958 
   86600    1843.4849    -107.3343    1.6680239   -105.66627    2333.5849    4.3565548    4.3565548    4.3565548    2333.5849   -17784.368    11296.283    13488.839   -9393.4008    38084.361    10592.849    82.685534 
   86700    1099.2645   -106.67167   0.99463764   -105.67704    32188.821    4.3388803    4.3388803    4.3388803    32188.821    43818.721    35393.256    17354.488    1144.4781   -36266.067    31251.908    81.683249 
   86800     2216.764   -107.70255    2.0057747   -105.69678    16538.229     4.366943     4.366943     4.366943    16538.229   -12951.834    48759.925    13806.596   -24396.045    15384.582   -17243.324     83.27844 
   86900    1256.0695   -106.82024    1.1365181   -105.68372   -1736.0437    4.3974397    4.3974397    4.3974397   -1736.0437   -27041.371     43124.13    -21290.89    10555.332    -17044.98    41517.675    85.035386 
   87000     1524.194   -107.03423    1.3791228   -105.65511   -9799.3679    4.3884894    4.3884894    4.3884894   -9799.3679   -20588.843   -7936.0204   -873.24061   -11979.887   -3882.7596   -26891.899    84.517211 
   87100    2236.3111   -107.67129    2.0234612   -105.64783   -4963.6688    4.3521095    4.3521095    4.3521095   -4963.6688   -10775.978   -18787.731    14672.703    1565.7428    2742.8746    18700.429    82.432682 
   87200    1371.5799   -106.91604    1.2410343   -105.67501    19130.287    4.3363191    4.3363191    4.3363191    19130.287    14591.377    82130.773   -39331.291    5849.7748    -33655.01    12802.095    81.538682 
   87300    2167.5154   -107.65494    1.9612134   -105.69373      6825.16    4.3629043    4.3629043    4.3629043      6825.16     3683.175     40583.66   -23791.355   -4708.2729    25884.119    -25118.18    83.047592 
   87400    923.31063   -106.54496   0.83543086   -105.70953   -18398.861    4.3866316    4.3866316    4.3866316   -18398.861   -29741.744    28928.298   -54383.136     11050.99   -15443.715    31913.057    84.409922 
   87500    1745.7597   -107.26681    1.5796001   -105.68721   -20901.318    4.3821778    4.3821778    4.3821778   -20901.318   -3504.7158   -3763.2337   -55436.003    10363.527   -8112.7387      20244.8    84.153074 
   87600    2125.3234   -107.59914    1.9230372    -105.6761    26544.367      4.34389      4.34389      4.34389    26544.367    23160.594     63360.64   -6888.1332   -5214.0654    16358.095   -7333.6544    81.966515 
   87700    1184.4607   -106.76699     1.071725   -105.69526   -4665.3659    4.3409659    4.3409659    4.3409659   -4665.3659    11778.904    4755.7126   -30530.714    12001.759   -48250.013    55353.313    81.801096 
   87800    2376.8659   -107.83781    2.1506382   -105.68717   -8925.5645     4.376845     4.376845     4.376845   -8925.5645   -4359.0433    -29978.44    7560.7901    2174.8377    7664.0214   -1373.6432    83.846225 
   87900    1683.6535   -107.20801    1.5234051   -105.68461   -23556.574    4.3829409    4.3829409    4.3829409   -23556.574   -22084.249    20610.348   -69195.822    1693.2953   -38949.095    12074.002    84.197044 
   88000    1041.9001   -106.63329   0.94273312   -105.69056    12547.229    4.3523059    4.3523059    4.3523059    12547.229    29852.795    46945.751   -39156.859     19112.55    -2238.761    27626.076    82.443847 
   88100     2266.044   -107.71828    2.0503642   -105.66791    45998.285    4.3477063    4.3477063    4.3477063    45998.285    13544.714    118572.74    5877.4012    904.24144   -3422.4115   -22353.635    82.182734 
   88200    1534.3405   -107.08459    1.3883035   -105.69628   -19314.239    4.3624166    4.3624166    4.3624166   -19314.239    18976.586   -44030.485   -32888.818    2623.1915   -16320.604      53823.6    83.019751 
   88300    1259.2845   -106.83852    1.1394271   -105.69909   -13788.791    4.3681156    4.3681156    4.3681156   -13788.791   -11405.278    786.94539   -30748.039    1884.5295    24589.285   -18233.642    83.345543 
   88400    2274.7247   -107.72796    2.0582188   -105.66974   -1753.0427    4.3703009    4.3703009    4.3703009   -1753.0427    25763.002    20248.827   -51270.957   -6728.5979    620.68485    39666.336    83.470694 
   88500    1436.5922   -106.96329    1.2998588   -105.66343   -18208.806    4.3726569    4.3726569    4.3726569   -18208.806    2601.0869   -13073.813   -44153.692    7162.6166    11685.117    24072.244    83.605758 
   88600    1137.9546   -106.69409    1.0296453   -105.66444   -1404.0032    4.3613409    4.3613409    4.3613409   -1404.0032    26463.597    18777.535   -49453.142   -5071.8735    17272.393   -16575.091     82.95835 
   88700    2201.5931   -107.64626    1.9920477   -105.65421    27200.253     4.346966     4.346966     4.346966    27200.253     81440.38    16195.158    -16034.78    2920.5208   -8830.5062    51098.951    82.140763 
   88800    1336.1999    -106.8871    1.2090217   -105.67808   -14217.395    4.3596865    4.3596865    4.3596865   -14217.395    4347.7728    23983.818   -70983.776      2270.42    35560.558   -50178.964    82.863979 
   88900    1444.2097   -106.98954    1.3067513   -105.68279   -19200.498     4.365336     4.365336     4.365336   -19200.498   -21691.925     13762.65   -49672.218    10739.259   -6671.9306    24656.214    83.186534 
   89000    2022.6351   -107.50306    1.8301228   -105.67294   -9094.8956    4.3621389    4.3621389    4.3621389   -9094.8956    41627.277   -34034.413    -34877.55    -30499.24    8567.7654   -22741.378    83.003896 
   89100    1625.0641   -107.14465    1.4703922   -105.67426   -9896.1062    4.3623973    4.3623973    4.3623973   -9896.1062   -2029.9816     40821.44   -68479.777    16856.946    16774.543   -17383.287    83.018644 
   89200    1522.2082   -107.04904     1.377326   -105.67171   -2704.4267    4.3611847    4.3611847    4.3611847   -2704.4267   -26318.862   -18984.733    37190.315    -33079.51   -5831.6983    12654.815    82.949434 
   89300    1823.3689   -107.32239    1.6498225   -105.67257   -18304.258    4.3598108    4.3598108    4.3598108   -18304.258    6316.6725   -35135.749   -26093.698   -14736.975    5918.0987   -37684.225    82.871066 
   89400    1928.4989   -107.41736    1.7449463   -105.67241   -3186.0969    4.3620517    4.3620517    4.3620517   -3186.0969   -1110.4417    4041.9189   -12489.768   -437.23771   -9947.9821    33543.138    82.998919 
   89500     1208.525     -106.776    1.0934988   -105.68251   -11632.143    4.3612978    4.3612978    4.3612978   -11632.143   -12677.679   -54160.551    31941.802   -49554.935    4047.2743   -33804.909    82.955893 
   89600    2021.8169    -107.4967    1.8293825   -105.66732    3099.4605    4.3536441    4.3536441    4.3536441    3099.4605    33175.735   -10724.212   -13153.141    22615.795   -10242.867    11152.718    82.519916 
   89700    1655.1461   -107.16909     1.497611   -105.67148   -26052.024    4.3637956    4.3637956    4.3637956   -26052.024   -5843.5434   -55159.696   -17152.833   -32340.453   -10699.125     24227.18      83.0985 
   89800    1695.0766   -107.20084    1.5337409    -105.6671     4483.164    4.3651809    4.3651809    4.3651809     4483.164    12461.065   -25258.405    26246.833   -22487.698    9319.3859   -32155.569    83.177669 
   89900    1660.3635    -107.1715    1.5023318   -105.66917   -1089.7316    4.3598639    4.3598639    4.3598639   -1089.7316    51307.801   -29062.154   -25514.842    4473.5824   -25951.996    51643.089    82.874093 
   90000    1911.7812   -107.39934    1.7298198   -105.66952   -8257.9112    4.3577152    4.3577152    4.3577152   -8257.9112   -20937.917   -23242.557    19406.741   -52059.814    1740.1366   -25947.141    82.751627 
   90100    1746.0497   -107.24626    1.5798624    -105.6664    9327.8142    4.3613825    4.3613825    4.3613825    9327.8142    50561.336   -25951.429    3373.5352    10391.489   -5168.8922    27604.807    82.960721 
   90200    1699.3098   -107.20373    1.5375713   -105.66616   -13209.885    4.3636125    4.3636125    4.3636125   -13209.885   -11863.576     -38697.7     10931.62   -37184.431   -12223.955     15179.92    83.088046 
   90300    1792.1535   -107.28887    1.6215781   -105.66729    8735.7186    4.3599205    4.3599205    4.3599205    8735.7186    289.53858    7409.2235    18508.394    -22322.02    -3574.891    4053.4847     82.87732 
   90400    1749.9693   -107.25466     1.583409   -105.67125    3502.2641    4.3549188    4.3549188    4.3549188    3502.2641    35973.393   -53220.708    27754.107   -1367.0509    4049.4143     31485.51    82.592421 
   90500    1675.5626   -107.19325    1.5160843   -105.67717     12742.49    4.3565989    4.3565989    4.3565989     12742.49   -28112.404   -12429.955     78769.83   -54076.152   -10377.694   -13662.631    82.688047 
   90600    1769.0211   -107.27467    1.6006474   -105.67402    2839.7805    4.3625729    4.3625729    4.3625729    2839.7805    34839.858   -37540.175    11219.658    19518.907    1002.3353     38088.07    83.028671 
   90700    1463.4744   -106.99381    1.3241824   -105.66963    3331.1844    4.3623655    4.3623655    4.3623655    3331.1844    5753.0594   -42377.546    46618.039   -62316.721    5099.3729   -19887.635    83.016832 
   90800    2115.3253   -107.56242    1.9139908   -105.64843   -3189.4508    4.3701089    4.3701089    4.3701089   -3189.4508    10546.453   -35757.285    15642.479    16055.236   -5995.4929    29692.932     83.45969 
   90900    1378.9695   -106.90738    1.2477206   -105.65966   -23538.808    4.3608112    4.3608112    4.3608112   -23538.808   -18323.832   -41396.409   -10896.183   -53337.766    13800.846    11839.439    82.928129 
   91000    2056.2163   -107.50972    1.8605078   -105.64921    13371.921    4.3479427    4.3479427    4.3479427    13371.921    3610.7069     273.6658    36231.389   -4489.2925    3543.2988   -25941.676    82.196145 
   91100    1399.8014   -106.92787    1.2665697    -105.6613   -9652.0643    4.3615104    4.3615104    4.3615104   -9652.0643   -19398.783   -52969.873    43412.463   -10667.363     6600.706    24863.433     82.96802 
   91200    1720.4121   -107.21187     1.556665   -105.65521    -13424.24    4.3690264    4.3690264    4.3690264    -13424.24   -38634.853   -21824.098     20186.23   -55836.678    1623.9441   -9446.0167    83.397689 
   91300    2176.3048   -107.61478    1.9691664   -105.64561   -11049.995    4.3692564    4.3692564    4.3692564   -11049.995    -24074.79   -31922.524    22847.329    30821.169    4191.0378    257.66526    83.410856 
   91400    916.36442   -106.50353   0.82914578   -105.67438   -8571.1646    4.3496086    4.3496086    4.3496086   -8571.1646   -43480.529   -50139.524    67906.559   -89391.201    7195.4189    16292.733    82.290657 
   91500    2484.7404   -107.89946    2.2482453   -105.65121    36588.968    4.3433592    4.3433592    4.3433592    36588.968    23105.624    61514.942    25146.339    22421.164   -3734.8428   -2487.9307    81.936471 
   91600    1312.0414   -106.86544    1.1871626   -105.67827   -39774.697    4.3679543    4.3679543    4.3679543   -39774.697    -95719.65    -52589.87    28985.429   -80990.974    2806.0408   -871.95776    83.336306 
   91700    2001.5142   -107.46442    1.8110121   -105.65341    11160.902     4.366627     4.366627     4.366627    11160.902    25201.139    21394.619   -13113.053    23845.577   -2412.7851    19198.198    83.260359 
   91800    1321.8413   -106.85798    1.1960298   -105.66195    3806.6205    4.3533314    4.3533314    4.3533314    3806.6205   -38884.609    -7748.335    58052.806   -67451.335   -8112.6788   -19534.005    82.502133 
   91900    1958.6045    -107.4285    1.7721866   -105.65632    9054.8769    4.3503108    4.3503108    4.3503108    9054.8769   -4943.6126    8364.3224    23743.921    23795.098     8496.805    20376.842    82.330517 
   92000    1940.0796   -107.41681    1.7554248   -105.66139    12338.972    4.3513149    4.3513149    4.3513149    12338.972    14778.602    18464.344    3773.9694   -18061.307   -13775.478   -30196.158    82.387542 
   92100    1321.1354   -106.86421    1.1953911   -105.66882    5979.9777    4.3638491    4.3638491    4.3638491    5979.9777   -15486.462    -21020.31    54446.705    6241.0136   -3126.0677   -5427.3327    83.101561 
   92200    2255.2096   -107.69116     2.040561    -105.6506    -7746.907     4.363795     4.363795     4.363795    -7746.907    -25766.28    -4164.572    6690.1311    34717.976    1745.9578   -9575.2691    83.098468 
   92300    1332.5425   -106.86282    1.2057124   -105.65711    22699.094    4.3475352    4.3475352    4.3475352    22699.094    6710.3155    8254.3427    53132.625   -23872.263   -11085.331   -27305.685    82.173034 
   92400    1520.6711   -107.03782    1.3759351   -105.66189   -2893.4773    4.3520667    4.3520667    4.3520667   -2893.4773   -49240.202   -29028.888    69588.658    65938.965   -2958.9437    10768.242    82.430253 
   92500     2434.463   -107.85522    2.2027533   -105.65247   -299.00631    4.3582092    4.3582092    4.3582092   -299.00631   -5131.5845    16248.456   -12013.891   -23282.785     7523.351   -10119.143    82.779773 
   92600    970.93161   -106.54898   0.87851933   -105.67047    -15636.75    4.3673665    4.3673665    4.3673665    -15636.75   -68589.722   -59942.569    81622.039    59619.544   -4570.5829   -14522.011    83.302671 
   92700    2007.7367   -107.45878    1.8166424   -105.64214   -8307.2443     4.362914     4.362914     4.362914   -8307.2443   -3214.3324    9224.3418   -30931.742   -9089.2494   -1383.9992    37228.239    83.048148 
   92800    1743.7669   -107.22587     1.577797   -105.64808    -15926.96    4.3529318    4.3529318    4.3529318    -15926.96   -39189.452   -38739.365    30147.936     44660.99    11661.385   -5152.0927    82.479419 
   92900    1595.7502    -107.0952    1.4438683   -105.65133    2954.2676     4.353908     4.353908     4.353908    2954.2676   -14595.263    2199.0601    21259.005   -909.85664   -3938.9455    18146.542    82.534924 
   93000    1688.7777   -107.18392    1.5280416   -105.65588   -13522.915    4.3577295    4.3577295    4.3577295   -13522.915   -606.36536   -11824.101   -28138.278     10114.45   -3084.8334      43424.4    82.752439 
   93100    1835.0922   -107.31209      1.66043   -105.65166   -8589.4927    4.3621754    4.3621754    4.3621754   -8589.4927   -20124.011   -33760.284    28115.817    42017.868    12494.618   -16270.045    83.005978 
   93200    1712.5335   -107.20141    1.5495363   -105.65188   -10005.852    4.3596296    4.3596296    4.3596296   -10005.852    2460.2168    -13270.08   -19207.693   -28238.694    -9198.903    61178.449    82.860733 
   93300    1587.8919   -107.09398     1.436758   -105.65723   -4497.8896    4.3553318    4.3553318    4.3553318   -4497.8896   -18286.281   -19693.601    24486.213    63470.724   -13273.908   -13976.272     82.61592 
   93400    2048.3763   -107.50942    1.8534139   -105.65601   -10549.079    4.3562777    4.3562777    4.3562777   -10549.079    20945.774   -11709.154   -40883.857   -21208.932     6292.596    39622.842    82.669761 
   93500    1274.5765   -106.82156    1.1532636   -105.66829   -16119.074    4.3635069    4.3635069    4.3635069   -16119.074    5368.2065   -54596.012    870.58242    36616.526   -10752.798    12354.665    83.082009 
   93600    1713.7682   -107.21215    1.5506535    -105.6615   -5028.7479    4.3599368    4.3599368    4.3599368   -5028.7479   -20604.499    14007.932   -8489.6762    19731.775   -14751.696    2934.1359    82.878252 
   93700    1996.8993   -107.46057    1.8068365   -105.65373    8850.8917    4.3476596    4.3476596    4.3476596    8850.8917    57191.418   -20415.397   -10223.346    583.06065     5581.767    38156.647    82.180088 
   93800    1222.3626   -106.77566    1.1060193   -105.66964   -22746.969    4.3537869    4.3537869    4.3537869   -22746.969   -41436.221   -21743.444   -5061.2431    54090.316   -12031.555   -21454.035    82.528034 
   93900    2086.5169   -107.54417    1.8879243   -105.65625    9016.0081    4.3595859    4.3595859    4.3595859    9016.0081   -8339.3267    31240.321    4147.0303   -25331.627    5542.8924    13410.185    82.858243 
   94000    1529.2019   -107.05131     1.383654   -105.66766   -18385.095    4.3618294    4.3618294    4.3618294   -18385.095   -21779.096   -66083.571    32707.381    75509.994   -8707.0291   -4290.5023    82.986227 
   94100    1660.2432   -107.17126     1.502223   -105.66904   -14939.948     4.355706     4.355706     4.355706   -14939.948   -20416.225    7931.3956   -32335.016   -16977.721    6551.4263   -22155.886    82.637215 
   94200    1857.6529    -107.3383    1.6808434   -105.65746    20056.277    4.3435316    4.3435316    4.3435316    20056.277    3740.5257    4440.4118    51987.895    61373.561   -580.06574    13195.926    81.946225 
   94300    1541.9855   -107.06447    1.3952209   -105.66925   -2284.8596    4.3545469    4.3545469    4.3545469   -2284.8596    -6491.949   -19985.181    19622.551    21985.644   -13266.156    -20524.81    82.571263 
   94400    1657.0351   -107.16481    1.4993202   -105.66548    -17547.99    4.3632947    4.3632947    4.3632947    -17547.99   -35707.822   -1234.6306   -15701.518     22366.25   -8862.7387   -70.059851    83.069889 
   94500    1604.0058   -107.11143    1.4513382   -105.66009    16605.612     4.360615     4.360615     4.360615    16605.612    8928.2433   -31164.245    72052.838    52184.376   -2547.3205    13298.269    82.916935 
   94600    1947.4455   -107.41792    1.7620896   -105.65584   -5545.5435    4.3648752    4.3648752    4.3648752   -5545.5435   -17268.748    4859.9722   -4227.8548   -689.87114   -16960.949   -22014.404    83.160194 
   94700    1191.0373   -106.74733    1.0776755   -105.66966   -9707.3964    4.3545007    4.3545007    4.3545007   -9707.3964   -50154.106   -39003.374    60035.291    70705.579   -1883.2857    8379.8051    82.568635 
   94800    2499.5447    -107.9211    2.2616406   -105.65946    11270.203    4.3517152    4.3517152    4.3517152    11270.203    47254.084    -4609.391   -8834.0835   -21354.213   -9495.9332    31417.364    82.410281 
   94900     1126.474   -106.70022    1.0192573   -105.68096   -15794.764    4.3530214    4.3530214    4.3530214   -15794.764   -60152.021   -29051.749    41819.478    79200.016   -5266.3395   -24522.581    82.484509 
   95000    1949.6237   -107.42927    1.7640605    -105.6652    22750.071    4.3508035    4.3508035    4.3508035    22750.071    33760.887    44750.155   -10260.829   -24291.294   -9681.4561    34773.649    82.358497 
   95100     1581.386   -107.10041    1.4308713   -105.66954   -28238.293    4.3700781    4.3700781    4.3700781   -28238.293   -52000.403   -42140.727    9426.2522    74128.623    4398.8338   -1890.5965    83.457928 
   95200    2065.8957   -107.51414    1.8692658   -105.64488    8913.0626    4.3619777    4.3619777    4.3619777    8913.0626    22985.181    22674.623   -18920.616    4292.6436   -21635.676    8548.6362    82.994691 
   95300    1254.5368   -106.79756    1.1351313   -105.66243    1484.1568    4.3451718    4.3451718    4.3451718    1484.1568    121.49036    9448.3522   -5117.3722    6564.0027    3264.7914     31435.57    82.039093 
   95400    1911.4978   -107.38959    1.7295634   -105.66003     24570.55    4.3498249    4.3498249    4.3498249     24570.55    44879.559    8439.9102     20392.18    25803.491   -2244.6693   -14939.635    82.302933 
   95500    1686.9539   -107.19933    1.5263913   -105.67294    -1764.008    4.3563545    4.3563545    4.3563545    -1764.008    37892.724     14988.62   -58173.368   -19930.423   -32888.035    12348.692     82.67413 
   95600     2010.689   -107.48422    1.8193136    -105.6649    3261.2186    4.3616236    4.3616236    4.3616236    3261.2186      24222.1   -25979.778    11541.333    14064.607    18660.386   -465.60079     82.97448 
   95700    1144.3633   -106.71193    1.0354439   -105.67649   -3625.3727    4.3518632    4.3518632    4.3518632   -3625.3727    67970.253   -2269.6854   -76576.686    393.19891   -36690.262    -52401.96    82.418688 
   95800     2268.437   -107.71494    2.0525295   -105.66241   -2634.1002    4.3493883    4.3493883    4.3493883   -2634.1002   -7493.2091    8839.6339   -9248.7253   -12239.219    7605.6972    18780.326    82.278154 
   95900    1342.9525   -106.89984    1.2151316   -105.68471   -564.30007    4.3526845    4.3526845    4.3526845   -564.30007    83913.717   -29655.371   -55951.247   -14741.618   -821.05581   -62866.147    82.465363 
   96000     2040.157   -107.52942    1.8459769   -105.68345   -10578.695     4.355197     4.355197     4.355197   -10578.695   -21035.424    27772.221   -38472.881    17357.812    -46261.22    2743.9947    82.608245 
   96100    1578.1342   -107.10761     1.427929   -105.67968   -5215.2682    4.3585408    4.3585408    4.3585408   -5215.2682    24424.941   -30042.696    -10028.05   -29636.437    27656.738   -41922.746    82.798666 
   96200    1439.9161   -106.98469    1.3028663   -105.68182   -15132.388    4.3524987    4.3524987    4.3524987   -15132.388   -18978.059    6350.6039    -32769.71   -27.650022   -44814.151   -25225.344      82.4548 
   96300    2223.3127   -107.67487    2.0117001   -105.66317   -9914.6865    4.3532026    4.3532026    4.3532026   -9914.6865    557.62038   -9205.0927   -21096.587   -255.87979    -24419.72   -12294.967     82.49481 
   96400     1122.242   -106.69578    1.0154281   -105.68035   -11722.282    4.3543331    4.3543331    4.3543331   -11722.282    31076.495   -25385.886   -40857.454    -18847.64     2094.381   -55163.663    82.559097 
   96500    2053.5477   -107.51442    1.8580931   -105.65633   -14721.086    4.3599406    4.3599406    4.3599406   -14721.086   -28051.925    7563.7771    -23675.11    576.75071   -52262.159    16928.165    82.878466 
   96600    1102.8976   -106.66989   0.99792491   -105.67196    -22148.24    4.3623737    4.3623737    4.3623737    -22148.24    51283.376    -73525.17   -44202.927    19841.966    6005.2577   -57578.072      83.0173 
   96700     2511.234   -107.92493    2.2722173   -105.65271    9993.2085    4.3510022    4.3510022    4.3510022    9993.2085    -1063.734    51460.497   -20417.137   -23891.394   -16617.576    12516.004     82.36978 
   96800    1144.7506   -106.70997    1.0357944   -105.67418   -23719.379    4.3520259    4.3520259    4.3520259   -23719.379    11336.079    -44581.12   -37913.096      33939.3   -22320.531   -35351.517    82.427934 
   96900      1748.95   -107.25551    1.5824867   -105.67302   -14330.965    4.3501645    4.3501645    4.3501645   -14330.965   -9742.5029   -18203.315   -15047.076   -2781.6158    24221.953   -17927.369    82.322214 
   97000     1762.936   -107.27026    1.5951416   -105.67512    7370.3059    4.3578436    4.3578436    4.3578436    7370.3059    18343.435    27897.664   -24130.182   -18561.376    129.80165   -8269.6648    82.758938 
   97100    1723.2651   -107.23637    1.5592465   -105.67712   -17159.168    4.3606141    4.3606141    4.3606141   -17159.168    7415.6789   -7305.3448   -51587.838    20216.771    1147.7879   -43683.974    82.916881 
   97200    1786.0558   -107.28411    1.6160608   -105.66805    18375.818    4.3470755    4.3470755    4.3470755    18375.818    15070.936    42438.637   -2382.1188   -16403.377    45293.563    14333.455    82.146968 
   97300    1637.5915   -107.15122    1.4817272   -105.66949    14472.954    4.3479978    4.3479978    4.3479978    14472.954    48549.428    2088.7878   -7219.3553   -11191.161   -14390.212   -51424.569    82.199268 
   97400     1548.348   -107.07123    1.4009778   -105.67026   -3982.8646    4.3575115    4.3575115    4.3575115   -3982.8646    4908.7135    38567.014   -55424.321    14454.891    54107.837    1518.5141    82.740019 
   97500     1839.437   -107.32758    1.6643612   -105.66322    627.28107    4.3579522    4.3579522    4.3579522    627.28107    15888.306   -16501.283    2494.8204   -34531.487    2534.5595   -17718.379    82.765126 
   97600    1502.8588   -107.02221    1.3598182   -105.66239   -1609.7613    4.3587226    4.3587226    4.3587226   -1609.7613    5720.1237    29128.248   -39677.655    901.64074    34799.761   -36666.177    82.809031 
   97700    1927.5087    -107.3963    1.7440504   -105.65225   -287.97141     4.358623     4.358623     4.358623   -287.97141   -8302.8077    32603.907   -25165.014    5416.6982    32684.656    17209.623    82.803352 
   97800    1907.3443   -107.37813    1.7258052   -105.65232    2860.7536    4.3539263    4.3539263    4.3539263    2860.7536    26979.226   -2484.8218   -15912.143    -17694.83   -491.54933   -32013.485    82.535962 
   97900    1087.2065   -106.65991   0.98372728   -105.67618   -16156.866    4.3550061    4.3550061    4.3550061   -16156.866   -37218.956    47220.438   -58472.082    25392.319    71333.656   -2593.0948    82.597385 
   98000    2383.4027   -107.81754    2.1565528   -105.66099    7733.6954    4.3545918    4.3545918    4.3545918    7733.6954    25006.748   -5079.9065    3274.2445   -10076.145   -37015.403    5233.8272    82.573813 
   98100    1124.1997   -106.69472    1.0171995   -105.67752    -13653.41    4.3595427    4.3595427    4.3595427    -13653.41   -5929.3601    26117.896   -61148.767    10493.412    83167.116   -28946.763    82.855781 
   98200    2208.1787    -107.6512    1.9980065   -105.65319   -1502.8342    4.3632852    4.3632852    4.3632852   -1502.8342   -9413.3984   -3530.0842      8434.98    8919.3348   -17743.141    20539.892    83.069349 
   98300    1473.2731    -106.9984    1.3330485   -105.66536   -14288.701    4.3531132    4.3531132    4.3531132   -14288.701    2000.4362    9596.5363   -54463.075   -4494.6447    47823.053   -23576.633     82.48973 
   98400    1620.7555    -107.1386    1.4664937   -105.67211    26.371079    4.3509359    4.3509359    4.3509359    26.371079    15419.251   -9331.8071   -6008.3303    19910.181    20782.458   -3827.6255    82.366016 
   98500    1764.5512   -107.26169     1.596603   -105.66509    -234.7966    4.3582769    4.3582769    4.3582769    -234.7966   -27488.492    34037.123   -7253.0209    9489.8073      25242.2    16643.696    82.783629 
   98600     1643.796   -107.15467    1.4873411   -105.66733   -22557.031    4.3593721    4.3593721    4.3593721   -22557.031   -23882.661   -4933.8967   -38854.535   -3681.9111     45216.08   -28192.222    82.846053 
   98700     1800.074   -107.28825    1.6287447    -105.6595   -10993.638    4.3622408    4.3622408    4.3622408   -10993.638    -8934.897   -8631.5307   -15414.488    20143.132   -7081.2376    18601.563     83.00971 
   98800    1336.2757   -106.88352    1.2090903   -105.67443    -35177.17    4.3552117    4.3552117    4.3552117    -35177.17   -68781.647    19897.431   -56647.294   -516.20807    84307.317   -1783.1676    82.609083 
   98900    2218.6422   -107.66197     2.007474    -105.6545    16535.068    4.3436763    4.3436763    4.3436763    16535.068     64505.31    -11808.88   -3091.2275   -7991.7245    -22233.43   -29454.306    81.954417 
   99000    1197.9943   -106.76663    1.0839704   -105.68266   -34644.152    4.3562628    4.3562628    4.3562628   -34644.152   -61619.759    27057.989   -69370.687    7394.0117    72782.798    25352.544    82.668908 
   99100     2242.051   -107.69428    2.0286549   -105.66562    5332.3371    4.3628215    4.3628215    4.3628215    5332.3371    27535.649   -18093.133    6554.4951   -8434.9112   -3875.5919   -7064.1283    83.042867 
   99200    1434.8586   -106.97527    1.2982902   -105.67698   -19723.569    4.3604327    4.3604327    4.3604327   -19723.569   -45137.105    21629.717   -35663.319     5112.375    58059.473   -4604.8737    82.906533 
   99300    1363.5759   -106.90336    1.2337921   -105.66957    5075.9561    4.3551428    4.3551428    4.3551428    5075.9561    9886.3546    26444.187   -21102.673    6141.1813    12927.454    25522.194    82.605165 
   99400    2341.8247   -107.76588    2.1189322   -105.64695    17043.982    4.3490587    4.3490587    4.3490587    17043.982    13708.886    29244.598     8178.461    -5949.783    34640.188   -20859.778    82.259452 
   99500    1403.3055   -106.93928    1.2697403   -105.66954   -26399.789    4.3555621    4.3555621    4.3555621   -26399.789   -43670.824    6249.1677   -41777.709    7940.4199    36958.407    28492.177    82.629028 
   99600    1660.3482   -107.15633    1.5023179   -105.65402    3411.5304    4.3638098    4.3638098    4.3638098    3411.5304    54548.158   -12945.547    -31368.02    7661.2229   -4596.5933   -6873.6302    83.099314 
   99700    1806.9966   -107.29253    1.6350085   -105.65752   -23669.074    4.3606861    4.3606861    4.3606861   -23669.074   -20917.645   -5292.3021   -44797.275   -7957.3182    55556.324   -12941.693    82.920989 
   99800    1725.0414   -107.21579    1.5608537   -105.65494   -9171.3957    4.3530418    4.3530418    4.3530418   -9171.3957    10035.684   -26357.971   -11191.899    29563.475   -29288.156    25453.832    82.485668 
   99900    1502.4524   -107.02275    1.3594505    -105.6633   -345.45094    4.3422451    4.3422451    4.3422451   -345.45094     14792.78    17834.947   -33664.079    8879.1629    43250.471   -50726.557    81.873433 
  100000    1838.9711   -107.32671    1.6639397   -105.66277   -247.74369    4.3488592    4.3488592    4.3488592   -247.74369    199.88137   -4288.5827    3345.4703   -9824.6745   -28030.472    31202.596    82.248132 
Loop time of 21.9076 on 1 procs for 100000 steps with 8 atoms

Pair  time (%) = 6.57809 (30.0265)
Kspce time (%) = 5.35848 (24.4595)
Neigh time (%) = 0.232317 (1.06044)
Comm  time (%) = 1.00975 (4.60912)
Outpt time (%) = 0.0262725 (0.119924)
Other time (%) = 8.70269 (39.7245)

Nlocal:    8 ave 8 max 8 min
Histogram: 1 0 0 0 0 0 0 0 0 0
Nghost:    2020 ave 2020 max 2020 min
Histogram: 1 0 0 0 0 0 0 0 0 0
Neighs:    2157 ave 2157 max 2157 min
Histogram: 1 0 0 0 0 0 0 0 0 0

Total # of neighbors = 2157
Ave neighs/atom = 269.625
Neighbor list builds = 2845
Dangerous builds = 0
unfix 20
unfix 21
print "seeds:788864"
seeds:788864
