LAMMPS (10 Feb 2015)
# ---- initialize simulations
clear
units metal
dimension 3
boundary p p p
atom_style charge
atom_modify map array
# ---- create atoms
read_data /Users/eugeneragasa/pyflamestk_git/pypospack/tests/tests_integration/workflow/WorkflowLammpsThermalExpansion/param_8221/MgO_NaCl_unit.npt.T1900/lammps.structure
  triclinic box = (0 0 0) to (4.2565 4.2565 4.2565) with tilt (0 0 0)
  1 by 1 by 1 MPI processor grid
  reading atoms ...
  8 atoms
# ---- define interatomic potential
include potential.mod
mass 1 24.305
mass 2 15.999

group Mg type 1
4 atoms in group Mg
group O type 2
4 atoms in group O

set group Mg charge 1.65389423724
  4 settings made for charge
set group O charge -1.65389423724
  4 settings made for charge

variable R_cut equal 10.0

pair_style buck/coul/long ${R_cut}
pair_style buck/coul/long 10
pair_coeff 1 1 0.0 0.5 0.0 ${R_cut}
pair_coeff 1 1 0.0 0.5 0.0 10
pair_coeff 1 2 1300.0678519 0.288744572517 0.0 ${R_cut}
pair_coeff 1 2 1300.0678519 0.288744572517 0.0 10
pair_coeff 2 2 40472.9144105 0.202420171096 26.2679081719 ${R_cut}
pair_coeff 2 2 40472.9144105 0.202420171096 26.2679081719 10

kspace_style pppm 1.0e-5

neighbor 1.0 bin
neigh_modify every 1 delay 0 check yes
# ---- define settings
compute eng all pe/atom
compute eatoms all reduce sum c_eng
# ---- run minimization
reset_timestep 0
fix 1 all box/relax iso 0.0 vmax 0.001
thermo 10
thermo_style custom step pe lx ly lz xy xz yz press pxx pyy pzz pxy pxz pyz c_eatoms
min_style cg
minimize 1e-25 1e-25 5000 10000
PPPM initialization ...
  G vector (1/distance) = 0.352799
  grid = 8 8 8
  stencil order = 5
  estimated absolute RMS force accuracy = 3.93787e-05
  estimated relative force accuracy = 2.7347e-06
  using double precision FFTs
  3d grid and FFT values/proc = 3375 512
Neighbor list info ...
  1 neighbor list requests
  update every 1 steps, delay 0 steps, check yes
  master list distance cutoff = 11
Memory usage per processor = 4.06549 Mbytes
Step PotEng Lx Ly Lz Xy Xz Yz Press Pxx Pyy Pzz Pxy Pxz Pyz eatoms 
       0   -110.27609       4.2565       4.2565       4.2565            0            0            0    110960.29    110960.29    110960.29    110960.29 9.3314123e-11 1.6239754e-10 5.8891323e-11   -110.27609 
      10   -110.39349     4.299065     4.299065     4.299065            0            0            0    52923.265    52923.265    52923.265    52923.265 1.8718586e-11 -3.674075e-11 -9.001309e-11   -110.39349 
      20   -110.43343      4.34163      4.34163      4.34163            0            0            0    2089.5567    2089.5567    2089.5567    2089.5567 6.9298069e-11 -1.296578e-10 -9.997383e-11   -110.43343 
      22   -110.43352     4.343513     4.343513     4.343513            0            0            0   -5.7193123   -5.7193123   -5.7193123   -5.7193123 4.586585e-11 9.062077e-11 2.6249224e-10   -110.43352 
Loop time of 0.0149379 on 1 procs for 22 steps with 8 atoms

Minimization stats:
  Stopping criterion = linesearch alpha is zero
  Energy initial, next-to-last, final = 
        -110.276087498     -110.433524975     -110.433524975
  Force two-norm initial, final = 16.0227 0.00180648
  Force max component initial, final = 16.0227 0.000859982
  Final line search alpha, max atom move = 0.00390625 3.35931e-06
  Iterations, force evaluations = 22 39

Pair  time (%) = 0.00395441 (26.4724)
Kspce time (%) = 0.0026834 (17.9637)
Neigh time (%) = 0 (0)
Comm  time (%) = 0.000538588 (3.60552)
Outpt time (%) = 3.69549e-05 (0.24739)
Other time (%) = 0.00772452 (51.711)

Nlocal:    8 ave 8 max 8 min
Histogram: 1 0 0 0 0 0 0 0 0 0
Nghost:    2189 ave 2189 max 2189 min
Histogram: 1 0 0 0 0 0 0 0 0 0
Neighs:    2344 ave 2344 max 2344 min
Histogram: 1 0 0 0 0 0 0 0 0 0

Total # of neighbors = 2344
Ave neighs/atom = 293
Neighbor list builds = 0
Dangerous builds = 0
unfix 1
# ---- define output variables ----
variable natoms equal "count(all)"
variable tot_energy equal "c_eatoms"
variable length_x equal "lx"
variable length_y equal "ly"
variable length_z equal "lz"
variable tilt_xy equal "xy"
variable tilt_xz equal "xz"
variable tilt_yz equal "yz"
variable tot_press equal "press"
variable press_xx equal "pxx"
variable press_yy equal "pyy"
variable press_zz equal "pzz"
variable press_xy equal "pxy"
variable press_xz equal "pxz"
variable press_yz equal "pyz"

# ---- output ----
print "pypospack:output_section:begin"
pypospack:output_section:begin
print "tot_energy = ${tot_energy}"
tot_energy = -110.433524975286
print "num_atoms = ${natoms}"
num_atoms = 8
print "xx = ${length_x}"
xx = 4.34351296178449
print "yy = ${length_y}"
yy = 4.34351296178449
print "zz = ${length_z}"
zz = 4.34351296178449
print "xy = ${tilt_xy}"
xy = 0
print "xz = ${tilt_xz}"
xz = 0
print "yz = ${tilt_yz}"
yz = 0
print "tot_press = ${tot_press}"
tot_press = -5.71931225965551
print "pxx = ${press_xx}"
pxx = -5.71931225981032
print "pyy = ${press_yy}"
pyy = -5.71931225968463
print "pzz = ${press_zz}"
pzz = -5.71931225947158
print "pxy = ${press_xy}"
pxy = 4.5865850341772e-11
print "pxz = ${press_xz}"
pxz = 9.06207702771322e-11
print "pyz = ${press_yz}"
pyz = 2.62492238241466e-10
print "pypospack:output_section:done"
pypospack:output_section:done
print "pypospack:lammps_sim:done"
pypospack:lammps_sim:done
#------------------------------------------------------------------------------
# RUN THERMOSTAT
# running using an NPT Nose-Hoover style thermostat
#------------------------------------------------------------------------------
variable tempdamp equal 0.1
variable pressdamp equal 1.0
# set initial velocities
velocity all create 1900 5266488 mom yes dist gaussian loop all
# fix for Nose-Hoover style thermostat
fix 20 all npt temp 1900 1900 0.1 aniso 0.0 0.0 1.0 drag 1.0 couple xyz
variable boxx equal lx
variable boxy equal ly
variable boxz equal lz
variable boxp equal press
variable boxt equal temp
# calculate averages every 10000 steps
reset_timestep 0
fix 21 all ave/time 10 10 100 v_boxx v_boxy v_boxz v_boxp v_boxt file lattice.out
thermo_style custom step temp pe ke etotal press lx ly lz press pxx pyy pzz pxy pxz pyz vol
thermo_modify flush yes
thermo 100
run 100000
PPPM initialization ...
  G vector (1/distance) = 0.351923
  grid = 8 8 8
  stencil order = 5
  estimated absolute RMS force accuracy = 4.10067e-05
  estimated relative force accuracy = 2.84776e-06
  using double precision FFTs
  3d grid and FFT values/proc = 3375 512
Memory usage per processor = 3.06549 Mbytes
Step Temp PotEng KinEng TotEng Press Lx Ly Lz Press Pxx Pyy Pzz Pxy Pxz Pyz Volume 
       0         1900   -110.43354    1.7191599   -108.71438    22400.666     4.343513     4.343513     4.343513    22400.666    20970.965    28326.036    17904.996    7573.7988     1764.117   -2182.2853    81.945171 
     100    1088.0866   -109.48615   0.98452359   -108.50163    29022.446    4.3751225    4.3751225    4.3751225    29022.446    29918.863    44457.032    12691.441   -2667.6174   -975.39242    101.33371    83.747268 
     200    1617.0517   -109.50519    1.4631424   -108.04205   -29118.474    4.4281226    4.4281226    4.4281226   -29118.474   -24571.015   -6698.3006   -56086.105   -1657.9819   -12178.916    13078.355    86.827825 
     300    962.71753   -108.48471   0.87108706   -107.61362   -10548.339    4.4463877    4.4463877    4.4463877   -10548.339   -14181.839    13993.062   -31456.241    13427.489   -1865.1158   -3197.9274      87.9067 
     400    1233.6855   -108.38814    1.1162646   -107.27187    19388.195    4.4177239    4.4177239    4.4177239    19388.195    65926.633   -37578.547      29816.5    2108.3097    1672.3223    2935.2903    86.217554 
     500     2170.344   -109.03941    1.9637728   -107.07563   -3021.5515    4.4104612    4.4104612    4.4104612   -3021.5515   -18915.026    16129.945    -6279.574    13062.067   -10968.978    113.80485    85.793032 
     600    2271.9122   -109.06074    2.0556739   -107.00507    7322.8764    4.4339441    4.4339441    4.4339441    7322.8764   -6865.0564    32935.223   -4101.5376    6872.4807   -6998.6292   -23232.498    87.170719 
     700    2546.0461   -109.26351     2.303716   -106.95979    -29194.02    4.4578682    4.4578682    4.4578682    -29194.02   -69530.841   -8563.3485   -9487.8694    2478.9053    -1106.176    3996.4095    88.589381 
     800     1734.825   -108.47711    1.5697061    -106.9074    3539.2982    4.4482929    4.4482929    4.4482929    3539.2982    4533.7615    44677.564   -38593.431    16213.409   -6478.4181   -876.11186    88.019752 
     900    1351.5057   -108.12584    1.2228708   -106.90296   -25566.051    4.4296745    4.4296745    4.4296745   -25566.051    16411.395    -62269.37   -30840.178    15049.446    9214.8003    13915.151    86.919143 
    1000    1526.9806    -108.3085    1.3816441   -106.92686    12778.507    4.4269432    4.4269432    4.4269432    12778.507    39967.265    31615.258   -33247.002   -9519.0575   -6475.9334   -18680.791    86.758462 
    1100    2080.0847   -108.82843    1.8821044   -106.94632   -15645.892    4.4422539    4.4422539    4.4422539   -15645.892   -16215.508   -2947.8651   -27774.303    10446.344   -11258.226   -20375.255     87.66175 
    1200    1934.2856   -108.70263    1.7501823   -106.95245   -1129.2393    4.4383254    4.4383254    4.4383254   -1129.2393     3887.832    14203.027   -21478.577    37858.866    10294.737   -1009.7527    87.429385 
    1300    2743.2257   -109.41892    2.4821283   -106.93679   -35.677566    4.4287225    4.4287225    4.4287225   -35.677566    42914.183   -62.767786   -42958.448   -17968.934    14443.849   -31.841952    86.863114 
    1400    1805.8974   -108.58852     1.634014   -106.95451    18673.008    4.4344494    4.4344494    4.4344494    18673.008    82532.667    7078.8213   -33592.466   -2559.3152     14.79848    3901.1452    87.200526 
    1500    1387.1465   -108.22143    1.2551193   -106.96631    40632.639    4.4337963    4.4337963    4.4337963    40632.639    109832.08     27822.69   -15756.856   -23584.694    -8729.279    3173.8631    87.162004 
    1600    1569.7762   -108.39904    1.4203665   -106.97868   -18377.137    4.4363648    4.4363648    4.4363648   -18377.137   -10308.083   -19185.802   -25637.525     6970.971   -11092.347    7216.2725    87.313574 
    1700    1250.4511    -108.1384    1.1314344   -107.00696    17682.593    4.4323105    4.4323105    4.4323105    17682.593    104337.61    -37253.84   -14035.996    23574.084   -1539.2861    -9101.667    87.074409 
    1800    1862.6979   -108.71237    1.6854082   -107.02696   -42195.057    4.4368482    4.4368482    4.4368482   -42195.057   -66252.226    4554.6287   -64887.573   -11658.045    3867.6463   -13927.342    87.342118 
    1900    2266.8503   -109.05603    2.0510937   -107.00493   -10279.101    4.4317315    4.4317315    4.4317315   -10279.101    11693.621    10549.623   -53080.546   -12456.029    9002.2751    12957.721     87.04029 
    2000    2514.3106   -109.28209    2.2750011   -107.00709   -35529.551    4.4411648    4.4411648    4.4411648   -35529.551   -13118.209   -61702.137   -31768.306    33207.471   -957.02745    10547.386    87.597287 
    2100     2540.222   -109.27763    2.2984463   -106.97918    8330.3358    4.4353962    4.4353962    4.4353962    8330.3358    53360.024    8904.6688   -37273.686    5685.2696    16425.223   -5426.6532    87.256392 
    2200    1710.9901   -108.53855    1.5481398   -106.99041   -5377.4771    4.4319908    4.4319908    4.4319908   -5377.4771    21442.976   -14061.488   -23513.919    6226.8293   -2025.7438    5587.0355    87.055565 
    2300    1252.7929    -108.1327    1.1335534   -106.99914    49212.833    4.4303128    4.4303128    4.4303128    49212.833    102290.15    42233.888    3114.4581    15605.747   -6889.3164   -2715.3408    86.956725 
    2400    2036.1553   -108.83614    1.8423561   -106.99379   -37489.712    4.4372307    4.4372307    4.4372307   -37489.712   -39857.648   -25217.172   -47394.317    13180.556   -3788.0212    3132.0079     87.36471 
    2500    1803.9126   -108.59926     1.632218   -106.96705   -26467.063     4.426967     4.426967     4.426967   -26467.063   -29846.414    -17366.84   -32187.934    67.583122    6292.2007   -2478.6503    86.759862 
    2600     2239.015   -108.98951    2.0259078    -106.9636    9323.5742    4.4291266    4.4291266    4.4291266    9323.5742    75599.138    1087.1184   -48715.534   -7752.2148    18221.893   -7423.7453    86.886897 
    2700     1894.826   -108.68809    1.7144784   -106.97361    21039.171    4.4363003    4.4363003    4.4363003    21039.171    39886.309    66126.973   -42895.769    6419.9397    3594.0883    3491.7622    87.309764 
    2800    1473.9637   -108.29572    1.3336733   -106.96205    11148.187    4.4288884    4.4288884    4.4288884    11148.187     10873.42    38287.373   -15716.233   -3460.3415   -4108.2174    1713.5586    86.872876 
    2900    2187.4059   -108.93074    1.9792108   -106.95153   -29944.404    4.4143412    4.4143412    4.4143412   -29944.404   -92902.538    17597.278   -14527.953   -5923.5963    1396.9102   -7333.3463    86.019653 
    3000    1679.6279    -108.5225    1.5197626   -107.00274   -7585.2402    4.4239274    4.4239274    4.4239274   -7585.2402   -61263.228    30085.416    8422.0918    7394.2492    -1701.115    816.58424    86.581277 
    3100    2519.2455   -109.25309    2.2794663   -106.97363   -1050.7046     4.444039     4.444039     4.444039   -1050.7046   -5133.4474    35620.968   -33639.635    9556.2501    15500.345   -1006.7355     87.76747 
    3200    2143.2742   -108.87848    1.9392795    -106.9392   -19437.707    4.4473997    4.4473997    4.4473997   -19437.707   -21272.933    11256.285   -48296.472   -11438.901    10138.672   -5840.2309    87.966736 
    3300    1264.6266   -108.05956    1.1442608    -106.9153   -17238.688    4.4219326    4.4219326    4.4219326   -17238.688   -97667.165    66141.425   -20190.325    11189.396    5820.1354    13988.806    86.464207 
    3400    1721.9048   -108.49415    1.5580157   -106.93614    31249.154    4.4053401    4.4053401    4.4053401    31249.154    9325.0802    105001.11   -20578.727    330.81416    1974.2832    6866.3919    85.494528 
    3500    2434.7899   -109.20177     2.203049   -106.99872   -17714.045     4.432371     4.432371     4.432371   -17714.045    35184.355    -25072.35   -63254.141    22747.085   -8832.1818   -3553.6658    87.077973 
    3600    1591.5509   -108.41526    1.4400687   -106.97519   -30348.526    4.4485795    4.4485795    4.4485795   -30348.526   -75952.478     46269.07    -61362.17    31961.726    14072.481    11415.036    88.036761 
    3700    1755.3853   -108.51961    1.5883096    -106.9313    10551.525     4.414665     4.414665     4.414665    10551.525   -1589.5671    58468.806   -25224.665   -1381.9612    116.42883   -7373.1723    86.038587 
    3800    1770.9218   -108.54644    1.6023672   -106.94407    18514.741    4.3984537    4.3984537    4.3984537    18514.741    16683.409    47075.376   -8214.5613    20747.624     1834.934   -556.04637    85.094221 
    3900    2066.6913   -108.86205    1.8699857   -106.99206   -19318.566    4.4233129    4.4233129    4.4233129   -19318.566     2325.675    6557.2593   -66838.633    6185.6813    6616.4872    14782.047    86.545199 
    4000    2192.4992    -108.9762    1.9838194   -106.99238    6397.4176    4.4404295    4.4404295    4.4404295    6397.4176    41654.379    49521.111   -71983.237   -2009.0139   -4839.1637   -12173.333    87.553786 
    4100    1958.6196   -108.73708    1.7722002   -106.96488   -4337.2024    4.4294856    4.4294856    4.4294856   -4337.2024   -1758.3554    26476.494   -37729.746    25004.657    4733.3632     10769.44    86.908028 
    4200    1818.5625    -108.5884    1.6454736   -106.94292   -23371.074    4.4104971    4.4104971    4.4104971   -23371.074   -67815.144    10050.188   -12348.267    6441.8213    12129.046   -1320.6967    85.795125 
    4300    1616.1249   -108.43061    1.4623038   -106.96831   -5771.9883    4.4120656    4.4120656    4.4120656   -5771.9883   -40703.535    45462.401   -22074.831   -9963.0714   -2156.7667   -5084.4768    85.886695 
    4400    1637.6789   -108.46208    1.4818063   -106.98027   -417.51195    4.4309307    4.4309307    4.4309307   -417.51195   -9617.9762    43965.663   -35600.222    2670.4798    13901.566    8516.6872    86.993111 
    4500    2282.4894   -109.01367    2.0652443   -106.94842   -14913.727    4.4279647    4.4279647    4.4279647   -14913.727    24980.599   -19777.769   -49944.013    8656.8741   -57.773372   -11840.704    86.818532 
    4600    1473.5989   -108.26436    1.3333433   -106.93101    30900.217    4.4156908    4.4156908    4.4156908    30900.217    11409.203    120209.79   -38918.347   -19694.566   -4840.7963   -24428.117    86.098575 
    4700    2136.2636   -108.87329    1.9329362   -106.94035    3391.1896    4.4235065    4.4235065    4.4235065    3391.1896    18470.837    4442.4282   -12739.696    443.36898    4506.7153    17199.607    86.556565 
    4800    1713.7343   -108.48941    1.5506228   -106.93879    31627.265    4.4221023    4.4221023    4.4221023    31627.265    27694.312    94079.438   -26891.954    7934.4433   -6115.5761   -7677.1763     86.47416 
    4900    1925.1641   -108.68337    1.7419289   -106.94144   -27885.897    4.4267146    4.4267146    4.4267146   -27885.897   -55229.094    15600.907   -44029.503   -8617.9498    3212.1804   -17551.139    86.745024 
    5000    1656.5771    -108.4326    1.4989058   -106.93369   -6972.1286     4.427329     4.427329     4.427329   -6972.1286    1117.1593     21679.95   -43713.495    7306.2287    8014.8679    476.40763    86.781148 
    5100    2096.6504   -108.82581    1.8970933   -106.92872    4165.5921      4.42481      4.42481      4.42481    4165.5921    24428.693    27595.791   -39527.708    21872.839    5017.5011   -5555.8018    86.633104 
    5200    1993.7933   -108.75269    1.8040261   -106.94866   -23156.315    4.4295185    4.4295185    4.4295185   -23156.315    -28389.52   -10450.783   -30628.642   -695.82973    3046.1579   -13913.302    86.909963 
    5300    2046.2021   -108.79564    1.8514466   -106.94419   -12258.661    4.4281123    4.4281123    4.4281123   -12258.661   -85268.032    39055.388    9436.6616   -15281.967   -17760.862   -3015.7912    86.827214 
    5400    1312.1939   -108.12934    1.1873006   -106.94204    9286.5377    4.4342677    4.4342677    4.4342677    9286.5377   -36495.231    73821.628   -9466.7846    1960.8546    9079.7172    2948.9577    87.189811 
    5500    2416.8471   -109.11194     2.186814   -106.92512   -39233.346    4.4375479    4.4375479    4.4375479   -39233.346   -19100.714   -17988.947   -80610.377   -15155.693   -10289.082    11086.972    87.383445 
    5600    2039.6981   -108.76486    1.8455617    -106.9193   -7209.7767     4.437559     4.437559     4.437559   -7209.7767   -3975.5837    49694.498   -67348.244   -11912.769   -9462.7054   -11266.635    87.384101 
    5700    2694.0961   -109.34245    2.4376748   -106.90478   -28041.457    4.4281986    4.4281986    4.4281986   -28041.457   -11249.626   -26178.067   -46696.676    4193.4379    22455.639    12819.399    86.832294 
    5800    1893.8483   -108.63398    1.7135937   -106.92039    19512.978    4.4193984    4.4193984    4.4193984    19512.978   -34847.734    63204.903    30181.764   -15983.291   -2961.9259    5212.2856    86.315632 
    5900    1781.7911   -108.55226     1.612202   -106.94006   -36515.489     4.431391     4.431391     4.431391   -36515.489   -75472.227   -18911.973   -15162.266   -3338.0026    -22938.28   -5903.5897    87.020229 
    6000    1749.2025   -108.52017    1.5827152   -106.93746   -22265.185    4.4340091    4.4340091    4.4340091   -22265.185   -24441.162    8314.8806   -50669.275   -7217.2771    588.43526   -7433.9122    87.174556 
    6100    2318.1355   -109.01951    2.0974977   -106.92201    -10066.35    4.4230834    4.4230834    4.4230834    -10066.35   -1244.8538   -15941.265   -13012.932    29078.407    394.71978   -1692.3435    86.531731 
    6200    2120.0693   -108.84183    1.9182833   -106.92355    4953.2576    4.4205261    4.4205261    4.4205261    4953.2576   -32279.115   -4925.4997    52064.388   -10061.081   -1397.4325   -6025.4882    86.381724 
    6300    2084.5375   -108.81944    1.8861334   -106.93331   -19080.282    4.4250681    4.4250681    4.4250681   -19080.282   -61605.098   -10296.184    14660.436   -22270.707   -32209.187    6500.8802    86.648267 
    6400    1567.1139    -108.3493    1.4179576   -106.93134    13936.454    4.4243151    4.4243151    4.4243151    13936.454   -25196.257    56081.491    10924.129    15129.607   -7936.8317   -2734.2584     86.60404 
    6500    2045.2448   -108.78506    1.8505805   -106.93448   -15146.791    4.4329187    4.4329187    4.4329187   -15146.791    2894.6646   -18830.582   -29504.455   -13153.576    1257.0337   -1980.3114    87.110255 
    6600    1834.7122   -108.58585    1.6600862   -106.92577   -21380.758    4.4423264    4.4423264    4.4423264   -21380.758   -13699.518   -4546.3013   -45896.456   -9033.5781   -24711.068    4211.1852    87.666039 
    6700    2012.4494   -108.72701    1.8209065    -106.9061   -23040.383     4.437244     4.437244     4.437244   -23040.383   -27426.304   -1271.4351    -40423.41   -9990.9643   -10159.395    2944.1655     87.36549 
    6800    2105.8212   -108.80894    1.9053913   -106.90355   -23397.204    4.4253625    4.4253625    4.4253625   -23397.204   -38296.808   -7491.8356   -24402.969   -1394.2955    -286.0485    17094.608    86.665561 
    6900    1613.9799   -108.40411    1.4603629   -106.94374   -6771.1618    4.4299229    4.4299229    4.4299229   -6771.1618   -50496.718    63127.418   -32944.185    6683.1008    6859.1731    461.60217    86.933767 
    7000    2084.5061    -108.8182    1.8861049   -106.93209   -17591.695    4.4419254    4.4419254    4.4419254   -17591.695    8860.4901   -36951.859   -24683.717    17570.226    22789.761   -7174.5602    87.642306 
    7100    1971.7938   -108.70048    1.7841204   -106.91636    7119.7907    4.4409065    4.4409065    4.4409065    7119.7907    68168.793   -8686.8413   -38122.579    1782.3378    19029.784    2065.1688    87.582005 
    7200    1924.0224   -108.63032    1.7408959   -106.88942    12791.861    4.4374545    4.4374545    4.4374545    12791.861    54080.213    12004.533   -27709.163   -15449.302   -7.0524151    3071.8745    87.377927 
    7300    1134.3433   -107.91744    1.0263776   -106.89107     17934.67    4.4360411    4.4360411    4.4360411     17934.67    62639.884    -3550.307   -5285.5666   -20419.552   -22101.589   -10489.353    87.294459 
    7400    854.43351   -107.67032   0.77310939   -106.89721    16297.663    4.4282348    4.4282348    4.4282348    16297.663    55836.362   -6745.4246   -197.94787   -10525.279   -24042.151   -16440.375    86.834421 
    7500    1811.3785   -108.56338    1.6389733   -106.92441    22557.505    4.4221302    4.4221302    4.4221302    22557.505    58092.701     16597.91    -7018.095   -13240.582   -20475.181   -4867.0394    86.475797 
    7600    2170.2736   -108.92041    1.9637092    -106.9567    6310.1734    4.4419513    4.4419513    4.4419513    6310.1734    64482.404   -8452.7519   -37099.132    6564.3874   -15045.821   -358.04208    87.643838 
    7700     2629.742   -109.31636    2.3794458   -106.93691   -15727.826    4.4510571    4.4510571    4.4510571   -15727.826    21381.701   -39621.235   -28943.946   -16755.056    13608.318   -209.90325    88.183938 
    7800    1264.0408    -108.0609    1.1437307   -106.91717   -4224.5578    4.4377192    4.4377192    4.4377192   -4224.5578   -34626.613     36360.32   -14407.381   -11502.074    15101.407    7935.5077    87.393564 
    7900     1558.914   -108.30748    1.4105382   -106.89694    14537.345    4.4169077    4.4169077    4.4169077    14537.345    37144.876     43270.45   -36803.292   -10630.448   -18264.787   -4853.7708    86.169779 
    8000    2210.2494    -108.9317    1.9998801   -106.93182   -31337.207     4.430402     4.430402     4.430402   -31337.207   -30849.922    14529.616   -77691.314    -1051.955    19768.363    561.30851    86.961978 
    8100    1630.1913   -108.40481    1.4750314   -106.92978   -12262.287    4.4457392    4.4457392    4.4457392   -12262.287    4066.4812    26810.553   -67663.895   -5731.0691    50729.399    18580.811    87.868241 
    8200    1878.6542   -108.59721    1.6998458   -106.89737    8687.4591    4.4291557    4.4291557    4.4291557    8687.4591     17973.07   -27219.929    35309.236    3296.4313    17670.423    17753.769    86.888608 
    8300    1917.2965   -108.63899    1.7348102   -106.90418   -3915.9351    4.4237141    4.4237141    4.4237141   -3915.9351   -35134.457    43788.815   -20402.164    8033.1665   -13639.884   -24886.449    86.568754 
    8400     1881.865   -108.63773     1.702751   -106.93498   -16173.714    4.4357784    4.4357784    4.4357784   -16173.714   -25886.404    10965.006   -33599.743    17412.518    3836.9206   -2331.8112     87.27895 
    8500    1480.1273   -108.27064    1.3392503   -106.93139    40434.939    4.4271594    4.4271594    4.4271594    40434.939    27781.587    70613.611    22909.619    16141.427    18434.459   -10944.179    86.771178 
    8600    2038.5598   -108.78655    1.8445317   -106.94202    15392.187    4.4348694    4.4348694    4.4348694    15392.187    20030.987    34237.197   -8091.6224    -11589.03   -14975.334    7100.8606     87.22531 
    8700    2538.0399   -109.20699    2.2964718   -106.91052   -24179.519    4.4485582    4.4485582    4.4485582   -24179.519    15201.545   -49145.567   -38594.536    2090.4202    -22258.62    25022.897    88.035496 
    8800     1932.548   -108.64557      1.74861   -106.89696    2080.7342    4.4182243    4.4182243    4.4182243    2080.7342     5349.316    17391.044   -16498.158    5892.3211    6523.6969    3210.5347    86.246857 
    8900     1397.892   -108.17344     1.264842   -106.90859    39349.769    4.3983251    4.3983251    4.3983251    39349.769    52633.575    15036.907    50378.824   -26596.029   -5301.0729   -5991.4681    85.086758 
    9000    1290.6149   -108.15086    1.1677755   -106.98309   -14317.965    4.4390451    4.4390451    4.4390451   -14317.965   -30953.071    13892.613   -25893.436    219.10099    -10383.25    8176.6441    87.471923 
    9100    2225.6481   -108.94032    2.0138131   -106.92651   -32668.183    4.4658897    4.4658897    4.4658897   -32668.183   -37929.088   -37736.594   -22338.867     24171.03   -12916.492   -4469.4601    89.068466 
    9200    2562.0936   -109.19424    2.3182361     -106.876   -13708.641    4.4532286    4.4532286    4.4532286   -13708.641   -47718.093    32287.162   -25694.992    10079.693    3992.7202   -11526.438    88.313065 
    9300     2064.438   -108.72072    1.8679469   -106.85277    4817.2814    4.4263058    4.4263058    4.4263058    4817.2814    13899.018    10868.461   -10315.635    2147.6033   -6628.6776    4253.7723    86.720993 
    9400    1762.5843    -108.4762    1.5948233   -106.88138   -23867.646    4.4239023    4.4239023    4.4239023   -23867.646    -13907.53   -18155.205   -39540.202   -13474.455    28679.653   -7028.2878    86.579801 
    9500    1548.0893    -108.3102    1.4007438   -106.90945   -24248.612    4.4392929    4.4392929    4.4392929   -24248.612   -783.19111   -8985.9547    -62976.69    24312.314    2865.4006   -11898.984    87.486572 
    9600    2247.4254   -108.93362    2.0335177    -106.9001    3568.3855    4.4409218    4.4409218    4.4409218    3568.3855    35361.351    -14121.13   -10535.065   -5871.9175   -22308.874     16347.12    87.582912 
    9700    2738.5185   -109.38742    2.4778691   -106.90955    -16743.32     4.437403     4.437403     4.437403    -16743.32    6880.3559    -11352.81   -45757.506   -19529.114    14172.816    3042.3881    87.374887 
    9800    2178.1715   -108.88853    1.9708554   -106.91767   -24537.201    4.4304386    4.4304386    4.4304386   -24537.201    16037.302   -13391.621   -76257.285    11347.111    -10212.43    2036.7086    86.964131 
    9900    1512.2272   -108.29527    1.3682949   -106.92697   -9111.0224    4.4249935    4.4249935    4.4249935   -9111.0224    18607.395    25124.461   -71064.924   -9641.2937   -7468.0189    8259.6017    86.643885 
   10000    2141.5552   -108.88134    1.9377241   -106.94362   -50739.971    4.4380338    4.4380338    4.4380338   -50739.971   -81359.952   -25301.971    -45557.99   -2111.3456     13246.61   -8209.8928    87.412151 
   10100    2161.2859   -108.87911    1.9555769   -106.92354   -9467.0551    4.4456076    4.4456076    4.4456076   -9467.0551   -32969.677   -42275.954    46844.466    3657.6434   -6062.6461   -16693.046     87.86044 
   10200    2614.2401   -109.27431    2.3654194   -106.90889   -16206.817    4.4420123    4.4420123    4.4420123   -16206.817    20890.779   -38313.221   -31198.008   -12922.103    11413.242   -8814.9402    87.647447 
   10300    1405.6917   -108.19019    1.2718994   -106.91829    27847.479     4.436265     4.436265     4.436265    27847.479    49162.062   -15020.735    49401.109    27155.665   -13481.755    7728.8383    87.307677 
   10400    1489.7343   -108.27839    1.3479429   -106.93045   -23939.347    4.4282191    4.4282191    4.4282191   -23939.347   -31524.621    14766.477   -55059.897    21622.848    9973.1181   -42.174255      86.8335 
   10500    1661.8307   -108.44602    1.5036594   -106.94237   -14733.953    4.4318855    4.4318855    4.4318855   -14733.953   -29877.762    22781.016   -37105.113   -3791.4584   -6171.7071   -561.70247    87.049362 
   10600    2689.4124   -109.36286    2.4334369   -106.92942   -54316.668     4.446115     4.446115     4.446115   -54316.668    -64431.53   -50067.646   -48450.828    18665.185   -8578.7936   -12724.707    87.890529 
   10700    1999.8373   -108.74458    1.8094948   -106.93508   -8386.1728    4.4348569    4.4348569    4.4348569   -8386.1728    38584.785   -8019.7648   -55723.539   -13143.033     36247.94   -9625.7566    87.224569 
   10800    1998.5472   -108.72089    1.8083275   -106.91256    12051.276    4.4123341    4.4123341    4.4123341    12051.276    22983.528     65785.21   -52614.909   -808.67456    -10723.92    2563.1334    85.902372 
   10900    1624.0685   -108.41935    1.4694913   -106.94986    16047.946    4.4326362    4.4326362    4.4326362    16047.946    28994.315    22598.744    -3449.221    19295.688   -2022.1465   -1366.8359    87.093602 
   11000     1278.609   -108.07459    1.1569123   -106.91768   -17157.559    4.4653108    4.4653108    4.4653108   -17157.559   -30471.515   -24775.051    3773.8887    -11530.05     37230.49   -1764.5217    89.033834 
   11100    2038.0393   -108.73864    1.8440608   -106.89458    12362.995     4.427329     4.427329     4.427329    12362.995     28132.38    2035.7955    6920.8107   -2250.3152    5919.9187   -2401.8682    86.781148 
   11200     2927.227   -109.52946    2.6486165   -106.88085    16689.097    4.3922895    4.3922895    4.3922895    16689.097    26115.223   -8309.7675    32261.835    14209.365   -7756.3777    5118.7043    84.736956 
   11300    1967.1018   -108.74823     1.779875   -106.96836    14747.305    4.4201433    4.4201433    4.4201433    14747.305     39272.98    11166.804   -6197.8697   -11829.798    26120.587    4647.6184    86.359289 
   11400    1439.9831   -108.26048    1.3029269   -106.95756   -13796.878    4.4520562    4.4520562    4.4520562   -13796.878   -38352.606   -29618.519    26580.491    9318.5498    2174.7086    3235.3156    88.243336 
   11500    1418.3149   -108.18596    1.2833211   -106.90264   -11328.672    4.4602743    4.4602743    4.4602743   -11328.672   -72081.624   -41923.039    80018.647    3420.8709    5534.9445    760.21399    88.732906 
   11600     2520.557   -109.15621    2.2806529   -106.87555   -26485.707    4.4436416    4.4436416    4.4436416   -26485.707    -63127.16   -46114.211     29784.25    8157.6879   -9566.9085    1411.7967    87.743928 
   11700    2550.9142   -109.18959    2.3081208   -106.88147    24700.662    4.4107305    4.4107305    4.4107305    24700.662    3820.4326     15166.35    55115.204   -6243.6326    4303.3726     4274.318    85.808746 
   11800    2371.4653   -109.06501    2.1457516   -106.91926    6332.4021    4.4083505    4.4083505    4.4083505    6332.4021    2424.7752    2149.2068    14423.224   -7701.4457    30165.383   -3748.4522    85.669916 
   11900     1174.609   -108.03597    1.0628109   -106.97316   -15668.353    4.4475992    4.4475992    4.4475992   -15668.353   -90147.023   -24010.155    67152.119   -409.81953    4149.0263   -2629.4866    87.978579 
   12000    1476.6173   -108.25465    1.3360744   -106.91858   -57939.722    4.4633615    4.4633615    4.4633615   -57939.722      -124330   -46734.931   -2754.2325    6080.8647    29268.173    4568.1915    88.917285 
   12100    2062.3988   -108.75815    1.8661018   -106.89205    17065.244    4.4243266    4.4243266    4.4243266    17065.244    28555.591    -50255.62     72895.76    7249.5269    22720.209    2357.5247    86.604717 
   12200    3135.6285   -109.73078    2.8371825   -106.89359    15434.316    4.4036386    4.4036386    4.4036386    15434.316    15582.607    18588.672    12131.669    7789.3061   -26373.865   -18125.196    85.395506 
   12300    1824.1046   -108.62887    1.6504881   -106.97838    15447.699      4.42123      4.42123      4.42123    15447.699     25051.47    -28024.15    49315.777   -10282.891    19656.544    18463.104       86.423 
   12400    2068.9919   -108.84499    1.8720674   -106.97292    -20391.44    4.4456156    4.4456156    4.4456156    -20391.44   -68151.958   -28359.963      35337.6   -18273.794    15732.266   -1789.9982    87.860918 
   12500    1920.5233   -108.68294    1.7377298   -106.94521   -37555.089    4.4478977    4.4478977    4.4478977   -37555.089   -100310.18    4983.3476   -17338.437     7428.043    15919.623   -724.58152    87.996294 
   12600    1475.8552   -108.24751    1.3353848   -106.91212    34843.709    4.4348327    4.4348327    4.4348327    34843.709   -14988.472   -25553.629    145073.23    5577.3165   -10026.422   -4536.3991    87.223141 
   12700    2280.3538   -108.97471     2.063312    -106.9114   -18237.393    4.4404259    4.4404259    4.4404259   -18237.393    11567.556   -56829.042   -9450.6913    2243.5823   -22366.487    20205.592    87.553577 
   12800    1865.1096   -108.60221    1.6875904   -106.91461   -22040.019    4.4381047    4.4381047    4.4381047   -22040.019    -42116.74   -26363.934    2360.6171    1591.2681    22042.648    3838.5278    87.416344 
   12900    1785.1661   -108.52414    1.6152558   -106.90889   -11196.781    4.4325771    4.4325771    4.4325771   -11196.781   -98569.531    32397.005    32582.183   -6504.0416    4383.2273    26189.486    87.090122 
   13000    1634.7488   -108.39345    1.4791551   -106.91429    14379.495    4.4329415    4.4329415    4.4329415    14379.495    -49356.06    30199.626     62294.92    3595.1968   -1820.8991    24458.987      87.1116 
   13100    1615.8043   -108.37564    1.4620137   -106.91362    34040.703    4.4364024    4.4364024    4.4364024    34040.703    32216.372    33554.929    36350.808   -8828.0394    14593.643    5904.5996    87.315793 
   13200    1954.0438   -108.68591    1.7680599   -106.91785   -3758.6474    4.4440476    4.4440476    4.4440476   -3758.6474     -10324.1   -2607.9117    1656.0697   -4976.6545   -4377.1888    9739.8161    87.767978 
   13300    1951.5161   -108.67216    1.7657728   -106.90639   -12856.285     4.445817     4.445817     4.445817   -12856.285    15731.799   -34005.672   -20294.981   -6817.6804    8090.0168    14706.847    87.872857 
   13400    1702.1161   -108.43516    1.5401104   -106.89505   -5106.9264    4.4386032    4.4386032    4.4386032   -5106.9264     -43856.5   -24528.972    53064.693   -6097.8995    6605.5993   -15099.952    87.445801 
   13500    2088.3385   -108.79362    1.8895726   -106.90405    12798.849     4.433166     4.433166     4.433166    12798.849   -53832.237   -30183.827    122412.61   -4737.9821    9348.3415   -23547.277    87.124835 
   13600    2518.5708   -109.20369    2.2788558   -106.92484    8323.2943     4.438255     4.438255     4.438255    8323.2943    -27030.87    17180.221    34820.532    3788.0042   -3115.1437    10298.479    87.425223 
   13700    1333.3804   -108.15207    1.2064706    -106.9456   -17951.676    4.4474031    4.4474031    4.4474031   -17951.676   -55032.325    18414.874   -17237.578   -17261.595    -15863.59   -7449.0734    87.966938 
   13800    1589.6021   -108.35021    1.4383054   -106.91191    29186.131    4.4231836    4.4231836    4.4231836    29186.131    14706.513     40198.78    32653.099     -5990.31    147.30402   -3448.6761    86.537612 
   13900    1508.7365   -108.29737    1.3651365   -106.93223   -13508.213    4.4183559    4.4183559    4.4183559   -13508.213   -36400.959   -16458.986    12335.305    -16.46798   -16316.662    15557.536    86.254567 
   14000    1400.8934   -108.22576    1.2675578    -106.9582   -23160.824     4.430586     4.430586     4.430586   -23160.824   -22255.515   -10976.322   -36250.636   -14617.543   -6916.6966   -8692.3378     86.97281 
   14100    2024.0866   -108.77309    1.8314361   -106.94166   -478.55138     4.447991     4.447991     4.447991   -478.55138    16322.151    17377.878   -35135.683    10821.115    19246.133   -11733.026    88.001831 
   14200    2066.6302   -108.77069    1.8699305   -106.90076    -3300.345    4.4528154    4.4528154    4.4528154    -3300.345   -26456.225    16954.915    -399.7252    26652.255   -11800.789   -10109.042    88.288489 
   14300     2346.382   -109.00498    2.1230557   -106.88192   -19066.576    4.4277475    4.4277475    4.4277475   -19066.576    -37132.13   -29237.191    9169.5924    11961.339    5796.2378    5090.3716    86.805762 
   14400    1896.0177   -108.61232    1.7155567   -106.89677    51007.243     4.400127     4.400127     4.400127    51007.243    47246.747    20654.924    85120.057    2238.8647   -13412.532     16220.17    85.191377 
   14500    2077.8274   -108.83195    1.8800619   -106.95189   -34221.367      4.42486      4.42486      4.42486   -34221.367    2118.5706   -50371.734   -54410.938   -2473.9563    3694.2785   -5245.2283    86.636044 
   14600    1073.6253   -107.92194    0.9714387    -106.9505   -17085.889    4.4409563    4.4409563    4.4409563   -17085.889     4318.015   -62697.856    7122.1735     7267.066    33485.147   -6225.4835    87.584954 
   14700    1734.1785   -108.49862    1.5691211    -106.9295    4935.2467    4.4236891    4.4236891    4.4236891    4935.2467   -4404.1257   -28859.181    48069.047    7766.6279     997.6804   -6151.6656    86.567286 
   14800    2260.5268   -108.97839    2.0453722   -106.93302    3667.2972    4.4057304    4.4057304    4.4057304    3667.2972   -40860.163    19757.451    32104.603   -5645.4424   -4716.3155   -96.365026    85.517254 
   14900    1975.2552   -108.75383    1.7872524   -106.96658   -5660.2753    4.4203143    4.4203143    4.4203143   -5660.2753   -51987.564   -26481.753    61488.491    5674.4065    8297.7396    23040.433     86.36931 
   15000    2436.4169   -109.14579    2.2045212   -106.94127   -35733.386    4.4381964    4.4381964    4.4381964   -35733.386   -48112.772   -42895.945   -16191.441    13690.124   -19240.977    13395.263     87.42176 
   15100    2155.4674   -108.86588    1.9503122   -106.91556    3772.8993    4.4205031    4.4205031    4.4205031    3772.8993    -5758.871    54465.263   -37387.694   -5541.9333    5515.1247   -21498.531    86.380376 
   15200    1242.5133   -108.04388    1.1242522   -106.91962    8248.0864    4.4135245    4.4135245    4.4135245    8248.0864    2021.0134    47404.384   -24681.138    8863.6369    11352.669     7673.577     85.97192 
   15300    1323.7344   -108.12417    1.1977427   -106.92642   -1774.5015    4.4167123    4.4167123    4.4167123   -1774.5015   -18677.774    22656.841   -9302.5716     6271.239   -20070.549    1922.4261    86.158341 
   15400    2059.6837   -108.79357    1.8636451   -106.92992    5464.5384    4.4186823    4.4186823    4.4186823    5464.5384    40705.015    5428.7597    -29740.16   -4067.3314    27314.695   -6488.1156    86.273683 
   15500    2668.2518   -109.34065    2.4142903   -106.92636   -6153.0532     4.427122     4.427122     4.427122   -6153.0532   -22712.001     18877.75   -14624.909    6355.6805    701.40641   -7629.5361    86.768976 
   15600    2087.1177   -108.80485    1.8884679   -106.91639    7604.4495    4.4240126    4.4240126    4.4240126    7604.4495    10231.396    26551.382    -13969.43    2024.5025     14772.31    21808.951    86.586279 
   15700    1420.2142   -108.19765    1.2850397   -106.91261    30480.995    4.4147881    4.4147881    4.4147881    30480.995    54785.476    80095.523   -43438.015    3880.2558     4784.931    1532.6308    86.045781 
   15800    1534.6624    -108.3086    1.3885947   -106.92001    4503.7626    4.4094356    4.4094356    4.4094356    4503.7626    14959.519      50473.6    -51921.83   -126.36102   -5270.2543    1791.3567    85.733196 
   15900    983.70233   -107.84679   0.89007454   -106.95672    18040.864    4.4158735    4.4158735    4.4158735    18040.864    17416.151    63067.857   -26361.416    6913.8197    22550.935   -13985.342    86.109263 
   16000    2652.2762   -109.34161    2.3998353   -106.94178   -26342.993    4.4230169    4.4230169    4.4230169   -26342.993   -41094.224   -23361.711   -14573.044   -1337.4999    -5410.888   -7482.3661    86.527824 
   16100    1799.2457   -108.57551    1.6279953   -106.94751     27373.06    4.4105056    4.4105056    4.4105056     27373.06    36252.456    94770.213    -48903.49    5127.0573     4208.152    3932.7289    85.795621 
   16200    1896.7985   -108.68269    1.7162632   -106.96642    12827.454    4.4157188    4.4157188    4.4157188    12827.454    48626.698    57969.572   -68113.908    13434.669    7000.5101    6382.5514    86.100211 
   16300     1729.506   -108.53324    1.5648934   -106.96835   -4288.9964    4.4284222    4.4284222    4.4284222   -4288.9964    77512.091   -3643.7319   -86735.348    13143.312    4603.6378   -11133.461     86.84545 
   16400    1375.8209   -108.19189    1.2448717   -106.94701    6209.9088    4.4307265    4.4307265    4.4307265    6209.9088    51800.115    18571.584   -51741.973   -445.18483     12686.53    3262.0862    86.981087 
   16500    2401.3452   -109.09427    2.1727876   -106.92148   -28954.409    4.4270478    4.4270478    4.4270478   -28954.409   -52634.117   -20115.804   -14113.306    14553.501   -8948.3066   -4697.0179    86.764613 
   16600     1813.038   -108.55992    1.6404749   -106.91945    5055.2012    4.4195434    4.4195434    4.4195434    5055.2012    17589.793     31864.45   -34288.639    16186.595    8221.2793   -5596.2063    86.324129 
   16700    1988.5151     -108.724    1.7992502   -106.92475   -3759.9066    4.4208858    4.4208858    4.4208858   -3759.9066    53859.512    25340.375   -90479.607   -3484.1001    8911.3929    9117.6723    86.402812 
   16800    2289.6385    -109.0019     2.071713   -106.93019   -18173.782    4.4216093    4.4216093    4.4216093   -18173.782   -4179.7028    18432.031   -68773.675    5164.6662   -17367.642    2897.5745    86.445243 
   16900    1346.6539   -108.15631    1.2184808   -106.93783    37813.671    4.4187085    4.4187085    4.4187085    37813.671    47015.065    76359.541   -9933.5937      7112.73    23967.748   -7054.5418    86.275217 
   17000    2112.8507   -108.84423    1.9117517   -106.93248   -13470.402     4.432188     4.432188     4.432188   -13470.402    -5709.634   -7550.7639   -27150.809   -7776.8761   -1286.1254   -12658.886    87.067187 
   17100     1932.437   -108.67115    1.7485096   -106.92264    15990.515    4.4187187    4.4187187    4.4187187    15990.515    58121.351    37318.641   -47468.448    6923.5883   -7127.6571    2544.6054    86.275811 
   17200    1851.3076   -108.61987     1.675102   -106.94477     18385.81    4.4042461    4.4042461    4.4042461     18385.81    51716.623    38698.053   -35257.247    12296.124    8568.3157    2445.0062    85.430849 
   17300    2195.8478   -108.95539    1.9868492   -106.96854    8668.0978    4.4188082    4.4188082    4.4188082    8668.0978   -2462.0635    36524.565   -8058.2082   -16218.884   -6086.1798   -1263.9424    86.281054 
   17400    1792.4121   -108.58496    1.6218121   -106.96315    -15854.07    4.4358119    4.4358119    4.4358119    -15854.07   -10770.864   -11844.807    -24946.54   -25009.047    1166.5464    6602.8822    87.280931 
   17500    2045.9793   -108.77345    1.8512451   -106.92221   -29446.223    4.4325528    4.4325528    4.4325528   -29446.223   -88042.909    32949.539   -33245.299    12664.657   -8134.1253   -678.18635    87.088688 
   17600    1712.7015   -108.45629    1.5496883    -106.9066    43182.413    4.4126261    4.4126261    4.4126261    43182.413    109238.15    9938.5897    10370.502   -21059.194   -2019.0045    5027.4808    85.919432 
   17700    1527.5386   -108.32346     1.382149   -106.94131    36226.732     4.409882     4.409882     4.409882    36226.732    49847.221    62307.395   -3474.4182   -565.37932    2048.8442    2017.9046    85.759239 
   17800    2360.1782   -109.10738    2.1355388   -106.97184   -28598.088    4.4292215    4.4292215    4.4292215   -28598.088   -8483.6458   -3991.1192   -73319.498     4940.572   -14007.069   -7752.4212     86.89248 
   17900     1833.939   -108.62442    1.6593866   -106.96503   -45526.067    4.4332508    4.4332508    4.4332508   -45526.067   -27390.193   -61477.588    -47710.42    -28131.59   -13050.953      5443.96     87.12984 
   18000    1987.7592   -108.72489    1.7985663   -106.92632    14543.567    4.3991168    4.3991168    4.3991168    14543.567    -7574.597    49450.395    1754.9025    6987.7776    19370.053    12223.217    85.132713 
   18100    2158.4265   -108.90198    1.9529896   -106.94899    15582.858    4.4012244    4.4012244    4.4012244    15582.858    49010.979   -9337.8959    7075.4907     2187.387    6709.7732   -10819.874    85.255133 
   18200    1536.1022   -108.36664    1.3898975   -106.97674    -13569.86    4.4279994    4.4279994    4.4279994    -13569.86   -62014.938     46982.51   -25677.152   -28031.472   -20415.035    9851.5935    86.820577 
   18300    1905.9757   -108.69286    1.7245669    -106.9683   -56964.756    4.4412609    4.4412609    4.4412609   -56964.756   -32685.236   -45515.629   -92693.401   -13513.386     6611.896   -2972.4834    87.602976 
   18400    1989.4516   -108.74204    1.8000976   -106.94194    1270.7186     4.431743     4.431743     4.431743    1270.7186    59976.567     6795.115   -62959.526   -5496.5989   -8770.7925   -9091.5033    87.040967 
   18500    2611.2988   -109.29325     2.362758   -106.93049   -21679.187    4.4178801    4.4178801    4.4178801   -21679.187   -13094.159   -24494.939   -27448.464   -3052.1742    26600.341    22352.681    86.226702 
   18600    1782.9348    -108.5561    1.6132369   -106.94286    19558.204    4.4062834    4.4062834    4.4062834    19558.204    54860.765    19714.892   -15901.044    -26570.85    26378.464   -2585.7147    85.549459 
   18700    2259.0754   -109.00207    2.0440589   -106.95802   -2888.1609    4.4123933    4.4123933    4.4123933   -2888.1609    24160.563   -11122.816   -21702.229    3915.5381   -25544.791   -7279.6836    85.905831 
   18800    1176.7096   -108.04607    1.0647116   -106.98136   -36337.577    4.4399323    4.4399323    4.4399323   -36337.577   -20637.149   -11507.534   -76868.047    4445.3372    17295.176   -5272.3636    87.524382 
   18900    1209.7104   -108.05079    1.0945714   -106.95622    34703.125    4.4328065    4.4328065    4.4328065    34703.125    163964.68   -20628.868   -39226.435    4232.2443    9766.6116   -10697.961    87.103646 
   19000    2868.3712   -109.53381    2.5953626   -106.93845   -7993.7251    4.4220613    4.4220613    4.4220613   -7993.7251    28545.514    -29250.79   -23275.899   -14074.738    759.44342    1703.2328    86.471758 
   19100    2539.3503   -109.24775    2.2976575   -106.95009   -18316.245    4.4201071    4.4201071    4.4201071   -18316.245   -2163.7771   -18634.938   -34150.021   -10728.084    8710.3398   -12540.444    86.357166 
   19200    1833.8872   -108.62516    1.6593397   -106.96582    6401.2762    4.4303496    4.4303496    4.4303496    6401.2762    64984.496   -22333.287    -23447.38    5407.2734   -9163.1223   -9063.8142    86.958889 
   19300    1755.8416   -108.54029    1.5887223   -106.95157   -856.04195    4.4346829    4.4346829    4.4346829   -856.04195    72545.621   -12622.616    -62491.13   -2639.6183   -15713.857    2136.4108    87.214301 
   19400    2124.9048   -108.85669    1.9226586   -106.93403    6848.0311    4.4225102    4.4225102    4.4225102    6848.0311    74390.691   -26854.225   -26992.373    2787.1115    14447.008   -3502.7265     86.49809 
   19500    1991.2922   -108.74541     1.801763   -106.94364   -16189.085    4.4190321    4.4190321    4.4190321   -16189.085   -46824.978   -39113.384    37371.107   -4298.3335    5235.3565   -1223.2249    86.294175 
   19600    1357.9018   -108.18114    1.2286581   -106.95248    1725.9858    4.4186971    4.4186971    4.4186971    1725.9858    23431.186   -42727.501    24474.272   -10131.085   -11344.872   -1518.1932    86.274551 
   19700    2057.8407   -108.79685    1.8619775   -106.93487   -15937.697    4.4155244    4.4155244    4.4155244   -15937.697    14086.489   -796.52024   -61103.061    773.36554   -6974.7698    -3039.045    86.088843 
   19800      1753.86   -108.54084    1.5869294   -106.95392   -17218.162    4.4199299    4.4199299    4.4199299   -17218.162    44593.038   -29552.808   -66694.717   -37195.477   -10021.523   -3895.4512    86.346781 
   19900    2325.0645   -109.04796    2.1037673   -106.94419    17288.565    4.4198685    4.4198685    4.4198685    17288.565    42638.885   -31477.579    40704.387   -885.25255    2586.3801    -8451.606    86.343182 
   20000    1892.0126   -108.64653    1.7119328   -106.93459   -32362.292    4.4357092    4.4357092    4.4357092   -32362.292   -88630.849    23784.803   -32240.829    5374.0596   -39082.409   -15192.249    87.274865 
   20100    1577.5098    -108.3462     1.427364   -106.91883   -57621.793    4.4287951    4.4287951    4.4287951   -57621.793   -118578.47   -7953.1612   -46333.742   -21318.309    -5833.914   -2262.6892    86.867391 
   20200    1805.7223    -108.5424    1.6338555   -106.90854    28273.107    4.3960402    4.3960402    4.3960402    28273.107   -7812.1358     79812.04    12819.418    14789.579    16311.487   -3368.7384    84.954224 
   20300    2505.8393   -109.20372    2.2673361   -106.93639   -2731.5352     4.397199     4.397199     4.397199   -2731.5352    6964.5353    6385.5453   -21544.686    -28249.44   -20047.164   -5255.7461    85.021419 
   20400    2332.4973    -109.0673    2.1104926   -106.95681   -3356.9306     4.410349     4.410349     4.410349   -3356.9306    3544.5555    7101.9132    -20717.26   -12397.166     1632.752     7876.745    85.786485 
   20500    1791.3459   -108.57403    1.6208474   -106.95318   -9424.0706    4.4325154    4.4325154    4.4325154   -9424.0706   -51412.574    22512.372    627.98969    24683.008   -3032.7563    4102.9681    87.086484 
   20600    1341.0587   -108.12038    1.2134181   -106.90696   -32842.573    4.4375661    4.4375661    4.4375661   -32842.573   -65611.052   -28915.559   -4001.1068    -17483.18   -4331.6671   -8752.3085    87.384521 
   20700    2162.5698    -108.8387    1.9567386   -106.88196    -5021.874    4.4020565    4.4020565    4.4020565    -5021.874    7619.9352   -416.59897   -22268.958   -17789.151   -819.27081   -1528.0412    85.303496 
   20800    1781.8821   -108.52365    1.6122844   -106.91136    11524.718    4.3928473    4.3928473    4.3928473    11524.718     26894.37    49261.248   -41581.463    244.01201   -14582.617    547.36921    84.769248 
   20900    2343.4645   -109.06762    2.1204159    -106.9472   -24273.499    4.4214737    4.4214737    4.4214737   -24273.499     28258.76   -54522.392   -46556.865    2340.7047   -6373.4547   -1944.6814     86.43729 
   21000    2319.3122   -109.01706    2.0985624    -106.9185   -21860.485    4.4404036    4.4404036    4.4404036   -21860.485   -14828.915   -36354.243   -14398.296    15215.883    14744.314    10806.763    87.552253 
   21100    1221.5344    -108.0048      1.10527   -106.89953   -12197.541    4.4362349    4.4362349    4.4362349   -12197.541   -57816.998     40163.11   -18938.734   -14424.957   -11167.405    3327.6945    87.305902 
   21200      2051.63   -108.73015    1.8563579    -106.8738    22075.335    4.4114639    4.4114639    4.4114639    22075.335    68960.331     21894.62   -24628.947    14207.393   -13833.415    812.30257    85.851559 
   21300     1321.452   -108.10781    1.1956776   -106.91213    44143.415    4.3989124    4.3989124    4.3989124    44143.415    44906.831    66788.034    20735.381       9314.6   -646.41172    13577.492     85.12085 
   21400    2563.9047   -109.26598    2.3198748   -106.94611    8545.6262    4.4185316    4.4185316    4.4185316    8545.6262    28615.468    6039.5288   -9018.1178   -5004.7387   -16161.171    3876.5362    86.264856 
   21500    2567.6079   -109.25709    2.3232256   -106.93387   -46732.486    4.4341189    4.4341189    4.4341189   -46732.486   -10909.416   -63145.386   -66142.657   -2379.1367    5830.2902    4044.6414    87.181033 
   21600    1156.0594   -107.97705    1.0460268   -106.93102    4933.4727    4.4067254    4.4067254    4.4067254    4933.4727   -43809.359    35119.018    23490.759   -2046.0897    3292.3938    8875.6999    85.575209 
   21700     2100.545   -108.81158    1.9006172   -106.91096     35989.18    4.3855624    4.3855624    4.3855624     35989.18    64707.709    24104.535    19155.298    15024.898   -4101.7714    16441.389    84.348214 
   21800    1180.1492   -108.02666    1.0678238   -106.95884   -10993.221    4.4005003    4.4005003    4.4005003   -10993.221   -10437.156    30561.518   -53104.024   -2822.2956    8709.8023    17957.183    85.213061 
   21900    1870.2851   -108.65161    1.6922732   -106.95934   -7990.7289    4.4150792    4.4150792    4.4150792   -7990.7289   -13008.449    12883.047   -23846.785    7019.1517   -4879.7819   -3875.8071    86.062804 
   22000    2046.6557   -108.78467    1.8518571   -106.93281    482.69141    4.4324141    4.4324141    4.4324141    482.69141    42366.219   -28494.121   -12424.023   -9282.2437    11079.816   -6439.5349    87.080514 
   22100    1394.4109   -108.18147    1.2616923   -106.91977    6856.3673    4.4173998    4.4173998    4.4173998    6856.3673    18196.009    34326.727   -31953.635   -14071.277   -18362.516     6619.153    86.198581 
   22200    1885.1996   -108.60189    1.7057683   -106.89613     23098.49     4.378189     4.378189     4.378189     23098.49    38754.459    2692.3762    27848.635    17183.694   -24689.455     1586.418    83.923486 
   22300    1434.3338   -108.25302    1.2978154   -106.95521    23344.264    4.3872749    4.3872749    4.3872749    23344.264    20313.358     11500.49    38218.944   -16458.082    25075.701    4257.6868    84.447063 
   22400    1954.4676   -108.73023    1.7684433   -106.96179    -22522.91    4.4213052    4.4213052    4.4213052    -22522.91   -32280.948    10579.268    -45867.05   -4274.9053    -10905.88    857.35781    86.427407 
   22500    2222.4019   -108.94362    2.0108759   -106.93274   -23115.792    4.4334105    4.4334105    4.4334105   -23115.792    -24981.47   -13997.539   -30368.366   -4508.4362   -2298.4089   -255.18986    87.139253 
   22600    1972.6186   -108.69789    1.7848667   -106.91303   -36330.722    4.4213878    4.4213878    4.4213878   -36330.722    4312.3423   -72464.484   -40840.025   -6553.7632   -3413.7889    4558.8549    86.432251 
   22700    1868.6855   -108.59561    1.6908259   -106.90479    6860.5632    4.3886819    4.3886819    4.3886819    6860.5632   -3882.0864    17601.348    6862.4283      12394.6   -28951.387    10772.005    84.528336 
   22800    1409.4326   -108.19802    1.2752843   -106.92274    33879.559    4.3801568    4.3801568    4.3801568    33879.559   -8837.7357    45920.049    64556.364    -25965.18    19228.527    3173.5821    84.036698 
   22900    1398.6175   -108.22878    1.2654985   -106.96328   -43039.193    4.4140068    4.4140068    4.4140068   -43039.193    -62010.23   -29802.141   -37305.209    2237.1442   -11254.201   -2144.1216    86.000105 
   23000    2601.4734   -109.28292    2.3538678   -106.92905   -9423.7169    4.4188779    4.4188779    4.4188779   -9423.7169   -43202.449    35519.577   -20588.279    5819.0043     -18319.4    3665.0676    86.285137 
   23100     2329.068   -109.03883    2.1073897   -106.93144   -13491.495    4.4015846    4.4015846    4.4015846   -13491.495   -4528.5544   -37952.936    2007.0054   -14121.648    17462.229    20252.283    85.276067 
   23200    1692.0211   -108.47445    1.5309763   -106.94347    -6162.143    4.3931952    4.3931952    4.3931952    -6162.143   -4284.6831   -31026.203    16824.457    4676.1307   -5703.8222   -8043.7507    84.789391 
   23300    1929.2704    -108.6968    1.7456444   -106.95115    26243.727    4.3932579    4.3932579    4.3932579    26243.727    17810.657    17333.337    43587.186   -14286.233   -5482.9499   -324.08941    84.793016 
   23400     1125.805   -107.98995     1.018652   -106.97129   -27180.704    4.4160633    4.4160633    4.4160633   -27180.704   -28086.646   -8634.9923   -44820.475    7337.7349     9557.342    20780.034    86.120368 
   23500    1639.6765   -108.43168    1.4836137   -106.94807    -34009.08    4.4186348    4.4186348    4.4186348    -34009.08    -59040.81   -36334.499   -6651.9318    9795.4826    3647.5358   -18666.168      86.2709 
   23600    2082.3343   -108.81477    1.8841399   -106.93063     9762.469    4.3904103    4.3904103    4.3904103     9762.469    6819.6903    7709.3503    14758.366   -3940.5335   -11480.752    28346.001    84.628245 
   23700    2285.6171   -109.01372    2.0680744   -106.94564   -4041.0208    4.3883512    4.3883512    4.3883512   -4041.0208    11405.403    4223.5403   -27752.006   -24902.843   -3273.0502   -16131.645    84.509226 
   23800    2294.1016    -109.0374    2.0757514   -106.96165    -21750.31    4.4021082    4.4021082    4.4021082    -21750.31    2090.8892   -44136.257   -23205.563     3691.087    7581.0378   -29840.416      85.3065 
   23900    2285.6486   -109.02813    2.0681029   -106.96003    22249.651     4.403161     4.403161     4.403161    22249.651    31340.811    22130.037    13278.104    14433.297   -11912.543    22271.349    85.367722 
   24000    1617.7835   -108.41995    1.4638045   -106.95614   -14364.048       4.4115       4.4115       4.4115   -14364.048   -18491.746   -28147.583     3547.186    -2215.825    9010.9329    -10071.69    85.853668 
   24100    1369.2481   -108.18596    1.2389245   -106.94704   -40387.898    4.4090639    4.4090639    4.4090639   -40387.898   -87210.325   -49677.758    15724.388   -13273.257   -142.28991   -1016.6922    85.711518 
   24200    2261.0358   -108.97709    2.0458327   -106.93126    1058.0323     4.397186     4.397186     4.397186    1058.0323   -29551.941   -90.775674    32816.814   -5484.1128   -10871.425   -4912.2765    85.020665 
   24300    1715.7049   -108.50336    1.5524059   -106.95095    6557.9211    4.4005888    4.4005888    4.4005888    6557.9211    8330.5991   -6450.2185    17793.383   -5413.3794    2073.0347   -32435.993    85.218199 
   24400    2295.4521   -109.02327    2.0769733    -106.9463    -15618.96    4.4050005    4.4050005    4.4050005    -15618.96   -13637.633     8717.799   -41937.047   -3028.9396   -9081.0222     6547.468    85.474757 
   24500     2241.182   -108.97298    2.0278685   -106.94511   -7566.8902    4.4048964    4.4048964    4.4048964   -7566.8902    25420.638   -6997.1954   -41124.114   -1028.2911    6280.4542    3706.9777    85.468702 
   24600    814.69922   -107.68955   0.73715698    -106.9524    33322.444    4.4059079    4.4059079    4.4059079    33322.444    12949.637    16199.405    70818.292   -2796.9907   -9938.4124   -35751.747    85.527592 
   24700     1961.057   -108.71693    1.7744056   -106.94252    3746.8697     4.410214     4.410214     4.410214    3746.8697    427.13591   -15673.335    26486.808   -7745.4208     10758.76    12335.949    85.778605 
   24800    2015.5788   -108.76096    1.8237381   -106.93722   -5534.7821     4.413997     4.413997     4.413997   -5534.7821   -34025.228   -58722.971    76143.853    5976.4628   -8155.5387   -2207.9094    85.999533 
   24900    1955.2296   -108.70231    1.7691328   -106.93318    50.506314    4.4121071    4.4121071    4.4121071    50.506314    4416.0377   -40428.177    36163.658   -2572.9689   -9068.1274   -11231.311    85.889119 
   25000    2445.5833   -109.13093    2.2128151   -106.91811   -10109.743    4.4047601    4.4047601    4.4047601   -10109.743    26274.437    166.92389   -56770.589   -10449.076    4302.7767    12561.494    85.460765 
   25100    1429.6512    -108.2232    1.2935785   -106.92962    1004.2444    4.4042281    4.4042281    4.4042281    1004.2444    14066.071    29154.742    -40208.08   -10815.488    -5047.964   -18651.134    85.429801 
   25200    1636.5065    -108.4215    1.4807455   -106.94076   -29257.109    4.4112745    4.4112745    4.4112745   -29257.109   -800.31316   -57066.426   -29904.586   -10665.305    11760.954    29235.957    85.840499 
   25300    2135.8631    -108.8661    1.9325738   -106.93353    23645.923    4.4039184    4.4039184    4.4039184    23645.923    48576.802   -6520.1139    28881.081    5387.0904   -14438.651    13094.915    85.411783 
   25400    1853.6602   -108.61942    1.6772307   -106.94219    25216.673    4.4077431    4.4077431    4.4077431    25216.673    22785.943    1253.7129    51610.364   -14474.373    13230.529   -25717.335    85.634513 
   25500    1650.5914   -108.43629    1.4934898    -106.9428   -29907.232    4.4120566    4.4120566    4.4120566   -29907.232     4003.965   -65926.008   -27799.652   -12708.314      4834.88    44147.834    85.886166 
   25600    2416.6714   -109.10516     2.186655   -106.91851   -731.12508    4.4001921    4.4001921    4.4001921   -731.12508    38497.129    7352.2108   -48042.716    2970.6916   -20505.807    20686.805    85.195157 
   25700    1698.9741   -108.47414    1.5372675   -106.93687   -6766.2133    4.4071183    4.4071183    4.4071183   -6766.2133    7815.3188   -4494.5419   -23619.417   -14205.831    17031.462    10777.762    85.598102 
   25800    1765.7234   -108.54086    1.5976637    -106.9432   -27374.248    4.4119773    4.4119773    4.4119773   -27374.248   -9795.0856   -82995.415    10667.757    10587.425   -7265.4574    23601.494    85.881539 
   25900    2604.7836   -109.28114     2.356863   -106.92428    7780.4046    4.4005593    4.4005593    4.4005593    7780.4046    14191.738   -28885.093    38034.568    8263.5172   -10075.103   -14103.922    85.216488 
   26000    1424.9462   -108.23629    1.2893212   -106.94696    21536.416    4.4041735    4.4041735    4.4041735    21536.416    22488.973    -47207.93    89328.207   -5988.4238    15058.122    32953.618    85.426628 
   26100    1679.5684   -108.46934    1.5197087   -106.94963   -32101.355    4.4190917    4.4190917    4.4190917   -32101.355   -1489.0495   -32075.368   -62739.647    7118.8059    5253.8955    6378.6876    86.297662 
   26200    2017.9173   -108.75257     1.825854   -106.92672    7637.0801    4.4157208    4.4157208    4.4157208    7637.0801   -1348.2929    31358.993   -7099.4602    1459.5238    -9070.222   -5325.0712     86.10033 
   26300    2053.9514   -108.78874    1.8584584   -106.93028    109.89755    4.4153626    4.4153626    4.4153626    109.89755     4039.055   -7135.2463     3425.884     6604.772    10151.397    40086.852    86.079379 
   26400    2284.5114   -108.99731     2.067074   -106.93023   -2329.8269    4.4140451    4.4140451    4.4140451   -2329.8269   -8410.2766   -19642.214     21063.01    11369.864    1654.6882   -10673.763    86.002346 
   26500    1757.0021   -108.51756    1.5897724   -106.92779    28876.111    4.3976518    4.3976518    4.3976518    28876.111    51263.341    14645.658    20719.333   -15501.599   -15190.262   -5152.0854    85.047691 
   26600    1027.1564   -107.89052    0.9293927   -106.96113    11738.517    4.4064884    4.4064884    4.4064884    11738.517    24759.832   -6982.4457    17438.164     7745.206    5794.3531    28683.111      85.5614 
   26700    1672.5124   -108.45683    1.5133244   -106.94351   -20071.576    4.4291446    4.4291446    4.4291446   -20071.576   -26837.695    5971.4455   -39348.477    6994.3175   -14025.661   -5060.5218    86.887953 
   26800    1921.6875   -108.66306    1.7387833   -106.92427    8433.2007    4.4252355    4.4252355    4.4252355    8433.2007    42683.854   -38774.317    21390.066   -2016.6086    1981.8596    10813.762    86.658103 
   26900    2588.7748   -109.25301    2.3423779   -106.91063    11026.233    4.4177684    4.4177684    4.4177684    11026.233    75949.386   -20272.215   -22598.471     2342.655    6270.3825   -7059.0687    86.220164 
   27000    2593.8772   -109.25655    2.3469946   -106.90955    3892.0036    4.4102495    4.4102495    4.4102495    3892.0036    18583.025    11145.259   -18052.273   -9134.0211    13863.167    3504.5455     85.78068 
   27100    1377.8723    -108.1779    1.2467278   -106.93117    21130.463    4.4080609    4.4080609    4.4080609    21130.463    61877.941   -37460.691     38974.14    6625.5989    -7754.722    26097.565    85.653034 
   27200    1471.7179   -108.27332    1.3316413   -106.94168     11745.48    4.4233539    4.4233539    4.4233539     11745.48    18380.912    21284.738   -4429.2096   -6121.7748   -9606.1562   -23996.331    86.547605 
   27300    1258.9377   -108.06976    1.1391133   -106.93065    6482.6658    4.4260279    4.4260279    4.4260279    6482.6658    8918.8473    35604.149   -25074.999    -6498.749     1012.017    25080.423    86.704659 
   27400     2318.766   -109.00847    2.0980682    -106.9104     7698.879    4.4170644    4.4170644    4.4170644     7698.879    28662.547   -18285.573    12719.662    467.42012    9276.4625     9005.147     86.17895 
   27500    2324.1774   -109.01328    2.1029646   -106.91032   -963.06488    4.4115956    4.4115956    4.4115956   -963.06488    8284.7271   -24092.105    12918.183    5101.8382   -6864.4339    14140.823    85.859247 
   27600    2192.5746   -108.91451    1.9838876   -106.93062    16862.532    4.4122954    4.4122954    4.4122954    16862.532    71923.567   -10971.681   -10364.289   -5792.9882   -4627.2988    26526.289    85.900113 
   27700     2392.149   -109.09011    2.1644667   -106.92564   -25685.254    4.4322544    4.4322544    4.4322544   -25685.254    39323.559   -56751.934   -59627.387    839.12873   -4578.4007   -1690.2847    87.071102 
   27800    1705.9972   -108.46245    1.5436221   -106.91883   -50040.255    4.4346222    4.4346222    4.4346222   -50040.255    732.15043   -70416.396    -80436.52   -8477.1926   -3068.1376    38307.591    87.210723 
   27900    1730.4574   -108.46155    1.5657542    -106.8958    21000.774    4.4051545    4.4051545    4.4051545    21000.774    37599.891    31591.615   -6189.1842   -15281.611    1088.4844   -20030.585    85.483724 
   28000    1628.9612   -108.40128    1.4739183   -106.92736     6745.218    4.4026807    4.4026807    4.4026807     6745.218   -60318.584    69855.214    10699.024    3500.2219   -2587.1446    9945.8533    85.339793 
   28100    2298.2017   -109.03528    2.0794612   -106.95582    -36741.26    4.4252496    4.4252496    4.4252496    -36741.26   -27474.043   -41030.472   -41719.263    9846.6802     -7426.18    16165.524    86.658928 
   28200    2457.2819   -109.15651    2.2234003   -106.93311   -37588.596    4.4416153    4.4416153    4.4416153   -37588.596    5695.9403   -63894.897   -54566.831    9299.3514    7235.0962   -4404.0072    87.623948 
   28300    1216.1563   -108.01419    1.1004038   -106.91379    638.47906    4.4322465    4.4322465    4.4322465    638.47906   -767.22854   -1977.9236    4660.5893   -2761.4036    13702.446    37454.739    87.070635 
   28400    2268.6945   -108.94488    2.0527625   -106.89212    725.52029    4.4123918    4.4123918    4.4123918    725.52029   -24273.793    16158.052    10292.302    11430.557   -12312.498   -11519.776    85.905743 
   28500    1896.9962   -108.63268     1.716442   -106.91624    40760.052    4.4016983    4.4016983    4.4016983    40760.052    90546.224    33300.369   -1566.4355    6935.4373    12924.187    2775.4295    85.282676 
   28600    1683.8551   -108.49599    1.5235875   -106.97241     1078.566     4.429617     4.429617     4.429617     1078.566   -12100.651    11257.028    4079.3211   -3331.7475   -3746.8492    27543.413    86.915762 
   28700     2105.779   -108.83793    1.9053531   -106.93258   -36764.494    4.4438283    4.4438283    4.4438283   -36764.494   -5321.5134   -90784.852   -14187.116     3689.077    2613.1459   -8465.6978     87.75499 
   28800    1304.3214   -108.10213    1.1801774   -106.92195    14064.273    4.4033905    4.4033905    4.4033905    14064.273    61614.813    244.30674     -19666.3   -11340.665    8342.0997     18277.46    85.381073 
   28900    2092.2362   -108.81923    1.8930993   -106.92613    45515.932    4.3880641    4.3880641    4.3880641    45515.932    15118.768    59058.866    62370.162    14088.914    642.92652    23716.163    84.492641 
   29000    2567.2163   -109.27089    2.3228712   -106.94802   -12098.989    4.4207411    4.4207411    4.4207411   -12098.989    -12928.52   -12286.406   -11082.043    4201.8421   -281.56376     11574.49    86.394331 
   29100    2050.7646   -108.78257    1.8555749     -106.927   -31508.961    4.4296314    4.4296314    4.4296314   -31508.961   -11367.767   -48319.476    -34839.64   -11712.698   -10539.191    17865.067    86.916605 
   29200    1469.6197     -108.244    1.3297428   -106.91426    12465.792     4.428118     4.428118     4.428118    12465.792    21289.667    6219.8113    9887.8988   -5219.7935   -8753.5175   -16244.412    86.827553 
   29300     1308.723   -108.09884    1.1841601   -106.91468    24587.963    4.4322336    4.4322336    4.4322336    24587.963    28161.531   -28447.433    74049.792   -5340.5136    1923.4916    5760.3597    87.069876 
   29400    2180.3598   -108.89682    1.9728354   -106.92398   -13482.638    4.4236172    4.4236172    4.4236172   -13482.638    23084.227   -35478.657   -28053.485   -7835.6258   -8562.5975     10903.93    86.563064 
   29500    2131.7462   -108.86973    1.9288487   -106.94088    26775.592    4.4147522    4.4147522    4.4147522    26775.592    33933.061    1277.0494    45116.664    3670.9041    1674.0027    3648.2812    86.043684 
   29600    2384.8219    -109.1028     2.157837   -106.94496   -6499.6175    4.4289688    4.4289688    4.4289688   -6499.6175    21143.229   -42660.343    2018.2615   -16877.192   -15676.621    8868.2181    86.877612 
   29700    1847.2823    -108.6006    1.6714599   -106.92914   -25491.315     4.427079     4.427079     4.427079   -25491.315   -4443.7547   -56138.293   -15891.897   -10022.121   -22385.106    3544.8438    86.766446 
   29800    1293.0234   -108.08495    1.1699547     -106.915    19705.825     4.407773     4.407773     4.407773    19705.825    38087.573    -53245.91    74275.811    5797.6561    13816.265    7333.0571    85.636253 
   29900    2018.5352   -108.76655    1.8264131   -106.94014   -12395.987    4.4123635    4.4123635    4.4123635   -12395.987   -37409.799    -26024.42    26246.258   -40733.072    1402.1713    3538.5161    85.904093 
   30000    1334.4671   -108.16219    1.2074539   -106.95474    36044.948    4.4243421    4.4243421    4.4243421    36044.948    16389.787    -1252.309    92997.367    6397.5381   -31934.425   -681.59024    86.605625 
   30100    2021.0828   -108.78769    1.8287182   -106.95898   -5224.4936    4.4327284    4.4327284    4.4327284   -5224.4936    431.85988   -44914.396    28809.056   -13579.275    6957.4089    677.03734    87.099037 
   30200    2556.7697   -109.25895     2.313419   -106.94553   -31221.989    4.4354051    4.4354051    4.4354051   -31221.989   -25774.728   -83721.947    15830.709   -13489.435   -3920.3025   -16001.681    87.256918 
   30300    1537.6381   -108.33555    1.3912873   -106.94427    39696.692    4.4109826    4.4109826    4.4109826    39696.692    32807.791    21906.296    64375.988    13895.695   -15738.905    13059.381    85.823461 
   30400    1731.5254   -108.50632    1.5667206    -106.9396    9874.0173    4.3985285    4.3985285    4.3985285    9874.0173   -12533.765    17851.028    24304.789   -29774.074    14368.865   -18661.549    85.098566 
   30500    1460.0909   -108.29184    1.3211209   -106.97072   -8469.6981    4.4280438    4.4280438    4.4280438   -8469.6981   -72654.031   -28411.932    75656.869    10586.736   -10641.837    -10980.38    86.823189 
   30600    2338.6189   -109.05827    2.1160315   -106.94224   -36228.063      4.43476      4.43476      4.43476   -36228.063   -20438.447   -50230.164   -38015.577    15057.141    23948.837    24106.522    87.218853 
   30700    1583.4015   -108.35854    1.4326949   -106.92585    67007.701    4.4128486    4.4128486    4.4128486    67007.701    103933.76    10427.125    86662.221   -12334.197    11157.849   -21910.721    85.932426 
   30800    2717.8013   -109.39546    2.4591238   -106.93634   -30737.554    4.4207736    4.4207736    4.4207736   -30737.554   -9796.5408    -31675.08   -50741.042    14359.891   -17953.443    9768.0019    86.396235 
   30900    1137.6839   -107.98601    1.0294003   -106.95661    5049.8709    4.4199147    4.4199147    4.4199147    5049.8709    99755.153   -50414.242   -34191.298    1386.8819   -3844.2272    33525.078    86.345886 
   31000    2249.0747   -108.99072    2.0350101   -106.95571    4046.6434    4.4145983    4.4145983    4.4145983    4046.6434   -34354.388    4583.9398    41910.378   -2800.6817    15618.621   -25487.613    86.034685 
   31100      1990.52   -108.77044    1.8010643   -106.96938    -16278.86    4.4351766    4.4351766    4.4351766    -16278.86   -10225.795   -45053.329    6442.5451   -1928.8813   -4223.5734    21478.388    87.243433 
   31200    2273.6481   -108.98904    2.0572445    -106.9318   -24641.298    4.4340763    4.4340763    4.4340763   -24641.298    4032.2371   -50367.501   -27588.631    13244.913   -18410.632    13151.198     87.17852 
   31300    1083.2559   -107.90075   0.98015269    -106.9206    44522.349    4.4134372    4.4134372    4.4134372    44522.349    32059.289    28455.798     73051.96   -18142.355     12666.37   -11565.229     85.96682 
   31400    2069.1521   -108.80598    1.8722123   -106.93377    -17562.97    4.4130548    4.4130548    4.4130548    -17562.97    2900.7179   -22654.963   -32934.666   -13388.815   -2599.2656    7727.7229    85.944473 
   31500    1888.1269   -108.66341    1.7084169     -106.955    3555.9612    4.4259351    4.4259351    4.4259351    3555.9612    42793.703   -4574.2667   -27551.553    6482.6118     1190.236   -4987.7606    86.699204 
   31600    2106.7986    -108.8544    1.9062757   -106.94813    939.93031    4.4355137    4.4355137    4.4355137    939.93031     -56174.3   -13864.537    72858.627   -29998.832   -15866.341   -3778.9466    87.263328 
   31700    2414.3217   -109.10633     2.184529    -106.9218   -26727.779    4.4311079    4.4311079    4.4311079   -26727.779   -36534.595   -37476.232     -6172.51    24346.892    7939.0777    21474.166    87.003551 
   31800    1316.3802   -108.12275    1.1910885   -106.93167    28654.393    4.4131403    4.4131403    4.4131403    28654.393    3520.2352    1481.8135    80961.132   -3274.0983   -1945.3982   -37614.065     85.94947 
   31900    1406.8047     -108.258    1.2729065   -106.98509   -13845.593    4.4235565    4.4235565    4.4235565   -13845.593   -17835.245   -10260.592   -13440.941   -23276.913     -4162.22    1465.7523    86.559497 
   32000    2081.2717   -108.86684    1.8831783   -106.98366   -14961.501    4.4424333    4.4424333    4.4424333   -14961.501   -16356.239    -31673.78    3145.5163    13559.996   -9945.6354    2539.2173    87.672372 
   32100    2120.1509   -108.88943    1.9183571   -106.97107   -24091.533    4.4392359    4.4392359    4.4392359   -24091.533   -40422.432   -65220.562    33368.396   -30043.979    14408.245    -31546.38    87.483204 
   32200    2574.5185   -109.27191    2.3294784   -106.94243    13964.947    4.4255623    4.4255623    4.4255623    13964.947   -14575.815   -14128.632    70599.287    7375.8272   -6920.1888    9537.3083    86.677301 
   32300    1464.4238    -108.2825    1.3250414   -106.95746   -3991.4088    4.4308831    4.4308831    4.4308831   -3991.4088     16929.23   -18370.784   -10532.673   -7412.8995     10176.66   -19184.993    86.990307 
   32400    2204.9844   -108.95675    1.9951162   -106.96164   -18606.505    4.4364521    4.4364521    4.4364521   -18606.505   -42140.154   -5221.9685   -8457.3932    -13043.67   -2366.8385    18864.612    87.318727 
   32500    1560.6552   -108.36178    1.4121136   -106.94967    31670.932     4.441573     4.441573     4.441573    31670.932    81920.556   -8746.5517    21838.792    2935.3336     1866.955   -4102.1139    87.621448 
   32600    1458.5908   -108.27673    1.3197636   -106.95697   -23139.195    4.4483151    4.4483151    4.4483151   -23139.195    13097.339   -83555.196     1040.272    -16680.85    327.87544   -26428.934    88.021066 
   32700     3161.464   -109.78909    2.8605591   -106.92853   -32004.964    4.4358547    4.4358547    4.4358547   -32004.964   -12155.034   -48983.027    -34876.83    8952.4238    2552.8959   -3412.3596    87.283457 
   32800    1246.3714   -108.09908    1.1277431   -106.97133    1185.8238    4.4332361    4.4332361    4.4332361    1185.8238    18135.942   -43721.928    29143.458   -23882.271    7927.0534   -10474.653    87.128968 
   32900    2016.6496   -108.80498     1.824707   -106.98027    -689.7843    4.4373237    4.4373237    4.4373237    -689.7843    50316.707   -19368.031   -33018.029    17621.886   -11616.839     7000.706    87.370199 
   33000    1616.5145   -108.45831    1.4626563   -106.99565    6702.5185    4.4489934    4.4489934    4.4489934    6702.5185    15401.729   -18033.389    22739.215     1816.737   -7464.2012   -7199.2588    88.061336 
   33100    1126.5908   -107.99935     1.019363   -106.97999    34992.994    4.4620752    4.4620752    4.4620752    34992.994     77976.31   -38003.172    65005.845   -7999.7473    4564.6014   -15725.306    88.840432 
   33200     3114.695   -109.73204    2.8182415    -106.9138   -57294.952    4.4649256    4.4649256    4.4649256   -57294.952    -46062.23   -73426.906   -52395.719   -777.61273    2762.5524   -7557.3816    89.010798 
   33300    2165.2053    -108.8765    1.9591232   -106.91738   -28085.882    4.4386192    4.4386192    4.4386192   -28085.882   -22692.425   -51169.993    -10395.23   -23636.123    1270.2296   -20548.676    87.446749 
   33400    2531.1766   -109.24032    2.2902617   -106.95005   -1866.4183    4.4183821    4.4183821    4.4183821   -1866.4183    66616.922   -40632.468   -31583.709    7116.8784    10283.422    14374.607    86.256101 
   33500     1560.416    -108.4448    1.4118972   -107.03291    8538.3256    4.4396001    4.4396001    4.4396001    8538.3256    23634.056    -48789.87     50770.79    -9294.407    -3740.604   -24404.955    87.504735 
   33600    1931.1764   -108.74875     1.747369   -107.00138   -13272.598    4.4637235    4.4637235    4.4637235   -13272.598    43421.819   -26359.092   -56880.519    11875.678    22053.826    14152.985     88.93892 
   33700    1717.0112   -108.51603    1.5535879   -106.96244    21840.087    4.4534004    4.4534004    4.4534004    21840.087    49618.034   -29830.644    45732.872   -9079.1016    9189.4831   -6598.6753    88.323291 
   33800    2909.1875   -109.57181     2.632294   -106.93952   -47044.431    4.4503253    4.4503253    4.4503253   -47044.431   -18658.518    -52171.08   -70303.694   -2081.5185   -8275.6004   -8197.1795    88.140451 
   33900    2155.2966   -108.91661    1.9501577   -106.96645   -43182.916    4.4638009    4.4638009    4.4638009   -43182.916   -50458.096   -53928.924    -25161.73   -15251.345   -3744.1982   -9966.3467    88.943548 
   34000    1890.7269   -108.67279    1.7107694   -106.96202    22013.566    4.4475904    4.4475904    4.4475904    22013.566    101851.85   -23460.423   -12350.728    17164.472   -19728.266   -735.71873    87.978052 
   34100    2105.4623   -108.87596    1.9050665    -106.9709    15740.534    4.4290749    4.4290749    4.4290749    15740.534    64731.517   -11728.857   -5781.0592   -4504.4347    16608.351   -5566.6263    86.883851 
   34200    1609.7392    -108.4699    1.4565259   -107.01338    17484.821    4.4396536    4.4396536    4.4396536    17484.821    137083.57   -52547.155   -32081.947   -5025.2603    3739.2629    1484.7413      87.5079 
   34300    1097.2871   -108.01397   0.99284846   -107.02112    15551.555     4.457055     4.457055     4.457055    15551.555     110118.3   -10940.723   -52522.909    6085.6612   -3138.3209    -10043.78     88.54091 
   34400    2194.4701   -108.95105    1.9856027   -106.96544   -35975.634    4.4625442    4.4625442    4.4625442   -35975.634   -34997.296   -49057.257   -23872.348   -18396.438    2599.0849   -9200.0894    88.868448 
   34500    2372.8534   -109.10047    2.1470076   -106.95346   -4182.6622    4.4453714    4.4453714    4.4453714   -4182.6622    76635.687   -62645.363   -26538.311   -12280.395    6972.0708   -129.25328    87.846437 
   34600    2277.6153   -109.05136    2.0608341   -106.99052   -5961.5332    4.4429785    4.4429785    4.4429785   -5961.5332    76272.581   -44680.251   -49476.929    16768.425   -1338.3896    -9762.793    87.704651 
   34700    2502.4759   -109.27823    2.2642928   -107.01394   -29908.697    4.4491609    4.4491609    4.4491609   -29908.697    36934.549   -73344.193   -53316.447   -2978.5744    10772.231    -1948.215    88.071287 
   34800    2137.7475   -108.97644    1.9342789   -107.04216   -11828.328    4.4496203    4.4496203    4.4496203   -11828.328    60344.219   -71057.785    -24771.42   -6208.2866   -4153.5339   -5944.1491     88.09857 
   34900    1584.8355   -108.47444    1.4339925   -107.04045    11000.178    4.4359069    4.4359069    4.4359069    11000.178    43549.701   -23639.014    13089.846   -7689.4218   -20673.091   -10664.176    87.286536 
   35000     2427.506   -109.23835    2.1964585   -107.04189    2199.6517    4.4352324    4.4352324    4.4352324    2199.6517     56962.65   -11828.866   -38534.828    6409.4463    15361.131    1272.8153     87.24673 
   35100    2172.1209    -109.0034    1.9653806   -107.03802   -12362.442    4.4520223    4.4520223    4.4520223   -12362.442    37673.314   -57968.168   -16792.471    14707.968    -13037.18   -15887.841    88.241321 
   35200    2633.3966    -109.3869    2.3827526   -107.00415   -39652.305    4.4608671    4.4608671    4.4608671   -39652.305   -4391.5476   -59537.027   -55028.339   -7026.1688    14743.083    2793.2379    88.768289 
   35300    1315.2812   -108.17101    1.1900941   -106.98092     22354.39    4.4595075    4.4595075    4.4595075     22354.39     125514.3    2597.5115   -61048.644    7636.8285    -28014.91    681.48006    88.687147 
   35400    1206.4408    -108.0391     1.091613   -106.94748    37133.106    4.4461614    4.4461614    4.4461614    37133.106    126503.72    -39718.63    24614.226    16535.658   -17038.584    4058.7304    87.893281 
   35500    1630.4781   -108.42837    1.4752909   -106.95308   -685.20596    4.4466905    4.4466905    4.4466905   -685.20596    27440.737   -30991.574    1495.2189   -14577.144    -15402.86   -5370.1816    87.924664 
   35600    2121.7952   -108.88507    1.9198449   -106.96522   -36988.474      4.46586      4.46586      4.46586   -36988.474   -68051.611   -40878.086   -2035.7268    36625.813     6087.102    8484.6549    89.066691 
   35700    1768.8149    -108.5363    1.6004609   -106.93583   -12703.205    4.4697415    4.4697415    4.4697415   -12703.205    29998.417   -53447.041    -14660.99     5115.747   -8889.1989     26701.54    89.299128 
   35800    2856.7651   -109.48065    2.5848611   -106.89579   -7551.6601    4.4437653    4.4437653    4.4437653   -7551.6601    8750.4206   -63770.478    32365.077    16854.974   -8845.8642    1630.2434    87.751253 
   35900    2399.1169    -109.1125    2.1707714   -106.94173   -20135.069    4.4444656    4.4444656    4.4444656   -20135.069    47216.095   -60221.281    -47400.02   -4171.6995    766.45531    3260.8325    87.792749 
   36000    1006.2514   -107.88966    0.9104774   -106.97918    37696.327     4.464305     4.464305     4.464305    37696.327    20908.935   -15886.544    108066.59    8623.5144   -37415.978    3347.3106    88.973683 
   36100    2333.5543   -109.07685     2.111449    -106.9654   -52234.292    4.4760697    4.4760697    4.4760697   -52234.292   -45468.129   -66099.691   -45135.055   -4782.3661    9989.5247   -12669.347    89.678954 
   36200    1789.0907   -108.57482    1.6188068   -106.95601   -21196.147    4.4724628    4.4724628    4.4724628   -21196.147    -22023.32   -11932.151   -29632.971   -43998.636   -5014.8498   -2741.6792    89.462328 
   36300     1552.966   -108.34819    1.4051562   -106.94304    30499.638    4.4541429    4.4541429    4.4541429    30499.638    -31555.96   -19154.215    142209.09    15663.292    7638.8182    10523.524    88.367471 
   36400    1334.2112   -108.18026    1.2072223   -106.97304    37330.871    4.4606792    4.4606792    4.4606792    37330.871   -4806.2116    -3620.645    120419.47    10503.506   -16427.459    10161.328    88.757072 
   36500    2158.0631   -108.89931    1.9526608   -106.94664   -5915.4765    4.4801691    4.4801691    4.4801691   -5915.4765    3278.2344   -22422.304    1397.6399    2504.8082    19381.028   -1502.5577    89.925575 
   36600    1884.1706   -108.61451    1.7048371   -106.90968   -25716.081     4.476569     4.476569     4.476569   -25716.081   -11990.495   -65879.187    721.43912   -7916.2049   -8901.8588   -30523.516    89.708964 
   36700    1607.7647   -108.33095    1.4547393   -106.87621    38773.065     4.460686     4.460686     4.460686    38773.065    57407.317    4608.2988    54303.578    11171.136    -20176.45    9487.9216    88.757479 
   36800    2181.5301   -108.87567    1.9738943   -106.90178   -19818.996    4.4734184    4.4734184    4.4734184   -19818.996   -41946.086   -47588.288    30077.386    -5734.736   -15538.236   -11925.846    89.519685 
   36900     1341.469   -108.11712    1.2137894   -106.90333    9096.8414    4.4781262    4.4781262    4.4781262    9096.8414    -13852.51   -58630.281    99773.315   -4705.8001    51.362339    -1326.448    89.802614 
   37000     1862.371   -108.57325    1.6851124   -106.88814   -5945.6472    4.4633739    4.4633739    4.4633739   -5945.6472    20867.205   -46832.425    8128.2782    2868.3347   -18038.736    6117.4084    88.918026 
   37100    1256.5682   -108.04396    1.1369693   -106.90699    25045.046    4.4580569    4.4580569    4.4580569    25045.046    68661.439   -28160.423    34634.121   -5125.8521   -9361.3458    6153.6713     88.60063 
   37200    1937.1498   -108.69066    1.7527739   -106.93788   -10306.109    4.4686097    4.4686097    4.4686097   -10306.109    40914.746   -79959.527    8126.4551   -1100.4851   -13570.931    5022.8403    89.231313 
   37300    2853.7546    -109.5062    2.5821371   -106.92406    -67819.97    4.4779056    4.4779056    4.4779056    -67819.97   -77788.376    -89100.54   -36570.993   -9162.3596   -12432.594    11594.617    89.789343 
   37400    1455.7262   -108.20791    1.3171716   -106.89074    15446.894    4.4558368    4.4558368    4.4558368    15446.894    30769.046     1945.129    13626.508     12172.19   -134.88724   -1970.5718    88.468327 
   37500    2094.6978   -108.80499    1.8953266   -106.90966    655.00223    4.4453703    4.4453703    4.4453703    655.00223   -10293.079    -14226.25    26484.335   -4278.3448   -11421.735   -5941.4507    87.846374 
   37600    1837.9867   -108.61048     1.663049   -106.94743    12599.876    4.4643974    4.4643974    4.4643974    12599.876   -13200.635   -51884.523    102884.79   -3229.8721    6680.8668   -6756.4737    88.979206 
   37700    1902.7967   -108.65184    1.7216904   -106.93015   -34781.482     4.480198     4.480198     4.480198   -34781.482    1247.6255   -70062.733    -35529.34   -7296.8944   -15490.116   -16544.362    89.927313 
   37800    2583.9513   -109.22375    2.3380135   -106.88574   -35640.667    4.4694964    4.4694964    4.4694964   -35640.667   -22645.085   -48049.006   -36227.911    4046.2487    3623.6036   -3196.9645    89.284439 
   37900    1987.1806   -108.73066    1.7980428   -106.93261   -8432.2389    4.4544943    4.4544943    4.4544943   -8432.2389   -22853.868   -63302.017    60859.168   -6794.9087   -13916.984    5959.0027    88.388389 
   38000    1013.2406   -107.87308   0.91680138   -106.95628    78658.798    4.4448103    4.4448103    4.4448103    78658.798    55184.084   -15439.827    196232.14     7232.752    34356.953    2957.6121    87.813178 
   38100    1902.2822   -108.69389     1.721225   -106.97267   -7737.9414    4.4642839    4.4642839    4.4642839   -7737.9414     -28529.9   -41823.125    47139.201   -3537.5934    390.00786   -3616.9513     88.97242 
   38200    2405.3332     -109.124     2.176396    -106.9476   -56054.457    4.4762935    4.4762935    4.4762935   -56054.457   -73748.261   -79585.201    -14829.91   -4819.4053    12988.741   -156.11542    89.692402 
   38300    1790.2458   -108.55398     1.619852   -106.93413    -2219.346    4.4636078    4.4636078    4.4636078    -2219.346   -53458.273   -36401.621    83201.855    4032.0312    12392.454   -13100.508    88.932007 
   38400    1583.0712   -108.36815    1.4323961   -106.93576    23006.589    4.4533355    4.4533355    4.4533355    23006.589   -623.67457   -42970.189    112613.63    16169.107   -12646.815   -8694.8533    88.319426 
   38500    2009.8485   -108.76911    1.8185532   -106.95056   -4169.7043    4.4593952    4.4593952    4.4593952   -4169.7043    -37088.96    -74821.99    99401.838    5763.9439     10202.84   -15573.967    88.680449 
   38600     1112.062   -107.95992    1.0062171    -106.9537    7227.7962    4.4526782    4.4526782    4.4526782    7227.7962   -14009.235   -55603.145    91295.769      20112.7   -12953.214    2924.2372    88.280328 
   38700    2280.6318   -109.00131    2.0635636   -106.93775    13259.377    4.4421841    4.4421841    4.4421841    13259.377   -1291.8981   -35686.351    76756.381   -79.586032    6581.3151    -6335.881    87.657619 
   38800     1667.776    -108.5009    1.5090388   -106.99186    1527.0778     4.463322     4.463322     4.463322    1527.0778   -55890.612   -28934.986    89406.831    5433.7986    11469.095   -9222.3503    88.914924 
   38900    2266.0734   -109.01282    2.0503909   -106.96243    -21091.58    4.4851907    4.4851907    4.4851907    -21091.58   -15917.538   -61499.549    14142.347    571.83302   -8067.4396   -5302.1748    90.228294 
   39000    1394.0249   -108.17704     1.261343    -106.9157    4026.8034    4.4763194    4.4763194    4.4763194    4026.8034   -53964.104    -67741.45    133785.96   -2647.3997   -9635.7327    2919.8243    89.693958 
   39100    2073.6868   -108.77888    1.8763154   -106.90256   -11081.505    4.4608972    4.4608972    4.4608972   -11081.505   -1864.6335   -6805.3653   -24574.516   -18010.229   -13463.558    10822.769    88.770086 
   39200    1699.4336   -108.50192    1.5376832   -106.96424    9348.4798    4.4673577    4.4673577    4.4673577    9348.4798   -35548.714   -91767.651     155361.8   -2732.7526    9270.2839   -9813.2725    89.156332 
   39300    1865.7314   -108.67738    1.6881529   -106.98923   -6553.2922    4.4784745    4.4784745    4.4784745   -6553.2922   -9162.7741   -55102.839    44605.737   -8657.4137    5674.9786    12938.539    89.823572 
   39400    1610.7206    -108.4175    1.4574138   -106.96008    1689.3246    4.4711949    4.4711949    4.4711949    1689.3246   -68929.152   -293.49788    74290.624    19828.356    7227.0416   -4007.7483    89.386267 
   39500     1771.231    -108.5464    1.6026471   -106.94375    18826.967    4.4672512    4.4672512    4.4672512    18826.967    68699.752    -70706.47    58487.617   -39.671362    7122.3772    11941.679    89.149952 
   39600    2413.9241   -109.13726    2.1841692   -106.95309   -32170.787    4.4655272    4.4655272    4.4655272   -32170.787   -42680.952   -78293.052    24461.641    13623.338   -28632.256    7576.4883     89.04678 
   39700    1960.6786   -108.74428    1.7740632   -106.97022    23623.212    4.4576328    4.4576328    4.4576328    23623.212      10808.9   -24290.006    84350.741    10671.496    6120.5263    -2485.101    88.575349 
   39800    1616.2235   -108.44816     1.462393   -106.98577   -8222.7884    4.4727769    4.4727769    4.4727769   -8222.7884    16627.236   -52730.663    11435.061     7950.053    9375.2351   -3671.6042    89.481181 
   39900    2569.2273   -109.27926    2.3246909   -106.95457   -52891.641    4.4844851    4.4844851    4.4844851   -52891.641   -55225.729    -91509.66   -11939.534   -5761.0086    779.44056   -13478.158    90.185713 
   40000    1084.1787   -107.91145   0.98098771   -106.93046    39341.861    4.4704987    4.4704987    4.4704987    39341.861    26567.899   -65002.398    156460.08    22595.119   -12764.383   -5719.4391    89.344522 
   40100    2733.6554   -109.40555    2.4734689   -106.93209   -17657.962    4.4486047    4.4486047    4.4486047   -17657.962   -48086.736   -29774.201    24887.052    3251.4243   -7014.6854   -18059.647    88.038257 
   40200    1230.3608   -108.10745    1.1132563   -106.99419    45649.259    4.4480945    4.4480945    4.4480945    45649.259     11732.51   -77806.842    203022.11   -2260.9563   -7074.7812    9556.1527    88.007973 
   40300    1901.8004   -108.74203     1.720789   -107.02124   -11990.687    4.4681455    4.4681455    4.4681455   -11990.687   -8772.6756   -106728.14    79528.753   -15067.182    5791.6513   -4115.7629    89.203506 
   40400    2534.3605   -109.28774    2.2931426    -106.9946   -50077.966     4.474041     4.474041     4.474041   -50077.966   -64221.991   -77172.449   -8839.4571    17129.267    8483.5272   -8152.5765    89.557072 
   40500    1402.8106   -108.24312    1.2692925   -106.97382    34232.319    4.4562447    4.4562447    4.4562447    34232.319    27042.259   -29647.697     105302.4   -7150.0255   -6616.0607    20067.516    88.492627 
   40600    2192.8343   -108.94667    1.9841226   -106.96254   -19166.928    4.4539491    4.4539491    4.4539491   -19166.928   -40926.052   -65124.703    48549.972    14305.516   -19357.684   -10439.863    88.355939 
   40700    1722.8722   -108.50587     1.558891   -106.94698    7544.7712      4.44922      4.44922      4.44922    7544.7712    31758.358   -32631.278    23507.233    4981.8397   -11019.259    16209.436    88.074795 
   40800    2385.8151   -109.09525    2.1587356   -106.93652   -54392.393    4.4539133    4.4539133    4.4539133   -54392.393   -47202.005   -71615.679   -44359.494   -2984.1339    9652.9741   -4152.7838    88.353812 
   40900    1257.0702   -108.06707    1.1374235   -106.92965    19489.739    4.4701355    4.4701355    4.4701355    19489.739    1474.8989   -65874.713    122869.03    15642.618   -23870.326   -10068.693    89.322743 
   41000     2278.868   -108.94934    2.0619676   -106.88738   -31994.932    4.4827477    4.4827477    4.4827477   -31994.932   -56006.511   -50967.523     10989.24   -17041.751   -9137.9746     -13261.1    90.080935 
   41100    2589.8319   -109.21575    2.3433343   -106.87241    -39309.56    4.4651738    4.4651738    4.4651738    -39309.56   -68588.534   -75965.708    26625.562    12201.008   -5616.1451   -20889.534    89.025638 
   41200     1285.247   -108.09398    1.1629185   -106.93106    1204.7293     4.436882     4.436882     4.436882    1204.7293   -24559.392   -68626.289     96799.87   -1598.2035    16182.795    28584.743     87.34411 
   41300    1735.7177   -108.54283    1.5705138   -106.97232    42700.532    4.4248879    4.4248879    4.4248879    42700.532    20315.783   -40447.653    148233.47    -5153.223   -7413.7854    21208.389    86.637681 
   41400    1799.5839   -108.65419    1.6283013   -107.02589   -9492.5522    4.4533176    4.4533176    4.4533176   -9492.5522   -16439.916   -9529.9165   -2507.8239   -7902.4045   -6846.1927    13223.529    88.318364 
   41500    2222.4702   -108.97437    2.0109377   -106.96343   -28795.334    4.4744898    4.4744898    4.4744898   -28795.334   -62689.388   -52784.216    29087.601   -4705.0594     8270.073     13145.09    89.584024 
   41600    1551.2421   -108.31419    1.4035964   -106.91059   -7236.6076    4.4577752    4.4577752    4.4577752   -7236.6076   -23013.005   -76749.806    78052.988    298.61868   -10486.482    8087.6336    88.583839 
   41700     1820.926     -108.535    1.6476121   -106.88739    37164.855    4.4200202    4.4200202    4.4200202    37164.855    17518.842    4625.4197    89350.302   -1446.3076   -7619.3704     6824.106    86.352069 
   41800    2068.8905   -108.80274    1.8719756   -106.93076   -635.29483    4.4193075    4.4193075    4.4193075   -635.29483   -44143.145    10468.001    31769.259    28604.917   -15155.052    655.47402    86.310308 
   41900    2753.3164   -109.45388    2.4912585   -106.96263     -21610.7    4.4365921    4.4365921    4.4365921     -21610.7   -13643.413   -43321.002    -7867.687   -20329.491   -17784.089     21500.48    87.326993 
   42000    2323.6276   -109.05524     2.102467   -106.95277   -45166.007    4.4627459    4.4627459    4.4627459   -45166.007    -101931.5   -11984.667   -21581.851    3257.6061   -14760.171   -8367.0412    88.880499 
   42100    1655.7823   -108.40305    1.4981866   -106.90486   -41992.965    4.4553162    4.4553162    4.4553162   -41992.965   -2092.7104   -69338.121   -54548.064    14179.695   -3135.6495   -9512.2187    88.437325 
   42200    1203.8234   -107.96998    1.0892447   -106.88073    37261.153    4.4274281    4.4274281    4.4274281    37261.153    -4565.096   -8492.6353    124841.19    9350.8904    2395.4266    7207.5887    86.786976 
   42300    2582.2497   -109.22761    2.3364738   -106.89113    -1931.432    4.4126748    4.4126748    4.4126748    -1931.432   -28290.165    46518.386   -24022.517   -619.25779   -18047.047   -12586.646    85.922274 
   42400     2384.276   -109.10129    2.1573431   -106.94394    7066.1632    4.4268215    4.4268215    4.4268215    7066.1632   -20968.892   -13179.471    55346.853   -3820.4285    2333.6993   -33406.715    86.751306 
   42500    1763.6044   -108.53617    1.5957463   -106.94042   -35161.057    4.4548462    4.4548462    4.4548462   -35161.057   -87454.043   -28687.991    10658.862    7536.3399   -5927.4873    1912.5155     88.40934 
   42600    1670.6655   -108.41215    1.5116533    -106.9005   -32872.198    4.4353903    4.4353903    4.4353903   -32872.198   -30858.206   -31383.409   -36374.979    18845.811   -34058.629    6589.8563    87.256047 
   42700    1670.2537   -108.39057    1.5112807   -106.87929    46411.995    4.4098752    4.4098752    4.4098752    46411.995     49357.32    24674.475     65204.19    7609.7761    13890.576   -26799.448    85.758837 
   42800    1897.4422   -108.66018    1.7168455   -106.94334   -19321.371    4.4454251    4.4454251    4.4454251   -19321.371   -62106.922   -11097.538    15240.346   -11578.949   -18911.381   -12694.777     87.84962 
   42900    2350.8375   -109.02093    2.1270872   -106.89384   -9484.1841    4.4627649    4.4627649    4.4627649   -9484.1841   -11212.167   -31326.844    14086.459    4023.6828   -28794.059   -3750.2162    88.881635 
   43000    1530.1089   -108.24515    1.3844747   -106.86068    24794.674    4.4529256    4.4529256    4.4529256    24794.674   -17269.501   -18182.006    109835.53      10783.1    9518.6197    17780.697    88.295042 
   43100    1658.3107   -108.37749    1.5004743   -106.87702   -8361.0492    4.4476089    4.4476089    4.4476089   -8361.0492   -33447.421   -12154.034    20518.308     3520.178    1861.2836    35049.617    87.979152 
   43200    2408.7546   -109.06809    2.1794918    -106.8886    -27294.18    4.4384297    4.4384297    4.4384297    -27294.18     15566.29   -51621.126   -45827.704    701.39062    302.31383    6453.5816    87.435547 
   43300    1917.2051   -108.67377    1.7347274   -106.93904    4225.7106     4.445011     4.445011     4.445011    4225.7106   -23301.618   -31228.113    67206.863   -3246.1872    4939.1852    14483.274    87.825074 
   43400    2307.1898   -109.03681    2.0875938   -106.94921   -28747.064    4.4787801    4.4787801    4.4787801   -28747.064   -48990.817   -7298.8405   -29951.535   -23057.116   -2398.5531    11608.031     89.84196 
   43500    1354.0039   -108.10932    1.2251312   -106.88419   -606.20283    4.4957863    4.4957863    4.4957863   -606.20283   -50980.725    3259.6156    45902.501   -23611.104   -9719.9141    29685.768     90.86926 
   43600    1815.5828   -108.45828    1.6427775   -106.81551    19695.797    4.4691166    4.4691166    4.4691166    19695.797   -24830.355   -23170.034    107087.78   -4255.5057    -1892.031    17359.304    89.261678 
   43700    1930.3799   -108.56861    1.7466483   -106.82196    5678.9741    4.4428313    4.4428313    4.4428313    5678.9741    34575.331   -26381.324    8842.9147    12231.493   -20723.542   -1695.8717    87.695939 
   43800    1616.9847   -108.36318    1.4630817    -106.9001   -16048.927    4.4468583    4.4468583    4.4468583   -16048.927   -16166.315   -26276.031   -5704.4337    12950.227   -10964.149   -10218.895    87.934614 
   43900    2586.1547   -109.25409    2.3400071   -106.91408   -7330.7966    4.4445841    4.4445841    4.4445841   -7330.7966    1172.2952   -44308.599    21143.914   -11382.594    9586.0155   -12828.387    87.799768 
   44000    1466.2565   -108.28866    1.3266997   -106.96196   -4281.6321    4.4509212    4.4509212    4.4509212   -4281.6321     26589.91   -30560.047    -8874.759   -9268.4926   -47773.341    1082.8598    88.175861 
   44100     2909.657   -109.55925    2.6327188   -106.92653   -28972.676    4.4445524    4.4445524    4.4445524   -28972.676    -44381.85   -50721.628    8185.4492    9530.3135     28127.89    16525.042    87.797891 
   44200    1392.0705   -108.19598    1.2595746    -106.9364    3156.0817    4.4364069    4.4364069    4.4364069    3156.0817    34687.756   -28225.625    3006.1144    5578.0213   -35443.252   -15111.802    87.316055 
   44300    1802.4726   -108.57118    1.6309151   -106.94026    17552.959    4.4372996    4.4372996    4.4372996    17552.959    18105.165   -51089.927    85643.641   -2790.7131    750.83064    945.90056    87.368779 
   44400    2241.2567    -108.9614    2.0279362   -106.93347   -30483.841    4.4563151    4.4563151    4.4563151   -30483.841   -51963.258   -22518.737   -16969.527   -3374.1044   -6868.4512    5741.5415     88.49682 
   44500    1477.8934   -108.24772     1.337229   -106.91049   -5507.8932    4.4351931    4.4351931    4.4351931   -5507.8932   -64155.267    28583.433    19048.154    9020.5212   -68815.925    4130.2087    87.244409 
   44600    2397.7678   -109.04221    2.1695507   -106.87266    3782.3238    4.4112704    4.4112704    4.4112704    3782.3238    27549.769   -16848.982    646.18398   -2728.6403    26430.131    2718.8328    85.840261 
   44700    1121.6225   -107.97128    1.0148676   -106.95641    -41330.85    4.4496878    4.4496878    4.4496878    -41330.85   -54510.347    3309.8997   -72792.102   -4482.0563   -63250.732     5427.762    88.102578 
   44800    2319.7431   -108.97425    2.0989523    -106.8753   -23291.207    4.4643887    4.4643887    4.4643887   -23291.207    -46086.76    11780.018   -35566.877    9914.9883   -12287.117   -2665.9403    88.978687 
   44900    1385.7588   -108.08961    1.2538637   -106.83574    49519.484    4.4376438    4.4376438    4.4376438    49519.484    125141.17    21890.981    1526.2978    13663.561   -35522.613   -10274.969    87.389111 
   45000    2310.1957   -108.96338    2.0903136   -106.87306   -29099.973    4.4398174    4.4398174    4.4398174   -29099.973   -12068.205    -5647.634   -69584.079    -6233.275   -14104.561    13375.693    87.517584 
   45100     1922.962   -108.64834    1.7399365   -106.90841   -10274.557    4.4488347    4.4488347    4.4488347   -10274.557    16462.193    3555.2251    -50841.09    25235.317   -17136.915   -9477.5769    88.051914 
   45200    1634.8553   -108.39438    1.4792515   -106.91513    20160.079    4.4599169    4.4599169    4.4599169    20160.079    42636.386   -12260.039    30103.891   -13699.746   -32967.203   -5885.7651     88.71158 
   45300    2485.9293   -109.13225    2.2493211   -106.88293   -26407.235    4.4568288    4.4568288    4.4568288   -26407.235   -9475.5516   -39364.754   -30381.398   -8187.0644    5898.2438     9229.899    88.527428 
   45400    1656.1899   -108.38964    1.4985554   -106.89108    8843.5853    4.4178257    4.4178257    4.4178257    8843.5853    57479.231     8886.413   -39834.888    14993.917   -30835.798    8335.8385    86.223519 
   45500    2396.4725   -109.08217    2.1683787   -106.91379    27119.696    4.4055961    4.4055961    4.4055961    27119.696    14233.852   -16861.572    83986.808    5596.4075     2274.561   -12127.933    85.509434 
   45600     1584.865   -108.42371    1.4340191   -106.98969    5943.2849    4.4371681    4.4371681    4.4371681    5943.2849      13252.4   -24621.131    29198.586   -978.91703   -23043.689   -16307.507    87.361009 
   45700    1650.2144   -108.46458    1.4931487   -106.97143   -28555.163    4.4686203    4.4686203    4.4686203   -28555.163    4020.5125   -81481.916   -8204.0865     -5325.02    2783.9466    12353.412    89.231946 
   45800    1874.5633   -108.62246    1.6961443   -106.92632   -25911.232    4.4566878    4.4566878    4.4566878   -25911.232   -14285.613   -59757.498    -3690.585    14974.714   -11644.507   -4354.0102    88.519026 
   45900    1690.6224    -108.4265    1.5297107   -106.89678    45256.719     4.409499     4.409499     4.409499    45256.719    37744.097    51851.655    46174.404    8901.0145   -25661.759   -12391.519    85.736896 
   46000    1891.5145   -108.65132     1.711482   -106.93983    24543.463    4.4046393    4.4046393    4.4046393    24543.463    47091.859   -13550.571      40089.1    687.48732   -18703.033    37301.441    85.453736 
   46100    2505.9191   -109.23864    2.2674083   -106.97123   -10228.853    4.4349316    4.4349316    4.4349316   -10228.853   -29256.537   -13648.732    12218.711   -2447.7719   -31494.149    15984.192    87.228979 
   46200    1605.6682   -108.42035    1.4528423   -106.96751   -8989.0165    4.4633326    4.4633326    4.4633326   -8989.0165   -45540.639    18308.279    265.31051    1841.0392   -8096.0469    15451.346     88.91556 
   46300    1424.9411   -108.20084    1.2893167   -106.91152   -2703.5102    4.4579493    4.4579493    4.4579493   -2703.5102   -17621.289   -42981.817    52492.576   -5206.9026    5079.3062    -4272.951    88.594219 
   46400    1833.8265   -108.56626    1.6592847   -106.90697   -13374.098    4.4094466    4.4094466    4.4094466   -13374.098     7910.231    -5889.626   -42142.898     11127.93   -34847.504    2150.1704    85.733835 
   46500    1926.5537   -108.65637    1.7431863   -106.91319    33126.262    4.3849447    4.3849447    4.3849447    33126.262    63561.263    46668.664    -10851.14    2508.6557    9848.6701    40718.063    84.312575 
   46600    2174.0129   -108.93067    1.9670926   -106.96358    3567.4378    4.4186963    4.4186963    4.4186963    3567.4378   -47937.166   -2788.9822    61428.462    236.33675   -11834.226   -12339.353      86.2745 
   46700    1689.5721   -108.48281    1.5287603   -106.95405   -33322.987     4.445893     4.445893     4.445893   -33322.987   -43293.791   -32685.221   -23989.948    16810.201   -2333.1462     15551.21    87.877364 
   46800    2093.5191   -108.80659    1.8942601   -106.91233    11319.161    4.4426003    4.4426003    4.4426003    11319.161   -25498.398    2784.7978    56671.083   -7683.2732     2493.094     15655.57    87.682259 
   46900    1184.4897   -107.99748    1.0717512   -106.92573   -5698.8209    4.4355744    4.4355744    4.4355744   -5698.8209   -48805.895   -23792.801    55502.233    2032.4782   -4269.0236    -2464.891    87.266909 
   47000    1493.3998   -108.30526    1.3512595     -106.954    19738.156    4.3958175    4.3958175    4.3958175    19738.156    33562.519   -39527.533    65179.482    2643.0522   -9099.2355    67784.214    84.941314 
   47100    1997.8664   -108.80099    1.8077115   -106.99328    32230.156    4.3913241    4.3913241    4.3913241    32230.156    17667.619    49904.344    29118.506    3452.3879    1873.1695   -22975.473    84.681098 
   47200    1791.5799   -108.63729    1.6210591   -107.01623   -27181.975    4.4340505    4.4340505    4.4340505   -27181.975   -44817.599   -14027.263   -22701.064    -13232.51   -383.66045    21484.931    87.176997 
   47300    1503.9554   -108.31512    1.3608105   -106.95431   -13677.435    4.4483678    4.4483678    4.4483678   -13677.435   -49653.418   -19773.165    28394.278    8577.9702    5318.3928    28661.026    88.024194 
   47400    1929.5758   -108.66881    1.7459207   -106.92289    17717.449    4.4170031    4.4170031    4.4170031    17717.449   -20309.451    70598.976    2862.8224    641.06232     24267.21    -10564.31    86.175363 
   47500    1853.5928   -108.59647    1.6771698    -106.9193    35935.646    4.3964251    4.3964251    4.3964251    35935.646   -408.89075    49967.522    58248.306   -16050.792   -4323.3035    28652.121    84.976541 
   47600    1595.8194   -108.40609    1.4439309   -106.96216   -6052.5967    4.4266198    4.4266198    4.4266198   -6052.5967   -51630.508    35092.127   -1619.4084    29791.401    3565.2981    1571.6096    86.739448 
   47700    1952.0813   -108.68684    1.7662842   -106.92056   -17942.364    4.4453324    4.4453324    4.4453324   -17942.364   -51405.282     3694.298   -6116.1092   -6996.7672   -3356.0517   -11907.945    87.844124 
   47800    1698.6055   -108.43174    1.5369339    -106.8948    10362.289    4.4322534    4.4322534    4.4322534    10362.289    27015.471   -32948.401    37019.796    3469.6538    10233.168    11314.194    87.071042 
   47900     2134.619   -108.82774    1.9314481    -106.8963   -25537.385    4.4265211    4.4265211    4.4265211   -25537.385   -7744.0799    -24012.42   -44855.656    458.44953   -15378.453   -11695.577     86.73365 
   48000    2265.6732   -108.96084    2.0500287   -106.91081   -16155.138    4.4330422    4.4330422    4.4330422   -16155.138   -8355.0391    -31207.48   -8902.8961   -2800.3738    10031.458   -1698.2903    87.117537 
   48100    1939.6915   -108.67108    1.7550737   -106.91601   -2440.2965    4.4293825    4.4293825    4.4293825   -2440.2965    24877.057   -12849.351   -19348.596    11703.749   -10285.056    18725.651    86.901959 
   48200    2457.4431   -109.13185    2.2235462   -106.90831   -15549.361     4.434554     4.434554     4.434554   -15549.361    22858.568   -22860.632   -46646.017     6122.455   -22621.459   -5595.3468      87.2067 
   48300    1728.0081    -108.4678     1.563538   -106.90427   -18367.287    4.4516966    4.4516966    4.4516966   -18367.287    1888.3363   -43717.872   -13272.327   -1045.0112   -6896.9112   -15048.813    88.221954 
   48400    1621.3357   -108.34316    1.4670186   -106.87614   -20426.012    4.4405402    4.4405402    4.4405402   -20426.012    4812.0133   -8549.5897    -57540.46   -3503.1189   -40303.371    6478.2436    87.560336 
   48500    1813.3102   -108.51279    1.6407211   -106.87207     20072.66    4.4174034    4.4174034    4.4174034     20072.66        81067   -23405.946    2556.9251    -3684.272    12632.406   -7845.0668    86.198793 
   48600    2642.0932   -109.29247    2.3906215   -106.90185   -17997.655    4.4205485    4.4205485    4.4205485   -17997.655   -11327.149   -23016.766   -19649.049   -16885.529   -9229.8846   -2962.7527    86.383041 
   48700     1724.126    -108.5089    1.5600255   -106.94888    -20424.95    4.4411514    4.4411514    4.4411514    -20424.95   -20594.853   -42109.626     1429.631    14203.911   -21751.516    25284.749    87.596498 
   48800    2055.7661   -108.76958    1.8601004   -106.90948   -54839.004     4.445833     4.445833     4.445833   -54839.004   -60046.393   -63507.786   -40962.832    -12219.67    13422.366   -8307.7002    87.873804 
   48900    1992.0611   -108.68321    1.8024588   -106.88075    11048.646    4.4212302    4.4212302    4.4212302    11048.646   -21866.168    29812.074    25200.033   -19644.016   -22595.269     11721.39    86.423011 
   49000     2544.464   -109.19272    2.3022845   -106.89043   -6339.5108    4.4227366    4.4227366    4.4227366   -6339.5108    -40124.02    17566.471     3539.017    9473.5452    3506.7304    15945.677    86.511378 
   49100    1711.5371   -108.46465    1.5486347   -106.91602   -11046.007     4.431687     4.431687     4.431687   -11046.007   -64442.499    37397.534   -6093.0558   -24110.249   -16253.664   -5835.4635    87.037664 
   49200    2486.7148   -109.15347    2.2500318   -106.90344   -514.59319    4.4296601    4.4296601    4.4296601   -514.59319   -11475.921    14314.336   -4382.1949    477.45483     4950.756    17572.624    86.918296 
   49300     1577.962    -108.3519    1.4277732   -106.92413    25430.952    4.3995665    4.3995665    4.3995665    25430.952    -18427.53    73794.065     20926.32   -21058.815   -2565.5729    10794.891    85.158824 
   49400    1169.0039   -108.02153    1.0577393   -106.96379     26775.59    4.3977212    4.3977212    4.3977212     26775.59    41723.082    53728.141   -15124.454   -33943.938   -2903.3854   -13100.236    85.051714 
   49500    2459.1962   -109.19067    2.2251324   -106.96554   -7348.3386     4.430631     4.430631     4.430631   -7348.3386    16942.568    24620.515   -63608.099    8513.3451    6275.3107    18037.661    86.975461 
   49600    1894.4082   -108.64458    1.7141004   -106.93048    7635.5237    4.4478737    4.4478737    4.4478737    7635.5237   -51466.199    65290.225    9082.5445    -33390.39   -2142.3233   -5194.6986    87.994865 
   49700    2303.0581   -108.97319    2.0838553   -106.88934   -52215.014    4.4523257    4.4523257    4.4523257   -52215.014   -37448.169   -70823.369   -48373.505   -6904.0026    5863.5282   -17655.712     88.25936 
   49800    1736.8855   -108.44312    1.5715705   -106.87155   -17731.645    4.4320638    4.4320638    4.4320638   -17731.645    -49533.77    49804.604   -53465.769   -13156.603    5540.3478   -4782.0953    87.059872 
   49900    2020.5588   -108.71381     1.828244   -106.88557    17956.263     4.417589     4.417589     4.417589    17956.263   -18795.803     44041.48    28623.111   -18098.437   -9634.2467   -18577.165     86.20966 
   50000    1853.6705   -108.58919      1.67724   -106.91195    39878.462    4.4187238    4.4187238    4.4187238    39878.462    15209.327     98766.73    5659.3277    9205.6199    5060.2224   -25216.213    86.276112 
   50100    1294.8267   -108.13817    1.1715864   -106.96658    1275.1924    4.4325027    4.4325027    4.4325027    1275.1924   -42619.266    42685.553     3759.291   -25861.655   -5691.5997   -3114.2291    87.085738 
   50200    2626.3587   -109.31567    2.3763846   -106.93929   -15997.603    4.4285366    4.4285366    4.4285366   -15997.603   -46846.183   -4261.6121    3114.9872   -12427.778   -2741.5338   -2511.2874    86.852177 
   50300    2254.1939   -108.96567     2.039642   -106.92603    10600.583    4.4013874    4.4013874    4.4013874    10600.583   -19668.445    75358.357   -23888.164    11813.743    387.57785    -7124.147    85.264608 
   50400    1021.9633   -107.89247    0.9246939   -106.96777   -10997.627    4.4003329    4.4003329    4.4003329   -10997.627   -5827.6505     21140.79    -48306.02   -41542.347    6678.9345    4706.3578    85.203339 
   50500    1562.7188   -108.39127    1.4139808   -106.97729    -13150.65    4.4155461    4.4155461    4.4155461    -13150.65   -2973.8537    19241.278   -55719.373    2311.6014    13030.886    16572.599    86.090112 
   50600    2267.4904   -109.01022     2.051673   -106.95855   -16540.096    4.4289503    4.4289503    4.4289503   -16540.096    -21380.55    21101.691   -49341.431    36025.634    -8868.019   -683.75987    86.876523 
   50700    2107.9666   -108.85853    1.9073324    -106.9512   -9340.0392    4.4213539    4.4213539    4.4213539   -9340.0392    4645.0363   -4552.3498   -28112.804   -30923.157    1584.7755   -1829.5642    86.430265 
   50800    1532.9991   -108.33621    1.3870898   -106.94912    20425.864    4.3976928    4.3976928    4.3976928    20425.864    102688.43    7288.1915    -48699.03   -3107.1244   -5388.5975    4920.6416    85.050066 
   50900    2227.7506   -108.97066    2.0157156   -106.95495    27498.361    4.3994361    4.3994361    4.3994361    27498.361    74727.998    43618.053   -35850.969    29214.564   -6437.4472   -2976.4337    85.151254 
   51000    1869.4402   -108.66893    1.6915088   -106.97742    25289.964    4.4210999    4.4210999    4.4210999    25289.964    67710.084    27907.795   -19747.987   -14169.366   -5019.0463    4822.6778    86.415367 
   51100     1891.183   -108.68053    1.7111822   -106.96934   -27455.973    4.4335449    4.4335449    4.4335449   -27455.973    -9793.073   -35342.488   -37232.359    424.09483   -5005.8887   -4458.0473    87.147178 
   51200     2217.588   -108.94849    2.0065202   -106.94196   -13464.941    4.4223167    4.4223167    4.4223167   -13464.941   -36107.471     13117.92   -17405.274    32712.866   -3779.5829   -7270.7817    86.486739 
   51300    2215.3916   -108.93875    2.0045329   -106.93421     968.3624    4.4102808    4.4102808    4.4102808     968.3624    37125.104    18278.921   -52498.938    338.69739   -12637.469    31650.496    85.782507 
   51400    1345.0161   -108.17715    1.2169988   -106.96016     10687.79    4.4222923    4.4222923    4.4222923     10687.79    46842.226   -2928.1789   -11850.677    -4708.714   -22186.827   -15407.176    86.485306 
   51500     1199.016   -108.03636    1.0848949   -106.95147    5556.0681    4.4466485    4.4466485    4.4466485    5556.0681    62760.359   -14407.222   -31684.933    25848.721   -8868.7067   -3914.8969    87.922169 
   51600     2363.656   -109.04255    2.1386856   -106.90386    16407.326    4.4323951    4.4323951    4.4323951    16407.326    70330.694    5954.5934    -27063.31   -2897.7017    16424.307    5579.1442    87.079393 
   51700    1837.8738   -108.56741    1.6629468   -106.90447    25279.089    4.4176069    4.4176069    4.4176069    25279.089    81393.841   -21481.715    15925.142   -2237.4974     12893.71   -3628.1655    86.210706 
   51800    1784.6105   -108.54273    1.6147531   -106.92797   -16769.999     4.430101     4.430101     4.430101   -16769.999    6693.8742   -5041.7009    -51962.17    15338.559   -8764.7693   -1396.6836    86.944256 
   51900    1670.3405   -108.43333    1.5113592   -106.92197   -29088.837    4.4276761    4.4276761    4.4276761   -29088.837   -15853.318   -21414.551   -49998.641   -24346.712    24191.153   -11106.023    86.801558 
   52000    2013.0334   -108.74243    1.8214349     -106.921   -15055.645    4.4151145    4.4151145    4.4151145   -15055.645   -28368.915    513.58734   -17311.608    3013.1671   -710.53054   -6775.1821    86.064872 
   52100    2588.7774   -109.25533    2.3423802   -106.91295   -21256.605    4.4150408    4.4150408    4.4150408   -21256.605   -47246.357   -5570.3143   -10953.143   -6151.9993    -59.80874    9228.9127    86.060559 
   52200    1640.2443   -108.41386    1.4841275   -106.92974   -3363.8513     4.413515     4.413515     4.413515   -3363.8513    20190.514   -26206.401   -4075.6671   -51388.732    15647.061    4962.8474    85.971367 
   52300    2069.0583   -108.79257    1.8721274   -106.92044     19489.64    4.4139292    4.4139292    4.4139292     19489.64    14885.661    64025.342   -20442.083    22697.625   -10861.424   -16228.462    85.995573 
   52400    1255.8707   -108.06602    1.1363382   -106.92969   -18751.198    4.4250088    4.4250088    4.4250088   -18751.198   -42798.249   -6450.1592   -7005.1855    -46141.04    3239.4914   -5334.6942    86.644784 
   52500    2295.9517   -108.97562    2.0774253    -106.8982    1198.7043    4.4203467    4.4203467    4.4203467    1198.7043   -3400.8112    981.55227    6015.3719   -3421.2392    1125.7883    9278.8194    86.371207 
   52600    1768.0873   -108.51161    1.5998026   -106.91181    28407.423    4.4063072    4.4063072    4.4063072    28407.423   -3336.2037    19945.704    68612.769   -988.33576    4337.0305    5420.1631    85.550848 
   52700     1925.665   -108.68175    1.7423822   -106.93937   -12016.042     4.408879     4.408879     4.408879   -12016.042   -49371.484    8409.0222    4914.3365   -24201.085   -9229.3895   -21188.685    85.700732 
   52800    2444.8004   -109.14739    2.2121068   -106.93528    8863.0564     4.414651     4.414651     4.414651    8863.0564   -15628.642    9261.8784    32955.933    19815.333   -5740.8956    21756.264    86.037769 
   52900    1908.4453   -108.66339    1.7268015   -106.93659   -4614.9386      4.41831      4.41831      4.41831   -4614.9386   -21202.369    9636.2394   -2278.6863   -41253.758    6877.7042   -6111.5695    86.251876 
   53000    1918.4187    -108.6559    1.7358256   -106.92007    5566.5667    4.4128372    4.4128372    4.4128372    5566.5667   -16529.739    31330.203    1899.2364    2821.5168     -2253.54   -14447.122    85.931763 
   53100    1684.5581   -108.45342    1.5242236    -106.9292    -3043.106    4.4153955    4.4153955    4.4153955    -3043.106   -64517.336    1587.6139    53800.404    12529.675     4716.278    10004.469    86.081302 
   53200    2182.9087   -108.90025    1.9751417   -106.92511    7980.1888    4.4282773    4.4282773    4.4282773    7980.1888   -42605.734    26758.912    39787.387   -18329.725    11829.738   -7106.5776    86.836925 
   53300    1803.0214    -108.5537    1.6314116   -106.92229    439.34177    4.4404279    4.4404279    4.4404279    439.34177   -19039.161    265.81119    20091.375   -5029.8476   -7028.0174   -3831.6946     87.55369 
   53400    1097.6438    -107.8925    0.9931712   -106.89933    7910.8636    4.4341994    4.4341994    4.4341994    7910.8636     17980.77   -27711.565    33463.386   -27832.277   -14656.032    47.967402    87.185778 
   53500    2149.0183   -108.81809    1.9444769   -106.87361    9542.7214    4.4218317    4.4218317    4.4218317    9542.7214    33927.975   -9330.3468    4030.5363    6873.7737    3043.7386    -13788.65    86.458287 
   53600    1769.6395   -108.50514     1.601207   -106.90393   -5001.4324    4.4194559    4.4194559    4.4194559   -5001.4324   -17857.239   -32764.913    35617.855   -7126.8289    -2720.646    11752.232    86.319001 
   53700    2207.4886   -108.91946    1.9973821   -106.92208    11252.322    4.4256264    4.4256264    4.4256264    11252.322    33488.795   -44021.634    44289.806   -2676.0923    3149.4352     2120.678    86.681067 
   53800    2203.0483   -108.90277    1.9933644    -106.9094   -1746.0432    4.4381214    4.4381214    4.4381214   -1746.0432    20368.801   -50199.691    24592.761   -13870.196     4932.877   -9531.1116    87.417332 
   53900    1184.8571    -107.9704    1.0720836   -106.89832    22868.845    4.4334424    4.4334424    4.4334424    22868.845    38972.811    15583.457    14050.266   -944.42997    15863.167    29906.569    87.141138 
   54000    2515.7625   -109.16595    2.2763148   -106.88964       -25289    4.4338133    4.4338133    4.4338133       -25289   -1480.0892   -26963.156   -47423.755    9578.9235    16912.428   -6367.9362    87.163006 
   54100    2328.5528   -109.00539    2.1069235   -106.89846     1961.881     4.435607     4.435607     4.435607     1961.881    51855.403   -39041.266   -6928.4943   -28139.752    13906.637    14462.436    87.268833 
   54200    2483.9096   -109.16375    2.2474936   -106.91626   -44612.407    4.4458134    4.4458134    4.4458134   -44612.407   -27347.668   -41737.889   -64751.664    2232.6567   -5594.3447   -21678.162    87.872644 
   54300    2026.0075   -108.74921    1.8331742   -106.91604   -16647.881    4.4350159    4.4350159    4.4350159   -16647.881    64720.398   -43761.305   -70902.736    1319.9281     -2065.72    15023.364    87.233953 
   54400    1498.6607   -108.29788    1.3560197   -106.94186    25294.112    4.4334326    4.4334326    4.4334326    25294.112    134970.26   -19642.462   -39445.459   -18446.582   -13593.314    7379.8756    87.140556 
   54500    1691.3722   -108.48244    1.5303891   -106.95206    9145.8125    4.4521722    4.4521722    4.4521722    9145.8125     84553.91   -42758.434   -14358.039    14386.233   -13763.954   -418.69216     88.25023 
   54600    1875.3246    -108.6111    1.6968331   -106.91427    -18285.67    4.4522661    4.4522661    4.4522661    -18285.67     30530.77   -65121.611   -20266.168   -18531.549    927.63447    -14657.85    88.255815 
   54700    1321.7824   -108.08511    1.1959765   -106.88913    3439.4059    4.4312124    4.4312124    4.4312124    3439.4059    43041.327    21066.629   -53789.738   -4582.2396   -31816.148    5594.5796    87.009705 
   54800    1540.0694   -108.28016    1.3934872   -106.88667    12292.539    4.4055822    4.4055822    4.4055822    12292.539    42907.548    16665.381   -22695.313    38708.929   -31408.921    10693.416    85.508627 
   54900     2290.164   -109.00107    2.0721885   -106.92888    2895.8185    4.4184562    4.4184562    4.4184562    2895.8185   -21833.177    43927.065   -13406.433   -18504.227    15724.491   -7257.6524    86.260441 
   55000    1956.7886   -108.70285    1.7705434   -106.93231   -53727.278     4.452328     4.452328     4.452328   -53727.278   -92628.754   -35774.684   -32778.394    14320.045   -11038.258    21356.497    88.259496 
   55100    1850.6573    -108.5843    1.6745136   -106.90979   -19445.336    4.4381812    4.4381812    4.4381812   -19445.336   -34297.343    21399.528   -45438.192   -8042.5678    2489.2202    3421.5712    87.420864 
   55200    2315.5563   -108.98919     2.095164   -106.89403    42532.691    4.3991976    4.3991976    4.3991976    42532.691    74040.521    52162.851    1394.7013   -7226.2744   -3140.5841   -4342.3997    85.137405 
   55300    1931.5517   -108.70867    1.7477086   -106.96096    11349.409    4.4039458    4.4039458    4.4039458    11349.409   -5992.3011    12711.887    27328.641    34681.689    9288.8762    24518.026    85.413379 
   55400    2043.8016   -108.82765    1.8492746   -106.97838   -13294.868    4.4364211    4.4364211    4.4364211   -13294.868   -31075.047   -21582.631    12773.075   -620.59865   -2979.8044    10315.712    87.316893 
   55500    1478.1677   -108.27535    1.3374772   -106.93787   -1465.4506    4.4486102    4.4486102    4.4486102   -1465.4506   -59074.596   -48387.607    103065.85    26199.534    5653.4974   -23489.804    88.038584 
   55600    2242.3859    -108.9189    2.0289579   -106.88994   -6692.9349    4.4254856    4.4254856    4.4254856   -6692.9349    6789.2231   -28734.897     1866.869    380.72814    17256.288    11382.747    86.672793 
   55700    1424.3449   -108.19407    1.2887772   -106.90529    28538.746    4.4164057    4.4164057    4.4164057    28538.746    2270.9698   -46771.125    130116.39   -7323.8759    26192.859    1930.4496    86.140398 
   55800    2262.3723   -108.97426     2.047042   -106.92722   -36002.699    4.4252024    4.4252024    4.4252024   -36002.699   -83633.862   -42841.265    18467.031    36674.647     6578.947   -17601.946    86.656155 
   55900    1786.6849   -108.54525      1.61663   -106.92862    36572.098     4.421312     4.421312     4.421312    36572.098   -17744.379    24752.697    102707.98    14785.195    7692.2708    34233.676    86.427808 
   56000    1996.9595   -108.76612    1.8068909   -106.95923   -38848.146    4.4538961    4.4538961    4.4538961   -38848.146   -37627.875   -57123.314   -21793.249     12646.45    35.353975   -19504.683    88.352786 
   56100    2420.3741   -109.07677    2.1900053   -106.88677   -31557.022    4.4645247    4.4645247    4.4645247   -31557.022   -59612.697   -39369.595    4311.2261   -11361.036    41.863947   -8640.8067    88.986822 
   56200    2331.7828   -108.97595    2.1098461    -106.8661   -30170.906    4.4324433    4.4324433    4.4324433   -30170.906   -74233.978   -45416.781     29138.04    25816.211   -1447.6164    19228.202    87.082237 
   56300    1734.0614   -108.45184    1.5690152   -106.88282    11203.412    4.4195775    4.4195775    4.4195775    11203.412   -39908.987    14604.061    58915.163   -8479.7831    22701.838   -27325.555    86.326127 
   56400    1360.0738   -108.16082    1.2306233    -106.9302   -35948.686    4.4404186    4.4404186    4.4404186   -35948.686   -73247.654   -59558.406    24960.003    12887.555   -9274.0686    38358.091     87.55314 
   56500    2159.0646    -108.8703     1.953567   -106.91673   -2381.5958    4.4406964    4.4406964    4.4406964   -2381.5958   -53647.935    -4832.156    51335.304    15128.789   -1537.8282    10872.276    87.569579 
   56600    1581.4195    -108.3434    1.4309016    -106.9125     40325.22    4.4288985    4.4288985    4.4288985     40325.22   -43207.047     39574.24    124608.47    20545.279   -7716.3843    6820.3396    86.873475 
   56700    1527.7625   -108.31113    1.3823516   -106.92878    1295.5243    4.4413963    4.4413963    4.4413963    1295.5243   -68839.251    32008.245    40717.578   -617.88222    516.01707    37781.506    87.610986 
   56800     2049.258   -108.75522    1.8542117   -106.90101   -13096.737    4.4571977    4.4571977    4.4571977   -13096.737   -59731.751    19642.928    798.61107   -2457.1559   -11028.186    10063.392    88.549417 
   56900    1776.9126   -108.47578    1.6077878   -106.86799    938.23172    4.4439718    4.4439718    4.4439718    938.23172   -39262.997    40433.323    1644.3682    4975.5569   -26227.209   -7211.4639    87.763488 
   57000    1922.6475   -108.60717    1.7396518   -106.86752    13342.014    4.4248814    4.4248814    4.4248814    13342.014   -16088.139    72462.171   -16347.989    -17286.75   -7784.1815   -2795.1476    86.637297 
   57100    1906.4947   -108.61717    1.7250365   -106.89213    15472.361    4.4199353    4.4199353    4.4199353    15472.361   -52637.043    76790.509    22263.618    625.22226   -13603.502    15768.595    86.347098 
   57200    1522.8139   -108.31603     1.377874   -106.93815    11566.424     4.436006     4.436006     4.436006    11566.424    17202.546    2518.5808    14978.145   -14317.617    26960.245   -1924.1498     87.29239 
   57300    2155.2663    -108.8812    1.9501302   -106.93107   -35407.095    4.4553443    4.4553443    4.4553443   -35407.095   -27915.286   -30824.879   -47481.119   -10875.033   -12870.281    4667.6455       88.439 
   57400    2309.2759   -108.98749    2.0894813     -106.898   -6762.4042    4.4373668    4.4373668    4.4373668   -6762.4042     40583.77   -12680.459   -48190.523    11005.976   -17007.795    3408.5198    87.372746 
   57500    1774.9434   -108.49873    1.6060061   -106.89272    44531.672    4.4143227    4.4143227    4.4143227    44531.672    61726.136    79175.468   -7306.5881   -616.78063   -7542.6988   -11251.712    86.018575 
   57600    1875.7369   -108.62781    1.6972062   -106.93061   -1216.2068    4.4327955    4.4327955    4.4327955   -1216.2068   -6935.8344    46989.693   -43702.479    12835.435   -26290.007    2086.9134    87.102993 
   57700    1906.5697   -108.63419    1.7251043   -106.90909    2039.2347    4.4389027    4.4389027    4.4389027    2039.2347    55988.566   -8896.8069   -40974.055    1426.6224   -11862.523   -107.31899    87.463504 
   57800    1968.3091   -108.68312    1.7809675   -106.90216    9445.6119    4.4307692    4.4307692    4.4307692    9445.6119   -21176.314    28058.024    21455.126   -13875.013   -17637.804   -1186.6195    86.983602 
   57900    1777.1098   -108.51915    1.6079663   -106.91118    7997.2691    4.4538487    4.4538487    4.4538487    7997.2691     34305.55    21110.791   -31424.534    24092.747    3125.5665   -2045.0868    88.349962 
   58000    1483.7158   -108.22182    1.3424973   -106.87932   -19352.317    4.4673369    4.4673369    4.4673369   -19352.317   -37856.789   -16660.647   -3539.5144    25882.339   -18165.163   -15297.148    89.155087 
   58100    1605.2735    -108.2916    1.4524852   -106.83911   -3435.2672    4.4469379    4.4469379    4.4469379   -3435.2672   -55918.286    5710.3565    39902.128   -6781.6643    -11418.22   -5038.0297    87.939341 
   58200    2705.4685   -109.27279    2.4479647   -106.82483    9501.3289    4.4310675    4.4310675    4.4310675    9501.3289     34365.03    23730.388   -29591.431   -2778.9848    10969.436    10788.529    87.001173 
   58300    1584.8557   -108.33998    1.4340107   -106.90597   -2414.4633    4.4461376    4.4461376    4.4461376   -2414.4633    8593.6022    38445.364   -54282.356   -192.36343   -23078.027    5497.3164    87.891868 
   58400    2056.3087   -108.75992    1.8605914   -106.89933   -13304.897    4.4583021    4.4583021    4.4583021   -13304.897     -12485.7   -1410.7821   -26018.208   -11931.145    -2067.353    254.80617    88.615255 
   58500    1371.1649   -108.13052    1.2406588   -106.88986    41876.836     4.429407     4.429407     4.429407    41876.836    84068.646     72193.82   -30631.959    16002.472   -21542.201    6016.7366    86.903401 
   58600    1602.1801   -108.35062    1.4496862   -106.90093   -4226.2387    4.4031603    4.4031603    4.4031603   -4226.2387   -6136.7735    6518.1794   -13060.122   -26037.492   -10574.345   -1578.1797    85.367682 
   58700    2478.1351   -109.17755    2.2422687   -106.93528    13503.407    4.4041751    4.4041751    4.4041751    13503.407     20287.93   -7630.0044    27852.294    -8214.473    9586.6302    15567.335    85.426719 
   58800    1883.4824   -108.67545    1.7042145   -106.97124    14100.263    4.4293603    4.4293603    4.4293603    14100.263    25213.213    45802.614   -28715.036   -7662.5568   -16822.038   -16662.628     86.90065 
   58900    1795.8698   -108.57345    1.6249407   -106.94851    -38164.57     4.454963     4.454963     4.454963    -38164.57   -59097.982    8878.6073   -64274.335   -16777.288    5982.4586    15696.756    88.416291 
   59000     2062.558   -108.77458    1.8662459   -106.90834    16668.318    4.4223314    4.4223314    4.4223314    16668.318   -16697.217    40892.704    25809.466    32137.158   -947.50131    28474.229    86.487602 
   59100    1599.0629   -108.33686    1.4468657   -106.88999    54886.926      4.38781      4.38781      4.38781    54886.926    22263.527    84433.534    57963.715   -37889.037   -14114.307   -13995.305    84.477966 
   59200    1472.3822   -108.30276    1.3322424   -106.97051    -9207.766    4.4130504    4.4130504    4.4130504    -9207.766    -31004.69   -32384.311    35765.702    13864.639   -1070.1308    31961.502    85.944215 
   59300    2196.1775    -108.9522    1.9871475   -106.96505   -22509.424    4.4400014    4.4400014    4.4400014   -22509.424   -37745.653   -49265.319    19482.701    22374.566   -1402.8388    -22398.89    87.528467 
   59400     2489.503   -109.16629    2.2525546   -106.91374   -29288.149    4.4456234    4.4456234    4.4456234   -29288.149   -43114.708   -41945.041   -2804.6973   -17226.254   -7372.1192    17152.537    87.861377 
   59500    1809.1436    -108.5344    1.6369511   -106.89745    3358.3364    4.4197749    4.4197749    4.4197749    3358.3364   -32773.778   -9609.1816    52457.969    33516.961   -4939.0829    27809.773    86.337699 
   59600     2089.374   -108.77988    1.8905095   -106.88937    22493.802    4.4005794    4.4005794    4.4005794    22493.802   -31249.324    20355.945    78374.786   -12025.081   -10017.344   -14120.405    85.217655 
   59700     1814.316   -108.58066    1.6416313   -106.93903   -15334.638    4.4238117    4.4238117    4.4238117   -15334.638   -30993.653   -3367.8761   -11642.385    28405.141    -26815.82    13980.183     86.57448 
   59800    1603.1858   -108.37488    1.4505962   -106.92429    830.29518    4.4430272    4.4430272    4.4430272    830.29518   -46232.632   -8716.5914    57440.108    33232.812    -9537.767   -3048.2456    87.707534 
   59900    2500.1481   -109.15542    2.2621865   -106.89323   -10388.155    4.4448525    4.4448525    4.4448525   -10388.155   -51978.991    3522.8783    17291.647    -15752.66    5808.1748    3233.4096    87.815678 
   60000    1902.1231   -108.60172     1.721081   -106.88064    18073.741    4.4370444    4.4370444    4.4370444    18073.741   -26164.177    89960.153   -9574.7512    7524.4267    7510.0575    14735.311    87.353704 
   60100    1991.7204    -108.6763    1.8021505   -106.87415    2464.9559    4.4320503    4.4320503    4.4320503    2464.9559   -51319.084    40330.418    18383.534   -20214.514    7010.6578   -558.63669    87.059073 
   60200    1320.7572   -108.08894    1.1950489   -106.89389   -18794.833     4.427584     4.427584     4.427584   -18794.833   -45468.273    -4413.542   -6502.6835    27045.196   -3621.6812    8308.7376    86.796144 
   60300    1877.8425   -108.61114    1.6991114   -106.91203   -423.16686    4.4195764    4.4195764    4.4195764   -423.16686   -18804.509   -8041.2939    25576.303    -9647.058    5678.4858    1944.4536    86.326062 
   60400    2612.2888   -109.29606    2.3636538    -106.9324    -25341.71    4.4309172    4.4309172    4.4309172    -25341.71   -52254.346   -18423.009   -5347.7766   -10770.918   -24636.605    20053.361    86.992316 
   60500    2056.0464   -108.78536     1.860354   -106.92501    9762.0068    4.4345631    4.4345631    4.4345631    9762.0068   -35689.134     38750.31    26224.844    20626.529   -6928.1963    27955.373    87.207232 
   60600    2004.6224   -108.72031    1.8138244   -106.90649    27475.043    4.4354109    4.4354109    4.4354109    27475.043   -5217.8965    29748.168    57894.858   -13219.047    11547.224   -1735.1223    87.257259 
   60700    2300.8897   -108.96796    2.0818933   -106.88606   -18546.232    4.4358151    4.4358151    4.4358151   -18546.232   -34003.899   -19750.636   -1884.1608     15958.19    -11530.82    8410.3683    87.281121 
   60800      1525.54   -108.27164    1.3803407    -106.8913    -7525.458    4.4325765    4.4325765    4.4325765    -7525.458   -29052.398   -7700.5987    14176.622    12304.308   -3262.9656    37907.078    87.090089 
   60900    2428.6939   -109.08153    2.1975333   -106.88399    1059.4076    4.4316102    4.4316102    4.4316102    1059.4076   -18833.574   -38613.953    60625.749     -14143.6   -1154.1075   -7118.9495    87.033144 
   61000     2039.444   -108.74292    1.8453318   -106.89759    22846.905    4.4242691    4.4242691    4.4242691    22846.905    29022.264   -5449.8165    44968.269    1604.2949    -2846.321      9965.68    86.601337 
   61100    2010.8647   -108.72898    1.8194726   -106.90951    15432.224    4.4383596    4.4383596    4.4383596    15432.224   -9457.2404    985.13839    54768.774   -4689.5005    16053.082    818.95537    87.431408 
   61200    1295.8445   -108.05105    1.1725073   -106.87854   -11105.083    4.4591949    4.4591949    4.4591949   -11105.083   -4979.4915   -55426.878    27091.121    5492.4487   -6533.3059    38743.952      88.6685 
   61300    1852.0377   -108.52324    1.6757626   -106.84747    168.66983    4.4469318    4.4469318    4.4469318    168.66983   -13463.961   -37920.589     51890.56    1285.0061   -12002.249    17261.711    87.938979 
   61400    2347.6693   -108.95675    2.1242205   -106.83252    11178.173     4.437229     4.437229     4.437229    11178.173   -26258.398   -15736.704    75529.621   -12957.461   -14819.052     18871.84    87.364604 
   61500    1858.0892   -108.54894    1.6812382    -106.8677   -41416.335    4.4501747    4.4501747    4.4501747   -41416.335   -13570.657   -80834.093   -29844.254    8300.5238   -20515.837    51915.257    88.131504 
   61600    2454.0335   -109.07115    2.2204611   -106.85069   -37698.159      4.44731      4.44731      4.44731   -37698.159   -50882.909    -80310.47    18098.902   -18257.935    2596.8999   -11901.286    87.961415 
   61700    1952.3841   -108.64034    1.7665582   -106.87379   -20937.659    4.4398619    4.4398619    4.4398619   -20937.659   -13273.474    -40494.08   -9045.4245     1549.944     5708.295    16775.611    87.520216 
   61800      2247.57   -108.93389    2.0336485   -106.90024   -27820.691    4.4178215    4.4178215    4.4178215   -27820.691   -38706.212   -25528.758   -19227.104   -7932.2652   -6119.1333    2967.6473    86.223268 
   61900    1895.4377    -108.6393    1.7150319   -106.92427    37115.361    4.4076263    4.4076263    4.4076263    37115.361     20750.27   -11245.042    101840.85   -8478.6559    7705.7687   -3470.2199    85.627704 
   62000    2092.3783   -108.84347    1.8932279   -106.95024   -29099.748    4.4280264    4.4280264    4.4280264   -29099.748   -8295.5659    -74535.98   -4467.6985    11430.893   -5444.3623    21885.242    86.822162 
   62100    1610.9114   -108.38985    1.4575865   -106.93226    11725.741    4.4371536    4.4371536    4.4371536    11725.741   -37871.369   -73252.851    146301.44   -12765.135    -1580.242   -23972.478    87.360152 
   62200    2122.9929    -108.8676    1.9209286   -106.94667   -24168.259    4.4375871    4.4375871    4.4375871   -24168.259   -23583.389     -41712.7   -7208.6866    22312.258   -2185.5362   -26960.058    87.385762 
   62300    1957.1976   -108.72487    1.7709136   -106.95395    37112.892     4.431652     4.431652     4.431652    37112.892   -7916.3987   -7444.5875    126699.66   -6273.5029   -16207.169   -9283.6609    87.035603 
   62400    798.04079   -107.72113   0.72208408   -106.99904    46446.142    4.4468778    4.4468778    4.4468778    46446.142   -24406.529   -17821.385    181566.34    4858.1744   -8810.6204   -19879.145    87.935773 
   62500    1906.2639   -108.69308    1.7248276   -106.96826   -26046.373    4.4667191    4.4667191    4.4667191   -26046.373   -61721.817   -51690.708    35273.404   -8503.3218     15836.66    335.25236    89.118104 
   62600    1132.0362   -107.95586    1.0242902   -106.93157   -34453.257    4.4527066    4.4527066    4.4527066   -34453.257   -2630.7568   -77113.743   -23615.272   -3645.3866   -3934.8025   -87581.414    88.282017 
   62700     1967.109   -108.64602    1.7798816   -106.86614    13284.791    4.3913383    4.3913383    4.3913383    13284.791    42450.026    13690.116   -16285.769    6817.1431    -36045.97   -38728.474    84.681917 
   62800    2194.8933    -108.8895    1.9859856   -106.90351     50292.24    4.3877797    4.3877797    4.3877797     50292.24    28333.675    68581.221    53961.823    17136.427     16423.21    4679.6423    84.476215 
   62900    947.69632   -107.83096   0.85749555   -106.97346   -37415.017    4.4594318    4.4594318    4.4594318   -37415.017    3142.3888   -51548.518    -63838.92   -8589.7017   -9218.4305   -52908.842    88.682633 
   63000    2392.5064   -109.02575    2.1647901   -106.86096   -58467.445    4.4777585    4.4777585    4.4777585   -58467.445   -51226.948   -66122.138   -58053.247    16973.666   -31682.286    13575.399    89.780497 
   63100    1750.8995   -108.41923    1.5842507   -106.83498    -11534.46    4.4565742    4.4565742    4.4565742    -11534.46   -104.95087   -44903.747    10405.317    15755.336    3171.1823    -41545.15    88.512262 
   63200    1991.7462   -108.63281    1.8021738   -106.83064    27515.025    4.4267331    4.4267331    4.4267331    27515.025    7282.9869   -14774.709    90036.798    24298.973    24750.793   -21908.143     86.74611 
   63300    1746.3512   -108.48498    1.5801353   -106.90485    16094.229    4.4266368    4.4266368    4.4266368    16094.229    11677.633   -1113.3978    37718.453   -2276.8082    -1090.872   -16616.381    86.740447 
   63400    1398.9244    -108.1913    1.2657762   -106.92552   -24680.287    4.4573742    4.4573742    4.4573742   -24680.287    -26349.09   -49222.078    1530.3076   -811.08086    20618.068   -10947.021    88.559936 
   63500    2086.3437   -108.77293    1.8877677   -106.88516   -22874.104    4.4456372    4.4456372    4.4456372   -22874.104   -22011.294   -3762.5717   -42848.446   -4097.4533    230.13646    29851.871    87.862194 
   63600    1640.4828   -108.37254    1.4843433   -106.88819    19350.416    4.4255376    4.4255376    4.4255376    19350.416     19684.52   -16193.679    54560.406    5702.9381   -14638.627   -20573.048    86.675847 
   63700    1590.2013   -108.35109    1.4388476   -106.91224    21388.396    4.4284976    4.4284976    4.4284976    21388.396   -13369.892    106672.68   -29137.604    14420.492    14133.794    32722.474    86.849883 
   63800    1719.9083   -108.48623    1.5562092   -106.93002   -11813.846    4.4517472    4.4517472    4.4517472   -11813.846    -54296.14    105933.46    -87078.86    -6644.473   -4626.2531    6551.5022    88.224961 
   63900    1772.2376    -108.5087    1.6035578   -106.90515   -32074.157    4.4718032    4.4718032    4.4718032   -32074.157    -26187.11    5493.8646   -75529.225    1859.8037    14600.069   -23980.311    89.422754 
   64000    2323.4384   -108.97276    2.1022959   -106.87046   -34473.684    4.4498714    4.4498714    4.4498714   -34473.684    -61652.98   -25697.559   -16070.513    20868.489   -5705.1842    14355.346    88.113484 
   64100    2311.0179   -108.94077    2.0910576   -106.84971    5967.2404    4.4109201    4.4109201    4.4109201    5967.2404    39845.873     1047.954   -22992.105   -15399.015   -20250.698   -27720.514    85.819817 
   64200    2195.4399   -108.90529    1.9864802   -106.91881   -3324.8011    4.4176093    4.4176093    4.4176093   -3324.8011    10976.047    17206.305   -38156.756    -12821.67    11872.041    3080.7679    86.210847 
   64300    1358.5268   -108.17679    1.2292236   -106.94756    34867.747    4.4307834    4.4307834    4.4307834    34867.747   -12741.411    109824.43    7520.2239   -6917.9419    3258.1406   -8008.2549    86.984439 
   64400    1857.7192   -108.63023    1.6809034   -106.94933   -23346.466    4.4468203    4.4468203    4.4468203   -23346.466   -36605.767    8489.0309   -41922.661    1215.7073    -9169.692    -32534.34    87.932364 
   64500    1878.4674   -108.61755    1.6996767   -106.91787   -10829.472    4.4381349    4.4381349    4.4381349   -10829.472   -27759.731    36138.669   -40867.355   -2142.0925   -27665.417    21999.468    87.418124 
   64600    2123.1539   -108.80814    1.9210742   -106.88707    26638.654     4.401826     4.401826     4.401826    26638.654    12409.773    103677.29   -36171.105   -358.26828   -15737.728   -19606.538    85.290096 
   64700    1508.0876   -108.32094    1.3645493   -106.95639    7342.1442    4.4054239    4.4054239    4.4054239    7342.1442    30367.192   -14130.745    5789.9859     -20405.5   -3117.0119   -5305.0144    85.499407 
   64800    2043.6461   -108.83467    1.8491339   -106.98554   -35907.683    4.4449577    4.4449577    4.4449577   -35907.683   -40909.821    1949.9983   -68763.226   -6747.7247   -10600.799    9054.9301    87.821913 
   64900     2516.584    -109.2053    2.2770581   -106.92824   -37104.088    4.4434118    4.4434118    4.4434118   -37104.088   -4317.8509   -51193.658   -55800.755    10389.696    2543.7231   -16119.545    87.730314 
   65000    1589.4734   -108.33146    1.4381889   -106.89327     43963.52    4.4063046    4.4063046    4.4063046     43963.52    41788.712    77501.285    12600.564   -44593.479   -10451.952    8362.3063    85.550696 
   65100     1949.572   -108.68822    1.7640137   -106.92421   -24851.315    4.4104215    4.4104215    4.4104215   -24851.315    18881.679   -26011.372   -67424.252    31753.577    -10800.73     17574.13    85.790713 
   65200    1585.8342   -108.38175    1.4348961   -106.94686     12900.46    4.4180612    4.4180612    4.4180612     12900.46    33822.492    39302.035   -34423.146    -18265.61    15411.056   -13714.449    86.237304 
   65300    2080.0605   -108.83872    1.8820825   -106.95664   -37903.415    4.4373577    4.4373577    4.4373577   -37903.415   -34796.489   -44201.399   -34712.358   -29239.038   -12468.197    8615.1659    87.372207 
   65400    1958.4618   -108.70566    1.7720574    -106.9336   -40077.639    4.4423007    4.4423007    4.4423007   -40077.639   -67189.618    -3101.918   -49941.381    17004.917   -6040.6327    5074.6716     87.66452 
   65500    1949.1394   -108.66774    1.7636223   -106.90412   -18376.235    4.4255752    4.4255752    4.4255752   -18376.235    2813.3738   -33029.481   -24912.597   -28297.966    19670.824   -21102.034    86.678061 
   65600    1904.3085   -108.63502    1.7230584   -106.91196   -29373.416    4.4166924    4.4166924    4.4166924   -29373.416   -45548.018   -11534.111   -31038.118   -12937.059   -41301.737    18173.884    86.157176 
   65700    1578.7551   -108.36115    1.4284908   -106.93266    36814.096     4.411906     4.411906     4.411906    36814.096    102673.45    14804.696   -7035.8577    4210.3431    31311.079   -1205.6268    85.877372 
   65800    1870.8195   -108.65744    1.6927568   -106.96469    20772.347    4.4269001    4.4269001    4.4269001    20772.347    46585.093    27054.771   -11322.823    11384.545   -8015.2931   -4373.4436    86.755929 
   65900    2007.8086   -108.75547    1.8167074   -106.93876   -36629.084    4.4444832    4.4444832    4.4444832   -36629.084    -6092.553   -33847.805   -69946.893   -13395.016   -39069.344     17384.09    87.793795 
   66000    2512.2792    -109.1579     2.273163   -106.88474   -1639.5337    4.4311822    4.4311822    4.4311822   -1639.5337    53341.375   -28883.677   -29376.299   -10275.257    8424.6434    2070.5439    87.007927 
   66100    1275.8705   -108.05269    1.1544345   -106.89825    4603.6869    4.4302571    4.4302571    4.4302571    4603.6869   -1599.6548    48496.799   -33086.083    23547.122   -35518.806    -4575.735    86.953446 
   66200    2001.1047    -108.7315    1.8106416   -106.92086   -16761.133    4.4326411    4.4326411    4.4326411   -16761.133    53472.614   -49113.691   -54642.322   -3953.8037    1289.6685    18134.039    87.093894 
   66300     2206.077    -108.9236    1.9961048   -106.92749     21839.24    4.4267059    4.4267059    4.4267059     21839.24    77342.758    7459.7401   -19284.779    6072.1493   -14602.915   -3286.0217     86.74451 
   66400    1552.7455   -108.35396    1.4049567     -106.949   -17241.184     4.428664     4.428664     4.428664   -17241.184    40400.758   -52740.133   -39384.177   -9496.4743   -32710.081    21737.577    86.859676 
   66500    1736.5747    -108.5029    1.5712893   -106.93161    18728.155    4.4260641    4.4260641    4.4260641    18728.155    66623.555     6773.657   -17212.747    16772.649    25.542066   -10796.781    86.706786 
   66600    1891.9201   -108.66005    1.7118491   -106.94821   -12627.115     4.415618     4.415618     4.415618   -12627.115   -24203.138    14178.052   -27856.258   -2013.4396   -28561.416    4967.6855    86.094317 
   66700    1768.4563   -108.55774    1.6001364    -106.9576    -3135.363    4.4114196    4.4114196    4.4114196    -3135.363   -34069.466    38631.295   -13967.918    6228.1493    14163.351    23709.039    85.848972 
   66800    1667.8519   -108.48009    1.5091075   -106.97099    2491.2134     4.410159     4.410159     4.410159    2491.2134   -43359.575    53760.808   -2927.5927    1431.6372    -19911.07   -1849.7093      85.7754 
   66900     2185.869   -108.95987    1.9778202   -106.98205   -20970.089    4.4240248    4.4240248    4.4240248   -20970.089    10135.551    6634.7979   -79680.617    26277.418   -7719.1595    23042.369    86.586992 
   67000     1615.151   -108.43903    1.4614225   -106.97761   -32988.345    4.4420918    4.4420918    4.4420918   -32988.345   -42374.523   -25983.564    -30606.95   -38352.765    34713.201   -12.669899    87.652155 
   67100    1909.9367   -108.66577    1.7281509   -106.93762   -17102.096    4.4320815    4.4320815    4.4320815   -17102.096    18984.102   -41217.391       -29073    26415.761   -9664.3529    11426.181    87.060913 
   67200     1426.993    -108.2297    1.2911733   -106.93853    2275.7655    4.4073462    4.4073462    4.4073462    2275.7655    38119.375    18220.977   -49513.055    4831.9986    52222.099    14699.289     85.61138 
   67300    2135.0372   -108.90141    1.9318265   -106.96958    26092.085     4.407544     4.407544     4.407544    26092.085    71995.535    12360.165   -6079.4463    4316.6739    4907.1761    2348.0026    85.622905 
   67400    2214.7578   -109.02219    2.0039594   -107.01823   -46472.903    4.4522398    4.4522398    4.4522398   -46472.903   -24770.436   -40237.786   -74410.486   -6699.9235    14146.197    5369.7212    88.254253 
   67500    1407.9685    -108.2195    1.2739595   -106.94554   -46205.121    4.4762833    4.4762833    4.4762833   -46205.121   -38986.788   -19430.774   -80197.803    16744.342    35266.536    8763.2359     89.69179 
   67600    2912.2684   -109.51155    2.6350816   -106.87647   -12544.288    4.4291563    4.4291563    4.4291563   -12544.288    13374.613   -25013.111   -25994.368   -6128.3728   -14672.618   -4125.6758    86.888643 
   67700    2004.6953   -108.72328    1.8138904   -106.90939   -17392.302    4.3993125    4.3993125    4.3993125   -17392.302   -13403.092    6301.4499   -45075.263    2461.6329    51097.191    10355.688    85.144074 
   67800    1693.5182   -108.52768    1.5323308   -106.99535    42139.311    4.4019869    4.4019869    4.4019869    42139.311    56885.225    70535.322    -1002.613   -4025.9112   -16922.705    15786.372    85.299451 
   67900    2461.7929   -109.24372     2.227482   -107.01624   -27590.148    4.4389693    4.4389693    4.4389693   -27590.148   -20624.156   -46228.169   -15918.119    19772.251    1402.5887   -25411.877    87.467444 
   68000    1128.5443   -108.00258    1.0211306   -106.98145   -44700.593    4.4678095    4.4678095    4.4678095   -44700.593   -51786.475   -31979.596   -50335.708    -4033.211    22556.243    20939.684    89.183385 
   68100    2062.3269    -108.8073    1.8660368   -106.94126   -22754.215     4.437683     4.437683     4.437683   -22754.215    23735.667   -66823.482   -25174.829   -22683.039   -22836.586    -11104.83    87.391426 
   68200    2447.2372   -109.13813    2.2143116   -106.92382    26939.259    4.3873608    4.3873608    4.3873608    26939.259     23654.14    47416.668     9746.968   -4945.7466    23701.676   -9049.9218    84.452021 
   68300    1606.9911   -108.45144    1.4540393    -106.9974    23466.897      4.39255      4.39255      4.39255    23466.897     11049.31    55944.734     3406.647   -18861.745    19603.366    13078.294    84.752034 
   68400    1982.8089   -108.81187    1.7940872   -107.01778   -10139.822    4.4383074    4.4383074    4.4383074   -10139.822   -29640.723    15130.866    -15909.61    1663.6812   -5414.5927   -7080.8215    87.428318 
   68500    1924.2276   -108.70803    1.7410816   -106.96695   -26265.563    4.4739237    4.4739237    4.4739237   -26265.563   -74033.266    48966.632   -53730.056    15676.037    15472.081    -1237.914    89.550027 
   68600    1755.6608   -108.48722    1.5885588   -106.89866   -55403.053    4.4588673    4.4588673    4.4588673   -55403.053   -57316.148   -45005.255   -63887.756   -23953.062    -14711.03    16829.936    88.648957 
   68700    1496.7513   -108.21194     1.354292   -106.85764    28795.275    4.4005402    4.4005402    4.4005402    28795.275   -13352.301    82396.204    17341.921   -10163.509   -7055.2242   -17708.207    85.215377 
   68800    2918.7168   -109.54854    2.6409163   -106.90763    13504.891    4.3941143    4.3941143    4.3941143    13504.891    10191.859    50095.554    -19772.74    12042.161   -1306.2409    14243.864    84.842613 
   68900    1967.1081   -108.74815    1.7798807   -106.96827   -7889.5098    4.4375231    4.4375231    4.4375231   -7889.5098   -25738.531    31105.831    -29035.83   -4653.4979   -13558.086    19577.104     87.38198 
   69000    1637.9569   -108.40129    1.4820578   -106.91923   -46935.075    4.4628673    4.4628673    4.4628673   -46935.075   -83290.448   -71990.617     14475.84   -20687.531    15226.343    452.39478    88.887751 
   69100    2201.2047   -108.84692    1.9916963   -106.85522   -34634.894    4.4590354    4.4590354    4.4590354   -34634.894   -61247.503    28627.715   -71284.893    23249.574   -25827.443   -5456.6029    88.658987 
   69200     1932.745   -108.58601    1.7487883   -106.83722     16468.15    4.4342931    4.4342931    4.4342931     16468.15     8245.945    44947.308   -3788.8039   -34974.598   -13700.354   -7831.0676    87.191309 
   69300    1488.2545   -108.21713     1.346604   -106.87053    22759.934    4.4110593    4.4110593    4.4110593    22759.934    13669.838   -20274.019    74883.983   -11936.854   -8712.5972   -9790.8187    85.827939 
   69400    1426.9643   -108.23944    1.2911473   -106.94829    17848.425    4.4323936    4.4323936    4.4323936    17848.425    1202.1339     41661.33    10681.812    35952.866   -6492.9399    18195.586    87.079308 
   69500    2622.6088    -109.2966    2.3729916   -106.92361   -24095.157    4.4396312    4.4396312    4.4396312   -24095.157   -40901.519    19486.064   -50870.016   -16905.483   -1120.5395   -506.15099    87.506572 
   69600    1475.1881   -108.26962    1.3347812   -106.93484    28485.452    4.4137566    4.4137566    4.4137566    28485.452    -42219.66    114455.11    13220.903    32245.656   -11007.462    4282.4362    85.985481 
   69700    2017.5556   -108.76473    1.8255267    -106.9392    45626.322    4.4210963    4.4210963    4.4210963    45626.322    23836.223    45441.607    67601.136   -6059.8404    6141.4759    7955.4781    86.415154 
   69800    1678.7119   -108.44791    1.5189338   -106.92897   -24028.721     4.441498     4.441498     4.441498   -24028.721   -20406.091   -21536.519   -30143.552    21654.614    -2980.613    18875.779    87.617008 
   69900    1699.8075   -108.44872    1.5380215    -106.9107   -26030.363    4.4208411    4.4208411    4.4208411   -26030.363   -46254.489   -24264.721   -7571.8785    17264.879   -17154.967    1284.2747    86.400196 
   70000    2212.7311    -108.9032    2.0021256   -106.90108     14194.24    4.4090176    4.4090176    4.4090176     14194.24    29830.127    21549.846   -8797.2522   -11072.968   -239.74661    5426.7441    85.708814 
   70100    1521.8756   -108.32679     1.377025   -106.94976    5433.8691    4.4153074    4.4153074    4.4153074    5433.8691   -23382.785    22839.637    16844.755    39346.367   -3560.5708    3433.9748    86.076149 
   70200    2271.8847   -109.00406     2.055649   -106.94841    6438.9404    4.4224279    4.4224279    4.4224279    6438.9404    48601.965    9569.3519   -38854.496    8244.4235   -28848.742    17373.311    86.493263 
   70300    2396.7696    -109.0922    2.1686475   -106.92355   -15310.205      4.43984      4.43984      4.43984   -15310.205    13210.819   -52494.158   -6647.2751    4248.2049     9101.547   -2034.8381     87.51892 
   70400    1359.4805   -108.13752    1.2300865   -106.90743   -12924.483    4.4435525    4.4435525    4.4435525   -12924.483   -26606.028   -3092.0396    -9075.382    33039.482   -14899.396   -9052.7459    87.738651 
   70500     2329.282   -108.98569    2.1075833    -106.8781   -11513.934    4.4313947    4.4313947    4.4313947   -11513.934   -29833.053     15906.82   -20615.569   -8817.9068   -3235.8162    14896.264    87.020443 
   70600    1606.4339   -108.34375    1.4535351   -106.89022    1884.9313    4.4195404    4.4195404    4.4195404    1884.9313    19974.369   -22026.565    7706.9898    23003.503    9139.6409   -18981.219    86.323955 
   70700    2075.9563   -108.76834    1.8783689   -106.88997   -2680.1966    4.4164517    4.4164517    4.4164517   -2680.1966    9629.2804    8480.2191   -26150.089    4719.2383   -28971.621    27325.426    86.143092 
   70800    1896.6673    -108.6276    1.7161444   -106.91145    17839.067    4.4150161    4.4150161    4.4150161    17839.067     11305.35    2262.4687    39949.381    3933.7677    21002.708    10270.532    86.059117 
   70900    2080.0404   -108.81685    1.8820643   -106.93478    -25459.67    4.4357683    4.4357683    4.4357683    -25459.67   -52079.243    6673.6723   -30973.438     3589.033    -18066.07   -11429.718    87.278354 
   71000    1698.0386   -108.45649     1.536421   -106.92007   -2697.8054    4.4304362    4.4304362    4.4304362   -2697.8054   -4895.5567     550.4284   -3748.2879   -7482.7157   -16730.844    30750.473    86.963989 
   71100    1919.0176   -108.63291    1.7363675   -106.89655     34801.14    4.3941593    4.3941593    4.3941593     34801.14   -14583.179    62846.511    56140.087    1294.4795    35981.222    4679.4526    84.845223 
   71200    2087.0473   -108.81253    1.8884043   -106.92412    15734.846    4.4020538    4.4020538    4.4020538    15734.846   -2317.0063    51714.332    -2192.789    7056.3347    -24258.44    2707.3759    85.303342 
   71300    1501.4517   -108.30628    1.3585451   -106.94773    15566.668    4.4210322    4.4210322    4.4210322    15566.668    41727.679    32342.406   -27370.081    479.96396   -12230.459     16111.79    86.411401 
   71400    2145.3105   -108.87557     1.941122   -106.93445   -9663.8115    4.4384437    4.4384437    4.4384437   -9663.8115   -25945.654    -17000.73    13954.949    16564.082    6015.8659    19512.399    87.436377 
   71500    1996.4716   -108.71389    1.8064495   -106.90744   -5012.6625    4.4400542    4.4400542    4.4400542   -5012.6625   -17422.066   -14034.814    16418.893   -14257.713   -13454.581     11761.25    87.531592 
   71600    1278.0667   -108.04502    1.1564216    -106.8886    21203.947    4.4171452    4.4171452    4.4171452    21203.947    31492.259    17539.534    14580.049   -12349.197    5426.5353    5124.9665    86.183677 
   71700    2228.9369   -108.90676     2.016789   -106.88997    12707.702    4.4203348    4.4203348    4.4203348    12707.702    4250.4393   -5870.1916    39742.858     1228.678    17602.966   -11404.638    86.370513 
   71800    2127.4951   -108.82446    1.9250023   -106.89946   -38060.939    4.4312492    4.4312492    4.4312492   -38060.939    -411.9251    -78168.21   -35602.681   -8072.8541   -9464.2999    9174.7911    87.011876 
   71900    1477.2673   -108.23976    1.3366625   -106.90309    37204.931    4.4225915    4.4225915    4.4225915    37204.931    70229.533    4362.7718    37022.489    6521.0045    2051.3791    16325.169    86.502864 
   72000    2258.6012   -108.95418    2.0436298   -106.91055   -39563.172    4.4227548    4.4227548    4.4227548   -39563.172   -41666.335   -40912.134   -36111.047   -9813.2809    6492.7066   -30321.945    86.512445 
   72100    1209.0007   -108.01956    1.0939292   -106.92563    17360.441    4.4173642    4.4173642    4.4173642    17360.441    72693.719   -35082.074    14469.678    8092.8244    -10717.86    19581.751    86.196499 
   72200    2474.1391   -109.15918     2.238653   -106.92053    18763.659    4.4198794    4.4198794    4.4198794    18763.659    11226.031    21080.421    23984.523    -922.2473    9134.0967   -28175.065     86.34382 
   72300    1642.7767   -108.42285    1.4864189   -106.93643   -27674.566    4.4376614    4.4376614    4.4376614   -27674.566   -14013.616   -81500.143    12490.062    18987.147   -4355.4198    2678.3242     87.39015 
   72400    2374.8474   -109.03494    2.1488118   -106.88613    3946.5968    4.4337302    4.4337302    4.4337302    3946.5968      7645.65    16046.018   -11851.877    15492.995    2886.4213    11105.671    87.158106 
   72500     1624.639   -108.35301    1.4700075   -106.88301    48822.841     4.427472     4.427472     4.427472    48822.841     25727.82   -7721.1767    128461.88    9284.6096    5726.2107   -36991.705    86.789556 
   72600    2234.9735   -108.89855     2.022251    -106.8763   -19212.374    4.4539022    4.4539022    4.4539022   -19212.374   -66325.184    18837.656   -10149.593    8464.0978    1879.8758    14724.922    88.353147 
   72700    1649.1485   -108.35375    1.4921842   -106.86156    17954.912    4.4431715    4.4431715    4.4431715    17954.912    9236.3517    30183.825    14444.561   -19407.334   -7015.6448   -45606.904    87.716081 
   72800    1208.4733   -107.93897    1.0934521   -106.84552    94248.076     4.422431     4.422431     4.422431    94248.076    77376.878    78252.245     127115.1    10834.838    731.24633   -13664.295    86.493444 
   72900    1909.9516   -108.59506    1.7281644    -106.8669    6801.6568    4.4539086    4.4539086    4.4539086    6801.6568   -9777.4743    41939.399   -11756.955    -27406.92   -15702.015   -14933.109    88.353529 
   73000     1880.828   -108.54101    1.7018127    -106.8392   -56174.056    4.4639394    4.4639394    4.4639394   -56174.056   -65524.723   -37051.359   -65946.086     22059.39    6674.2063   -5160.5302    88.951829 
   73100    2716.1717   -109.25434    2.4576492   -106.79669     -15950.6     4.436911     4.436911     4.436911     -15950.6   -43719.483   -24988.968    20856.653    20440.372    14911.116    22932.917    87.345827 
   73200    1625.0492   -108.30669    1.4703786   -106.83632    -5872.676    4.4376607    4.4376607    4.4376607    -5872.676    12128.049   -72994.659    43248.582    14141.518    10433.053   -25506.822    87.390107 
   73300    2186.6665   -108.81152    1.9785418   -106.83298    531.70345     4.456526     4.456526     4.456526    531.70345   -18440.594    31970.251   -11934.547    21593.585    17985.453   -10833.056    88.509389 
   73400    1436.0459   -108.14519    1.2993645   -106.84582   -25380.641    4.4664417    4.4664417    4.4664417   -25380.641   -33322.449    8243.5893   -51063.063   -2186.8741   -4702.2594   -45665.689    89.101501 
   73500    1907.0742   -108.55466    1.7255608    -106.8291   -15047.106      4.43262      4.43262      4.43262   -15047.106     -38460.6    10770.019   -17450.738    26019.601    13967.656    8517.8969     87.09265 
   73600    1973.4375   -108.59285    1.7856077   -106.80724    56885.869    4.3815358    4.3815358    4.3815358    56885.869    62264.928    47642.673    60750.006   -12012.731    8250.8944   -19710.112    84.116092 
   73700    1535.6061   -108.30261    1.3894487   -106.91317    10236.388     4.394585     4.394585     4.394585    10236.388   -10372.255   -81.469948     41162.89    9640.3973   -6886.5635   -47466.669    84.869882 
   73800    2232.4511   -108.93627    2.0199687    -106.9163     -1711.79    4.4258052    4.4258052    4.4258052     -1711.79   -19650.342   -18476.084    32991.055    15401.612    8455.1781    13656.525    86.691574 
   73900    1451.8996   -108.23031    1.3137092    -106.9166   -16410.382    4.4287719    4.4287719    4.4287719   -16410.382    52914.509   -97523.838   -4621.8157   -325.12683    2849.6061   -48217.436    86.866025 
   74000    2811.7291   -109.43441    2.5441116    -106.8903   -35376.805    4.4188157    4.4188157    4.4188157   -35376.805   -34138.809   -62519.046   -9472.5598    28166.965    4453.4844    13792.343    86.281494 
   74100    1394.5337   -108.16237    1.2618034   -106.90056     3291.546     4.400381     4.400381     4.400381     3291.546    66056.516   -89028.553    32846.675   -6107.3057   -24383.481   -52214.795     85.20613 
   74200    1730.8687   -108.48236    1.5661264   -106.91624    26817.274    4.4003379    4.4003379    4.4003379    26817.274    75083.202   -34624.555    39993.175   -21827.484   -14884.298    -10571.98    85.203624 
   74300    2459.8428   -109.13782    2.2257175    -106.9121    33682.708    4.4131357    4.4131357    4.4131357    33682.708    18535.795    26916.149     55596.18    6571.5803   -12642.408   -3626.8888    85.949204 
   74400    1588.9243   -108.35719    1.4376921   -106.91949   -5539.3706    4.4258039    4.4258039    4.4258039   -5539.3706    11855.689   -51797.372    23323.571   -9522.2557    20081.317   -30783.197    86.691496 
   74500    2163.2527   -108.84906    1.9573565   -106.89171   -9748.4841    4.4197719    4.4197719    4.4197719   -9748.4841    -3516.563   -19188.305   -6540.5842    -4565.784   -14137.936    34777.499    86.337521 
   74600    2047.6263   -108.73511    1.8527354   -106.88237    36203.988    4.3980913    4.3980913    4.3980913    36203.988    54938.941     14808.71    38864.313   -1170.9689   -4319.2156   -46178.606    85.073192 
   74700    1866.3701    -108.5877    1.6887309   -106.89897    39392.434    4.3973236    4.3973236    4.3973236    39392.434    48714.344   -10986.552     80449.51   -18396.637    12798.865    30705.406    85.028647 
   74800    1942.7829   -108.69607    1.7578708    -106.9382   -23885.725    4.4174104    4.4174104    4.4174104   -23885.725   -40408.629   -2787.6606   -28460.884     25101.43   -44104.996    10137.503    86.199204 
   74900    2578.1333    -109.2523    2.3327492   -106.91955   -9607.9873    4.4204766    4.4204766    4.4204766   -9607.9873    8346.5253   -36928.821   -241.66657    11019.551    1801.5062   -11694.669    86.378826 
   75000    1418.3442    -108.1984    1.2833476   -106.91505    13667.863    4.4102521    4.4102521    4.4102521    13667.863   -2705.6548   -16734.261    60443.503   -8676.6858   -7736.1676    19875.861    85.780832 
   75100    1527.0983   -108.29989    1.3817506   -106.91814    4084.2213    4.4141408    4.4141408    4.4141408    4084.2213   -32736.503    59263.856   -14274.689    8360.7094    -43693.28   -12887.339    86.007942 
   75200    2127.9752    -108.8259    1.9254367   -106.90046    14161.757    4.4188999    4.4188999    4.4188999    14161.757    12287.381   -25237.841    55435.732   -9741.5247    23807.698    24004.159    86.286426 
   75300    1644.3658   -108.39702    1.4878568   -106.90917   -3244.5803    4.4192687    4.4192687    4.4192687   -3244.5803   -15660.423   -6397.5509    12324.233   -12659.804   -48511.905     26249.85    86.308034 
   75400    2622.3481   -109.27789    2.3727556   -106.90513    3548.7018    4.4228874    4.4228874    4.4228874    3548.7018    44966.711    -15469.42   -18851.186   -8500.6941    6199.8899   -16387.201    86.520225 
   75500    1680.6997   -108.42951    1.5207325   -106.90878    15059.688    4.4205892    4.4205892    4.4205892    15059.688    29101.027    8536.2568    7541.7815   -1005.5582   -9707.5513    35554.397    86.385423 
   75600    1716.9022   -108.45578    1.5534892   -106.90229    3243.9116     4.419205     4.419205     4.419205    3243.9116    42499.729   -30550.884     -2217.11   -21803.827   -29744.625   -16478.715    86.304303 
   75700    1820.3742   -108.54897    1.6471128   -106.90186   -46647.067    4.4237419    4.4237419    4.4237419   -46647.067   -4805.4122   -57395.745   -77740.046   -6054.4779      20000.2    4119.2903    86.570385 
   75800    1718.7516   -108.46178    1.5551626   -106.90662   -4007.2761     4.403101     4.403101     4.403101   -4007.2761   -5236.9702    29953.037   -36737.895   -2197.1754   -13386.628    12842.097    85.364236 
   75900    2547.8893   -109.21678    2.3053838    -106.9114     3249.863    4.3953404    4.3953404    4.3953404     3249.863   -3308.8714    -7960.776    21019.236   -25095.922    14201.233   -35863.254    84.913655 
   76000    1796.2503   -108.56519     1.625285    -106.9399   -13900.886     4.417522     4.417522     4.417522   -13900.886    9805.9929    1937.5495   -53446.202   -21159.937   -6032.3953    15111.435    86.205736 
   76100    2430.8624   -109.11227    2.1994954   -106.91278   -20552.857    4.4298091    4.4298091    4.4298091   -20552.857   -29627.607    -12544.75   -19486.213    19524.759   -14871.636   -16658.782    86.927066 
   76200    1097.4509   -107.91323   0.99299666   -106.92023    9029.1802    4.4276095    4.4276095    4.4276095    9029.1802   -37744.911    27730.055    37102.397   -18600.092   -4977.1407   -28574.775     86.79764 
   76300    2594.0236   -109.22296    2.3471271   -106.87583   -7020.1494    4.4244715    4.4244715    4.4244715   -7020.1494   -37189.115    46056.391   -29927.724   -1863.0541     17160.73      12741.6    86.613223 
   76400     1662.128   -108.39045    1.5039283   -106.88652   -48927.027     4.427158     4.427158     4.427158   -48927.027    -39776.16   -82574.084   -24430.836    4317.9244    2208.6839   -18323.526    86.771092 
   76500    1957.7432   -108.65457    1.7714072   -106.88316    11134.383    4.4160412    4.4160412    4.4160412    11134.383    90295.011   -53045.226   -3846.6345   -3870.7931   -1048.7376     10094.21    86.119072 
   76600    2523.7857   -109.18354    2.2835744   -106.89997   -12012.177    4.4235878    4.4235878    4.4235878   -12012.177   -13142.968   -65851.608    42958.044   -12376.547   -11446.551    22555.917    86.561337 
   76700    1605.6092    -108.3598    1.4527889   -106.90701   -11005.168    4.4245518    4.4245518    4.4245518   -11005.168   -55510.265   -43995.443    66490.203   -4354.5549   -8635.7391    -36643.64    86.617941 
   76800    1412.6864   -108.17987    1.2782283   -106.90165     17733.24    4.4105852    4.4105852    4.4105852     17733.24    74296.384   -20097.988   -998.67589   -1458.0722    11338.955    31640.109    85.800266 
   76900    2130.2467   -108.83631     1.927492   -106.90882   -212.14847    4.4091647    4.4091647    4.4091647   -212.14847    2130.1161   -35309.277    32542.716   -8160.1847    -14784.86    5601.2721    85.717393 
   77000    1774.8948   -108.51889    1.6059621   -106.91293   -647.61659    4.4137622    4.4137622    4.4137622   -647.61659    18975.207   -20827.511    -90.54627   -11466.975    -18004.34    21306.299    85.985809 
   77100    1554.0727   -108.33874    1.4061576   -106.93259   -27191.033    4.4218486    4.4218486    4.4218486   -27191.033    39321.908   -48802.192   -72092.814     12627.41     11351.29    45720.723    86.459279 
   77200    2759.0179   -109.39556    2.4964174   -106.89914   -16488.233    4.4224589    4.4224589    4.4224589   -16488.233    -36474.03   -12446.063   -544.60518    11097.191    125.08379   -13074.191    86.495081 
   77300     1135.963   -107.94236    1.0278432   -106.91451    4858.6114    4.4212843    4.4212843    4.4212843    4858.6114     29284.27    30211.716   -44920.152    11100.409   -5527.7645    72284.962    86.426182 
   77400    2512.7164     -109.174    2.2735586   -106.90044   -22344.865    4.4092879    4.4092879    4.4092879   -22344.865     -11153.9   -5791.0814   -50089.613    2831.9107   -13111.073   -40692.163    85.724582 
   77500    1725.1799   -108.48326    1.5609791   -106.92229    14678.627    4.3986548    4.3986548    4.3986548    14678.627    44422.888     27036.62   -27423.627   -840.85579    1305.2936      47692.6    85.105897 
   77600    1661.7053   -108.44199    1.5035459   -106.93844   -10526.008    4.4149999    4.4149999    4.4149999   -10526.008   -5114.6498   -18546.801   -7916.5734    15434.735    12777.567    16803.439    86.058167 
   77700    1583.1546   -108.35651    1.4324715   -106.92404   -21801.204     4.435866     4.435866     4.435866   -21801.204   -41558.067   -13388.122   -10457.424   -4994.8321    -3545.553   -9699.8194    87.284122 
   77800    2445.2002   -109.09383    2.2124685   -106.88136   -2843.2123    4.4353831    4.4353831    4.4353831   -2843.2123   -3596.6055    20434.214   -25367.246   -4431.5706     453.6522    46970.835    87.255622 
   77900    1241.4713    -108.0062    1.1233093   -106.88289    22456.101    4.4241751    4.4241751    4.4241751    22456.101   -8328.5787    52225.137    23471.744    4436.7096    12402.934   -47018.093    86.595821 
   78000     2475.729   -109.11517    2.2400916   -106.87508   -14437.127    4.4202785    4.4202785    4.4202785   -14437.127   -49665.639     22947.37   -16593.113    -4603.227   -18761.136    1817.6347     86.36721 
   78100    1657.8141   -108.39179    1.5000251   -106.89176    10915.297    4.4168646    4.4168646    4.4168646    10915.297   -34562.077    24982.996    42324.971    -2766.024    34665.695    7163.8028    86.167252 
   78200    1595.6351    -108.3628    1.4437642   -106.91904   -27898.337    4.4287436    4.4287436    4.4287436   -27898.337   -13002.957   -3057.5698   -67634.485    14618.355   -9463.2725   -28630.792     86.86436 
   78300    2677.5005   -109.31692    2.4226587   -106.89426   -20230.159    4.4346419    4.4346419    4.4346419   -20230.159   -55211.294   -10340.838    4861.6547   -2528.2893    4001.7763    14181.426    87.211885 
   78400    1313.8038   -108.08152    1.1887573   -106.89276    13033.019     4.423368     4.423368     4.423368    13033.019   -7096.3138   -4901.2857    51096.656    101.23286    12343.638    -17712.05    86.548437 
   78500    2358.4815   -109.00614    2.1340036   -106.87214    7663.2644    4.4194124    4.4194124    4.4194124    7663.2644    43110.837   -543.82466   -19577.219   -8082.9638   -4618.8488   -4934.4873    86.316456 
   78600    1585.8038   -108.33331    1.4348686   -106.89844   -16628.573    4.4254133    4.4254133    4.4254133   -16628.573    6617.3631   -34258.039   -22245.043   -26969.359    3140.8178   -6193.6655    86.668545 
   78700    2175.9137   -108.86209    1.9688124   -106.89327   -5018.9528    4.4154956    4.4154956    4.4154956   -5018.9528   -47536.021     16268.54    16210.623    -1003.691    4184.7176   -22167.291     86.08716 
   78800    1979.8549   -108.68554    1.7914143   -106.89412    26369.283    4.3962951    4.3962951    4.3962951    26369.283    62174.017   -5312.0475     22245.88   -17852.154    1180.0011    32772.391    84.968999 
   78900    2123.6963   -108.83599    1.9215651   -106.91443    28966.463    4.4102446    4.4102446    4.4102446    28966.463    29631.639    48759.955    8507.7962    1864.1623    12610.085   -16747.133    85.780395 
   79000      1485.88   -108.26493    1.3444555   -106.92047    8808.2293     4.429748     4.429748     4.429748    8808.2293    56909.677    -15455.51   -15029.479   -11246.441    3186.0759    36823.265    86.923474 
   79100    1557.3772   -108.28167    1.4091476   -106.87252    7118.5225    4.4382706    4.4382706    4.4382706    7118.5225    48981.617   -20622.484   -7003.5653   -14269.193    230.49256    22109.054    87.426147 
   79200    2334.6356    -108.9581    2.1124273   -106.84568   -28154.133    4.4379358    4.4379358    4.4379358   -28154.133   -43039.949   -12675.248   -28747.202    22051.382    5902.1947   -2098.8107    87.406364 
   79300    2240.4148   -108.87795    2.0271744   -106.85077   -24939.873    4.4178812    4.4178812    4.4178812   -24939.873    8670.4095    -45556.75   -37933.279   -9011.1229     -21774.2    34496.242    86.226765 
   79400    2368.5191   -109.00636    2.1430858   -106.86328     31581.44    4.4014589    4.4014589    4.4014589     31581.44    36742.592     31116.63    26885.098     11778.32   -16410.446   -14795.495    85.268763 
   79500    1320.6688   -108.11628    1.1949688   -106.92131   -23104.663    4.4269852    4.4269852    4.4269852   -23104.663    32890.407   -7847.1725   -94357.224    -16617.08    6596.5126    48687.479    86.760933 
   79600    2266.7598   -108.92904    2.0510119   -106.87803   -20061.252    4.4367509    4.4367509    4.4367509   -20061.252    6030.4379   -17396.088   -48818.107   -28903.776   -13847.266    8197.2522    87.336369 
   79700    1094.8686    -107.8661    0.9906601   -106.87544    10392.824    4.4324588    4.4324588    4.4324588    10392.824    43085.549    29801.316   -41708.395   -15381.119        20097    11952.528    87.083148 
   79800    2061.6178   -108.72423    1.8653951   -106.85884    3185.3947    4.4307253    4.4307253    4.4307253    3185.3947     13316.39     43776.59   -47536.796    1306.3095   -22627.416    15072.941    86.981017 
   79900    2040.8051   -108.71758    1.8465633   -106.87101   -16097.741    4.4235058    4.4235058    4.4235058   -16097.741    12310.139    22577.197    -83180.56   -4857.8888    13252.777   -23419.544    86.556524 
   80000    1508.0645   -108.26246    1.3645285   -106.89794    2207.2363    4.4115523    4.4115523    4.4115523    2207.2363      21490.3    24735.829    -39604.42    1509.9742    8490.3975    32169.612    85.856719 
   80100    2068.2244    -108.7841    1.8713729   -106.91273    10487.533    4.4060962    4.4060962    4.4060962    10487.533    58612.652   -37237.279    10087.226    4307.9675   -11046.273   -17920.094    85.538559 
   80200    2469.1244   -109.15881    2.2341156   -106.92469   -24595.261     4.423978     4.423978     4.423978   -24595.261    2453.9506   -15314.257   -60925.476    1066.3054    20615.858    28502.327    86.584245 
   80300    1914.6529   -108.63572    1.7324181    -106.9033   -27923.912    4.4400185    4.4400185    4.4400185   -27923.912    7877.4664   -65261.665   -26387.538     12766.13    -1728.235    27706.799    87.529479 
   80400     2127.349   -108.79086    1.9248701   -106.86599   -40.570178    4.4523596    4.4523596    4.4523596   -40.570178    62477.606   -53536.138   -9063.1781    683.77275   -10864.997   -22936.758    88.261378 
   80500    1405.5927   -108.12191    1.2718098    -106.8501   -10014.383     4.450574     4.450574     4.450574   -10014.383    93426.706   -70599.502   -52870.354    -23344.82   -21333.033    44769.836    88.155228 
   80600    2364.0009     -108.966    2.1389977     -106.827    28714.179    4.4042232    4.4042232    4.4042232    28714.179    56701.305   -18734.591    48175.822   -13090.329    375.25655   -26761.672    85.429517 
   80700    1796.9003   -108.49505    1.6258732   -106.86918    28306.479    4.3897386    4.3897386    4.3897386    28306.479    41986.807    7921.1664    35011.462    6415.0558   -930.57952     43817.55    84.589408 
   80800    2320.2805   -109.01605    2.0994386   -106.91661   -29131.596    4.4252912    4.4252912    4.4252912   -29131.596     1404.961   -42080.144   -46719.604    21174.415    9285.0862     20687.51    86.661371 
   80900      1720.55   -108.45098    1.5567898   -106.89419   -22397.257    4.4560061    4.4560061    4.4560061   -22397.257    14830.757    -67858.64   -14163.887    7320.1415   -8370.3997    3010.2029    88.478413 
   81000    1717.3403   -108.39314    1.5538856   -106.83926   -7119.2713    4.4660302    4.4660302    4.4660302   -7119.2713    14883.416   -83728.546    47487.316    20234.309   -16841.691    34565.154    89.076875 
   81100    2232.8901   -108.81319    2.0203659   -106.79283   -29849.202     4.449387     4.449387     4.449387   -29849.202    6000.4709   -63773.026   -31775.051    -5335.026   -5515.4242   -13645.537    88.084714 
   81200    1840.4658   -108.47731    1.6652921   -106.81201   -5308.4275    4.4127331    4.4127331    4.4127331   -5308.4275    60609.222   -39770.255    -36764.25   -7266.1713    8236.4354    60985.097    85.925681 
   81300     2376.181   -108.99478    2.1500185   -106.84476    29304.086    4.3838678    4.3838678    4.3838678    29304.086    11449.948    39337.731    37124.581    1371.7816    1978.4394   -20119.818     84.25047 
   81400    1444.9092   -108.26863    1.3073842   -106.96124   -19060.283    4.4111454    4.4111454    4.4111454   -19060.283      35778.2   -18901.985   -74057.064    4794.9519   -3837.3372    44798.469    85.832968 
   81500    2133.8063   -108.87595    1.9307128   -106.94524   -44722.206     4.451601     4.451601     4.451601   -44722.206   -65233.528   -27353.867   -41579.223   -14094.271   -15381.172   -7878.4667    88.216268 
   81600    2341.4085   -109.01371    2.1185556   -106.89515   -51313.067    4.4500864    4.4500864    4.4500864   -51313.067   -72481.936   -62620.402   -18836.862    3144.7652   -15858.423    12971.744    88.126256 
   81700    1254.4228   -108.01101    1.1350281   -106.87599    25987.914    4.4180759    4.4180759    4.4180759    25987.914    35450.956   -33526.499    76039.285    10146.633   -4901.2421    95.729548    86.238169 
   81800    2535.9777   -109.17789    2.2946059   -106.88328    22781.148    4.4068617    4.4068617    4.4068617    22781.148   -7977.7892    31801.326    44519.907    7558.4125   -14963.109   -3409.0781    85.583148 
   81900    1722.7421   -108.46964    1.5587733   -106.91087    35807.778    4.4043958    4.4043958    4.4043958    35807.778    5680.9831   -25663.984    127406.34    134.29234    1556.3615    49699.387    85.439562 
   82000    1801.0743   -108.58512    1.6296499   -106.95547   -18507.981    4.4243156    4.4243156    4.4243156   -18507.981    10715.349   -12762.133   -53477.158   -5874.4887   -19795.311   -1144.7029    86.604071 
   82100    2714.8692   -109.37897    2.4564707   -106.92249   -22826.152    4.4493155    4.4493155    4.4493155   -22826.152   -30367.902   -37213.358   -897.19582   -3353.8135   -3925.2774    11115.455    88.080468 
   82200    1584.8808   -108.32901    1.4340335   -106.89497   -34969.911    4.4501196    4.4501196    4.4501196   -34969.911    22167.254   -76685.445   -50391.543    7012.9825   -5972.0066   -12322.205    88.128231 
   82300    2341.3028   -108.99139      2.11846   -106.87293    19692.351    4.4104382    4.4104382    4.4104382    19692.351    20502.591    -39655.82    78230.281     6087.728    3141.1253   -12032.818    85.791693 
   82400    1373.1172   -108.11218    1.2424253   -106.86975    74538.528    4.3691761    4.3691761    4.3691761    74538.528    96343.091    15394.692     111877.8   -10618.765    41474.768    10301.772    83.406261 
   82500    1785.6913   -108.55744     1.615731   -106.94171    10579.767    4.3941906    4.3941906    4.3941906    10579.767    77047.877   -53647.223    8338.6457    6891.3095   -16456.231   -28361.119    84.847037 
   82600     2128.707   -108.85668    1.9260988   -106.93058   -11864.417     4.432073     4.432073     4.432073   -11864.417   -5695.7177   -30893.388    995.85514    4074.9695    13750.972    2936.4065    87.060414 
   82700    1431.3573   -108.20263    1.2951222   -106.90751   -15092.381    4.4484951    4.4484951    4.4484951   -15092.381    93732.592   -57689.334   -81320.402   -11271.827    4934.0657   -20662.819    88.031754 
   82800    2260.3862   -108.91508    2.0452449   -106.86984    -13417.12    4.4251897    4.4251897    4.4251897    -13417.12   -9880.0255   -9505.0799   -20866.255    16546.851    27786.842   -4439.1665    86.655411 
   82900    1608.7046   -108.30226    1.4555897   -106.84667    26429.661    4.3722108    4.3722108    4.3722108    26429.661    18017.595     80422.55   -19151.162    5686.9579    43121.432    15352.671    83.580173 
   83000    2278.9686   -108.95416    2.0620586    -106.8921    31100.982    4.3850531    4.3850531    4.3850531    31100.982    60454.961    1119.8193    31728.166   -18528.201   -37920.827   -5443.1589    84.318831 
   83100    1600.0904   -108.37474    1.4477954   -106.92694   -21739.098    4.4276408    4.4276408    4.4276408   -21739.098    -57481.28    1350.8225   -9086.8355   -11342.423     83873.49    10548.134    86.799484 
   83200    2311.4358    -108.9867    2.0914357   -106.89527   -1547.2277    4.4467715    4.4467715    4.4467715   -1547.2277   -1806.7858   -34155.689    31320.792    11692.663   -26128.524    23811.287    87.929468 
   83300    887.59323   -107.68634   0.80311301   -106.88323   -3731.4965     4.437808     4.437808     4.437808   -3731.4965   -66792.405    26373.686     29224.23   -11342.561    52985.926    11588.637     87.39881 
   83400    2869.5338   -109.43495    2.5964145   -106.83854   -14352.077     4.415296     4.415296     4.415296   -14352.077   -59137.856     5929.073    10152.553    4443.6731    6882.1929   -2362.1096    86.075486 
   83500    1737.4098   -108.44256    1.5720449   -106.87051   -16120.126    4.4140444    4.4140444    4.4140444   -16120.126    -13394.05   -8778.5983   -26187.731   -20720.141     47662.73    26711.128    86.002305 
   83600    2099.0728   -108.79045    1.8992852   -106.89117     12266.87    4.4330343    4.4330343    4.4330343     12266.87   -24970.331    56161.499    5609.4419   -1414.3236     -15884.8   -4634.8784    87.117076 
   83700    1535.9877   -108.26344     1.389794   -106.87365   -20741.292    4.4485581    4.4485581    4.4485581   -20741.292   -83524.019    52861.469   -31561.325    235.49646    53592.333    6339.2893    88.035492 
   83800    1703.2403   -108.38653    1.5411277   -106.84541    23112.695    4.4411216    4.4411216    4.4411216    23112.695   -47568.882    106343.52    10563.449    12860.505   -7564.6133   -23600.163    87.594735 
   83900    1336.4153   -108.06784    1.2092166   -106.85863    54440.089    4.4372799    4.4372799    4.4372799    54440.089    19596.564    161931.08   -18207.381    20817.144    54260.886   -24509.896    87.367614 
   84000    2521.0498   -109.13929    2.2810989   -106.85819   -5299.9566    4.4514219    4.4514219    4.4514219   -5299.9566    3687.9776    48836.456   -68424.303     3927.559   -9587.9684    698.57676    88.205625 
   84100    1108.0293   -107.87671    1.0025682   -106.87414   -7881.4378    4.4426318    4.4426318    4.4426318   -7881.4378    54342.211    6208.9517   -84195.475    6377.4912     47763.43    7971.5848     87.68412 
   84200    2547.8336   -109.16735    2.3053334   -106.86202     -21676.4    4.4150221    4.4150221    4.4150221     -21676.4    -16044.64    1893.2475   -50877.808   -16636.979    7118.0041    14189.171    86.059464 
   84300    2042.2572   -108.72438    1.8478772    -106.8765    25143.422    4.4003517    4.4003517    4.4003517    25143.422    46292.598    17442.009    11695.659   -15899.098    27028.259   -283.61522     85.20443 
   84400    1952.9201    -108.6933    1.7670431   -106.92626   -7570.3186     4.424293     4.424293     4.424293   -7570.3186   -26876.145    12301.059   -8135.8692    9388.5439    31549.123    6046.3464    86.602743 
   84500    1834.9059   -108.56433    1.6602615   -106.90407    7381.5574     4.455793     4.455793     4.455793    7381.5574   -24750.354   -19216.545    66111.572   -23986.202    8220.9468   -21510.072    88.465723 
   84600    1090.2257   -107.85034   0.98645916   -106.86388    6361.3009    4.4653721    4.4653721    4.4653721    6361.3009    23812.104    20589.423   -25317.625    12678.381    53086.487    10233.226    89.037502 
   84700    2728.8667   -109.26836     2.469136   -106.79922   -15561.079    4.4473566    4.4473566    4.4473566   -15561.079    4509.0629   -60395.954    9203.6531    -13091.52   -11294.835    28578.245    87.964179 
   84800    1700.2242   -108.36401    1.5383986   -106.82561   -12509.479    4.4122376    4.4122376    4.4122376   -12509.479   -51088.069    36582.585   -23022.952    14259.865    32029.463    504.46085    85.896739 
   84900    1919.4918   -108.60838    1.7367965   -106.87158     32818.78    4.3987295    4.3987295    4.3987295     32818.78    48355.578    12719.484    37381.278    7503.9017   -22473.933    10585.167     85.11023 
   85000     2097.114   -108.82715    1.8975128   -106.92963   -10703.106     4.421441     4.421441     4.421441   -10703.106   -22585.021    2062.5441   -11586.841   -13419.491    12868.353   -3629.5191    86.435372 
   85100    2073.2962   -108.80419     1.875962   -106.92823     58.33786    4.4272288    4.4272288    4.4272288     58.33786   -26800.451    38981.093   -12005.628    9551.8177     13434.56    12184.039    86.775253 
   85200    1787.2778   -108.53801    1.6171666   -106.92084    12548.428    4.4336977    4.4336977    4.4336977    12548.428    21402.556   -33900.219    50142.947    4997.1705   -17928.752    16217.646    87.156187 
   85300    2102.5009   -108.80567     1.902387   -106.90328   -37320.545    4.4357391    4.4357391    4.4357391   -37320.545   -37453.424   -33274.786   -41233.425   -14135.727    39446.653   -16480.491    87.276634 
   85400    2455.3223   -109.10925    2.2216272   -106.88762    28265.231    4.3987076    4.3987076    4.3987076    28265.231    9429.2453    24804.886    50561.563   -1695.0828   -20068.768     15068.37    85.108959 
   85500    1815.2777   -108.56108    1.6425014   -106.91858    16274.873    4.3986416    4.3986416    4.3986416    16274.873   -8597.1252    39721.058    17700.686    13756.131    446.56358    3405.9384    85.105126 
   85600    1510.7654   -108.30743    1.3669723   -106.94046   -8123.8401     4.426169     4.426169     4.426169   -8123.8401   -11297.984    -10335.67   -2737.8653   -5395.7734    15567.668   -16131.095    86.712952 
   85700    2316.6055   -109.01203    2.0961133   -106.91591    -13771.61    4.4350532    4.4350532    4.4350532    -13771.61   -15306.668    6267.4838   -32275.647    1051.4928    -9409.587    32174.972    87.236155 
   85800     1871.482   -108.61622    1.6933562   -106.92287   -11251.891    4.4303239    4.4303239    4.4303239   -11251.891   -45773.367   -18475.765    30493.459    18345.889    2504.4663   -33011.962     86.95738 
   85900    1843.7135   -108.59812    1.6682307   -106.92988    1450.8406    4.3958384    4.3958384    4.3958384    1450.8406    22579.674    19539.476   -37766.629   -6558.5589   -7125.5275    33686.171     84.94252 
   86000    1581.7554   -108.36643    1.4312055   -106.93523    91046.666      4.38448      4.38448      4.38448    91046.666     82198.19    86440.101    104501.71   -302.33583   -3853.1745    18362.695    84.285775 
   86100    1992.1495   -108.75811    1.8025387   -106.95557   -32948.531    4.4280315    4.4280315    4.4280315   -32948.531   -26169.481   -37965.457   -34710.655    12599.041   -11983.896    -37984.49    86.822462 
   86200    1459.4533   -108.23708     1.320544   -106.91654    3407.9265    4.4252887    4.4252887    4.4252887    3407.9265   -39964.469   -8158.2313     58346.48   -13636.039    2398.7279    66528.358    86.661226 
   86300    2106.7283   -108.79712    1.9062121    -106.8909    13247.611    4.4045468    4.4045468    4.4045468    13247.611    16531.091    12421.237    10790.505    4716.2901    -10865.45   -42632.203     85.44835 
   86400     1385.571   -108.18196    1.2536938   -106.92826   -12373.922    4.4090897    4.4090897    4.4090897   -12373.922   -35632.935    642.45923   -2131.2901    6928.4719   -17568.359   -18016.655    85.713024 
   86500    2579.1934   -109.26578    2.3337084   -106.93207    21062.588    4.4050299    4.4050299    4.4050299    21062.588   -14578.328    29161.332     48604.76   -2473.7446    5854.9051    38532.265    85.476468 
   86600    955.20478   -107.84735   0.86428936   -106.98306    -2248.394       4.4002       4.4002       4.4002    -2248.394    11947.159    15126.297   -33818.638   -2929.7595   -12554.669   -60685.637    85.195616 
   86700    2005.6112   -108.78585    1.8147192   -106.97113    22458.634    4.4094572    4.4094572    4.4094572    22458.634   -6050.9534    10377.219    63049.637    5680.0435   -15088.243    13234.159    85.734454 
   86800    1902.4534   -108.66073    1.7213798   -106.93935   -16266.418    4.4251555    4.4251555    4.4251555   -16266.418   -22401.695   -2574.5384   -23823.022   -24403.231    2796.6168    441.66167    86.653403 
   86900    1634.9786   -108.39146     1.479363    -106.9121   -24939.434    4.4215052    4.4215052    4.4215052   -24939.434   -37640.896   -28654.333   -8523.0733    15825.607   -40599.505   -32293.309    86.439136 
   87000    2029.5446   -108.73716    1.8363746   -106.90079   -13742.057    4.4117026    4.4117026    4.4117026   -13742.057   -26311.747   -30538.901    15624.476   -41079.071    13546.445    35419.911    85.865495 
   87100    1587.8597   -108.35184    1.4367288   -106.91511    25992.305     4.391105     4.391105     4.391105    25992.305   -5309.6904    17575.244     65711.36   -15425.407    -15470.23   -20738.005    84.668422 
   87200    2282.1564   -109.01846    2.0649431   -106.95351   -10777.029    4.4035523    4.4035523    4.4035523   -10777.029   -30250.192    10204.503   -12285.396    7505.9518   -11478.358   -13374.551    85.390483 
   87300    2027.7665   -108.75969    1.8347657   -106.92493   -40272.476    4.4405911    4.4405911    4.4405911   -40272.476   -47101.665   -63281.803   -10433.962   -44773.184    5568.1236    9196.6342     87.56335 
   87400    1555.8748   -108.30386    1.4077882   -106.89607    16954.132    4.4208099    4.4208099    4.4208099    16954.132   -1433.9064    80110.363   -27814.059   -2341.9645   -19411.628   -20000.506    86.398365 
   87500    2124.6324   -108.79137    1.9224121   -106.86896      20054.8    4.4053698    4.4053698    4.4053698      20054.8    -5951.709    31916.672    34199.437   -33689.826    22682.347   -3856.4505     85.49626 
   87600    2492.6283   -109.14187    2.2553825   -106.88649   -13639.049     4.422713     4.422713     4.422713   -13639.049   -3633.1038    -18949.69   -18334.353   -7519.9976    12977.985   -9214.0233     86.50999 
   87700    1522.6658    -108.2825      1.37774   -106.90476    16947.209    4.4292644    4.4292644    4.4292644    16947.209   -29832.386    29914.327    50759.686   -25173.573   -8485.7027   -13226.547    86.895006 
   87800     2193.652   -108.87239    1.9848625   -106.88752    -3457.369    4.4390763    4.4390763    4.4390763    -3457.369   -1303.6649   -1912.4207   -7156.0214   -17527.362    31860.002    1292.6633    87.473769 
   87900    2144.2215   -108.82684    1.9401367   -106.88671   -29047.872    4.4165289    4.4165289    4.4165289   -29047.872   -47353.222   -20412.555   -19377.839   -8618.0454   -13465.167    792.12471    86.147608 
   88000    1285.3997   -108.05925    1.1630567    -106.8962    41834.979    4.3812052    4.3812052    4.3812052    41834.979   -776.60374    27757.042      98524.5    -64317.92   -13613.782   -4262.2026    84.097056 
   88100    2952.6022   -109.59377    2.6715766   -106.92219    36247.934    4.3930322    4.3930322    4.3930322    36247.934    -9987.592    10881.615    107849.78    17470.557    20371.435   -8623.1269    84.779952 
   88200    750.37208   -107.66779   0.67895243   -106.98884    19903.673    4.4317812    4.4317812    4.4317812    19903.673    8991.9804    5976.9632    44742.074   -68334.836    -11830.21   -6908.9998    87.043219 
   88300    2543.4834   -109.17916    2.3013973   -106.87776   -36204.513    4.4594295    4.4594295    4.4594295   -36204.513   -38038.572   -21245.514   -49329.453    25585.867    31081.677     8275.538    88.682493 
   88400    1145.9964   -107.89155    1.0369216   -106.85463    6865.4026    4.4171114    4.4171114    4.4171114    6865.4026    22147.124    -34310.98    32760.064    -70571.48    6101.0482   -24599.069    86.181701 
   88500    2416.9671   -109.00304    2.1869227   -106.81611    59915.958    4.3903916    4.3903916    4.3903916    59915.958    88874.626    88325.261    2547.9862    10515.163   -16151.877     6386.968    84.627163 
   88600    2135.8273   -108.80776    1.9325415   -106.87522   -19193.973    4.4005904    4.4005904    4.4005904   -19193.973   -11141.817   -48606.434    2166.3306   -53944.473    8402.7997   -11264.487    85.218296 
   88700      1514.07    -108.3058    1.3699624   -106.93583    23074.552    4.4068337    4.4068337    4.4068337    23074.552    32130.823     54143.23   -17050.398   -28604.879   -14994.207   -9812.4634    85.581516 
   88800    2249.1735   -108.96487    2.0350994   -106.92977   -46741.712    4.4349171    4.4349171    4.4349171   -46741.712   -57629.629    -32750.14   -49845.367    8917.2272   -20807.408    3182.5322    87.228122 
   88900    1626.0779   -108.39082    1.4713094   -106.91951   -28778.711    4.4152355    4.4152355    4.4152355   -28778.711   -16680.113   -73751.129    4095.1098   -74142.851   -1451.0209    9896.2741    86.071945 
   89000    2166.3424   -108.84135    1.9601521    -106.8812    41988.878    4.3820464    4.3820464    4.3820464    41988.878     6939.643    62754.334    56272.656    21633.925   -10115.645   -4574.1399    84.145503 
   89100    1644.4119   -108.41543    1.4878985   -106.92753   -27643.672       4.3939       4.3939       4.3939   -27643.672   -46738.369   -65204.671    29012.025   -49577.733   -16778.665    15387.438    84.830204 
   89200     2055.975   -108.79115    1.8602894   -106.93086   -5393.9037     4.416899     4.416899     4.416899   -5393.9037   -43076.064    25532.657    1361.6955   -25395.778    1536.3779     7392.693    86.169266 
   89300    1936.3814   -108.66165    1.7520786   -106.90957    -42802.82    4.4361345    4.4361345    4.4361345    -42802.82   -53302.638   -31105.638   -44000.184    3678.7085   -875.23874   -3919.8953    87.299973 
   89400    2136.8638   -108.79004    1.9334792   -106.85656   -16489.586    4.4304531    4.4304531    4.4304531   -16489.586    877.65178   -57379.634    7033.2245   -59288.687    17184.299     1325.717    86.964983 
   89500    1787.9152    -108.4662    1.6177433   -106.84846   -27640.085    4.4197912    4.4197912    4.4197912   -27640.085   -33725.741    9712.8439   -58907.357    30012.815    15165.157   -13298.574    86.338648 
   89600    2101.8776   -108.76317     1.901823   -106.86135   -5071.2699    4.3953049    4.3953049    4.3953049   -5071.2699   -23323.828   -11506.944    19616.963   -12145.349     -6089.12   -2080.7804    84.911601 
   89700    1911.0348   -108.62951    1.7291445   -106.90037    1807.9594    4.3905509    4.3905509    4.3905509    1807.9594    -28251.74    21830.267    11845.351    -34029.33    34502.741   -6242.1981    84.636374 
   89800    1986.6454   -108.72648    1.7975585   -106.92893   -10350.014    4.4107363    4.4107363    4.4107363   -10350.014   -51970.261    7620.1766    13300.044    22516.884    14038.341   -16788.845    85.809089 
   89900    2252.5303   -108.95067    2.0381367   -106.91253    -19426.36    4.4211784    4.4211784    4.4211784    -19426.36   -50402.511   -49986.019    42109.451   -30773.496    523.07552    14214.577    86.419972 
   90000    1217.5332   -107.99966    1.1016496   -106.89801   -4041.1423    4.4240068    4.4240068    4.4240068   -4041.1423   -40003.004    5905.6766      21973.9   -1071.9692     47259.47   -4139.9472    86.585937 
   90100    2664.0277    -109.2763    2.4104683   -106.86584   -23470.867    4.4164265    4.4164265    4.4164265   -23470.867   -26349.296   -52372.082    8308.7765    30638.723   -24744.631     2211.477    86.141618 
   90200    1902.3276   -108.62231     1.721266   -106.90105    2556.9614    4.3845167    4.3845167    4.3845167    2556.9614    -28915.01    10686.996    25898.898   -22756.412    40613.691    3058.0334    84.287893 
   90300    1646.1239   -108.41642    1.4894475   -106.92697    55036.033    4.3721105    4.3721105    4.3721105    55036.033    81884.472    9311.4623    73912.164      27320.6    3540.4573   -11363.865    83.574423 
   90400    2220.7082   -108.96572    2.0093435   -106.95638   -18352.256    4.4105815    4.4105815    4.4105815   -18352.256   -1801.9407   -39306.234   -13948.594    23085.877    -6241.227    -3212.162    85.800053 
   90500    1986.7151   -108.71938    1.7976215   -106.92176   -28648.055     4.431806     4.431806     4.431806   -28648.055   -40722.756   -18359.149   -26862.259    2649.2912    40552.045   -3396.5857    87.044678 
   90600    1628.3693   -108.36498    1.4733828    -106.8916    -13262.27    4.4254717    4.4254717    4.4254717    -13262.27    20646.068   -64654.591    4221.7139    50259.167   -20890.455     3447.385    86.671975 
   90700    2131.1121    -108.8253     1.928275   -106.89702   -6700.4974    4.3982606    4.3982606    4.3982606   -6700.4974    8543.8348    -14564.92   -14080.407   -18777.391     7342.152    15929.456    85.083017 
   90800    1743.3049   -108.48937    1.5773789     -106.912      45950.6    4.3742091    4.3742091    4.3742091      45950.6    77493.553    19410.207     40948.04    26526.298     30507.54   -2170.4863    83.694826 
   90900    1727.1761   -108.51726    1.5627853   -106.95448   -4637.3519    4.4037204    4.4037204    4.4037204   -4637.3519    24255.983   -32309.868   -5858.1705    9918.7611   -36140.345   -19381.127    85.400263 
   91000    2040.8606   -108.76867    1.8466136   -106.92205    -23154.05    4.4264303    4.4264303    4.4264303    -23154.05   -35494.272   -30078.764   -3889.1147   -14778.736   -11655.774    7786.7659    86.728313 
   91100    1669.9576   -108.42617    1.5110127   -106.91516   -19426.498    4.4232465    4.4232465    4.4232465   -19426.498    49461.077   -51482.888   -56257.682    14787.402    24922.011   -45103.769    86.541304 
   91200    1986.8078   -108.71318    1.7977055   -106.91548   -5457.2417    4.3970742    4.3970742    4.3970742   -5457.2417    11989.384   -4236.1215   -24124.987    1493.7053   -26327.641   -3491.0341    85.014183 
   91300    1860.9507   -108.60099    1.6838273   -106.91716    37670.719     4.369902     4.369902     4.369902    37670.719    74583.365    4538.0262    33890.767   -26245.513   -16210.372    -1131.565    83.447838 
   91400    1765.6965   -108.56857    1.5976393   -106.97093    1679.7036    4.3871271    4.3871271    4.3871271    1679.7036    31003.686     36396.39   -62360.965   -986.61096      32945.8   -38120.144    84.438526 
   91500    2551.3025    -109.2543    2.3084721   -106.94583   -12228.585    4.4105945    4.4105945    4.4105945   -12228.585   -9994.2057    5988.2446   -32679.795    30111.034    9779.1755    13102.344    85.800809 
   91600    2002.6498   -108.75017    1.8120396   -106.93813   -9173.9512    4.4111216    4.4111216    4.4111216   -9173.9512    37619.294    -20783.92   -44357.228    -21357.71      -4762.2   -14296.989    85.831575 
   91700    1536.7347   -108.32708    1.3904699   -106.93661   -23401.322    4.4065591    4.4065591    4.4065591   -23401.322   -51034.436     64681.45   -83850.981    4277.0963    70039.023   -15178.738    85.565523 
   91800    2320.5728   -109.01496    2.0997031   -106.91526    7384.3253     4.392856     4.392856     4.392856    7384.3253   -14567.293    36254.537     465.7315    26407.934    9734.4571    11121.392    84.769752 
   91900    2009.0603    -108.7519      1.81784   -106.93406     13569.25    4.3962653    4.3962653    4.3962653     13569.25    66468.916    6245.2854   -32006.452    -27579.03    24379.061   -17667.447    84.967272 
   92000    1946.3393   -108.69142    1.7610887   -106.93033   -17581.331    4.4123639    4.4123639    4.4123639   -17581.331   -39538.319   -7768.3769   -5437.2989    42776.388    43566.175    332.22088    85.904114 
   92100    1968.9347   -108.68506    1.7815335   -106.90353   -6698.9056    4.4231249    4.4231249    4.4231249   -6698.9056    53191.606    -49874.29   -23414.032   -17439.894   -6684.4465   -27834.987    86.534163 
   92200    1718.6505   -108.44983    1.5550711   -106.89476   -62643.958    4.4289214    4.4289214    4.4289214   -62643.958   -80573.586   -80057.983   -27300.305   -7117.8117    20793.444   -27133.992    86.874818 
   92300    2169.1915   -108.86616    1.9627301   -106.90343    2945.5123    4.3839213    4.3839213    4.3839213    2945.5123   -41390.485   -19911.596    70138.618     61884.97    4984.9519    16817.812    84.253555 
   92400    2752.6327   -109.38857    2.4906399   -106.89793    41312.872     4.365265     4.365265     4.365265    41312.872    36673.763    47953.954    39310.899   -45119.637   -10311.552    -21262.49    83.182473 
   92500    1454.6303   -108.29168    1.3161801    -106.9755   -14171.433    4.4065548    4.4065548    4.4065548   -14171.433   -95484.593     8064.737    44905.557    35277.965    15053.022    11903.315    85.565271 
   92600    1919.6954   -108.66575    1.7369808   -106.92877   -44624.223    4.4439476    4.4439476    4.4439476   -44624.223   -45110.104   -25764.104   -62998.461    12750.478   -1385.4092   -7193.3063    87.762058 
   92700     1888.475   -108.61012    1.7087318   -106.90139    -51088.86    4.4216594    4.4216594    4.4216594    -51088.86   -85898.928   -23675.048   -43692.603    14295.867   -36143.346   -1153.4527     86.44818 
   92800     2138.216   -108.81345    1.9347028   -106.87875    18466.134    4.3681934    4.3681934    4.3681934    18466.134   -18579.203   -22411.843    96389.447    50960.043    17500.328    9132.4681    83.349993 
   92900    2024.9109   -108.73282    1.8321819   -106.90064    20138.264    4.3643887    4.3643887    4.3643887    20138.264    -3594.533    26470.381    37538.945   -18356.435   -35257.297   -10391.894    83.132392 
   93000    1111.9972   -107.96896    1.0061584    -106.9628   -26606.856    4.4049379    4.4049379    4.4049379   -26606.856   -68085.894   -66633.186    54898.511    57382.155   -28952.384    4202.7198    85.471115 
   93100    2562.8446   -109.23246    2.3189156   -106.91354   -38305.456    4.4310069    4.4310069    4.4310069   -38305.456   -52047.148   -35571.462   -27297.758   -20520.831    44749.284    3305.4809    86.997603 
   93200    1517.2199   -108.26929    1.3728124   -106.89648   -54410.537    4.4238513    4.4238513    4.4238513   -54410.537   -52375.842    -62083.75   -48772.019    44728.285   -35597.118    16524.984    86.576805 
   93300     1847.531   -108.56181    1.6716849   -106.89013   -4172.8964    4.3851998    4.3851998    4.3851998   -4172.8964    12605.356   -23425.314   -1698.7315    32560.697    19235.054   -12709.498    84.327293 
   93400    2482.3468   -109.13411    2.2460796   -106.88803    28263.552    4.3658988    4.3658988    4.3658988    28263.552    6862.5078    39441.608    38486.539     -9227.67    42194.214   -1128.0974    83.218715 
   93500    1237.8746   -108.07569    1.1200549   -106.95563   -4855.0282     4.397536     4.397536     4.397536   -4855.0282    7470.6352   -45393.966    23358.246    55864.254   -44332.143      22196.6     85.04097 
   93600    2628.0701   -109.27319     2.377933   -106.89525   -31817.275    4.4348455    4.4348455    4.4348455   -31817.275   -24863.793   -21796.323   -48791.708    -37269.48    30303.068   -13242.881    87.223894 
   93700    1024.3177   -107.81344   0.92682416   -106.88661   -32483.947    4.4283331    4.4283331    4.4283331   -32483.947   -56504.148   -48873.162     7925.469     67408.26   -23895.597   -1864.5944    86.840203 
   93800    2324.7621   -108.97357    2.1034936   -106.87007   -6542.3082    4.3858209    4.3858209    4.3858209   -6542.3082   -18399.028   -1317.5944    89.697419   -43511.745   -12185.071   -3667.9073     84.36313 
   93900    2143.3122    -108.8166    1.9393139   -106.87729    18124.436    4.3631618    4.3631618    4.3631618    18124.436   -13868.186    13765.176    54476.318    38559.812    11646.708   -12716.855      83.0623 
   94000    1168.9059    -108.0092    1.0576506   -106.95155    2142.3447    4.3829997    4.3829997    4.3829997    2142.3447   -26081.899    1304.9185    31204.015    38355.253   -21662.021    4316.1736    84.200435 
   94100    2446.8599   -109.13845    2.2139702   -106.92448   -10621.704    4.4137322    4.4137322    4.4137322   -10621.704   -16678.051    11949.758   -27136.817   -3271.6331    -7712.691    9180.4275    85.984058 
   94200    1583.5706   -108.35021    1.4328479   -106.91736   -17772.875     4.419141     4.419141     4.419141   -17772.875   -63885.928   -37479.273    48046.576    72437.411    2423.5247   -5353.2755    86.300555 
   94300    1990.3076   -108.69352    1.8008721   -106.89264    17328.914    4.3915039    4.3915039    4.3915039    17328.914   -3124.8948    23056.506    32055.129   -31810.329     -25941.7   -7297.5302    84.691498 
   94400    1648.4412   -108.39156    1.4915443   -106.90001    32129.089     4.372208     4.372208     4.372208    32129.089    2596.6035    34191.407    59599.256    70012.955    11363.546    9982.7936    83.580016 
   94500    2181.7171   -108.89672    1.9740635   -106.92266    2368.2337    4.3861667    4.3861667    4.3861667    2368.2337   -16432.196    16132.726     7404.171   -4365.6852    26670.465    -16953.64    84.383083 
   94600    1888.2829   -108.64603     1.708558   -106.93747    5932.6911    4.3979544    4.3979544    4.3979544    5932.6911    8496.4222   -28505.394    37807.045   -1603.8866   -35416.945   -11173.008    85.065246 
   94700    1446.0511   -108.25097    1.3084174   -106.94255   -732.95585    4.3996868    4.3996868    4.3996868   -732.95585    -11770.18    39346.842    -29775.53    23233.301     57973.33    439.91413     85.16581 
   94800    2562.5055    -109.2322    2.3186089   -106.91359   -12794.491    4.4007722    4.4007722    4.4007722   -12794.491   -5787.6557   -2241.6916   -30354.126   -20279.546    26482.155   -5976.3778    85.228854 
   94900    1825.2184   -108.56618     1.651496   -106.91468    2836.2048     4.393035     4.393035     4.393035    2836.2048   -9384.2246   -9257.6373    27150.476    26173.988    17392.161   -4458.3049    84.780111 
   95000    1256.7682   -108.06239    1.1371503   -106.92524    1432.6669    4.3926886    4.3926886    4.3926886    1432.6669   -36047.933    48408.536   -8062.6022    1783.6442    52757.259   -9653.5917    84.760058 
   95100    2578.9608   -109.23724    2.3334979   -106.90375   -3050.3882     4.400913     4.400913     4.400913   -3050.3882    -22855.53    135.59368    13568.772   -37981.783   -16921.042   -11.934282     85.23704 
   95200    1422.7501   -108.21339    1.2873342   -106.92605    -9618.206    4.3966572    4.3966572    4.3966572    -9618.206   -70670.005    34590.887    7224.4998    31651.337    74671.002    12156.806    84.989995 
   95300    2362.5563   -109.05638    2.1376906   -106.91869   -7766.5261    4.3948792    4.3948792    4.3948792   -7766.5261   -18018.373   -29951.008    24669.802    22206.025   -8931.3921    16582.841    84.886931 
   95400    1706.7079   -108.46823    1.5442651   -106.92396   -8431.1873    4.3947165    4.3947165    4.3947165   -8431.1873   -50453.165    39233.287   -14073.684   -23143.907    61913.562    6292.0402    84.877504 
   95500    1819.7089   -108.56392    1.6465108   -106.91741    9873.0932    4.3920591    4.3920591    4.3920591    9873.0932   -12332.781    4953.0613    36998.999    37123.229    36208.059    8752.2409    84.723627 
   95600    1853.8075   -108.59627     1.677364   -106.91891   -6269.0704    4.4097768    4.4097768    4.4097768   -6269.0704    6394.5037   -31309.228    6107.5126    22387.345    508.65335   -19632.288      85.7531 
   95700    2135.8479   -108.82351    1.9325601   -106.89095   -32894.129    4.4191298    4.4191298    4.4191298   -32894.129    -57934.02   -13613.368       -27135   -19914.106    39689.469    -5466.087    86.299895 
   95800    1892.1286   -108.59182    1.7120377   -106.87979   -13561.987    4.4046701    4.4046701    4.4046701   -13561.987   -43528.574   -36082.801    38925.412    42029.148   -21689.871    -805.4882    85.455528 
   95900    2347.5986    -108.9937    2.1241565   -106.86955      14312.9    4.3914805    4.3914805    4.3914805      14312.9    13867.368    45732.951   -16661.618    -14533.64   -17632.953    -5483.533    84.690146 
   96000    1408.4635   -108.18488    1.2744073   -106.91048    76.068088    4.4014557    4.4014557    4.4014557    76.068088   -8534.1743   -38640.301     47402.68    9435.6193    17152.748    3963.8363    85.268574 
   96100    2040.5125   -108.74587    1.8462986   -106.89957   -9661.3557    4.4064156    4.4064156    4.4064156   -9661.3557   -33017.602    41113.064    -37079.53   -2672.2447   -58093.749    5936.2214    85.557159 
   96200    2066.4164   -108.75976     1.869737   -106.89003    13079.645    4.3974162    4.3974162    4.3974162    13079.645    25113.745     37370.37   -23245.179    10106.572   -3082.1115   -3519.7513    85.034018 
   96300    2013.5845   -108.72412    1.8219336   -106.90218   -20810.966    4.4010548    4.4010548    4.4010548   -20810.966   -71435.936    4603.4374    4399.6005    30003.896    1830.5904   -186.06698    85.245276 
   96400    1932.7504   -108.65586    1.7487932   -106.90706   -12517.559    4.3972488    4.3972488    4.3972488   -12517.559   -36029.103    32841.368   -34364.941   -13757.153   -68259.863    4774.7326    85.024308 
   96500    2616.9545   -109.26257    2.3678754    -106.8947   -16713.558    4.4087618    4.4087618    4.4087618   -16713.558   -36717.424   -47583.222    34159.972    32657.557    22006.599    6752.4555      85.6939 
   96600    1281.6736   -108.05489    1.1596852   -106.89521   -40068.821    4.4279446    4.4279446    4.4279446   -40068.821   -88152.796    7293.4715    -39347.14    6690.7071   -66112.819    -2851.637    86.817353 
   96700    2775.0201    -109.3696    2.5108965    -106.8587   -22854.909    4.4154763    4.4154763    4.4154763   -22854.909   -25890.648   -43461.218    787.13784    160.37316    45836.939    5562.8706    86.086029 
   96800    1331.4099     -108.099    1.2046876   -106.89432   -20277.291    4.3837552    4.3837552    4.3837552   -20277.291   -75860.901    21836.262   -6807.2335    31413.578   -96551.745    4961.6504    84.243979 
   96900    2131.5966    -108.8417    1.9287134   -106.91299    12442.518    4.3693809    4.3693809    4.3693809    12442.518    -18143.63    48517.414    6953.7686    4839.6332   -5363.3731   -1078.8676    83.417991 
   97000    1882.8388   -108.65805    1.7036321   -106.95441   -13137.401    4.3955895    4.3955895    4.3955895   -13137.401     21138.57   -17033.881   -43516.893   -4130.8752    907.18517    10070.898    84.928096 
   97100    776.35873   -107.65405    0.7024657   -106.95159   -62672.005    4.4214634    4.4214634    4.4214634   -62672.005   -95485.529   -25473.153   -67057.331    16759.137   -79507.411    1253.0541    86.436684 
   97200    2837.8106   -109.45754    2.5677107   -106.88983   -1047.2033    4.4008915    4.4008915    4.4008915   -1047.2033    9196.5208   -32573.066    20234.935   -23089.247    23801.721   -840.95265    85.235791 
   97300    1454.1828    -108.2128    1.3157751   -106.89703   -7359.8597    4.3988568    4.3988568    4.3988568   -7359.8597   -16157.776    33104.444   -39026.247    12562.019   -69263.329     27981.48    85.117623 
   97400    2220.3379   -108.88218    2.0090084   -106.87317    1773.0557    4.4003079    4.4003079    4.4003079    1773.0557   -24054.795   -9399.8984     38773.86    7120.6788    28353.652   -3440.9022    85.201884 
   97500    1585.0383   -108.32253    1.4341759   -106.88836    5811.5922    4.4006818    4.4006818    4.4006818    5811.5922   -24495.343    14327.043    27603.076   -25472.306   -44803.831    6351.5495    85.223604 
   97600    2046.8827   -108.73398    1.8520625   -106.88192    -12109.65     4.409757     4.409757     4.409757    -12109.65     8681.882   -71058.066    26047.233    51008.993    -9908.867    17176.827    85.751947 
   97700    1782.5841   -108.51271    1.6129195   -106.89979    14595.879    4.3853695    4.3853695    4.3853695    14595.879    27606.282    1486.3591    14694.996     1468.381   -6637.3433   -10225.327     84.33708 
   97800    2096.8403   -108.80012    1.8972651   -106.90286     30117.25     4.373153     4.373153     4.373153     30117.25    29620.817    40822.795    19908.136   -6070.1048   -29007.832   -2655.6502    83.634223 
   97900    1587.7945    -108.3667    1.4366698   -106.93003   -23168.179     4.394723     4.394723     4.394723   -23168.179   -25713.292    -79884.35    36093.104    88678.133    16199.865    1856.7609    84.877881 
   98000    1999.4277   -108.72197    1.8091242   -106.91284    -9323.963    4.4054895    4.4054895    4.4054895    -9323.963    -23605.24    28075.704   -32442.353   -49846.416    -11076.22   -5784.0154    85.503229 
   98100    1827.9443   -108.55857    1.6539624   -106.90461   -24631.876    4.4095304    4.4095304    4.4095304   -24631.876    -61431.19    -43986.28    31521.842    80550.576   -4288.8073    12491.693    85.738728 
   98200    2737.7963   -109.34947    2.4772156   -106.87225   -8736.2858    4.4075888    4.4075888    4.4075888   -8736.2858   -29770.921    29702.623   -26140.559   -17638.302   -7253.1854   -7957.5777    85.625518 
   98300    785.10625   -107.60025   0.71038063   -106.88987    17704.431    4.4014598    4.4014598    4.4014598    17704.431   -34542.425    20870.381    66785.336    44780.378   -15235.935    9492.3478    85.268813 
   98400    2431.4101   -109.05803    2.1999909   -106.85804    2177.3119    4.4086633    4.4086633    4.4086633    2177.3119   -4192.6475   -16039.813    26764.396    14320.664    11536.056   -10466.239    85.688158 
   98500    1857.2242   -108.55264    1.6804555   -106.87219   -23537.524    4.4096337    4.4096337    4.4096337   -23537.524   -49736.652    -21165.03    289.10872    48220.065      11754.3   -23235.079    85.744751 
   98600     1951.026   -108.63272    1.7653293   -106.86739    12356.456    4.3992774    4.3992774    4.3992774    12356.456   -25468.623    -12560.71    75098.701    14852.734   -11612.948    22893.869    85.142039 
   98700    2063.6126   -108.73733       1.8672   -106.87013   -16213.089    4.4008133    4.4008133    4.4008133   -16213.089   -20784.436   -23238.469   -4616.3624    4603.1553    38004.654   -24315.861    85.231244 
   98800    1527.7716   -108.28411    1.3823598   -106.90175   -9062.1778    4.4051441    4.4051441    4.4051441   -9062.1778   -47257.329   -73294.752    93365.548    70739.962     -18511.3    14644.129     85.48312 
   98900    2878.9164   -109.49125    2.6049041   -106.88634   -13273.752    4.4030512    4.4030512    4.4030512   -13273.752   -24574.828    -6041.703   -9204.7241   -25408.844    27971.315   -32.818124    85.361336 
   99000    859.86531   -107.70786    0.7780242   -106.92984   -16085.705    4.3961214    4.3961214    4.3961214   -16085.705   -11905.067   -79685.965    43333.919    84215.647     9617.464   -24321.346    84.958932 
   99100    2630.5341   -109.28468    2.3801626   -106.90452    5933.5523    4.4004273    4.4004273    4.4004273    5933.5523    37525.172   -25562.687    5838.1716   -17725.194     11000.08   -3359.9727    85.208817 
   99200    1071.6426   -107.89616   0.96964472   -106.92651    15715.936    4.4123592    4.4123592    4.4123592    15715.936   -20468.218   -30312.022    97928.049    65885.942    31345.134    -1067.816    85.903843 
   99300    2584.1748   -109.18684    2.3382156   -106.84863   -28949.892    4.4400204    4.4400204    4.4400204   -28949.892   -9573.9984   -57476.134   -19799.543   -21751.039   -1264.2337   -24717.053    87.529588 
   99400    1152.2418    -107.8699    1.0425726   -106.82732   -45478.008     4.439739     4.439739     4.439739   -45478.008     -91691.3   -61437.513    16694.791    70512.163    743.46825    7009.4161    87.512948 
   99500    2670.3294   -109.18315    2.4161702   -106.76698    19904.563       4.4054       4.4054       4.4054    19904.563    7498.4819    33826.382    18388.825   -26205.602    25927.052   -18100.003    85.498016 
   99600    1523.7743   -108.19752     1.378743   -106.81877   -23966.239    4.3973656    4.3973656    4.3973656   -23966.239   -72876.961   -62167.594    63145.838    103781.79   -3150.9831     108.4266    85.031086 
   99700    2169.0436    -108.8087    1.9625962    -106.8461   -6162.3364    4.3967071    4.3967071    4.3967071   -6162.3364   -11722.587    8134.4981    -14898.92    8582.2183    7692.8674   -2777.6029    84.992893 
   99800    1379.4598   -108.13693    1.2481642   -106.88876    38309.904    4.3972089    4.3972089    4.3972089    38309.904    65324.161   -4727.7275    54333.278    68439.473   -3784.9056   -9132.3969    85.021994 
   99900    2557.2617    -109.1945    2.3138641   -106.88064   -9582.9471    4.4232445    4.4232445    4.4232445   -9582.9471   -10290.314   -27758.022    9299.4947    2449.2669    -4688.694    15535.962    86.541184 
  100000    1458.6211   -108.20045     1.319791   -106.88066   -12415.131    4.4145357    4.4145357    4.4145357   -12415.131   -24917.125   -49683.408    37355.141    53363.039     18025.58    -10453.95    86.031025 
Loop time of 22.5723 on 1 procs for 100000 steps with 8 atoms

Pair  time (%) = 6.65644 (29.4894)
Kspce time (%) = 5.67472 (25.1402)
Neigh time (%) = 0.213773 (0.947058)
Comm  time (%) = 0.925416 (4.09979)
Outpt time (%) = 0.0281675 (0.124788)
Other time (%) = 9.07378 (40.1987)

Nlocal:    8 ave 8 max 8 min
Histogram: 1 0 0 0 0 0 0 0 0 0
Nghost:    1720 ave 1720 max 1720 min
Histogram: 1 0 0 0 0 0 0 0 0 0
Neighs:    2044 ave 2044 max 2044 min
Histogram: 1 0 0 0 0 0 0 0 0 0

Total # of neighbors = 2044
Ave neighs/atom = 255.5
Neighbor list builds = 2833
Dangerous builds = 0
unfix 20
unfix 21
print "seeds:5266488"
seeds:5266488
