LAMMPS (10 Feb 2015)
# ---- initialize simulations
clear
units metal
dimension 3
boundary p p p
atom_style charge
atom_modify map array
# ---- create atoms
read_data /Users/eugeneragasa/pyflamestk_git/pypospack/tests/tests_integration/workflow/WorkflowLammpsThermalExpansion/param_5091/MgO_NaCl_unit.npt.T1400/lammps.structure
  triclinic box = (0 0 0) to (4.2565 4.2565 4.2565) with tilt (0 0 0)
  1 by 1 by 1 MPI processor grid
  reading atoms ...
  8 atoms
# ---- define interatomic potential
include potential.mod
mass 1 24.305
mass 2 15.999

group Mg type 1
4 atoms in group Mg
group O type 2
4 atoms in group O

set group Mg charge 1.60395442224
  4 settings made for charge
set group O charge -1.60395442224
  4 settings made for charge

variable R_cut equal 10.0

pair_style buck/coul/long ${R_cut}
pair_style buck/coul/long 10
pair_coeff 1 1 0.0 0.5 0.0 ${R_cut}
pair_coeff 1 1 0.0 0.5 0.0 10
pair_coeff 1 2 1640.33364459 0.274285748818 0.0 ${R_cut}
pair_coeff 1 2 1640.33364459 0.274285748818 0.0 10
pair_coeff 2 2 138.503876614 0.167383398543 15.9463705464 ${R_cut}
pair_coeff 2 2 138.503876614 0.167383398543 15.9463705464 10

kspace_style pppm 1.0e-5

neighbor 1.0 bin
neigh_modify every 1 delay 0 check yes
# ---- define settings
compute eng all pe/atom
compute eatoms all reduce sum c_eng
# ---- run minimization
reset_timestep 0
fix 1 all box/relax iso 0.0 vmax 0.001
thermo 10
thermo_style custom step pe lx ly lz xy xz yz press pxx pyy pzz pxy pxz pyz c_eatoms
min_style cg
minimize 1e-25 1e-25 5000 10000
PPPM initialization ...
  G vector (1/distance) = 0.352384
  grid = 8 8 8
  stencil order = 5
  estimated absolute RMS force accuracy = 3.76636e-05
  estimated relative force accuracy = 2.6156e-06
  using double precision FFTs
  3d grid and FFT values/proc = 3375 512
Neighbor list info ...
  1 neighbor list requests
  update every 1 steps, delay 0 steps, check yes
  master list distance cutoff = 11
Memory usage per processor = 4.06549 Mbytes
Step PotEng Lx Ly Lz Xy Xz Yz Press Pxx Pyy Pzz Pxy Pxz Pyz eatoms 
       0   -105.40733       4.2565       4.2565       4.2565            0            0            0    42357.047    42357.047    42357.047    42357.047 -5.4591187e-11 1.2697943e-10 -3.1158894e-11   -105.40733 
      10   -105.43209    4.2922445    4.2922445    4.2922445            0            0            0   -4.9211524   -4.9211524   -4.9211524   -4.9211524 1.7090498e-11 -3.1779622e-11 -1.1443831e-10   -105.43209 
      12   -105.43209    4.2922402    4.2922402    4.2922402            0            0            0  -0.19512063  -0.19512063  -0.19512063  -0.19512063 3.2638439e-11 -8.1058727e-11 1.6032595e-10   -105.43209 
Loop time of 0.00854087 on 1 procs for 12 steps with 8 atoms

Minimization stats:
  Stopping criterion = linesearch alpha is zero
  Energy initial, next-to-last, final = 
        -105.407331285      -105.43208818      -105.43208818
  Force two-norm initial, final = 6.11638 6.94804e-05
  Force max component initial, final = 6.11638 2.86507e-05
  Final line search alpha, max atom move = 0.5 1.43253e-05
  Iterations, force evaluations = 12 25

Pair  time (%) = 0.00234699 (27.4796)
Kspce time (%) = 0.00137663 (16.1181)
Neigh time (%) = 0 (0)
Comm  time (%) = 0.000262499 (3.07344)
Outpt time (%) = 1.19209e-05 (0.139575)
Other time (%) = 0.00454283 (53.1893)

Nlocal:    8 ave 8 max 8 min
Histogram: 1 0 0 0 0 0 0 0 0 0
Nghost:    2189 ave 2189 max 2189 min
Histogram: 1 0 0 0 0 0 0 0 0 0
Neighs:    2344 ave 2344 max 2344 min
Histogram: 1 0 0 0 0 0 0 0 0 0

Total # of neighbors = 2344
Ave neighs/atom = 293
Neighbor list builds = 0
Dangerous builds = 0
unfix 1
# ---- define output variables ----
variable natoms equal "count(all)"
variable tot_energy equal "c_eatoms"
variable length_x equal "lx"
variable length_y equal "ly"
variable length_z equal "lz"
variable tilt_xy equal "xy"
variable tilt_xz equal "xz"
variable tilt_yz equal "yz"
variable tot_press equal "press"
variable press_xx equal "pxx"
variable press_yy equal "pyy"
variable press_zz equal "pzz"
variable press_xy equal "pxy"
variable press_xz equal "pxz"
variable press_yz equal "pyz"

# ---- output ----
print "pypospack:output_section:begin"
pypospack:output_section:begin
print "tot_energy = ${tot_energy}"
tot_energy = -105.432088180201
print "num_atoms = ${natoms}"
num_atoms = 8
print "xx = ${length_x}"
xx = 4.29224022422512
print "yy = ${length_y}"
yy = 4.29224022422512
print "zz = ${length_z}"
zz = 4.29224022422512
print "xy = ${tilt_xy}"
xy = 0
print "xz = ${tilt_xz}"
xz = 0
print "yz = ${tilt_yz}"
yz = 0
print "tot_press = ${tot_press}"
tot_press = -0.195120630166908
print "pxx = ${press_xx}"
pxx = -0.195120630011552
print "pyy = ${press_yy}"
pyy = -0.195120630547228
print "pzz = ${press_zz}"
pzz = -0.195120629941943
print "pxy = ${press_xy}"
pxy = 3.26384388476247e-11
print "pxz = ${press_xz}"
pxz = -8.10587270505021e-11
print "pyz = ${press_yz}"
pyz = 1.60325951029016e-10
print "pypospack:output_section:done"
pypospack:output_section:done
print "pypospack:lammps_sim:done"
pypospack:lammps_sim:done
#------------------------------------------------------------------------------
# RUN THERMOSTAT
# running using an NPT Nose-Hoover style thermostat
#------------------------------------------------------------------------------
variable tempdamp equal 0.1
variable pressdamp equal 1.0
# set initial velocities
velocity all create 1400 1674476 mom yes dist gaussian loop all
# fix for Nose-Hoover style thermostat
fix 20 all npt temp 1400 1400 0.1 aniso 0.0 0.0 1.0 drag 1.0 couple xyz
variable boxx equal lx
variable boxy equal ly
variable boxz equal lz
variable boxp equal press
variable boxt equal temp
# calculate averages every 10000 steps
reset_timestep 0
fix 21 all ave/time 10 10 100 v_boxx v_boxy v_boxz v_boxp v_boxt file lattice.out
thermo_style custom step temp pe ke etotal press lx ly lz press pxx pyy pzz pxy pxz pyz vol
thermo_modify flush yes
thermo 100
run 100000
PPPM initialization ...
  G vector (1/distance) = 0.352034
  grid = 8 8 8
  stencil order = 5
  estimated absolute RMS force accuracy = 3.82705e-05
  estimated relative force accuracy = 2.65774e-06
  using double precision FFTs
  3d grid and FFT values/proc = 3375 512
Memory usage per processor = 3.06549 Mbytes
Step Temp PotEng KinEng TotEng Press Lx Ly Lz Press Pxx Pyy Pzz Pxy Pxz Pyz Volume 
       0         1400   -105.43209    1.2667494   -104.16534     17109.02    4.2922402    4.2922402    4.2922402     17109.02    12996.639    22746.692    15583.729   -4075.7578    1210.8096   -4987.7894    79.077342 
     100    272.92787   -104.25445   0.24695087    -104.0075    25542.228     4.320209     4.320209     4.320209    25542.228    23291.982    20286.803    33047.899    1700.6028   -6500.3271    4752.2465    80.633268 
     200    978.26382   -104.53635   0.88515367    -103.6512     -25231.3    4.3605917    4.3605917    4.3605917     -25231.3   -37259.245   -35877.936   -2556.7192   -4308.8609   -769.75783   -6838.4677    82.915605 
     300    1265.7922   -104.51185    1.1453154   -103.36654    5967.6281    4.3506777    4.3506777    4.3506777    5967.6281   -37539.606    44647.733    10794.757    5258.7585    -1489.774   -6047.9217    82.351354 
     400     1220.067   -104.21509    1.1039422   -103.11115   -12904.296    4.3259458    4.3259458    4.3259458   -12904.296    11323.658    -18840.96   -31195.586   -5492.5262   -19474.784     26621.64    80.954917 
     500     1297.849   -104.14954     1.174321   -102.97522    37250.283     4.342096     4.342096     4.342096    37250.283   -11776.756    34627.761    88899.845    11178.684   -99.263104   -11112.275    81.864999 
     600    1341.2559   -104.10621    1.2135965   -102.89262   -31629.556    4.3722899    4.3722899    4.3722899   -31629.556   -56981.753   -34644.504   -3262.4126    498.08693   -23729.223    4673.6619     83.58471 
     700    1355.6764   -104.06601    1.2266445   -102.83936   -28230.774    4.3629065    4.3629065    4.3629065   -28230.774   -25741.845   -11516.352   -47434.124    370.33508   -4513.8969    6028.1296    83.047723 
     800    1901.1562   -104.54928    1.7202061   -102.82908   -2847.3009    4.3460581    4.3460581    4.3460581   -2847.3009   -25694.597    10822.174    6330.5194    7307.8875   -4745.1876   -7198.8378    82.089308 
     900    1060.6925   -103.82007    0.9597369   -102.86034   -3094.9811    4.3499619    4.3499619    4.3499619   -3094.9811   -39910.919   -23891.253    54517.229   -3799.2401   -20175.576    20944.418    82.310712 
    1000    1478.9273   -104.20569    1.3381645   -102.86753    -13241.14    4.3558687    4.3558687    4.3558687    -13241.14   -15083.988   -30640.665    6001.2322    10367.979    7123.8424   -5808.7171    82.646477 
    1100    1552.3461   -104.27245    1.4045954   -102.86785   -6456.7965     4.358457     4.358457     4.358457   -6456.7965   -21369.901    27586.639   -25587.128   -7698.7194   -14.339643    11825.609    82.793892 
    1200    1138.6104   -103.89837    1.0302386   -102.86813   -27650.805    4.3598184    4.3598184    4.3598184   -27650.805   -27979.675   -45528.534   -9444.2059    4908.5727   -2126.0435   -2573.7249    82.871502 
    1300    1453.7569   -104.17516    1.3153898   -102.85977    8803.1119     4.350283     4.350283     4.350283    8803.1119   -14414.698    8814.8347    32009.199   -471.37101    14234.428   -18712.001     82.32894 
    1400    1300.7958   -104.04469    1.1769874    -102.8677    6572.4881    4.3498993    4.3498993    4.3498993    6572.4881   -4227.0752    13071.971    10872.569     155.0837   -4826.9081    14050.434    82.307161 
    1500    1511.8969   -104.23916    1.3679961   -102.87116   -35300.982    4.3636817    4.3636817    4.3636817   -35300.982   -18664.434   -39861.492   -47377.021    3608.3623     13963.09   -31641.816    83.091994 
    1600    1434.3832   -104.15326      1.29786    -102.8554    6473.0899    4.3602629    4.3602629    4.3602629    6473.0899   -39026.692    12763.058    45682.904     2843.348    9820.0334    13943.822    82.896848 
    1700    1053.9187   -103.81277   0.95360779   -102.85916    1866.8127     4.349738     4.349738     4.349738    1866.8127   -7585.3009   -1176.7517    14362.491    548.96774   -70.474783   -2727.2831    82.298004 
    1800    1651.4527   -104.35532    1.4942691   -102.86105    8581.0211    4.3519797    4.3519797    4.3519797    8581.0211   -4069.8587    20799.617    9013.3052   -319.77868    10955.841   -16718.609    82.425308 
    1900    1634.3707   -104.34328    1.4788129   -102.86447   -3523.5173     4.361553     4.361553     4.361553   -3523.5173   -35208.637    62432.139   -37794.054    444.85405   -7745.6804    19588.001    82.970456 
    2000    1131.0251   -103.88998    1.0233753    -102.8666    -965.5208    4.3624277    4.3624277    4.3624277    -965.5208    7302.9862   -2718.1884   -7481.3602   -567.93786   -7327.6046   -2907.4554    83.020382 
    2100    1804.3808   -104.48845    1.6326417    -102.8558    13087.802    4.3637772    4.3637772    4.3637772    13087.802   -15891.012    44435.207    10719.212    1476.9926   -2783.3591    3200.9293    83.097454 
    2200    922.28628   -103.69589   0.83450401   -102.86139     19968.46    4.3489472    4.3489472    4.3489472     19968.46    8508.2722    35622.442    15774.664    -12391.01   -45.585708   -13319.396    82.253126 
    2300    1611.8863    -104.3276    1.4584686   -102.86913   -10986.926    4.3537795    4.3537795    4.3537795   -10986.926   -34193.505    9384.9941    -8152.266   -8436.6474    2374.8311    1459.7474    82.527614 
    2400    1682.6728   -104.38232    1.5225177    -102.8598    6755.6932    4.3614433    4.3614433    4.3614433    6755.6932   -30710.887    61263.427   -10285.461    8834.4265   -1020.2914   -10955.543    82.964191 
    2500    975.61968   -103.74795   0.88276119   -102.86519   -18236.896    4.3723424    4.3723424    4.3723424   -18236.896     -18308.7    -145.2053   -36256.784   -17211.886   -6938.3598   -1353.2426    83.587724 
    2600    1816.2593   -104.47813    1.6433896   -102.83474    10339.305    4.3597453    4.3597453    4.3597453    10339.305   -11566.861    55032.266   -12447.489   -2216.2629   -918.10932   -245.45434    82.867329 
    2700    1070.6005   -103.81727   0.96870181   -102.84857    7720.7385    4.3495434    4.3495434    4.3495434    7720.7385    1914.6292    38060.983   -16813.397    9608.7347   -652.27986   -4031.5647    82.286958 
    2800    1408.4671   -104.13279    1.2744106   -102.85838   -8806.9524    4.3563798    4.3563798    4.3563798   -8806.9524   -18193.046    3660.8237   -11888.634   -9344.0431    2000.9697   -6131.4357     82.67557 
    2900     1458.429   -104.17613    1.3196172   -102.85652    22625.995    4.3582777    4.3582777    4.3582777    22625.995   -15106.557    73035.361    9949.1816   -4330.8136    4234.6426   -13874.943    82.783676 
    3000    1269.0575    -104.0149    1.1482699   -102.86663   -43005.659    4.3673763    4.3673763    4.3673763   -43005.659   -28315.908   -27845.215   -72855.854    4777.1596     424.7439    5777.2312    83.303231 
    3100    1551.0811   -104.26497    1.4034508   -102.86152    8108.4766    4.3480623    4.3480623    4.3480623    8108.4766   -29698.148    39127.274    14896.303   -1420.5381   -15199.119    178.97682    82.202923 
    3200    1533.7579   -104.25594    1.3877764   -102.86817     10925.55    4.3489938    4.3489938    4.3489938     10925.55   -8589.8637    39883.213    1483.3014    11114.001    10402.786    8583.7992    82.255767 
    3300    981.40843   -103.77119   0.88799898   -102.88319    -11549.04    4.3599516    4.3599516    4.3599516    -11549.04    -44478.48    15269.931   -5438.5699    2761.5316   -12756.368    4630.9322    82.879098 
    3400    1388.7301   -104.12491    1.2565522   -102.86836    14694.812    4.3578083    4.3578083    4.3578083    14694.812   -42999.674    93954.577   -6870.4655    24955.353   -9686.9736    20839.187    82.756927 
    3500    1245.9968   -104.00239     1.127404   -102.87499     4646.963    4.3451551    4.3451551    4.3451551     4646.963   -14122.661    16756.675    11306.874   -9161.6929   -790.47262    2419.0951     82.03815 
    3600    1072.9046   -103.86107   0.97078663   -102.89028   -3719.3992     4.348474     4.348474     4.348474   -3719.3992   -25787.255    15874.565   -1245.5075    38396.091   -20743.518     10944.73    82.226281 
    3700    1632.5424   -104.34438    1.4771587   -102.86722    25017.858    4.3566306    4.3566306    4.3566306    25017.858    5735.6053    64681.306    4636.6612   -28739.871   -2484.6828   -17572.185    82.689852 
    3800     985.4128   -103.76661   0.89162221   -102.87499   -26782.333    4.3637098    4.3637098    4.3637098   -26782.333   -52730.131   -8773.3973   -18843.469    23883.787   -15617.181    13744.562    83.093601 
    3900    1527.0742   -104.24361    1.3817288   -102.86188     315.6993    4.3568215    4.3568215    4.3568215     315.6993   -37463.351    78769.748   -40359.299    -1075.844   -3268.9563   -15896.824     82.70072 
    4000    1311.6153   -104.05091    1.1867771   -102.86413    29155.534    4.3438195    4.3438195    4.3438195    29155.534    9850.6095    60974.418    16641.573    2091.9744    -18499.29    12630.213    81.962523 
    4100    1073.8758   -103.85532   0.97166542   -102.88365   -19632.287    4.3545405    4.3545405    4.3545405   -19632.287    23726.335   -32952.945    -49670.25    9045.9675   -7300.1516   -2943.2452    82.570899 
    4200    1901.3627   -104.58647    1.7203929   -102.86608   -12689.172    4.3623882    4.3623882    4.3623882   -12689.172   -27186.481     23387.72   -34268.754    16430.341   -2626.6768   -5700.3865    83.018127 
    4300    1112.5217   -103.86839     1.006633   -102.86175   -4987.8744    4.3537197    4.3537197    4.3537197   -4987.8744   -13203.812    19834.736   -21594.548    15973.307   -11386.889    18744.065    82.524212 
    4400    1271.4711   -104.00534    1.1504538   -102.85488    29349.063    4.3444106    4.3444106    4.3444106    29349.063    37604.623    85618.598    -35176.03     1784.962    3321.8173   -13937.247    81.995984 
    4500     1803.229   -104.50081    1.6315995   -102.86921    1782.1482    4.3483196    4.3483196    4.3483196    1782.1482   -16562.862    24375.486   -2466.1794   -16159.265   -11491.534    6811.1228    82.217522 
    4600     1142.286   -103.91854    1.0335644   -102.88498    -4757.715    4.3439418    4.3439418    4.3439418    -4757.715    38445.048   -28157.079   -24561.114     7258.744    9724.7251   -6385.5964    81.969448 
    4700    1623.1209   -104.34988    1.4686339   -102.88124   -5635.9096    4.3526052    4.3526052    4.3526052   -5635.9096   -19902.459    20444.821   -17450.091   -4742.4712   -7343.9651   -8246.5814    82.460856 
    4800    1250.0227   -104.00952    1.1310468   -102.87848   -3371.1225    4.3570782    4.3570782    4.3570782   -3371.1225    258.07743    16316.209   -26687.654    10593.436    11010.024    7059.8416    82.715341 
    4900    1223.0282   -103.97942    1.1066216    -102.8728   -10003.974    4.3384561    4.3384561    4.3384561   -10003.974    19394.485   -12666.304   -36740.103   -13326.149    20102.654   -15711.329    81.659296 
    5000    1920.8427   -104.60884    1.7380189   -102.87082   -3484.5089    4.3375276    4.3375276    4.3375276   -3484.5089   -5587.0837    13716.529   -18582.972   -28429.627   -2826.7837    7277.8972    81.606875 
    5100    1041.4631    -103.8312   0.94233765   -102.88886    6920.2187    4.3556053    4.3556053    4.3556053    6920.2187   -10853.788    75073.776   -43459.332    20078.248    23864.034   -22554.854    82.631486 
    5200    1410.8638   -104.14615    1.2765792   -102.86957    -35283.78    4.3686309    4.3686309    4.3686309    -35283.78   -49966.669   -30951.343   -24933.329     -25375.4    3265.2642    4994.3377    83.375041 
    5300    1764.5625   -104.44097    1.5966132   -102.84436   -7144.5158    4.3481876    4.3481876    4.3481876   -7144.5158   -22110.053    25018.987   -24342.481    3611.0716    769.44116   -8551.2172    82.210034 
    5400    812.26753   -103.59106   0.73495673    -102.8561    10867.963    4.3370837    4.3370837    4.3370837    10867.963    -19700.38    40926.014    11378.256   -9661.7666    13495.989   -518.48634    81.581823 
    5500    1433.5637    -104.1718    1.2971185   -102.87468     6095.806    4.3470862    4.3470862    4.3470862     6095.806   -11109.683    22627.168     6769.933   -23552.186    -4224.255    2449.1379    82.147575 
    5600    1881.7983   -104.57437    1.7026906   -102.87168   -13542.256    4.3560624    4.3560624    4.3560624   -13542.256   -29549.865     12785.19   -23862.092    2456.0074    26543.559   -3704.7773    82.657503 
    5700    849.37736   -103.64185   0.76853449   -102.87331    36222.899    4.3469937    4.3469937    4.3469937    36222.899    10575.278    86255.084    11838.333   -24608.444     -10481.4   -5715.6127    82.142335 
    5800    1552.7107   -104.27916    1.4049253   -102.87424   -17609.457    4.3451516    4.3451516    4.3451516   -17609.457    -23495.51   -2869.5065   -26463.354   -2971.3564     15971.69    16368.425     82.03795 
    5900    1646.1152   -104.36643    1.4894396   -102.87699    10363.428    4.3446899    4.3446899    4.3446899    10363.428    36139.263   -796.72039   -4252.2594   -5461.6244   -390.27434   -3367.4941    82.011802 
    6000     1170.697    -103.9438    1.0592713   -102.88453   -26889.122    4.3541907    4.3541907    4.3541907   -26889.122   -30170.345   -34493.574   -16003.446   -23732.515   -776.12581    13423.746    82.551002 
    6100    1677.4604   -104.38309    1.5178014   -102.86529    -10341.13    4.3413059    4.3413059    4.3413059    -10341.13   -30256.159    27207.056   -27974.288    30852.665    10113.133   -1202.7998    81.820316 
    6200    1359.2693   -104.09259    1.2298955   -102.86269   -7675.9358    4.3416594    4.3416594    4.3416594   -7675.9358     7096.984     -36814.7     6689.909   -36887.116   -3318.1841    7155.8492    81.840306 
    6300    1205.0934   -103.96246    1.0903939   -102.87206   -12616.185     4.343671     4.343671     4.343671   -12616.185   -36300.055    11764.479   -13312.979    41386.351    2354.2269   -3004.4696    81.954118 
    6400    1616.3372    -104.3218    1.4624958   -102.85931   -11702.344    4.3524939    4.3524939    4.3524939   -11702.344   -2774.3371   -25505.456   -6827.2392   -17179.128    10328.949   -2319.9032    82.454531 
    6500    969.60588   -103.74237   0.87731978   -102.86505   -9301.7364    4.3530708    4.3530708    4.3530708   -9301.7364     36022.97   -47797.685   -16130.494    5408.3817   -7601.5796    23448.423    82.487321 
    6600    1398.9132   -104.13134     1.265766   -102.86557    3782.1927    4.3341835    4.3341835    4.3341835    3782.1927   -27132.638    21031.518    17447.698    19051.376    16742.028    -14799.55     81.41827 
    6700    1872.9198   -104.56477    1.6946572   -102.87011   -10871.226    4.3374688    4.3374688    4.3374688   -10871.226    18849.695   -30951.712   -20511.662   -15511.467   -13725.821    23590.791    81.603556 
    6800    794.37099   -103.59999   0.71876356   -102.88123    3438.7622    4.3458489    4.3458489    4.3458489    3438.7622   -1057.0111   -30457.642    41830.939    31020.686    9736.2139    9084.5001    82.077455 
    6900    1674.9652   -104.37619    1.5155437   -102.86065   -3676.5378    4.3452229    4.3452229    4.3452229   -3676.5378    18522.167    9956.1038   -39507.884     11090.25   -3331.2426   -3531.8287    82.041989 
    7000    1614.7108   -104.31744    1.4610243   -102.85641   -23696.714    4.3479626    4.3479626    4.3479626   -23696.714   -5155.8879   -35052.227   -30882.026    16307.424    2002.1551    26837.965    82.197273 
    7100    896.00275   -103.67053   0.81072212   -102.85981    22949.286    4.3365074    4.3365074    4.3365074    22949.286    30470.366   -2595.0444    40972.536    11557.086     9648.639   -3154.7234    81.549305 
    7200    1805.6149   -104.49384    1.6337583   -102.86008    72.217411    4.3360371    4.3360371    4.3360371    72.217411    18312.486    10172.538   -28268.372   -1371.8892   -10790.107    18042.778     81.52278 
    7300    1320.7886   -104.07082    1.1950773   -102.87575   -657.32585    4.3510519    4.3510519    4.3510519   -657.32585    28797.199   -38153.633    7384.4567     7382.243    10378.552    4604.4582    82.372602 
    7400    1146.8931   -103.90979     1.037733   -102.87205   -140.45214    4.3521216    4.3521216    4.3521216   -140.45214    20168.409   -30028.255    9438.4894    5326.6389     9859.079    19349.253    82.433372 
    7500    1736.7144    -104.4268    1.5714157   -102.85539    10317.979    4.3328808    4.3328808    4.3328808    10317.979    -7931.168    8155.9585    30729.147    8179.6874    2899.3871   -1440.2778    81.344881 
    7600    1308.7185   -104.05689     1.184156   -102.87273    11153.113    4.3301162    4.3301162    4.3301162    11153.113    13487.872   -27055.415    47026.882    30765.754    -1698.047    3805.2372    81.189275 
    7700    1376.3666   -104.12912    1.2453654   -102.88376    -12747.32    4.3513483    4.3513483    4.3513483    -12747.32    1837.6522   -5741.2776   -34338.334   -14648.948    4717.7762    9459.4683    82.389436 
    7800    1254.8711    -103.9965    1.1354338   -102.86106   -17426.212    4.3605927    4.3605927    4.3605927   -17426.212   -22813.105   -29022.554   -442.97732    15367.794   -12024.386   -18429.652    82.915663 
    7900    1593.4225   -104.28674    1.4417622   -102.84498   -5648.7895    4.3382522    4.3382522    4.3382522   -5648.7895    35545.745   -12744.043   -39748.071   -7353.5948    12871.488    23621.459    81.647779 
    8000    946.11578   -103.72959   0.85606544   -102.87352     14679.76    4.3304732    4.3304732    4.3304732     14679.76    69391.174   -14295.467   -11056.427    16772.892   -11699.662   -14319.446    81.209355 
    8100    1517.3634   -104.26553    1.3729423   -102.89259    15285.268    4.3378642    4.3378642    4.3378642    15285.268    31052.784   -15609.037    30412.057    19301.504   -1918.9608    6887.6446    81.625877 
    8200      1291.88   -104.05877    1.1689202   -102.88985   -20023.733    4.3634151    4.3634151    4.3634151   -20023.733     11412.21   -33670.383   -37813.026     -14394.5   -6892.5145   -4067.1763    83.076767 
    8300    1071.1698   -103.83284   0.96921696   -102.86362    3285.7459    4.3552158    4.3552158    4.3552158    3285.7459    50949.574   -37313.647    -3778.689    26069.368   -13091.678   -14996.817    82.609317 
    8400     1723.824   -104.40874    1.5597522   -102.84899    17361.504    4.3269564    4.3269564    4.3269564    17361.504    55382.463   -14007.251    10709.301   -14931.772    38.055479    3866.5713    81.011663 
    8500    1192.5813   -103.96345    1.0790726   -102.88438   -4261.9009    4.3323925    4.3323925    4.3323925   -4261.9009    18324.087    -8470.324   -22639.465    16282.634   -5375.5413   -23362.174    81.317384 
    8600    1752.5679   -104.47637    1.5857603   -102.89061   -19529.217    4.3623699    4.3623699    4.3623699   -19529.217    -10820.93   -30795.998   -16970.723    18352.356   -20013.107    6848.2567    83.017079 
    8700    1301.1805   -104.05182    1.1773354   -102.87448   -11963.763     4.364795     4.364795     4.364795   -11963.763    40644.254   -61325.617   -15209.926    806.71448    14634.977   -21238.554    83.155607 
    8800    815.23221   -103.60093   0.73763924    -102.8633    28880.468    4.3429566    4.3429566    4.3429566    28880.468    102351.17    -23275.48    7565.7148    27841.971     7215.907    6460.8971    81.913684 
    8900    2167.8048   -104.81913    1.9614754   -102.85766   -9069.6803    4.3406786    4.3406786    4.3406786   -9069.6803    22764.984   -20397.267   -29576.758   -150.73629   -1238.5587   -11312.927    81.784857 
    9000    1317.9771   -104.07431    1.1925333   -102.88178   -15172.737    4.3530634    4.3530634    4.3530634   -15172.737   -172.32161   -40585.312   -4760.5769    23827.963    5488.7454   -2401.1141    82.486901 
    9100    992.67891   -103.77424   0.89819674   -102.87604    27517.911    4.3581181    4.3581181    4.3581181    27517.911    85195.702   -28375.949     25733.98    8748.5692   -28881.437   -4917.7443    82.774578 
    9200     1493.702   -104.21722    1.3515329   -102.86568   -12667.311    4.3532883    4.3532883    4.3532883   -12667.311    -14575.01   -12989.115   -10437.808    917.56191    10127.445    1763.9099    82.499686 
    9300    1085.4411   -103.85008   0.98212989   -102.86795   -1289.7831    4.3339924    4.3339924    4.3339924   -1289.7831    10366.747    -3428.193   -10807.904    24345.833    8260.9511    3228.1019    81.407503 
    9400    1666.2513   -104.37999    1.5076592   -102.87233    12001.064    4.3417987    4.3417987    4.3417987    12001.064    62291.924   -36798.989    10510.257   -1158.3038   -8320.3747   -4170.3645    81.848184 
    9500    1076.2043   -103.85345   0.97377228   -102.87968   -28091.165      4.35703      4.35703      4.35703   -28091.165   -25407.162   -50261.707   -8604.6259    38189.484    9084.2679    7255.9279    82.712595 
    9600    1550.1374   -104.26013    1.4025969   -102.85753    19485.282    4.3482836    4.3482836    4.3482836    19485.282    81022.021   -19517.884   -3048.2899   -2142.3999   -5898.9703   -6558.1047    82.215478 
    9700    926.63456    -103.7027   0.83843842   -102.86426    15049.304     4.337801     4.337801     4.337801    15049.304    67067.299   -21888.601   -30.785609    9806.9788    10846.757    8785.8741    81.622308 
    9800    1412.7748   -104.15655    1.2783084   -102.87824   -14190.297    4.3380689    4.3380689    4.3380689   -14190.297   -5085.4479   -27700.367    -9785.077     27983.96    -6340.046   -5106.1218    81.637432 
    9900    1542.5141   -104.27336    1.3956992   -102.87766    9608.8703    4.3376888    4.3376888    4.3376888    9608.8703    25826.373   -1547.0066    4547.2445   -10301.733    -4054.764    13641.351    81.615975 
   10000    1041.5351   -103.82983   0.94240287   -102.88742   -2060.9484    4.3398494    4.3398494    4.3398494   -2060.9484    11244.482   -29530.756    12103.429    40136.965    6726.5197    4504.2043    81.737994 
   10100    1811.1656   -104.50287    1.6387807   -102.86409     13328.84    4.3396771    4.3396771    4.3396771     13328.84    49050.353   -6359.5622   -2704.2697   -20744.206    -3015.455     5430.207    81.728262 
   10200    1042.9821   -103.81904   0.94371209   -102.87533   -3065.9962    4.3379117    4.3379117    4.3379117   -3065.9962    15345.952   -39756.557    15212.616    23363.628    4565.3736    12027.103     81.62856 
   10300    1635.5271   -104.34298    1.4798593   -102.86312    13714.553    4.3423274    4.3423274    4.3423274    13714.553    47751.585   -30631.526    24023.599    26757.157    6611.2071    943.99193    81.878088 
   10400    1204.0383   -103.95035    1.0894391   -102.86091   -4546.6244    4.3475732    4.3475732    4.3475732   -4546.6244    33267.884   -49263.741    2355.9835   -590.20221   -11906.337      7050.62    82.175188 
   10500    1262.5235    -104.0018    1.1423578   -102.85944   -25242.004    4.3497839    4.3497839    4.3497839   -25242.004   -19470.296   -55575.339   -680.37833    32948.707    20134.042   -618.72002    82.300611 
   10600    1679.7542   -104.36275    1.5198769   -102.84287    30945.188    4.3355467    4.3355467    4.3355467    30945.188    111217.61   -27800.554    9418.5068   -6877.4094   -6598.0166    4126.2094    81.495122 
   10700    843.96341   -103.63726   0.76363583   -102.87363   -27609.084    4.3474033    4.3474033    4.3474033   -27609.084   -17373.504   -74747.536    9293.7872    39298.582    821.17003   -995.47175    82.165556 
   10800    1962.1679   -104.63201    1.7754108    -102.8566    4091.3928    4.3478114    4.3478114    4.3478114    4091.3928    34617.196   -33037.541    10694.524   -11594.292   -6274.5167   -4000.8724    82.188695 
   10900     1274.462    -104.0378      1.15316   -102.88464    3785.6618     4.335438     4.335438     4.335438    3785.6618    33271.907   -58706.594    36791.672    30231.177   -12464.832   -2187.9458    81.488994 
   11000     1414.895   -104.16263    1.2802267   -102.88241    14406.434    4.3367907    4.3367907    4.3367907    14406.434    80280.784   -36630.309   -431.17482   -4664.0905   -5228.4054   -5697.2461     81.56529 
   11100    1377.5579   -104.12099    1.2464433   -102.87455   -11101.418    4.3473781    4.3473781    4.3473781   -11101.418   -23745.561   -41577.922    32019.228    28061.603    5656.3986    1225.7975    82.164128 
   11200    1226.9023   -103.97339     1.110127   -102.86327    14706.723    4.3421732    4.3421732    4.3421732    14706.723    57208.449   -48527.492    35439.212    6467.1171   -10484.649    1479.5377    81.869365 
   11300    1754.0446   -104.43779    1.5870964   -102.85069    1644.6688    4.3428976    4.3428976    4.3428976    1644.6688    20610.784   -37549.682    21872.905    458.89974    -2456.477    3341.4076    81.910346 
   11400    1192.8205   -103.93365    1.0792891   -102.85436    14955.124    4.3368474    4.3368474    4.3368474    14955.124    10177.103   -36034.155    70722.425    15320.003    2750.9793   -1697.5924    81.568487 
   11500    1739.0599   -104.43205    1.5735379   -102.85851   -16158.309    4.3513301    4.3513301    4.3513301   -16158.309   -15470.951   -32679.489   -324.48558   -20051.997    5352.5525    8792.4491    82.388404 
   11600    1221.4474   -103.95646    1.1051913   -102.85127    14493.734    4.3496972    4.3496972    4.3496972    14493.734    34614.889   -55500.083    64366.395    17335.299   -86.812779    6603.5956     82.29569 
   11700    1419.8267   -104.13657     1.284689   -102.85188    -11663.86    4.3487298    4.3487298    4.3487298    -11663.86    3630.8319   -60077.076    21454.664   -28310.576     8087.418   -10732.311     82.24079 
   11800    1241.4935   -103.97954    1.1233294   -102.85621    14943.675    4.3323426    4.3323426    4.3323426    14943.675     77249.89   -29338.177   -3080.6878    19093.712   -2186.4287    18442.973    81.314572 
   11900     1598.748    -104.3193    1.4465808   -102.87272    -14341.16    4.3387228    4.3387228    4.3387228    -14341.16   -38592.315   -45458.281    41027.115   -19268.112    3869.9097   -16933.047    81.674353 
   12000    1458.3578   -104.18777    1.3195528   -102.86822   -13858.584    4.3543281    4.3543281    4.3543281   -13858.584    56431.992    -69252.34   -28755.403    8313.3407     7819.721    19874.186    82.558812 
   12100    1323.0511    -104.0631    1.1971245   -102.86597   -2938.9813    4.3616426    4.3616426    4.3616426   -2938.9813    -19327.34   -58663.354    69173.751   -11721.416   -12147.781    2898.3752    82.975564 
   12200    1306.1265   -104.04804    1.1818107   -102.86623   -5881.5933    4.3480623    4.3480623    4.3480623   -5881.5933    36158.571   -64258.453    10455.102   -13380.857   -11080.431    15301.891    82.202926 
   12300    1702.7024   -104.39756    1.5406409   -102.85692    6795.9099    4.3278237    4.3278237    4.3278237    6795.9099     7834.913   -44512.842    57065.658   -2313.6488    1204.6964        14877    81.060389 
   12400    1044.2325   -103.83242    0.9448435   -102.88757   -3802.4751    4.3471967    4.3471967    4.3471967   -3802.4751   -12630.492   -70986.379    72209.446    -21584.72    7175.5725   -68.786463     82.15384 
   12500    1660.6653   -104.38251    1.5026049    -102.8799   -7171.1725    4.3561248    4.3561248    4.3561248   -7171.1725    54612.806   -56164.949   -19961.375    6023.1433    15516.471    8370.6071    82.661052 
   12600    912.80547   -103.70555   0.82592557   -102.87962   -3571.7095    4.3539929    4.3539929    4.3539929   -3571.7095    50310.221   -78721.149      17695.8    -21361.42    -6168.945   -13382.979    82.539748 
   12700    1808.1138   -104.50124    1.6360194   -102.86522    11706.625    4.3452472    4.3452472    4.3452472    11706.625    77476.596   -33578.764   -8777.9576    12260.146    7809.5194    8707.4808    82.043367 
   12800    1258.3664   -104.01709    1.1385964    -102.8785    1367.6057     4.346866     4.346866     4.346866    1367.6057    73512.805   -66172.638   -3237.3497   -24428.433   -6089.1326   -14252.707    82.135092 
   12900    1373.1205   -104.13373    1.2424283    -102.8913   -12852.791     4.352271     4.352271     4.352271   -12852.791    13721.639   -61591.621    9311.6088    3640.3052    11517.649    9478.7758    82.441859 
   13000    1591.6258   -104.31796    1.4401364   -102.87783   -4643.3625    4.3585945    4.3585945    4.3585945   -4643.3625     50918.56   -38643.524   -26205.124    5367.9545    341.62565   -20384.312    82.801728 
   13100    1231.2228   -103.98481    1.1140363   -102.87077   -12409.165    4.3558268    4.3558268    4.3558268   -12409.165    39621.487    -79841.71    2992.7281   -10503.172    2675.3109    8297.4698    82.644089 
   13200    1561.9483   -104.28653    1.4132837   -102.87324   -8662.0859    4.3457006    4.3457006    4.3457006   -8662.0859    7180.3477   -51557.112    18390.506    21744.238    5998.5509    -9124.287    82.069048 
   13300     1761.241   -104.47633    1.5936079   -102.88272    8584.8704     4.346304     4.346304     4.346304    8584.8704    88523.637   -40063.826     -22705.2   -14022.778   -4707.4849   -3096.6671    82.103241 
   13400    860.17634   -103.67269   0.77830563   -102.89439   -853.96117    4.3543718    4.3543718    4.3543718   -853.96117    59884.978   -68018.574    5571.7128    17565.011    21824.762   -654.45977      82.5613 
   13500     1746.077    -104.4614    1.5798872   -102.88151   -5333.7329    4.3596851    4.3596851    4.3596851   -5333.7329    47149.725   -67952.169    4801.2449    13933.929   -3469.8345   -7359.1607    82.863902 
   13600    1654.3413   -104.37575    1.4968828   -102.87886   -15307.204    4.3542392    4.3542392    4.3542392   -15307.204    52750.585   -67221.205   -31450.992    4789.1298   -4826.7952    -12414.09    82.553759 
   13700    902.33035   -103.70743   0.81644746   -102.89098   -9603.6499    4.3382436    4.3382436    4.3382436   -9603.6499    43046.294   -77393.051    5535.8076    27451.549    1124.6968   -16337.762    81.647298 
   13800    1716.5954   -104.43024    1.5532116   -102.87703    27392.672    4.3416388    4.3416388    4.3416388    27392.672    69860.776    -27962.52     40279.76   -5375.0186   -86.633583    10150.396    81.839142 
   13900    1139.6643   -103.91513    1.0311922   -102.88394   -35979.839    4.3624784    4.3624784    4.3624784   -35979.839    39650.444   -93995.833   -53594.128    18153.164    5503.4166    -26102.71    83.023278 
   14000    1295.0926   -104.04738     1.171827   -102.87556    11475.291    4.3468358    4.3468358    4.3468358    11475.291    82788.064   -49437.587    1075.3965   -8398.2573   -5290.4571    9649.1541     82.13338 
   14100    1712.7775   -104.42352    1.5497571   -102.87376    5616.6077    4.3437281    4.3437281    4.3437281    5616.6077    55923.608   -33985.576   -5088.2087    2073.6344   -9056.1842   -1322.3122    81.957349 
   14200    1348.0411   -104.10787    1.2197359   -102.88813   -21995.772    4.3455259    4.3455259    4.3455259   -21995.772    42918.409   -67560.103   -41345.621    14413.325     7630.816    18908.665    82.059152 
   14300    1343.3988   -104.10352    1.2155354   -102.88799   -1853.1206    4.3458887    4.3458887    4.3458887   -1853.1206    64333.915    -64217.11   -5676.1668   -20301.249   -11551.715   -8807.2637    82.079705 
   14400    1734.4488   -104.45608    1.5693657   -102.88672   -22375.259    4.3542567    4.3542567    4.3542567   -22375.259     26943.08   -54256.177   -39812.678    16517.887   -8246.4093    14116.672    82.554753 
   14500    1141.6548      -103.92    1.0329932   -102.88701   -353.91428    4.3453685    4.3453685    4.3453685   -353.91428     60509.64   -50954.271   -10617.112   -27327.614    1032.4704    7080.9269    82.050238 
   14600    1271.6158   -104.02568    1.1505847    -102.8751    25713.443    4.3296329    4.3296329    4.3296329    25713.443    47440.021    849.46527    28850.844   -12279.425   -16140.499    2697.0025    81.162092 
   14700    1620.7668    -104.3454    1.4665039   -102.87889   -12075.517    4.3469729    4.3469729    4.3469729   -12075.517     36243.22   -46929.683   -25540.086   -9338.0636   -1707.4299    9596.7301    82.141156 
   14800    1157.2763   -103.91662    1.0471279   -102.86949    7537.4194    4.3554213    4.3554213    4.3554213    7537.4194    18560.884   -24190.454    28241.828   -27481.163   -11290.291    3802.8973    82.621015 
   14900    1446.7883   -104.16727    1.3090845   -102.85818   -6292.7099    4.3512495    4.3512495    4.3512495   -6292.7099     53656.35   -9145.8349   -63388.645   -32.453342   -18754.721    8662.1964    82.383827 
   15000    1620.9178   -104.32026    1.4666405   -102.85362    6239.5879    4.3397322    4.3397322    4.3397322    6239.5879    20145.212   -37193.032    35766.584   -34672.771   -1514.9854   -6965.6196     81.73137 
   15100    1318.0018    -104.0622    1.1925557   -102.86965    5731.9852     4.333357     4.333357     4.333357    5731.9852    38450.158    14924.632   -36178.834    17221.339   -18297.132    17422.484    81.371706 
   15200    1429.5812   -104.16781    1.2935151    -102.8743    5739.4494    4.3441355    4.3441355    4.3441355    5739.4494    51494.683   -21052.444   -13223.891   -2777.9705   -4445.7652   -6759.8431    81.980408 
   15300    1195.0311   -103.95127    1.0812893   -102.86998    -19004.33    4.3507586    4.3507586    4.3507586    -19004.33    16242.898   -36379.312   -36876.574    12573.797   -12999.628    14234.141    82.355945 
   15400    1360.7872   -104.09047    1.2312689    -102.8592    15581.195    4.3332507    4.3332507    4.3332507    15581.195    11372.316    51584.927   -16213.658    22345.387   -10048.986     7597.545    81.365717 
   15500    1804.2307   -104.49125    1.6325059   -102.85875   -5644.7592    4.3373932    4.3373932    4.3373932   -5644.7592   -5977.3726    20941.963   -31898.868   -14190.681    24357.977   -3151.3531     81.59929 
   15600    830.51216   -103.62199   0.75146486   -102.87052   -11532.639    4.3495338    4.3495338    4.3495338   -11532.639   -17603.387   -13025.847    -3968.682    17066.051   -23451.657    23254.303    82.286411 
   15700    1910.9664   -104.58216    1.7290826   -102.85308    6153.5342    4.3391815    4.3391815    4.3391815    6153.5342    37222.791   -2156.3452   -16605.843   -280.30501    28037.775    -14943.43    81.700262 
   15800    1290.0765   -104.02694    1.1672883   -102.85965    15548.149    4.3360737    4.3360737    4.3360737    15548.149    33684.559    30264.837    -17304.95    5638.4699   -4240.5957    24141.708     81.52484 
   15900    1278.6383   -104.02461    1.1569388   -102.86767    -9350.635    4.3402382    4.3402382    4.3402382    -9350.635    -5457.142   -15369.113   -7225.6505    3463.8724    3149.7086   -3132.0915    81.759962 
   16000    1411.2333   -104.14626    1.2769135   -102.86934    16666.394    4.3422252    4.3422252    4.3422252    16666.394    40841.565    21200.897   -12043.279   -12075.156    21954.521    7150.9317     81.87231 
   16100    1671.9782   -104.37698     1.512841   -102.86414   -7484.2567    4.3455749    4.3455749    4.3455749   -7484.2567    15963.162   -25227.819   -13188.113   -7391.3539   -16949.531    16852.573    82.061926 
   16200    816.01632   -103.60388   0.73834871   -102.86553    1344.3338    4.3355079    4.3355079    4.3355079    1344.3338    34363.918    -15765.77   -14565.147   -12274.021    24171.839   -835.62065    81.492935 
   16300    1749.4257   -104.45476    1.5829171   -102.87184   -7290.8786    4.3293205    4.3293205    4.3293205   -7290.8786    31942.793   -26358.337   -27457.093    -3821.971   -8537.9161    24850.207    81.144523 
   16400    1969.4022   -104.65177    1.7819565   -102.86982    1564.5292    4.3380414    4.3380414    4.3380414    1564.5292    22989.371   -17966.335   -329.44877    16193.784   -648.62016   -11524.944    81.635882 
   16500    807.45972   -103.60871   0.73060652   -102.87811   -32148.236    4.3490064    4.3490064    4.3490064   -32148.236    7184.3845   -36588.551   -67040.541   -4711.2591    8742.5596    36048.606    82.256483 
   16600    2171.1947   -104.81268    1.9645426   -102.84814   -3420.3656     4.343522     4.343522     4.343522   -3420.3656   -289.96229   -27316.371    17345.236    19140.057    -23181.74   -12539.516    81.945685 
   16700    1122.0092   -103.87149    1.0152175   -102.85628   -3735.0547    4.3381035    4.3381035    4.3381035   -3735.0547    33532.561   -9168.5056    -35569.22    -5761.118    23144.222    27508.672    81.639386 
   16800    1143.4056   -103.89855    1.0345774   -102.86397    10962.994    4.3334607    4.3334607    4.3334607    10962.994    15795.204    5399.7473    11694.031    3320.4046   -14353.772   -3573.4663    81.377547 
   16900     1810.895   -104.49947    1.6385358   -102.86093   -3307.9832    4.3366186    4.3366186    4.3366186   -3307.9832     24601.74   -22357.079   -12168.612   -8019.7638    10625.592     14321.99     81.55558 
   17000    834.54776   -103.63569   0.75511635   -102.88058    16062.432    4.3415659    4.3415659    4.3415659    16062.432    26436.492    10969.913     10780.89    5807.3609    3246.1603    14642.068     81.83502 
   17100    1764.9903   -104.46292    1.5970003   -102.86592   -27948.712    4.3474248    4.3474248    4.3474248   -27948.712   -28243.663   -18686.999   -36915.473   -7530.6162   -14382.092   -8415.5652    82.166771 
   17200    1393.3011   -104.11807    1.2606881   -102.85739   -4502.8953    4.3391931    4.3391931    4.3391931   -4502.8953    19428.791   -610.05266   -32327.424   -8055.3374    9832.6808    31117.456    81.700917 
   17300    1305.3553   -104.04385    1.1811129   -102.86274    2482.8782    4.3308315    4.3308315    4.3308315    2482.8782    17674.853   -4791.4345   -5434.7836    11375.833   -19239.255   -2490.4381    81.229517 
   17400    1352.5086   -104.09953    1.2237782   -102.87575    8731.3137    4.3398832    4.3398832    4.3398832    8731.3137    31232.535     12251.84   -17290.434   -3807.9201   -5856.9735    11592.706    81.739905 
   17500    1783.4335   -104.48634    1.6136881   -102.87265   -1350.7529    4.3420189    4.3420189    4.3420189   -1350.7529    31723.297    -30503.42   -5272.1355    5974.0464    -4799.743    14311.755    81.860641 
   17600    996.58114    -103.7862   0.90172756   -102.88447   -4324.6339    4.3328579    4.3328579    4.3328579   -4324.6339    1437.1639   -8293.5718   -6117.4938    7588.4834   -10702.692    1258.6993    81.343589 
   17700    1543.2132   -104.27974    1.3963317    -102.8834    15675.361    4.3298145    4.3298145    4.3298145    15675.361    18466.751    631.50921    27927.822    5645.5421    8351.5498    26298.537    81.172301 
   17800    1855.8436    -104.5543    1.6792063   -102.87509   -16359.931    4.3455712    4.3455712    4.3455712   -16359.931   -4791.0126    -16013.72   -28275.061    11286.042   -736.24363   -2247.2181    82.061718 
   17900    811.17545   -103.61115   0.73396859   -102.87719   -30904.175    4.3455653    4.3455653    4.3455653   -30904.175   -11708.522   -38056.415   -42947.588    2984.9031   -6130.8568    24123.793    82.061385 
   18000    1848.1289   -104.52958    1.6722259   -102.85735    13956.284    4.3282501    4.3282501    4.3282501    13956.284    13663.135    35352.936   -7147.2175   -4427.9373    14219.889    661.17468    81.084352 
   18100    1376.8676   -104.11427    1.2458188   -102.86845    -851.1526     4.334325     4.334325     4.334325    -851.1526    24939.665   -30453.677    2960.5542   -3263.6983   -14223.999    20879.711    81.426249 
   18200    1015.5699   -103.79407   0.91890902   -102.87516   -22239.416    4.3424094    4.3424094    4.3424094   -22239.416   -30414.129    21309.351    -57613.47   -169.70118    26346.849    1623.3817    81.882727 
   18300    1678.3773   -104.38476     1.518631   -102.86613    11132.386    4.3390419    4.3390419    4.3390419    11132.386    44598.302   -17006.033    5804.8879    1261.6646    -6641.004    9367.7512    81.692375 
   18400    1461.0314   -104.19676    1.3219719   -102.87479    11335.141     4.328121     4.328121     4.328121    11335.141    49228.084   -10536.575   -4686.0877   -7188.0992     16584.92    12392.016    81.077093 
   18500    892.02232     -103.694   0.80712054   -102.88688    3653.5798    4.3294919    4.3294919    4.3294919    3653.5798    11728.504    22383.107   -23150.872   -3911.4746    15355.368   -13405.248    81.154159 
   18600    2017.3904   -104.69234    1.8253772   -102.86696    -20636.17    4.3449269    4.3449269    4.3449269    -20636.17    9479.5087   -38299.442   -33088.576    -9922.454   -14004.157    10478.383    82.025221 
   18700    1257.9964   -104.01424    1.1382616   -102.87598   -1448.5529    4.3398935    4.3398935    4.3398935   -1448.5529    28939.588    5958.7037    -39243.95   -12325.771    22334.991   -5054.9841    81.740485 
   18800    1023.4234   -103.79453   0.92601501   -102.86852    6194.9384    4.3321954    4.3321954    4.3321954    6194.9384    29745.014    8541.2106   -19701.409   -5640.5689    -21589.11    2656.7514    81.306282 
   18900    1701.2428   -104.39681    1.5393202   -102.85749    14484.682    4.3296791    4.3296791    4.3296791    14484.682     48429.83   -100.01907   -4875.7641   -6837.7576    26305.362    2492.9581    81.164689 
   19000     1060.976   -103.84084   0.95999335   -102.88085   -15958.808    4.3414901    4.3414901    4.3414901   -15958.808   -58414.936    15375.747   -4837.2368   -2653.7715   -16441.021     1754.603    81.830733 
   19100    1721.9097   -104.42025    1.5580201   -102.86223   -4642.6046    4.3424695    4.3424695    4.3424695   -4642.6046   -2988.5725   -22623.839    11684.597    8958.7548   -8897.8395    5834.9869    81.886129 
   19200    1091.3399   -103.84285   0.98746727   -102.85539     7311.411    4.3315164    4.3315164    4.3315164     7311.411    26991.477    16740.583   -21797.827    3988.0782   -5454.4146    1456.3282    81.268061 
   19300    1073.4551   -103.84308   0.97128474    -102.8718    -7037.159    4.3313515    4.3313515    4.3313515    -7037.159    25060.184   -25243.065   -20928.597    14726.496   -14937.956     -3592.56    81.258778 
   19400    1958.3448   -104.63855    1.7719516    -102.8666   -1179.1994    4.3331869    4.3331869    4.3331869   -1179.1994    5127.9712     -8927.37    261.80066    11807.717    4855.0278    8194.2179    81.362124 
   19500    1141.8875   -103.90865    1.0332038   -102.87544   -35122.026    4.3419217    4.3419217    4.3419217   -35122.026   -17723.524   -11698.687   -75943.866    1564.1836   -19468.946    -12598.41    81.855141 
   19600    1399.4341   -104.13742    1.2662374   -102.87119   -4674.6483    4.3305271    4.3305271    4.3305271   -4674.6483    22013.077   -19486.449   -16550.573    18761.209    2819.2542    13149.276    81.212388 
   19700    1450.0238   -104.19063     1.312012   -102.87861    18409.961    4.3227696    4.3227696    4.3227696    18409.961    42220.047    77.828571    12932.006   -6380.8985    71.160082   -1557.6862    80.776728 
   19800    1510.8347   -104.24707     1.367035   -102.88003    7022.8109    4.3284772    4.3284772    4.3284772    7022.8109    29137.436    3146.1535   -11215.157    6924.1349   -14536.167   -3355.0822    81.097116 
   19900    1195.8832   -103.95794    1.0820603   -102.87588   -41.167648    4.3371902    4.3371902    4.3371902   -41.167648    13611.533   -17909.358    4174.3213    2921.8325     2810.487    10641.525    81.587832 
   20000     1418.918   -104.16124    1.2838668   -102.87737    -18853.55    4.3291935    4.3291935    4.3291935    -18853.55   -16262.595   -23628.966    -16669.09   -6440.5646   -25348.215   -21726.963     81.13738 
   20100    1812.4102   -104.50392    1.6399069   -102.86401    33849.812    4.3190518    4.3190518    4.3190518    33849.812    76921.801    1347.5761    23280.058    4469.8643   -10948.784    14983.115    80.568494 
   20200      948.163   -103.74298   0.85791781   -102.88506   -31421.304     4.335697     4.335697     4.335697   -31421.304   -10735.629   -32181.627   -51346.656   -4527.6323   -13643.047   -11094.461    81.503595 
   20300    1492.0633   -104.22492    1.3500502   -102.87487   -7787.7664      4.33991      4.33991      4.33991   -7787.7664    20611.988   -22929.848   -21045.439   -3759.2853   -19553.966   -12672.672    81.741417 
   20400    1771.0266   -104.46301    1.6024621   -102.86055    5209.2864    4.3343978    4.3343978    4.3343978    5209.2864    6540.8246    2626.0867     6460.948   -6687.6693    16509.215    6568.0631    81.430351 
   20500    715.76404   -103.52345   0.64763834   -102.87581   -25241.862    4.3237618    4.3237618    4.3237618   -25241.862   -25741.913    -184.0822   -49799.591   -2473.1106    -39048.36   -19017.816    80.832362 
   20600    1884.8442   -104.57192    1.7054466   -102.86648    24060.212    4.3250487    4.3250487    4.3250487    24060.212    14760.225     32202.79    25217.621   -5290.5337    21730.039    3337.3038    80.904562 
   20700    1139.0346   -103.91153    1.0306225   -102.88091   -30213.702    4.3449612    4.3449612    4.3449612   -30213.702   -37282.369    -2513.672   -50845.065   -7906.2763   -23947.665   -6941.6242    82.027166 
   20800    1075.1829   -103.84733   0.97284806   -102.87448   -3534.6182    4.3371824    4.3371824    4.3371824   -3534.6182    31866.344   -34860.547   -7609.6522   -9046.9771   -10586.002   -10839.837    81.587395 
   20900    1882.2335   -104.56711    1.7030844   -102.86402    16699.615    4.3327511    4.3327511    4.3327511    16699.615    23865.414    21799.121    4434.3098    15318.295    2528.9843    -2858.557    81.337576 
   21000    1207.9101    -103.9683    1.0929425   -102.87535   -24218.747    4.3376563    4.3376563    4.3376563   -24218.747   -160.31003   -27488.476   -45007.455   -6179.1415   -19837.155   -14165.091    81.614141 
   21100     1368.124   -104.10111    1.2379074    -102.8632    3428.1452    4.3349244    4.3349244    4.3349244    3428.1452    -38710.86    5197.7031    43797.593    4417.5011   -2520.0706    8937.0238    81.460033 
   21200    1631.5667   -104.34222    1.4762758   -102.86594   -4226.4443    4.3333948    4.3333948    4.3333948   -4226.4443    29680.492   -10515.956   -31843.869   -6784.2502   -9547.0631    -20196.63    81.373834 
   21300    1104.7986   -103.87547   0.99964502   -102.87582    21306.014    4.3274087    4.3274087    4.3274087    21306.014    25186.321     975.4936    37756.227    11231.034   -1763.9375    3651.1654    81.037069 
   21400    1393.0017   -104.13183    1.2604172   -102.87141   -6805.0743     4.342043     4.342043     4.342043   -6805.0743   -13137.692   -11389.469     4111.938    6192.2675   -2337.4746   -1431.4007    81.862001 
   21500    1576.8373   -104.28835    1.4267556    -102.8616   -3724.0837    4.3398544    4.3398544    4.3398544   -3724.0837     10059.32    3980.5075   -25212.079    2955.4543    -16607.12    -11094.17    81.738278 
   21600    1282.4715   -104.02516    1.1604072   -102.86476   -408.48214    4.3304446    4.3304446    4.3304446   -408.48214   -26597.193   -21037.752    46409.499    24515.347    126.25703    5728.3154    81.207748 
   21700    1826.4621   -104.51846    1.6526213   -102.86583   -23293.324    4.3323149    4.3323149    4.3323149   -23293.324   -31622.711   -11633.485   -26623.776   -5533.1883   -17209.206   -585.01238    81.313013 
   21800    1207.1391     -103.965    1.0922449   -102.87275    18899.655    4.3369777    4.3369777    4.3369777    18899.655    1978.0385     4055.204    50665.722    9486.3814   -3749.7838   -5073.0371    81.575843 
   21900    1167.5194   -103.92971    1.0563961   -102.87331   -19289.699    4.3435031    4.3435031    4.3435031   -19289.699    20435.306   -50103.335   -28201.067   -20515.424   -8947.3739    12905.696    81.944614 
   22000    1575.0308   -104.28537     1.425121   -102.86025    25438.014     4.329224     4.329224     4.329224    25438.014    27420.856    33504.231    15388.954   -538.22161   -11365.493   -9455.2785    81.139095 
   22100    1194.3417   -103.95132    1.0806655   -102.87066   -965.78166    4.3352775    4.3352775    4.3352775   -965.78166    -7751.534   -17250.636    22104.825   -9901.9394    4525.4097    16616.179    81.479943 
   22200    1216.3138   -103.96702    1.1005463   -102.86648   -18555.152    4.3356635    4.3356635    4.3356635   -18555.152   -17888.285   -808.50545   -36968.665   -20360.439   -20456.739    6658.6504    81.501706 
   22300    1973.7836   -104.64078    1.7859209   -102.85486   -6726.8566    4.3330051    4.3330051    4.3330051   -6726.8566    6424.2078    -8734.492   -17870.286    10262.063    9839.9581    -1982.005    81.351879 
   22400    1042.1766    -103.8106   0.94298325   -102.86761   -5964.0217    4.3385835    4.3385835    4.3385835   -5964.0217   -23125.223    4003.3288    1229.8288   -29687.028   -5324.0884    11443.834    81.666488 
   22500    1357.3762   -104.09203    1.2281825   -102.86385   -5673.2752    4.3293285    4.3293285    4.3293285   -5673.2752   -7101.5514    13705.592   -23623.866    -1743.669   -8771.0564   -3912.2107    81.144972 
   22600    1734.0291   -104.42871    1.5689859   -102.85972   -4744.3568    4.3347531    4.3347531    4.3347531   -4744.3568     20729.14   -2065.0647   -32897.146    1864.9453    7726.6791    13942.953    81.450376 
   22700    968.46062   -103.74284   0.87628353   -102.86656   -5239.0004    4.3395467    4.3395467    4.3395467   -5239.0004    237.95372    5012.1202   -20967.075   -35043.381   -7031.5625    83.247789     81.72089 
   22800    1548.2569   -104.26249    1.4008954   -102.86159   -4758.9228    4.3270668    4.3270668    4.3270668   -4758.9228    13667.054    -15907.98   -12035.843    18627.834     2691.112    6459.8742    81.017864 
   22900    1594.6224    -104.3074    1.4428478   -102.86455   -8264.6841    4.3270199    4.3270199    4.3270199   -8264.6841    50045.888   -44995.707   -29844.234   -3509.6271    3642.2293    25568.224    81.015234 
   23000    1244.0074   -103.99808     1.125604   -102.87247    10519.884    4.3330096    4.3330096    4.3330096    10519.884   -7785.1016    34088.622    5256.1305   -12963.957   -11991.982   -10117.104    81.352133 
   23100    1365.1514   -104.11531    1.2352177   -102.88009   -15208.294    4.3369926    4.3369926    4.3369926   -15208.294    17211.366   -33937.806   -28898.442    12579.028   -945.09254    24644.972    81.576685 
   23200    1668.6939   -104.37623    1.5098693   -102.86636    8701.2748    4.3367415    4.3367415    4.3367415    8701.2748    40902.878    14469.515   -29268.569   -10366.317   -12724.242    1601.4568    81.562514 
   23300    1125.0311   -103.89343    1.0179518   -102.87548    9859.2385     4.327002     4.327002     4.327002    9859.2385    28324.133    14553.733   -13300.151    19775.902   -4463.0347    11125.247    81.014224 
   23400    1417.5816   -104.16451    1.2826576   -102.88185   -8164.0464    4.3346303    4.3346303    4.3346303   -8164.0464    26072.013   -31159.006   -19405.146    14321.656    2061.1644    25091.568    81.443457 
   23500    1695.8155   -104.40379    1.5344095   -102.86938    21618.202    4.3384791    4.3384791    4.3384791    21618.202    54689.739    50273.386   -40108.517   -13917.125   -7027.9244   -3652.1733    81.660592 
   23600    1158.6935   -103.93114    1.0484102   -102.88273   -31687.502    4.3319998    4.3319998    4.3319998   -31687.502    1048.7867   -56248.426   -39862.867    20361.622    10092.822    33317.374     81.29527 
   23700    1510.4237   -104.23954    1.3666631   -102.87288    1838.8765    4.3248482    4.3248482    4.3248482    1838.8765   -24212.408    25123.196    4605.8419    5985.5314   -6442.7424   -8534.6287    80.893312 
   23800    1297.9498   -104.06001    1.1744123    -102.8856   -7637.7017    4.3381425    4.3381425    4.3381425   -7637.7017    64445.314   -20295.472   -67062.947   -3674.1405    7817.8507    26656.834    81.641587 
   23900    1330.5346   -104.08266    1.2038957   -102.87877   -12030.812    4.3522553    4.3522553    4.3522553   -12030.812    15688.054   -4861.9797   -46918.509    3794.1309    10809.608   -1479.1702    82.440967 
   24000    1701.6469   -104.40101    1.5396859   -102.86133    4448.7012    4.3330594    4.3330594    4.3330594    4448.7012    42516.109    5060.0674   -34230.073   -18336.347    7.6993942     13257.88    81.354938 
   24100    1229.5784   -103.98064    1.1125483   -102.86809   -18218.898    4.3290803    4.3290803    4.3290803   -18218.898    4914.5542   -22714.555   -36856.694    33673.379    13238.375    14389.103    81.131018 
   24200    1213.4424   -103.98185    1.0979482    -102.8839    17560.346    4.3275875    4.3275875    4.3275875    17560.346    42091.757    18671.409   -8082.1269    17039.694    2961.6446    547.64816     81.04712 
   24300    1826.7269   -104.53559    1.6528609   -102.88273   -11843.828    4.3354544    4.3354544    4.3354544   -11843.828     43830.78   -29570.243   -49792.022   -23821.009   -4208.9092    30059.983    81.489915 
   24400     1348.018   -104.09733     1.219715   -102.87761   -21162.227     4.337697     4.337697     4.337697   -21162.227   -45775.001   -6173.1556   -11538.525    32900.476    1118.0376   -5239.9592     81.61644 
   24500    1001.0978   -103.78478   0.90581428   -102.87896     7332.014    4.3301209    4.3301209    4.3301209     7332.014    48530.893     1372.399    -27907.25   -2437.9637   -8805.3919    25542.604    81.189537 
   24600    1777.7078   -104.48242    1.6085074   -102.87391    11391.235    4.3348873    4.3348873    4.3348873    11391.235     80734.31   -12819.975   -33740.631    4755.1323   -3944.7029    2586.7594    81.457944 
   24700     1295.996   -104.05407    1.1726444   -102.88143   -20136.278     4.340023     4.340023     4.340023   -20136.278   -34721.417   -15075.783   -10611.635    24065.345    10920.195    13108.279    81.747802 
   24800    1149.3294   -103.91979    1.0399374   -102.87986    2533.9434     4.327425     4.327425     4.327425    2533.9434    20155.994   -10271.547   -2282.6171   -46499.172   -8211.3513    15595.547    81.037989 
   24900    1950.3103   -104.63399    1.7646818   -102.86931   -1598.1887    4.3281523    4.3281523    4.3281523   -1598.1887    38644.707   -18246.032   -25193.241    21940.322    7511.0604   -4046.1831    81.078856 
   25000    933.40592    -103.7263    0.8445653   -102.88173    7404.4332    4.3311677    4.3311677    4.3311677    7404.4332    40399.301   -16574.002   -1611.9991   -6614.6936    -7703.962    21191.924    81.248431 
   25100     1731.017   -104.43511    1.5662605   -102.86885   -4956.7926    4.3475786    4.3475786    4.3475786   -4956.7926   -32927.846   -5153.5289    23210.998   -9858.8471   -6320.0012   -1898.0074    82.175496 
   25200    1487.7675   -104.19912    1.3461633   -102.85296   -5473.8112    4.3459779    4.3459779    4.3459779   -5473.8112    17083.269    8445.3942   -41950.097    10732.179    654.12555    24762.315    82.084759 
   25300    834.74796   -103.61704   0.75529749   -102.86175   -11770.699    4.3251196    4.3251196    4.3251196   -11770.699   -17032.246   -24375.073    6095.2207   -50664.177   -5145.2809    7131.9653    80.908537 
   25400    1850.9886    -104.5302    1.6748134   -102.85539    45946.147     4.320141     4.320141     4.320141    45946.147    90376.662    22812.614    24649.167    6957.8297      13368.9    7435.1578    80.629461 
   25500    1187.8814   -103.95806      1.07482   -102.88324   -14485.079    4.3429162    4.3429162    4.3429162   -14485.079    7562.1302   -60852.569    9835.2024   -44908.846   -1575.1816    18479.891    81.911401 
   25600    1208.2528   -103.95293    1.0932525   -102.85968   -26370.729    4.3475528    4.3475528    4.3475528   -26370.729   -29425.462   -401.25674    -49285.47   -4894.2486   -12610.741     1400.678    82.174032 
   25700    1709.1836   -104.39681    1.5465052   -102.85031   -3694.0008     4.322741     4.322741     4.322741   -3694.0008    13835.401   -40680.166    15762.763   -5729.0553     3825.674    13313.571    80.775124 
   25800    1537.2728   -104.25733    1.3909568   -102.86637     5977.337    4.3168688    4.3168688    4.3168688     5977.337    10643.176   -5724.8652      13013.7   -28276.408   -14769.994    1815.3562    80.446386 
   25900     1164.683   -103.93037    1.0538296   -102.87654   -6745.8837      4.32906      4.32906      4.32906   -6745.8837    48851.717   -10747.525   -58341.843    20408.827     9868.493    9056.9703    81.129874 
   26000    1532.6394   -104.25313    1.3867643   -102.86637   -24008.598    4.3535544    4.3535544    4.3535544   -24008.598   -1308.5572   -49585.391   -21131.845   -18834.085   -6885.4829    1047.0677    82.514812 
   26100     1696.508   -104.40655    1.5350361   -102.87151   -13589.524     4.333738     4.333738     4.333738   -13589.524   -11912.293   -7610.8335   -21245.447    5204.8872   -15447.971   -837.46278    81.393166 
   26200    1181.5096   -103.93118    1.0690547   -102.86213    26836.386    4.3114141    4.3114141    4.3114141    26836.386    62454.745     8918.553    9135.8592    23613.679    9179.4922     12119.61    80.141821 
   26300     1641.877    -104.3457    1.4856048   -102.86009    9913.8092    4.3298478    4.3298478    4.3298478    9913.8092    81436.364   -13706.983   -37987.953    708.97262   -11065.113   -1449.7413    81.174176 
   26400     1010.438   -103.79955   0.91426556   -102.88528    -22483.36     4.343007     4.343007     4.343007    -22483.36   -46994.712    -29446.08    8990.7133    29236.571    15891.624    11550.103    81.916539 
   26500    1778.3626   -104.48345    1.6090999   -102.87435   -10056.843    4.3345353    4.3345353    4.3345353   -10056.843   -9642.2522   -28598.567    8070.2905   -3438.4245   -6817.8176    920.11647      81.4381 
   26600    1251.1607    -104.0053    1.1320765   -102.87323    27855.756    4.3157409    4.3157409    4.3157409    27855.756    68364.547   -13815.744    29018.464    2945.0201   -5703.2079   -1631.4378    80.383349 
   26700    1072.8859   -103.85889   0.97076973   -102.88812   -9919.3167    4.3301093    4.3301093    4.3301093   -9919.3167   -8536.6711   -17404.126   -3817.1528    15644.977     734.8929    7250.3376    81.188885 
   26800    1617.0418   -104.34074    1.4631334    -102.8776   -6440.4107    4.3432579    4.3432579    4.3432579   -6440.4107    31228.305   -52433.412    1883.8745   -26598.933   -1602.5743   -5658.0778    81.930735 
   26900    1962.3139   -104.64042    1.7755429   -102.86488   -12477.902    4.3370865    4.3370865    4.3370865   -12477.902    14628.325   -29238.194   -22823.836    19188.154    19396.178    13170.184    81.581984 
   27000    641.72981   -103.46046   0.58065062   -102.87981    21745.066    4.3150541    4.3150541    4.3150541    21745.066     96843.88   -21256.361   -10352.321     -29627.6     8115.146   -6113.0758    80.344979 
   27100    1573.7534   -104.32135    1.4239652   -102.89738   -9479.0734    4.3220839    4.3220839    4.3220839   -9479.0734    22616.942   -40496.826   -10557.336   -9743.5804    449.14529    12763.415    80.738295 
   27200    1898.1593   -104.60417    1.7174944   -102.88668    10494.903    4.3405639    4.3405639    4.3405639    10494.903    37919.761   -33315.268    26880.217    -5498.746    6151.6566   -1007.5399    81.778372 
   27300    766.40891   -103.58274   0.69346289   -102.88928   -39918.721     4.348001     4.348001     4.348001   -39918.721   -4761.9314    -65967.63   -49026.603   -29819.315    6030.9717    9471.3356    82.199451 
   27400    1327.9367   -104.07218     1.201545   -102.87063    24615.415    4.3251622    4.3251622    4.3251622    24615.415     54730.34   -34705.754    53821.659     29713.01   -6363.7479    7675.5764     80.91093 
   27500    1786.3887   -104.48665     1.616362   -102.87029   -11304.946    4.3308174    4.3308174    4.3308174   -11304.946    3036.0221   -44883.039    7932.1784   -24118.575   -206.91687   -5622.1544    81.228719 
   27600    1277.3778   -104.02928    1.1557983   -102.87348    -20990.06    4.3344196    4.3344196    4.3344196    -20990.06   -3891.1122   -47216.604   -11862.464    10658.676    4116.8472    13381.161    81.431581 
   27700    1234.2853   -103.99673    1.1168072   -102.87992    13826.747    4.3386374    4.3386374    4.3386374    13826.747    93394.244   -46502.059   -5411.9445    27102.082   -3027.8568   -4103.9847    81.669531 
   27800     1889.816   -104.58943    1.7099452   -102.87949    -5860.274    4.3358802    4.3358802    4.3358802    -5860.274    43896.564   -34578.737   -26898.649   -24132.959    16328.107   -2224.9197    81.513929 
   27900    1008.3143   -103.80735   0.91234393   -102.89501   -2360.7708     4.321136     4.321136     4.321136   -2360.7708    35023.513   -54446.464    12340.638    57216.733   -7456.4285    6329.2937    80.685186 
   28000     1815.699   -104.54112    1.6428826   -102.89823    9406.3371    4.3327123    4.3327123    4.3327123    9406.3371    53780.775   -22217.099   -3344.6646   -8424.9832   -4753.4044   -7120.8225    81.335389 
   28100    1133.4478   -103.92957    1.0255674     -102.904   -29514.378    4.3454573    4.3454573    4.3454573   -29514.378   -22858.288   -61072.347   -4612.4978    37006.284   -5199.3336    5897.2902    82.055266 
   28200    1142.2465   -103.91743    1.0335286    -102.8839   -1014.5197    4.3202406    4.3202406    4.3202406   -1014.5197    1682.3385   -24767.617     20041.72    8676.3405   -10639.449    3521.7305    80.635041 
   28300    1598.9779   -104.31658    1.4467888   -102.86979    31087.775    4.3148704    4.3148704    4.3148704    31087.775    63640.082    9299.9798    20323.265    2318.7829    -2375.927   -3706.1861    80.334714 
   28400    1571.1536   -104.30109    1.4216128   -102.87948   -4005.8171     4.334469     4.334469     4.334469   -4005.8171      38663.1   -43196.466   -7484.0854    29433.989   -14753.576    10569.743    81.434363 
   28500    1253.0768   -104.00616    1.1338103   -102.87235   -3177.6244    4.3393098    4.3393098    4.3393098   -3177.6244    15994.612   -16927.307   -8600.1781    -35312.14   -1205.3156    -8536.795    81.707509 
   28600    1431.8071   -104.16328    1.2955292   -102.86775    9411.6051    4.3257538    4.3257538    4.3257538    9411.6051    32884.597   -6554.6356    1904.8544    33133.953    7113.7102    8100.0218    80.944134 
   28700     1515.128   -104.24522    1.3709196    -102.8743    25841.858    4.3190439    4.3190439    4.3190439    25841.858    92692.625   -27434.681    12267.631   -22340.753   -920.56034   -2124.1125    80.568051 
   28800    1443.4084   -104.19266    1.3060262   -102.88663   -16582.509    4.3375993    4.3375993    4.3375993   -16582.509    -11493.84   -24301.156   -13952.531   -174.95457    9471.9427   -1610.7147     81.61092 
   28900    1321.1346   -104.06773    1.1953903   -102.87234    13470.249    4.3329871    4.3329871    4.3329871    13470.249    65663.272    -24012.19   -1240.3341    4302.2744   -1081.7217    8176.9567    81.350865 
   29000    1078.6396   -103.85091    0.9759758   -102.87493    5242.5823    4.3317218    4.3317218    4.3317218    5242.5823    36314.574   -23094.447      2507.62   -18657.962   -11438.971     384.9358    81.279619 
   29100    1440.0102   -104.18273    1.3029515   -102.87978   -17142.425    4.3296968    4.3296968    4.3296968   -17142.425    22226.599   -21616.388   -52037.485    7709.2672    19411.901    5653.2515    81.165683 
   29200    1728.1926    -104.4435     1.563705    -102.8798   -6117.1007     4.329094     4.329094     4.329094   -6117.1007   -24636.673   -2465.8174    8751.1886   -37993.308   -25.833935    1497.6262    81.131788 
   29300     1299.094   -104.05486    1.1754475   -102.87941    24564.094    4.3325945    4.3325945    4.3325945    24564.094    89699.968    23559.801   -39567.486     925.7135    14375.412    1723.9372    81.328757 
   29400    1059.2683   -103.83559    0.9584482   -102.87714   -26584.747    4.3460131    4.3460131    4.3460131   -26584.747    10501.696   -35070.447   -55185.489    -24508.18    8166.4332   -2757.3615    82.086758 
   29500    1815.0976   -104.49774    1.6423384    -102.8554    13960.565    4.3342655    4.3342655    4.3342655    13960.565    50714.626   -1669.1723   -7163.7584   -20427.783   -6583.7448   -7373.4434    81.422895 
   29600     1418.935   -104.14799    1.2838822    -102.8641   -9132.8139    4.3242041    4.3242041    4.3242041   -9132.8139    4097.9295    9739.6858   -41236.057    8179.6173    6450.6275    4793.7884    80.857176 
   29700    1183.6103   -103.94687    1.0709554   -102.87591   -20480.047     4.326031     4.326031     4.326031   -20480.047   -19266.499   -16277.791   -25895.853    -24081.45   -18064.739   -7330.0811      80.9597 
   29800    1670.0032   -104.38407     1.511054   -102.87301    10500.309    4.3403773    4.3403773    4.3403773    10500.309    59354.845   -2433.2666   -25420.652    2273.9486    1443.4936    5658.2288    81.767828 
   29900    1169.6954   -103.94556     1.058365    -102.8872   -9049.2989    4.3366439    4.3366439    4.3366439   -9049.2989      21340.3   -10959.549   -37528.649   -14528.451    -2889.449    2605.0084    81.557009 
   30000    1176.9522   -103.94459    1.0649311   -102.87966    12615.306     4.320686     4.320686     4.320686    12615.306    15980.951    48279.514   -26414.547   -19895.498   -26100.796    852.85638     80.65998 
   30100    1958.3024   -104.64556    1.7719131   -102.87364     5444.067    4.3260462    4.3260462    4.3260462     5444.067      28581.9   -15192.518    2942.8183    8766.2959    5432.2615     5630.177    80.960551 
   30200    639.64006   -103.48002   0.57875976   -102.90126    -17631.09    4.3445269    4.3445269    4.3445269    -17631.09    -41066.75    48359.864   -60186.385   -21906.395   -31560.568   -10373.111    82.002573 
   30300     1896.443   -104.60188    1.7159415   -102.88594   -18629.916    4.3426728    4.3426728    4.3426728   -18629.916   -19030.104    4432.3937   -41292.037    625.36524   -7341.6856    4794.0535    81.897631 
   30400    1616.1891   -104.33803    1.4623618   -102.87567    40511.533    4.3123258    4.3123258    4.3123258    40511.533    46463.917    77258.324   -2187.6413    -8415.933   -15253.524     846.8174    80.192676 
   30500    639.87699   -103.47902   0.57897415   -102.90005    -8268.979    4.3300457    4.3300457    4.3300457    -8268.979   -27296.476    45048.358   -42558.819   -35263.105   -14968.655   -2926.2209    81.185305 
   30600    1635.7314   -104.35838    1.4800442   -102.87833    5120.1168    4.3442212    4.3442212    4.3442212    5120.1168   -78.206398      53125.8   -37687.243    13089.446    11344.997    6796.3533     81.98526 
   30700    1486.1488   -104.22287    1.3446987   -102.87818   -34713.197    4.3457354    4.3457354    4.3457354   -34713.197    -41593.11   -9043.1812   -53503.301   -14653.301    -18494.66   -1899.9166    82.071023 
   30800    1281.9729   -104.03893     1.159956   -102.87898    9715.5831    4.3150549    4.3150549    4.3150549    9715.5831   -3747.4496     73156.22   -40262.021   -11952.361    22893.936   -23.136545    80.345024 
   30900    2069.8115   -104.75428    1.8728089   -102.88147    12160.845     4.313046     4.313046     4.313046    12160.845    1961.6233    50791.547   -16270.634     5264.469   -4459.9986    7712.4304    80.232862 
   31000     941.5794    -103.7602   0.85196083   -102.90824   -1949.1278      4.34123      4.34123      4.34123   -1949.1278   -48107.027    106273.54   -64013.898   -28242.614    18709.295   -2640.6853    81.816028 
   31100    1367.5245   -104.13548    1.2373649   -102.89811   -42807.411    4.3556906    4.3556906    4.3556906   -42807.411   -17232.675   -23883.654   -87305.903    8479.8839    4947.3838    6159.4114     82.63634 
   31200    1889.9849   -104.58204     1.710098   -102.87194    3561.3106    4.3319764    4.3319764    4.3319764    3561.3106      4536.99    49475.285   -43328.343    -615.2981    6404.9432   -4767.1771    81.293952 
   31300    701.33754   -103.51798   0.63458495   -102.88339    6823.9252    4.3203718    4.3203718    4.3203718    6823.9252    13041.427     62045.94   -54615.591   -30781.035    18252.532    8749.4001    80.642386 
   31400    1581.0171   -104.31169    1.4305375   -102.88116     3626.038    4.3358321    4.3358321    4.3358321     3626.038     50077.83    10559.514   -49759.231   -3799.8832   -8040.1728   -9715.7502    81.511214 
   31500    1564.1182   -104.28572     1.415247   -102.87047   -17814.564    4.3620778    4.3620778    4.3620778   -17814.564   -19380.117    30358.381   -64421.956     2167.465    6477.1575    6485.7419    83.000404 
   31600    1212.3949   -103.98875    1.0970004   -102.89175   -37096.983    4.3358564    4.3358564    4.3358564   -37096.983   -7842.7497   -12871.327   -90576.873    936.32504    -13201.09   -3853.1592    81.512586 
   31700    1637.4011   -104.34891    1.4815549   -102.86736    42566.831    4.3012431    4.3012431    4.3012431    42566.831     61880.47    67801.603   -1981.5817    11230.168   -6658.6269   -949.00609    79.575976 
   31800    1405.3103   -104.16798    1.2715543   -102.89643    23188.774    4.3267197    4.3267197    4.3267197    23188.774    6152.3091    105964.28   -42550.266    4805.1936   -8574.2433    4141.3909    80.998373 
   31900    1090.2844   -103.88766   0.98651225   -102.90115    -34039.85    4.3562721    4.3562721    4.3562721    -34039.85    3944.2778   -8380.0911   -97683.738    -2115.609   -8828.5387   -3246.6412    82.669439 
   32000    1451.6937   -104.19579    1.3135229   -102.88227   -6631.0054    4.3429142    4.3429142    4.3429142   -6631.0054   -24480.357    25114.504   -20527.163    29174.226    1965.2417   -4639.4901    81.911286 
   32100    1765.3416   -104.46677    1.5973182   -102.86946   -9688.5367    4.3216305    4.3216305    4.3216305   -9688.5367    1166.2288    21697.752   -51929.591   -4920.3156   -15746.931   -8439.6032    80.712892 
   32200    988.37658   -103.78133    0.8943039   -102.88702    28536.125    4.3176738    4.3176738    4.3176738    28536.125    33283.616    75114.664   -22789.905     23944.26    10650.785   -3619.8316    80.491403 
   32300    1650.4482   -104.38677    1.4933602   -102.89341   -6870.1258    4.3464518    4.3464518    4.3464518   -6870.1258   -38642.249     46554.31   -28522.439    20352.877   -1617.6982    902.71029    82.111617 
   32400     1445.008   -104.19044    1.3074736   -102.88297   -28732.732     4.345808     4.345808     4.345808   -28732.732    3574.7283   -15148.758   -74624.166   -18758.317   -3424.3937    11396.597    82.075136 
   32500    1030.9021    -103.8015   0.93278192   -102.86872    20320.575    4.3172807    4.3172807    4.3172807    20320.575    12143.648    60501.739   -11683.662    23260.221    19330.193    1256.7013    80.469419 
   32600    1795.0391   -104.49374    1.6241891   -102.86955    3845.2466     4.321171     4.321171     4.321171    3845.2466    10177.085     33824.52   -32465.865   -17714.867   -13704.161    7534.4956    80.687148 
   32700    1131.9502   -103.90865    1.0242124   -102.88444    -5066.093    4.3393259    4.3393259    4.3393259    -5066.093    8450.1074    36583.185   -60231.572    13683.959    15997.509    604.73569    81.708421 
   32800    1394.0716   -104.14252    1.2613853   -102.88113    4534.8266    4.3508878    4.3508878    4.3508878    4534.8266   -21989.582    90739.923   -55145.862    6281.7811   -8352.6403    1519.7714    82.363283 
   32900    1710.2926    -104.4255    1.5475087   -102.87799    -15307.98    4.3347689    4.3347689    4.3347689    -15307.98    9373.5698   -371.97805   -54925.531     12354.18   -2860.9529   -276.70506    81.451267 
   33000    855.92417   -103.65557   0.77445818   -102.88111     19666.13    4.3178296    4.3178296    4.3178296     19666.13     14588.32    68643.377   -24233.307    8222.4753   -956.55712   -3813.4804    80.500113 
   33100    1649.3654    -104.3786    1.4923805   -102.88621   -1525.5349    4.3351611    4.3351611    4.3351611   -1525.5349   -14101.146    54951.926   -45427.385    24859.399   -19678.264    2393.6532    81.473375 
   33200     1531.465   -104.27156    1.3857017   -102.88586   -2090.9317    4.3445436    4.3445436    4.3445436   -2090.9317    26531.866    23875.952   -56680.613    -17600.14    5936.9626   -3643.6419    82.003518 
   33300    823.14741   -103.63562   0.74480107   -102.89082   -30217.292    4.3459639    4.3459639    4.3459639   -30217.292   -67565.901    45518.191   -68604.166    18518.356   -14993.808    1128.6003    82.083967 
   33400    2175.8573    -104.8345    1.9687614   -102.86574    18976.538    4.3231676    4.3231676    4.3231676    18976.538    35666.423    31192.422   -9929.2297   -27264.522    11398.778   -840.92763    80.799041 
   33500    881.38825   -103.68622   0.79749862   -102.88872   -4537.5455    4.3289963    4.3289963    4.3289963   -4537.5455   -8118.8668    69285.987   -74779.756    3241.1381   -25653.371    3464.0428    81.126297 
   33600    1192.0694   -103.96458    1.0786095   -102.88597    -27149.11        4.344        4.344        4.344    -27149.11   -30227.353     5402.451    -56622.43    4026.0512    19060.171   -5051.7604    81.972741 
   33700    1818.6981   -104.51284    1.6455963   -102.86725   -7475.2957     4.343135     4.343135     4.343135   -7475.2957   -5820.3564    7963.3017   -24568.832   -17445.781   -14243.714    2936.7648     81.92378 
   33800    964.13401   -103.74672   0.87236871   -102.87435    -17924.55    4.3344721    4.3344721    4.3344721    -17924.55   -13554.409    49403.472   -89622.711    9947.4016   -4539.7538    864.02302    81.434536 
   33900    1654.3983   -104.36361    1.4969344   -102.86667   -12231.363    4.3247623    4.3247623    4.3247623   -12231.363   -17619.764   -2907.8384   -16166.487    3026.2321    17634.862    142.06795     80.88849 
   34000    1226.0835   -103.98524    1.1093861   -102.87586     14412.14    4.3327567    4.3327567    4.3327567     14412.14   -2948.9793    77374.429   -31189.029   -21844.229    -15229.75    8408.8256    81.337891 
   34100    1378.0653   -104.12804    1.2469025   -102.88114   -37266.984    4.3400772    4.3400772    4.3400772   -37266.984    -41160.46   -7203.4315    -63437.06     20463.85    18778.005   -7873.6986    81.750868 
   34200    1295.5314   -104.04667    1.1722241   -102.87444    -15287.49    4.3405688    4.3405688    4.3405688    -15287.49   -23011.047   -316.15365   -22535.269   -55319.867   -2749.5045    7404.7716    81.778647 
   34300    1482.8337   -104.20989    1.3416991   -102.86819    6880.8538    4.3256089    4.3256089    4.3256089    6880.8538    681.42996    35553.772    -15592.64    18235.415    14929.655   -12692.092    80.936001 
   34400    1313.1241   -104.06554    1.1881423   -102.87739   -18622.129    4.3323184    4.3323184    4.3323184   -18622.129   -10397.919   -18689.972   -26778.497   -51187.955   -7270.4216    2627.9842     81.31321 
   34500    1299.2341   -104.04728    1.1755744   -102.87171    7018.1904    4.3387464    4.3387464    4.3387464    7018.1904    16503.592    15549.794   -10998.815    -10200.91    9807.0707    449.16698    81.675687 
   34600    1490.8718   -104.21757    1.3489721   -102.86859   -28637.158     4.343846     4.343846     4.343846   -28637.158   -13983.955   -18891.685   -53035.833   -4113.8505    -6732.847   -18057.893    81.964024 
   34700    1392.1292   -104.13073    1.2596278   -102.87111   -13747.538    4.3359172    4.3359172    4.3359172   -13747.538    -6596.187   -35026.276    379.84856   -37840.392    3680.1463    16349.048    81.516017 
   34800    1362.6849   -104.10867    1.2329859   -102.87569    25827.237    4.3311081    4.3311081    4.3311081    25827.237    81784.474    32078.127   -36380.891    20940.032    5447.1868   -13781.961    81.245078 
   34900    1046.9513   -103.84403   0.94730356   -102.89673   -6510.4242    4.3298589    4.3298589    4.3298589   -6510.4242    33687.916   -24375.426   -28843.762   -31610.165   -10286.569    7282.1652    81.174802 
   35000    1713.6334   -104.44247    1.5505315   -102.89193    15504.695    4.3415397    4.3415397    4.3415397    15504.695    16232.982    40268.566   -9987.4634   -15182.965   -8280.0991   -91.043027    81.833541 
   35100    1725.1175   -104.44356    1.5609225   -102.88264   -7569.3464     4.340921     4.340921     4.340921   -7569.3464    26107.007   -5588.6048   -43226.442    1974.9886   -6856.8579    -17417.16    81.798558 
   35200    629.53687   -103.44884   0.56961819   -102.87922    31697.087    4.3266792    4.3266792    4.3266792    31697.087    68644.797    34788.386   -8341.9218   -48766.796   -12709.496    17958.455    80.996098 
   35300    2472.2043   -105.09813    2.2369024   -102.86123   -4610.0284    4.3379337    4.3379337    4.3379337   -4610.0284    7868.5235    -12027.78   -9670.8291    26042.988   -13215.242   -21711.222    81.629801 
   35400    697.80334   -103.51001   0.63138713   -102.87862    15262.195    4.3430384    4.3430384    4.3430384    15262.195    50520.819    17136.309   -21870.543   -37169.737     -11475.8    9527.2662    81.918313 
   35500    1767.1755   -104.45737    1.5989775   -102.85839    23.484878    4.3473129    4.3473129    4.3473129    23.484878    26466.017   -12178.707   -14216.855    7618.8177   -7675.2574    1201.3988    82.160431 
   35600    1281.8804   -104.01944    1.1598723   -102.85957    21188.142    4.3399362    4.3399362    4.3399362    21188.142    47069.574    17095.216   -600.36474   -25035.644   -3375.6911   -16641.828    81.742898 
   35700    1235.7693   -103.98121      1.11815   -102.86306    300.47533    4.3374667    4.3374667    4.3374667    300.47533    9075.8214    5465.0372   -13639.433   -24590.751   -8572.1611    17051.973     81.60344 
   35800    2000.4102   -104.66294    1.8100132   -102.85293    11409.227    4.3431067    4.3431067    4.3431067    11409.227    40875.732    18729.044   -25377.096   -7648.0101   -1948.8212   -12872.405    81.922179 
   35900    621.71779   -103.44405   0.56254332    -102.8815   -3329.0132    4.3447393    4.3447393    4.3447393   -3329.0132   -33147.554    30745.471   -7584.9571   -37637.015   -3448.8974    8950.7817    82.014602 
   36000    1975.3185   -104.64839    1.7873097   -102.86108    755.01433    4.3400613    4.3400613    4.3400613    755.01433    35136.037     3618.184   -36489.178    496.56198   -4932.9804    14088.893    81.749967 
   36100     1060.024   -103.82965   0.95913203   -102.87052    25341.731    4.3363163    4.3363163    4.3363163    25341.731   -7219.8526    40646.208    42598.838   -26155.797   -13197.653   -1294.8717    81.538524 
   36200    1358.3879   -104.09883    1.2290979   -102.86973   -34308.427    4.3451317    4.3451317    4.3451317   -34308.427   -16551.558   -42072.405   -44301.317   -6096.6592   -9514.7542    15290.483    82.036821 
   36300    1518.3064   -104.23097    1.3737956   -102.85717    17884.923    4.3433805    4.3433805    4.3433805    17884.923    23528.376    32297.558   -2171.1646   -7906.8414    7703.3432   -12254.306    81.937675 
   36400    1079.5249   -103.84488   0.97677683    -102.8681    -19912.07    4.3427226    4.3427226    4.3427226    -19912.07   -40568.712   -25616.869    6449.3694    -15623.77   -21732.242    33109.452    81.900445 
   36500    1878.6573    -104.5558    1.6998486   -102.85595   -12093.502    4.3459692    4.3459692    4.3459692   -12093.502    10493.323   -8679.4977   -38094.332   -2703.3728    16718.461     2295.091    82.084271 
   36600    968.06881   -103.73859     0.875929   -102.86266   -17949.696    4.3519411    4.3519411    4.3519411   -17949.696   -68864.512   -30262.763    45278.186   -36938.924   -23207.801     9675.222    82.423114 
   36700    1345.2639   -104.08218    1.2172231   -102.86496    -196.7683    4.3398619    4.3398619    4.3398619    -196.7683   -534.68947   -18025.394    17969.778    4925.0967    510.74341    31919.834    81.738699 
   36800    1691.1399   -104.39662    1.5301789   -102.86644   -10027.298    4.3375989    4.3375989    4.3375989   -10027.298   -21026.741   -4585.9869   -4469.1674   -22920.463   -249.56933   -23521.985    81.610901 
   36900     805.8993   -103.60979   0.72919463    -102.8806   -29717.153    4.3586968    4.3586968    4.3586968   -29717.153     -17078.4   -18133.244   -53939.815   -1042.7391   -19394.282    34524.531    82.807557 
   37000    1840.2496   -104.51058    1.6650965   -102.84549   -6075.1238    4.3572696    4.3572696    4.3572696   -6075.1238    -24840.43   -3902.0038    10517.062    4305.1364   -499.18032   -8795.0354    82.726243 
   37100    1097.0235   -103.84026   0.99260995   -102.84765   -19276.053    4.3496676    4.3496676    4.3496676   -19276.053    -19401.66   -55021.386    16594.886   -22705.044   -21685.792    10758.454    82.294008 
   37200    1441.4377   -104.14505    1.3042431   -102.84081    16771.879    4.3456806    4.3456806    4.3456806    16771.879    21315.409    16755.585    12244.643    3952.7008    -20060.51    12960.856    82.067914 
   37300    1227.1923   -103.96016    1.1103894   -102.84977   -11062.201    4.3598973    4.3598973    4.3598973   -11062.201    6830.9727   -42066.342    2048.7662   -18763.535    9232.4411   -9076.5682    82.875998 
   37400     1239.422   -103.95501    1.1214551   -102.83355    6042.5789    4.3585004    4.3585004    4.3585004    6042.5789    21563.827   -6862.3034     3426.213   -9907.3972   -12402.838    35615.062    82.796365 
   37500    1377.2874   -104.06381    1.2461986   -102.81762    10788.395    4.3512391    4.3512391    4.3512391    10788.395    20596.493    40958.065   -29189.373   -15972.281    7048.8003    -17881.26    82.383238 
   37600    1132.9889   -103.87107    1.0251522   -102.84592   -30613.773    4.3490454    4.3490454    4.3490454   -30613.773    -22063.44   -37008.739   -32769.142   -13275.412   -11205.308    37290.884    82.258697 
   37700    1349.6369   -104.06546    1.2211798   -102.84428    44488.772     4.336472     4.336472     4.336472    44488.772    46730.672    34134.454     52601.19    4833.2828    14797.758   -6071.2715    81.547309 
   37800    1205.6437   -103.95169    1.0908917   -102.86079   -22136.137    4.3476905    4.3476905    4.3476905   -22136.137   -29331.078     -16109.4   -20967.932   -5785.1211   -11962.288    6736.8896    82.181837 
   37900    1513.8632   -104.21427    1.3697752   -102.84449   -21462.798    4.3573745    4.3573745    4.3573745   -21462.798    -10642.73   -23376.829   -30368.836    2347.2851   -1264.1646    7072.2366    82.732218 
   38000    1743.7254   -104.41964    1.5777594   -102.84188   -2662.5099    4.3455939    4.3455939    4.3455939   -2662.5099   -19593.416    1926.0811    9679.8048    -11745.83    2119.3034   -5091.5878    82.063005 
   38100    948.58182   -103.72541   0.85829677   -102.86711    -12402.96      4.33728      4.33728      4.33728    -12402.96   -14300.161    3378.7037   -26287.423   -14536.148    -20534.84     35072.15      81.5929 
   38200    1827.6518   -104.52277    1.6536978   -102.86907    17923.779    4.3400784    4.3400784    4.3400784    17923.779   -9944.5742    14645.587    49070.323   -3165.7968    21448.282   -26816.267    81.750936 
   38300    1153.1129   -103.91534    1.0433608   -102.87198   -17791.724    4.3612728    4.3612728    4.3612728   -17791.724   -33021.578   -15818.952    -4534.641   -2017.0161   -4380.5529     29678.99    82.954464 
   38400    1609.7532   -104.30065    1.4565386   -102.84411   -12321.922    4.3610918    4.3610918    4.3610918   -12321.922   -47137.992    4994.4388    5177.7869    2963.9742    13142.895    905.05961    82.944138 
   38500    1575.3961   -104.26372    1.4254515   -102.83827   -7230.4911    4.3493233    4.3493233    4.3493233   -7230.4911    13545.733   -20544.671   -14692.536   -1314.3258    4353.9491    21074.985    82.274467 
   38600    1224.6152   -103.95571    1.1080575   -102.84765   -4955.4633    4.3388879    4.3388879    4.3388879   -4955.4633   -19220.862    5740.2262   -1385.7543   -9065.7286   -18657.431    23742.071    81.683677 
   38700    1685.9337   -104.38261    1.5254683   -102.85714   -10105.009    4.3598762    4.3598762    4.3598762   -10105.009   -14634.009   -2408.3925   -13272.626    -3318.939    1612.6998   -8182.7924    82.874794 
   38800    999.34716   -103.75602   0.90423032   -102.85179   -6918.1998    4.3581635    4.3581635    4.3581635   -6918.1998    15284.677   -33508.576   -2530.7003   -8636.0387   -15476.577    30015.878    82.777167 
   38900    1587.2893   -104.28058    1.4362128   -102.84436    19.867969    4.3360185    4.3360185    4.3360185    19.867969   -36454.468    62498.832   -25984.761   -535.26711    8178.9654   -8123.8274    81.521728 
   39000    1281.9263   -104.01996    1.1599138   -102.86004    13905.459    4.3376029    4.3376029    4.3376029    13905.459    19583.413    -37434.54    59567.503     5922.244    24728.058    26240.528    81.611126 
   39100     1374.866   -104.11176    1.2440076   -102.86776   -39033.056    4.3576937    4.3576937    4.3576937   -39033.056   -61539.485   -555.80621   -55003.877   -2089.3426   -35749.614    13644.512    82.750401 
   39200    1215.1667   -103.94724    1.0995084   -102.84773    11041.337    4.3563054    4.3563054    4.3563054    11041.337    20327.435    49.428876    12747.149    7116.9512    21448.209    -6029.846    82.671334 
   39300    1934.1312   -104.58305    1.7500426   -102.83301   -14543.935    4.3413465    4.3413465    4.3413465   -14543.935   -30966.321   -2949.1296   -9716.3557    1941.4317   -35573.022    9055.9729    81.822612 
   39400    1162.0572   -103.89743    1.0514538   -102.84597   -15364.986    4.3486796    4.3486796    4.3486796   -15364.986    9706.4325   -10322.358   -45479.032    3506.5627    9399.9334   -11929.277    82.237941 
   39500    1697.2866   -104.36952    1.5357405   -102.83378    8530.3865    4.3491033    4.3491033    4.3491033    8530.3865    -6099.905    2958.9202    28732.144     666.3269   -3622.7882    3118.8127     82.26198 
   39600    1084.7516   -103.83008   0.98150606   -102.84857   -13578.802    4.3576806    4.3576806    4.3576806   -13578.802    11806.961    21218.761   -73762.127    3549.1883   -18129.912   -597.28368    82.749653 
   39700    1880.8569   -104.54778    1.7018388   -102.84594   -9753.8227    4.3404471    4.3404471    4.3404471   -9753.8227   -13048.419   -6600.6612   -9612.3878   -1219.0625    24466.538   -6995.3946    81.771772 
   39800    957.46073   -103.72417   0.86633059   -102.85784     53628.51    4.3245246    4.3245246    4.3245246     53628.51      61489.9    107743.86   -8348.2304    13732.647   -44225.229    3558.6169    80.875151 
   39900    2058.9988   -104.71961    1.8630254   -102.85658   -23015.457    4.3589852    4.3589852    4.3589852   -23015.457   -24974.428   -1491.3419   -42580.601    3422.8539    23743.604   -14597.842    82.823994 
   40000    805.32742   -103.58502   0.72867718   -102.85634    24337.919    4.3591859    4.3591859    4.3591859    24337.919    38796.408    92888.528   -58671.178    1728.4188   -51759.414    2146.0227    82.835435 
   40100    2064.9275   -104.69846    1.8683898   -102.83007   -6041.3665    4.3532984    4.3532984    4.3532984   -6041.3665   -23338.384   -15314.032    20528.317    2557.7075    9475.3401   -6383.9605    82.500257 
   40200    1036.1843   -103.77255   0.93756136   -102.83498    7987.4607     4.342549     4.342549     4.342549    7987.4607    33571.455    51474.137    -61083.21   -8546.9251   -34255.822   -17366.283    81.890622 
   40300    1577.9158   -104.28027    1.4277314   -102.85254    19190.974    4.3471074    4.3471074    4.3471074    19190.974   -10054.233    2943.2957    64683.861   -1817.7407   -7843.2366    13943.787    82.148781 
   40400    1660.6846   -104.36232    1.5026224    -102.8597    -17366.13     4.354601     4.354601     4.354601    -17366.13   -6535.6539   -17649.475   -27913.262   -1235.9543   -8187.8523    -16890.59    82.574336 
   40500    1067.6769   -103.82505   0.96605652   -102.85899    30476.948    4.3453492    4.3453492    4.3453492    30476.948     10369.43    42934.505    38126.909   -1216.4388   -38848.366    7401.1222    82.049142 
   40600    1754.7019   -104.43554    1.5876911   -102.84785   -8707.0471     4.360583     4.360583     4.360583   -8707.0471   -10244.278    3097.2521   -18974.115   -5196.8728    1990.3307    -14224.92    82.915107 
   40700    786.56802   -103.56819   0.71170327   -102.85648    697.12611    4.3455153    4.3455153    4.3455153    697.12611    21852.526   -19700.422   -60.725333    1200.7606   -42890.773   -21410.963     82.05855 
   40800    2205.0646   -104.84043    1.9951888   -102.84524    10975.822    4.3328365    4.3328365    4.3328365    10975.822    260.44476   -20649.715    53316.737   -8930.7549    11637.377    7773.3682    81.342387 
   40900    789.47627     -103.595   0.71433472   -102.88067    13409.048    4.3444411    4.3444411    4.3444411    13409.048    13785.882   -3874.4818    30315.743   -1261.4226   -53204.848   -12420.365     81.99771 
   41000    1689.4145   -104.38954    1.5286177   -102.86092   -32132.177    4.3631285    4.3631285    4.3631285   -32132.177   -23911.185   -51146.393   -21338.954   -1421.0237    5892.8098   -16524.662    83.060401 
   41100    1012.6239   -103.77043   0.91624342   -102.85419    40628.615     4.332912     4.332912     4.332912    40628.615    31462.716    23503.139    66919.992   -1285.7517    -19675.65   -744.26594    81.346638 
   41200    1583.2247   -104.29305    1.4325349   -102.86051   -11312.576    4.3278316    4.3278316    4.3278316   -11312.576   -10603.806   -9827.3229     -13506.6   -6037.7414   -35031.902   -13024.094    81.060832 
   41300    1734.5494   -104.42832    1.5694567   -102.85886     3395.125    4.3511652    4.3511652    4.3511652     3395.125    22143.987   -35192.413    23233.801   -6818.6846    1587.5305    6268.8814    82.379036 
   41400    881.59582   -103.65874   0.79768643   -102.86105   -15130.371    4.3547137    4.3547137    4.3547137   -15130.371   -41366.094    17168.054   -21193.073   -1858.7715   -43962.576    -20520.33    82.580748 
   41500    1738.9112   -104.40823    1.5734034   -102.83482    12173.319    4.3455899    4.3455899    4.3455899    12173.319    19306.675   -21127.158    38340.441   -5363.8357    20963.322   -4248.0269    82.062777 
   41600    1474.9881    -104.1848    1.3346002    -102.8502   -14739.837    4.3295999    4.3295999    4.3295999   -14739.837    -27840.04    4443.1214   -20822.592    1225.7046   -55354.567   -1182.5799    81.160233 
   41700    1259.9036   -104.01205    1.1399873   -102.87206    9456.3815    4.3396588    4.3396588    4.3396588    9456.3815     47092.35   -32375.049    13651.844   -6523.5677    2922.8968   -26527.034    81.727225 
   41800     1500.962   -104.22822     1.358102   -102.87012   -22564.774    4.3592489    4.3592489    4.3592489   -22564.774   -8879.9673   -30306.726   -28507.627    6131.4753   -18122.083    22298.773    82.839026 
   41900    978.48503   -103.74482   0.88535382   -102.85947   -20227.071    4.3537671    4.3537671    4.3537671   -20227.071    44718.453    -35946.76   -69452.904   -661.04643   -35480.287   -21832.159    82.526907 
   42000    1879.5081   -104.53236    1.7006184   -102.83174    16882.689    4.3259368    4.3259368    4.3259368    16882.689   -12900.263    5200.2365    58348.094   -8334.1867    7240.9011    1867.0213    80.954409 
   42100    948.66771   -103.72744   0.85837448   -102.86907   -14387.948    4.3392388    4.3392388    4.3392388   -14387.948    14627.375   -17151.044   -40640.175    3800.5426   -58890.711    -7829.699    81.703501 
   42200    1780.7705   -104.46195    1.6112785   -102.85067    2491.6243    4.3583101    4.3583101    4.3583101    2491.6243    37437.569   -48177.328    18214.632   -2655.6618    30369.567   -13285.109    82.785522 
   42300    962.54191   -103.72346   0.87092815   -102.85253     13522.62    4.3502308    4.3502308    4.3502308     13522.62    22352.797    39580.225   -21365.162   -6555.4049   -44709.784     8702.873    82.325979 
   42400    1746.2682   -104.41439    1.5800602   -102.83433    1832.3984    4.3387315    4.3387315    4.3387315    1832.3984   -9614.4981    21096.634   -5984.9411   -1607.3643   -12564.928   -26087.391    81.674846 
   42500    1363.1967   -104.07881     1.233449   -102.84536    20273.955    4.3387008    4.3387008    4.3387008    20273.955    14702.832    27587.074    18531.958    4408.0565   -12161.476    16822.006    81.673115 
   42600    1558.9786   -104.26189    1.4105966   -102.85129   -27355.018    4.3541971    4.3541971    4.3541971   -27355.018   -38794.692   -4027.8941   -39242.468   -7823.5179   -26258.586   -21817.928    82.551365 
   42700    1214.3749   -103.94223    1.0987919   -102.84344    30651.766    4.3475732    4.3475732    4.3475732    30651.766    15587.877    35146.325    41221.097   -10266.923    20006.558    3074.4022    82.175187 
   42800    1243.6614   -103.97325    1.1252909   -102.84795    2643.2214    4.3431783    4.3431783    4.3431783    2643.2214    42698.641   -8853.0513   -25915.926    3519.0365   -42274.717   -7669.6831    81.926233 
   42900    1891.3728   -104.55221    1.7113539   -102.84086    10117.527    4.3537419    4.3537419    4.3537419    10117.527    26273.169   -4038.8936    8118.3042    3044.8071    3902.7268   -12158.525    82.525475 
   43000    973.22618   -103.73653    0.8805955   -102.85593   -11559.017    4.3609759    4.3609759    4.3609759   -11559.017    -25441.66    7038.0398   -16273.431     11808.81   -43553.683   -1413.4061    82.937521 
   43100    1659.0706   -104.33641     1.501162   -102.83525    15902.439    4.3612939    4.3612939    4.3612939    15902.439    57081.193   -38295.542    28921.666    15281.489    18973.814   -15539.475    82.955668 
   43200    1296.2702   -104.01489    1.1728925     -102.842    -16956.46    4.3454921    4.3454921    4.3454921    -16956.46   -18870.641    12382.875   -44381.615    9702.6833   -32414.584    2120.0921    82.057239 
   43300    1459.7458   -104.17419    1.3208087   -102.85338    8255.7374    4.3366617    4.3366617    4.3366617    8255.7374      1970.69      1839.14    20957.382    476.15047   -31480.575   -8138.3865     81.55801 
   43400    1267.6277   -104.01761    1.1469762   -102.87063    28848.907     4.346306     4.346306     4.346306    28848.907    74261.599   -5821.9863    18107.108   -8064.0555   -12721.724   -650.86242    82.103353 
   43500    1190.6354   -103.94044     1.077312   -102.86312   -19752.632    4.3776514    4.3776514    4.3776514   -19752.632   -4535.1333   -26309.895   -28412.867   -1535.7611   -18294.695   -5217.1651    83.892574 
   43600    1840.2326    -104.4994    1.6650811   -102.83432   -12480.147    4.3551325    4.3551325    4.3551325   -12480.147    7794.7034   -33704.602   -11530.541   -2295.4342    14161.082   -4055.6173    82.604577 
   43700    1085.1668    -103.8049   0.98188168   -102.82302    29754.692    4.3154081    4.3154081    4.3154081    29754.692    3056.5998    66183.939    20023.539   -16230.993   -40202.134    3490.0497    80.364754 
   43800    1495.0617   -104.21023    1.3527633   -102.85746    26666.835     4.343724     4.343724     4.343724    26666.835    95792.894   -18534.291    2741.9014   -14440.175     12831.44   -7688.4508    81.957117 
   43900    1419.9311   -104.13102    1.2847835   -102.84623   -40089.119    4.3736892    4.3736892    4.3736892   -40089.119   -51558.328   -32742.788   -35966.239   -11601.086   -48292.683   -5307.1502    83.664987 
   44000    1706.2059   -104.37466     1.543811   -102.83085   -6752.5843    4.3601594    4.3601594    4.3601594   -6752.5843    10729.803   -25034.258   -5953.2977    3411.1223    1720.9215    6590.2904    82.890948 
   44100      1100.14   -103.82606   0.99542978   -102.83063    22608.641    4.3391471    4.3391471    4.3391471    22608.641    57543.841    7.0417245    10275.041   -12983.638   -20588.162   -2537.1982    81.698319 
   44200    1493.0542   -104.20073    1.3509469   -102.84978   -7817.5521    4.3362084    4.3362084    4.3362084   -7817.5521    13384.112   -12081.749   -24755.019    7539.2835   -20439.775   -3051.6442    81.532439 
   44300    1806.8776   -104.48878    1.6349008   -102.85388   -12718.686    4.3559344    4.3559344    4.3559344   -12718.686   -20931.264   -28997.728    11772.934     8203.682   -7352.7265   -1452.8196    82.650215 
   44400    1072.2908   -103.81534   0.97023127   -102.84511   -19107.403    4.3724734    4.3724734    4.3724734   -19107.403   -1266.7669   -8366.3619    -47689.08    7701.0371   -56414.872    288.74266    83.595234 
   44500    1634.6235   -104.30029    1.4790417   -102.82125    14179.095    4.3546432    4.3546432    4.3546432    14179.095    84896.604   -45580.332    3221.0115    14123.648    25212.496      2912.06    82.576741 
   44600    1127.5323   -103.84644    1.0202149   -102.82623    12395.136    4.3187213    4.3187213    4.3187213    12395.136   -6076.1337    20992.855    22268.686    11746.063   -65077.176   -11641.323    80.549999 
   44700    1890.1988   -104.56923    1.7102916   -102.85894    8009.8749    4.3315374    4.3315374    4.3315374    8009.8749    40633.016   -17654.154    1050.7619    192.56039   -1405.5672    3437.2092    81.269244 
   44800    1026.4666    -103.7983   0.92876853   -102.86953   -1834.8454    4.3607808    4.3607808    4.3607808   -1834.8454    14556.683   -23889.496     3828.277    4285.2828   -43056.212    350.38743    82.926392 
   44900    1312.2318   -104.03932    1.1873349   -102.85199   -23390.269    4.3549118    4.3549118    4.3549118   -23390.269    27656.044   -48871.263   -48955.587   -3973.4395   -14955.938   -12692.756    82.592019 
   45000    1621.6847   -104.30182    1.4673344   -102.83448    26460.121    4.3124821    4.3124821    4.3124821    26460.121    18287.803   -923.63607    62016.197    6387.4357   -15958.469   -1115.2092    80.201396 
   45100    1161.2189   -103.92339    1.0506952   -102.87269     416.9534    4.3202858    4.3202858    4.3202858     416.9534    27088.647    8208.7397   -34046.527   -11470.146   -55874.745   -8896.5914    80.637568 
   45200    1293.8896   -104.04672    1.1707385   -102.87598    -2990.084    4.3562058    4.3562058    4.3562058    -2990.084    47815.522   -72035.663    15249.889    -7515.599    21886.938   -14862.487    82.665666 
   45300    1330.8018    -104.0656    1.2041374   -102.86147   -36337.964    4.3603597    4.3603597    4.3603597   -36337.964   -37486.188   -7898.5481   -63629.156   -5302.7087   -35771.813    3762.4759    82.902371 
   45400    1674.0491   -104.35213    1.5147148   -102.83741   -5713.6659    4.3369278    4.3369278    4.3369278   -5713.6659    -10330.28   -25808.248    18997.531   -15355.707    8398.8731   -20112.834    81.573024 
   45500    1487.5172   -104.18634    1.3459369    -102.8404      14.3581     4.322322     4.322322     4.322322      14.3581    6580.1765    22289.828    -28826.93   -2875.4861   -23161.899    4710.2016    80.751642 
   45600    1158.3626   -103.91712    1.0481108   -102.86901     19814.23    4.3328783    4.3328783    4.3328783     19814.23    43378.064    23699.379   -7634.7536    5772.7532   -7233.3032   -13280.082     81.34474 
   45700    1698.1294   -104.39653    1.5365032   -102.86002   -26793.922    4.3587781    4.3587781    4.3587781   -26793.922   -7698.0696    -35733.64   -36950.056    2674.3153    859.45329   -1135.5284    82.812194 
   45800    1269.8733   -104.00032    1.1490081   -102.85131   -17390.613    4.3434231    4.3434231    4.3434231   -17390.613   -38280.745    17968.239   -31859.333     7238.147    -37629.27   -10081.364    81.940087 
   45900    1632.4824   -104.30722    1.4771043   -102.83012    23582.259    4.3199189    4.3199189    4.3199189    23582.259    22913.435    27470.291    20363.052   -12238.784    10885.888    -3941.327    80.617025 
   46000    1320.4569   -104.05183    1.1947772   -102.85706   -20817.368    4.3392899    4.3392899    4.3392899   -20817.368    -13380.12   -5060.4422   -44011.542    11046.417   -37583.833   -3184.6465    81.706388 
   46100    1313.2424    -104.0336    1.1882493   -102.84535   -964.70763    4.3497297    4.3497297    4.3497297   -964.70763    17473.249   -30391.274    10023.902   -6949.7545    576.23457   -17879.188     82.29753 
   46200    1342.5245   -104.05676    1.2147444   -102.84202   -25088.463    4.3450507    4.3450507    4.3450507   -25088.463   -22084.446   -7674.2414     -45506.7   -9589.5399   -30978.509    20520.185    82.032235 
   46300    1421.0612   -104.13466    1.2858061   -102.84885   -5280.2923    4.3319632    4.3319632    4.3319632   -5280.2923   -20764.276     -11645.3      16568.7   -390.51196   -23399.205   -23873.086    81.293209 
   46400    1599.0207   -104.30792    1.4468275   -102.86109     15204.93    4.3386371    4.3386371    4.3386371     15204.93   -21068.779    10301.429     56382.14    128.09199    7364.1829    12563.467    81.669515 
   46500    1041.1608   -103.80336   0.94206417    -102.8613   -52291.956    4.3616951    4.3616951    4.3616951   -52291.956   -67893.341   -20294.665   -68687.862      4115.72   -22477.361   -3481.6604    82.978565 
   46600    1913.2389    -104.5624    1.7311387   -102.83127    11521.799    4.3462306    4.3462306    4.3462306    11521.799    15883.576   -21386.526    40068.347   -3026.1269    22344.678   -10767.331    82.099079 
   46700    951.97904   -103.70252   0.86137064   -102.84115    1958.3854    4.3300166    4.3300166    4.3300166    1958.3854    1640.6274    6842.8945   -2608.3658   -2173.3379   -51215.017    15029.403    81.183669 
   46800     1491.642   -104.20648     1.349669   -102.85681    17256.654    4.3347121    4.3347121    4.3347121    17256.654   -7779.1174   -7351.1981    66900.279    6222.4941    22215.915   -11750.694    81.448068 
   46900    1429.3645   -104.15924    1.2933191   -102.86592   -27658.298    4.3531058    4.3531058    4.3531058   -27658.298   -33797.212   -12280.385   -36897.296    2111.0918   -39778.791    20815.193    82.489308 
   47000    1413.5396   -104.14117    1.2790003   -102.86217   -6146.5595    4.3370269    4.3370269    4.3370269   -6146.5595    3320.5444   -7145.2078   -14615.015   -687.04874   -6743.7154    -1347.754    81.578619 
   47100    1358.1818   -104.08464    1.2289115   -102.85573    4287.5433    4.3382238    4.3382238    4.3382238    4287.5433    19146.665   -6148.2695   -135.76502   -5067.7157   -16499.278    6309.7692    81.646178 
   47200    1032.5234   -103.79668   0.93424883   -102.86244   -24763.581    4.3429669    4.3429669    4.3429669   -24763.581   -32522.574   -2766.9385   -39001.232   -3183.0641   -52186.222    5466.1135    81.914269 
   47300    1883.7512    -104.5525    1.7044576   -102.84804      2107.38    4.3426934    4.3426934    4.3426934      2107.38    15294.238   -14760.839    5788.7412    11335.711    29029.822   -261.52437    81.898795 
   47400    639.85817    -103.4463   0.57895712   -102.86735   -37128.265    4.3416857    4.3416857    4.3416857   -37128.265   -20525.618   -25197.722   -65661.454   -4866.2349    -62348.45     15032.69    81.841794 
   47500    2043.1716   -104.69627    1.8487046   -102.84757    14172.068    4.3300158    4.3300158    4.3300158    14172.068     15843.81    31018.184   -4345.7904    19216.351    6933.3377   -4062.4634    81.183623 
   47600    1092.9692   -103.86027   0.98894152   -102.87132   -23223.411    4.3456803    4.3456803    4.3456803   -23223.411   -32597.877   -2987.3618   -34084.994    1238.4939    -45685.39    21867.761    82.067898 
   47700    1182.3929   -103.93125    1.0698539   -102.86139      2572.46    4.3466141    4.3466141    4.3466141      2572.46   -36835.582     42445.62    2107.3422    93.053138   -20014.245    2152.8393    82.120818 
   47800    1526.6785   -104.23197    1.3813708    -102.8506    7717.8409    4.3462927    4.3462927    4.3462927    7717.8409   -8808.6325    7567.8535    24394.302    19065.228   -2486.6378     14739.63    82.102601 
   47900    1072.2836   -103.83063    0.9702247    -102.8604   -27031.214     4.335163     4.335163     4.335163   -27031.214   -21560.578    190.04442    -59723.11   -5944.1332   -55053.949    4293.2087    81.473487 
   48000    1665.6478   -104.35825    1.5071132   -102.85114    23029.864    4.3321996    4.3321996    4.3321996    23029.864    11330.527    12180.898    45578.168    9795.1448    21516.921    -552.4492    81.306518 
   48100     895.3857   -103.67501    0.8101638   -102.86485    -18620.67     4.350505     4.350505     4.350505    -18620.67   -17671.262    6355.1163   -44545.863    747.60269   -43888.421    14018.307    82.341546 
   48200    1757.8351   -104.42927    1.5905261   -102.83874   -7786.7435    4.3410222    4.3410222    4.3410222   -7786.7435   -22104.751   -34694.021    33438.541   -1904.8197    9432.7219     3485.522    81.804277 
   48300    1068.0128   -103.81332   0.96636042   -102.84696    13652.623    4.3361308    4.3361308    4.3361308    13652.623    10864.465    57407.306   -27313.902     2091.941    -5183.565    4943.9591    81.528061 
   48400    1610.5878   -104.31204    1.4572936   -102.85474   -23982.089    4.3439482    4.3439482    4.3439482   -23982.089    -25960.91    -29590.38   -16394.976     -7104.77   -22568.714    4711.8044    81.969806 
   48500    1568.2925   -104.27216     1.419024   -102.85314     383.4743    4.3464092    4.3464092    4.3464092     383.4743   -8571.4906    27856.088   -18134.175     4622.214    15336.176    7928.6566    82.109201 
   48600    1120.3465   -103.87095    1.0137131   -102.85723   -13565.511    4.3449387    4.3449387    4.3449387   -13565.511   -53428.953    25107.466   -12375.046    2800.4749   -29326.808     2130.574     82.02589 
   48700    1682.7345   -104.36697    1.5225735   -102.84439    21428.957     4.335875     4.335875     4.335875    21428.957     21275.48    -9583.218    52594.608   -1704.9046     8280.536    3740.5096    81.513634 
   48800    912.28401   -103.69612   0.82545375   -102.87067   -13737.005     4.340946     4.340946     4.340946   -13737.005   -73617.358    70928.829   -38522.485    4720.7838   -32660.698   -3968.2099    81.799973 
   48900     2098.696   -104.75294    1.8989442   -102.85399   -4996.4803    4.3488741    4.3488741    4.3488741   -4996.4803    1340.4736   -32012.194    15682.279   -1736.4355    6302.2776    14052.722    82.248977 
   49000    977.64224   -103.75226   0.88459124   -102.86767   -18089.887    4.3521467    4.3521467    4.3521467   -18089.887   -33399.647    14088.185   -34958.198   -8724.0083    -36705.08    15.341527      82.4348 
   49100    1333.1047   -104.06864    1.2062211   -102.86242    9199.1076    4.3382672    4.3382672    4.3382672    9199.1076   -54972.985    59171.343    23398.965    73.497439    2464.2814    1523.8197    81.648627 
   49200    1832.2715   -104.52026    1.6578777   -102.86238     7514.935    4.3390324    4.3390324    4.3390324     7514.935     20118.14   -5011.7934    7438.4584    3331.2637   -19984.943    6108.8599    81.691838 
   49300     936.0871   -103.72481   0.84699128   -102.87782    -18915.96    4.3458763    4.3458763    4.3458763    -18915.96    -61097.41    49494.629   -45145.098    9654.7226   -13145.841   -7109.2586    82.079003 
   49400    1816.8094   -104.50916    1.6438873   -102.86528    9223.2894    4.3443905    4.3443905    4.3443905    9223.2894   -20136.684    42456.109    5350.4428   -1540.5273     20186.69    11298.608    81.994848 
   49500    1497.7717   -104.22492    1.3552153    -102.8697   -12353.847    4.3448151    4.3448151    4.3448151   -12353.847   -3204.8784    5703.7378   -39560.399    8869.8498    -22971.26   -5000.7738     82.01889 
   49600    1041.7359   -103.81368   0.94258456    -102.8711    33297.037    4.3344219    4.3344219    4.3344219    33297.037   -58269.933    116221.28    41939.769   -172.36219    36673.424    -9043.393    81.431709 
   49700    1754.3304     -104.457     1.587355   -102.86964    9373.8948    4.3439343    4.3439343    4.3439343    9373.8948    14283.085    4632.6011    9205.9987    -6193.537   -16330.207    2391.8233    81.969023 
   49800    1168.6982   -103.93009    1.0574627   -102.87263    15510.322    4.3472276    4.3472276    4.3472276    15510.322    -59873.58    89729.897    16674.648    10267.708    33082.723   -3213.8148    82.155592 
   49900      1641.65   -104.34918    1.4853995   -102.86378   -11398.546    4.3539957    4.3539957    4.3539957   -11398.546   -14841.594   -15686.638   -3667.4077   -22720.573   -8560.2565    11130.161    82.539907 
   50000    1076.4834   -103.83517   0.97402477   -102.86115    14688.973    4.3422493    4.3422493    4.3422493    14688.973   -50666.759     94177.69    555.98807    3475.4038    24308.842   -6728.2677    81.873672 
   50100    1704.8354   -104.40344    1.5425709   -102.86087   -2325.4146    4.3425769    4.3425769    4.3425769   -2325.4146   -1917.4475   -1632.4032   -3426.3931   -17233.264    5060.4108    9927.6523      81.8922 
   50200    1126.1382   -103.88893    1.0189535   -102.86998   -20638.173     4.350038     4.350038     4.350038   -20638.173   -79124.315    28195.914   -10986.119   -21263.192     14362.24   -4906.5584    82.315034 
   50300    1461.4143   -104.18379    1.3223184   -102.86147    12038.258    4.3423189    4.3423189    4.3423189    12038.258   -10204.683    59597.764   -13278.308    3231.3147    8904.3342   -1326.5068     81.87761 
   50400     1496.796   -104.21557    1.3543325   -102.86124   -20875.688    4.3523752    4.3523752    4.3523752   -20875.688   -51738.773   -16893.036    6004.7452   -11922.532    5818.4498   -750.93987    82.447785 
   50500    1228.7018   -103.97062    1.1117552   -102.85887    7142.9194    4.3340652    4.3340652    4.3340652    7142.9194   -15273.289    33504.428    3197.6197    5193.8541    17555.241   -4230.4782    81.411606 
   50600    1449.3312   -104.17213    1.3113854   -102.86074    16333.925    4.3413882    4.3413882    4.3413882    16333.925   -38909.075    50942.258    36968.593   -7600.8838   -4856.4973   -9274.2698    81.824973 
   50700    1437.4261   -104.16828    1.3006133   -102.86767   -8244.0453    4.3402077    4.3402077    4.3402077   -8244.0453   -10199.527    24488.257   -39020.866    -526.3386    37642.818    13402.132    81.758243 
   50800    1310.9865    -104.0587    1.1862081    -102.8725    18632.144    4.3390708    4.3390708    4.3390708    18632.144   -38160.477    47456.374    46600.534    2174.8501   -26034.616   -16929.352    81.694012 
   50900    1497.1718    -104.2206    1.3546725   -102.86592   -19805.692    4.3587652    4.3587652    4.3587652   -19805.692   -29326.471    18713.085    -48803.69    2265.5797    31693.062    14305.087    82.811459 
   51000    1430.0044   -104.14567     1.293898   -102.85177    3494.0443    4.3440925    4.3440925    4.3440925    3494.0443   -24772.455    19410.676    15843.912   -2553.2163   -19175.674   -10647.708    81.977976 
   51100    1320.2276   -104.04575    1.1945696   -102.85118   -1931.5472    4.3410409    4.3410409    4.3410409   -1931.5472   -21973.517    41824.636   -25645.761     24158.16    5453.2986   -14722.794    81.805335 
   51200    1695.5706   -104.38812     1.534188   -102.85393   -25209.061    4.3393067    4.3393067    4.3393067   -25209.061   -33052.265   -9776.6938   -32798.225   -14810.771    15124.068     5605.038    81.707336 
   51300    983.96396   -103.75761   0.89031127    -102.8673    17182.418    4.3457063    4.3457063    4.3457063    17182.418   -17411.067    49803.302     19155.02    12398.672   -17590.148   -16501.169    82.069373 
   51400    1740.4375   -104.43908    1.5747845    -102.8643   -40296.667    4.3557768    4.3557768    4.3557768   -40296.667    -66344.55   -3900.5841   -50644.866    17334.149    7664.2965    21179.056    82.641244 
   51500    1325.0762      -104.06    1.1989568   -102.86104    2237.9652    4.3437984    4.3437984    4.3437984    2237.9652   -35316.542    33969.229     8061.208   -3175.7817   -14846.013   -16666.257    81.961329 
   51600    1496.3244   -104.21527    1.3539058   -102.86137   -14658.409    4.3422917    4.3422917    4.3422917   -14658.409   -26681.295   -10769.192   -6524.7392     32834.21    6309.1655    11547.278    81.876072 
   51700    1417.1206   -104.14811    1.2822405   -102.86587    10956.022    4.3415555    4.3415555    4.3415555    10956.022   -22802.944    59442.966   -3771.9583   -4470.1362   -6471.8001   -3739.3244    81.834431 
   51800    1558.7905   -104.27259    1.4104264   -102.86217    -2209.929    4.3400807    4.3400807    4.3400807    -2209.929    601.42503   -10810.201    3578.9889    44661.363   -2457.5578    1671.3548    81.751066 
   51900    1163.5826   -103.91464     1.052834   -102.86181   -5615.2479    4.3477203    4.3477203    4.3477203   -5615.2479   -20492.616     46026.99   -42380.118   -1673.7688   -11547.487    4162.5348     82.18353 
   52000    1585.9917   -104.28484    1.4350386    -102.8498    10500.559    4.3396693    4.3396693    4.3396693    10500.559    978.98276    18089.938    12432.756      15861.1   -5275.2838   -9774.1838    81.727817 
   52100    1477.2552   -104.19321    1.3366516   -102.85656    4410.6735    4.3401134    4.3401134    4.3401134    4410.6735    -14080.19    28131.145   -818.93521    22239.449    3120.2502    2892.7765    81.752915 
   52200     1192.167   -103.94055    1.0786977   -102.86185    5080.6161    4.3494176    4.3494176    4.3494176    5080.6161    148.11727    10887.231       4206.5   -11374.402   -9798.2877   -2539.8301    82.279821 
   52300     1548.423   -104.25021    1.4010457   -102.84916    3294.7215    4.3476298    4.3476298    4.3476298    3294.7215   -22482.667   -12431.326    44798.158    21727.851    2242.5003    460.34931    82.178396 
   52400    1350.8473    -104.0649     1.222275   -102.84263   -1139.7196    4.3479707    4.3479707    4.3479707   -1139.7196   -7346.0492    14259.698   -10332.807    581.09821   -16225.577   -140.89312    82.197728 
   52500    1239.8965   -103.96089    1.1218844   -102.83901   -4009.9536    4.3494713    4.3494713    4.3494713   -4009.9536    -18567.18   -55467.307    62004.627    28601.326    14382.228    8387.6367    82.282863 
   52600    1667.1361   -104.34204    1.5084597   -102.83358   -11142.018     4.343652     4.343652     4.343652   -11142.018   -24204.173    5051.3725   -14273.254   -5408.4856   -20913.581   -3655.3375    81.953038 
   52700    1428.3401   -104.13702    1.2923922   -102.84462   -11171.708    4.3530627    4.3530627    4.3530627   -11171.708   -15864.557   -37739.068    20088.499     20178.53   -3519.9431     15885.34    82.486861 
   52800    1280.2226   -104.00103    1.1583723   -102.84265    6608.3919    4.3503927    4.3503927    4.3503927    6608.3919   -11575.578   -7725.8926    39126.646    22646.069   -11217.141    8574.6538    82.335172 
   52900    1381.7038   -104.09071    1.2501947   -102.84051    5587.7117    4.3431227    4.3431227    4.3431227    5587.7117    11770.621   -8893.8512    13886.366    -2531.211   -34375.495    8867.1066    81.923082 
   53000    1675.6253   -104.36399     1.516141   -102.84785   -20975.584    4.3465901    4.3465901    4.3465901   -20975.584   -24232.761   -21275.598   -17418.394    16372.031    24869.822   -5832.3115    82.119456 
   53100    1415.3561   -104.13084     1.280644    -102.8502    2024.4758    4.3391812    4.3391812    4.3391812    2024.4758    4893.6711   -1063.6806    2243.4369    3284.6556   -46666.496   -12587.592    81.700247 
   53200    1462.0433   -104.18003    1.3228875   -102.85715    -16915.56    4.3515779    4.3515779    4.3515779    -16915.56   -24963.244    6120.6475   -31904.084    4676.3325    38284.055   -7221.4441     82.40248 
   53300    1493.1702   -104.19838    1.3510518   -102.84733   -27392.166    4.3491039    4.3491039    4.3491039   -27392.166   -39250.795   -25499.848   -17425.855    1966.3007   -29841.551   -13165.013    82.262014 
   53400    1632.0358   -104.32241    1.4767003   -102.84571   -7036.1662    4.3364272    4.3364272    4.3364272   -7036.1662    8391.5858    2874.5093   -32374.594    640.45015     24474.66   -54.663844    81.544781 
   53500    1011.9468   -103.78381   0.91563077   -102.86818   -4223.6687    4.3311197    4.3311197    4.3311197   -4223.6687    -7586.884    7799.6666   -12883.789    8918.4875   -5100.5653    5206.5883    81.245735 
   53600    1847.6456   -104.53187    1.6717886   -102.86009    12869.432    4.3392599    4.3392599    4.3392599    12869.432    10933.566    32029.258   -4354.5272    -13977.63    868.73997    5162.8476    81.704692 
   53700    1023.1372   -103.79094   0.92575606   -102.86518   -44744.972    4.3481847    4.3481847    4.3481847   -44744.972   -68131.668   -24277.824   -41825.424    12025.293    40793.856    14008.402    82.209868 
   53800    1482.6779   -104.18287    1.3415581   -102.84131     37801.91    4.3272175    4.3272175    4.3272175     37801.91    29563.083    41799.861    42042.786   -4822.1682   -22834.689    915.18911    81.026331 
   53900    1374.9504   -104.10082     1.244084   -102.85673   -31469.228    4.3439027    4.3439027    4.3439027   -31469.228   -66599.854    2576.1582   -30383.989   -2322.0332    43621.093    20594.584     81.96723 
   54000    1286.5679   -104.01847    1.1641137   -102.85435   -4369.2568    4.3428865    4.3428865    4.3428865   -4369.2568   -15507.122    -32392.54    34791.892    19227.789    1005.5266    6956.5132    81.909721 
   54100    1535.4484   -104.23535     1.389306   -102.84605    11951.343    4.3353801    4.3353801    4.3353801    11951.343    25386.326    10741.349   -273.64444   -12611.003    13301.987    1542.9665    81.485727 
   54200    976.47078   -103.74331   0.88353128   -102.85978   -20836.978    4.3435505    4.3435505    4.3435505   -20836.978   -30692.366   -38360.147    6541.5799    10567.893    11257.962    7397.7362    81.947293 
   54300     1971.698   -104.62482    1.7840338   -102.84079    12995.375    4.3405545    4.3405545    4.3405545    12995.375    20253.612    29287.851   -10555.339   -8248.6574    6727.8517   -4544.1112    81.777839 
   54400    829.63734   -103.60786    0.7506733   -102.85718   -31415.963    4.3522666    4.3522666    4.3522666   -31415.963   -57663.521   -36447.132   -137.23639    10312.472    29764.551    112.98434    82.441609 
   54500    1947.6692   -104.59401     1.762292   -102.83172    7763.7067    4.3355625    4.3355625    4.3355625    7763.7067    4016.2273    28485.014   -9210.1216    694.53563   -5173.5396     5389.774    81.496012 
   54600    772.98016   -103.55547    0.6994087   -102.85606    10689.941    4.3331202    4.3331202    4.3331202    10689.941     857.3236   -14470.307    45682.805    3144.8432     14996.94   -6848.4757    81.358366 
   54700    1862.1926   -104.53773     1.684951   -102.85278    1330.7726    4.3473462    4.3473462    4.3473462    1330.7726   -14416.195   -11452.319    29860.832     6043.786    1917.7228   -466.60711    82.162318 
   54800    1002.4761   -103.77539    0.9070614   -102.86833    -13755.68    4.3439002    4.3439002    4.3439002    -13755.68   -10245.812   -7844.4768   -23176.753   -9865.8357   -3974.4864   -967.91212     81.96709 
   54900    1567.7105   -104.28413    1.4184974   -102.86563   -3396.9336    4.3394889    4.3394889    4.3394889   -3396.9336    5018.4491   -24713.038    9503.7878    9686.0062    13908.371   -21589.074    81.717626 
   55000    1276.3727   -104.02059    1.1548889    -102.8657    17439.869    4.3389384    4.3389384    4.3389384    17439.869    1847.9442    20265.061    30206.602   -9429.9102   -29067.817   -5366.3663     81.68653 
   55100    1297.6281   -104.03941    1.1741212   -102.86529   -10769.423    4.3470811    4.3470811    4.3470811   -10769.423   -37631.497   -10942.641    16265.869    4267.4369    16361.194   -3405.0255    82.147288 
   55200    1645.5709   -104.34365    1.4889471    -102.8547    1982.1401    4.3474085    4.3474085    4.3474085    1982.1401   -6955.4493   -21277.523    34179.393   -12740.208    589.40155   -376.55769    82.165851 
   55300    1000.8588   -103.77436   0.90559808   -102.86876   -14745.238    4.3452574    4.3452574    4.3452574   -14745.238   -71612.884    31934.618   -4557.4495   -2875.1704   -3029.1928   -987.70845    82.043941 
   55400    2085.4834   -104.73303    1.8869892   -102.84604    7382.0318    4.3372991    4.3372991    4.3372991    7382.0318   -17160.801   -19329.204      58636.1   -7879.2116   -912.82024    4270.1181    81.593982 
   55500    913.22199   -103.69621   0.82630245   -102.86991   -26885.713    4.3516534    4.3516534    4.3516534   -26885.713   -72636.437    4876.9678    -12897.67   -8580.0325   -10442.635    482.41659     82.40677 
   55600    1680.4786   -104.37047    1.5205323   -102.84993    6411.2765    4.3514966    4.3514966    4.3514966    6411.2765   -41086.467    13437.071    46883.226    226.11965   -4038.4371     3403.821    82.397863 
   55700     1393.184   -104.11681    1.2605821   -102.85623   -20318.533    4.3410785    4.3410785    4.3410785   -20318.533   -51748.626   -38791.421    29584.447   -16561.614    -14061.57   -2710.7692    81.807461 
   55800    1396.0574   -104.12143    1.2631821   -102.85825    14674.521    4.3439103    4.3439103    4.3439103    14674.521   -51037.782   -164.70401    95226.048    8260.8431   -14809.595    4647.1744    81.967662 
   55900    1165.6974    -103.9245    1.0547475   -102.86975   -9685.5555    4.3522855    4.3522855    4.3522855   -9685.5555   -29486.189     2921.477   -2491.9546   -21778.465    1039.1351    -6606.117    82.442684 
   56000    1222.1412   -103.96342     1.105819    -102.8576   -12290.519    4.3569654    4.3569654    4.3569654   -12290.519   -54415.199   -4444.6009    21988.242    11272.236   -40900.404   -10139.383    82.708918 
   56100    1883.8417   -104.55114    1.7045395    -102.8466   -15889.101    4.3454862    4.3454862    4.3454862   -15889.101   -34314.815   -46603.806    33251.318   -28582.485    6572.9103    11123.606    82.056903 
   56200    947.93321   -103.72166   0.85770989   -102.86395    3937.5056    4.3355497    4.3355497    4.3355497    3937.5056   -26277.467      14887.5    23202.484     16627.14   -29707.543   -4284.3384    81.495291 
   56300    1323.1325   -104.06882    1.1971981   -102.87162    10671.646    4.3472518    4.3472518    4.3472518    10671.646    -37540.13   -404.38804    69959.456   -20868.388   -1007.3251    14351.432    82.156963 
   56400    1467.4483   -104.19138    1.3277781    -102.8636   -21173.308    4.3578992    4.3578992    4.3578992   -21173.308   -60719.352   -6427.3248    3626.7533    1175.6083   -18197.381    -11474.42    82.762106 
   56500    1300.7841   -104.02801    1.1769768   -102.85103    13763.888    4.3514274    4.3514274    4.3514274    13763.888   -22105.962    6934.1182    56463.507   -1373.6667   -19809.988    -10786.56     82.39393 
   56600    1424.6459   -104.13434    1.2890495   -102.84529   -11972.454    4.3488828    4.3488828    4.3488828   -11972.454   -48594.552    4366.8091    8310.3816   -6492.6094   -6832.0984   -10584.117    82.249472 
   56700     1305.471   -104.02189    1.1812176   -102.84067    19405.616    4.3302116    4.3302116    4.3302116    19405.616   -30787.391    33287.988    55716.252    11963.889   -39981.036   -364.57285    81.194637 
   56800    1647.8894   -104.33578     1.491045   -102.84473   -8547.6687     4.348364     4.348364     4.348364   -8547.6687   -23829.714   -12770.958    10957.666   -18039.844    10345.911   -8197.8013    82.220041 
   56900     925.6415   -103.67811   0.83753988   -102.84057   -17752.885    4.3525418    4.3525418    4.3525418   -17752.885   -57087.762   -7231.5687    11060.675    20293.681   -43586.842    7628.6389    82.457253 
   57000    1786.2512   -104.43884    1.6162376    -102.8226    1256.8735    4.3473336    4.3473336    4.3473336    1256.8735    4695.6472    3739.4988   -4664.5254    -19634.27    18225.321    284.56153    82.161601 
   57100    1248.8442   -103.96447    1.1299805   -102.83449   -32312.096     4.352688     4.352688     4.352688   -32312.096   -51898.557   -14637.796   -30399.935     11633.57   -56511.057   -15493.497    82.465561 
   57200    1351.6906   -104.05681    1.2230381   -102.83378    19303.184    4.3401249    4.3401249    4.3401249    19303.184    17247.685    18156.962    22504.906   -3645.6796    13370.105   -867.17902    81.753563 
   57300     1270.184    -104.0065    1.1492892   -102.85721   -14259.915    4.3442864    4.3442864    4.3442864   -14259.915    -7267.283   -14995.494   -20516.969    1063.9644   -43065.932   -10721.073    81.988956 
   57400    1406.6941   -104.12845    1.2728064   -102.85564    4316.6344    4.3504228    4.3504228    4.3504228    4316.6344    16603.761    -8708.541    5054.6837    8096.5393   -11518.673    9475.5757    82.336881 
   57500    1136.3187   -103.88637     1.028165   -102.85821    1.4250805    4.3522595    4.3522595    4.3522595    1.4250805    -30612.53   -2154.7155    32771.521   -23635.114   -12651.207   -2679.1613     82.44121 
   57600    1714.0827   -104.40146     1.550938   -102.85052   -14444.131    4.3401702    4.3401702    4.3401702   -14444.131   -38829.167    9774.2972   -14277.523    6428.9004   -18577.869   -2336.5756    81.756121 
   57700    1372.9251   -104.09598    1.2422515   -102.85373    821.22735    4.3451306    4.3451306    4.3451306    821.22735   -18654.893   -39221.261    60339.837   -26831.402   -7322.8766     877.4201    82.036762 
   57800    977.89966   -103.73674   0.88482417   -102.85191   -9971.3059    4.3572552    4.3572552    4.3572552   -9971.3059   -43884.023    21080.188   -7110.0822    6240.8662   -35979.026   -12016.438     82.72542 
   57900     1473.941   -104.16673    1.3336528   -102.83307    -13360.11    4.3445151    4.3445151    4.3445151    -13360.11   -5834.0182   -29993.758   -4252.5539    -32991.55    5854.8406    1052.8268    82.001902 
   58000    1497.5603   -104.18937     1.355024   -102.83434    -13555.91    4.3469788    4.3469788    4.3469788    -13555.91   -19480.086    6029.8578   -27217.502   -1978.3251   -18480.474   -6451.6288    82.141485 
   58100    1018.6719   -103.75574   0.92171577   -102.83402   -2310.6161    4.3552637    4.3552637    4.3552637   -2310.6161   -12880.348    36443.241   -30494.742    -28907.28   -5980.5776   -9225.1669    82.612046 
   58200    1638.6923   -104.31041    1.4827232   -102.82769   -15333.076    4.3505922    4.3505922    4.3505922   -15333.076   -21915.361    18727.033     -42810.9   -12569.557   -147.78117    14400.339    82.346498 
   58300    1390.8859   -104.09768    1.2585028   -102.83918   -31017.047      4.35057      4.35057      4.35057   -31017.047   -43621.264    676.98266   -50106.861    2528.9872   -10585.654   -4256.9852    82.345235 
   58400    1279.3029   -103.99682    1.1575401   -102.83928    19939.289    4.3359099    4.3359099    4.3359099    19939.289    3292.5586    21593.142    34932.166   -19620.222    -4004.294    6259.1861    81.515601 
   58500    1240.1413   -103.98343    1.1221059   -102.86132   -17286.631    4.3451655    4.3451655    4.3451655   -17286.631   -33071.138    27349.057   -46137.813    4647.1392   -16130.905   -6866.1371    82.038739 
   58600    1528.8669    -104.2262    1.3833509   -102.84285   -17342.341    4.3639636    4.3639636    4.3639636   -17342.341   -28072.051   -5143.6912   -18811.279    3089.7718    11108.064    8094.1044      83.1081 
   58700    1154.1875   -103.88137    1.0443331   -102.83704    2411.4497    4.3481868    4.3481868    4.3481868    2411.4497   -4554.2911    35696.743   -23908.103   -2361.9182   -31505.611    9301.5878    82.209985 
   58800    1620.8362    -104.3144    1.4665667   -102.84783   -6859.5579    4.3434232    4.3434232    4.3434232   -6859.5579   -16707.058    2718.4987   -6590.1142    32978.135    24446.037    9831.8943     81.94009 
   58900    1350.7363   -104.07812    1.2221746   -102.85595    11300.239    4.3494832    4.3494832    4.3494832    11300.239    16824.358    9502.4577    7573.9001    4517.9157   -30849.094    19422.843    82.283541 
   59000    1174.0361   -103.92366    1.0622925   -102.86136    -13855.54    4.3672994    4.3672994    4.3672994    -13855.54   -27314.212   -20016.588    5764.1812    9774.7291   -8799.4922    8587.5154    83.298828 
   59100    1834.5265   -104.49389    1.6599181   -102.83398   -16170.852    4.3581513    4.3581513    4.3581513   -16170.852     5843.474   -41313.721   -13042.311    17560.862    -4414.245    2965.3117    82.776474 
   59200    949.78074   -103.69107   0.85938157   -102.83169     18225.71     4.331458     4.331458     4.331458     18225.71    19184.763    42558.952   -7066.5839    7742.1745   -35826.259    2141.1536    81.264771 
   59300    1632.6987   -104.32395    1.4773001   -102.84665    22072.166    4.3440078    4.3440078    4.3440078    22072.166    2078.5492   -21359.299    85497.249    10680.805      26461.1   -2196.9414    81.973182 
   59400    1192.2772   -103.95477    1.0787975   -102.87597   -23245.128    4.3540265    4.3540265    4.3540265   -23245.128   -16055.739   -41733.649   -11945.996    4820.8831   -45554.296   -3830.8903    82.541663 
   59500    1597.5754   -104.31307    1.4455198   -102.86755    8135.1447    4.3490462    4.3490462    4.3490462    8135.1447    9349.5586    -8839.425    23895.301    3823.6299    746.34279    1402.0269    82.258741 
   59600    1317.3887   -104.05328     1.192001   -102.86128   -6833.2315    4.3523265    4.3523265    4.3523265   -6833.2315    15376.134   -29727.906   -6147.9226   -543.57105   -15665.495   -5740.6852    82.445015 
   59700    1065.5115   -103.82382    0.9640972   -102.85972   -12149.963    4.3503845    4.3503845    4.3503845   -12149.963   -22890.195   -18190.765    4631.0709    9612.6147   -40282.265   -677.50936    82.334702 
   59800     2042.234   -104.68882    1.8478563   -102.84096    14779.924    4.3408724    4.3408724    4.3408724    14779.924    11720.644    2669.4569    29949.671   -972.18948    15712.092   -10261.919    81.795809 
   59900    1010.4631   -103.78385   0.91428826   -102.86956   -33800.394    4.3594175    4.3594175    4.3594175   -33800.394   -32853.062   -22263.549    -46284.57    2179.8752   -55738.887    7949.3168    82.848643 
   60000    1528.2082   -104.22579    1.3827549   -102.84304    15615.172    4.3599634    4.3599634    4.3599634    15615.172    25951.386    10835.682    10058.449     1726.391    28514.248   -2596.9027    82.879766 
   60100     1586.821   -104.27379     1.435789     -102.838   -10819.785    4.3468782    4.3468782    4.3468782   -10819.785   -7854.6181   -14312.366   -10292.371   -12045.892   -27546.098    8595.2447    82.135783 
   60200    1308.8569   -104.03062    1.1842812   -102.84634    10044.719    4.3468924    4.3468924    4.3468924    10044.719   -9285.0439    21265.696    18153.503    5014.3761   -6546.4143    20142.498     82.13659 
   60300    1301.5682   -104.01809    1.1776863    -102.8404    37621.331    4.3547357    4.3547357    4.3547357    37621.331    46751.142    29934.963    36177.888    3492.6371   -6917.9966    345.79845    82.582003 
   60400    1374.4407   -104.08758    1.2436229   -102.84395   -21768.224    4.3716584    4.3716584    4.3716584   -21768.224    1866.3721   -16901.486   -50269.557     1512.897   -43482.013    14133.639    83.548497 
   60500    1697.9324   -104.36551    1.5363249   -102.82919     15797.06    4.3537627    4.3537627    4.3537627     15797.06    28299.623   -15672.859    34764.415    5758.9241    45022.132   -11091.546     82.52666 
   60600    1046.7426   -103.78904   0.94711471   -102.84193    20221.269    4.3366602    4.3366602    4.3366602    20221.269   -20537.111    81418.486   -217.56929    2588.6702   -44825.922   -5958.8388    81.557928 
   60700    1870.8239   -104.53528    1.6927608   -102.84252    3727.7474    4.3518744    4.3518744    4.3518744    3727.7474    -5050.435   -8211.3229        24445    -1013.505    31993.663   -5188.5049    82.419324 
   60800    1185.6333   -103.91329     1.072786    -102.8405   -2674.0688    4.3652635    4.3652635    4.3652635   -2674.0688   -28790.716    55970.096   -35201.586    9457.9642   -45212.197   -19026.376    83.182392 
   60900    1296.5551   -104.00655    1.1731503    -102.8334    21100.719    4.3570006    4.3570006    4.3570006    21100.719   -3933.9072    77568.995    -10332.93   -6023.9259    8473.5917    7786.3189    82.710924 
   61000    1397.4786   -104.10451     1.264468   -102.84005    888.52162     4.333382     4.333382     4.333382    888.52162    31504.437    16866.047   -45704.919    1669.6678   -34158.749   -17135.862    81.373111 
   61100    1317.2913   -104.04901    1.1919129    -102.8571     36011.17    4.3430393    4.3430393    4.3430393     36011.17    26679.203    75830.439    5523.8667   -23897.039   -18094.584   -4624.9652    81.918363 
   61200    1338.1797   -104.06205    1.2108131   -102.85124   -28730.629     4.366921     4.366921     4.366921   -28730.629   -42347.079    23840.358   -67685.166    -9931.799   -18329.112   -12820.846    83.277179 
   61300    1733.8758   -104.40495    1.5688473    -102.8361   -25842.294    4.3586886    4.3586886    4.3586886   -25842.294   -26033.328    2509.7744   -54003.327   -12667.667    -24747.17   -3741.5539    82.807093 
   61400    1214.5271   -103.92775    1.0989297   -102.82882    20524.792    4.3433931    4.3433931    4.3433931    20524.792   -16928.593    106652.51   -28149.547   -11251.353   -7161.8033   -19561.202    81.938388 
   61500    1481.9755   -104.18374    1.3409226   -102.84282   -30469.294    4.3479007    4.3479007    4.3479007   -30469.294   -53520.458    11252.056   -49139.481   -5582.3665   -16492.451    3885.9186    82.193761 
   61600    1641.8725   -104.33234    1.4856008   -102.84674    14274.597    4.3553321    4.3553321    4.3553321    14274.597    8072.7553    61611.698   -26860.662    3897.1877    2313.1993   -10449.099    82.615936 
   61700    1129.1615   -103.88244     1.021689   -102.86075   -43812.478    4.3600542    4.3600542    4.3600542   -43812.478    -58942.94    8477.8362   -80972.331   -5716.4207   -38281.003    13000.655    82.884947 
   61800    1572.7941   -104.25348    1.4230972   -102.83038    35016.601    4.3386604    4.3386604    4.3386604    35016.601    57025.894    55478.688   -7454.7798    21861.183    8077.5548    8931.0171     81.67083 
   61900    1114.5663   -103.86411     1.008483   -102.85563    5835.0746    4.3406589    4.3406589    4.3406589    5835.0746    1766.0159    13618.398    2120.8102    -17158.89   -51063.057    2154.8485    81.783743 
   62000    1546.3246   -104.25985     1.399147    -102.8607   -23735.537    4.3572758    4.3572758    4.3572758   -23735.537   -25743.545   -4995.0391   -40468.025    5829.8705     21944.68    16341.977    82.726596 
   62100    1419.0445   -104.13701    1.2839813   -102.85303   -4664.4153    4.3537762    4.3537762    4.3537762   -4664.4153    6667.7614    19099.584   -39760.591    5820.1269    -15179.98   -11493.711    82.527429 
   62200    1518.1263   -104.22386    1.3736325   -102.85023   -20171.336     4.347657     4.347657     4.347657   -20171.336   -19821.257    11876.625   -52569.375    -5984.353     8118.667    4397.2806    82.179939 
   62300    1667.8662   -104.36437    1.5091204   -102.85525   -10566.912    4.3412735    4.3412735    4.3412735   -10566.912   -10390.639    3368.7379   -24678.834    11111.663   -298.65963   -3821.2463    81.818485 
   62400    1130.4168   -103.88879    1.0228248   -102.86597   -7251.3176    4.3544297    4.3544297    4.3544297   -7251.3176   -39274.867    59238.206   -41717.292    3382.1556   -24235.272    4595.1765    82.564595 
   62500    1551.6076   -104.24927    1.4039271   -102.84534   -10839.384    4.3561281    4.3561281    4.3561281   -10839.384   -25974.733     4887.876   -11431.296    9685.7098     12299.32    15331.504    82.661243 
   62600      1234.06   -103.96285    1.1166034   -102.84624    15216.816    4.3455568    4.3455568    4.3455568    15216.816    13444.438    31016.713    1189.2978   -4463.6994   -19986.538    5963.8333      82.0609 
   62700    1378.5615   -104.09774    1.2473514   -102.85039    5513.3424    4.3386346    4.3386346    4.3386346    5513.3424    298.38915    30780.354   -14538.716   -3948.8769    40033.993   -6657.0714    81.669372 
   62800    1455.7549   -104.18117    1.3171976   -102.86397    4496.3498    4.3401009    4.3401009    4.3401009    4496.3498   -28138.015    35017.678    6609.3871    14596.105   -18568.023    5459.7108    81.752205 
   62900     1244.443   -103.99417    1.1259982   -102.86817   -6172.5508    4.3570366    4.3570366    4.3570366   -6172.5508   -33750.602    29670.396   -14437.446   -19767.274    15793.486   -7235.5351    82.712972 
   63000    1713.3632   -104.39696    1.5502871   -102.84667   -7215.3931      4.35215      4.35215      4.35215   -7215.3931   -24815.977   -5231.0779    8400.8756    6375.2896   -7152.7196    13145.998    82.434983 
   63100    1120.9193   -103.86325    1.0142314   -102.84902   -18104.878    4.3483677    4.3483677    4.3483677   -18104.878   -18155.578   -18164.548   -17994.507   -5072.9208   -14458.092    7081.0408    82.220248 
   63200    1601.9624   -104.29084    1.4494892   -102.84135    22498.704    4.3430649    4.3430649    4.3430649    22498.704   -1719.8419   -4822.6332    74038.588   -2985.8692    15905.138    5047.9617    81.919814 
   63300    1217.8104   -103.95749    1.1019004   -102.85559   -23823.665    4.3564432    4.3564432    4.3564432   -23823.665   -15515.942   -52179.854   -3775.1985      1572.46   -16080.771    7875.7905    82.679181 
   63400    1600.7691   -104.29164    1.4484095   -102.84323    7339.1498    4.3458659    4.3458659    4.3458659    7339.1498    11328.428   -8372.3728    19061.394   -8435.4112    26977.704   -5093.0867    82.078414 
   63500    1402.0328    -104.1225    1.2685888   -102.85391   -6557.7882     4.337429     4.337429     4.337429   -6557.7882   -8367.2675    7741.7055   -19047.803     30454.27   -23565.721    2567.7173    81.601313 
   63600    1327.2022    -104.0692    1.2008804   -102.86832    850.48674    4.3375828    4.3375828    4.3375828    850.48674   -11784.864    21543.387   -7207.0634   -29421.404   -6636.4722    10632.396    81.609993 
   63700    1507.0975   -104.23283    1.3636535   -102.86917   -3050.5913    4.3518811    4.3518811    4.3518811   -3050.5913    13030.599    3216.4239   -25398.797    17770.121    16742.401    -4996.332    82.419709 
   63800    1040.6907   -103.80807   0.94163883   -102.86643   -13510.496    4.3492574    4.3492574    4.3492574   -13510.496   -48400.187    151.28636    7717.4133   -12456.958   -15466.539    15313.008    82.270725 
   63900    1694.5352   -104.37887     1.533251   -102.84561   -655.97959    4.3403822    4.3403822    4.3403822   -655.97959   -898.83122     916.8177   -1985.9253   -7717.0278   -7263.6106   -1946.3008    81.768101 
   64000    1563.6488   -104.26555    1.4148223   -102.85073   -10300.247    4.3444386    4.3444386    4.3444386   -10300.247   -1746.9923   -26277.717   -2876.0312    21851.069   -895.57496   -1540.3926     81.99757 
   64100    1285.3892   -104.02267    1.1630471   -102.85962   -7069.4876    4.3566283    4.3566283    4.3566283   -7069.4876   -8725.7449   -7615.8951    -4866.823   -33366.622   -16026.577   -4463.3801    82.689723 
   64200    1042.6794   -103.79154   0.94343823    -102.8481    25344.847    4.3542934    4.3542934    4.3542934    25344.847    14805.465    83524.748   -22295.671    5210.0764   -488.69038   -19941.048    82.556841 
   64300     1600.477   -104.28966    1.4481452   -102.84152   -24785.546    4.3511823    4.3511823    4.3511823   -24785.546   -41989.289   -21022.741   -11344.607    -16682.52   -2973.3549    1479.9164    82.380011 
   64400    1155.7762   -103.90611    1.0457706   -102.86034   -17163.909     4.338556     4.338556     4.338556   -17163.909    42834.805   -28989.158   -65337.373   -8902.9356   -3085.3558   -42768.574    81.664936 
   64500    1557.0541   -104.28014    1.4088552   -102.87128    37642.878    4.3327903    4.3327903    4.3327903    37642.878   -4732.2921       104056    13604.925    17093.314   -10204.864    17551.687    81.339784 
   64600    941.05459   -103.73766   0.85148597   -102.88617   -21016.371    4.3526557    4.3526557    4.3526557   -21016.371    858.44426   -21417.006   -42490.552   -29097.824   -7597.7144   -15486.413    82.463725 
   64700    1623.6046   -104.32745    1.4690715   -102.85838    3556.8156      4.35535      4.35535      4.35535    3556.8156   -13074.007    29282.366   -5537.9119    8158.3292   -8571.6286   -2218.0348    82.616954 
   64800    1855.2602   -104.51685    1.6786784   -102.83818   -42039.618    4.3634182    4.3634182    4.3634182   -42039.618   -43299.266   -44736.339   -38083.248   -15439.617    220.70421   -23978.534    83.076946 
   64900    841.28929   -103.60789   0.76121623   -102.84667    13605.051    4.3315895    4.3315895    4.3315895    13605.051    24152.284    39226.209    -22563.34   -12691.777    2048.0704    -32787.54    81.272176 
   65000    1757.8197   -104.43237    1.5905122   -102.84186     31770.08    4.3260388    4.3260388    4.3260388     31770.08    8814.1762    30658.818    55837.246    12024.552   -14521.064    -368.5393    80.960138 
   65100    1187.6033   -103.94378    1.0745684   -102.86921   -11023.171    4.3496861    4.3496861    4.3496861   -11023.171   -34160.215    13680.087   -12589.384    -9209.915    10962.455    -31866.21    82.295059 
   65200     1768.443   -104.44954    1.6001244   -102.84942   -16026.022    4.3581327    4.3581327    4.3581327   -16026.022   -16766.928   -21375.379   -9935.7575    5779.7087   -15660.241    11951.633    82.775413 
   65300     1380.424   -104.09071    1.2490366   -102.84167   -1800.9294    4.3431211    4.3431211    4.3431211   -1800.9294   -9200.2348    2705.6012    1091.8454    12467.634    619.65782   -35122.775    81.922992 
   65400    1503.4733   -104.20395    1.3603743   -102.84358   -1849.0092    4.3415208    4.3415208    4.3415208   -1849.0092   -21377.312    20868.903   -5038.6181   -19119.932   -9740.3399   -5653.1825    81.832469 
   65500    1514.0173   -104.20366    1.3699147   -102.83374    5639.0467    4.3493657    4.3493657    4.3493657    5639.0467    23534.768     1820.093    -8437.721   -90.142701   -8352.2215   -13639.242    82.276875 
   65600    905.50728   -103.66495   0.81932202   -102.84563    7635.4767    4.3555526    4.3555526    4.3555526    7635.4767    66517.745   -34741.573   -8869.7427   -16455.415   -8300.1139   -27327.461    82.628486 
   65700    1526.4402   -104.20888    1.3811552   -102.82772    3114.9628    4.3556458    4.3556458    4.3556458    3114.9628    98808.228   -55658.756   -33804.584   -1648.4723   -21619.409    4019.1652    82.633787 
   65800    1265.8585   -103.98789    1.1453754   -102.84252   -28008.175    4.3328044    4.3328044    4.3328044   -28008.175   -9059.1435   -51581.605   -23383.777    17491.976    -7107.138   -44550.383    81.340577 
   65900     1569.423   -104.26695    1.4200469    -102.8469    11473.331     4.326089     4.326089     4.326089    11473.331    34156.641    -23878.08    24141.433   -19846.567    3919.9227    14657.595    80.962955 
   66000    1014.3294   -103.78536    0.9177866   -102.86758   -8366.1862    4.3546693    4.3546693    4.3546693   -8366.1862    81470.309   -76851.614   -29717.253    20605.748    4211.2573   -26992.043    82.578222 
   66100    1228.6379   -103.95464    1.1116974   -102.84295    3340.6445    4.3581459    4.3581459    4.3581459    3340.6445    12877.047    -20389.61    17534.496     7230.594    16298.268    7814.9324    82.776166 
   66200    1394.9068   -104.09435     1.262141   -102.83221   -20490.437    4.3502358    4.3502358    4.3502358   -20490.437    18424.889   -74624.619   -5271.5817    268.56946   -9981.1786   -10490.441    82.326263 
   66300    1588.4143   -104.26632    1.4372307   -102.82909   -19263.031      4.34053      4.34053      4.34053   -19263.031   -39694.383   -30747.309    12652.599    42460.871     -4075.96    693.98534    81.776455 
   66400    1482.6305   -104.18113    1.3415152   -102.83961     26639.28    4.3306407    4.3306407    4.3306407     26639.28    62151.725    13788.506    3977.6076    -18602.63    -13501.73   -8984.8197     81.21878 
   66500    1250.3446   -103.99311    1.1313381   -102.86177   -32574.432    4.3563173    4.3563173    4.3563173   -32574.432   -3774.4491   -76816.537   -17132.311    50144.788    9274.6042   -3530.7986    82.672013 
   66600    1464.1365   -104.16851    1.3247815   -102.84373    26837.186    4.3523776    4.3523776    4.3523776    26837.186     28003.08    9208.0734    43300.404   -25858.758    15832.998    3123.3985    82.447918 
   66700    870.56113   -103.63707   0.78770201   -102.84937   -2268.0676    4.3520762    4.3520762    4.3520762   -2268.0676   -19011.901   -60831.799    73039.497    41458.112    16404.811    -12114.37    82.430792 
   66800    1893.7835   -104.54044    1.7135351   -102.82691   -3546.3279    4.3465223    4.3465223    4.3465223   -3546.3279   -40895.921    -10474.19    40731.128   -505.61291    10609.439    2321.4765    82.115615 
   66900     1242.223   -103.96772    1.1239895   -102.84373     -17215.8    4.3472688    4.3472688    4.3472688     -17215.8   -49753.426   -23096.154    21202.178     32232.36   -5032.9067   -18464.592    82.157927 
   67000    1686.6971   -104.36879     1.526159   -102.84263   -17360.693    4.3563226    4.3563226    4.3563226   -17360.693   -36552.944   -54617.105    39087.969    13595.673   -102.71797   -16230.208    82.672315 
   67100    1190.6258   -103.92005    1.0773033   -102.84275    22859.976    4.3460334    4.3460334    4.3460334    22859.976   -45612.916   -4512.0919    118704.94    20398.374    6901.8343   -10554.105    82.087907 
   67200    1411.3255   -104.12947     1.276997   -102.85247   -10625.426    4.3479514    4.3479514    4.3479514   -10625.426   -18049.925   -41080.884    27254.532    25037.033    13440.692   -12866.218    82.196637 
   67300    1808.1979   -104.47488    1.6360955   -102.83878    434.56734    4.3514729    4.3514729    4.3514729    434.56734    13247.136   -38901.853    26958.419    9549.9153    1262.5193    17719.911    82.396515 
   67400    1275.5282    -103.9953    1.1541247   -102.84118   -2409.1689    4.3533364    4.3533364    4.3533364   -2409.1689   -21771.784   -25643.365    40187.642    24955.786    3673.2845   -2968.4698    82.502418 
   67500    1236.3804   -103.95166    1.1187029   -102.83295    33701.309    4.3497517    4.3497517    4.3497517    33701.309    42749.237   -35778.142    94132.831   -419.29555    -33276.34    14194.051    82.298781 
   67600    1247.9724   -103.96661    1.1291917   -102.83742    9438.2208    4.3541783    4.3541783    4.3541783    9438.2208    3598.1441   -25069.381    49785.899    30615.384    1917.1294   -1628.1107    82.550297 
   67700    1505.0659   -104.19506    1.3618153   -102.83325   -11218.123    4.3479857    4.3479857    4.3479857   -11218.123   -18328.818   -21553.443     6227.892    728.33791   -2911.0978   -16510.809    82.198584 
   67800     1694.583   -104.36371    1.5332943   -102.83041    3662.1544    4.3346529    4.3346529    4.3346529    3662.1544   -6985.2627    -22149.14    40120.866    24567.818   -7514.6844   -2499.1266    81.444727 
   67900    1081.0706   -103.82609   0.97817544   -102.84791   -1350.5566    4.3443438    4.3443438    4.3443438   -1350.5566   -23944.395   -27682.169    47574.895   -1566.3858    17512.998   -16672.809    81.992204 
   68000    1246.4108   -103.97989    1.1277787   -102.85211   -1695.9043    4.3467158    4.3467158    4.3467158   -1695.9043   -22973.682   -30494.032    48380.001    37252.667   -19512.499    897.14387    82.126577 
   68100    1670.7704   -104.35335    1.5117481    -102.8416   -30102.618    4.3468146    4.3468146    4.3468146   -30102.618   -10037.901   -37777.267   -42492.686   -9278.0576    12813.579    -22703.44    82.132178 
   68200    1245.0057   -103.97404    1.1265073   -102.84753   -13224.831     4.348086     4.348086     4.348086   -13224.831   -29766.483   -38816.159     28908.15    29345.014   -2145.2828   -474.86743     82.20427 
   68300    1452.9604    -104.1511    1.3146691   -102.83644    14146.158    4.3443641    4.3443641    4.3443641    14146.158    14961.519   -1433.7036    28910.658   -12919.404    13244.616    232.25847    81.993352 
   68400    794.14846   -103.57117   0.71856221   -102.85261    3556.5391    4.3449108    4.3449108    4.3449108    3556.5391    10808.596   -52944.048    52805.069    9973.5837    33835.845   -19838.537     82.02431 
   68500    2070.2724   -104.70448     1.873226   -102.83125   -1378.7609    4.3476621    4.3476621    4.3476621   -1378.7609    645.44892    7762.9216   -12544.653    -12911.93    8020.4203    10698.294    82.180232 
   68600    837.72268   -103.61088   0.75798909   -102.85289   -8936.7601    4.3448364    4.3448364    4.3448364   -8936.7601   -7420.2371   -16771.891   -2618.1524    -1531.907    15979.834   -24735.872    82.020098 
   68700    1831.0925   -104.50406     1.656811   -102.84724    3463.0497    4.3428089    4.3428089    4.3428089    3463.0497   -22796.206   -22711.696    55897.051   -5084.1155    -3063.278   -446.19138    81.905331 
   68800    1066.1225   -103.82453   0.96465007   -102.85988    29805.752    4.3297911    4.3297911    4.3297911    29805.752    18042.503    23492.069    47882.685   -4056.8197    4078.4998    3745.3271    81.170986 
   68900    1724.3779   -104.42789    1.5602534   -102.86763   -29389.665    4.3471839    4.3471839    4.3471839   -29389.665   -31734.943    -23669.46   -32764.592   -560.62893    2925.6582   -16639.848    82.153118 
   69000    1271.3943   -103.99804    1.1503843   -102.84766   -2904.3461    4.3539766    4.3539766    4.3539766   -2904.3461   -27717.756   -14044.581    33049.299   -14831.048   -25145.273    4642.1619    82.538825 
   69100    1670.5953   -104.34132    1.5115897   -102.82973   -4418.7039     4.346066     4.346066     4.346066   -4418.7039    4072.6627   -15426.848   -1901.9263    11935.026    18890.264   -10928.001    82.089756 
   69200    1126.9015   -103.85783    1.0196442   -102.83818    2320.5011     4.337305     4.337305     4.337305    2320.5011   -13091.655    -12677.18    32730.338   -22440.283   -21540.561    3887.2118    81.594311 
   69300    1484.6182   -104.19131    1.3433137     -102.848    14763.051    4.3306913    4.3306913    4.3306913    14763.051   -753.82124    10347.578    34695.397    21470.038    5423.9207   -1978.2043    81.221628 
   69400    1602.0705   -104.30041     1.449587   -102.85082   -13943.522    4.3551367    4.3551367    4.3551367   -13943.522   -5488.8832   -28512.975   -7828.7068   -16705.765   -4155.4919    8929.9115    82.604814 
   69500     1108.574   -103.85422    1.0030611   -102.85116   -2284.1062    4.3385227    4.3385227    4.3385227   -2284.1062   -23462.771   -20053.228     36663.68    878.84445   -9865.5991    4834.9146    81.663055 
   69600    1889.3585   -104.54238    1.7095312   -102.83285    25586.892    4.3310799    4.3310799    4.3310799    25586.892    24533.773    9499.7434    42727.159    16867.723   -1375.3478   -631.63728     81.24349 
   69700    739.93415   -103.53566   0.66950796   -102.86615    16739.729    4.3355768    4.3355768    4.3355768    16739.729    31379.835   -44943.339     63782.69   -26093.051   -18495.592    17491.866    81.496815 
   69800    1834.2164   -104.52524    1.6596375    -102.8656   -9951.2491    4.3400427    4.3400427    4.3400427   -9951.2491   -19891.084   -29287.062    19324.399    29614.961    1626.1337    8483.6043    81.748918 
   69900     1202.499   -103.95877    1.0880464   -102.87072    6882.4012    4.3357892    4.3357892    4.3357892    6882.4012    -11268.39   -11392.713    43308.306   -35231.952   -3596.6192     2949.002    81.508796 
   70000    1744.0971   -104.43724    1.5780957   -102.85914   -11207.186    4.3404848    4.3404848    4.3404848   -11207.186    -33523.89   -24987.862    24890.193     21534.54   -17373.996    7074.9883    81.773899 
   70100    1211.9984   -103.94586    1.0966416   -102.84922    19540.721    4.3271351    4.3271351    4.3271351    19540.721   -25214.659   -1987.6057    85824.428   -31446.033    12549.613   -8145.8812    81.021701 
   70200    1468.7269   -104.18949     1.328935   -102.86056   -9882.0462    4.3283529    4.3283529    4.3283529   -9882.0462    6667.1301   -24505.674   -11807.595    6399.8337   -35188.328    13046.641    81.090131 
   70300    1533.5481   -104.24893    1.3875866   -102.86134     18019.45    4.3365292    4.3365292    4.3365292     18019.45   -9799.6642   -33592.137    97450.152   -23452.482    26798.967    3890.5592    81.550539 
   70400    1280.7006   -104.03608    1.1588048   -102.87728   -14525.366    4.3512437    4.3512437    4.3512437   -14525.366   -11768.012   -39630.793    7822.7078    2326.4126   -8207.0013    7739.2013    82.383499 
   70500    1454.4991   -104.18057    1.3160613   -102.86451   -9617.4982    4.3403824    4.3403824    4.3403824   -9617.4982   -18358.589   -36117.463    25623.558    -26345.61   -23696.442    7032.7529    81.768115 
   70600    1407.3303   -104.12718     1.273382    -102.8538    20523.795    4.3139103    4.3139103    4.3139103    20523.795    13218.287    -22684.04    71037.137   -10084.178     9691.312   -7275.5852    80.281101 
   70700    1157.9173   -103.91653    1.0477079   -102.86883    12839.249    4.3343618    4.3343618    4.3343618    12839.249   -14712.633   -22725.096    75955.477   -13129.829   -310.74393   -2438.5486    81.428323 
   70800    1453.5077   -104.17852    1.3151643   -102.86336   -12261.152    4.3531442    4.3531442    4.3531442   -12261.152   -46479.263   -43815.309    53511.117   -33950.264   -4277.3736   -1977.0458    82.491494 
   70900    1423.6611   -104.13987    1.2881585   -102.85171   -20655.733    4.3493801    4.3493801    4.3493801   -20655.733   -40260.604   -519.64766   -21186.946    6061.1036    16027.543   -1091.4182    82.277688 
   71000    922.20965   -103.69283   0.83443467   -102.85839     13571.95    4.3243327    4.3243327    4.3243327     13571.95   -47049.918     -16891.5    104657.27   -53700.456   -22208.264     15458.38    80.864388 
   71100    1673.2295   -104.37175    1.5139732   -102.85778    40246.775    4.3256144    4.3256144    4.3256144    40246.775    10477.752    41311.505    68951.067    10196.856    6744.6105    -3296.575    80.936311 
   71200    1089.0083   -103.86516   0.98535759   -102.87981   -34622.406    4.3526825    4.3526825    4.3526825   -34622.406   -87493.996   -73551.695    57178.472   -54601.916    4344.1501   -4635.3721     82.46525 
   71300    1948.0743   -104.61443    1.7626585   -102.85177   -21941.813    4.3524409    4.3524409    4.3524409   -21941.813    -56410.35    -1474.953   -7940.1349    14010.812   -20726.089   -5033.3671    82.451516 
   71400    1335.4648   -104.05996    1.2083567    -102.8516   -1819.7943     4.340585     4.340585     4.340585   -1819.7943   -45310.055   -54306.024    94156.696   -42123.623    14938.243   -17324.858    81.779566 
   71500     1005.494   -103.76621   0.90979213   -102.85642    7187.8761    4.3426099    4.3426099    4.3426099    7187.8761   -32262.297    16317.373    37508.552     9744.382   -35035.512    10955.535    81.894067 
   71600    1637.8006   -104.33707    1.4819164   -102.85515   -18799.825    4.3497859    4.3497859    4.3497859   -18799.825   -33641.205   -46200.835    23442.564    -29716.24   -4598.3088   -10252.365    82.300723 
   71700    1658.8084   -104.34827    1.5009247   -102.84734   -33353.581    4.3542764    4.3542764    4.3542764   -33353.581   -56177.999   -22919.006   -20963.738     17280.05    -14655.94   -7950.0202    82.555877 
   71800    1218.7777   -103.94948    1.1027757    -102.8467   -7425.1506    4.3362688    4.3362688    4.3362688   -7425.1506   -46374.377   -27926.995    52025.921   -22652.645   -29063.526    5532.9225    81.535846 
   71900    1366.5957   -104.08664    1.2365245   -102.85012    28122.884    4.3382141    4.3382141    4.3382141    28122.884    20975.621   -4511.2325    67904.263    10938.573    20765.572   -20880.714     81.64563 
   72000    1233.2172   -103.96832    1.1158409   -102.85247   -23341.056     4.359988     4.359988     4.359988   -23341.056   -50167.935   -21463.867    1608.6339   -2840.4568   -14151.234    1656.4312    82.881171 
   72100    1997.4655   -104.62577    1.8073488   -102.81842    -16999.65    4.3629386    4.3629386    4.3629386    -16999.65   -16690.627   -19331.938   -14976.385    -473.5962    14294.962   -23775.131    83.049555 
   72200    848.22348   -103.59339   0.76749043    -102.8259    -4710.289    4.3479603    4.3479603    4.3479603    -4710.289   -14229.226   -36.413758    134.77254    15625.907   -12833.261   -1792.9729    82.197142 
   72300    2134.3337   -104.74809      1.93119    -102.8169    13092.259    4.3306605    4.3306605    4.3306605    13092.259   -5088.3777    17323.744    27041.412   -7285.6708     7431.441   -13871.195    81.219895 
   72400    821.73701   -103.60065   0.74352491   -102.85712    15584.098    4.3378041    4.3378041    4.3378041    15584.098   -5336.5442    17865.493    34223.346    29843.679   -10937.101   -20905.659    81.622486 
   72500    1854.0591   -104.52717    1.6775916   -102.84958   -13558.595    4.3534433    4.3534433    4.3534433   -13558.595   -56478.074    20775.966   -4973.6765   -626.62345   -12186.733    5214.3154    82.508499 
   72600    1321.9978   -104.04688    1.1961714   -102.85071   -15753.306    4.3538414    4.3538414    4.3538414   -15753.306   -44400.536    -35835.54    32976.158    10333.554    7068.7624   -22287.267    82.531136 
   72700     1667.517   -104.34777    1.5088044   -102.83897   -7011.9603    4.3466729    4.3466729    4.3466729   -7011.9603   -44839.815    38704.453   -14900.519    13262.268   -11457.276   -1371.7751     82.12415 
   72800    1177.0422   -103.90721    1.0650125    -102.8422    44564.973    4.3300081    4.3300081    4.3300081    44564.973    32703.621   -17730.108    118721.41    7149.0033    12760.793   -6113.5738    81.183191 
   72900    1566.3064   -104.27787    1.4172269   -102.86064   -29156.305    4.3491133    4.3491133    4.3491133   -29156.305   -30070.672   -44647.146   -12751.097    4269.6267   -23576.292   -16259.604    82.262551 
   73000    1367.5312   -104.09026     1.237371   -102.85288    11559.136    4.3479234    4.3479234    4.3479234    11559.136   -3027.6309   -10542.547    48247.587    -3827.563   -3599.0363    6679.9624    82.195048 
   73100    1181.3799    -103.9242    1.0689374   -102.85527    27299.966    4.3371149    4.3371149    4.3371149    27299.966    15973.998   -26233.628    92159.526    8158.5062   -12966.885   -27044.268    81.583586 
   73200    1561.6733   -104.26693    1.4130349    -102.8539   -15327.356     4.347911     4.347911     4.347911   -15327.356   -55424.475    -39929.64    49372.048   -12658.277   -4854.9473    2172.9906    82.194347 
   73300    1195.4974   -103.93131    1.0817112    -102.8496    4685.6202    4.3479159    4.3479159    4.3479159    4685.6202    27409.143   -44470.719    31118.436    9448.0826    3420.7831   -16686.347    82.194622 
   73400    1673.4685   -104.35923    1.5141894   -102.84504   -2178.8802    4.3450255    4.3450255    4.3450255   -2178.8802   -28600.688    13893.551     8170.497   -9778.6147    26876.974    8191.0538     82.03081 
   73500    1151.3367   -103.90308    1.0417537   -102.86133    10219.278     4.347148     4.347148     4.347148    10219.278    18498.089   -66167.988    78327.733     10700.76   -6136.0113    500.90147    82.151079 
   73600    1551.7898   -104.25159     1.404092   -102.84749   -4091.2925    4.3504111    4.3504111    4.3504111   -4091.2925   -19082.798   -1393.4448    8202.3655    1868.0971    4164.0179   -2330.8083    82.336212 
   73700    1270.9593   -103.98895    1.1499907   -102.83896   -14786.965    4.3428096    4.3428096    4.3428096   -14786.965    -36505.83    -32046.68    24191.613     11843.21   -11684.237     9501.485    81.905369 
   73800    1843.6663   -104.50048     1.668188   -102.83229     4585.393    4.3435824    4.3435824    4.3435824     4585.393    21072.017   -38281.425    30965.587   -2581.5182    16934.069    4347.1556      81.9491 
   73900    639.34958   -103.43224   0.57849693   -102.85374    22020.452    4.3471805    4.3471805    4.3471805    22020.452   -19706.773    20387.708    65380.421    4331.7465    8804.6172    17040.843    82.152922 
   74000    1916.8515   -104.55809    1.7344075   -102.82368   -2124.6406    4.3534453    4.3534453    4.3534453   -2124.6406    2705.4071   -39307.148    30227.819    2973.3535    10827.563    10402.659     82.50861 
   74100    683.00258   -103.45523   0.61799509   -102.83724    1942.0509    4.3512979    4.3512979    4.3512979    1942.0509   -51140.217    37738.891    19227.479   -2751.7037      16782.5    8447.5504    82.386577 
   74200    1881.1853   -104.53458     1.702136   -102.83244   -1224.4016    4.3364872    4.3364872    4.3364872   -1224.4016     13942.29   -9893.2415   -7722.2531     7070.225   -5949.2423    24398.229    81.548168 
   74300    1198.1858   -103.94032    1.0841437   -102.85617   -7215.4918    4.3399433    4.3399433    4.3399433   -7215.4918   -36750.076    53764.214   -38660.614    -12226.75    6192.5347    7670.2203    81.743302 
   74400    1420.7171   -104.13127    1.2854947   -102.84578   -5746.5632    4.3551332    4.3551332    4.3551332   -5746.5632     2902.996    2217.9968   -22360.682    8143.5069   -13228.621    977.41774    82.604618 
   74500    1554.2187   -104.24441    1.4062897   -102.83812   -43368.937    4.3517205    4.3517205    4.3517205   -43368.937       -44846   -17614.385   -67646.424     -14091.4    29428.624   -2279.4659    82.410581 
   74600    1283.5739   -103.99774    1.1614046   -102.83633    14543.529     4.337836     4.337836     4.337836    14543.529    15634.536    41353.108   -13357.057   -10346.581   -15595.178   -11583.053    81.624285 
   74700    1687.7529   -104.36635    1.5271143   -102.83923   -7408.9591    4.3300345    4.3300345    4.3300345   -7408.9591   -15855.187    18742.008   -25113.698    271.01665    29419.637   -11891.225    81.184676 
   74800    1009.4207   -103.77485   0.91334509   -102.86151    -1933.964    4.3430829    4.3430829    4.3430829    -1933.964   -18894.874    45500.214   -32407.232   -26291.137   -4470.4483   -10864.419    81.920831 
   74900    1623.5906   -104.31803    1.4690589   -102.84897    -5695.568    4.3483088    4.3483088    4.3483088    -5695.568    -12209.02    15352.852   -20230.535    2986.9842    9613.3635   -15458.278    82.216905 
   75000    1354.4472    -104.0807    1.2255323   -102.85517   -18143.158    4.3394476    4.3394476    4.3394476   -18143.158   -49817.183    30640.405   -35252.697   -19676.162    20604.839    5496.7614    81.715294 
   75100    1512.8583   -104.22494     1.368866   -102.85607     539.7063    4.3353307    4.3353307    4.3353307     539.7063    22135.516   -9427.9642   -11088.433   -17865.914   -13779.593   -20199.579     81.48294 
   75200    1170.3382   -103.93004    1.0589466   -102.87109    9660.3879    4.3357673    4.3357673    4.3357673    9660.3879   -35601.696    62451.779      2131.08     3519.727    25848.532   -785.36545     81.50756 
   75300    1638.3797   -104.34633    1.4824404   -102.86389   -85.654962      4.34685      4.34685      4.34685   -85.654962    23816.192   -23994.242   -78.915072   -15221.422   -11808.077   -8490.8278    82.134185 
   75400    920.72914   -103.69144   0.83309507   -102.85835   -6586.5756    4.3495818    4.3495818    4.3495818   -6586.5756    -44872.66    48959.527   -23846.594    6457.6628    30661.887   -5003.2608    82.289138 
   75500    1974.2252   -104.62936    1.7863205   -102.84304   -1552.0029    4.3356326    4.3356326    4.3356326   -1552.0029   -1188.8622   -101.92442   -3365.2222   -6396.8619   -3509.0272    4581.5993    81.499965 
   75600    863.74979   -103.64627   0.78153896   -102.86473    12098.058    4.3307778    4.3307778    4.3307778    12098.058    3080.9113    42368.116   -9154.8539   -1299.4692    23958.217   -16169.829    81.226494 
   75700    1769.1394    -104.4659    1.6007545   -102.86514   -23763.749    4.3382987    4.3382987    4.3382987   -23763.749   -58367.001    12768.847   -25693.094    11433.313     25602.03    4523.6217    81.650407 
   75800    1523.9038   -104.23681    1.3788602   -102.85795   -8359.5605    4.3496023    4.3496023    4.3496023   -8359.5605   -22436.921   -2320.8825   -320.87823   -7162.4065   -3875.0984    -23193.22    82.290302 
   75900    1015.5345   -103.78521   0.91887697   -102.86634   -32851.068    4.3458709    4.3458709    4.3458709   -32851.068   -53545.021    980.23295   -45988.416    7776.3891    54245.451   -13034.517    82.078697 
   76000    1735.6761   -104.40964    1.5704762   -102.83916    21008.607    4.3266992    4.3266992    4.3266992    21008.607   -24228.763    43700.873    43553.711    9405.9055   -13998.152    18525.181    80.997221 
   76100    1165.7715   -103.91677    1.0548145   -102.86195   -38817.845    4.3333283    4.3333283    4.3333283   -38817.845   -60256.179    2193.4394   -58390.795   -2213.5693    55065.597   -19995.228    81.370089 
   76200    1395.0007   -104.11754     1.262226   -102.85531    19956.755    4.3436316    4.3436316    4.3436316    19956.755   -21072.443    54318.231    26624.476    10745.247    555.13614   -3359.2766    81.951887 
   76300    1366.7008   -104.09419    1.2366196   -102.85757   -21029.746    4.3464972    4.3464972    4.3464972   -21029.746    -14577.64    3121.7121   -51633.309   -2526.1208    31113.526    2774.2027    82.114188 
   76400    1385.0985   -104.09707    1.2532662    -102.8438   -1776.3995    4.3462056    4.3462056    4.3462056   -1776.3995   -15401.935    29115.928   -19043.192     5943.896   -14108.639   -22974.921    82.097662 
   76500    1703.1706   -104.37994    1.5410646   -102.83887    10739.739    4.3288443    4.3288443    4.3288443    10739.739   -3936.6901    25441.054    10714.852   -4499.7259    32446.666    19830.859    81.117752 
   76600    1233.5195   -103.98567    1.1161144   -102.86956   -8378.6572    4.3402073    4.3402073    4.3402073   -8378.6572    57387.806   -13108.879   -69414.899   -9627.0935   -10212.374   -18576.784     81.75822 
   76700    1573.9658   -104.27881    1.4241574   -102.85465    21031.419    4.3437211    4.3437211    4.3437211    21031.419   -15912.567    53203.363    25803.461   -3243.2471    2517.7165   -2966.6004     81.95695 
   76800    1161.5147   -103.91523    1.0509629   -102.86427   -7027.2443     4.345587     4.345587     4.345587   -7027.2443     44529.66   -10359.602   -55251.791   -14918.114    26067.805   -6994.4657    82.062615 
   76900    1699.5958   -104.37926      1.53783   -102.84143   -4175.6063    4.3486348    4.3486348    4.3486348   -4175.6063   -824.01774    17431.584   -29134.385   -3703.4166   -14825.126   -17861.171    82.235402 
   77000    1174.4595   -103.90595    1.0626756   -102.84327    25778.241    4.3292537    4.3292537    4.3292537    25778.241    27914.112    39254.435    10166.177   -454.60136    50592.701   -478.71544    81.140768 
   77100    1324.8436   -104.05472    1.1987463   -102.85598     15520.14    4.3410275    4.3410275    4.3410275     15520.14    47943.165     14082.23   -15464.975     2736.937     -6600.29   -24629.162     81.80458 
   77200    1685.8782    -104.3729    1.5254181   -102.84748   -8466.2674    4.3492504    4.3492504    4.3492504   -8466.2674   -22743.871      18314.2   -20969.131    11520.822     37578.87    11548.285    82.270329 
   77300      1172.11   -103.90712    1.0605497   -102.84657    1048.5661    4.3477337    4.3477337    4.3477337    1048.5661    28837.196    -26663.93    972.43281    2316.0459   -4056.2605    -43393.62    82.184287 
   77400    1870.6709     -104.523    1.6926223   -102.83038   -9219.2158    4.3413315    4.3413315    4.3413315   -9219.2158   -41553.035    23553.804   -9658.4163    11859.678    19736.947    5335.7942    81.821765 
   77500    1393.5686   -104.10415    1.2609301   -102.84322   -4329.7829    4.3454892    4.3454892    4.3454892   -4329.7829    9654.2287   -13035.448    -9608.129    3472.6012    5479.5944   -47786.981    82.057074 
   77600    1832.0528   -104.48673    1.6576798   -102.82905   -35563.312    4.3572921    4.3572921    4.3572921   -35563.312   -49802.862   -5398.6548   -51488.418    10274.399    26118.866   -19223.466    82.727525 
   77700    1208.3919   -103.92236    1.0933784   -102.82898    843.59719    4.3410804    4.3410804    4.3410804    843.59719    4242.5993    11225.692     -12937.5   -2267.9338    10706.901   -18245.814    81.807571 
   77800     1414.435   -104.11055    1.2798105   -102.83074    23904.683    4.3355257    4.3355257    4.3355257    23904.683    25642.782    54974.859   -8903.5921    16198.558    843.27825   -32511.833    81.493934 
   77900    1523.3227   -104.22054    1.3783344   -102.84221   -17068.398     4.346142     4.346142     4.346142   -17068.398   -33799.847    15144.737   -32550.082   -3473.9121    25675.689    3050.9452    82.094058 
   78000    958.78349   -103.71714   0.86752745   -102.84961    29670.844    4.3467393    4.3467393    4.3467393    29670.844    61258.886    62117.499   -34363.853   -10133.467    -6833.594   -33131.028    82.127911 
   78100    1522.3048   -104.22492    1.3774134    -102.8475   -10979.314    4.3500147    4.3500147    4.3500147   -10979.314   -15482.665    26836.727   -44292.003    -4734.625    31442.707    15240.053    82.313712 
   78200    999.80296   -103.75305   0.90464273    -102.8484    13995.511    4.3380459    4.3380459    4.3380459    13995.511    87838.175   -10080.803   -35770.838    8297.7441    6894.6139   -42549.813    81.636131 
   78300    1742.8019   -104.41451    1.5769237   -102.83759    3014.2517    4.3457288    4.3457288    4.3457288    3014.2517   -35963.092     46180.95   -1175.1033   -11632.432    6481.5482    13059.222    82.070646 
   78400    1059.8164    -103.8059   0.95894419   -102.84696   -23415.442    4.3564306    4.3564306    4.3564306   -23415.442    299.86229   -2154.9622   -68391.227    906.61818    6236.0961   -40288.077    82.678465 
   78500    1645.7286   -104.32088    1.4890898   -102.83179    20507.588    4.3442139    4.3442139    4.3442139    20507.588    11820.792    35982.829    13719.144    3096.2865   -9940.0634    10121.896    81.984847 
   78600    1271.4331   -103.99685    1.1504194   -102.84643   -18107.906    4.3330111    4.3330111    4.3330111   -18107.906    18219.107   -13039.726     -59503.1    1721.9024    18349.771   -36953.083    81.352217 
   78700    1630.7983   -104.32315    1.4755806   -102.84757    20683.628    4.3405693    4.3405693    4.3405693    20683.628    55128.654    17035.356   -10113.126   -2258.0948   -7138.7048   -6083.3185    81.778676 
   78800    945.75106   -103.71078   0.85573543   -102.85505   -13811.562     4.359229     4.359229     4.359229   -13811.562    9543.3311   -48358.051   -2619.9668    10918.799      36254.5   -14213.409    82.837897 
   78900    1481.9901   -104.17744    1.3409358    -102.8365    6305.1462     4.350563     4.350563     4.350563    6305.1462    52131.096   -14221.431   -18994.227   -13642.545   -1157.5609   -23368.701    82.344839 
   79000    1292.2913   -104.00517    1.1692923   -102.83588    6714.2057    4.3439344    4.3439344    4.3439344    6714.2057    6910.4206   -18346.243    31578.439    25016.903    11449.845   -12300.002    81.969027 
   79100     1088.118    -103.8254   0.98455204   -102.84085   -23989.504    4.3366578    4.3366578    4.3366578   -23989.504   -14881.479   -23010.807   -34076.225   -4169.7648    19597.537   -57548.634    81.557791 
   79200    1692.2466   -104.37424    1.5311803   -102.84306     27434.87    4.3410534    4.3410534    4.3410534     27434.87    8754.3589    28493.796    45056.455    8058.6728   -11915.332    6236.3506     81.80604 
   79300    910.47892   -103.69504   0.82382046   -102.87122   -38205.859      4.34997      4.34997      4.34997   -38205.859   -16901.465   -69484.318   -28231.794    5296.7347    19656.779   -53690.478    82.311172 
   79400    1697.5677   -104.39053     1.535995   -102.85453    25594.515     4.340205     4.340205     4.340205    25594.515   -15582.814     49191.54    43174.819   -4968.1177   -175.12492      7743.74     81.75809 
   79500    1228.3448   -103.98205    1.1114322   -102.87062   -35728.658    4.3471003    4.3471003    4.3471003   -35728.658   -13815.936   -65375.995   -27994.043    2128.1397    11361.003   -44995.067    82.148378 
   79600    1337.4278    -104.0691    1.2101328   -102.85897    12360.889    4.3389172    4.3389172    4.3389172    12360.889   -15434.551    917.86381    51599.353   -7017.6275     22676.07   -8588.8069    81.685331 
   79700    1795.5544   -104.48072    1.6246553   -102.85606   -20701.824    4.3442277    4.3442277    4.3442277   -20701.824   -18403.624   -39689.352   -4012.4947   -7836.3011   -10461.376   -16819.736    81.985628 
   79800    973.78493   -103.74542   0.88110107   -102.86432   -8425.0287    4.3451448    4.3451448    4.3451448   -8425.0287   -18965.324   -36788.506    30478.744    1382.4244    16535.136   -32358.001    82.037563 
   79900    1804.2737   -104.47808    1.6325448   -102.84553    2031.9328    4.3460393    4.3460393    4.3460393    2031.9328    -33769.91    12505.026    27360.682   -14675.809   -837.82916   -8371.5583     82.08824 
   80000    1128.9318   -103.87061    1.0214812   -102.84912   -23518.513    4.3499172    4.3499172    4.3499172   -23518.513   -28460.868   -23949.274   -18145.399    9507.3599    11446.304   -46666.249    82.308175 
   80100    1641.0844   -104.32515    1.4848877   -102.84026    7060.2969    4.3419974    4.3419974    4.3419974    7060.2969   -39895.401     71154.91   -10078.619    -22129.52    19680.498     12494.38    81.859421 
   80200    1229.3146   -103.95795    1.1123097   -102.84564   -9399.8961    4.3453756    4.3453756    4.3453756   -9399.8961     24620.71   -18047.508    -34772.89    802.58012   -8036.5224   -34716.532    82.050639 
   80300    1717.9643   -104.39351    1.5544502   -102.83906   -20356.129    4.3393148    4.3393148    4.3393148   -20356.129   -41691.145    19962.792   -39340.033   -5189.6722    37561.512    11853.512    81.707791 
   80400    1339.6407   -104.05335     1.212135   -102.84121    13548.808     4.339985     4.339985     4.339985    13548.808    12109.741    27638.441     898.2436     -6857.17   -8443.4746   -24042.692    81.745658 
   80500    1425.1486   -104.13189    1.2895044   -102.84238   -21256.959    4.3458541    4.3458541    4.3458541   -21256.959    -14254.64   -9396.7814   -40119.457    5006.7404    17797.328    -15678.67    82.077749 
   80600    1260.8008   -103.98503     1.140799   -102.84423   -5901.7169    4.3452393    4.3452393    4.3452393   -5901.7169   -37092.702   -2092.0488      21479.6   -25135.196    10295.392   -12776.949     82.04292 
   80700    1561.1814   -104.26053    1.4125897   -102.84794     5127.771    4.3371465    4.3371465    4.3371465     5127.771    37340.802   -4801.4235   -17156.065    16949.593    728.23984   -28226.074    81.585367 
   80800    1272.7942   -104.00895     1.151651   -102.85729    16907.007     4.330935     4.330935     4.330935    16907.007   -24214.196     33381.43    41553.788   -13022.934    13183.405    17808.207    81.235337 
   80900    1405.8435   -104.12875    1.2720367   -102.85671    6603.4833    4.3392476    4.3392476    4.3392476    6603.4833     8589.604      39514.7   -28293.854    1808.8966   -3908.6948   -12594.163    81.703997 
   81000     1020.755   -103.78394   0.92360059   -102.86034      9842.46    4.3426597    4.3426597    4.3426597      9842.46   -16050.625    51938.504   -6360.4994    6678.4061     26058.69   -12818.119    81.896885 
   81100    1772.9773   -104.45249    1.6042271   -102.84826   -12988.125    4.3488241    4.3488241    4.3488241   -12988.125   -21643.384   -2623.2554   -14697.735   -24526.642   -7907.8513    9989.8809    82.246141 
   81200    1487.6963   -104.18643    1.3460989   -102.84033    -15182.04    4.3478672    4.3478672    4.3478672    -15182.04   -15450.802    8423.6089   -38518.927    -2647.287    23733.646   -14313.713    82.191858 
   81300    1314.5581   -104.03272    1.1894398   -102.84328   -3790.0324    4.3369507    4.3369507    4.3369507   -3790.0324   -28242.618   -5177.8163    22050.337   -25679.793    9384.1459    8776.0492    81.574319 
   81400    1717.1712   -104.40844    1.5537326   -102.85471   -5875.5845    4.3322005    4.3322005    4.3322005   -5875.5845   -29085.835    32413.324   -20954.243   -8638.3396    521.02779    9549.3206    81.306569 
   81500    1407.0607   -104.13702    1.2731381   -102.86388    15089.463    4.3289024    4.3289024    4.3289024    15089.463   -25974.053    28025.731    43216.711   -5084.2284    15294.286   -7643.7353    81.121014 
   81600     1147.318   -103.91068    1.0381175   -102.87256   -37025.411    4.3477009    4.3477009    4.3477009   -37025.411   -41068.588   -34736.038   -35271.607   -25448.376   -11736.948    23728.282    82.182432 
   81700    1328.6185   -104.05288    1.2021619   -102.85072    17286.085    4.3351398    4.3351398    4.3351398    17286.085   -20586.623    50942.524    21502.353    6266.7768    3145.0549    14076.409    81.472177 
   81800    1269.9681   -104.01024    1.1490938   -102.86115   -13415.092    4.3306582    4.3306582    4.3306582   -13415.092   -18083.274   -43316.326    21154.325   -34329.116   -5873.1317   -4444.6412    81.219765 
   81900    1356.0378   -104.08832    1.2269715   -102.86134   -6810.2954    4.3415883    4.3415883    4.3415883   -6810.2954   -26844.575    17343.966   -10930.277     6648.784   -20487.041    29225.304    81.836287 
   82000    1216.9882   -103.96474    1.1011565   -102.86358   -15758.919    4.3524819    4.3524819    4.3524819   -15758.919    -34559.52   -42236.791    29519.555   -23884.631    17225.894   -7703.2471    82.453844 
   82100    1490.4617   -104.19568     1.348601   -102.84708   -19555.671    4.3512736    4.3512736    4.3512736   -19555.671   -20461.943   -8443.7773   -29761.294    3809.2555    -12188.16    27166.956    82.385193 
   82200    1330.5058   -104.04526    1.2038696   -102.84139     -3836.07    4.3416539    4.3416539    4.3416539     -3836.07    -30966.87   -16335.064    35793.724   -14384.732    358.83017      -8886.6    81.839996 
   82300    1530.1058   -104.23036    1.3844719   -102.84589   -13070.569    4.3499299    4.3499299    4.3499299   -13070.569   -27921.791   -37961.594    26671.679    -3624.239    6015.9995    13425.429    82.308897 
   82400     1338.313    -104.0624    1.2109337   -102.85146    -1010.397    4.3428323    4.3428323    4.3428323    -1010.397   -29995.172    48302.212   -21338.231   -10120.533   -34643.127    4871.6524     81.90665 
   82500    1422.0681   -104.14658    1.2867171   -102.85987   -8446.8949    4.3441113    4.3441113    4.3441113   -8446.8949    -17817.01   -41425.213    33901.539   -17075.571    8360.3297    -18987.57    81.979039 
   82600    1528.3966   -104.24502    1.3829253   -102.86209    5737.0608    4.3482416    4.3482416    4.3482416    5737.0608   -22085.647    61443.684   -22146.854   -370.50532    -34446.26    1488.9691    82.213097 
   82700    1246.0307   -103.99421    1.1274348   -102.86678   -2469.8706    4.3414435    4.3414435    4.3414435   -2469.8706     32802.26   -44712.714    4500.8423   -23614.241     2550.001    -12487.29      81.8281 
   82800    1698.3987   -104.39347    1.5367469   -102.85672   -5833.3371    4.3515607    4.3515607    4.3515607   -5833.3371    4054.5362   -5354.6444   -16199.903    4251.3514    2113.4069   -5469.6388    82.401503 
   82900    945.92382   -103.70684   0.85589175   -102.85095    6842.0149    4.3527208    4.3527208    4.3527208    6842.0149    20156.166     6077.311   -5707.4323    -29862.46   -14361.091   -6377.5735    82.467424 
   83000    1639.7193   -104.31884    1.4836525   -102.83519   -10846.595      4.34798      4.34798      4.34798   -10846.595   -6396.9885   -6690.5866   -19452.211   -9458.0675    15690.239    -19076.26    82.198258 
   83100     1457.269   -104.16585    1.3185676   -102.84728    831.59851    4.3432643    4.3432643    4.3432643    831.59851   -19777.344    15577.254    6694.8856     -4548.61   -24030.039     12423.13    81.931095 
   83200    1211.5675   -103.95906    1.0962518   -102.86281    5220.6273    4.3452406    4.3452406    4.3452406    5220.6273     7033.651    20177.116   -11548.885   -17627.662     6748.443   -32829.199    82.042994 
   83300    1698.0371   -104.39297    1.5364196   -102.85655   -16278.629    4.3554296    4.3554296    4.3554296   -16278.629   -49244.454    13998.985   -13590.419    14417.361    2485.7469    652.02582    82.621486 
   83400    996.04917   -103.74954   0.90124622    -102.8483    15525.379    4.3475739    4.3475739    4.3475739    15525.379    15399.748   -15325.956    46502.346   -23079.478   -30349.311   -16933.043     82.17523 
   83500    1662.8851   -104.34591    1.5046134    -102.8413   -11400.075    4.3423619    4.3423619    4.3423619   -11400.075    -11641.05    10780.362   -33339.539    9725.9018    30333.395   -10055.639    81.880041 
   83600    1534.6745   -104.23008    1.3886057   -102.84147   -23483.489    4.3499115    4.3499115    4.3499115   -23483.489   -43650.533   -14337.989   -12461.945   -19555.309   -39376.711    3997.6135    82.307854 
   83700     1469.687   -104.17697    1.3298037   -102.84717   -400.45537    4.3432822    4.3432822    4.3432822   -400.45537       -14215    13907.767   -894.13316    1894.9694    18439.423   -9892.2467    81.932111 
   83800    1107.8838   -103.85596    1.0024365   -102.85352    4573.9503    4.3484444    4.3484444    4.3484444    4573.9503   -18764.666    13494.913    18991.604   -18353.049   -12262.404   -6243.0589    82.224598 
   83900    1514.3448   -104.21095     1.370211   -102.84074    4520.2595    4.3533286    4.3533286    4.3533286    4520.2595   -25765.267    4397.4632    34928.582   -4775.2818   -10702.476   -23079.155    82.501976 
   84000    625.91938   -103.41896   0.56634501   -102.85261   -1011.9816    4.3502339    4.3502339    4.3502339   -1011.9816   -9429.4134    23036.761   -16643.292   -12443.482    19857.462   -17884.702    82.326154 
   84100    2342.6852   -104.94726    2.1197108   -102.82755   -7267.3431    4.3403428    4.3403428    4.3403428   -7267.3431   -19405.077    4544.4517   -6941.4043   -9855.9679   -15989.213    1981.0499    81.765878 
   84200     752.5992   -103.53961   0.68096757   -102.85864   -21720.927    4.3528533    4.3528533    4.3528533   -21720.927   -13780.257    5761.2644   -57143.787   -194.59834    15152.795   -8520.6581    82.474954 
   84300    2241.9166   -104.86092    2.0285333   -102.83238   -19334.816    4.3547241    4.3547241    4.3547241   -19334.816   -21113.483   -12936.004   -23954.961   -20733.983   -9609.6176    4254.6375    82.581344 
   84400    849.14304   -103.61803   0.76832247   -102.84971    2643.3677    4.3417942    4.3417942    4.3417942    2643.3677   -4074.9556    20904.935   -8899.8758    9297.6003    7647.5988   -2301.0553    81.847932 
   84500    1667.6929   -104.37143    1.5089636   -102.86247    5513.3289    4.3370782    4.3370782    4.3370782    5513.3289    418.10098    30771.714   -14649.828   -353.19407    8627.4818   -8055.5151    81.581516 
   84600    1258.7746   -104.00726    1.1389657   -102.86829    21106.364    4.3524518    4.3524518    4.3524518    21106.364    10654.417     39334.04    13330.635   -11590.442    179.73955    5496.5927    82.452136 
   84700    1131.9514   -103.89317    1.0242135   -102.86895   -27068.505    4.3504658    4.3504658    4.3504658   -27068.505    -24770.92    -15848.67   -40585.926    16920.733    18872.014   -23582.186    82.339322 
   84800    1889.6844   -104.55821    1.7098261   -102.84838    18032.886    4.3332192    4.3332192    4.3332192    18032.886    37691.609   -3591.4757    19998.524   -18582.781   -4872.3397    11874.509    81.363942 
   84900    905.64988   -103.69535   0.81945105    -102.8759    15622.674    4.3325328    4.3325328    4.3325328    15622.674    60346.291   -24240.673    10762.403    13313.201     13319.43   -4392.6752    81.325281 
   85000    1987.2701    -104.6569    1.7981237   -102.85877   -22538.888    4.3530875    4.3530875    4.3530875   -22538.888   -24504.836   -7129.9951   -35981.833    8452.6153    380.20932    7544.1958    82.488269 
   85100    970.27903   -103.73398   0.87792885   -102.85605   -6586.7506    4.3454803    4.3454803    4.3454803   -6586.7506   -19187.987    24060.537   -24632.801   -5085.8909   -7831.7079    3168.5734    82.056571 
   85200    1681.3763   -104.35264    1.5213447   -102.83129    22520.081    4.3355554    4.3355554    4.3355554    22520.081    35823.789    16907.012    14829.442    12761.162    14252.016   -1163.6242    81.495612 
   85300     763.3257    -103.5343   0.69067313   -102.84363    -6744.363    4.3468132    4.3468132    4.3468132    -6744.363   -33951.418    28436.542   -14718.213   -14988.306   -25705.424    2560.1076    82.132104 
   85400    1816.7944   -104.48687    1.6438738     -102.843    -10226.16    4.3403034    4.3403034    4.3403034    -10226.16    8177.7591   -4869.6774   -33986.561    13995.494    26310.331    1523.0103    81.763651 
   85500    1218.8983   -103.95476    1.1028848   -102.85188   -14506.289    4.3446299    4.3446299    4.3446299   -14506.289    -41612.55    22620.322   -24526.638   -12705.535   -40083.056    10013.764    82.008401 
   85600    1496.6838   -104.20743    1.3542309    -102.8532   -27519.971    4.3482583    4.3482583    4.3482583   -27519.971   -15281.517   -18098.917   -49179.479    -8284.148    12042.235    7987.3023    82.214042 
   85700    1345.9667   -104.06872     1.217859   -102.85086   -1562.3792     4.345863     4.345863     4.345863   -1562.3792   -56043.536    66164.836   -14808.437    4738.3988   -31403.543   -14142.947     82.07825 
   85800    1221.5351   -103.96053    1.1052707   -102.85526   -21891.288    4.3425532    4.3425532    4.3425532   -21891.288   -48296.062         1277   -18654.803   -20118.477   -5644.7557    10527.019    81.890864 
   85900    1748.6825   -104.42526    1.5822447   -102.84301   -10531.759    4.3375784    4.3375784    4.3375784   -10531.759    -26834.91    16208.124   -20968.492   -295.60381   -17868.359   -10131.554    81.609741 
   86000    983.21075   -103.75154   0.88962975   -102.86191   -19.880801    4.3408845    4.3408845    4.3408845   -19.880801   -39625.682    72381.165   -32815.126    -4111.935    -24820.55    3371.9397    81.796496 
   86100    1374.7003   -104.10366    1.2438578    -102.8598    6190.9178    4.3430321    4.3430321    4.3430321    6190.9178    2417.3133    21911.024   -5755.5837   -10093.099    1379.1784     13837.41    81.917957 
   86200    1521.8663   -104.24025    1.3770166   -102.86323   -10781.934    4.3429519    4.3429519    4.3429519   -10781.934   -50944.654    63779.865   -45181.013    13452.868   -25499.353   -14323.826    81.913422 
   86300    1181.9107   -103.93474    1.0694177   -102.86532    10240.778    4.3385849    4.3385849    4.3385849    10240.778    19683.447     36225.72   -25186.832    -1280.182    6585.2823    25823.874    81.666568 
   86400       1390.8   -104.12264    1.2584251   -102.86421    10032.614    4.3458013    4.3458013    4.3458013    10032.614   -21068.635    54257.905   -3091.4271    6719.9632   -19252.655   -5347.6925    82.074756 
   86500    1706.9438    -104.3927    1.5444786   -102.84822   -29620.686    4.3557864    4.3557864    4.3557864   -29620.686   -62091.025   -21704.473   -5066.5602    5834.3273    8840.9051    26701.749    82.641793 
   86600    1093.0913   -103.83395   0.98905198    -102.8449    15976.007    4.3423954    4.3423954    4.3423954    15976.007   -11523.849    83611.414   -24159.544   -3042.7327   -13288.816    7725.4332    81.881934 
   86700    1589.2494   -104.28421    1.4379862   -102.84622   -10721.665    4.3400888    4.3400888    4.3400888   -10721.665    -41063.61   -36327.988    45226.604     34544.31    2744.7199    6389.6153    81.751521 
   86800    1435.7654   -104.15081    1.2991107    -102.8517   -448.21995    4.3402554    4.3402554    4.3402554   -448.21995   -24361.468    17187.043    5829.7654   -13452.529    2970.7848    11978.311    81.760936 
   86900    1365.8682   -104.08839    1.2358663   -102.85252   -4448.8706    4.3492721    4.3492721    4.3492721   -4448.8706   -10640.216   -25054.512    22348.116    27125.509   -16246.902    8110.9024     82.27156 
   87000    1583.6992   -104.27949    1.4329643   -102.84652   -17990.091    4.3472504    4.3472504    4.3472504   -17990.091   -28657.054   -29098.989     3785.771    7534.9842    8113.8852    8176.5726    82.156883 
   87100    1067.0465   -103.81935   0.96548607   -102.85386    17441.625    4.3364789    4.3364789    4.3364789    17441.625     21522.88   -10019.023    40821.018    8182.2357   -349.87457    6391.8745    81.547699 
   87200    1493.4793   -104.21166    1.3513314   -102.86033   -13633.816    4.3434643    4.3434643    4.3434643   -13633.816    -36789.87   -19718.014    15606.434     26132.43    2196.4536   -3271.9822    81.942415 
   87300     1338.593    -104.0673    1.2111871   -102.85611    1221.9924    4.3411299    4.3411299    4.3411299    1221.9924    9713.2367   -15861.973    9814.7134   -4210.8905    16867.144    8385.7573    81.810366 
   87400    1156.9244   -103.90643    1.0468095   -102.85962   -9176.9016    4.3407714    4.3407714    4.3407714   -9176.9016   -42623.031    18941.026   -3848.6999    44544.628   -7330.7486   -6059.9896    81.790104 
   87500    2023.9488   -104.67464    1.8313114   -102.84333   -1446.3619    4.3425659    4.3425659    4.3425659   -1446.3619   -29966.105    24076.494     1550.526   -8323.7484    5566.3203   -12245.206    81.891578 
   87600      1126.42   -103.87721    1.0192085     -102.858   -9599.4917     4.338361     4.338361     4.338361   -9599.4917    3932.3697   -33670.767    939.92251    44802.491    2109.5795    16576.589    81.653927 
   87700    1755.1549   -104.44152     1.588101   -102.85342    5365.4164     4.342925     4.342925     4.342925    5365.4164   -17490.525    45023.621   -11436.846   -13330.691   -7084.8796   -12261.475    81.911898 
   87800     1176.888   -103.93074     1.064873   -102.86587   -37101.934    4.3472762    4.3472762    4.3472762   -37101.934   -44444.458   -50236.531   -16624.811    47289.694    17421.472    3792.4608    82.158347 
   87900    1181.2824   -103.92824    1.0688491   -102.85939    7394.9772    4.3369928    4.3369928    4.3369928    7394.9772    17729.903   -20095.638    24550.666   -3498.9787   -2048.5278    14764.636    81.576696 
   88000    1742.5207   -104.42453    1.5766694   -102.84786   -10164.015    4.3361825    4.3361825    4.3361825   -10164.015    -41981.76   -6595.1682    18084.884    35655.151    5116.1533    -20654.77    81.530981 
   88100    829.45558   -103.61311   0.75050884    -102.8626     2886.034     4.350338     4.350338     4.350338     2886.034     33016.58   -46915.115    22556.637    18255.306    12181.925    11601.496    82.332064 
   88200    1617.1247   -104.30998    1.4632084   -102.84677    -9431.137    4.3535896    4.3535896    4.3535896    -9431.137   -57207.795   -8473.2371    37387.621    17585.183   -4715.2959   -4606.3754    82.516816 
   88300     1278.766   -104.01478    1.1570543   -102.85773   -6693.0595    4.3358782    4.3358782    4.3358782   -6693.0595    3043.5587   -45703.185    22580.448    38310.401    9137.3526    2497.2328    81.513817 
   88400    1442.0402   -104.16475    1.3047882   -102.85996    18277.347    4.3302922    4.3302922    4.3302922    18277.347    1238.3288    32849.774    20743.939   -6927.7814   -1932.5698    9810.3052    81.199173 
   88500    1411.6993   -104.14235    1.2773352   -102.86501   -20658.249     4.350054     4.350054     4.350054   -20658.249    -28884.61   -55302.977     22212.84    40614.927   -1203.3135   -6375.4368    82.315943 
   88600    1090.1243   -103.84033   0.98636733   -102.85396     15440.89    4.3520934    4.3520934    4.3520934     15440.89   -3052.7036    30012.956    19362.419   -10382.393    10521.533    29.182927    82.431768 
   88700    1614.4037   -104.30565    1.4607464    -102.8449   -30853.644    4.3463337    4.3463337    4.3463337   -30853.644   -53092.527   -44582.291    5113.8869    36416.073   -7280.0875    4427.6234    82.104925 
   88800    1485.9876   -104.18806    1.3445528    -102.8435     16066.32    4.3265929    4.3265929    4.3265929     16066.32    4994.9939    26092.815    17111.153   -6719.6898    2291.5548   -3828.6199    80.991247 
   88900    1157.4891    -103.9153    1.0473204   -102.86798   -5997.9859    4.3413601    4.3413601    4.3413601   -5997.9859   -17823.514    158.66434   -329.10813    14287.859    8429.6236    6467.6664    81.823383 
   89000    1763.3971   -104.44592    1.5955588   -102.85036   -1173.3885    4.3508019    4.3508019    4.3508019   -1173.3885   -41856.845    10616.289     27720.39   -2032.8944   -5083.2106   -3880.0186    82.358406 
   89100    972.04445   -103.73501   0.87952625   -102.85548   -497.90392    4.3390783    4.3390783    4.3390783   -497.90392    3213.4586    18290.853   -22998.023   -3462.4914    18993.973    8445.8969    81.694433 
   89200    1575.6655   -104.26983    1.4256952   -102.84413    15264.574    4.3361398    4.3361398    4.3361398    15264.574   -28708.258    15566.035    58935.946    2724.4719   -15609.002   -1028.3774    81.528571 
   89300    1289.6186   -104.02074     1.166874   -102.85387    -1579.748    4.3422227    4.3422227    4.3422227    -1579.748    5318.8994    23052.889   -33111.033   -11617.478    8476.7174    858.71432    81.872165 
   89400    1283.8061   -104.02022    1.1616147    -102.8586   -12604.355    4.3470291    4.3470291    4.3470291   -12604.355    -28944.89   -29385.115     20516.94     9088.282   -6784.5611    13320.901    82.144338 
   89500     1577.601   -104.28004    1.4274465   -102.85259    4131.1023    4.3349808    4.3349808    4.3349808    4131.1023   -25828.582    48959.202   -10737.312   -15336.505    -17384.92   -11618.212    81.463212 
   89600    1472.4065   -104.19559    1.3322643   -102.86332    6720.4279    4.3337562    4.3337562    4.3337562    6720.4279    8087.2277   -25602.934     37676.99    6870.3935    16500.334    36004.858    81.394191 
   89700    1263.8426   -104.00727    1.1435514   -102.86372   -7759.6054    4.3462981    4.3462981    4.3462981   -7759.6054   -56981.544    2459.6463    31243.082   -3598.7878   -39566.271   -792.60317    82.102906 
   89800    1580.6957   -104.28164    1.4302466   -102.85139     10052.47     4.340692     4.340692     4.340692     10052.47   -1574.2643    16825.274      14906.4    3947.4085    11174.998    13515.165    81.785614 
   89900     1174.669   -103.92268    1.0628652   -102.85982    -8983.369    4.3422391    4.3422391    4.3422391    -8983.369   -39131.819    14743.094   -2561.3821    2502.5199   -43328.085    17003.436    81.873096 
   90000    1558.4364   -104.25973     1.410106   -102.84963    16072.718    4.3390375    4.3390375    4.3390375    16072.718   -30083.541    31900.659    46401.037   -4999.5247   -12865.009     16959.12    81.692126 
   90100    1157.3842   -103.91464    1.0472255   -102.86741    3467.4038    4.3360859    4.3360859    4.3360859    3467.4038    -26316.84    32054.639    4664.4126    8958.9236   -15425.833    7737.4457    81.525531 
   90200    1531.5566   -104.27116    1.3857846   -102.88538   -23619.968    4.3467051    4.3467051    4.3467051   -23619.968   -52342.281     8851.895   -27369.519    4452.6034   -31179.369   -7343.1178    82.125972 
   90300    1544.2655   -104.26611    1.3972839   -102.86883     23995.49    4.3427968    4.3427968    4.3427968     23995.49   -12016.141    16221.962     67780.65    1310.1925     463.1443    -464.5084    81.904643 
   90400    922.10673   -103.71989   0.83434154   -102.88555   -16357.388    4.3287624    4.3287624    4.3287624   -16357.388   -31571.174    1410.1302   -18911.119    9483.5833   -51533.245    18696.413    81.113146 
   90500    1806.9056   -104.50791    1.6349262   -102.87298    10299.791    4.3374781    4.3374781    4.3374781    10299.791    7556.8865    15317.176    8025.3113   -5841.8814     17585.19   -15988.586    81.604084 
   90600    1106.9091   -103.88854    1.0015546   -102.88698   -20070.379    4.3449991    4.3449991    4.3449991   -20070.379   -72816.797    7288.9183    5316.7421    1645.4486   -56398.227    15920.727    82.029311 
   90700    1460.4331   -104.19618    1.3214305   -102.87475    1975.7293    4.3451148    4.3451148    4.3451148    1975.7293   -20220.006   -4944.0688    31091.263   -694.48372    20276.758   -1242.8863    82.035863 
   90800    1263.4598   -104.01359     1.143205   -102.87038   -19450.208    4.3411106    4.3411106    4.3411106   -19450.208   -49437.192     20397.85   -29311.281   -8602.3453   -42108.658   -19249.209    81.809276 
   90900    1509.9002   -104.22862    1.3661895   -102.86243   -7672.3711    4.3350987    4.3350987    4.3350987   -7672.3711   -35008.023    27681.708   -15690.798    10325.195   -8453.2312    21084.577    81.469859 
   91000    1137.2789   -103.89468    1.0290339   -102.86564    12707.296      4.33525      4.33525      4.33525    12707.296   -7668.2271    28729.796    17060.318   -16088.211   -13324.972   -11379.916    81.478392 
   91100    1461.8305   -104.19554     1.322695   -102.87285    -29088.77    4.3463781    4.3463781    4.3463781    -29088.77   -57236.181    22462.997   -52493.127    8271.0978   -32280.821    -825.5202     82.10744 
   91200    1333.0748   -104.06693    1.2061941   -102.86073   -6765.1732    4.3476378    4.3476378    4.3476378   -6765.1732   -19431.397   -4011.6582    3147.5353   -3242.6341    3217.8057    23716.692    82.178853 
   91300     1316.778   -104.04696    1.1914484   -102.85551    9017.4973    4.3257679    4.3257679    4.3257679    9017.4973    -18508.85    19097.714    26463.627    3130.0973   -37768.919   -28363.613    80.944929 
   91400    1537.0557   -104.26151    1.3907603   -102.87075   -5227.6902    4.3358504    4.3358504    4.3358504   -5227.6902   -15621.993   -5492.0784    5431.0003    14353.464    8879.5768    31723.553     81.51225 
   91500    1270.4909     -104.017    1.1495669   -102.86743   -19846.641    4.3484032    4.3484032    4.3484032   -19846.641    -41934.41    2471.7815   -20077.296   -3486.1298   -35182.064   -7994.2683     82.22226 
   91600    1601.4658   -104.30253    1.4490399   -102.85349    14811.624    4.3290643    4.3290643    4.3290643    14811.624    30162.142    12356.984    1915.7472    30733.686    12716.593    6007.0408    81.130118 
   91700    1178.3152   -103.93703    1.0661644   -102.87086    13643.143    4.3303191    4.3303191    4.3303191    13643.143    -8807.833    70661.399   -20924.137   -5825.0752   -24550.872    15628.213    81.200687 
   91800     1645.545   -104.35739    1.4889237   -102.86846   -1880.3011    4.3398778    4.3398778    4.3398778   -1880.3011   -3952.7953    8177.2053   -9865.3132    18365.539   -6645.3925   -8407.7903    81.739598 
   91900    1178.9995   -103.93747    1.0667836   -102.87068   -8639.1851    4.3456674    4.3456674    4.3456674   -8639.1851   -26861.447    15411.859   -14467.968    8216.2168    941.30554    -2266.885    82.067168 
   92000    1336.6824    -104.0782    1.2094583   -102.86875   -19460.023    4.3356822    4.3356822    4.3356822   -19460.023   -49076.986     4648.993   -13952.077   -21275.601   -44356.029    12094.023    81.502762 
   92100    1721.8515   -104.42084    1.5579674   -102.86288    10462.821    4.3312803    4.3312803    4.3312803    10462.821     14949.47     15235.87     1203.122    8460.2021    19382.829   -20249.923    81.254773 
   92200    735.77946   -103.55157   0.66574872   -102.88582   -13323.989    4.3453763    4.3453763    4.3453763   -13323.989   -10805.108    17116.282    -46283.14   -19327.396   -49973.418    15268.167     82.05068 
   92300    1669.3334   -104.37852    1.5104479   -102.86808   -9869.3135    4.3420545    4.3420545    4.3420545   -9869.3135   -2877.1311   -16962.594   -9768.2159    -7337.396    2207.1614   -2563.9531    81.862655 
   92400     1145.079    -103.9062    1.0360915    -102.8701    1097.9741    4.3444119    4.3444119    4.3444119    1097.9741   -7998.4769    18443.895   -7151.4957    -12207.27   -20164.632   -26944.644    81.996062 
   92500    1165.5534    -103.9081    1.0546172   -102.85348   -31879.577    4.3464633    4.3464633    4.3464633   -31879.577   -24928.538   -30399.865    -40310.33   -24494.978   -27206.871    24816.577     82.11227 
   92600    1723.7217   -104.39965    1.5596596   -102.83999    6757.0051    4.3360166    4.3360166    4.3360166    6757.0051    6568.7226    10402.066    3300.2268    8282.6956    7756.2227   -20278.099    81.521622 
   92700    935.44785   -103.70888   0.84641287   -102.86247   -30971.272    4.3472065    4.3472065    4.3472065   -30971.272   -33032.169   -5530.2849   -54351.362   -25826.943   -26443.188    3846.0495    82.154395 
   92800    1583.6243   -104.28631    1.4328965   -102.85341    -23450.66    4.3392983    4.3392983    4.3392983    -23450.66    -27331.43   -24077.022   -18943.528   -11405.219     6127.199    33741.115    81.706857 
   92900     1483.474    -104.1943    1.3422785   -102.85202   -3362.9524    4.3407162    4.3407162    4.3407162   -3362.9524   -28307.819    47736.978   -29518.016    2411.9248   -28640.772   -19790.581    81.786978 
   93000    802.15082   -103.58404   0.72580292   -102.85824   -34305.086    4.3470583    4.3470583    4.3470583   -34305.086   -28344.988   -34789.335   -39780.936   -36088.015    1805.7622    45178.821    82.145993 
   93100    1870.3824   -104.54581    1.6923613   -102.85345   -1965.5517     4.332467     4.332467     4.332467   -1965.5517   -22343.014    5068.5394    11377.819    13673.889   -12860.465   -4900.7683    81.321575 
   93200    925.77849   -103.70746   0.83766383   -102.86979    4895.7145    4.3426712    4.3426712    4.3426712    4895.7145    3134.6734    23996.512   -12444.042   -27367.971   -19129.572   -1675.9142    81.897536 
   93300    1352.0642   -104.08553    1.2233761   -102.86216   -26173.598    4.3418018    4.3418018    4.3418018   -26173.598   -11132.936   -58550.472   -8837.3867   -3261.1032    4803.4717    33128.609    81.848359 
   93400    1432.9315   -104.15229    1.2965466   -102.85574     1988.394    4.3465869    4.3465869    4.3465869     1988.394    10792.709    10970.814   -15798.341     2868.637   -25690.612   -10083.327    82.119276 
   93500    1422.2305   -104.14737    1.2868641    -102.8605   -36346.865    4.3446789    4.3446789    4.3446789   -36346.865   -12026.117   -64399.846   -32614.632   -34674.526    3455.9133    42468.169    82.011176 
   93600    1293.9191   -104.03153    1.1707652   -102.86077    34724.817    4.3282332    4.3282332    4.3282332    34724.817     75385.46    18139.985    10649.006    21778.275   -8315.3112   -1472.6669    81.083404 
   93700    1353.2971   -104.09789    1.2244916    -102.8734   -6387.5243    4.3359386    4.3359386    4.3359386   -6387.5243    26118.261   -33488.731   -11792.103   -7075.3103   -10228.763     28164.32    81.517223 
   93800    1500.8327   -104.22944     1.357985   -102.87146    6886.5826    4.3407684    4.3407684    4.3407684    6886.5826    67104.617   -34747.484   -11697.385    -18575.58    5961.7226    13945.717    81.789929 
   93900    1472.1667   -104.19588    1.3320473   -102.86383   -21066.053    4.3504658    4.3504658    4.3504658   -21066.053   -14551.353   -24654.931   -23991.877    22494.269    -17033.93    6926.2422    82.339319 
   94000    1235.7073   -103.97425    1.1180939   -102.85615    16627.198      4.33241      4.33241      4.33241    16627.198    93517.032    -20405.64   -23229.797    -18637.93     3827.688    13367.282    81.318369 
   94100    1578.0738    -104.2946    1.4278743   -102.86673   -2456.4742    4.3234587    4.3234587    4.3234587   -2456.4742     -2643.72   -18696.436    13970.733    23070.197    -16142.42   -2753.1443    80.815366 
   94200    1533.4001   -104.26858    1.3874526   -102.88113   -10532.055    4.3362573    4.3362573    4.3362573   -10532.055    39719.821   -27611.335    -43704.65   -3518.8205    3141.9924     17688.43    81.535201 
   94300    1138.1857   -103.90994    1.0298543   -102.88008   -23892.571    4.3479298    4.3479298    4.3479298   -23892.571    -22759.05   -47613.231   -1305.4316   -19500.199     2776.373    -8195.369    82.195411 
   94400     1469.918   -104.19128    1.3300127   -102.86126   -1724.3285    4.3291594    4.3291594    4.3291594   -1724.3285    12231.114   -41371.795    23967.695    22968.383    1014.8718    23094.984    81.135467 
   94500    1593.8114   -104.30144    1.4421141   -102.85932    5195.1224     4.327468     4.327468     4.327468    5195.1224    44331.563   -26567.624   -2178.5715   -29496.485    8786.4776   -3758.1418    81.040404 
   94600    1086.4896   -103.86039   0.98307863   -102.87731      3043.68    4.3323809    4.3323809    4.3323809      3043.68    14472.537     -52204.2    46862.703    13438.695    258.40511    16059.293    81.316727 
   94700    1337.4875   -104.07707    1.2101868   -102.86688    7487.0489    4.3467624    4.3467624    4.3467624    7487.0489    61729.102   -36099.301   -3168.6548    3281.0792    14816.402    11620.093     82.12922 
   94800     1730.685   -104.43087    1.5659601   -102.86491   -13607.988    4.3331106    4.3331106    4.3331106   -13607.988    1507.6198    -45119.78    2788.1974   -14025.745   -1056.2318   -4510.5321    81.357824 
   94900    1134.5129   -103.90482    1.0265311   -102.87829    13460.943    4.3251212    4.3251212    4.3251212    13460.943    56681.182   -50073.293    33774.941    30762.133    6019.5617    29466.765    80.908627 
   95000    1886.4297   -104.57452    1.7068812   -102.86764    3430.0239    4.3388677    4.3388677    4.3388677    3430.0239    5898.3312   -10026.357    14418.097    -14299.52   -11740.069   -15609.167    81.682538 
   95100    888.07363   -103.68164   0.80354768   -102.87809   -8828.2427     4.338894     4.338894     4.338894   -8828.2427    49126.236   -61072.155   -14538.809    25944.473    5854.0661    28498.915    81.684025 
   95200    1842.8729   -104.52968    1.6674701   -102.86221   -11092.855    4.3407795    4.3407795    4.3407795   -11092.855   -6380.2516   -33956.657    7058.3425    4148.4622    7208.9229   -9063.6145     81.79056 
   95300    1350.3019    -104.0758    1.2217816   -102.85402     10756.67    4.3403459    4.3403459    4.3403459     10756.67     52900.42   -27317.143    6686.7334    6641.4891     9249.556    24167.936    81.766054 
   95400    1271.9199   -104.01197    1.1508599   -102.86111   -25443.525    4.3391504    4.3391504    4.3391504   -25443.525    7107.0853   -54159.895   -29277.766    14365.175    2123.1396   -5591.1527    81.698506 
   95500    1440.8989   -104.15618    1.3037556   -102.85243    23759.491    4.3414742    4.3414742    4.3414742    23759.491    26428.915   -7981.5629     52831.12   -13030.976   -26081.366   -6985.7021    81.829836 
   95600    1218.1221   -103.96243    1.1021825   -102.86025   -8236.4322    4.3368681    4.3368681    4.3368681   -8236.4322    12047.457   -45539.222    8782.4675    21185.304   -8855.9404    11167.838    81.569656 
   95700    1425.3677   -104.15207    1.2897027   -102.86237   -7401.1229    4.3391905    4.3391905    4.3391905   -7401.1229   -42847.201   -11043.563    31687.395   -7728.9536   -10588.693   -15126.326    81.700773 
   95800    1231.6447   -103.98896     1.114418   -102.87454    6371.5048    4.3385695    4.3385695    4.3385695    6371.5048    37644.494   -36394.463    17864.483    -481.0623   -18581.055    23177.408    81.665695 
   95900    1594.0588    -104.3119    1.4423379   -102.86957   -12078.643    4.3371281    4.3371281    4.3371281   -12078.643   -12161.421   -25350.329      1275.82    22257.051    338.75474    6857.8962     81.58433 
   96000    857.77583   -103.65014    0.7761336     -102.874    3126.4883    4.3496109    4.3496109    4.3496109    3126.4883    593.44532   -37304.952    46090.972   -33236.321    -13514.09     10858.27     82.29079 
   96100    1790.8476   -104.47628    1.6203965   -102.85588   -12276.304    4.3374043    4.3374043    4.3374043   -12276.304    27352.734    -38088.48   -26093.165    24587.385    5400.9514    34902.427    81.599915 
   96200    1338.0502    -104.0718     1.210696   -102.86111     4337.356    4.3306262    4.3306262    4.3306262     4337.356   -5712.6162   -25551.901    44276.585   -33407.247   -7203.3156   -8553.7299    81.217963 
   96300    1052.6883   -103.82816    0.9524945   -102.87566   -13427.917    4.3463845    4.3463845    4.3463845   -13427.917    15838.084   -33317.774   -22804.063     -3806.37    13685.533    26507.253      82.1078 
   96400    1842.0938   -104.52264    1.6667652   -102.85587   -27803.253    4.3520103    4.3520103    4.3520103   -27803.253   -26651.653   -36746.587   -20011.518    -13106.46   -7664.4922    -10685.67    82.427048 
   96500    976.96917   -103.73932   0.88398224   -102.85534   -2427.2342    4.3465224    4.3465224    4.3465224   -2427.2342    45831.485   -35508.288   -17604.899    -18512.68   -281.38451    12318.191    82.115619 
   96600    1444.6461   -104.15898    1.3071462   -102.85184    6389.8548    4.3279441    4.3279441    4.3279441    6389.8548    15049.719   -13134.047    17253.892    2371.9078   -3630.9172    3232.7619    81.067155 
   96700    1403.4514   -104.13323    1.2698723   -102.86335     12170.38     4.337892     4.337892     4.337892     12170.38    47046.464   -22515.438    11980.113   -20598.543   -4310.6071   -6337.9187    81.627448 
   96800    1498.6781   -104.21843    1.3560354    -102.8624   -6291.4207     4.346022     4.346022     4.346022   -6291.4207    36573.747   -35638.791   -19809.218    4866.9457   -162.79253    24068.196    82.087259 
   96900    1247.2722   -103.98796    1.1285581   -102.85941    18481.034    4.3368733    4.3368733    4.3368733    18481.034    42243.865   -3217.7508    16416.989   -9243.4271   -3221.7756   -9510.4853    81.569951 
   97000    1559.1806   -104.26994    1.4107793   -102.85916   -25146.164    4.3380845    4.3380845    4.3380845   -25146.164    21793.748     -50570.3    -46661.94   -12820.955    5255.9507    30933.658    81.638312 
   97100    1507.0518   -104.21801    1.3636121   -102.85439    40154.882    4.3311862    4.3311862    4.3311862    40154.882     80654.13    11251.396     28559.12   -3174.7119   -17191.389   -5535.4678    81.249476 
   97200    1223.1153   -103.97906    1.1067004   -102.87236   -38559.927    4.3470832    4.3470832    4.3470832   -38559.927   -30712.127   -70570.322   -14397.332    -27932.64    10192.715    24745.814    82.147407 
   97300    1152.5878   -103.90748    1.0428856    -102.8646     23925.54    4.3418373    4.3418373    4.3418373     23925.54    57661.426   -25818.077    39933.271    16862.632    20455.422    15510.579    81.850366 
   97400    1576.4245   -104.28983     1.426382   -102.86345   -2651.2942    4.3401402    4.3401402    4.3401402   -2651.2942     227.5991    -37399.23    29217.748   -34962.007   -1208.1919    227.63151    81.754425 
   97500    1008.3128   -103.78377   0.91234264   -102.87142   -23224.224    4.3455347    4.3455347    4.3455347   -23224.224    6723.8291   -56928.847   -19467.655    12895.331    24625.573     36001.64    82.059653 
   97600    1758.0361   -104.44144     1.590708   -102.85073    14279.559    4.3405316    4.3405316    4.3405316    14279.559    55236.708   -27276.888    14878.857   -7220.5854    6833.2831   -9678.0415    81.776546 
   97700    1334.8424   -104.06796    1.2077934   -102.86016   -28002.647     4.351958     4.351958     4.351958   -28002.647    17479.655   -72603.975   -28883.622   -5148.0316   -5870.1421    41252.334    82.424077 
   97800    1395.9509   -104.12134    1.2630857   -102.85825     1089.149    4.3481637    4.3481637    4.3481637     1089.149    20857.238   -21734.634    4144.8423     10502.47    21422.447    682.80129    82.208675 
   97900    1496.8569   -104.21305    1.3543876   -102.85866    38008.123    4.3313227    4.3313227    4.3313227    38008.123    70055.288   -30275.034    74244.116   -11200.868   -18825.492    22654.356    81.257155 
   98000    1447.8755   -104.19665    1.3100682   -102.88658   -22471.109     4.340401     4.340401     4.340401   -22471.109     10176.12   -58310.528   -19278.919    21656.711    11935.628    13650.212    81.769164 
   98100    1403.7386   -104.15395    1.2701322   -102.88382    16645.791    4.3512155    4.3512155    4.3512155    16645.791    33802.171   -19277.456     35412.66   -3344.6093    151.59687    1273.3548    82.381896 
   98200    1480.4409   -104.21573     1.339534    -102.8762   -19866.904    4.3488621    4.3488621    4.3488621   -19866.904     794.7161   -54120.799   -6274.6283    15379.711    5984.2711    19166.734    82.248295 
   98300    1414.0112   -104.14811    1.2794271   -102.86868    16066.181    4.3353193    4.3353193    4.3353193    16066.181    13000.068   -6891.3236    42089.797   -2157.3625    28082.813   -19676.928    81.482298 
   98400    1328.2786   -104.08154    1.2018544   -102.87968   -3979.2111    4.3395733    4.3395733    4.3395733   -3979.2111    24913.564   -34553.839   -2297.3589    5710.8097   -8685.0832    25852.397    81.722393 
   98500    1207.1979   -103.96996     1.092298   -102.87766    3024.0148    4.3436724    4.3436724    4.3436724    3024.0148    2955.0574   -30901.081    37018.067      1404.89    2399.2646    12754.107    81.954197 
   98600     1667.102   -104.37706     1.508429   -102.86863    8831.7794    4.3359844    4.3359844    4.3359844    8831.7794    12526.145    743.13996    13226.053   -5562.7161    19357.877    16351.813    81.519806 
   98700    1219.3671   -103.98415     1.103309   -102.88084   -29986.568    4.3471801    4.3471801    4.3471801   -29986.568   -45686.532   -57298.761    13025.588    19864.748   -23168.384    29731.816      82.1529 
   98800    1822.2931   -104.51697    1.6488491   -102.86812    24799.896    4.3352642    4.3352642    4.3352642    24799.896   -2235.5906    12790.106    63845.174   -12110.267    17970.287   -19688.637    81.479191 
   98900    1202.7407   -103.97772     1.088265   -102.88945   -15595.858    4.3324535    4.3324535    4.3324535   -15595.858   -11070.725   -38563.579    2846.7313    24779.035    4721.4855    20953.091    81.320818 
   99000    1549.3825   -104.29041    1.4019139    -102.8885    12483.772    4.3471382    4.3471382    4.3471382    12483.772   -9662.2846   -15085.652    62199.253    964.00933   -8143.2422    1756.5455    82.150526 
   99100    1539.3557   -104.26215    1.3928414   -102.86931   -16225.158    4.3590226    4.3590226    4.3590226   -16225.158   -8863.5938   -49264.616    9452.7353    2011.8942    4215.6301    17203.777    82.826127 
   99200    957.47146   -103.72475    0.8663403    -102.8584    13836.186    4.3462243    4.3462243    4.3462243    13836.186    47386.936   -16139.892    10261.513    8468.1386   -29308.362     17603.45    82.098726 
   99300    1673.9519   -104.35971    1.5146269   -102.84509    9867.5415    4.3402427    4.3402427    4.3402427    9867.5415    78743.209   -25478.136   -23662.449   -3408.3956   -2367.8038    1332.2696     81.76022 
   99400    1364.4715   -104.09392    1.2346025   -102.85931   -14596.888    4.3410294    4.3410294    4.3410294   -14596.888    23022.131   -43126.438   -23686.356    15158.902    12239.716    27064.582    81.804683 
   99500    1645.5434   -104.34837    1.4889223   -102.85945    2763.8389    4.3504864    4.3504864    4.3504864    2763.8389    41882.855   -11886.842   -21704.496    511.95232   -10320.239   -8639.6097    82.340491 
   99600    1315.7364   -104.03671    1.1905059    -102.8462   -36008.228      4.36392      4.36392      4.36392   -36008.228    49249.116   -90857.125   -66416.677    19170.794    1668.8475     19886.71    83.105611 
   99700    1586.1018   -104.26203    1.4351382   -102.82689    2061.7352    4.3444064    4.3444064    4.3444064    2061.7352    22314.227    14004.024   -30133.046     3516.356   -31959.252   -11382.967    81.995747 
   99800    1703.9785   -104.37448    1.5417956   -102.83269   -18300.802    4.3364256    4.3364256    4.3364256   -18300.802   -1619.8729    -28068.71   -25213.823    16638.904   -4072.0471    22076.286     81.54469 
   99900    1568.8867   -104.26557    1.4195616     -102.846     457.0219    4.3448874    4.3448874    4.3448874     457.0219     57494.25   -28164.182   -27959.003    32974.991   -13894.608   -12381.898    82.022985 
  100000    1501.0366   -104.20708    1.3581695   -102.84891    943.13833    4.3471966    4.3471966    4.3471966    943.13833    12369.438   -6558.7165   -2981.3062   -12553.163   -12709.555    17475.092    82.153838 
Loop time of 22.0002 on 1 procs for 100000 steps with 8 atoms

Pair  time (%) = 6.89975 (31.3623)
Kspce time (%) = 5.27307 (23.9683)
Neigh time (%) = 0.118058 (0.536623)
Comm  time (%) = 1.05864 (4.81195)
Outpt time (%) = 0.0240769 (0.10944)
Other time (%) = 8.62657 (39.2114)

Nlocal:    8 ave 8 max 8 min
Histogram: 1 0 0 0 0 0 0 0 0 0
Nghost:    2147 ave 2147 max 2147 min
Histogram: 1 0 0 0 0 0 0 0 0 0
Neighs:    2157 ave 2157 max 2157 min
Histogram: 1 0 0 0 0 0 0 0 0 0

Total # of neighbors = 2157
Ave neighs/atom = 269.625
Neighbor list builds = 1400
Dangerous builds = 0
unfix 20
unfix 21
print "seeds:1674476"
seeds:1674476
