LAMMPS (10 Feb 2015)
# ---- initialize simulations
clear
units metal
dimension 3
boundary p p p
atom_style charge
atom_modify map array
# ---- create atoms
read_data /Users/eugeneragasa/pyflamestk_git/pypospack/tests/tests_integration/workflow/WorkflowLammpsThermalExpansion/param_9544/MgO_NaCl_unit.npt.T1700/lammps.structure
  triclinic box = (0 0 0) to (4.2565 4.2565 4.2565) with tilt (0 0 0)
  1 by 1 by 1 MPI processor grid
  reading atoms ...
  8 atoms
# ---- define interatomic potential
include potential.mod
mass 1 24.305
mass 2 15.999

group Mg type 1
4 atoms in group Mg
group O type 2
4 atoms in group O

set group Mg charge 1.64252902328
  4 settings made for charge
set group O charge -1.64252902328
  4 settings made for charge

variable R_cut equal 10.0

pair_style buck/coul/long ${R_cut}
pair_style buck/coul/long 10
pair_coeff 1 1 0.0 0.5 0.0 ${R_cut}
pair_coeff 1 1 0.0 0.5 0.0 10
pair_coeff 1 2 1425.65456865 0.277130619093 0.0 ${R_cut}
pair_coeff 1 2 1425.65456865 0.277130619093 0.0 10
pair_coeff 2 2 8710.58674493 0.211543782712 -4.62088168449 ${R_cut}
pair_coeff 2 2 8710.58674493 0.211543782712 -4.62088168449 10

kspace_style pppm 1.0e-5

neighbor 1.0 bin
neigh_modify every 1 delay 0 check yes
# ---- define settings
compute eng all pe/atom
compute eatoms all reduce sum c_eng
# ---- run minimization
reset_timestep 0
fix 1 all box/relax iso 0.0 vmax 0.001
thermo 10
thermo_style custom step pe lx ly lz xy xz yz press pxx pyy pzz pxy pxz pyz c_eatoms
min_style cg
minimize 1e-25 1e-25 5000 10000
PPPM initialization ...
  G vector (1/distance) = 0.352708
  grid = 8 8 8
  stencil order = 5
  estimated absolute RMS force accuracy = 3.89813e-05
  estimated relative force accuracy = 2.7071e-06
  using double precision FFTs
  3d grid and FFT values/proc = 3375 512
Neighbor list info ...
  1 neighbor list requests
  update every 1 steps, delay 0 steps, check yes
  master list distance cutoff = 11
Memory usage per processor = 4.06549 Mbytes
Step PotEng Lx Ly Lz Xy Xz Yz Press Pxx Pyy Pzz Pxy Pxz Pyz eatoms 
       0   -111.38871       4.2565       4.2565       4.2565            0            0            0   -14022.103   -14022.103   -14022.103   -14022.103 -1.0617953e-11 -7.0203049e-11 5.2505523e-12   -111.38871 
       6    -111.3915    4.2448057    4.2448057    4.2448057            0            0            0    11.870105    11.870105    11.870105    11.870105 -3.2023954e-10 4.899455e-11 2.2757866e-10    -111.3915 
Loop time of 0.0152111 on 1 procs for 6 steps with 8 atoms

Minimization stats:
  Stopping criterion = linesearch alpha is zero
  Energy initial, next-to-last, final = 
        -111.388714234     -111.391500014     -111.391500014
  Force two-norm initial, final = 2.0248 0.00171153
  Force max component initial, final = 2.0248 0.00170464
  Final line search alpha, max atom move = 0.00229153 3.90625e-06
  Iterations, force evaluations = 6 44

Pair  time (%) = 0.0041883 (27.5345)
Kspce time (%) = 0.00240493 (15.8103)
Neigh time (%) = 0 (0)
Comm  time (%) = 0.000456572 (3.00157)
Outpt time (%) = 0 (0)
Other time (%) = 0.00816131 (53.6536)

Nlocal:    8 ave 8 max 8 min
Histogram: 1 0 0 0 0 0 0 0 0 0
Nghost:    2189 ave 2189 max 2189 min
Histogram: 1 0 0 0 0 0 0 0 0 0
Neighs:    2344 ave 2344 max 2344 min
Histogram: 1 0 0 0 0 0 0 0 0 0

Total # of neighbors = 2344
Ave neighs/atom = 293
Neighbor list builds = 0
Dangerous builds = 0
unfix 1
# ---- define output variables ----
variable natoms equal "count(all)"
variable tot_energy equal "c_eatoms"
variable length_x equal "lx"
variable length_y equal "ly"
variable length_z equal "lz"
variable tilt_xy equal "xy"
variable tilt_xz equal "xz"
variable tilt_yz equal "yz"
variable tot_press equal "press"
variable press_xx equal "pxx"
variable press_yy equal "pyy"
variable press_zz equal "pzz"
variable press_xy equal "pxy"
variable press_xz equal "pxz"
variable press_yz equal "pyz"

# ---- output ----
print "pypospack:output_section:begin"
pypospack:output_section:begin
print "tot_energy = ${tot_energy}"
tot_energy = -111.391500014071
print "num_atoms = ${natoms}"
num_atoms = 8
print "xx = ${length_x}"
xx = 4.24480566540602
print "yy = ${length_y}"
yy = 4.24480566540602
print "zz = ${length_z}"
zz = 4.24480566540602
print "xy = ${tilt_xy}"
xy = 0
print "xz = ${tilt_xz}"
xz = 0
print "yz = ${tilt_yz}"
yz = 0
print "tot_press = ${tot_press}"
tot_press = 11.8701047091937
print "pxx = ${press_xx}"
pxx = 11.8701047092997
print "pyy = ${press_yy}"
pyy = 11.8701047087814
print "pzz = ${press_zz}"
pzz = 11.8701047094999
print "pxy = ${press_xy}"
pxy = -3.20239539923879e-10
print "pxz = ${press_xz}"
pxz = 4.8994550277695e-11
print "pyz = ${press_yz}"
pyz = 2.27578662531736e-10
print "pypospack:output_section:done"
pypospack:output_section:done
print "pypospack:lammps_sim:done"
pypospack:lammps_sim:done
#------------------------------------------------------------------------------
# RUN THERMOSTAT
# running using an NPT Nose-Hoover style thermostat
#------------------------------------------------------------------------------
variable tempdamp equal 0.1
variable pressdamp equal 1.0
# set initial velocities
velocity all create 1700 3103820 mom yes dist gaussian loop all
# fix for Nose-Hoover style thermostat
fix 20 all npt temp 1700 1700 0.1 aniso 0.0 0.0 1.0 drag 1.0 couple xyz
variable boxx equal lx
variable boxy equal ly
variable boxz equal lz
variable boxp equal press
variable boxt equal temp
# calculate averages every 10000 steps
reset_timestep 0
fix 21 all ave/time 10 10 100 v_boxx v_boxy v_boxz v_boxp v_boxt file lattice.out
thermo_style custom step temp pe ke etotal press lx ly lz press pxx pyy pzz pxy pxz pyz vol
thermo_modify flush yes
thermo 100
run 100000
PPPM initialization ...
  G vector (1/distance) = 0.352825
  grid = 8 8 8
  stencil order = 5
  estimated absolute RMS force accuracy = 3.87738e-05
  estimated relative force accuracy = 2.69269e-06
  using double precision FFTs
  3d grid and FFT values/proc = 3375 512
Memory usage per processor = 3.06549 Mbytes
Step Temp PotEng KinEng TotEng Press Lx Ly Lz Press Pxx Pyy Pzz Pxy Pxz Pyz Volume 
       0         1700    -111.3915    1.5381957    -109.8533    21493.127    4.2448057    4.2448057    4.2448057    21493.127     7089.168    23695.471    33694.741    -3264.077   -8601.5409    11766.613    76.484501 
     100    756.12772   -110.36067   0.68416025   -109.67651    34786.192     4.278734     4.278734     4.278734    34786.192    10539.077    14726.904    79092.595    4127.2525     2884.802   -12605.288    78.333199 
     200    1144.9482   -110.28625    1.0359732   -109.25028   -62735.894    4.3331161    4.3331161    4.3331161   -62735.894   -59377.721   -76766.074   -52063.888    4086.3429    3524.0672   -41463.199    81.358131 
     300    1607.5063   -110.32928    1.4545055   -108.87478   -13268.083    4.3221197    4.3221197    4.3221197   -13268.083   -54160.425    1484.3711    12871.805   -4285.7398   -8466.4633    10745.243    80.740304 
     400      1630.58    -110.0453    1.4753831   -108.56992    60440.182    4.2821133    4.2821133    4.2821133    60440.182    15014.624     65371.71    100934.21    4617.8385    2993.4901    -30619.04    78.518946 
     500    1227.7662   -109.54497    1.1109086   -108.43406    32206.646    4.3033361    4.3033361    4.3033361    32206.646    -3.449282    80199.684    16423.704    623.54284     3893.855   -44053.796    79.692195 
     600    1972.3768   -110.08463     1.784648   -108.29999    -27568.43    4.3493018    4.3493018    4.3493018    -27568.43   -73997.016   -34351.461    25643.188   -7454.2289   -12121.131   -3445.0104    82.273246 
     700    1312.0146   -109.39713    1.1871384   -108.20999   -1126.8343    4.3565294    4.3565294    4.3565294   -1126.8343   -33671.235    74533.239   -44242.506    6544.0806    -389.7717   -14257.391    82.684092 
     800     730.5275    -108.8739   0.66099663   -108.21291    20239.989    4.3333581    4.3333581    4.3333581    20239.989   -30531.512    68140.894    23110.586   -123.41435    11828.537   -3185.4391    81.371768 
     900    1627.5639   -109.72615     1.472654   -108.25349    25858.569    4.3101625    4.3101625    4.3101625    25858.569   -39983.299    48825.264     68733.74   -107.57028   -10377.353    22847.502    80.072049 
    1000    2351.2445   -110.44312    2.1274554   -108.31567   -8010.4505    4.3196414    4.3196414    4.3196414   -8010.4505    -42488.51    -108.2094    18565.368   -8990.5035   -11136.628   -10661.374    80.601494 
    1100    1521.8357   -109.71668    1.3769889   -108.33969   -35881.889    4.3481991    4.3481991    4.3481991   -35881.889   -26985.866   -25259.688   -55400.112    5166.8726   -1512.9297   -33597.491    82.210682 
    1200      1761.53   -109.90205    1.5938694   -108.30818    -24902.13    4.3461336    4.3461336    4.3461336    -24902.13   -51962.888   -216.95308   -22526.548    16140.701    6000.6095   -11872.637    82.093583 
    1300     1879.562   -109.99384    1.7006672   -108.29317    21797.009    4.3274556    4.3274556    4.3274556    21797.009   -54193.139    116615.52    2968.6448   -10979.955   -3811.7935   -1418.6956    81.039706 
    1400    1706.3708   -109.85457    1.5439602   -108.31061   -4711.9683    4.3213847    4.3213847    4.3213847   -4711.9683   -18414.309    20333.574   -16055.169    1654.5683   -12630.415   -6465.9352     80.69912 
    1500    1471.8503   -109.64928    1.3317611   -108.31752    37222.224     4.313087     4.313087     4.313087    37222.224   -8681.3851    115173.29    5174.7673    12232.416    13880.223   -3153.3225    80.235148 
    1600    1914.6355   -110.05799    1.7324024   -108.32558    24823.179    4.3254068    4.3254068    4.3254068    24823.179   -47390.781    47559.812    74300.506    20633.308   -2891.7364    7348.5997     80.92466 
    1700    2033.7615   -110.14372    1.8401902   -108.30353   -19957.928      4.34804      4.34804      4.34804   -19957.928   -49407.209   -29260.784    18794.208   -11231.997    1070.4591   -14295.516     82.20166 
    1800     1975.118   -110.06644    1.7871283   -108.27931   -2394.4256    4.3416999    4.3416999    4.3416999   -2394.4256   -73252.783    62952.835    3116.6716    14035.774    4421.4481    7356.4222    81.842598 
    1900    1579.9369   -109.70096    1.4295601    -108.2714   -5170.8264    4.3309783    4.3309783    4.3309783   -5170.8264   -72704.765    47348.719    9843.5668    14774.491    8175.4674     17699.65    81.237775 
    2000    1740.6934   -109.84269     1.575016   -108.26767   -17.035794    4.3156192    4.3156192    4.3156192   -17.035794   -11833.046     24944.27   -13162.332   -19356.877    -2510.804   -19998.072     80.37655 
    2100    1871.2469   -109.98182    1.6931435   -108.28867    19108.303    4.3211215    4.3211215    4.3211215    19108.303   -40319.643    18031.825    79612.726    2279.5593    3336.4098    2297.3194    80.684377 
    2200     1906.143   -110.02407    1.7247182   -108.29935   -35743.767    4.3488387    4.3488387    4.3488387   -35743.767    -94486.83    22828.328   -35572.798    23696.044    9141.9906   -4819.7984    82.246966 
    2300    1146.4505   -109.31871    1.0373325   -108.28137   -14168.725    4.3465941    4.3465941    4.3465941   -14168.725   -54695.774    16412.148   -4222.5487    3580.4571    10757.836    2465.6359     82.11968 
    2400    2049.5902   -110.09161    1.8545123    -108.2371    -1217.435    4.3183177    4.3183177    4.3183177    -1217.435   -8354.1667    1451.5484    3250.3132   -5504.3618    5307.6239    20518.676    80.527416 
    2500    1350.6584   -109.48606    1.2221041   -108.26396    31464.693    4.3239861    4.3239861    4.3239861    31464.693    14367.052    18095.386     61931.64    39177.963    14413.165   -13853.424    80.844943 
    2600    2279.3147   -110.34059    2.0623719   -108.27822   -29960.688     4.332622     4.332622     4.332622   -29960.688   -53263.854   -7213.2342   -29404.976   -5479.0057   -13730.829    14327.311    81.330304 
    2700    1401.2899   -109.57192    1.2679165     -108.304    12867.168    4.3291956    4.3291956    4.3291956    12867.168    23793.172   -44296.754    59105.085    -4650.272    24541.024   -1011.6913    81.137499 
    2800     1244.016   -109.43201    1.1256118    -108.3064    43174.369    4.3291731    4.3291731    4.3291731    43174.369    46987.384     73166.91    9368.8111    31220.901   -6257.9368   -11777.315    81.136233 
    2900    2069.4952   -110.15781    1.8725227   -108.28529   -10594.528    4.3305348    4.3305348    4.3305348   -10594.528   -23678.453   -54673.142    46568.013   -7069.5404    8694.1019    17677.338    81.212824 
    3000    1275.4731   -109.43477    1.1540749    -108.2807   -10938.822    4.3275818    4.3275818    4.3275818   -10938.822    24061.939   -29496.752   -27381.654    7469.2254    14293.283   -31391.758    81.046795 
    3100    1672.7449   -109.79465    1.5135348   -108.28112   -38544.359     4.328773     4.328773     4.328773   -38544.359   -17521.577    -70772.56   -27338.939    8645.5696    20065.504    4531.5797     81.11374 
    3200    981.96363   -109.17058   0.88850133   -108.28208     50345.03    4.3285746    4.3285746    4.3285746     50345.03    60829.094    15709.493    74496.503   -7803.0354   -21412.336    12289.672    81.102591 
    3300    2286.9367   -110.33956    2.0692684   -108.27029   -2279.2216    4.3243337    4.3243337    4.3243337   -2279.2216   -42383.934   -6660.8952    42207.164    8161.4583   -8030.2637   -11855.281    80.864445 
    3400    1283.6268   -109.46058    1.1614525   -108.29913    -15693.63    4.3339563    4.3339563    4.3339563    -15693.63     10235.32   -58906.237    1590.0262    10648.108    10919.417    14174.546    81.405469 
    3500    1311.3645    -109.4691    1.1865502   -108.28255    -22426.74    4.3379697    4.3379697    4.3379697    -22426.74    29253.333   -50568.102   -45965.451    -1876.557    -2054.902    54533.558    81.631833 
    3600    2909.2968   -110.88047    2.6323929   -108.24807   -19725.964    4.3193361    4.3193361    4.3193361   -19725.964   -31061.762   -39653.311     11537.18   -11995.807    -11714.32   -21413.527    80.584406 
    3700    1067.8242   -109.25944   0.96618976   -108.29326   -22819.281    4.3391587    4.3391587    4.3391587   -22819.281    28017.055   -73972.361   -22502.536   -9441.4611    25758.944    46139.573    81.698973 
    3800    1935.4325   -110.01225      1.75122   -108.26103   -37390.685    4.3303425    4.3303425    4.3303425   -37390.685   -17206.459   -44547.565   -50418.032   -10644.121    30528.982    17600.282    81.202003 
    3900    1982.9269    -110.0438    1.7941939   -108.24961    42918.226    4.3065588    4.3065588    4.3065588    42918.226    40457.832    14200.809    74096.036   -1299.6782   -16269.454   -8041.8707    79.871374 
    4000    1844.9334   -109.95364    1.6693345   -108.28431   -29091.079    4.3272539    4.3272539    4.3272539   -29091.079    -10723.92   -67581.446    -8967.871    2252.0367   -7411.2349    41922.005    81.028376 
    4100    1659.2453   -109.75929      1.50132   -108.25797   -11401.675    4.3427928    4.3427928    4.3427928   -11401.675   -604.59135   -11620.749   -21979.684   -9961.0498    17559.345    12893.856    81.904416 
    4200    1496.9264   -109.59694    1.3544505   -108.24249   -16151.538    4.3532611    4.3532611    4.3532611   -16151.538     -65926.5   -40386.589    57858.476   -10457.738   -16976.413   -7207.5073    82.498137 
    4300    1751.7579   -109.82116    1.5850273   -108.23613   -7246.7389    4.3532324    4.3532324    4.3532324   -7246.7389    16816.366    -64260.58    25703.997   -14265.046    -6452.647    17910.763    82.496509 
    4400     1828.926   -109.88715    1.6548507    -108.2323   -23911.053    4.3438505    4.3438505    4.3438505   -23911.053   -51153.624   -39162.493    18582.958    -2840.097    -2789.808    15986.535    81.964274 
    4500    1428.9976   -109.53051    1.2929871   -108.23752    17709.329    4.3063783    4.3063783    4.3063783    17709.329    16002.743    60710.986   -23585.742     8699.764   -33245.472    10011.841    79.861332 
    4600    1844.9055   -109.92788    1.6693093   -108.25857    61148.231    4.2953171    4.2953171    4.2953171    61148.231    49151.083     19371.61       114922    14593.547   -11428.093    14337.275    79.247522 
    4700    2327.3107   -110.41658    2.1057996   -108.31078   -31941.003    4.3464842    4.3464842    4.3464842   -31941.003   -27741.957   -69651.783    1570.7322   -7724.8701    8384.5402    5029.5136    82.113453 
    4800    1062.4058    -109.2207   0.96128708   -108.25942    33329.769    4.3498178    4.3498178    4.3498178    33329.769    52676.399    8891.1771    38421.729   -528.34845   -17645.515    8407.2528     82.30253 
    4900    1779.3793   -109.82759    1.6100197   -108.21757    14679.495    4.3289638    4.3289638    4.3289638    14679.495   -49404.537    57314.746    36128.275    852.99249   -7666.3557    19904.547    81.124467 
    5000    2008.4551   -110.04818    1.8172924   -108.23089    8222.4827    4.3223242    4.3223242    4.3223242    8222.4827   -42234.662    27306.961     39595.15   -12343.063    13014.047    25163.999    80.751764 
    5100    1044.0137   -109.20492   0.94464555   -108.26027     45260.04    4.3290919    4.3290919    4.3290919     45260.04   -7368.3841    91956.576    51191.929     -7241.62   -8774.1344    15284.459    81.131671 
    5200    1769.1156   -109.85281    1.6007329   -108.25208   -32313.912     4.355736     4.355736     4.355736   -32313.912   -77961.709    25642.788   -44622.814   -6058.6985   -190.49747   -12537.055    82.638923 
    5300    1840.3628   -109.87057     1.665199   -108.20537    3686.6109    4.3497938    4.3497938    4.3497938    3686.6109   -24424.565    36894.933   -1410.5352   -30421.977    7524.6806    17785.383     82.30117 
    5400    1452.9549   -109.51834    1.3146641   -108.20367     30546.14    4.3314747    4.3314747    4.3314747     30546.14    6624.4593    30630.745    54383.215   -7007.5008    4016.6085    18789.437    81.265713 
    5500    1757.1499   -109.83585    1.5899062   -108.24595    4905.3513       4.3358       4.3358       4.3358    4905.3513   -9387.3872    22754.213    1349.2277     3378.251    7891.0188     -265.452    81.509407 
    5600    1667.9049   -109.75867    1.5091554   -108.24952    22190.096     4.337667     4.337667     4.337667    22190.096   -4826.9098    52954.163    18443.034   -8856.1791   -2989.8165     1712.239    81.614743 
    5700    1385.9122   -109.51288    1.2540025   -108.25888    25367.605    4.3337888    4.3337888    4.3337888    25367.605   -4352.8477    41541.946    38913.718    3711.7907   -3749.6012    2582.3111    81.396033 
    5800    2137.8858   -110.19873     1.934404   -108.26433   -33078.502    4.3362922    4.3362922    4.3362922   -33078.502   -36103.778    -50202.83   -12928.899    7488.7381    19883.331    3604.5466    81.537169 
    5900    1518.9799    -109.6334    1.3744049     -108.259    17052.053    4.3222735    4.3222735    4.3222735    17052.053   -8496.6618   -12226.432    71879.253   -9540.3736   -12209.824    7886.3728    80.748921 
    6000    1798.2625   -109.89137    1.6271057   -108.26426    11865.534    4.3231908    4.3231908    4.3231908    11865.534   -43100.207     49299.88    29396.929    5509.3696    1879.1479   -17785.954    80.800343 
    6100    2107.1284   -110.17255    1.9065741   -108.26597   -45191.882    4.3545997    4.3545997    4.3545997   -45191.882   -33311.111   -28354.429   -73910.105   -13036.223    11843.292    4187.5892    82.574263 
    6200    1415.7722   -109.50644    1.2810205   -108.22542   -1307.4491    4.3644056    4.3644056    4.3644056   -1307.4491    26095.569   -33314.494    3296.5776   -11042.285    11792.315   -1472.6526    83.133354 
    6300    1747.6915     -109.771     1.581348   -108.18965    1233.6245    4.3475073    4.3475073    4.3475073    1233.6245    73038.387   -42399.151   -26938.363    456.82115    5138.3408   -14146.124    82.171454 
    6400    1255.5133   -109.33856    1.1360148   -108.20254     24479.97    4.3255879    4.3255879    4.3255879     24479.97    71434.254   -10347.302    12352.959   -11943.381    22313.076    8573.6464    80.934822 
    6500    1684.8679   -109.77215    1.5245039   -108.24765   -3716.0915    4.3236613    4.3236613    4.3236613   -3716.0915    7349.7143   -15513.698   -2984.2914   -25885.949    20742.855   -21806.708    80.826726 
    6600    1745.0065   -109.83426    1.5789186   -108.25534    25606.719    4.3280411    4.3280411    4.3280411    25606.719    8732.4534    49298.502    18789.202    14739.826   -2655.2156    14606.043    81.072605 
    6700    1338.2381   -109.45981     1.210866   -108.24894    41335.279    4.3385117    4.3385117    4.3385117    41335.279    43988.892   -5784.7658     85801.71    -7527.763    19390.319    24294.271    81.662431 
    6800    1916.2451   -109.96326    1.7338588   -108.22941   -15173.885    4.3572925    4.3572925    4.3572925   -15173.885   -58851.455   -48284.315    61614.114   -10957.767    3838.1698   -13495.941    82.727547 
    6900     2061.482   -110.07729    1.8652723   -108.21201   -12157.835    4.3483176    4.3483176    4.3483176   -12157.835   -41570.591   -13088.867    18185.954    21863.799    4386.0347    27335.925    82.217408 
    7000    2087.3639   -110.10113    1.8886907   -108.21244    18031.038    4.3131387    4.3131387    4.3131387    18031.038    24949.477   -26602.845    55746.481    -14656.53   -310.83148   -10843.831    80.238034 
    7100    1728.7418   -109.81451    1.5642019   -108.25031    26549.728     4.305754     4.305754     4.305754    26549.728     26147.42    22682.832    30818.933    7021.9864    18087.481   -9889.5214    79.826599 
    7200     1452.523   -109.63156    1.3142734   -108.31729     12177.16    4.3433914    4.3433914    4.3433914     12177.16     47614.75   -26713.523    15630.252    6622.1759   -6518.5771    27334.155    81.938294 
    7300    1770.2159   -109.85189    1.6017286   -108.25016   -21976.799    4.3748675    4.3748675    4.3748675   -21976.799   -22733.384   -28858.999   -14338.015    641.00615    4440.5482     13728.65    83.732627 
    7400    1137.0569   -109.22487    1.0288329   -108.19604    5393.3998    4.3555582    4.3555582    4.3555582    5393.3998   -11875.598    4876.9376    23178.859    1826.4592    13766.499    23317.494    82.628806 
    7500    1940.3447    -109.9284    1.7556646   -108.17273   -2700.5996      4.32674      4.32674      4.32674   -2700.5996   -33262.549    58360.947   -33200.196    4544.4137    2053.6065   -953.13163    80.999511 
    7600    2465.9788   -110.41964    2.2312694   -108.18837    21623.511    4.3155663    4.3155663    4.3155663    21623.511    11969.727    18702.786    34198.019    16934.782   -3909.7947   -7526.5954    80.373592 
    7700    1150.3222   -109.28348    1.0408357   -108.24265    45671.431    4.3357022    4.3357022    4.3357022    45671.431    28136.233    111044.16   -2166.1033   -8096.4509    13354.307    32345.309     81.50389 
    7800    1680.0956   -109.75437    1.5201858   -108.23418    -49510.48    4.3643614    4.3643614    4.3643614    -49510.48   -68352.405   -34218.955   -45960.079    8428.3313   -3444.6369   -23018.487    83.130829 
    7900    2009.5252   -110.03843    1.8182606   -108.22017   -13063.751    4.3204097    4.3204097    4.3204097   -13063.751   -15937.856    25599.994   -48853.392    2451.0587   -12162.989   -5400.0376    80.644508 
    8000    2065.5097   -110.05798    1.8689166   -108.18906    38047.436    4.2786585    4.2786585    4.2786585    38047.436    149165.58   -29914.991   -5108.2802    19763.997    6689.1609    36569.433     78.32905 
    8100    1835.6492   -109.96196     1.660934   -108.30103   -13253.665    4.3305854    4.3305854    4.3305854   -13253.665     40085.75   -70469.445   -9377.2998    589.28046   -8361.6325   -15148.731     81.21567 
    8200    1683.7178   -109.75874    1.5234633   -108.23528   -52643.147    4.3763112    4.3763112    4.3763112   -52643.147    -38843.19   -85394.866   -33691.386   -7349.2316   -13802.706     33565.78    83.815546 
    8300    1967.3327   -109.94561     1.780084   -108.16553   -9407.0275    4.3614228    4.3614228    4.3614228   -9407.0275   -36332.302   -23743.991     31855.21   -688.85868    15714.461   -3207.9855    82.963025 
    8400     1351.815   -109.37363    1.2231506   -108.15048     8412.057    4.3328238    4.3328238    4.3328238     8412.057   -9231.4914    47771.205   -13303.543   -4852.6137   -4405.6915    2334.5071     81.34167 
    8500    1594.6271   -109.63133    1.4428521   -108.18848   -13604.669    4.3115261    4.3115261    4.3115261   -13604.669    27810.175   -38677.084   -29947.097     2255.927   -13020.465    44579.589    80.148068 
    8600    1728.8286    -109.7979    1.5642804   -108.23362    39204.668     4.309945     4.309945     4.309945    39204.668    65552.563    34577.906    17483.534    6281.5548   -5152.2339    -16651.71    80.059925 
    8700    1571.6629   -109.69841    1.4220736   -108.27634   -35033.372    4.3367231    4.3367231    4.3367231   -35033.372   -22023.343   -70103.407   -12973.365    7030.4423    2237.0307   -602.37721    81.561475 
    8800    1410.4427     -109.538    1.2761982    -108.2618    4741.9025    4.3338462    4.3338462    4.3338462    4741.9025    38343.988   -19524.668   -4593.6119    1156.6617      11063.1    28245.209    81.399263 
    8900    1480.4321   -109.59578    1.3395261   -108.25625     41010.81    4.3285614    4.3285614    4.3285614     41010.81   -8939.3236    -7056.856    139028.61    9130.0563   -8699.1038   -37146.131    81.101845 
    9000    1144.8958   -109.29365    1.0359258   -108.25773    38050.709    4.3383767    4.3383767    4.3383767    38050.709    33802.986    1036.0406      79313.1   -4012.7342    11111.272   -21135.047    81.654811 
    9100    1136.6597   -109.26137    1.0284736   -108.23289    19371.518    4.3503306    4.3503306    4.3503306    19371.518   -1440.4543     31516.67    28038.338    4114.4062   -11041.978    5806.6746    82.331646 
    9200    1683.1081   -109.71049    1.5229116   -108.18758    10022.408    4.3438766    4.3438766    4.3438766    10022.408   -64627.926    54542.891     40152.26    1742.0596    3792.2346   -38534.074    81.965755 
    9300    1678.0604    -109.7132    1.5183443   -108.19485    3903.9162    4.3195472    4.3195472    4.3195472    3903.9162   -7778.8002   -13568.495    33059.044   -7526.0009    9900.9984    15878.787    80.596221 
    9400    1613.8624   -109.68687    1.4602566   -108.22661    15777.366    4.2933195    4.2933195    4.2933195    15777.366     14953.12    4930.4435    27448.535   -7794.5986    2767.6015    46037.709    79.137009 
    9500    1581.6919   -109.72012    1.4311481   -108.28897    4173.7056    4.3111985    4.3111985    4.3111985    4173.7056   -30732.173    79554.511   -36301.221   -5654.5352    20371.786    10140.575    80.129802 
    9600    1786.2692   -109.89818    1.6162539   -108.28192   -7762.9397    4.3320759    4.3320759    4.3320759   -7762.9397   -48626.552   -3355.0231    28692.756   -16489.569   -9672.3068    810.76927    81.299553 
    9700    1481.0442   -109.58867    1.3400799   -108.24859       9574.2    4.3324567    4.3324567    4.3324567       9574.2   -233.62152    18960.379    9995.8422    3384.8475    20979.011    27172.625    81.320999 
    9800    1406.6482   -109.50195    1.2727648   -108.22919    13643.088     4.341755     4.341755     4.341755    13643.088    32220.979    1476.3331    7231.9527    511.88006    22361.609    3228.6634    81.845713 
    9900     1293.278   -109.39454    1.1701851   -108.22436   -23835.608    4.3299191    4.3299191    4.3299191   -23835.608    12107.481   -75423.985   -8190.3203    6559.8967   -17281.939    51876.489    81.178186 
   10000    1647.3081   -109.71081     1.490519    -108.2203    20406.139    4.2938255    4.2938255    4.2938255    20406.139    66823.671   -19025.555      13420.3   -12158.775   -13686.095    54780.662     79.16499 
   10100    1986.2245   -110.07221    1.7971776   -108.27504    37519.823    4.3109241    4.3109241    4.3109241    37519.823    7026.5807    6259.8749    99273.013    20366.699   -23788.164   -13169.081      80.1145 
   10200    1715.8736   -109.83561    1.5525584   -108.28305   -57223.147    4.3607503    4.3607503    4.3607503   -57223.147    -46977.57   -20525.701   -104166.17   -969.99294   -2772.7796    38030.482    82.924653 
   10300     1969.773   -110.00393     1.782292   -108.22164   -47762.663     4.361936     4.361936     4.361936   -47762.663   -75716.875   -55674.165   -11896.948   -6192.7786    4156.1504    23713.515     82.99231 
   10400    2631.4554   -110.54655    2.3809962   -108.16556    -29947.49    4.3359499    4.3359499    4.3359499    -29947.49   -12961.786   -35701.487   -41179.195   -3195.1792    3814.2712   -12470.007    81.517861 
   10500    1439.8707   -109.49583    1.3028252     -108.193   -8396.4365    4.3271384    4.3271384    4.3271384   -8396.4365    17100.306   -71265.643    28976.028   -24509.108    10204.713    32919.881    81.021889 
   10600    1574.8841   -109.65546    1.4249882   -108.23047   -6448.6779    4.3259012    4.3259012    4.3259012   -6448.6779    29797.684   -16247.407   -32896.311   -21916.381    4172.3393    28247.604     80.95241 
   10700    1826.3773   -109.88743    1.6525445   -108.23489    41890.766     4.318592     4.318592     4.318592    41890.766   -21170.083    36262.422    110579.96    13122.781   -301.50024   -7219.1781    80.542764 
   10800    1843.9881   -109.95588    1.6684792    -108.2874   -59974.897    4.3436203    4.3436203    4.3436203   -59974.897   -72562.812   -75918.374   -31443.505   -310.01955    4818.6178    14085.418    81.951248 
   10900    1528.7413    -109.6296    1.3832373   -108.24637   -32567.864     4.351555     4.351555     4.351555   -32567.864   -34420.106    -58921.86   -4361.6272   -15312.455   -2945.0492    9592.1479    82.401179 
   11000    1907.2483   -109.92857    1.7257184   -108.20285    52958.177     4.313381     4.313381     4.313381    52958.177     37880.64    18184.149    102809.74    5720.9141   -14457.006   -19337.272    80.251554 
   11100    1526.3507   -109.60033    1.3810742   -108.21926    6819.8556     4.298501     4.298501     4.298501    6819.8556    11549.306     3015.078     5895.183    14194.412    30356.479    7003.4901    79.423881 
   11200    1287.6796   -109.43799    1.1651196   -108.27287   -12991.866    4.3181996    4.3181996    4.3181996   -12991.866   -49017.212   -11152.282    21193.894   -13391.276    38263.766    7337.6738    80.520808 
   11300    1486.1427   -109.61496    1.3446931   -108.27026    24779.925     4.342299     4.342299     4.342299    24779.925    14015.457    81700.125   -21375.807    4725.0201   -3931.2485   -21697.571    81.876482 
   11400    1429.4751   -109.53239    1.2934191   -108.23897   -30042.771    4.3606726    4.3606726    4.3606726   -30042.771   -41633.252    9182.0575   -57677.118    12955.615    5709.1867    26329.967     82.92022 
   11500    1847.3159   -109.86699    1.6714903    -108.1955    -15361.34    4.3411942    4.3411942    4.3411942    -15361.34   -44273.099    80630.334   -82441.254   -11767.774    7812.8297    27736.021    81.814003 
   11600    1831.3469   -109.86449    1.6570412   -108.20745     30354.69    4.3051987    4.3051987    4.3051987     30354.69     20445.17    36315.149    34303.751    13551.302    11492.962   -14174.847     79.79572 
   11700    1638.4592   -109.74945    1.4825124   -108.26694    4697.4259    4.3151248    4.3151248    4.3151248    4697.4259   -12786.131    23089.976    3788.4327     6631.914    12715.545    20213.753    80.348924 
   11800     2057.993   -110.12175    1.8621153   -108.25963   -16014.964    4.3373279    4.3373279    4.3373279   -16014.964    26432.634   -22348.406   -52129.121   -19515.344    21967.374    20561.412    81.595604 
   11900     1621.308   -109.70204    1.4669936   -108.23505    14916.884    4.3402663    4.3402663    4.3402663    14916.884   -34066.233   -3551.4041    82368.288    3926.4316    16259.766   -11213.469    81.761553 
   12000    1448.8156   -109.52888    1.3109188   -108.21796   -24994.548    4.3407268    4.3407268    4.3407268   -24994.548   -32891.491    -52224.64    10132.487    13486.523   -2642.5819    43999.244    81.787578 
   12100    1796.4667   -109.84152    1.6254808   -108.21604    -29829.84    4.3095058    4.3095058    4.3095058    -29829.84    4282.8988   -51205.072   -42567.347    798.01717   -5927.9186    53163.379    80.035454 
   12200    1562.8355   -109.64687    1.4140864   -108.23278    43836.392    4.2825809    4.2825809    4.2825809    43836.392   -21648.371    29010.745     124146.8    11077.681    1860.3353   -26366.284    78.544671 
   12300     1510.783   -109.68039    1.3669882    -108.3134   -38383.922    4.3259612    4.3259612    4.3259612   -38383.922   -55276.818   -21304.481   -38570.468    39589.657    5846.5764    1131.4832    80.955778 
   12400    1460.5164    -109.5815    1.3215059      -108.26   -46061.907    4.3467022    4.3467022    4.3467022   -46061.907    -53929.91   -10518.134   -73737.676   -5235.5595    8461.6707    17015.817    82.125811 
   12500    1337.7802   -109.43063    1.2104516   -108.22018    28973.823     4.327669     4.327669     4.327669    28973.823    20096.719    30646.456    36178.293    4342.2693    -7160.056    5454.8456    81.051698 
   12600    1823.4835   -109.86528    1.6499262   -108.21535   -17526.354    4.3267764    4.3267764    4.3267764   -17526.354   -27176.904     -44803.7    19401.542    31400.873   -1274.6865   -17678.316    81.001554 
   12700    1668.5741   -109.75123    1.5097609   -108.24147   -10111.985    4.3130436    4.3130436    4.3130436   -10111.985    -27686.58   -9647.2237    6997.8497   -5543.0361   -13027.416    9877.4517    80.232725 
   12800    1157.9655   -109.31771    1.0477515   -108.26995    23680.229    4.3100785    4.3100785    4.3100785    23680.229   -18681.632   -4370.5168    94092.837    1543.6708   -27514.507    18673.949    80.067368 
   12900    2127.9546   -110.20259    1.9254181   -108.27717   -16471.728    4.3242792    4.3242792    4.3242792   -16471.728   -29102.743   -25148.574    4836.1335    20938.472   -6240.3784   -17988.827    80.861386 
   13000    1617.5934   -109.72329    1.4636325   -108.25966    36179.325    4.3213226    4.3213226    4.3213226    36179.325   -14395.238    25480.505    97452.708    388.69259   -7108.9468    29464.888    80.695638 
   13100    1527.6257   -109.64319    1.3822278   -108.26097   -17863.193    4.3136475    4.3136475    4.3136475   -17863.193   -72599.312   -4797.8271    23807.559   -8353.7612   -32355.034    8383.0027     80.26643 
   13200    1808.0543   -109.88647    1.6359655    -108.2505   -25491.752    4.3099361    4.3099361    4.3099361   -25491.752   -65800.699    25907.998   -36582.554    11515.687      25349.1   -20359.729    80.059428 
   13300    1289.1123   -109.42863    1.1664159   -108.26222     46028.93    4.3133624    4.3133624    4.3133624     46028.93   -10313.244    38260.467    110139.57   -114.35368    27725.783    25421.329    80.250519 
   13400    1952.7084   -110.03629    1.7668516   -108.26944    3955.6452    4.3234781    4.3234781    4.3234781    3955.6452   -19506.333    64632.104   -33258.835   -11346.696   -2810.7109   -7840.8667    80.816456 
   13500    1467.6672   -109.60281    1.3279761   -108.27483    14649.076    4.3203886    4.3203886    4.3203886    14649.076    -36337.75    11512.949    68772.028    20084.704    13404.693    6882.6717    80.643325 
   13600    1783.3638   -109.88244     1.613625   -108.26882   -5186.0967    4.3207316    4.3207316    4.3207316   -5186.0967   -57654.726   -5836.9853    47933.422   -1664.4473    20499.563    7667.2087    80.662533 
   13700    1800.4635   -109.89367    1.6290972   -108.26458    27029.728    4.3222973    4.3222973    4.3222973    27029.728   -19533.314    9992.4382    90630.061    1964.4572   -7727.1697   -2615.2753    80.750254 
   13800    1809.7587   -109.90698    1.6375077   -108.26947    16761.884    4.3256192    4.3256192    4.3256192    16761.884   -22430.233   -39943.628    112659.51    12604.864   -1973.4971   -25317.113     80.93658 
   13900    1948.0217   -110.02794     1.762611   -108.26533   -26955.435     4.341494     4.341494     4.341494   -26955.435   -32455.423   -40704.961   -7705.9225   -6619.5019   -11951.674    15200.017    81.830952 
   14000    1396.4166   -109.51966    1.2635071   -108.25616   -66288.298    4.3332391    4.3332391    4.3332391   -66288.298   -53355.924   -81997.457   -63511.512    2204.5942   -16792.152    10515.153    81.365064 
   14100    1736.7924   -109.81095    1.5714863   -108.23947    45986.182     4.288637     4.288637     4.288637    45986.182   -17915.638    -26329.79    182203.97   -14740.843    4209.7201   -23590.329     78.87836 
   14200    2120.5664    -110.2155    1.9187331   -108.29676    38619.636    4.2915346    4.2915346    4.2915346    38619.636    15958.633   -15933.093    115833.37     10234.03    -1917.886   -27226.405    79.038346 
   14300    1536.2023   -109.75264    1.3899882   -108.36265   -32125.692    4.3474732    4.3474732    4.3474732   -32125.692   -67830.365   -74306.717    45760.006    13840.072   -15933.549    17388.713    82.169519 
   14400    1445.6956   -109.58299    1.3080958    -108.2749   -43045.167     4.382678     4.382678     4.382678   -43045.167   -83489.754   -90118.698     44472.95   -7305.9943    5329.2543   -24943.306    84.181893 
   14500    1593.7912   -109.64599    1.4420957    -108.2039   -36764.056    4.3557466    4.3557466    4.3557466   -36764.056   -51859.602   -49701.685   -8730.8816    16592.873    5976.7392   -23887.106    82.639529 
   14600    1302.7117   -109.35443    1.1787209   -108.17571    2248.9384     4.317343     4.317343     4.317343    2248.9384    18627.601    -40159.88    28279.094    5249.2897   -23872.401    67704.546    80.472902 
   14700    1623.0029   -109.67613    1.4685271    -108.2076   -29620.483    4.3020292    4.3020292    4.3020292   -29620.483   -41217.463   -3119.2298   -44524.757    -15481.45    27265.683    22145.251    79.619611 
   14800    1316.7442   -109.47317    1.1914178   -108.28175    23043.677    4.3077383    4.3077383    4.3077383    23043.677   -59304.703   -1980.3193    130416.05    18220.813    18280.891   -21774.987    79.937017 
   14900    1463.4249   -109.64764    1.3241376    -108.3235   -1345.2539    4.3241639    4.3241639    4.3241639   -1345.2539     -5999.06   -57271.519    59234.817      6893.13    213.81673    3672.6002     80.85492 
   15000    1960.9628   -110.09757    1.7743203   -108.32325   -55385.843    4.3505027    4.3505027    4.3505027   -55385.843   -30446.743   -70756.009   -64954.778   -6139.6706    2215.1927    32506.968    82.341413 
   15100    1281.2224   -109.42264    1.1592769   -108.26337   -25560.836    4.3573634    4.3573634    4.3573634   -25560.836   -65928.083   -59334.845    48580.421    13900.558     18773.52   -20723.662    82.731585 
   15200    1735.7352    -109.7962    1.5705297   -108.22567   -7500.2978    4.3135084    4.3135084    4.3135084   -7500.2978    69.058211    1722.4679    -24292.42    12898.719   -3965.9047    5772.2495    80.258666 
   15300    2024.1478   -110.05499    1.8314914    -108.2235    16010.231    4.2893251    4.2893251    4.2893251    16010.231    43965.086   -8933.4493    12999.056   -9815.9045   -4684.3748    49596.423     78.91633 
   15400    1498.5871   -109.64256    1.3559531   -108.28661     51605.06     4.316447     4.316447     4.316447     51605.06    10667.644    54919.264    89228.271   -11589.614   -13226.912   -19619.101    80.422809 
   15500    1761.2038   -109.88534    1.5935742   -108.29177   -4520.7726    4.3486686    4.3486686    4.3486686   -4520.7726   -8585.1058    15738.929   -20716.141    17666.623   -13383.953    19193.318    82.237316 
   15600    1521.6092   -109.62705     1.376784   -108.25026    -6212.209    4.3661145    4.3661145    4.3661145    -6212.209   -29356.766    22735.493   -12015.353   -22497.341     2837.843    3373.8486    83.231048 
   15700    1905.5923   -109.90973    1.7242199   -108.18551   -12376.713    4.3608132    4.3608132    4.3608132   -12376.713    59711.863   -41388.955   -55453.048   -3675.7628   -8479.3978   -7128.2905    82.928242 
   15800    1823.4794   -109.81504    1.6499225   -108.16512     13412.46    4.3327233    4.3327233    4.3327233     13412.46    48942.065    16168.925   -24873.609    6582.2582   -4009.1344     35527.67    81.336009 
   15900    1207.9979   -109.30619    1.0930219   -108.21317     31404.82    4.3345461    4.3345461    4.3345461     31404.82    56617.722    18681.763    18914.976    -35048.51   -2382.3537    -1864.157     81.43871 
   16000    1687.3617   -109.75012    1.5267603   -108.22336   -26607.005    4.3523749    4.3523749    4.3523749   -26607.005   -50582.059   -41856.839    12617.883   -15550.958   -6133.8492    20345.178    82.447764 
   16100    1922.5781   -109.93841    1.7395891   -108.19882   -20920.956    4.3498189    4.3498189    4.3498189   -20920.956     23089.94   -86108.014    255.20553    20107.464   -15903.168    2960.4689    82.302597 
   16200    1903.2592   -109.91111    1.7221089     -108.189    6746.4384    4.3413686    4.3413686    4.3413686    6746.4384    70886.449    -40447.73   -10199.404    -13811.45   -6021.9564   -18112.582    81.823866 
   16300    1971.8552   -109.97647    1.7841761   -108.19229   -23290.714    4.3394826    4.3394826    4.3394826   -23290.714     20513.54   -23612.552   -66773.129    6054.5506   -11143.279    21893.132    81.717272 
   16400    1461.4556   -109.52602    1.3223558   -108.20367    11745.199    4.3472396    4.3472396    4.3472396    11745.199    55602.133   -4743.0653   -15623.469    1557.0472   -1502.0545    2216.0484    82.156276 
   16500    1600.0805   -109.63656    1.4477865   -108.18877   -21112.967    4.3562823    4.3562823    4.3562823   -21112.967    3332.4061   -56074.113   -10597.196   -10810.595   -16465.659   -23380.718    82.670023 
   16600    1844.4494   -109.84763    1.6688966   -108.17873   -45506.798    4.3203781    4.3203781    4.3203781   -45506.798   -13057.685   -35872.185   -87590.523    13935.005   -7334.2293    22802.546     80.64274 
   16700    2228.5651   -110.19093    2.0164525   -108.17447    23688.079    4.2971554    4.2971554    4.2971554    23688.079    56166.058   -22940.589    37838.766   -15396.038    7769.8284    19211.473    79.349317 
   16800    1710.3694   -109.80566    1.5475782   -108.25808    -37449.84    4.3514569    4.3514569    4.3514569    -37449.84   -12142.544   -40686.142   -59520.834   -6825.5659   -24113.544   -15381.889    82.395608 
   16900    1503.3907   -109.56238    1.3602995   -108.20208   -70703.265     4.365981     4.365981     4.365981   -70703.265     5984.673   -94227.886   -123866.58    16007.613    2465.6973    14800.955    83.223416 
   17000    1503.6653   -109.51487     1.360548   -108.15432    32278.105    4.3297991    4.3297991    4.3297991    32278.105    114463.42   -444.46727   -17184.634    26807.037    15415.492    4891.3733    81.171437 
   17100    1167.5451   -109.24677    1.0564193   -108.19035    36220.638    4.3336966    4.3336966    4.3336966    36220.638    68202.802    86666.403   -46207.292    31005.303    9706.9176   -18085.835    81.390834 
   17200    1452.9043   -109.51667    1.3146183   -108.20205   -26990.188    4.3596292    4.3596292    4.3596292   -26990.188    16853.866    -3938.804   -93885.625    31630.516    235.09205    29729.831    82.860714 
   17300    1538.4038   -109.57516    1.3919801   -108.18318    2959.9964    4.3432697    4.3432697    4.3432697    2959.9964    11871.594     18989.23   -21980.835    42343.908    11248.055    6796.3431    81.931402 
   17400     1558.248   -109.58081    1.4099355   -108.17087    61548.157    4.3095655    4.3095655    4.3095655    61548.157    115211.56    27785.988    41646.923    7536.6515   -11025.742      19073.4    80.038779 
   17500    1869.0344   -109.91814    1.6911416   -108.22699    30066.844    4.3182179    4.3182179    4.3182179    30066.844    83106.833   -6047.6385    13141.337     15896.51   -13297.621    21990.941    80.521836 
   17600    1516.2675   -109.61648    1.3719507   -108.24453    7493.0166    4.3584081    4.3584081    4.3584081    7493.0166    28210.196   -33624.877    27893.732     17664.92    6791.1816   -19361.089    82.791106 
   17700     1876.306   -109.86968    1.6977211   -108.17196   -19202.147    4.3745436    4.3745436    4.3745436   -19202.147   -5925.7091    -66082.33    14401.597    -18660.32    8161.4012    5830.1949    83.714031 
   17800    1276.1419   -109.28397      1.15468   -108.12929    26723.472    4.3715369    4.3715369    4.3715369    26723.472   -5709.3247     27127.16    58752.581    20838.375    11109.706      18158.1    83.541532 
   17900    1733.6161   -109.68332    1.5686123   -108.11471    473.77557    4.3552664    4.3552664    4.3552664    473.77557   -68189.659    80731.505   -11120.519   -16503.396   -17982.108    49564.345      82.6122 
   18000    1022.3765   -109.06429   0.92506771   -108.13922    75099.181    4.3098489    4.3098489    4.3098489    75099.181    68986.453    93310.596    63000.494    6746.3249   -10313.811      50866.3    80.054573 
   18100    1370.3722   -109.45457    1.2399415   -108.21463    59339.934    4.3148844    4.3148844    4.3148844    59339.934    17734.974    59742.711    100542.12    3020.8838    20601.882    17700.295    80.335496 
   18200    1955.1961   -110.00325    1.7691025   -108.23415   -14004.467    4.3583955    4.3583955    4.3583955   -14004.467   -40901.133    16554.919   -17667.186   -9139.2371    34698.398    5348.8096    82.790387 
   18300    1796.0949   -109.80848    1.6251444   -108.18333   -10657.696    4.3578829    4.3578829    4.3578829   -10657.696    38314.305   -41565.674   -28721.717    23330.413   -11489.172   -1086.8063    82.761178 
   18400    2383.8687    -110.3151    2.1569745   -108.15813   -50082.323    4.3361713    4.3361713    4.3361713   -50082.323   -53078.653   -61712.802   -35455.515    3739.9702    26622.252   -20100.975    81.530346 
   18500     1786.591   -109.79615    1.6165451    -108.1796   -162.63536    4.3336281    4.3336281    4.3336281   -162.63536   -19957.254    58998.267    -39528.92   -17588.484      28234.5   -9670.9195    81.386976 
   18600    1493.4995   -109.56344    1.3513497   -108.21209    10861.854    4.3544408    4.3544408    4.3544408    10861.854   -519.56338    62596.209   -29491.084    22883.156   -9039.6543    3014.7365    82.565228 
   18700    1848.7501   -109.85017     1.672788   -108.17739   -36859.326    4.3677016    4.3677016    4.3677016   -36859.326   -72261.712    20314.547   -58630.814    8285.3079    24542.361    7502.2044    83.321848 
   18800    1609.0592   -109.61756    1.4559106   -108.16165   -21457.962    4.3434573    4.3434573    4.3434573   -21457.962   -16644.528   -2493.1552   -45236.202    15955.821   -7695.5567    29150.492    81.942023 
   18900    1384.7972   -109.45402    1.2529936   -108.20103   -34193.879    4.3067405    4.3067405    4.3067405   -34193.879    -37518.06   -48646.854   -16416.723    45667.151    18129.904   -6572.9418    79.881481 
   19000    1632.3241   -109.70324    1.4769612   -108.22628    37173.481    4.2670006    4.2670006    4.2670006    37173.481    9984.2915     67946.91    33589.242   -3528.9846    49418.858   -3791.1811    77.690535 
   19100    1844.5677     -109.993    1.6690036     -108.324    23236.687    4.2957536    4.2957536    4.2957536    23236.687    103509.94   -826.74968   -32973.135    16654.603   -9498.6014    7176.9302    79.271686 
   19200    1479.5269   -109.63675    1.3387071   -108.29804   -60072.222    4.3616967    4.3616967    4.3616967   -60072.222   -12292.273   -106125.54   -61798.856    40084.664   -2164.4926    7316.0769    82.978653 
   19300    1588.4824   -109.65092    1.4372923   -108.21363    5639.4515    4.3539399    4.3539399    4.3539399    5639.4515    61534.002   -13444.907   -31170.741    -5020.986    37284.354   -4672.0741    82.536736 
   19400     2082.927   -110.06432    1.8846761   -108.17964    22848.974    4.3011124    4.3011124    4.3011124    22848.974   -15339.044    38187.663    45698.303    14902.247   -13781.704   -464.02208    79.568722 
   19500    1169.2541    -109.2625    1.0579657   -108.20453    40479.658    4.2774101    4.2774101    4.2774101    40479.658   -22036.247     86894.47    56580.751    58031.855    14062.189     14484.35    78.260511 
   19600      2195.73    -110.2587    1.9867426   -108.27195   -4304.6735    4.3102417    4.3102417    4.3102417   -4304.6735   -17399.835    16539.368   -12053.554   -2885.7685    30668.099    8973.7024    80.076463 
   19700    1515.1095   -109.63602    1.3709029   -108.26512    6868.2831    4.3376613    4.3376613    4.3376613    6868.2831   -39349.732    9365.7802    50588.801   -13193.342   -13129.205    10775.299    81.614423 
   19800    1508.4952   -109.59216    1.3649182   -108.22724    12044.069    4.3229828    4.3229828    4.3229828    12044.069    1609.5292   -8089.8992    42612.578     23229.59   -9520.0274    2302.3369    80.788682 
   19900    2288.0648   -110.26961    2.0702891   -108.19932     34930.28    4.3127956    4.3127956    4.3127956     34930.28    17106.653    65218.929    22465.259   -9485.3084    1216.8674    20907.037    80.218886 
   20000    1079.6707   -109.21847   0.97690873   -108.24156    37968.165    4.3106671    4.3106671    4.3106671    37968.165    10233.541    69717.535    33953.419    29003.914    -11002.18    11944.047    80.100174 
   20100    1650.2015   -109.75703     1.493137   -108.26389   -9772.0069    4.3242614    4.3242614    4.3242614   -9772.0069    25623.816   -39457.854   -15481.983    29366.238    5211.4343   -16709.174    80.860387 
   20200    2528.8601   -110.51512    2.2881657   -108.22695   -19575.664    4.3375821    4.3375821    4.3375821   -19575.664   -17383.515   -11217.864   -30125.613   -1657.5552    13071.303   -5247.3164    81.609953 
   20300    1285.7386   -109.36982    1.1633633   -108.20646   -16778.925    4.3357146    4.3357146    4.3357146   -16778.925   -85318.622    6196.9542    28784.892    33781.318    10589.831    9417.2452    81.504588 
   20400    2233.3765   -110.19789     2.020806   -108.17708   -7082.1544    4.3205682    4.3205682    4.3205682   -7082.1544   -10868.256   -14667.273    4289.0651    -36492.46   -5522.8714    13738.778    80.653386 
   20500    1681.9229   -109.71951    1.5218392   -108.19767    5705.8809    4.3070915    4.3070915    4.3070915    5705.8809   -25915.247   -6968.4266    50001.316    42485.436    445.88433   -3927.9893    79.901013 
   20600    1298.3866   -109.40813    1.1748075   -108.23332   -28900.789    4.3115838    4.3115838    4.3115838   -28900.789   -65429.886   -16508.611   -4763.8687      25782.4   -13903.948    21074.139    80.151284 
   20700    2136.1794   -110.16771      1.93286   -108.23485   -4896.2332    4.3180425    4.3180425    4.3180425   -4896.2332   -61509.658    -19755.45    66576.408   -20683.646    7167.8832   -11792.569    80.512024 
   20800    1422.2161   -109.52692     1.286851   -108.24007   -4457.9132     4.316136     4.316136     4.316136   -4457.9132   -72816.431    4068.9414     55373.75    47910.736    14371.548     4752.349    80.405426 
   20900    1189.5564   -109.31173    1.0763357   -108.23539     21379.92    4.3046917    4.3046917    4.3046917     21379.92   -11256.959    16867.755    58528.963    -3175.582   -6988.7459     193.7789    79.767533 
   21000    1940.5898   -109.98789    1.7558864   -108.23201    13577.517    4.3056801    4.3056801    4.3056801    13577.517   -21334.558   -14615.027    76682.136     6120.532    8919.0909   -6176.0735    79.822491 
   21100    1413.3433    -109.5278    1.2788227   -108.24898    18354.083    4.3073563    4.3073563    4.3073563    18354.083   -33216.174   -3084.3085    91362.733    38939.806    19159.931    9914.4937    79.915752 
   21200    1767.7056   -109.84934    1.5994572   -108.24988    35939.329    4.3215495    4.3215495    4.3215495    35939.329    76972.062   -29238.247    60084.171   -27742.983    25980.143   -2559.8319    80.708352 
   21300    1139.7673    -109.2935    1.0312854   -108.26221    16799.581    4.3443089    4.3443089    4.3443089    16799.581    101764.74   -63745.229    12379.234    15057.991    20381.316     6793.064    81.990226 
   21400    1318.7696   -109.41835    1.1932505    -108.2251    38750.007    4.3390658    4.3390658    4.3390658    38750.007    77049.309   -2966.0213    42166.735    5232.3688    20820.077    12708.085    81.693728 
   21500    1565.2138   -109.61854    1.4162383    -108.2023    52467.613    4.3288042    4.3288042    4.3288042    52467.613    130653.84    11122.011    15626.987    -31393.19    13228.166   -10880.237    81.115498 
   21600    1446.6271   -109.50822    1.3089386   -108.19928    21307.804      4.33248      4.33248      4.33248    21307.804   -3683.7126    62857.047     4750.078    21255.173   -11917.076    3470.3357    81.322309 
   21700    1602.2198   -109.64413    1.4497221   -108.19441    15748.571    4.3297888    4.3297888    4.3297888    15748.571   -4290.8261    55297.604   -3761.0635   -2303.5762   -834.07884   -15774.402    81.170857 
   21800    1980.5116   -109.99462    1.7920085   -108.20261    14018.867    4.3094677    4.3094677    4.3094677    14018.867    77729.084   -12683.801   -22988.683   -30014.751    5973.5571   -35643.051    80.033331 
   21900    1794.3209   -109.86112    1.6235393   -108.23758     13290.33    4.2994803    4.2994803    4.2994803     13290.33    8881.7768   -18666.908    49656.121    31633.673   -3814.0003    8212.5754    79.478174 
   22000    1265.5131   -109.42024    1.1450629   -108.27518   -9038.1321    4.3102506    4.3102506    4.3102506   -9038.1321   -649.47373   -41722.629    15257.707    48184.696    6522.9873   -27637.065    80.076957 
   22100    1959.6297    -110.0258    1.7731141   -108.25268   -6093.3332    4.3166017    4.3166017    4.3166017   -6093.3332     52935.55   -44443.925   -26771.624   -27228.627    5958.2753   -39915.026    80.431457 
   22200    1413.8023   -109.52104     1.279238   -108.24181    -31981.01    4.3348371    4.3348371    4.3348371    -31981.01   -42646.952   -62495.926    9199.8476    50516.712    8122.8355    14738.453     81.45511 
   22300    1611.1204   -109.67402    1.4577756   -108.21625   -29225.998    4.3236934    4.3236934    4.3236934   -29225.998   -55983.022    2554.1216   -34249.095    9640.4612   -195.06544   -4181.8061    80.828529 
   22400     1792.979   -109.82296    1.6223251   -108.20063    43840.727    4.2917214    4.2917214    4.2917214    43840.727    74416.609    55314.501    1791.0714    9594.6585    -9789.721   -14422.139     79.04867 
   22500    1295.5801   -109.43186    1.1722681   -108.25959     5056.402    4.3050601    4.3050601    4.3050601     5056.402   -49888.236    25117.561    39939.881     68758.64   -10739.232    9381.9314    79.788015 
   22600    1464.8435   -109.58354    1.3254212   -108.25812    -35172.71    4.3294819    4.3294819    4.3294819    -35172.71     22356.16    -74027.09     -53847.2    14020.718    14178.418   -9872.9664    81.153598 
   22700     1834.339   -109.89351    1.6597485   -108.23376    34133.002    4.2956962    4.2956962    4.2956962    34133.002    68382.287    47981.089   -13964.369    13319.554    6103.3504   -19393.657    79.268506 
   22800    1166.9725     -109.296    1.0559012    -108.2401    66253.241    4.2812927    4.2812927    4.2812927    66253.241    118760.31    34902.576    45096.842    52689.063   -3848.9871    1789.2693    78.473814 
   22900    1989.8776   -110.04666    1.8004831   -108.24618   -37899.479    4.3221295    4.3221295    4.3221295   -37899.479   -51.752037   -51024.047   -62622.636    -17078.49    24737.355     10645.71    80.740851 
   23000    1636.2711   -109.70236    1.4805324   -108.22183    4979.7164    4.3133743    4.3133743    4.3133743    4979.7164   -10044.364    14737.334     10246.18    25394.033    426.83164    10661.112    80.251182 
   23100    1553.5381   -109.62208    1.4056739   -108.21641    27968.762    4.2966068    4.2966068    4.2966068    27968.762   -42094.941    20606.237    105394.99    49999.672    -5242.892    8061.1244     79.31893 
   23200    2158.7411     -110.176    1.9532743   -108.22272   -16901.945     4.314084     4.314084     4.314084   -16901.945   -18072.819    -4512.471   -28120.545   -25906.078    3937.3081    11270.335      80.2908 
   23300    1532.4596   -109.61933    1.3866017   -108.23272    2082.0918    4.3057017    4.3057017    4.3057017    2082.0918   -53035.297    41324.363     17957.21    47401.059   -13702.637     12207.61    79.823693 
   23400     1829.839   -109.89708    1.6556767   -108.24141    23045.222    4.3010675    4.3010675    4.3010675    23045.222    63820.893   -7666.5537    12981.327    32062.269    9400.4533   -6154.8426    79.566229 
   23500    1974.1672   -110.03024     1.786268   -108.24397    10862.258    4.3070998    4.3070998    4.3070998    10862.258   -6189.6004     17037.12    21739.254    -26008.27     12803.77    8193.6635    79.901477 
   23600    1342.4501   -109.45131    1.2146771   -108.23663    -4229.715    4.3057602    4.3057602    4.3057602    -4229.715   -26507.012   -29988.726    43806.592    73700.035     10032.87    13926.075    79.826945 
   23700     1675.548   -109.74549    1.5160711   -108.22942    16173.399     4.315106     4.315106     4.315106    16173.399    11660.647   -11335.938    48195.487    6415.5153    3400.7392    2972.7104    80.347875 
   23800    1330.2022   -109.42194    1.2035949   -108.21834      15520.4    4.3205541    4.3205541    4.3205541      15520.4   -31310.996    9011.6148    68860.582    -9860.099    13705.422   -22925.697    80.652596 
   23900    1102.0446   -109.20546   0.99715313   -108.20831    33164.446    4.3080537    4.3080537    4.3080537    33164.446    9149.8441     44010.42    46333.072    49121.179   -3686.8294    -975.0471    79.954578 
   24000    2063.5374   -110.06254     1.867132   -108.19541    -7127.479    4.3145422    4.3145422    4.3145422    -7127.479   -10273.115    43458.568    -54567.89   -22755.735    2362.8366    13694.709    80.316388 
   24100    1187.2896   -109.28089    1.0742846    -108.2066   -626.04892    4.3076804    4.3076804    4.3076804   -626.04892   -92138.636    30710.541    59549.949      42929.2    11838.485    7274.3508    79.933791 
   24200    1778.8497   -109.82843    1.6095406   -108.21889    5979.1752    4.2945729    4.2945729    4.2945729    5979.1752   -43102.677     4921.521    56118.682    44959.319    -844.5514    10412.746    79.206341 
   24300    2518.4052   -110.50695     2.278706   -108.22824    28932.848    4.2919409    4.2919409    4.2919409    28932.848    15982.781    56783.169    14032.594   -21821.376    9726.3611    440.31299    79.060799 
   24400    962.50328   -109.14518   0.87089319   -108.27429   -12246.652    4.3041698    4.3041698    4.3041698   -12246.652   -55600.782   -63274.971    82135.797    75193.126     15676.23    -2876.419    79.738524 
   24500    2069.9923   -110.11214    1.8729726   -108.23916   -3072.4555    4.3100154    4.3100154    4.3100154   -3072.4555   -37065.461   -10837.026     38685.12   -11855.369    7161.0363   -4285.0865    80.063849 
   24600    2161.2548    -110.1775    1.9555487   -108.22195   -11912.896    4.3149419    4.3149419    4.3149419   -11912.896   -17237.631   -10258.832   -8242.2239    11540.892   -4313.7294     18977.51    80.338713 
   24700    1754.2578   -109.80786    1.5872894   -108.22057     -25452.3    4.3058663    4.3058663    4.3058663     -25452.3   -48685.788   -27366.247   -304.86708    66185.963    7769.4138    8717.9945    79.832846 
   24800    1905.7456   -109.94418    1.7243587   -108.21982    13842.448    4.2875293    4.2875293    4.2875293    13842.448    5107.0614    37860.004   -1439.7215   -29758.461    13992.541   -12043.187    78.817257 
   24900    1385.1056   -109.51131    1.2532727   -108.25804   -2490.0953    4.2893452    4.2893452    4.2893452   -2490.0953   -10134.979   -33348.559    36013.251   -6687.6959   -6636.7259    12812.922    78.917439 
   25000    2095.2376   -110.15175     1.895815   -108.25593    15066.035    4.2927638    4.2927638    4.2927638    15066.035   -2947.3762    14519.916    33625.565    35820.062   -3169.3855    12337.053    79.106282 
   25100    1486.7872   -109.61052    1.3452763   -108.26525   -15563.998    4.3097489    4.3097489    4.3097489   -15563.998   -20892.847   -855.44712   -24943.701   -14053.867    2032.6302   -18660.078    80.048998 
   25200    1119.8493   -109.26938    1.0132632   -108.25612   -15321.666    4.3084921    4.3084921    4.3084921   -15321.666    8384.0282   -27589.943   -26759.083    -23300.31    11915.407     -5408.93    79.978986 
   25300    2621.3332   -110.59591    2.3718374   -108.22408   -2319.3507    4.2940532    4.2940532    4.2940532   -2319.3507    9037.4562    12859.409   -28854.917    17965.165   -15737.529    2171.4584    79.177589 
   25400    1180.2319   -109.31739    1.0678986   -108.24949   -7275.2536    4.2906813    4.2906813    4.2906813   -7275.2536    16942.847   -12515.504   -26253.104   -849.86321   -18008.203   -22563.494    78.991213 
   25500    1466.9923   -109.58534    1.3273655   -108.25797   -8861.2993    4.2975965    4.2975965    4.2975965   -8861.2993    22146.275   -24385.101   -24345.072   -35739.763    18127.286   -10423.568    79.373752 
   25600    1863.5486   -109.94292    1.6861779   -108.25674   -22818.812    4.3156318    4.3156318    4.3156318   -22818.812   -63088.743    30065.578   -35433.271   -3571.1053   -23204.448    3403.7218     80.37725 
   25700    1253.7818   -109.38748    1.1344481   -108.25303    1751.6984    4.3082292    4.3082292    4.3082292    1751.6984    38235.069    2462.2593   -35442.233    9097.0042   -16407.814    5080.6497    79.964348 
   25800    1943.2765   -109.99602    1.7583174    -108.2377   -2033.5496    4.2885942    4.2885942    4.2885942   -2033.5496   -15308.274     28836.34   -19628.715   -9047.9963    11642.491   -10083.502    78.875996 
   25900    1057.0785   -109.22088   0.95646688   -108.26441    17396.794    4.2855044    4.2855044    4.2855044    17396.794   -10704.426      70095.8   -7200.9907    223.48664   -67029.535    8747.5511    78.705637 
   26000    1567.5283   -109.68545    1.4183326   -108.26711   -11593.243    4.2955035    4.2955035    4.2955035   -11593.243   -24857.966    33606.876   -43528.639    7335.6952   -13544.892    11706.344    79.257842 
   26100    1813.9231   -109.90196    1.6412757   -108.26068   -12851.259    4.3028136    4.3028136    4.3028136   -12851.259   -3693.9643    26374.001   -61233.813   -2307.9058    27472.346   -7286.2981    79.663175 
   26200    850.17942   -109.04559   0.76926021   -108.27633   -1091.3689    4.2974418    4.2974418    4.2974418   -1091.3689   -18426.312    99199.184    -84046.98    5152.8398   -80987.063    -7598.003     79.36518 
   26300     1917.354   -110.00322    1.7348622   -108.26835   -11020.222    4.2887488    4.2887488    4.2887488   -11020.222   -9625.0628    14375.214   -37810.819    7648.5293   -15050.907   -7654.6906    78.884525 
   26400    1970.5074   -110.04958    1.7829565   -108.26662    15444.044    4.2852447    4.2852447    4.2852447    15444.044    34690.155    6696.3483    4945.6296    21147.328    700.90146    10928.759    78.691327 
   26500    1328.3633   -109.48566     1.201931   -108.28373   -9161.2137    4.2976293    4.2976293    4.2976293   -9161.2137   -28003.014    71836.946   -71317.573   -5740.4989   -73797.518    3776.4431    79.375568 
   26600    2045.2336   -110.10115    1.8505704   -108.25058   -23211.494    4.3151162    4.3151162    4.3151162   -23211.494   -847.12628   -18549.391   -50237.964    12532.448    19841.666   -1565.4111    80.348445 
   26700    926.70122   -109.08317   0.83849874   -108.24467   -8012.9284    4.3116746    4.3116746    4.3116746   -8012.9284   -12355.531   -16443.653    4760.3985    4730.7872   -43890.451   -11557.491    80.156352 
   26800    1596.9469   -109.68616    1.4449511   -108.24121    5891.9049     4.294407     4.294407     4.294407    5891.9049    7854.6681    10862.484   -1041.4377    1930.6507   -61454.892    10467.341    79.197159 
   26900    2403.8771   -110.41645    2.1750785   -108.24137    29946.964    4.2956218    4.2956218    4.2956218    29946.964    47055.043    208.29116    42577.559   -3039.2739     21014.19   -7224.4094    79.264391 
   27000    1384.8357   -109.51943    1.2530284    -108.2664   -1130.4239    4.3054256    4.3054256    4.3054256   -1130.4239   -34751.389    40195.785   -8835.6669   -12671.045   -62805.927   -12041.889     79.80834 
   27100    1738.1521   -109.81979    1.5727166   -108.24708   -19001.163    4.3205582    4.3205582    4.3205582   -19001.163   -15244.239   -24156.396   -17602.855   -797.86371   -23871.387   -4575.0068    80.652823 
   27200    2007.6831   -110.04414    1.8165938   -108.22754   -4534.2317    4.3134666    4.3134666    4.3134666   -4534.2317   -5318.9116    13227.021   -21510.804    2711.0181    17032.967   -45108.304    80.256333 
   27300    1296.0582   -109.40432    1.1727007   -108.23162     19881.81    4.2889349    4.2889349    4.2889349     19881.81   -37327.862    79985.731     16987.56   -4491.1072   -50473.864   -29802.911    78.894798 
   27400     1547.481   -109.65486    1.4001934   -108.25467    12438.154    4.2949124    4.2949124    4.2949124    12438.154   -3867.5598   -15738.453    56920.476   -26614.234   -17118.453    8773.1394    79.225124 
   27500    2023.5935    -110.0811    1.8309899   -108.25011    -14685.85    4.3187527    4.3187527    4.3187527    -14685.85    15828.685   -50255.176   -9631.0587    12422.191    7037.0383    20461.903    80.551756 
   27600     1372.596   -109.48242    1.2419537   -108.24046   -13877.708    4.3167729    4.3167729    4.3167729   -13877.708   -39097.087    33473.233   -36009.271    83.561953   -30474.755    -616.0475    80.441026 
   27700    1589.5818   -109.66383     1.438287   -108.22554    2776.7742    4.2972895    4.2972895    4.2972895    2776.7742    3801.0608    33385.546   -28856.284   -14034.617    4225.8609     28696.54    79.356746 
   27800    1937.1635    -109.9848    1.7527863   -108.23201   -7480.6749    4.3021257    4.3021257    4.3021257   -7480.6749    1552.0665    3245.8734   -27239.965    16647.615    3387.9796    42202.275    79.624973 
   27900    1397.3627   -109.49685    1.2643632   -108.23249   -34800.757    4.3208241    4.3208241    4.3208241   -34800.757   -57675.577    18988.655   -65715.349   -10270.079   -51377.913   -7246.0235    80.667713 
   28000    1564.4851    -109.6302     1.415579   -108.21462     12528.84     4.305218     4.305218     4.305218     12528.84    58327.531    -14022.97   -6718.0418    -23656.87    3099.5055     14087.82    79.796795 
   28100    1416.4084   -109.50306    1.2815961   -108.22146     21529.54    4.2923785    4.2923785    4.2923785     21529.54    81795.827   -5149.2976    -12057.91    6012.9795    -12879.24    29224.848    79.084982 
   28200     1594.906   -109.67881    1.4431045   -108.23571    16392.966    4.3038618    4.3038618    4.3038618    16392.966    50984.586    35828.837   -37634.525   -17503.853    -30741.93   -21453.861    79.721408 
   28300    1726.3151   -109.79905    1.5620062   -108.23705    12815.184    4.3170944    4.3170944    4.3170944    12815.184      25523.8     50585.05   -37663.299   -29408.619    5008.2728    28728.586    80.458999 
   28400    1241.3221   -109.35589    1.1231743   -108.23272    28481.205    4.3211554    4.3211554    4.3211554    28481.205     30946.01     93119.87   -38622.263   -10495.073   -6426.4328    31378.916     80.68627 
   28500    2050.1918   -110.06439    1.8550567   -108.20933    9531.5344    4.3187633    4.3187633    4.3187633    9531.5344   -18798.957    81341.947   -33948.387   -7352.3818    -12272.64   -26732.811    80.552347 
   28600    1425.8722   -109.51902    1.2901592   -108.22886   -15440.987    4.2994473    4.2994473    4.2994473   -15440.987    18596.001   -18217.636   -46701.324   -11317.778    3881.6475    38700.815    79.476345 
   28700    1234.9087   -109.35419    1.1173713   -108.23682    25105.535    4.2718143    4.2718143    4.2718143    25105.535    77592.027    32724.373   -34999.797   -20647.082   -28547.905    37947.005    77.953767 
   28800    2325.3189   -110.36212    2.1039974   -108.25812   -5628.5626    4.2861663    4.2861663    4.2861663   -5628.5626   -1222.7512    40922.647   -56585.584    9477.8584   -22317.287   -18291.852     78.74211 
   28900    1248.9556   -109.40158    1.1300813    -108.2715   -33020.241    4.3042426    4.3042426    4.3042426   -33020.241    21758.148   -44144.063   -76674.808    1819.4507    22102.639    35055.029    79.742568 
   29000     1246.517   -109.38848    1.1278748    -108.2606    16794.332    4.2948804    4.2948804    4.2948804    16794.332      52334.8    53991.782   -55943.585   -12677.995   -22210.971    18277.776    79.223351 
   29100    1833.6652   -109.91029    1.6591388   -108.25115    13531.475    4.2957592    4.2957592    4.2957592    13531.475      2747.62    66232.076   -28385.271    19625.978    -11223.75   -11282.651    79.271992 
   29200    1431.8142    -109.5596    1.2955355   -108.26407    10575.057    4.2796371    4.2796371    4.2796371    10575.057   -8322.4499    58464.993   -18417.373    10844.295     30059.42    31797.013    78.382811 
   29300    1800.9081    -109.9037    1.6294995    -108.2742    -167.2994    4.2796642    4.2796642    4.2796642    -167.2994    21629.233    27660.601   -49791.732   -18426.727    -4538.694    3680.9998    78.384297 
   29400    1181.9562   -109.35212    1.0694588   -108.28266   -37252.479    4.3008469    4.3008469    4.3008469   -37252.479   -36376.441   -50626.145   -24754.851    15423.395    2048.9895   -18711.532    79.553985 
   29500    1450.0903   -109.58351    1.3120722   -108.27144    2661.3434    4.2913576    4.2913576    4.2913576    2661.3434   -16219.379    1579.7526    22623.656    48172.435    30489.199    3419.3729     79.02857 
   29600     2539.773   -110.55567      2.29804   -108.25763    15755.064     4.291128     4.291128     4.291128    15755.064    9671.3609    29698.878    7894.9538   -12166.287   -19044.789     12972.26    79.015887 
   29700    1148.6966   -109.31392    1.0393648   -108.27456    872.84745    4.3090931    4.3090931    4.3090931    872.84745    6586.7549    22399.171   -26367.383    22074.862   -9502.2583   -8414.5821    80.012461 
   29800    1315.4848   -109.44525    1.1902783   -108.25497    -2488.399    4.3111084    4.3111084    4.3111084    -2488.399   -40855.887    28610.088    4780.6022    37439.939    29084.874    5895.1288    80.124779 
   29900     2377.679   -110.37117    2.1513739    -108.2198     22240.67     4.293444     4.293444     4.293444     22240.67    195.46549    23562.094     42964.45   -16670.778   -13615.355    26087.551    79.143895 
   30000    1529.0147   -109.62186    1.3834847   -108.23837    20633.494    4.2958394    4.2958394    4.2958394    20633.494    40450.743     17411.69    4038.0485    20404.091   -4022.8444    -17628.64    79.276434 
   30100    1656.8719   -109.73932    1.4991725   -108.24015   -1880.3717    4.3100793    4.3100793    4.3100793   -1880.3717    9406.3887   -13923.848   -1123.6564    18044.633    18639.996    10193.568    80.067411 
   30200    1752.6218   -109.82744    1.5858091   -108.24163   -6271.7774    4.3009433    4.3009433    4.3009433   -6271.7774    6333.3534    15764.365   -40913.051   -8240.7616   -21671.856    71598.844    79.559336 
   30300    2157.6708   -110.18812    1.9523059   -108.23582    9063.8824    4.2818929    4.2818929    4.2818929    9063.8824   -6897.3127    54270.704   -20181.744    2138.1371   -14783.127    3151.2057    78.506821 
   30400    1456.5438   -109.57339    1.3179114   -108.25548    -2594.255    4.2953679    4.2953679    4.2953679    -2594.255    1595.5509    10473.827   -19852.143     25056.86    10600.254    26451.023    79.250332 
   30500    1450.3766   -109.56679    1.3123312   -108.25446   -4715.7594    4.3045798    4.3045798    4.3045798   -4715.7594    53067.451    -13659.18   -53555.549    11683.889   -778.65297    52824.735    79.761311 
   30600    2521.8735   -110.51492    2.2818441   -108.23308    4861.6468    4.2984862    4.2984862    4.2984862    4861.6468    32264.043   -164.37544   -17514.727   -5646.2448   -1909.5227   -29868.144    79.423058 
   30700    1040.7645   -109.20181   0.94170563    -108.2601   -35217.845     4.302188     4.302188     4.302188   -35217.845   -16404.554   -30618.372   -58630.608    10879.531    16270.349    63153.595     79.62843 
   30800     1150.319   -109.31217    1.0408328   -108.27134      3084.49    4.2848259    4.2848259    4.2848259      3084.49    14544.136    22757.652   -28048.317    22373.762    2369.9124    51352.592    78.668259 
   30900    2827.4598   -110.82268     2.558345   -108.26433    32262.107    4.2796526    4.2796526    4.2796526    32262.107    43757.552    23514.179    29514.589   -9154.0315   -17210.243   -22805.696    78.383661 
   31000    1487.6601   -109.64416    1.3460661   -108.29809   -647.45786    4.2980425    4.2980425    4.2980425   -647.45786    28058.463    -35344.97     5344.134    548.91563   -2679.6356    45052.636    79.398469 
   31100    1047.3598   -109.23303   0.94767314   -108.28535   -2933.6828    4.3064564    4.3064564    4.3064564   -2933.6828   -15790.714   -1587.9597    8577.6252     16957.05    16584.977    25317.404    79.865673 
   31200    2483.4841    -110.4881    2.2471086   -108.24099   -2319.7574    4.3066629    4.3066629    4.3066629   -2319.7574   -1066.8603     16164.83   -22057.242    -17698.97    12800.327   -25639.745    79.877163 
   31300    1554.9818   -109.64815    1.4069802   -108.24117    -8667.765    4.3085079    4.3085079    4.3085079    -8667.765    46831.517   -11212.557   -61622.255    1936.2442   -7705.4077    57299.577    79.979866 
   31400    1501.8073   -109.59329    1.3588668   -108.23442    2563.6816    4.3060367    4.3060367    4.3060367    2563.6816    19052.068    24546.616   -35907.639    16068.583    6489.1576    19927.277    79.842329 
   31500    2120.5533   -110.13875    1.9187212   -108.22003   -5297.8244    4.3110871    4.3110871    4.3110871   -5297.8244    12336.483    13962.686   -42192.642   -17537.762   -15787.195   -10644.527     80.12359 
   31600    1253.2675   -109.35376    1.1339828   -108.21978    12355.393    4.3143425    4.3143425    4.3143425    12355.393    91619.942    25351.138   -79904.902    15135.196   -22386.188    55713.329    80.305234 
   31700    1944.8652    -109.9531    1.7597549   -108.19335    46886.944    4.3079169    4.3079169    4.3079169    46886.944     96052.67    55979.725   -11371.562    11514.862     9234.966   -9282.4571    79.946958 
   31800    1037.5271   -109.15155   0.93877631   -108.21277    17041.943    4.3130267    4.3130267    4.3130267    17041.943    31360.626     65442.31   -45677.108    10790.955   -48515.532    26514.295    80.231784 
   31900    2062.6707   -110.05526    1.8663478   -108.18892   -8086.4135    4.3160838    4.3160838    4.3160838   -8086.4135   -13580.899     -11817.3    1138.9588    5024.7452    5730.6911     17990.78    80.402507 
   32000    1488.5509   -109.53212    1.3468721   -108.18525    6150.1931     4.310996     4.310996     4.310996    6150.1931    38792.854   -20558.591    216.31574    2373.5086   -31773.258   -27080.107    80.118512 
   32100    1532.9068   -109.58279    1.3870062   -108.19579   -1495.8893    4.3149071    4.3149071    4.3149071   -1495.8893     77515.29   -26193.261   -55809.697   -932.21488   -3528.0641    16526.174    80.336768 
   32200    2471.5586   -110.43853    2.2363181   -108.20222   -5097.8298    4.3066603    4.3066603    4.3066603   -5097.8298    6183.2931   -10094.527   -11382.256   -17277.544    17236.649    5367.6531    79.877019 
   32300    1160.2001   -109.28817    1.0497734    -108.2384    35084.353    4.2817005    4.2817005    4.2817005    35084.353    106986.96    6429.0656   -8162.9682    6864.9006   -48543.278   -17884.643    78.496242 
   32400    1403.9137    -109.5295    1.2702907   -108.25921    20069.302    4.2867056    4.2867056    4.2867056    20069.302    17889.103    -5483.686     47802.49    17802.939   -4988.6295    13356.687    78.771839 
   32500    1906.0353   -109.98246    1.7246208   -108.25784   -5963.5163    4.3008132    4.3008132    4.3008132   -5963.5163   -32840.776   -9888.6143    24838.841   -34434.363    18321.436    19145.015    79.552119 
   32600    1378.6129   -109.51215    1.2473979   -108.26475    18744.932    4.2984996    4.2984996    4.2984996    18744.932    76989.657    -24746.06    3991.1987   -18358.928    -35453.59   -7064.1474    79.423804 
   32700    1631.1834   -109.73366     1.475929   -108.25773   -3541.9931    4.3060644    4.3060644    4.3060644   -3541.9931    25472.424   -36219.967    121.56435    10977.024   -21423.309   -18060.568    79.843868 
   32800    1790.6324   -109.86407    1.6202018   -108.24386    9293.5186    4.3062341    4.3062341    4.3062341    9293.5186    12963.184   -26750.792    41668.164   -31006.695    11234.587    12753.824    79.853307 
   32900    1639.2136   -109.72343    1.4831949   -108.24024    3505.9873    4.3089947    4.3089947    4.3089947    3505.9873    3860.0222   -16418.984    23076.923   -17131.912   -34056.352   -10982.432    80.006981 
   33000    1659.3842   -109.74308    1.5014457   -108.24164   -1751.5825    4.3048308    4.3048308    4.3048308   -1751.5825    3800.7805   -25041.401    15985.873    -1084.306   -11461.619   -13725.631    79.775266 
   33100    917.69997   -109.08664   0.83035422   -108.25629    31735.169    4.2882628    4.2882628    4.2882628    31735.169    44636.296   -45030.319    95599.529   -38717.957    12632.412   -9492.5382    78.857711 
   33200     1636.515    -109.7495    1.4807532   -108.26874    11465.968      4.29617      4.29617      4.29617    11465.968    25728.368   -54110.458    62779.995    23550.628   -11436.124   -6128.8626     79.29474 
   33300    2357.7243    -110.3856    2.1333185   -108.25229   -345.19744    4.3046693    4.3046693    4.3046693   -345.19744    41767.683   -46632.266    3828.9905    157.72551   -6302.6884    2239.2788     79.76629 
   33400    1146.2985   -109.30118     1.037195   -108.26398    -27124.33    4.3112719    4.3112719    4.3112719    -27124.33   -39930.636   -72501.656    31059.301   -33093.874    9282.3159   -16217.258     80.13389 
   33500    1551.1032   -109.65448    1.4034707   -108.25101   -16911.336    4.2988589    4.2988589    4.2988589   -16911.336   -29240.843   -33578.391    12085.225    31596.023    13236.505   -14629.194     79.44372 
   33600    2224.5473   -110.24687    2.0128171   -108.23405    14662.501    4.2824779    4.2824779    4.2824779    14662.501    1330.1681   -327.58559    42984.919    -11962.85   -36081.173    17847.111    78.539006 
   33700    1532.7817   -109.64519    1.3868931   -108.25829   -12326.141    4.3010761    4.3010761    4.3010761   -12326.141   -10381.114   -28413.848    1816.5391   -36081.855    15493.165    2503.7731    79.566707 
   33800     1888.082   -109.95189    1.7083763   -108.24352   -26270.219    4.3139346    4.3139346    4.3139346   -26270.219   -8821.0723   -26200.782   -43788.801    14461.464     9904.168    9443.9143    80.282461 
   33900    1269.9009   -109.40903     1.149033   -108.25999   -5672.7095    4.3010945    4.3010945    4.3010945   -5672.7095    17319.279    26252.616   -60590.024    -1358.922   -72621.565     3475.262     79.56773 
   34000    2042.5138   -110.09584    1.8481095   -108.24773    21700.485    4.2871948    4.2871948    4.2871948    21700.485    53694.808   -11469.378    22876.026   -2876.7239    8501.4485    29462.738     78.79881 
   34100    1857.3043   -109.94866     1.680528   -108.26813   -2250.9246    4.3073655    4.3073655    4.3073655   -2250.9246   -7900.3026    28406.141   -27258.612   -22201.584   -9848.5949   -13084.278    79.916266 
   34200    792.41124   -108.97804   0.71699034   -108.26105   -27092.832    4.3193016    4.3193016    4.3193016   -27092.832    6520.5557   -3289.3067   -84509.745   -3290.5194   -82026.345   -1835.1798    80.582471 
   34300    2268.9228    -110.2809     2.052969   -108.22794   -9641.7434      4.30295      4.30295      4.30295   -9641.7434    56547.581   -48185.901    -37286.91    4786.6693    17290.146    17377.043    79.670749 
   34400    2082.6855   -110.11921    1.8844576   -108.23475   -13418.318    4.2983605    4.2983605    4.2983605   -13418.318   -21161.135     4795.224   -23889.043   -1333.2625   -23501.179   -11240.921     79.41609 
   34500    1252.1706   -109.39205    1.1329902   -108.25906   -30198.473    4.2952666    4.2952666    4.2952666   -30198.473    -29485.46    1767.9146   -62877.873     6221.119   -79589.255    23532.896    79.244729 
   34600    1850.0481   -109.93425    1.6739624   -108.26029    5968.8436    4.3018957    4.3018957    4.3018957    5968.8436    10377.755   -35281.848    42810.623    -10195.78     31932.03    5517.8058    79.612199 
   34700    1524.3442    -109.6167    1.3792587   -108.23745   -44911.915    4.3266336    4.3266336    4.3266336   -44911.915   -70454.105   -17941.541     -46340.1   -20211.468   -26887.656     -3506.79    80.993537 
   34800    1545.7366   -109.61883    1.3986149   -108.22022   -24373.729    4.3029503    4.3029503    4.3029503   -24373.729   -50375.699    9972.1161   -32717.604    6894.0547   -52474.677    19367.336    79.670763 
   34900    2224.9342    -110.2219    2.0131672   -108.20873     26195.48    4.2824869    4.2824869    4.2824869     26195.48    20441.195    16673.661    41471.582    6031.5426     22574.44    36377.161    78.539501 
   35000     1749.319   -109.83869    1.5828206   -108.25587   -1464.6578    4.2902231    4.2902231    4.2902231   -1464.6578   -47843.942     33452.05    9997.9179   -9216.8555   -41390.141   -16508.155    78.965905 
   35100    1480.4241   -109.61604    1.3395188   -108.27652    4770.1787     4.290343     4.290343     4.290343    4770.1787   -40001.965    29977.393    24335.108    3916.8566   -32893.573    18425.754    78.972531 
   35200    1847.2005   -109.94631    1.6713858   -108.27493    4044.5939    4.3051729    4.3051729    4.3051729    4044.5939    12294.247    16261.669   -16422.134    2380.0302    21190.481    30926.925    79.794284 
   35300    2128.6037   -110.18033    1.9260054   -108.25432   -31783.336    4.3128624    4.3128624    4.3128624   -31783.336     -87904.5    42490.842   -49936.349   -11082.882   -44722.573   -21479.751    80.222614 
   35400    1721.1147   -109.78335    1.5573008   -108.22605    -8675.165    4.3011861    4.3011861    4.3011861    -8675.165   -43887.829    63619.001   -45756.668    24184.006   -8620.2162    25458.338    79.572811 
   35500    1432.1456   -109.52555    1.2958355   -108.22972    7242.9577    4.2985027    4.2985027    4.2985027    7242.9577   -4098.7668    15656.601    10171.039     5841.056    13538.531    37071.558    79.423971 
   35600    2281.1828    -110.2897    2.0640621   -108.22564   -17402.577    4.3081846    4.3081846    4.3081846   -17402.577     -54766.1    18758.308   -16199.939    2201.0824   -36438.033    -22576.72    79.961865 
   35700     1849.146   -109.90814    1.6731462   -108.23499    16118.691    4.2934541    4.2934541    4.2934541    16118.691    7264.1492    11619.449    29472.476    7218.5647    7753.2634    14496.937     79.14445 
   35800     811.1878   -109.00781   0.73397977   -108.27383   -6348.4775    4.2944867    4.2944867    4.2944867   -6348.4775    28144.492   -52189.149    4999.2241    8467.2347    11724.559    40833.578    79.201569 
   35900    2350.2169   -110.37207    2.1265256   -108.24554   -3889.6827    4.2987911    4.2987911    4.2987911   -3889.6827   -28769.862    28691.603    -11590.79    2089.9062    11236.865    67.170166    79.439962 
   36000    1430.4021   -109.54501    1.2942579   -108.25075    47849.247    4.2910368    4.2910368    4.2910368    47849.247    11251.498    46270.032    86026.211    -1491.106   -16988.663    21103.518    79.010848 
   36100    1398.2681   -109.51666    1.2651823   -108.25147   -38911.521    4.3185285    4.3185285    4.3185285   -38911.521   -30592.756   -34905.014   -51236.792    810.87913    17871.965    16653.821    80.539212 
   36200    2212.4101   -110.21542    2.0018351   -108.21358    13278.855    4.3049574    4.3049574    4.3049574    13278.855   -17662.688    46423.958    11075.296   -18015.783   -1755.0724   -16823.742    79.782302 
   36300    933.52413   -109.07849   0.84467225   -108.23381    11183.102     4.290292     4.290292     4.290292    11183.102    719.52746   -13061.786    45891.564    20790.773   -32858.536    26098.455    78.969712 
   36400    1478.1775   -109.57978    1.3374861    -108.2423    -19620.48     4.300997     4.300997     4.300997    -19620.48   -827.92505   -52852.861    -5180.653    20160.167    8921.0481    53294.513    79.562315 
   36500    2011.5252   -110.05274    1.8200703   -108.23267    6560.5295    4.3001173    4.3001173    4.3001173    6560.5295    40776.169   -22042.257    947.67663   -7374.3282    -17957.15   -38711.332    79.513508 
   36600    798.07788   -108.97759   0.72211763   -108.25548   -21141.851    4.3170631    4.3170631    4.3170631   -21141.851    35840.562   -76604.051   -22662.064    24418.852   -10873.178    17031.851    80.457249 
   36700    2048.8878   -110.07104    1.8538767   -108.21717   -4620.9475    4.3112798    4.3112798    4.3112798   -4620.9475    41949.357   -67253.934    11441.734   -2695.0249    6997.5686    14777.374    80.134332 
   36800    1345.3362    -109.4482    1.2172885   -108.23091   -10922.501    4.2871397    4.2871397    4.2871397   -10922.501   -12099.966   -2936.8721   -17730.664    -1902.838    1308.4465   -23441.288    78.795771 
   36900    1344.8414    -109.4645    1.2168408   -108.24766    3252.6798    4.2802075    4.2802075    4.2802075    3252.6798    49956.486   -17251.973   -22946.474    16372.829   -33223.637    19117.605    78.414156 
   37000    2116.8699   -110.17071    1.9153884   -108.25532    3768.9713    4.2965093    4.2965093    4.2965093    3768.9713    37053.555    714.63513   -26461.277   -19946.721     17587.44    2710.5854     79.31353 
   37100    1169.7709   -109.32578    1.0584333   -108.26734   -25419.303    4.3143891    4.3143891    4.3143891   -25419.303   -9570.6814   -5486.8818   -61200.346   -13859.036    29004.536   -23528.665     80.30784 
   37200    2296.6535   -110.30678    2.0780604   -108.22872   -10373.017    4.3141411    4.3141411    4.3141411   -10373.017   -5801.0139    337.51176   -25655.549    12803.474   -29577.655   -1521.5591    80.293992 
   37300    2062.5747   -110.09504    1.8662609   -108.22878   -4071.5842    4.2892381    4.2892381    4.2892381   -4071.5842    -3035.991   -447.76194   -8730.9995   -9435.2203    11480.508     8772.705    78.911532 
   37400    853.02853   -109.02677   0.77183814   -108.25493    42291.191      4.27873      4.27873      4.27873    42291.191    46819.922    55449.087    24604.563    -19529.07    39620.641   -25984.907    78.332982 
   37500    2885.6544   -110.86663    2.6110008   -108.25563   -23557.687    4.3113019    4.3113019    4.3113019   -23557.687    -33803.05   -15403.569   -21466.442   -7673.6092   -91.860403    15002.449    80.135568 
   37600    1546.1444   -109.65627     1.398984   -108.25729   -3339.5592    4.3132625    4.3132625    4.3132625   -3339.5592   -42386.481    17087.475    15280.328    7114.2229    1708.4108    5667.3558    80.244943 
   37700    1344.1342   -109.45245    1.2162008   -108.23625    10757.642    4.2938446    4.2938446    4.2938446    10757.642   -30789.566    35407.937    27654.554   -11793.794    44427.652   -20031.849    79.166051 
   37800     2134.137   -110.16711     1.931012   -108.23609   -15814.253     4.295587     4.295587     4.295587   -15814.253   -21743.371   -11433.824   -14265.563    457.20105   -24618.388   -7194.5879    79.262463 
   37900    1478.6829   -109.59338    1.3379433   -108.25544   -23110.716    4.3017168    4.3017168    4.3017168   -23110.716   -52193.123    11271.987   -28411.013    5283.8111   -24111.328    16260.476     79.60227 
   38000    2001.3505   -110.05572     1.810864   -108.24486   -15065.723    4.3055503    4.3055503    4.3055503   -15065.723   -24592.644   -13152.674   -7451.8509   -1234.4607    48005.222   -14018.895    79.815275 
   38100    1285.9311   -109.41018    1.1635374   -108.24664    4483.4807    4.3127219    4.3127219    4.3127219    4483.4807   -73007.322    22370.012    64087.752    3883.2094   -56375.133   -1875.4266    80.214771 
   38200    1467.1547   -109.57263    1.3275124   -108.24512   -29697.428    4.3134699    4.3134699    4.3134699   -29697.428   -68397.432    21551.317    -42246.17    9335.8073   -38321.085    11449.343     80.25652 
   38300    1819.3965   -109.87415    1.6462282   -108.22792    40053.617     4.281461     4.281461     4.281461    40053.617    24473.522    33376.859     62310.47   -1839.1904    19166.221   -21013.294    78.483071 
   38400    1466.2177    -109.5833    1.3266646   -108.25663   -806.37513    4.2819588    4.2819588    4.2819588   -806.37513    -51748.87    58819.032   -9489.2874    6228.3727   -80846.268    7335.8524     78.51045 
   38500    1431.7422   -109.55201    1.2954705   -108.25654   -4568.5365    4.3093079    4.3093079    4.3093079   -4568.5365    -9071.895    889.85972   -5523.5742   -11408.323   -19776.866    6678.9804    80.024429 
   38600    1780.5896   -109.84702    1.6111149   -108.23591    7976.2261    4.3129425    4.3129425    4.3129425    7976.2261    12991.909   -6469.0751    17405.845    1019.6867    474.60713   -14355.201    80.227086 
   38700     1368.205   -109.47725    1.2379807   -108.23927   -20548.168    4.3119323    4.3119323    4.3119323   -20548.168   -61124.435    23898.813   -24418.882    12581.227   -89397.204     6385.517    80.170725 
   38800    2029.4015   -110.06166    1.8362452   -108.22541    11401.463    4.2894321    4.2894321    4.2894321    11401.463    51583.067   -18169.201     790.5227    118.55251     9604.068   -2812.6318    78.922238 
   38900    1430.4568   -109.52724    1.2943074   -108.23293    29592.756    4.2728144    4.2728144    4.2728144    29592.756    58796.556   -7675.3276    37657.038   -10906.699   -18119.233   -39907.088    78.008531 
   39000    1396.2134   -109.54329    1.2633232   -108.27996   -32954.807    4.3054996    4.3054996    4.3054996   -32954.807   -34498.799   -2638.6271   -61726.995   -706.39507   -76777.759   -12152.265    79.812453 
   39100    2584.4559   -110.56671      2.33847   -108.22824   -23832.037    4.3223441    4.3223441    4.3223441   -23832.037   -31892.417   -24233.036   -15370.658    912.70248     20818.92   -1030.5649    80.752876 
   39200    1448.0435   -109.53151    1.3102202   -108.22129   -22425.378    4.3119412    4.3119412    4.3119412   -22425.378   -36460.711   -2999.1373   -27816.286   -12300.063    -54186.98   -22678.838    80.171217 
   39300    1730.9831    -109.7841    1.5662299   -108.21787   -5584.9306    4.2971069    4.2971069    4.2971069   -5584.9306    7943.5112    31084.209   -55782.512    981.94065   -33522.399    988.50425    79.346625 
   39400    2149.2529   -110.15653    1.9446892   -108.21184    8883.0677     4.293111     4.293111     4.293111    8883.0677    1676.3212    51794.885   -26822.003    957.68189    34919.696    4788.2073     79.12548 
   39500    1204.8966   -109.32879    1.0902157   -108.23857   -59465.598    4.3104923    4.3104923    4.3104923   -59465.598   -67742.878   -6729.3216   -103924.59   -13590.803   -81961.041   -27801.487     80.09043 
   39600    2115.3606   -110.14165    1.9140227   -108.22762   -9747.8424    4.3100892    4.3100892    4.3100892   -9747.8424   -632.90553    7775.9179    -36386.54   -5566.6418   -15121.403    9643.2797     80.06796 
   39700    1863.0735   -109.91207    1.6857481   -108.22632    13934.153    4.2991597    4.2991597    4.2991597    13934.153   -5199.1395    51701.357   -4699.7585   -605.09209     1512.897    2891.8909    79.460398 
   39800      1004.93   -109.15874    0.9092818   -108.24946   -23670.103    4.2977533    4.2977533    4.2977533   -23670.103   -25004.593    17829.285   -63835.001   -11680.442   -82991.275   -14840.558    79.382441 
   39900    2061.4134   -110.10291    1.8652102    -108.2377    5535.4819    4.3054059    4.3054059    4.3054059    5535.4819   -1161.7815    46713.527     -28945.3   -13944.776    20054.362    6531.8156    79.807243 
   40000    1516.9087   -109.61489    1.3725309   -108.24236   -27532.222    4.3173151    4.3173151    4.3173151   -27532.222   -38824.339    27226.834    -70999.16      3823.28   -47357.153     17924.11     80.47134 
   40100    2120.4818   -110.14008    1.9186565   -108.22142   -1257.1017     4.311662     4.311662     4.311662   -1257.1017    21294.718    17829.667    -42895.69   -7576.9605   -12729.808    -4264.124    80.155647 
   40200    1643.9248   -109.70753    1.4874577   -108.22007    38641.182    4.2949575    4.2949575    4.2949575    38641.182   -6119.5392    110870.12    11172.964   -17248.609   -13307.862   -4546.8328    79.227619 
   40300     1397.047   -109.50427    1.2640775    -108.2402   -7869.6552    4.2888473    4.2888473    4.2888473   -7869.6552   -5630.8083    36635.993    -54614.15   -1110.7804   -63403.842    16397.625    78.889961 
   40400    2631.7872   -110.61504    2.3812964   -108.23375    24216.881    4.2879707    4.2879707    4.2879707    24216.881    41007.548    27172.843    4470.2519    13004.335    17525.103    6871.9455    78.841599 
   40500    1351.6878   -109.47837    1.2230356   -108.25533    33767.975    4.2993054    4.2993054    4.2993054    33767.975    -35991.85    146446.36   -9150.5829   -19512.909   -46135.969   -7981.7181    79.468477 
   40600    1463.2825   -109.56787    1.3240088   -108.24386   -909.97781    4.3190622    4.3190622    4.3190622   -909.97781   -33701.313    34643.767   -3672.3877   -12985.376   -40941.921    15202.945    80.569073 
   40700    2663.9232   -110.62288    2.4103737   -108.21251    4199.8034    4.3012586    4.3012586    4.3012586    4199.8034   -3295.0219    14550.163    1344.2687    28451.518    15904.904    7280.8902    79.576837 
   40800    796.36403   -108.95377   0.72056691    -108.2332    22050.981    4.2806682    4.2806682    4.2806682    22050.981     -24379.1    85955.226    4576.8187   -5551.5728    -71604.64   -976.73286     78.43948 
   40900    1929.0722   -109.97994    1.7454651   -108.23447    9542.3824    4.2923738    4.2923738    4.2923738    9542.3824   -6535.5998    33857.414    1305.3329   -19288.492   -12010.036    641.42746    79.084724 
   41000    1735.9378   -109.81023     1.570713   -108.23952     13373.49    4.3002982    4.3002982    4.3002982     13373.49    43107.882    37092.257   -40079.668    8167.2858    6561.5419    1512.5474     79.52354 
   41100    984.91812   -109.14551   0.89117461   -108.25434   -31099.085    4.3201969    4.3201969    4.3201969   -31099.085   -49703.891    4274.8808   -47868.245   -7266.6851   -55755.099   -599.24629    80.632591 
   41200    2550.7559   -110.50497    2.3079776   -108.19699   -29642.495    4.3169168    4.3169168    4.3169168   -29642.495    3202.0061   -45076.856   -47052.635    13424.643    14878.563    1589.2542     80.44907 
   41300    1130.0736   -109.22066    1.0225143   -108.19815    9024.6851    4.2915162    4.2915162    4.2915162    9024.6851    20379.704    37391.687   -30697.336    7737.3461   -13998.202    15762.731    79.037333 
   41400     1487.021   -109.57302    1.3454879   -108.22753   -8519.2806      4.28967      4.28967      4.28967   -8519.2806   -16624.787    26967.622   -35900.677   -18506.453    -39179.37   -12036.958     78.93537 
   41500    2264.9201   -110.27945    2.0493473    -108.2301    15195.395    4.2952613    4.2952613    4.2952613    15195.395    70124.457   -1851.3822   -22686.889    1457.8341     13721.86    10691.212    79.244434 
   41600    984.61465   -109.16233   0.89090002   -108.27143   -21782.618    4.3166946    4.3166946    4.3166946   -21782.618   -4317.1722   -11224.601    -49806.08    4858.0583   -3210.5904    15186.811    80.436648 
   41700    1831.1257    -109.8965    1.6568411   -108.23966   -28112.738    4.3206195    4.3206195    4.3206195   -28112.738   -42188.078   -12945.443   -29204.691   -12010.541   -36842.252   -10452.021    80.656256 
   41800    1862.8012   -109.90346    1.6855016   -108.21796    41831.241    4.2800482    4.2800482    4.2800482    41831.241    63961.936    16695.295    44836.492   -1807.0517    20886.138   -7572.6049    78.405401 
   41900    1355.7059   -109.47329    1.2266712   -108.24662    22239.874    4.2792903    4.2792903    4.2792903    22239.874    8259.1435    29092.545    29367.934    10507.932    8658.8437    9184.6146    78.363755 
   42000    1987.6496   -110.04483    1.7984672   -108.24636    3274.7029    4.2979004    4.2979004    4.2979004    3274.7029    16024.532   -301.88377   -5898.5396    349.94161    1381.2013     6462.518    79.390593 
   42100    1352.9581   -109.48418    1.2241849   -108.25999    30118.448    4.3079023    4.3079023    4.3079023    30118.448    57060.132   -11001.338     44296.55   -4938.7464     4135.245   -26536.703    79.946148 
   42200    1953.1661   -109.99927    1.7672657     -108.232   -2494.7609    4.3256334    4.3256334    4.3256334   -2494.7609    5583.2241    723.25029   -13790.757    8471.4087    38262.521    14716.708    80.937375 
   42300    1592.1474   -109.65927    1.4406085   -108.21866    -3991.994    4.3080497    4.3080497    4.3080497    -3991.994    42207.864   -30269.829   -23914.017    8122.0128    8105.1873   -13017.576    79.954356 
   42400    1804.9163     -109.835    1.6331262   -108.20187    42361.622    4.2839725    4.2839725    4.2839725    42361.622    81232.269    11760.029     34092.57   -7260.5128   -448.91242   -17568.958    78.621263 
   42500    1730.3803       -109.8    1.5656845   -108.23431    10433.983    4.2923231    4.2923231    4.2923231    10433.983    20577.127    30270.198   -19545.376   -7833.7838    67063.005    17971.736    79.081922 
   42600    1518.9954   -109.62267     1.374419   -108.24825   -20131.979    4.3058664    4.3058664    4.3058664   -20131.979   -5360.2087   -39628.911   -15406.817     8145.683    12245.175   -8426.7012    79.832851 
   42700     1697.829   -109.77668    1.5362313   -108.24045    28679.217    4.2881995    4.2881995    4.2881995    28679.217    19597.797   -12644.713    79084.568     12872.25    6444.7336    848.40706    78.854224 
   42800    1749.1556   -109.82728    1.5826728   -108.24461    32502.537    4.2833228    4.2833228    4.2833228    32502.537    27975.351    43132.614    26399.646   -7368.7379    64740.892    6012.1847    78.585499 
   42900    1811.3914   -109.88054     1.638985   -108.24155   -17370.961    4.3037931    4.3037931    4.3037931   -17370.961   -11676.715    -59003.76    18567.592    12551.257   -6528.9047   -17889.632    79.717591 
   43000    1339.8661    -109.4551     1.212339   -108.24277   -1556.7552    4.2958206    4.2958206    4.2958206   -1556.7552    38191.971   -42701.479   -160.75718    15002.685    4310.1132    6756.9848    79.275395 
   43100    2064.5694   -110.09862    1.8680658   -108.23055    27629.422    4.2869125    4.2869125    4.2869125    27629.422    52582.161     45688.69   -15382.585   -671.66996    33511.419    3148.5966    78.783246 
   43200    1482.1259   -109.58773    1.3410587   -108.24667   -12908.953    4.2931827    4.2931827    4.2931827   -12908.953   -2555.6483    -45540.42    9369.2104   -24054.318   -1995.8845   -15094.336    79.129445 
   43300    1583.2702   -109.68212    1.4325761   -108.24954   -8012.0722    4.2890222    4.2890222    4.2890222   -8012.0722    25813.465   -17060.598   -32789.084    6153.2003   -12201.908     5387.106    78.899613 
   43400    2176.7727   -110.20709    1.9695897    -108.2375    26357.906    4.2904705    4.2904705    4.2904705    26357.906    34170.854    22204.323     22698.54    -3966.585    17003.983    3278.2119    78.979569 
   43500    1112.0734   -109.26369    1.0062274   -108.25746    878.10708    4.2984692    4.2984692    4.2984692    878.10708    20359.595   -19345.495    1620.2208   -20867.819   -104.01467   -7702.1698    79.422114 
   43600    1578.9986   -109.66844    1.4287111   -108.23973    18407.561    4.3023464    4.3023464    4.3023464    18407.561    18897.698    10434.514    25890.471    17904.328   -16816.251    9418.0757    79.637228 
   43700    1627.0613   -109.70871    1.4721993   -108.23651    6493.7207    4.2991684    4.2991684    4.2991684    6493.7207   -3995.4553     1611.942    21864.675   -35208.154   -4300.7279   -4043.3659    79.460881 
   43800    1266.5463   -109.39105    1.1459977   -108.24505    35829.729    4.2805221    4.2805221    4.2805221    35829.729    29841.276    19911.081     57736.83   -29666.319    7553.2033   -18741.396    78.431447 
   43900    1959.1407   -110.02481    1.7726717   -108.25214    31406.636    4.2968157    4.2968157    4.2968157    31406.636    33161.793    23012.336    38045.778    31749.151   -7753.8901    5061.2379    79.330496 
   44000    1283.9212   -109.40462    1.1617189    -108.2429   -24078.429     4.323407     4.323407     4.323407   -24078.429   -56558.492    -38502.72    22825.924   -55951.206   -11932.708   -12613.914    80.812465 
   44100    1262.9227   -109.39035     1.142719   -108.24763    9913.9389    4.2920342    4.2920342    4.2920342    9913.9389   -14306.473   -9972.4455    54020.736   -20627.446     11949.66   -307.34809    79.065956 
   44200    2328.3594   -110.31929    2.1067485   -108.21254    38129.972    4.2726168    4.2726168    4.2726168    38129.972    51479.252    30543.072    32367.593    35160.846    15725.841    2612.2213    77.997708 
   44300    1130.3348   -109.28104    1.0227506   -108.25829   -11030.061    4.2939085    4.2939085    4.2939085   -11030.061    -8038.773   -55150.812    30099.402    -69772.12    557.42212   -13294.847    79.169581 
   44400    1547.5507   -109.65951    1.4002564   -108.25926     9087.146    4.3027409    4.3027409    4.3027409     9087.146    15124.034    -27496.68    39634.083   -11760.247   -6232.6662   -9354.4659    79.659132 
   44500    1991.6565    -110.0426    1.8020926   -108.24051     1189.749    4.3152031    4.3152031    4.3152031     1189.749    4686.0914   -34840.708    33723.863    6346.5924    7477.3157    1102.8887    80.353301 
   44600     1355.372   -109.47322    1.2263691   -108.24685   -21435.664    4.3057673    4.3057673    4.3057673   -21435.664   -24511.298   -64281.528    24485.835   -78069.701    9922.3589   -10886.908    79.827341 
   44700    2605.9315   -110.57415    2.3579016   -108.21625    39647.684    4.2717795    4.2717795    4.2717795    39647.684    70089.003    31213.464    17640.584    26792.729   -14512.309   -7392.1718     77.95186 
   44800    1496.8676   -109.61123    1.3543973   -108.25683    15684.763     4.280165     4.280165     4.280165    15684.763   -5275.9089   -2507.2729    54837.472   -52009.896   -6527.3399   -7951.3289     78.41182 
   44900    1387.4302    -109.5166     1.255376   -108.26122   -28330.696    4.3095419    4.3095419    4.3095419   -28330.696   -72593.249   -30550.945    18152.105   -67970.276    26968.984    10346.205    80.037466 
   45000    2586.4646   -110.56379    2.3402876    -108.2235    6583.3292    4.3093982    4.3093982    4.3093982    6583.3292    4633.3377    29000.834   -13884.184     31718.96   -8907.2906    3626.4045    80.029456 
   45100    1260.4417   -109.38519    1.1404742   -108.24471   -24416.931    4.3043187    4.3043187    4.3043187   -24416.931   -89046.539    -45858.21    61653.956   -73256.084   -11272.831   -3607.6827    79.746799 
   45200    1643.3488   -109.72656    1.4869365   -108.23962   -4634.5887     4.282933     4.282933     4.282933   -4634.5887   -30296.471   -20699.637    37092.342   -41724.277    9263.2548   -2625.3835    78.564048 
   45300    2360.6335   -110.36138    2.1359508   -108.22543    11793.758    4.2820568    4.2820568    4.2820568    11793.758    22460.594   -5382.3332    18303.015    11567.531     4056.853    4148.3371    78.515839 
   45400    666.48211   -108.85928   0.60304702   -108.25623   -38337.042     4.311597     4.311597     4.311597   -38337.042   -39022.057   -110647.12    34658.049   -92838.221   -9399.9984    1635.6976    80.152021 
   45500    2525.0872    -110.4869     2.284752   -108.20215   -34322.305    4.3167514    4.3167514    4.3167514   -34322.305   -33220.672   -27252.837   -42493.405    28828.979   -34656.776    -18242.62    80.439823 
   45600    1370.3715   -109.44287    1.2399409   -108.20293   -19262.939    4.3050913    4.3050913    4.3050913   -19262.939   -41056.346   -73917.957    57185.486   -85939.855     18412.74    5925.5464    79.789749 
   45700     1650.758   -109.69858    1.4936405   -108.20494   -14888.006    4.2885863    4.2885863    4.2885863   -14888.006   -40381.167   -2371.7963   -1911.0553   -27425.513   -28739.509    -17893.32    78.875559 
   45800    1923.1456   -109.95407    1.7401025   -108.21396    -1792.053    4.2811043    4.2811043    4.2811043    -1792.053   -41525.689    31820.178    4329.3524    14517.758   -30106.295    9041.3955    78.463453 
   45900    1232.4194   -109.37058     1.115119   -108.25546   -34989.944    4.3022019    4.3022019    4.3022019   -34989.944   -98516.511   -65659.553    59206.231   -98642.085    1282.7607   -6009.0196    79.629203 
   46000    2400.3696    -110.3841    2.1719049    -108.2122   -13523.978    4.3199392    4.3199392    4.3199392   -13523.978   -37746.809    4306.8477   -7131.9741    28316.438   -378.92838    11003.678    80.618166 
   46100     1368.481   -109.44918    1.2382304   -108.21095   -35190.542    4.3104154    4.3104154    4.3104154   -35190.542   -50499.094   -43642.528   -11430.004   -76397.053   -5051.8146    9635.3641    80.086142 
   46200    1645.7312   -109.69718    1.4890921   -108.20808    9236.7621    4.2874814    4.2874814    4.2874814    9236.7621   -18540.278    8501.8866    37748.677   -46164.445   -7413.7775   -12398.451    78.814613 
   46300    2374.0871   -110.36256    2.1481239   -108.21444    4195.8825    4.2787729    4.2787729    4.2787729    4195.8825    22284.675    6704.7437   -16401.772    14031.051    18724.205    14691.929    78.335334 
   46400    693.47187   -108.88927   0.62746792    -108.2618    207.23915    4.2910469    4.2910469    4.2910469    207.23915   -60784.765    28830.739    32575.743   -91423.548   -20196.422   -13681.637    79.011404 
   46500    2122.0556   -110.15963    1.9200805   -108.23955    17109.038    4.3078109    4.3078109    4.3078109    17109.038    35692.422   -10400.171    26034.864    17833.396   -14090.335    4390.8891    79.941056 
   46600    1629.3967   -109.71637    1.4743124   -108.24206    329.22106       4.2968       4.2968       4.2968    329.22106   -35786.893    1679.0798    35095.477   -37132.604    16733.706    6129.1324    79.329631 
   46700    1204.1961    -109.3229    1.0895819   -108.23332    29562.682    4.2846863    4.2846863    4.2846863    29562.682    21344.266    46983.475    20360.305   -72522.372   -2449.3813   -18351.431    78.660571 
   46800    2640.5299   -110.60346     2.389207   -108.21425   -13504.249    4.3007615    4.3007615    4.3007615   -13504.249   -5196.8519    5092.7745   -40408.669    30353.313   -555.83138    14998.673    79.549247 
   46900    773.16465   -108.93321   0.69957562   -108.23363    22885.852    4.3011043    4.3011043    4.3011043    22885.852   -38428.009    12590.214    94495.351   -64364.147     6735.628   -8438.8796    79.568269 
   47000    2013.8106   -110.03342    1.8221382   -108.21128    19409.507    4.3119511    4.3119511    4.3119511    19409.507    32145.109    41669.569   -15586.156     8112.948    12366.098    11379.656    80.171771 
   47100    1483.0033   -109.55591    1.3418525   -108.21406   -25858.876    4.3142271    4.3142271    4.3142271   -25858.876   -35937.905   -14451.427   -27187.297   -46993.872    17235.537    17756.086    80.298793 
   47200     1195.498   -109.29436    1.0817118   -108.21265    14112.188    4.2915425    4.2915425    4.2915425    14112.188   -8688.6542    6920.7932    44104.425   -72461.287   -7483.4475   -7846.6136    79.038787 
   47300    2506.2527   -110.46998    2.2677101   -108.20227   -11793.422    4.2967539    4.2967539    4.2967539   -11793.422    20949.474   -14924.145   -41405.595    31323.368    10753.883      23440.2    79.327075 
   47400    679.25689    -108.8532   0.61460591   -108.23859   -10593.816    4.2989771    4.2989771    4.2989771   -10593.816   -51845.512   -53417.942    73482.006   -80188.648      18137.1    16291.407    79.450274 
   47500    1836.2564   -109.89623    1.6614834   -108.23475    16441.992    4.2990717    4.2990717    4.2990717    16441.992     24642.32    -15496.47    40180.126   -7049.7327    1006.9026   -1856.4568    79.455519 
   47600    1883.6287   -109.93823    1.7043468   -108.23389    7391.2607    4.3064794    4.3064794    4.3064794    7391.2607    13402.123    3018.2138    5753.4454   -2136.2764   -21949.066   -3906.7469    79.866954 
   47700    890.71784   -109.05212   0.80594022   -108.24618    34468.383    4.2947737    4.2947737    4.2947737    34468.383    38071.204   -7370.8069    72704.751   -82751.544   -9267.1631   -1892.1782    79.217448 
   47800    2200.0473   -110.22012    1.9906491   -108.22947    31414.012    4.3054892    4.3054892    4.3054892    31414.012    40887.474    36731.896    16622.667    8503.9863   -13719.867     -102.787    79.811877 
   47900    1647.7547   -109.72698    1.4909231   -108.23605    21510.772    4.3035368    4.3035368    4.3035368    21510.772   -7023.3655    48638.671    22917.012   -26148.749   -8943.0768   -3529.0864    79.703346 
   48000    1091.5343    -109.2306   0.98764315   -108.24296    43886.309    4.2923064    4.2923064    4.2923064    43886.309    19056.244    46796.521    65806.162   -46588.829   -1595.5867    10379.014       79.081 
   48100    2188.0528   -110.20692    1.9797962   -108.22713    14614.618     4.305139     4.305139     4.305139    14614.618    3031.1737    44278.088   -3465.4084    12543.385    8989.4703    16711.806    79.792399 
   48200    1494.7908   -109.57859    1.3525181   -108.22607    -4494.994     4.299803     4.299803     4.299803    -4494.994    -46906.05     10830.17    22590.898   -63411.637    2212.9476   -34758.229     79.49607 
   48300    1539.7089   -109.62118     1.393161   -108.22802    11875.845     4.289186     4.289186     4.289186    11875.845   -15890.787     2274.382     49243.94     11548.04    7334.1001    14010.738    78.908654 
   48400    2249.2689   -110.26062    2.0351858   -108.22544   -15696.553    4.2955955    4.2955955    4.2955955   -15696.553   -37014.154   -14831.552    4756.0469   -1675.7052    14649.252    6237.9216    79.262934 
   48500    1082.4761     -109.231   0.97944709   -108.25155   -9629.8948    4.2941855    4.2941855    4.2941855   -9629.8948   -9565.9746   -52406.636    33082.927   -69513.071    6613.2237   -31609.939    79.184905 
   48600    1514.6392    -109.6251    1.3704774   -108.25462    17924.297    4.2976108    4.2976108    4.2976108    17924.297    7752.2674    8751.1132    37269.511     45426.22    1888.7294    1211.0658    79.374544 
   48700    2126.3748   -110.15478    1.9239886   -108.23079    -28537.44    4.3099554    4.3099554    4.3099554    -28537.44   -39514.966   -50938.387    4841.0333   -13404.819   -779.53621    4412.4388    80.060503 
   48800    1450.0235   -109.54601    1.3120117   -108.23399   -9248.4107    4.2962918    4.2962918    4.2962918   -9248.4107    4282.7531   -41301.698    9273.7132   -78244.727    5508.9615    -16435.14    79.301485 
   48900    1825.2729   -109.88983    1.6515453   -108.23828    37475.375     4.283777     4.283777     4.283777    37475.375     59100.96    40085.498    13239.669    40750.822   -10519.776   -10312.044    78.610503 
   49000    1800.7886   -109.88861    1.6293913   -108.25922   -903.85776    4.2943021    4.2943021    4.2943021   -903.85776   -10232.886   -24014.191    31535.503   -19649.072   -21395.363    12164.902    79.191355 
   49100    1265.3975   -109.41177    1.1449582   -108.26681   -19634.161    4.3040432    4.3040432    4.3040432   -19634.161   -36142.167   -55593.871    32833.555   -70107.229   -6168.2968   -3377.8488    79.731488 
   49200    2673.5167   -110.65859    2.4190541   -108.23953   -14383.428     4.309034     4.309034     4.309034   -14383.428   -1004.5955   -9469.1231   -32676.566    19841.561   -9562.0102   -8389.9696    80.009169 
   49300    1303.4115   -109.42584    1.1793541   -108.24649    22937.945    4.3041014    4.3041014    4.3041014    22937.945   -41206.933    54258.337    55762.431   -57082.135   -14017.328   -8646.5358    79.734722 
   49400    1658.9662   -109.72859    1.5010675   -108.22753    6945.0247     4.302025     4.302025     4.302025    6945.0247   -37296.427    13140.162    44991.339   -47079.382   -3985.6601   -18948.891    79.619378 
   49500    2439.2438   -110.41485    2.2070791   -108.20777    911.40059    4.3080646    4.3080646    4.3080646    911.40059   -33440.106    53866.111   -17691.803    14769.431   -8308.9597    17674.351     79.95518 
   49600     1201.378   -109.32766     1.087032   -108.24063   -37766.925    4.3025119    4.3025119    4.3025119   -37766.925   -86901.136   -35151.865    8752.2272   -71608.191   -31746.089   -6129.8086    79.646419 
   49700    1788.0138   -109.86355    1.6178325   -108.24572     6558.952    4.2726476    4.2726476    4.2726476     6558.952   -12047.727   -14197.053    45921.636   -6522.7903   -1572.2845   -18666.614    77.999391 
   49800    2391.8339   -110.41547    2.1641816   -108.25129    5330.5141    4.2760477    4.2760477    4.2760477    5330.5141   -253.44249    17273.697   -1028.7118    7229.3004    26166.518    17555.719    78.185754 
   49900    875.02258   -109.06216   0.79173882   -108.27042   -46954.907    4.3095975    4.3095975    4.3095975   -46954.907   -76318.667   -61897.216   -2648.8377   -77862.596   -16565.466   -8877.9234    80.040564 
   50000    2289.4672   -110.29459     2.071558   -108.22303   -4547.0357    4.3140063    4.3140063    4.3140063   -4547.0357    30911.142   -21795.248   -22757.001    26604.659   -18691.842   -12348.024    80.286464 
   50100    1857.3358   -109.90373    1.6805565   -108.22318    -34719.81    4.3066692    4.3066692    4.3066692    -34719.81   -50669.212   -56537.097    3046.8777   -53350.623    10795.249    8187.2098    79.877514 
   50200    1122.2654   -109.25656    1.0154493   -108.24111    7362.8168    4.2715505    4.2715505    4.2715505    7362.8168   -12293.397    11782.428    22599.419   -55894.882   -32126.037   -6696.4526    77.939326 
   50300    2114.0491   -110.16239     1.912836   -108.24955    35673.896    4.2675275    4.2675275    4.2675275    35673.896    27801.613    84346.788   -5126.7118     28476.84   -30938.425   -3645.1553     77.71932 
   50400    1826.7866   -109.91874    1.6529149   -108.26583   -18503.864     4.308577     4.308577     4.308577   -18503.864   -50581.162    -30755.98    25825.549   -38270.636     15706.21    6175.7921    79.983713 
   50500    1921.7794   -109.96721    1.7388664   -108.22834     -33701.4    4.3198503    4.3198503    4.3198503     -33701.4   -38027.647    -27975.35   -35101.203   -23295.821   -34567.592    -6770.752    80.613187 
   50600    2187.1611   -110.17767    1.9789893   -108.19868   -31192.519    4.3063241    4.3063241    4.3063241   -31192.519   -55076.205    2670.9319   -41172.285    3676.3623    -42090.67   -7919.5669    79.858314 
   50700    1532.8787   -109.59502    1.3869809   -108.20804   -6532.6486    4.2959595    4.2959595    4.2959595   -6532.6486   -31949.216   -52464.632    64815.902   -51688.533     11266.76   -9033.2078    79.283085 
   50800    2208.0482   -110.20856    1.9978884   -108.21067   -4862.3144    4.2912231    4.2912231    4.2912231   -4862.3144   -5734.8439    10821.891    -19673.99    24360.889   -25298.555    23763.699    79.021139 
   50900    1712.1376   -109.78253    1.5491781   -108.23335    3971.8491    4.2900245    4.2900245    4.2900245    3971.8491    10265.316    16364.914   -14714.683   -15626.001   -49560.941     3722.774    78.954943 
   51000    1489.0831   -109.60349    1.3473537   -108.25614    3266.0047    4.2944252    4.2944252    4.2944252    3266.0047    17031.465   -58224.834    50991.384   -69214.588    14492.181   -6271.1519    79.198167 
   51100    2204.3648   -110.23646    1.9945556    -108.2419    26480.187    4.2877098    4.2877098    4.2877098    26480.187    61718.823    34062.027   -16340.288    23713.983     -4863.08    11398.121    78.827211 
   51200    1415.8351   -109.53999    1.2810773   -108.25892   -13770.267    4.2844432    4.2844432    4.2844432   -13770.267   -43888.374    9212.9721   -6635.3989   -39308.551   -53513.304   -3059.2868    78.647185 
   51300    1225.8842   -109.37882    1.1092058   -108.26961   -13366.413    4.2867024    4.2867024    4.2867024   -13366.413   -43499.485   -11523.977    14924.222    -73149.27    3888.5003    5127.5646    78.771658 
   51400    2811.8076   -110.77991    2.5441826   -108.23573    -6054.363    4.2959701    4.2959701    4.2959701    -6054.363    22876.893   -4887.7774   -36152.204    31547.377    6002.1515     5023.018    79.283671 
   51500    759.60333   -108.94543   0.68730505   -108.25813    -40816.02     4.309456     4.309456     4.309456    -40816.02   -112214.03   -26054.058    15820.031   -86458.939   -47903.614    2084.3066     80.03268 
   51600    1842.4877   -109.89929    1.6671216   -108.23217    13638.651    4.2917461    4.2917461    4.2917461    13638.651    36115.398    8191.6615   -3391.1067   -14623.531   -15277.356   -2730.1749    79.050035 
   51700    2436.6792   -110.42745    2.2047585   -108.22269   -15593.162    4.2880937    4.2880937    4.2880937   -15593.162   -18527.679   -18389.694   -9862.1129   -9172.8973    16984.821   -9855.3955    78.848383 
   51800    816.59664   -109.00391    0.7388738   -108.26504   -11282.964    4.2772329    4.2772329    4.2772329   -11282.964   -49484.591   -39847.226    55482.926   -97935.999   -20466.143    1474.0835    78.250785 
   51900    1921.7803   -110.01139    1.7388672   -108.27253    23658.812    4.2837389    4.2837389    4.2837389    23658.812   -9512.4877    103752.18   -23263.255     2629.872   -15408.709    1618.5019    78.608402 
   52000    1872.1257   -109.95759    1.6939386   -108.26365   -1587.1089    4.3087715    4.3087715    4.3087715   -1587.1089    -15415.29    33951.698   -23297.735   -31213.249    12015.995    -16915.21     79.99455 
   52100     1330.125   -109.44805    1.2035251   -108.24453    13385.989    4.3083666    4.3083666    4.3083666    13385.989    6356.6869    2632.3978    31168.883   -72923.492   -16855.319   -3762.1885       79.972 
   52200    2483.7589   -110.44632    2.2473572   -108.19896   -13634.124    4.3179152    4.3179152    4.3179152   -13634.124   -14159.335    -8730.564   -18012.473    26407.131    1208.7645   -3307.5537    80.504902 
   52300    1225.6762   -109.31216    1.1090176   -108.20315   -27787.168    4.3071971    4.3071971    4.3071971   -27787.168    9498.8553   -98838.244    5977.8834   -53711.906    10542.353   -33609.993    79.906892 
   52400    1960.6275   -109.95899    1.7740169   -108.18497    24204.626    4.2784207    4.2784207    4.2784207    24204.626   -9166.3695    16584.782    65195.466   -11832.184   -19661.586   -814.40695    78.315993 
   52500    2129.8246   -110.15365    1.9271101   -108.22654   -697.41304    4.3010749    4.3010749    4.3010749   -697.41304    27421.274    -23501.11   -6012.4029    814.29426   -10574.172   -10154.328    79.566637 
   52600    1261.6821   -109.37538    1.1415965   -108.23378   -38173.376    4.3156965    4.3156965    4.3156965   -38173.376   -29469.326   -73982.875   -11067.929   -79206.785    9000.9099   -25846.111    80.380868 
   52700     1917.141   -109.95328    1.7346695   -108.21861    23102.718    4.2859972    4.2859972    4.2859972    23102.718    34072.525    26972.466    8263.1614    7668.4324   -32036.145   -1837.0779    78.732791 
   52800    1639.1824   -109.72587    1.4831666   -108.24271    -2334.259    4.2868337    4.2868337    4.2868337    -2334.259    6689.9035   -15834.138    2141.4575   -17976.361   -23403.701     7333.413    78.778901 
   52900     1803.828   -109.88613    1.6321414   -108.25399    22566.812    4.2833755    4.2833755    4.2833755    22566.812     80938.91   -27192.578    13954.103   -48344.942    37008.365   -8096.7142    78.588401 
   53000    1855.2456   -109.94091    1.6786652   -108.26224    25080.639    4.2867593    4.2867593    4.2867593    25080.639    18632.104    21784.848    34824.966    11385.535   -47976.538   -9439.0505    78.774799 
   53100    1519.8086   -109.63715    1.3751547     -108.262   -22928.681    4.3085191    4.3085191    4.3085191   -22928.681   -53164.659   -10830.484   -4790.9018   -2776.5375   -21189.007    4995.0549     79.98049 
   53200    1975.4473   -110.02972    1.7874262   -108.24229    7675.2733     4.296905     4.296905     4.296905    7675.2733    60288.231   -22832.018   -14430.393   -32458.917    37770.809    -12495.25    79.335441 
   53300    1352.7083   -109.47148    1.2239589   -108.24752    11332.747    4.2828065    4.2828065    4.2828065    11332.747    16626.486    29830.982   -12459.227    25395.272   -51238.346   -12629.845    78.557086 
   53400    1334.0107   -109.46696    1.2070409   -108.25992    6869.9256    4.2791384    4.2791384    4.2791384    6869.9256    28247.567    2158.2428   -9796.0336    17540.113   -30243.735    17297.226    78.355413 
   53500    2333.8367   -110.36738    2.1117044   -108.25567   -11204.286    4.2954666    4.2954666    4.2954666   -11204.286    3876.9128   -34529.162   -2960.6076   -30384.348     22626.91    -4930.225    79.255799 
   53600    841.21998   -109.02314   0.76115352   -108.26199    -4594.719    4.3087268    4.3087268    4.3087268    -4594.719   -9714.2289    -23423.02    19353.092    42430.255   -39829.739   -12864.845    79.992058 
   53700    1620.3758   -109.70032    1.4661501   -108.23417    7360.8161    4.3096217    4.3096217    4.3096217    7360.8161    11032.925   -6394.9366     17444.46    13493.161   -22550.153   -13337.987    80.041908 
   53800    2827.5426    -110.7661    2.5584199   -108.20768   -19657.141    4.3015886    4.3015886    4.3015886   -19657.141    -19572.14   -29830.979   -9568.3029   -13879.573    10547.265    4712.7154    79.595151 
   53900    955.52657   -109.10978   0.86458052    -108.2452     5199.731    4.2788199    4.2788199    4.2788199     5199.731   -31814.991    28556.397    18857.787    47520.737   -41443.147    13013.689    78.337919 
   54000    1470.7396   -109.59796    1.3307561    -108.2672    24642.899    4.2798807    4.2798807    4.2798807    24642.899     23815.32    30400.156     19713.22    8493.0372   -20464.823   -50057.838    78.396198 
   54100    2563.9162    -110.5728    2.3198853   -108.25292   -19215.499    4.3056978    4.3056978    4.3056978   -19215.499   -18550.974   -12198.064    -26897.46   -1697.7589    25361.218    6055.6408    79.823476 
   54200    1530.5076   -109.64449    1.3848354   -108.25965   -28595.204    4.3044314    4.3044314    4.3044314   -28595.204   -51150.833   -29087.251   -5547.5296    34332.374   -36765.978     28834.03    79.753065 
   54300    1460.6288   -109.57392    1.3216076   -108.25231   -8672.7824    4.2899908    4.2899908    4.2899908   -8672.7824   -9407.9123    25338.283   -41948.718    5735.4888   -22769.352   -39368.246    78.953082 
   54400    2059.8786   -110.10957    1.8638214   -108.24575   -12069.009    4.2882581    4.2882581    4.2882581   -12069.009   -44812.794    10981.751   -2375.9859    -3126.172    44213.122   -9843.6601    78.857453 
   54500    1989.5577   -110.05941    1.8001936   -108.25922   -4038.9381    4.2859375    4.2859375    4.2859375   -4038.9381   -43847.907    14528.888    17202.204    31690.452    4155.0191    14929.305    78.729504 
   54600    2042.9902   -110.11218    1.8485404   -108.26364    14206.779    4.2917972    4.2917972    4.2917972    14206.779     3755.785    1411.7116    37452.839    8550.3939   -29626.156   -25011.967     79.05286 
   54700    1226.9954   -109.38709    1.1102112   -108.27688   -12046.266    4.3027092    4.3027092    4.3027092   -12046.266   -5292.7708   -21365.699   -9480.3295   -2640.0017    20609.456   -14317.253    79.657372 
   54800    1441.4989   -109.57787    1.3042985   -108.27357    15734.096    4.2907011    4.2907011    4.2907011    15734.096   -50233.719    39824.132    57611.874    30097.981    20681.261     13285.79    78.992303 
   54900    2193.7521   -110.24558     1.984953   -108.26063    25482.581    4.2784144    4.2784144    4.2784144    25482.581   -7168.8681    29970.429    53646.182    12108.741   -25783.695   -24861.419    78.315648 
   55000    1741.3147   -109.85698    1.5755782   -108.28141   -15169.621    4.2919124    4.2919124    4.2919124   -15169.621     5060.956   -23649.033   -26920.786   -4198.8648    13252.468    -20195.98    79.059223 
   55100    1663.4609   -109.78021    1.5051344   -108.27508   -26525.857    4.2953427    4.2953427    4.2953427   -26525.857   -66980.962   -9099.8701   -3496.7389    19791.778    18261.461    9147.5069    79.248941 
   55200    1156.7255    -109.3342    1.0466296   -108.28757   -8406.7879    4.2776197    4.2776197    4.2776197   -8406.7879   -69387.114    29827.595    14339.155    5528.5122   -55157.593    4631.7668    78.272013 
   55300    1490.2934   -109.65165    1.3484488    -108.3032   -10195.019    4.2751211    4.2751211    4.2751211   -10195.019   -29162.942    -10793.22    9371.1042   -18356.444    -14505.44   -33526.675    78.134939 
   55400    2459.9129   -110.52328    2.2257809    -108.2975     13049.43    4.2802722    4.2802722    4.2802722     13049.43    6673.7647    20722.678    11751.847   -11329.789    10061.341   -9154.7396    78.417712 
   55500    2033.0217   -110.14104    1.8395208   -108.30152   -15417.964    4.2983579    4.2983579    4.2983579   -15417.964   -51819.238    22173.827   -16608.482    16015.052   -53099.085     15159.91    79.415946 
   55600    1066.8883   -109.25542     0.965343   -108.29008    -18658.62     4.302216     4.302216     4.302216    -18658.62   -64434.963   -28147.406     36606.51    677.55496    -13849.75   -26783.485    79.629983 
   55700    1669.8736   -109.78459    1.5109367   -108.27365    10553.431    4.2849165    4.2849165    4.2849165    10553.431   -8774.6154    5199.8951    35235.013   -31005.749    23247.709   -6031.7028    78.673247 
   55800    2479.4797   -110.50342    2.2434853   -108.25993    15680.755    4.2790811    4.2790811    4.2790811    15680.755    2615.8435    15372.317    29054.106    1097.9985    5315.2804    15810.164    78.352262 
   55900    1887.7601   -109.98708     1.708085     -108.279    1541.8902    4.2879982    4.2879982    4.2879982    1541.8902   -26424.636   -8847.1907    39897.497    36569.903   -13244.647    -20933.77    78.843118 
   56000    938.82755   -109.14659    0.8494709   -108.29712   -24707.146    4.2950595    4.2950595    4.2950595   -24707.146   -59749.651   -28375.495    14003.707   -23613.734    29413.787   -30112.388    79.233268 
   56100    1478.4194   -109.63506     1.337705   -108.29735   -18046.817    4.2908817    4.2908817    4.2908817   -18046.817   -27891.493   -15028.521   -11220.436   -31783.209    21187.116    13290.156     79.00228 
   56200      2393.08   -110.43426    2.1653091   -108.26895   -5918.2228    4.2888829    4.2888829    4.2888829   -5918.2228   -2714.1296    3012.7654   -18053.304    19656.931   -19613.864     6320.384    78.891929 
   56300    1277.2025   -109.43909    1.1556396   -108.28345   -21026.981    4.2870869    4.2870869    4.2870869   -21026.981   -25980.155     -31734.2   -5366.5871   -11825.238    28918.014   -42469.849    78.792862 
   56400    1351.7234   -109.50205    1.2230677   -108.27898   -6105.4173    4.2828572    4.2828572    4.2828572   -6105.4173   -55788.639    3325.7039    34146.683    -42230.87    26267.551    9800.4009    78.559877 
   56500     1699.846    -109.8193    1.5380564   -108.28125   -8237.8214    4.2998286    4.2998286    4.2998286   -8237.8214   -47013.123    49448.671   -27149.012     8973.266    -36719.72   -664.34168    79.497491 
   56600    1648.5604   -109.77288    1.4916521   -108.28123     3496.365    4.2913232    4.2913232    4.2913232     3496.365    4457.9974    12872.063   -6840.9657    13416.283    -13622.62   -39363.162    79.026666 
   56700    2227.0618   -110.28486    2.0150923   -108.26977    19839.374    4.2707608    4.2707608    4.2707608    19839.374    3892.7581    6020.1445     49605.22   -34245.903    18352.459    572.63597    77.896106 
   56800     1711.747   -109.84152    1.5488246    -108.2927   -23642.221    4.2826938    4.2826938    4.2826938   -23642.221   -67991.215   -9939.7754    7004.3285   -10846.467   -3377.8599     11440.21    78.550881 
   56900    869.76931   -109.09487   0.78698555   -108.30789    11581.726    4.2850618    4.2850618    4.2850618    11581.726    16728.231   -1039.3299    19056.276    37120.214   -26561.188   -23137.797    78.681251 
   57000    1988.1989   -110.10031    1.7989641   -108.30135    1314.2263    4.2917075    4.2917075    4.2917075    1314.2263    -10145.56    2567.7601    11520.479   -2480.0447    7416.9984   -32627.184    79.047901 
   57100    2442.0552   -110.49632    2.2096228    -108.2867   -9895.9189    4.2926558    4.2926558    4.2926558   -9895.9189   -36674.836     7094.089   -107.00956   -21935.338    13240.474    13803.623    79.100315 
   57200    1028.9049   -109.22556   0.93097475   -108.29458    25551.971    4.2741665    4.2741665    4.2741665    25551.971    15165.889     47272.74    14217.284    19913.723   -38184.442   -21026.705    78.082607 
   57300    895.67507   -109.11394   0.81042562   -108.30352    1676.9272    4.2909936    4.2909936    4.2909936    1676.9272   -16900.064    46674.687   -24743.841    12318.562   -16232.014   -52728.461    79.008459 
   57400    2672.7172   -110.66542    2.4183307   -108.24709   -26974.216    4.3135554    4.3135554    4.3135554   -26974.216   -41521.123    3364.3786   -42765.903    -17610.17   -1808.6479    28264.284    80.261289 
   57500     1151.673   -109.28096    1.0420579    -108.2389    14917.171    4.3121388    4.3121388    4.3121388    14917.171     53512.03   -3117.3829   -5643.1331    22717.432    6656.1356   -20947.367    80.182243 
   57600    1407.6657   -109.48627    1.2736855   -108.21258    3612.2518    4.3020049    4.3020049    4.3020049    3612.2518   -27376.445     -1427.99     39641.19   -20003.501   -13137.564   -25161.797    79.618263 
   57700    1905.8558   -109.93907    1.7244584   -108.21462    9875.1398    4.2802361    4.2802361    4.2802361    9875.1398   -22227.916   -1467.9735    53321.309   -55884.912   -5355.0409    17386.425     78.41573 
   57800    2087.7644   -110.12084    1.8890531   -108.23179    24669.279    4.2675154    4.2675154    4.2675154    24669.279      50410.7    11924.261    11672.876    23447.382    4841.1114    -42394.22    77.718659 
   57900    1291.7771   -109.44742    1.1688271   -108.27859    3917.4677    4.2862125    4.2862125    4.2862125    3917.4677   -3144.5585   -25048.332    39945.294   -33592.828   -1178.8534   -19142.346    78.744656 
   58000    1311.7877   -109.47376    1.1869331   -108.28683   -31111.773    4.3005084    4.3005084    4.3005084   -31111.773   -79540.027   -33792.475    19997.183   -67215.787    5763.6196    9131.2256    79.535207 
   58100    2033.5655   -110.09506    1.8400128   -108.25505   -18924.412    4.3032889    4.3032889    4.3032889   -18924.412   -11259.572    1824.1211   -47337.784    27763.196      10655.2   -26974.394    79.689575 
   58200    1207.7923   -109.34837    1.0928358   -108.25553   -41431.898    4.2968106    4.2968106    4.2968106   -41431.898   -30026.863   -83451.967   -10816.865   -66295.981   -2872.0986    -30093.31    79.330212 
   58300    1943.0155   -110.00612    1.7580813   -108.24804   -1721.3907    4.2667533    4.2667533    4.2667533   -1721.3907   -28748.921    -16106.85    39691.599   -51519.046    5277.0426    13731.306    77.677026 
   58400    1875.3475   -109.96086    1.6968538   -108.26401    11363.711    4.2721501    4.2721501    4.2721501    11363.711    32616.218    34316.679   -32841.763    14657.356   -6816.0849   -16631.954    77.972152 
   58500    1306.1032   -109.46094    1.1817897   -108.27916   -36739.594    4.2957651    4.2957651    4.2957651   -36739.594   -19040.561   -79617.927   -11560.294   -39191.112   -5041.4028   -45410.296     79.27232 
   58600    1479.2505   -109.60522    1.3384569   -108.26676   -13442.043    4.2966974    4.2966974    4.2966974   -13442.043    -8432.985   -59380.897    27487.754   -36393.998    7607.4588    26555.802    79.323948 
   58700    1818.5008   -109.90124    1.6454178   -108.25582   -15570.581    4.2970628    4.2970628    4.2970628   -15570.581    -6584.899   -8174.1762   -31952.669    14629.762   -25549.258    30006.252    79.344184 
   58800     1614.708   -109.72631    1.4610217   -108.26528   -11686.685    4.2760594    4.2760594    4.2760594   -11686.685   -30654.915    -37833.27    33428.131   -38385.453   -8965.1219   -25028.871    78.186395 
   58900    1228.5988   -109.38652     1.111662   -108.27486    32477.866      4.26987      4.26987      4.26987    32477.866    4421.0285    47165.162    45847.408   -55005.724    14029.434   -1670.3979     77.84737 
   59000     2648.269   -110.65497    2.3962095   -108.25876   -5621.0435    4.2918807    4.2918807    4.2918807   -5621.0435   -14427.536    23590.833   -26026.427    16278.564   -15745.416    28405.131    79.057471 
   59100    1184.4822   -109.33761    1.0717444   -108.26586    23805.809    4.3040387    4.3040387    4.3040387    23805.809   -42164.458    55282.263    58299.623   -49492.802   -13366.149    -28340.08    79.731234 
   59200    1544.2161   -109.62855    1.3972391   -108.23131   -12318.024    4.3155318    4.3155318    4.3155318   -12318.024   -34501.853   -40790.585    38338.365    11049.602    12151.848   -10835.051    80.371666 
   59300    2286.4662   -110.26649    2.0688427   -108.19765    710.48651    4.2915434    4.2915434    4.2915434    710.48651   -9132.4299    21814.834   -10550.944    351.87339   -11091.282    20680.893    79.038833 
   59400    1238.6984   -109.33599    1.1208003   -108.21519    8829.0258    4.2711475    4.2711475    4.2711475    8829.0258   -3770.1391   -30739.414    60996.631    -92170.09   -17450.602   -5874.5334    77.917267 
   59500    2431.1587   -110.43601    2.1997635   -108.23624     13797.32     4.279649     4.279649     4.279649     13797.32    27563.951    8854.2092    4973.7994     18545.72    3352.7546    -16337.94    78.383466 
   59600    2024.5884   -110.09319    1.8318901    -108.2613    2350.3109    4.2929291    4.2929291    4.2929291    2350.3109    2361.4548    4160.2253    529.25264    -31588.23    2542.5489    8330.0846     79.11542 
   59700    900.37946   -109.09555   0.81468226   -108.28087   -32053.273    4.3016962    4.3016962    4.3016962   -32053.273   -73729.874   -41183.824    18753.878   -72635.315   -15840.691   -13529.436    79.601125 
   59800    2083.4599   -110.13159    1.8851583   -108.24643    20138.963    4.2800171    4.2800171    4.2800171    20138.963    8884.9983    7300.3848    44231.506     33919.05   -3063.6196    -18685.35    78.403694 
   59900    1647.9682   -109.74285    1.4911163   -108.25173    22767.791    4.2745262    4.2745262    4.2745262    22767.791   -38950.852    26885.826    80368.398   -43538.081    11700.923   -376.61972    78.102325 
   60000    1543.1378   -109.64783    1.3962635   -108.25157    -2453.371    4.2983197    4.2983197    4.2983197    -2453.371   -58263.407    13287.359    37615.935   -41035.214   -9069.4009    2595.7567    79.413828 
   60100    2019.3464   -110.05027    1.8271471   -108.22312    18914.916    4.2977498    4.2977498    4.2977498    18914.916    -29511.05     17957.72    68298.078    18543.358   -4285.4368   -3455.0634    79.382248 
   60200    860.97732   -109.02341   0.77903037   -108.24438     -3428.03    4.3014288    4.3014288    4.3014288     -3428.03   -102227.12   -22464.869     114407.9   -42127.393   -7134.3585   -10719.437    79.586279 
   60300      2249.89   -110.24451    2.0357477   -108.20876    -2165.483    4.2994143    4.2994143    4.2994143    -2165.483   -44230.267   -765.15521    38498.974    864.64219    4438.9989    6632.2245    79.474515 
   60400    1633.5903   -109.70235    1.4781069   -108.22424     7829.111    4.2839356    4.2839356    4.2839356     7829.111   -22559.858    6598.8759    39448.315    -16216.64   -4477.8802   -8905.9285     78.61923 
   60500     1124.179   -109.27113    1.0171808   -108.25395   -18684.369    4.2811832    4.2811832    4.2811832   -18684.369   -91497.098   -55496.924    90940.914   -36764.935    3983.9691    2975.2766    78.467791 
   60600    2766.1125   -110.73753    2.5028367   -108.23469    14381.666    4.2748692    4.2748692    4.2748692    14381.666    -8091.389    7569.9086    43666.477    12803.554    6769.6814   -16175.149    78.121123 
   60700     834.7666   -109.02978   0.75531436   -108.27446   -45179.053    4.3003117    4.3003117    4.3003117   -45179.053    -23792.84   -95602.729   -16141.592    -43522.55   -206.79399   -4749.3719    79.524292 
   60800    2132.5623   -110.15978    1.9295871   -108.23019   -32804.234    4.3023343    4.3023343    4.3023343   -32804.234   -58843.717   -56623.172    17054.186   -29946.004   -5494.5108    -1015.633    79.636556 
   60900    2338.5157   -110.33108    2.1159381   -108.21514    7840.6479    4.2832254    4.2832254    4.2832254    7840.6479    1716.9431    8131.0138    13673.987    9694.6331    18067.814   -805.58921    78.580138 
   61000     770.5617   -108.94652   0.69722042    -108.2493   -28914.891    4.2900663    4.2900663    4.2900663   -28914.891   -657.36336   -91470.545    5383.2371   -54213.401    -3860.441   -7289.6116    78.957251 
   61100     2598.437   -110.56878    2.3511204   -108.21766    2646.7219    4.2891252    4.2891252    4.2891252    2646.7219   -17321.531    5498.8083    19762.888    3467.4624    1787.5424   -5602.1349      78.9053 
   61200    1362.0433   -109.47392    1.2324054   -108.24152   -10888.862    4.2988327    4.2988327    4.2988327   -10888.862   -49190.806    -15162.09    31686.312    33230.502    11656.491    377.17616    79.442266 
   61300    1980.7791   -110.01448    1.7922506   -108.22223   -24298.225    4.3090799    4.3090799    4.3090799   -24298.225   -7225.7337   -66815.243    1146.3033   -18913.251   -5454.4523   -213.34629    80.011725 
   61400     1745.033   -109.79012    1.5789425   -108.21117   -18996.797     4.305758     4.305758     4.305758   -18996.797   -50410.698    26582.543   -33162.235    30781.911   -23100.117   -11820.788    79.826826 
   61500    1350.3048   -109.43947    1.2217842   -108.21769   -12669.893    4.2939354    4.2939354    4.2939354   -12669.893   -38500.592    10188.226   -9697.3121    33662.793     4965.702   -1500.1281    79.171072 
   61600    2476.2053   -110.45253    2.2405226     -108.212    6276.3742    4.2833695    4.2833695    4.2833695    6276.3742    21549.501   -11310.234    8589.8561   -12369.014    11138.403    7474.8527    78.588068 
   61700    1219.9914    -109.3582    1.1038739   -108.25433   -1601.2028    4.2839784    4.2839784    4.2839784   -1601.2028   -35407.567    14115.797    16488.162    22982.831   -45194.455   -694.60962    78.621591 
   61800    1811.6736   -109.88545    1.6392404   -108.24621    3154.3056    4.2947948    4.2947948    4.2947948    3154.3056   -13859.411   -2622.5111    25944.839    38769.561   -17226.244    11173.626    79.218615 
   61900    1697.6556   -109.77468    1.5360745   -108.23861   -10944.742     4.311113     4.311113     4.311113   -10944.742    18965.714   -56817.711    5017.7703   -17865.061    19737.542    24838.246    80.125034 
   62000    1136.4559   -109.26061    1.0282892   -108.23233   -8.8546982     4.298929     4.298929     4.298929   -8.8546982   -35025.537   -21426.602    56425.574    7576.1095   -28194.739   -9215.3404    79.447606 
   62100    1436.9778    -109.5252    1.3002078     -108.225    19849.679    4.2818987    4.2818987    4.2818987    19849.679   -19990.448    18666.345     60873.14    18918.851   -6077.0742    11779.047    78.507142 
   62200    1466.1536   -109.56764    1.3266065   -108.24103    21964.967    4.2856591    4.2856591    4.2856591    21964.967    17941.042    23758.772    24195.088   -8454.4493    47323.614    43448.135    78.714162 
   62300    2120.6249    -110.1604     1.918786   -108.24162   -5861.1179    4.2984929    4.2984929    4.2984929   -5861.1179   -13036.222   -32585.456    28038.324    6509.6916   -17435.985   -26514.247    79.423428 
   62400    1585.2228   -109.68085    1.4343429   -108.24651   -51501.819    4.3119946    4.3119946    4.3119946   -51501.819   -67405.421   -38881.393   -48218.643    16878.989    4108.5382    8736.5986    80.174196 
   62500    1020.9671   -109.18264   0.92379244   -108.25884   -13488.911    4.2941995    4.2941995    4.2941995   -13488.911   -32693.241    24051.435   -31824.929    16904.025    39040.231    52358.569    79.185681 
   62600    2553.9918   -110.55262    2.3109055   -108.24172    18037.812    4.2710001    4.2710001    4.2710001    18037.812    8015.9181    14568.771    31528.746    13385.399   -7712.4245   -23754.046    77.909198 
   62700    2238.6772   -110.29746    2.0256022   -108.27186    19133.177    4.2749714    4.2749714    4.2749714    19133.177    8645.1074     45063.78     3690.645   -10896.104    176.82161    2236.0231     78.12673 
   62800    522.18985    -108.7893   0.47248835   -108.31682   -30883.866    4.2920808    4.2920808    4.2920808   -30883.866   -51362.907   -9183.5685   -32105.123    18095.901    38359.133    50779.593    79.068529 
   62900    1377.0721   -109.55486    1.2460037   -108.30886   -12211.121    4.2918242    4.2918242    4.2918242   -12211.121   -45285.603   -9525.1694     18177.41    24942.541    9894.4315    3772.5361    79.054348 
   63000    2517.8579    -110.5485    2.2782107   -108.27029   -13163.646    4.2945975    4.2945975    4.2945975   -13163.646   -799.03594    3938.6827   -42630.586   -8220.6493   -10884.167   -26045.056    79.207699 
   63100    1635.1236   -109.75134    1.4794942   -108.27185   -27926.894    4.2933001    4.2933001    4.2933001   -27926.894   -15970.646    -2700.662   -65109.375    9595.1264    27612.853      33503.1    79.135936 
   63200    1405.0258   -109.54155    1.2712969   -108.27026    16089.021    4.2761764    4.2761764    4.2761764    16089.021    -23309.73    47007.928    24568.866    31936.933    14998.165    19198.817    78.192815 
   63300     1304.768   -109.46973    1.1805815   -108.28915    6049.3233    4.2797053    4.2797053    4.2797053    6049.3233   -12539.435    33189.975   -2502.5702   -9227.5447   -23898.073   -40123.955    78.386559 
   63400    2118.0707   -110.19983    1.9164749   -108.28336   -8750.7211    4.2878677    4.2878677    4.2878677   -8750.7211   -9643.8507     9007.688       -25616   -37975.656   -112.37747   -10527.483    78.835917 
   63500    2014.5606   -110.10233    1.8228168   -108.27952   -7231.6939    4.2962259    4.2962259    4.2962259   -7231.6939   -22061.438    5154.9815   -4788.6247    49504.887     19651.61    12591.525    79.297836 
   63600    1324.0683   -109.47561    1.1980448   -108.27756   -33562.691    4.2987294    4.2987294    4.2987294   -33562.691   -46958.996   -53323.086   -405.98984    19675.457   -530.69794    -21388.17    79.436542 
   63700    1543.1166   -109.66623    1.3962443   -108.26998   -974.69276    4.2732857    4.2732857    4.2732857   -974.69276    4364.3198   -30096.598    22808.199   -63345.547   -9247.6187   -26899.343    78.034347 
   63800    1945.9451   -110.02383     1.760732    -108.2631    11578.932    4.2722555    4.2722555    4.2722555    11578.932   -15960.381   -93.870618    50791.047    28737.905    13500.464    20827.497     77.97792 
   63900     1556.307   -109.68058    1.4081793    -108.2724   -22871.224    4.3026696    4.3026696    4.3026696   -22871.224   -41246.824   -9062.1359   -18304.712    32756.302    26734.973   -12271.019    79.655174 
   64000    1089.9383   -109.24191   0.98619909   -108.25571   -14611.983    4.3114921    4.3114921    4.3114921   -14611.983   -23240.638   -37127.679    16532.369   -42951.743    1175.5568   -37680.328    80.146173 
   64100    2175.3114   -110.20897    1.9682675   -108.24071    8990.3525    4.2870002    4.2870002    4.2870002    8990.3525   -245.56131   -12809.378    40025.997   -10610.326   -10952.388    44735.492    78.788077 
   64200    2129.0871   -110.16944    1.9264428     -108.243    32636.587    4.2612515    4.2612515    4.2612515    32636.587    30327.624   -1293.9528    68876.091    13893.685    25141.244   -14537.033    77.376929 
   64300       781.78   -109.00284   0.70737097   -108.29547   -11422.676    4.2752102    4.2752102    4.2752102   -11422.676   -18915.995   -23745.842     8393.808   -34349.215    4350.9673   -62420.093     78.13982 
   64400     1927.298   -110.02991    1.7438598   -108.28605   -28777.605    4.2959883    4.2959883    4.2959883   -28777.605   -65281.819   -24979.683    3928.6859    -26259.59   -7871.7787    22001.094    79.284676 
   64500    2038.8582   -110.11317    1.8448018   -108.26836   -17643.713    4.3006866    4.3006866    4.3006866   -17643.713    2855.4441   -44149.892   -11636.692    26350.184   -3696.1046   -31930.473     79.54509 
   64600    1576.6694   -109.69432    1.4266036   -108.26771   -24264.302    4.2880922    4.2880922    4.2880922   -24264.302     10915.45   -63198.501   -20509.854   -14391.564   -728.46858   -64671.863    78.848302 
   64700    1993.0223   -110.05562    1.8033285    -108.2523    12222.673    4.2647601    4.2647601    4.2647601    12222.673   -14983.619    20239.712    31411.926    -34691.86   -11006.287    27968.611    77.568219 
   64800    1474.2756   -109.60815    1.3339555    -108.2742   -67.783006    4.2799142    4.2799142    4.2799142   -67.783006    10458.641    -21754.74     11092.75    25361.244    1647.3399   -7640.2386    78.398039 
   64900    2051.3207   -110.11539    1.8560781   -108.25931   -30284.392    4.3042941    4.3042941    4.3042941   -30284.392   -15245.354   -59359.217   -16248.605     28420.78    11823.019   -36058.182     79.74543 
   65000     1823.717   -109.90039    1.6501375   -108.25026    -12496.49    4.2968899    4.2968899    4.2968899    -12496.49   -36512.012    7009.2616   -7986.7184   -10311.591   -34093.314    24102.214     79.33461 
   65100    1409.6344    -109.5363    1.2754668   -108.26083    802.45191    4.2749787    4.2749787    4.2749787    802.45191   -12022.425    6466.1368    7963.6442    8200.6732     1741.017    33279.081    78.127131 
   65200    2432.2462   -110.45569    2.2007475   -108.25494    23348.623    4.2601406    4.2601406    4.2601406    23348.623    14702.024     -2356.86    57700.704    30745.383    28204.177   -518.50144    77.316431 
   65300    1820.4026    -109.9289    1.6471385   -108.28176    1214.9658    4.2798296    4.2798296    4.2798296    1214.9658   -24751.751    20376.059    8020.5888    7482.7855   -66840.504   -5718.3794    78.393386 
   65400    1227.8275   -109.38735    1.1109641   -108.27639   -31810.407    4.3075536    4.3075536    4.3075536   -31810.407   -50088.339    2193.0821   -47535.964   -11879.587   -7488.3572    34794.135    79.926736 
   65500    2358.4504   -110.36732    2.1339755   -108.23334    -4164.886    4.2993748    4.2993748    4.2993748    -4164.886    34593.075    -30122.58   -16965.153   -190.53509     35346.79   -9002.8514    79.472325 
   65600    1314.0021   -109.42909    1.1889367   -108.24015    9035.5254    4.2837257    4.2837257    4.2837257    9035.5254    50164.288    8990.6287    -32048.34    3727.1449   -54109.638   -36867.821    78.607675 
   65700    1789.7078   -109.86662    1.6193653   -108.24726    2662.1751    4.2799623    4.2799623    4.2799623    2662.1751    32523.911     1748.938   -26286.323    6892.3377     -14472.3    50432.867    78.400679 
   65800    2225.7974    -110.2641    2.0139483   -108.25015     17770.74    4.2815892    4.2815892    4.2815892     17770.74    56008.204   -7556.5974    4860.6123   -14145.222    15859.971    -18512.22    78.490118 
   65900    1374.8042   -109.51693    1.2439518   -108.27297    8537.1582    4.2908387    4.2908387    4.2908387    8537.1582    36436.266    24134.991   -34959.783   -1124.5267   -25318.587   -41755.868    78.999907 
   66000    1782.7628   -109.86693    1.6130813   -108.25385    4622.8389    4.3027042    4.3027042    4.3027042    4622.8389   -25202.151    46842.622   -7771.9544    18262.297    -4819.549    43834.542    79.657096 
   66100    1960.4432   -110.00479    1.7738502   -108.23094   -14352.733    4.3030344    4.3030344    4.3030344   -14352.733   -37857.754   -21722.384     16521.94   -53371.873    9351.2828    -2935.476    79.675436 
   66200    1553.2705    -109.6431    1.4054317   -108.23767    18595.747    4.2766906    4.2766906    4.2766906    18595.747   -22797.286    28510.593    50073.935    6194.0923    -34626.03    -20937.34    78.221026 
   66300     1762.526   -109.84608    1.5947705   -108.25131    11924.729     4.263117     4.263117     4.263117    11924.729   -37860.384    32827.057    40807.514    29768.186   -27558.952   -5889.8723    77.478596 
   66400    1687.8199   -109.80729    1.5271749   -108.28011    2308.9565    4.2734581    4.2734581    4.2734581    2308.9565   -36989.346   -21784.555     65700.77   -50895.015    17749.578    21973.006     78.04379 
   66500    1839.6891   -109.95195    1.6645894   -108.28736   -14082.008    4.2893868    4.2893868    4.2893868   -14082.008   -48129.812    11605.175   -5721.3866   -19258.189   -25591.273    23881.543    78.919738 
   66600    1882.1418   -109.98262    1.7030015   -108.27962   -12055.912    4.2910182    4.2910182    4.2910182   -12055.912   -47126.388    46506.508   -35547.856    28734.138   -39897.883   -6484.1473    79.009818 
   66700    1834.3706   -109.93053    1.6597771   -108.27076    6613.4185    4.2759987    4.2759987    4.2759987    6613.4185   -45316.268    12212.743    52943.781   -632.98742    18721.969    3533.4602    78.183066 
   66800    1341.1218    -109.4916    1.2134752   -108.27812    15920.582    4.2698961    4.2698961    4.2698961    15920.582   -12423.176    61860.837   -1675.9151   -35546.697   -29139.389     18457.92    77.848802 
   66900    1879.4542   -109.97805    1.7005697   -108.27748   -4316.0587    4.2838773    4.2838773    4.2838773   -4316.0587   -14737.569    51532.172   -49742.779    16873.335   -44429.997    21531.083    78.616024 
   67000    1611.2195   -109.72536    1.4578653   -108.26749   -16340.492    4.2925611    4.2925611    4.2925611   -16340.492   -72833.328   -9392.0957    33203.948   -11872.609    18184.355    2616.2872    79.095076 
   67100    1424.1463   -109.55579    1.2885975   -108.26719   -18985.858    4.2851911    4.2851911    4.2851911   -18985.858   -73645.507   -11131.286    27819.221   -33535.725   -22766.053    5650.3916    78.688378 
   67200     2506.586   -110.51103    2.2680117   -108.24302   -8799.5777    4.2830573    4.2830573    4.2830573   -8799.5777   -43272.898    44906.143   -28031.978    6866.2214   -23282.408    10415.617    78.570889 
   67300    1117.5279    -109.2741    1.0111627   -108.26294    -27653.44    4.2907503    4.2907503    4.2907503    -27653.44   -96654.425    -15403.53    29097.636   -20971.241    33257.615    -8004.554     78.99502 
   67400    994.34795   -109.17834   0.89970692   -108.27863   -3299.1054    4.2845534    4.2845534    4.2845534   -3299.1054   -89663.714    18142.839    61623.559   -21053.038    3830.4612     2336.089    78.653253 
   67500    2396.4479    -110.4397    2.1683565   -108.27135    1793.1026    4.2724337    4.2724337    4.2724337    1793.1026   -7134.2703    13194.075   -680.49683    16165.791   -8666.5326     25172.84    77.987679 
   67600    1745.6045   -109.86946    1.5794596      -108.29    12346.662    4.2666149    4.2666149    4.2666149    12346.662     -1241.84    34397.278    3884.5475   -20829.689    20384.173     22637.09    77.669472 
   67700     1713.035   -109.84699    1.5499901     -108.297   -15976.408    4.2825423    4.2825423    4.2825423   -15976.408   -58981.055   -20088.592    31140.423   -25643.722    27758.016    -8836.832    78.542546 
   67800    1498.5842   -109.65069    1.3559505   -108.29474   -25615.214    4.2882407    4.2882407    4.2882407   -25615.214   -24665.946   -37670.755   -14508.943    20902.637   -21391.064    21316.469    78.856493 
   67900    1510.9218   -109.65415    1.3671138   -108.28703    207.89281    4.2809712    4.2809712    4.2809712    207.89281    3012.9174    30667.764   -33057.003    9206.7971   -40856.208    42419.187    78.456138 
   68000     2304.707   -110.35855    2.0853473    -108.2732    6089.2171    4.2846814    4.2846814    4.2846814    6089.2171   -15586.601    829.19494    33025.057   -26254.872    11625.337   -13259.258    78.660302 
   68100    1141.1198   -109.31052    1.0325091   -108.27801    19898.215    4.2914547    4.2914547    4.2914547    19898.215   -48048.769     67698.42    40044.996    8950.7215   -17471.491    19665.576    79.033932 
   68200    1276.3046   -109.41096    1.1548272   -108.25614    6896.7482    4.3014758    4.3014758    4.3014758    6896.7482   -63855.817    83378.443    1167.6182    3766.7924   -42149.467    28474.026    79.588891 
   68300    2712.4304   -110.65158    2.4542641   -108.19731   -27435.513    4.3088102    4.3088102    4.3088102   -27435.513   -52716.799   -22446.527   -7143.2141    1944.1525    31784.874    -23271.86    79.996704 
   68400    1295.5296   -109.37519    1.1722224   -108.20297   -6840.5182    4.3025035    4.3025035    4.3025035   -6840.5182   -14493.172    7549.5381   -13577.921    36327.172   -61509.559    22003.065    79.645949 
   68500    1868.0759   -109.89321    1.6902743   -108.20294     3934.301    4.2877801    4.2877801    4.2877801     3934.301   -26509.595    60228.401   -21915.903   -4445.6833    11612.738   -5194.3182    78.831084 
   68600    2027.8949   -110.05617    1.8348819   -108.22129    250.24293    4.2791307    4.2791307    4.2791307    250.24293    13147.672   -8154.6955   -4242.2482   -3097.1748    47030.609    5880.4514     78.35499 
   68700    1097.2944   -109.25732     0.992855   -108.26447   -5092.0214    4.2749708    4.2749708    4.2749708   -5092.0214   -344.78906   -7668.4607   -7262.8146    16399.939   -60130.362    37014.702    78.126698 
   68800    1818.5709   -109.92975    1.6454811   -108.28427    14893.388    4.2810955    4.2810955    4.2810955    14893.388    21157.983   -1056.1506    24578.333    4153.4879   -21974.992    3280.1826    78.462968 
   68900    2791.5399   -110.78845    2.5258439   -108.26261   -2436.7729    4.2954855    4.2954855    4.2954855   -2436.7729    21255.121   -13979.038   -14586.402    -2697.601    18209.357     3499.101    79.256844 
   69000    874.51051   -109.06677   0.79127549   -108.27549    21980.579    4.2981901    4.2981901    4.2981901    21980.579     42250.92    31190.386   -7499.5686    37568.746   -53196.259    29912.992    79.406645 
   69100    2265.1767   -110.27522    2.0495795   -108.22564   -7297.1854    4.3035604    4.3035604    4.3035604   -7297.1854   -22779.353    23856.547    -22968.75   -259.75053    5982.7776   -11407.577    79.704659 
   69200     1747.827   -109.79704    1.5814706   -108.21557    14691.977    4.2904128    4.2904128    4.2904128    14691.977   -24478.918      60905.6    7649.2512   -10886.272   -10064.205    7271.4797    78.976383 
   69300    883.80448   -109.04314   0.79968487   -108.24346   -19869.438    4.2933978    4.2933978    4.2933978   -19869.438   -48681.564    4653.4376   -15580.188    34543.919   -60441.162    28663.144    79.141339 
   69400    2892.0307   -110.84233    2.6167702   -108.22556   -7337.4289    4.2892357    4.2892357    4.2892357   -7337.4289   -32079.849   -8323.9521    18391.515    4533.6665    25748.183   -28684.436    78.911395 
   69500    1349.1699   -109.47484    1.2207572   -108.25408    18743.858    4.2867562    4.2867562    4.2867562    18743.858    -7032.468    101045.29   -37781.244    9932.2219   -43486.223    43603.741    78.774628 
   69600    1349.4755   -109.47173    1.2210338   -108.25069   -10718.995    4.3069422    4.3069422    4.3069422   -10718.995   -8797.1556    5084.2167   -28444.047    13220.269   -38755.656     19328.73    79.892708 
   69700    2593.5739   -110.55057    2.3467202   -108.20385   -9418.5934     4.305815     4.305815     4.305815   -9418.5934   -27335.248      14336.4   -15256.931   -2135.6802    12368.775   -14032.017    79.829994 
   69800    612.65749   -108.79495   0.55434538    -108.2406   -14296.702    4.2918047    4.2918047    4.2918047   -14296.702   -29475.838    53114.699   -66528.967    -513.6971   -69220.755    50382.701    79.053272 
   69900    1676.1903   -109.77037    1.5166522   -108.25372    -6737.653    4.2765894    4.2765894    4.2765894    -6737.653   -12610.235     21770.39   -29373.114    9290.5781   -22403.483    26701.361    78.215471 
   70000    2585.3747   -110.59283    2.3393014   -108.25353    40535.932     4.266738     4.266738     4.266738    40535.932    23209.147    62524.209    35874.441    3391.4325    20094.823       -24505    77.676191 
   70100    597.13239   -108.84317   0.54029793   -108.30288   -22952.938    4.2948679    4.2948679    4.2948679   -22952.938   -44642.115    35046.169   -59262.868   -8990.7102   -58788.269    44090.547    79.222663 
   70200    1644.4026   -109.75185    1.4878901   -108.26396   -37167.261    4.3079705    4.3079705    4.3079705   -37167.261   -44865.615    -43544.55   -23091.616   -4529.0125   -13778.055    32296.247    79.949943 
   70300    2405.6813   -110.40789     2.176711   -108.23118   -4864.4308    4.2863815    4.2863815    4.2863815   -4864.4308   -25560.462    10060.969    906.20088   -2773.0695    6334.2578   -34481.042    78.753972 
   70400    954.02123   -109.10988   0.86321846   -108.24666   -4186.6199    4.2785565    4.2785565    4.2785565   -4186.6199   -9088.0908    4854.3078   -8326.0766    13418.551   -68893.199    46677.767    78.323449 
   70500    1715.7409   -109.80648    1.5524384   -108.25404   -23750.801    4.2896605    4.2896605    4.2896605   -23750.801   -568.26069    -41694.51   -28989.634   -7021.6414   -10853.533     40934.78    78.934844 
   70600    2155.9704    -110.2012    1.9507673   -108.25044   -9467.1518    4.2879231    4.2879231    4.2879231   -9467.1518   -10760.336   -14770.926   -2870.1939   -12647.018    4313.3874   -42851.047    78.838976 
   70700     1434.122   -109.56131    1.2976238   -108.26368   -16349.239    4.2895491    4.2895491    4.2895491   -16349.239   -34984.841    7548.0273   -21610.903    12569.267   -65759.614    23961.109    78.928694 
   70800    1925.1569   -109.99402    1.7419224    -108.2521   -3372.7151    4.2880296    4.2880296    4.2880296   -3372.7151    24704.621   -26105.513   -8717.2538   -12956.053   -7950.4211    25839.408    78.844851 
   70900    1520.5481   -109.63098    1.3758238   -108.25516    1554.0843    4.2826619    4.2826619    4.2826619    1554.0843    9834.6145   -24077.565    18905.203    -23161.49    13490.865   -37373.383    78.549129 
   71000    1319.0819   -109.46101     1.193533   -108.26748   -14786.232     4.291458     4.291458     4.291458   -14786.232   -44947.383    8941.1381    -8352.451    3289.3949    -54585.14   -7211.1538    79.034116 
   71100    2496.2539   -110.50053     2.258663   -108.24187    7017.0866    4.2900096    4.2900096    4.2900096    7017.0866    7618.0204    -12862.46      26295.7   -271.68137   -12313.088    13294.507    78.954121 
   71200    956.57118   -109.12718    0.8655257   -108.26166    4244.3763    4.2959702    4.2959702    4.2959702    4244.3763   -29734.129   -31235.101    73702.359   -20417.919     21098.26   -30306.811    79.283677 
   71300    2177.6846   -110.19935    1.9704148   -108.22894   -31512.336     4.306939     4.306939     4.306939   -31512.336   -46234.774   -16173.447   -32128.787   -3504.1907    15356.237    3952.5294    79.892528 
   71400    1802.8697   -109.86205    1.6312744   -108.23078   -7446.0147    4.2836589    4.2836589    4.2836589   -7446.0147     1137.122   -27122.113    3646.9466    3809.5103   -9340.6112    13181.559    78.603998 
   71500     1354.421   -109.46074    1.2255086   -108.23523    20827.161    4.2649851    4.2649851    4.2649851    20827.161    5144.6687    -4842.773    62179.587   -13902.743    23716.854   -28827.699    77.580495 
   71600    2193.1312   -110.22442    1.9843912   -108.24002   -4779.4795     4.287427     4.287427     4.287427   -4779.4795   -14526.161    20911.255   -20723.532   -4579.8248    31915.186     4600.718    78.811615 
   71700    1376.4535   -109.48402     1.245444   -108.23857    -23552.51    4.3044126    4.3044126    4.3044126    -23552.51    237.98358   -44824.019   -26071.495    20829.321   -11279.355     32756.17    79.752019 
   71800    2149.8145   -110.15673    1.9451973   -108.21153    10726.839    4.3024328    4.3024328    4.3024328    10726.839    9271.0195    -24313.71    47223.208   -9190.9213    15356.096   -16115.647    79.642021 
   71900    1578.6679   -109.65184    1.4284119   -108.22343   -32075.096    4.3017649    4.3017649    4.3017649   -32075.096   -26322.538   -49384.036   -20518.713    3222.8196    32222.672    30283.871    79.604937 
   72000    985.78824   -109.13344   0.89196192   -108.24148    8524.2558    4.2757752    4.2757752    4.2757752    8524.2558    44273.838   -43863.627    25162.556    35826.896   -1642.0754    44605.769    78.170805 
   72100    2641.1033   -110.60994    2.3897257   -108.22021    33039.745    4.2749843    4.2749843    4.2749843    33039.745    29366.748    31085.822    38666.664   -11013.015   -5456.5602   -11538.587    78.127438 
   72200    1055.8352   -109.20747   0.95534184   -108.25213   -33753.522    4.3035188    4.3035188    4.3035188   -33753.522   -26191.566   -29132.615   -45936.385    1540.6257    12316.272    34041.645    79.702347 
   72300    1826.5094   -109.86597    1.6526641   -108.21331    15350.969    4.2979529    4.2979529    4.2979529    15350.969    39191.863   -21202.247    28063.291    18322.966    17658.034    24148.205    79.393499 
   72400    1717.0539   -109.76768    1.5536264   -108.21405   -1869.4686    4.2952853    4.2952853    4.2952853   -1869.4686   -5177.6241    19085.852   -19516.633   -10761.105   -65638.166   -21784.632     79.24576 
   72500    1631.8227   -109.70763    1.4765075   -108.23112   -11840.661    4.2855371    4.2855371    4.2855371   -11840.661    609.22766    10878.552   -47009.761   -1010.9744    1474.2943    26419.885    78.707436 
   72600     2258.993   -110.26427    2.0439843   -108.22029    43529.105    4.2622647    4.2622647    4.2622647    43529.105    60116.115    30113.971    40357.229     6354.781    4284.6177    20019.283     77.43214 
   72700    1064.3448   -109.22926   0.96304152   -108.26622   -1313.6307    4.2822761    4.2822761    4.2822761   -1313.6307   -16054.368    47359.764   -35246.288   -373.15589   -91499.016   -35887.426      78.5279 
   72800    2114.2689   -110.14693    1.9130349   -108.23389   -7249.2076    4.2975193    4.2975193    4.2975193   -7249.2076    -5019.334   -1629.6093    -15098.68    402.15818    21931.544    9342.9337    79.369476 
   72900    1588.0197   -109.66267    1.4368736    -108.2258    -6382.194    4.2983083    4.2983083    4.2983083    -6382.194    16062.423    16189.127   -51398.132    356.20008   -48552.716    13016.265      79.4132 
   73000    1495.3478   -109.58111    1.3530221   -108.22809   -31445.037    4.2964159    4.2964159    4.2964159   -31445.037   -35580.974    16833.064   -75587.201   -770.90828   -73070.361   -25150.241    79.308356 
   73100    2455.8992   -110.43567    2.2221492   -108.21352    34289.338    4.2662657    4.2662657    4.2662657    34289.338    95009.653    6879.4169    978.94406   -2079.2178    37554.093    5986.0785    77.650398 
   73200    596.16327   -108.80498   0.53942106   -108.26556   -12499.476    4.2655771    4.2655771    4.2655771   -12499.476   -40964.384    86076.639   -82610.682    10245.431      -117913    26386.923    77.612809 
   73300    2118.9471   -110.17732    1.9172679   -108.26005   -24484.982    4.2864931    4.2864931    4.2864931   -24484.982   -22197.845    8225.7939   -59482.894   -3500.0683     2775.676   -8340.7414    78.760123 
   73400    1889.9975   -109.95653    1.7101094   -108.24642   -4189.9032     4.300012     4.300012     4.300012   -4189.9032   -19392.533    27360.809   -20537.986   -5135.4178   -28011.023   -5927.6362    79.507664 
   73500     1335.879   -109.43851    1.2087314   -108.22978   -20693.986    4.3073101    4.3073101    4.3073101   -20693.986   -17632.873    36811.675   -81260.761   -7995.9113   -72547.446    26788.032    79.913182 
   73600    2647.9219   -110.59008    2.3958954   -108.19419   -679.65547    4.2875401    4.2875401    4.2875401   -679.65547   -19046.874   -6506.2521     23514.16    3081.5773    50866.287    12187.245    78.817848 
   73700    902.96173   -109.03702   0.81701875      -108.22     15739.55    4.2682416    4.2682416    4.2682416     15739.55   -40051.089    81241.741    6027.9976    16024.508   -103641.73   -3899.0331    77.758341 
   73800    2211.8366   -110.23679    2.0013163   -108.23547    6462.8369    4.2763323    4.2763323    4.2763323    6462.8369   -12400.592    7062.5548    24726.548    11147.838   -5904.2013    8433.4726    78.201366 
   73900    1982.3821   -110.03742     1.793701   -108.24372    6172.6457     4.284361     4.284361     4.284361    6172.6457    32636.238    322.29623   -14440.597   -4856.7898   -31663.892     1543.547    78.642658 
   74000    1094.8794   -109.24932    0.9906699   -108.25865    2740.8103    4.2909169    4.2909169    4.2909169    2740.8103   -14421.524    28610.068   -5966.1134    7995.9278   -93383.741    4173.7513    79.004222 
   74100    2619.3601   -110.58747    2.3700521   -108.21741    3871.6135    4.2923371    4.2923371    4.2923371    3871.6135    -1607.909   -12289.225    25511.975     8702.723     52371.82   -992.59238    79.082698 
   74200    818.78529   -108.97405   0.74085414    -108.2332    19370.987    4.2785369    4.2785369    4.2785369    19370.987    7886.1184    92882.358   -42655.517   -7137.9236    -101576.1     6799.105    78.322377 
   74300    2019.6271   -110.04976     1.827401   -108.22236    17352.837    4.2816959    4.2816959    4.2816959    17352.837    33175.975    18410.897    471.64079   -5275.5517   -16606.743    14483.937    78.495986 
   74400    1935.9629   -109.97409    1.7516999   -108.22239   -25263.364    4.2931146    4.2931146    4.2931146   -25263.364   -25916.436     6594.769   -56468.426    11136.744   -26738.819    2682.8742    79.125676 
   74500     1307.311   -109.41509    1.1828824   -108.23221   -2467.0446    4.2860517    4.2860517    4.2860517   -2467.0446   -13442.817    58721.725   -52680.041   -3942.7074   -85134.313   -2479.5519    78.735795 
   74600    2765.5099    -110.7113    2.5022914   -108.20901   -10404.058    4.2926127    4.2926127    4.2926127   -10404.058    12707.352   -32725.866    -11193.66   -5713.6556    29009.537    20646.548    79.097932 
   74700    859.39521   -109.02468   0.77759884   -108.24708   -27580.502     4.287193     4.287193     4.287193   -27580.502   -57486.273    49160.202   -74415.435    20571.001   -105446.52    18452.629    78.798708 
   74800    2230.2048   -110.24817    2.0179362   -108.23024    27864.226    4.2692198    4.2692198    4.2692198    27864.226   -9926.4618    74086.439    19432.701   -4228.2127   -21478.484   -19262.396    77.811816 
   74900    1957.1012   -110.01304    1.7708263   -108.24222    5647.3433    4.2928822    4.2928822    4.2928822    5647.3433   -18967.724    61480.398   -25570.644   -7437.7015   -26503.327    22316.861    79.112827 
   75000    869.00383   -109.00792   0.78629293   -108.22163   -7690.3055    4.3111903    4.3111903    4.3111903   -7690.3055   -69864.091    115432.68   -68639.502    13478.294   -74296.333    33397.972    80.129342 
   75100    2645.5378   -110.55726    2.3937382   -108.16352   -13001.583    4.3059251    4.3059251    4.3059251   -13001.583   -26945.276   -3913.1786   -8146.2955    1203.1398    22323.908   -4087.0846    79.836121 
   75200    684.03121   -108.81329   0.61892581   -108.19436   -19092.766    4.2949851    4.2949851    4.2949851   -19092.766   -40721.442    42149.357   -58706.213   -18320.631   -99843.896    4036.2751    79.229148 
   75300    2612.7562   -110.54326    2.3640767   -108.17918     9223.776    4.2750848    4.2750848    4.2750848     9223.776    15494.832     7850.174     4326.322    18085.517    25289.383     18792.79    78.132944 
   75400    1238.3027   -109.34687    1.1204423   -108.22643    1811.7307     4.277793     4.277793     4.277793    1811.7307   -17072.023     45942.31   -23435.095     2025.496   -77028.426   -13793.848    78.281529 
   75500    1742.2286   -109.81204     1.576405   -108.23564   -21056.755    4.2924181    4.2924181    4.2924181   -21056.755   -27656.322    22038.519   -57552.461    3091.2511    -46275.61    1213.3486    79.087175 
   75600    2200.0694   -110.21231     1.990669   -108.22164      12660.9     4.294522     4.294522     4.294522      12660.9    27818.869    21652.618   -11488.787     12190.16    -1176.373    18225.646    79.203523 
   75700    864.51342   -109.01349   0.78222991   -108.23126   -16174.526    4.3044394    4.3044394    4.3044394   -16174.526   -32357.167    44086.878    -60253.29    7682.9505   -97952.514   -2381.7748    79.753507 
   75800    2900.6674   -110.81019    2.6245849    -108.1856   -9811.7133    4.2891702    4.2891702    4.2891702   -9811.7133   -821.34057   -23938.797    -4675.002   -15126.966    38383.932   -22599.234    78.907781 
   75900    765.87839   -108.91036   0.69298286   -108.21737    3461.3042    4.2802014    4.2802014    4.2802014    3461.3042   -8858.3135    38731.675   -19489.449    3875.3604   -79043.344    9676.0425     78.41382 
   76000    1678.4432   -109.75303    1.5186907   -108.23434   -25657.991    4.2908725    4.2908725    4.2908725   -25657.991   -55217.214     15632.31   -37389.068    7797.3419   -30590.445    5189.2356     79.00177 
   76100    2443.5467   -110.43478    2.2109724   -108.22381    18868.571    4.2792036    4.2792036    4.2792036    18868.571    24724.828    30300.073     1580.812    7330.5447    21506.534    1660.5244    78.358995 
   76200    1234.6687   -109.37119    1.1171542   -108.25404    -16060.08    4.2883131    4.2883131    4.2883131    -16060.08    -31879.55    49935.503   -66236.194   -2880.7842   -97619.873    14011.424     78.86049 
   76300    2597.7744   -110.57639    2.3505209   -108.22587   -13443.136    4.2904643    4.2904643    4.2904643   -13443.136     37566.05   -30485.741   -47409.716   -1448.9956    22370.729    25968.641    78.979229 
   76400    1457.9501   -109.56437    1.3191839   -108.24519    350.74344     4.278802     4.278802     4.278802    350.74344   -6385.2583    63441.667   -56004.178    2038.5148   -36737.938    -2923.745    78.336934 
   76500    1247.4829   -109.38905    1.1287488    -108.2603   -12490.619    4.2801611    4.2801611    4.2801611   -12490.619    -6548.546    55145.943   -86069.255   -3681.6632   -44350.368   -769.73213    78.411605 
   76600    2854.8697   -110.81759    2.5831461   -108.23444   -7637.7399    4.2878293    4.2878293    4.2878293   -7637.7399    30675.228   -27798.925   -25789.523    4224.8492    31736.223    20658.252    78.833803 
   76700    1361.7603   -109.48802    1.2321493   -108.25587   -7876.1763    4.2883691    4.2883691    4.2883691   -7876.1763   -16529.495    42346.115   -49445.149    2312.1479   -106445.09   -7499.1067    78.863578 
   76800    1835.5352   -109.90624    1.6608308   -108.24541    8197.7395    4.2847857    4.2847857    4.2847857    8197.7395    26753.297    48613.867   -50773.946    2507.2586    6070.9361    -6425.718    78.666045 
   76900    2422.0555    -110.4248    2.1915267   -108.23327   -5974.2103     4.284233     4.284233     4.284233   -5974.2103   -29697.719    19064.621   -7289.5326   -1597.1607    14440.927   -7404.1652    78.635609 
   77000    890.47751   -109.06281   0.80572276   -108.25709    14295.275    4.2774209    4.2774209    4.2774209    14295.275   -35652.943     55147.34    23391.428    5384.7294   -120190.41    3587.0342    78.261101 
   77100    2467.2887   -110.47728    2.2324547   -108.24482    19784.454    4.2860337    4.2860337    4.2860337    19784.454    3467.8654    6786.0067    49099.491    4080.9664    30739.869    515.48296    78.734803 
   77200    1380.8094   -109.49618    1.2493854   -108.24679    18084.921     4.294799     4.294799     4.294799    18084.921   -45919.592    97176.793    2997.5623    1162.5061   -69426.006   -10067.916    79.218852 
   77300    1650.1534   -109.71687    1.4930934   -108.22378    7058.3919    4.3011483    4.3011483    4.3011483    7058.3919   -21832.309    89646.972   -46639.487    15283.386   -35084.768   -11562.391    79.570711 
   77400    1975.0046   -109.98396    1.7870257   -108.19693   -7748.3861    4.3019185    4.3019185    4.3019185   -7748.3861   -44103.065    27772.484   -6914.5779   -2997.8316   -5386.7636   -11087.626    79.613466 
   77500    1541.7109   -109.60883    1.3949725   -108.21386   -14581.032    4.2903222    4.2903222    4.2903222   -14581.032   -43494.141     59573.03   -59821.986   -1309.6497   -98073.686   -2687.2291    78.971382 
   77600     2472.751   -110.44557     2.237397   -108.20817    2699.7991    4.2731187    4.2731187    4.2731187    2699.7991    -7701.818    21280.318   -5479.1023     7971.967    38172.074   -15146.729    78.025199 
   77700    1406.1043   -109.51942    1.2722727   -108.24714   -591.77876    4.2769738    4.2769738    4.2769738   -591.77876   -40861.328    47107.162   -8021.1699    8095.4057    -13568.11   -8103.1471    78.236564 
   77800    2482.9128   -110.48234    2.2465917   -108.23575   -4104.8663    4.2985991    4.2985991    4.2985991   -4104.8663   -28377.598    22061.469   -5998.4706   -15314.775   -46602.834    -9343.029    79.429315 
   77900    1286.7405   -109.40414    1.1642698   -108.23987   -24927.731    4.3121386    4.3121386    4.3121386   -24927.731   -70531.765    1639.5495   -5890.9794    15914.604    59979.994    -7997.555    80.182232 
   78000    1534.7253   -109.62531    1.3886517   -108.23666   -17002.084    4.2905569    4.2905569    4.2905569   -17002.084     -39157.7   -11310.805   -537.74681    724.00925    -2942.692   -6886.4321    78.984342 
   78100     2483.908   -110.44482    2.2474921   -108.19733    41099.587    4.2655619    4.2655619    4.2655619    41099.587    615.95539      91535.1    31147.706    1287.4358    12597.191   -7712.2858    77.611979 
   78200    840.53085   -109.00691   0.76052998   -108.24638   -16519.417    4.2918975    4.2918975    4.2918975   -16519.417   -56475.108    52288.374   -45371.517   -3973.5912    64931.474   -80.791057    79.058402 
   78300    2744.3409   -110.67095    2.4831373   -108.18782   -20715.615    4.3098555    4.3098555    4.3098555   -20715.615    -11830.71   -23421.512   -26894.623    4016.2444   -23872.445   -192.57257    80.054941 
   78400    1165.8627   -109.25633    1.0548971   -108.20143   -33434.966    4.3107916    4.3107916    4.3107916   -33434.966   -58681.435    33604.847    -75228.31   -11067.669    51287.904     9205.561    80.107115 
   78500    1995.1331   -109.99455    1.8052384   -108.18932   -28150.223    4.2978058    4.2978058    4.2978058   -28150.223   -14531.064   -17692.658   -52226.948    2853.6001   -4565.0166    21423.586    79.385349 
   78600    2198.8237   -110.17099    1.9895419   -108.18145    15967.291    4.2788683    4.2788683    4.2788683    15967.291   -3727.0324    34531.834    17097.071   -11026.646    33514.911    251.58481    78.340578 
   78700    872.42991   -109.01861   0.78939292   -108.22921   -20346.022    4.2889367    4.2889367    4.2889367   -20346.022    13591.071    31427.066    -106056.2   -924.69319    48176.636   -6707.4106    78.894895 
   78800    2528.1659   -110.50388    2.2875376   -108.21635   -16020.271    4.2956517    4.2956517    4.2956517   -16020.271   -379.06569   -29505.675   -18176.073     677.6966   -43430.132     8914.486    79.266046 
   78900    1298.0926   -109.41357    1.1745414   -108.23903    4140.9486    4.2888281    4.2888281    4.2888281    4140.9486   -3783.8792    68246.678   -52039.953   -9787.6941    73917.447   -1572.3379    78.888901 
   79000    1485.2768   -109.57558    1.3439096   -108.23167   -4209.4265    4.2909506    4.2909506    4.2909506   -4209.4265   -7325.8717    58451.956   -63754.364    8188.5556    7127.1443   -25714.897    79.006083 
   79100    2106.3495   -110.12642    1.9058693   -108.22055    2023.3904    4.2919873    4.2919873    4.2919873    2023.3904   -12883.021    49276.394   -30323.201   -11551.566     -2288.82   -5996.6339    79.063365 
   79200    867.25215    -109.0186   0.78470797   -108.23389    4857.7555    4.3004979    4.3004979    4.3004979    4857.7555   -29770.861    86715.313   -42371.186    777.32506    74299.385    14198.614    79.534619 
   79300    2306.7124   -110.28041    2.0871619   -108.19324    5883.0362    4.3074366    4.3074366    4.3074366    5883.0362   -22487.601    4403.7154    35732.995     1982.252   -29568.669   -16956.019    79.920221 
   79400    860.65331   -108.99271    0.7787372   -108.21397    9098.7479    4.3009265    4.3009265    4.3009265    9098.7479    -32016.19    28577.616    30734.818   -5884.8575    95934.157   -14789.875    79.558406 
   79500    2070.6136   -110.07357    1.8735347   -108.20004    24078.737    4.2855347    4.2855347    4.2855347    24078.737   -6412.8829    8251.5263    70397.568   -10170.806    11508.205    8993.0226    78.707305 
   79600    1933.7971   -109.97296    1.7497402   -108.22322    1125.4996    4.2798239    4.2798239    4.2798239    1125.4996    15040.439    15151.436   -26815.377    7536.3599    22309.844   -30087.139    78.393075 
   79700    1157.6259   -109.30626    1.0474442   -108.25882    621.79247    4.2808965    4.2808965    4.2808965    621.79247   -12157.298    50036.887   -36014.212   -11371.579    90680.157   -9256.2269    78.452029 
   79800     2507.519   -110.50925    2.2688559   -108.24039     9214.641    4.2916481    4.2916481    4.2916481     9214.641   -17788.363   -4814.0111    50246.297   -20824.111   -30238.575    13022.496    79.044621 
   79900    1425.5864   -109.53786    1.2899005   -108.24796    2824.3848    4.2964345    4.2964345    4.2964345    2824.3848   -16965.466     72770.13   -47331.509    3513.3391     50295.82   -21330.578    79.309387 
   80000    1685.3646   -109.76166    1.5249533    -108.2367    25393.785    4.2909149    4.2909149    4.2909149    25393.785   -1608.9135    48117.834    29672.433   -7401.7934    39134.559   -27131.199    79.004115 
   80100    2240.1152   -110.25947    2.0269033   -108.23257    16907.568     4.280529     4.280529     4.280529    16907.568   -2058.0965    36746.338    16034.464   -18326.651   -42131.508    4764.7462    78.431828 
   80200    1166.4817   -109.31213    1.0554572   -108.25667    31465.478    4.2731016    4.2731016    4.2731016    31465.478   -9936.5976    81913.458    22419.574    15695.884    60533.319    5488.3766    78.024258 
   80300    2221.1517   -110.25868    2.0097447   -108.24893     16993.54    4.2855617    4.2855617    4.2855617     16993.54    13471.345    16413.231    21096.044   -3745.0762    15706.578    -13361.64    78.708792 
   80400    1604.4444   -109.70249     1.451735   -108.25075    23819.494    4.2936284    4.2936284    4.2936284    23819.494   -590.55798    61170.784    10878.257   -19491.099   -49882.978    1036.6584    79.154092 
   80500    1517.2417   -109.60724    1.3728321   -108.23441    10426.146    4.3011258    4.3011258    4.3011258    10426.146   -40806.013    53204.959    18879.491    23154.928    43350.406   -4627.5245    79.569463 
   80600    1945.4856   -109.98197    1.7603162   -108.22165   -10830.658    4.2911683    4.2911683    4.2911683   -10830.658   -39404.729     19375.02   -12462.266   -17111.627   -28603.611   -11878.899    79.018111 
   80700    1147.9524   -109.27783    1.0386914   -108.23913    2051.4945    4.2675663    4.2675663    4.2675663    2051.4945   -46689.007    67558.329   -14714.838   -16971.071   -77463.259    6360.5509    77.721438 
   80800    1973.5364   -110.02821    1.7856972   -108.24252    17082.207    4.2663681    4.2663681    4.2663681    17082.207   -23518.723    20180.737    54584.605    38542.667    31488.605    -9732.273    77.655992 
   80900    1470.8158   -109.59684    1.3308251   -108.26602    4184.6201    4.2844851    4.2844851    4.2844851    4184.6201   -21718.894    33361.631    911.12246    7086.5734   -51975.925    7009.1066    78.649487 
   81000    1543.5193   -109.65022    1.3966087   -108.25362   -19511.401    4.2999686    4.2999686    4.2999686   -19511.401   -27055.563    29156.115   -60634.756   -9399.9108   -47775.986    15997.667    79.505261 
   81100    1865.9777   -109.92183    1.6883759   -108.23345   -15096.789    4.2903596    4.2903596    4.2903596   -15096.789   -45594.572   -1459.3539    1763.5588    22856.037    11095.454   -13388.692    78.973445 
   81200    825.86011   -108.99367   0.74725558   -108.24641   -5079.5429    4.2744999    4.2744999    4.2744999   -5079.5429   -3565.9817    57082.525   -68755.172    9635.7811     -94709.2    6513.9389    78.100879 
   81300    2169.5736   -110.20429    1.9630758   -108.24122   -5206.6225    4.2736508    4.2736508    4.2736508   -5206.6225   -2876.3907    14549.776   -27293.253   -16668.811    2727.9815    22210.395    78.054348 
   81400    1463.7014   -109.58378    1.3243878   -108.25939    12807.499    4.2782588    4.2782588    4.2782588    12807.499   -8520.4706    11282.015    35660.952     15543.83   -18686.598    1419.0059    78.307103 
   81500    970.30482   -109.14416   0.87795219   -108.26621    120.96868    4.2992698    4.2992698    4.2992698    120.96868   -38569.497    36040.271    2892.1318    16257.184   -84096.683    6820.8839    79.466502 
   81600    2239.2105   -110.23953    2.0260847   -108.21345   -29329.051    4.3140009    4.3140009    4.3140009   -29329.051   -40181.934   -34374.867   -13430.354   -16602.435    50357.298    1975.3797    80.286162 
   81700    1094.8432   -109.21737   0.99063709   -108.22673   -4522.5611    4.2878731    4.2878731    4.2878731   -4522.5611   -58221.348    22570.013    22083.651    18764.235   -26456.002   -600.76016    78.836216 
   81800     1975.727   -110.00034    1.7876793   -108.21266    27135.807    4.2660756    4.2660756    4.2660756    27135.807    686.01674    30679.687    50041.717    4886.4529   -52943.527   -8541.4233    77.640021 
   81900    1742.1259   -109.81116    1.5763121   -108.23485    -15869.53    4.2803488    4.2803488    4.2803488    -15869.53   -33566.478   -16408.528    2366.4143    -37751.03    46764.299    13276.063    78.421923 
   82000    1570.2781   -109.67351    1.4208206   -108.25269   -4283.8369    4.2877215    4.2877215    4.2877215   -4283.8369   -25403.671    18782.954   -6230.7936    30504.966   -10813.467    5133.3732    78.827853 
   82100    2069.4873   -110.11139    1.8725156   -108.23887    -8344.557    4.3018571    4.3018571    4.3018571    -8344.557    7219.4739   -35848.725    3595.5798   -14526.451   -15535.789   -6746.7301    79.610057 
   82200    1359.0758   -109.46642    1.2297204    -108.2367   -11296.646    4.2963197    4.2963197    4.2963197   -11296.646   -20740.512   -39039.946    25890.519   -78615.479    23864.696    8443.3364     79.30303 
   82300    2419.3236   -110.39883    2.1890548   -108.20978    19128.505    4.2713406    4.2713406    4.2713406    19128.505    23204.022    38841.828   -4660.3347    44211.555    -22586.46   -4654.8286    77.927835 
   82400    1351.9775   -109.46595    1.2232976   -108.24265   -14869.849    4.2773843    4.2773843    4.2773843   -14869.849   -35676.909   -62215.234    53282.595   -72538.535   -3031.2159   -6943.3461    78.259091 
   82500    1457.0014   -109.57332    1.3183255     -108.255   -12432.638     4.278632     4.278632     4.278632   -12432.638   -8925.8422   -71002.376    42630.304   -65561.263    752.99849   -67.469105    78.327596 
   82600    2350.6545   -110.37323    2.1269216   -108.24631   -224.14127    4.2841482    4.2841482    4.2841482   -224.14127    19030.504    -19771.69    68.761797    28715.924   -3753.5709    25642.611     78.63094 
   82700    897.00438   -109.06959   0.81162841   -108.25796   -33554.836    4.2997458    4.2997458    4.2997458   -33554.836   -63417.622    -66572.25    29325.364   -97980.689   -3440.8577    6509.0172    79.492901 
   82800    1792.1166   -109.86384    1.6215448   -108.24229   -4035.2726    4.2840629    4.2840629    4.2840629   -4035.2726   -16710.575   -23594.713    28199.471   -12259.613   -10120.716   -18323.123    78.626239 
   82900    1579.2432   -109.67181    1.4289324   -108.24288    23433.714    4.2676145    4.2676145    4.2676145    23433.714    26083.528   -8972.6693    53190.284    22700.751    4042.0779    19574.265    77.724074 
   83000    1354.5134   -109.48759    1.2255922     -108.262   -5300.0648    4.2772834    4.2772834    4.2772834   -5300.0648   -34173.058   -27782.232    46055.096   -73191.281   -12754.705    19236.595    78.253557 
   83100    1777.8119   -109.86455    1.6086016   -108.25595   -9133.2582    4.2894379    4.2894379    4.2894379   -9133.2582   -49671.904   -13112.578    35384.706     2177.797   -16699.303   -32874.353     78.92256 
   83200    1123.7968   -109.27752    1.0168349   -108.26068   -9128.3292    4.2901085    4.2901085    4.2901085   -9128.3292   -15574.636   -62895.971    51085.619     36008.48    9521.9329    974.46613    78.959579 
   83300    2004.1981    -110.0575    1.8134405   -108.24406    614.76574    4.2810823    4.2810823    4.2810823    614.76574   -5039.7116   -24658.227    31542.236   -24672.394   -6289.6661    34326.007    78.462247 
   83400    1795.5365    -109.8748    1.6246392   -108.25016    8867.4494    4.2768745    4.2768745    4.2768745    8867.4494   -11883.577    13631.758    24854.167    16462.546   -11373.955   -34587.639    78.231116 
   83500    882.96711   -109.07405    0.7989272   -108.27512   -20318.671    4.2836358    4.2836358    4.2836358   -20318.671   -18308.941     -75890.2     33243.13    47741.401   -1005.9782   -13695.311    78.602729 
   83600    2211.3472   -110.25656    2.0008734   -108.25569    6729.3075    4.2810747    4.2810747    4.2810747    6729.3075   -8575.6563   -3451.2123    32214.791   -4959.4442    3271.1154    33323.223    78.461824 
   83700    1661.0735   -109.76889    1.5029742   -108.26592    -11507.49     4.282696     4.282696     4.282696    -11507.49   -48164.366    30070.286    -16428.39   -942.37087    9411.7363   -9189.4973    78.551003 
   83800     1046.395   -109.22124   0.94680023   -108.27444   -19534.718    4.2849274    4.2849274    4.2849274   -19534.718   -4242.7762   -48040.775    -6320.603    28856.514   -11181.364   -51401.975    78.673849 
   83900    2582.0958   -110.57775    2.3363346   -108.24142   -6445.1962    4.2871143    4.2871143    4.2871143   -6445.1962   -30022.985    32782.961   -22095.565   -5898.2748     16168.45    17230.037    78.794369 
   84000    1055.7905   -109.20222   0.95530144   -108.24692   -36842.612    4.3069492    4.3069492    4.3069492   -36842.612   -26445.052   -20538.013   -63544.772    252.22813      28876.7   -21232.711    79.893096 
   84100    1587.2207   -109.65329    1.4361506   -108.21714   -17102.955    4.2937504    4.2937504    4.2937504   -17102.955    36510.438   -55627.401   -32191.903    12818.168   -15489.305    -49818.36    79.160839 
   84200      1738.08   -109.77968    1.5726513   -108.20703    5427.1686    4.2773888    4.2773888    4.2773888    5427.1686    13828.686    39945.598   -37492.778   -6379.4522    39972.352      38199.6    78.259339 
   84300      1224.43   -109.34151      1.10789   -108.23362   -22575.822     4.286534     4.286534     4.286534   -22575.822   -10418.068    11051.951   -68361.348    1944.5805    31360.379   -11360.636    78.762375 
   84400    2298.0604   -110.30031    2.0793333   -108.22098    7279.4902    4.2846955    4.2846955    4.2846955    7279.4902    34654.982   -7607.8829   -5208.6283    11019.629   -22828.177   -22669.005    78.661079 
   84500    1203.4831   -109.33457    1.0889368   -108.24563   -38631.709    4.2996158    4.2996158    4.2996158   -38631.709   -3788.9022   -27012.572   -85093.651   -7884.2656    50190.272    55532.595    79.485689 
   84600    1698.3889   -109.77989     1.536738   -108.24315   -32475.075     4.290176     4.290176     4.290176   -32475.075   -14814.401   -28498.652   -54112.171     10865.72   -11320.327   -8101.6486    78.963308 
   84700    1998.9495   -110.04606    1.8086916   -108.23737    11586.107    4.2717825    4.2717825    4.2717825    11586.107    40560.478   -23235.327    17433.172    9652.3652   -30299.998    -7402.414    77.952024 
   84800    1320.8933   -109.45719     1.195172   -108.26202   -9911.2587     4.280902     4.280902     4.280902   -9911.2587    54372.821    -44192.18   -39914.417   -20840.137    40187.515    58210.822     78.45233 
   84900    1890.2867   -109.96117    1.7103711    -108.2508   -7800.7684    4.2975343    4.2975343    4.2975343   -7800.7684    9759.2336   -27092.962   -6068.5766    792.11556    12572.256   -31477.609    79.370304 
   85000    1440.9167   -109.53996    1.3037717   -108.23619    -31375.56     4.312014     4.312014     4.312014    -31375.56     6214.271   -75271.085   -25069.866    3900.4872    -25498.81    18386.841    80.175281 
   85100    1802.8562   -109.84688    1.6312622   -108.21562   -26437.101    4.2928598    4.2928598    4.2928598   -26437.101    5095.8479   -60960.847   -23446.305   -25619.579    15887.268    57676.401    79.111588 
   85200    1935.3736   -109.96188    1.7511667   -108.21072    18854.877    4.2639669    4.2639669    4.2639669    18854.877    35157.917    17523.373    3883.3425    45488.067   -7746.1682   -54267.679    77.524949 
   85300    1343.7991   -109.46757    1.2158977   -108.25167   -9112.1606    4.2652938    4.2652938    4.2652938   -9112.1606    21110.128   -30720.283   -17726.327   -1699.0224   -23713.382    12533.157    77.597343 
   85400    1861.3506   -109.95397    1.6841891   -108.26978   -4853.4121    4.2867354    4.2867354    4.2867354   -4853.4121    12752.175    1679.0191   -28991.431   -25295.206     839.9643    51719.995     78.77348 
   85500    1929.6251   -110.00568    1.7459654   -108.25972   -33425.227    4.3012111    4.3012111    4.3012111   -33425.227   -21227.542   -50272.487   -28775.652    53833.845    4643.3126   -38552.718    79.574198 
   85600     1424.522   -109.54499    1.2889374   -108.25606    8630.4267    4.2833911    4.2833911    4.2833911    8630.4267    40154.502    5491.9428   -19755.165   -418.26474    -6932.909    8921.9644    78.589259 
   85700    2122.0183   -110.15237    1.9200468   -108.23233    11721.745    4.2775976    4.2775976    4.2775976    11721.745    29183.803    19288.807   -13307.376   -4117.6136   -927.20322    39845.023      78.2708 
   85800    1321.7415   -109.44374    1.1959395    -108.2478    1614.1699    4.2867461    4.2867461    4.2867461    1614.1699    -28722.31   -3099.2167    36664.036    53522.423    25934.569   -36076.887    78.774072 
   85900     2185.684   -110.20086    1.9776528    -108.2232    5534.9285    4.3008676    4.3008676    4.3008676    5534.9285   -19940.032    17243.661    19301.156   -29733.711   -12290.955    3708.6889    79.555134 
   86000    1983.2265   -110.00391    1.7944651   -108.20945   -34272.481    4.3112883    4.3112883    4.3112883   -34272.481    -47826.59   -8118.5823   -46872.271    27741.451    11327.272    12831.171    80.134809 
   86100    1442.6859    -109.5354    1.3053726   -108.23003   -12501.253    4.2824763    4.2824763    4.2824763   -12501.253   -53660.012   -13085.306    29241.558    58713.829    24591.746   -5830.8344    78.538918 
   86200    2310.4853    -110.3019    2.0905757   -108.21132    43573.347    4.2551979    4.2551979    4.2551979    43573.347    36833.477    32931.873    60954.691   -73639.689   -5184.6486     5454.038     77.04763 
   86300    2046.0495   -110.09739    1.8513085   -108.24608   -3163.2907    4.2727341    4.2727341    4.2727341   -3163.2907   -27168.334   -4569.2295    22247.691    24718.185    5306.0372    3224.7672    78.004131 
   86400    1116.6978   -109.28354    1.0104116   -108.27313    5480.2109    4.2877015    4.2877015    4.2877015    5480.2109   -12800.736    8072.9906    21168.378    73727.835     22585.11   -4380.2154    78.826752 
   86500    2385.9551   -110.41516    2.1588623    -108.2563    910.36892    4.2973819    4.2973819    4.2973819    910.36892   -7201.4818   -6109.8623    16042.451   -34978.479   -3345.7003    -3626.917    79.361862 
   86600    1824.3708   -109.91498     1.650729   -108.26425   -5360.9216    4.2848038    4.2848038    4.2848038   -5360.9216   -30211.837    -21987.27    36116.342     54177.74     -464.466   -3198.6286    78.667039 
   86700    989.86282   -109.16189   0.89564868   -108.26624    32830.381    4.2615662    4.2615662    4.2615662    32830.381   -18775.723    63794.699    53472.166    63870.422     31901.65    2672.3109    77.394077 
   86800    2142.3022   -110.19696    1.9384001   -108.25856    12097.265    4.2734232    4.2734232    4.2734232    12097.265    -5120.303    33321.484    8090.6147   -28668.789    9736.7532   -519.92936     78.04188 
   86900    1464.4562   -109.58942    1.3250708   -108.26435   -9167.5551    4.2876941    4.2876941    4.2876941   -9167.5551   -30841.973   -36623.524    39962.832    63571.746   -19504.132    4364.2756    78.826342 
   87000    1651.7449   -109.74683    1.4945335    -108.2523   -1522.5635    4.2934262    4.2934262    4.2934262   -1522.5635   -15978.548   -2637.5014    14048.359    29897.054    32483.653    4838.9781     79.14291 
   87100    1915.5324   -109.97054     1.733214   -108.23733   -25535.735    4.2956521    4.2956521    4.2956521   -25535.735   -65652.615   -9160.4406   -1794.1502    4721.1764    31793.457   -4244.2995    79.266064 
   87200    846.97966   -109.01305     0.766365   -108.24668   -6290.8523    4.2758567    4.2758567    4.2758567   -6290.8523   -58970.306   -46539.533    86637.283    101382.85   -20317.772    4736.3801    78.175278 
   87300    2396.0687   -110.39964    2.1680133   -108.23163    24462.807    4.2718656    4.2718656    4.2718656    24462.807    19826.051    30346.887    23215.483   -26404.124    5575.8258   -1768.0847    77.956573 
   87400    1203.6769   -109.34581    1.0891121    -108.2567    -15278.81    4.2941252    4.2941252    4.2941252    -15278.81   -46347.916   -67589.677    68101.164    57611.123    17821.904     1555.745    79.181568 
   87500    1148.2249   -109.28385     1.038938   -108.24491   -12215.095    4.2939012    4.2939012    4.2939012   -12215.095   -25020.711   -53497.588    41873.014    66516.563   -959.66925    1332.4127    79.169181 
   87600    2250.2178   -110.25306    2.0360444   -108.21702   -11802.529    4.2906759    4.2906759    4.2906759   -11802.529    20847.984   -48438.012   -7817.5601   -26759.212   -19266.362    11151.337    78.990911 
   87700    739.98868   -108.91979   0.66955731   -108.25024   -22811.308    4.2809445    4.2809445    4.2809445   -22811.308   -29822.072    -106955.4    68343.544    91518.834    10812.594    2594.8316     78.45467 
   87800    1751.5185    -109.8349    1.5848108   -108.25009    22876.293    4.2630869    4.2630869    4.2630869    22876.293    44693.427   -26661.767    50597.217    7134.2114    16052.565    1293.2677    77.476958 
   87900    1950.4744   -110.02416    1.7648302   -108.25933    14011.972    4.2744502    4.2744502    4.2744502    14011.972    34405.651   -28382.225    36012.491    17504.193    14915.048   -8638.7474    78.098155 
   88000    1433.1721   -109.55726    1.2967643    -108.2605   -20316.919    4.2975903    4.2975903    4.2975903   -20316.919   -4907.0071   -86624.568    30580.818    77346.737   -6583.0986    5224.2602    79.373409 
   88100    1888.2537   -109.94311    1.7085316   -108.23458   -6694.3906     4.295665     4.295665     4.295665   -6694.3906   -25931.335   -6219.7064     12067.87   -42450.502    22251.965    9236.3224    79.266778 
   88200    1516.6335   -109.60782    1.3722819   -108.23553    17188.186    4.2768474    4.2768474    4.2768474    17188.186     5462.834    32345.566    13756.158    26343.382    27858.914   -15052.145    78.229627 
   88300    1944.5957   -110.00391    1.7595111   -108.24439    2068.1199    4.2712372    4.2712372    4.2712372    2068.1199    22276.419   -22099.776    6027.7168     64423.58   -17029.308    905.71612    77.922177 
   88400    2008.0921   -110.07289    1.8169639   -108.25592    22011.113    4.2729517    4.2729517    4.2729517    22011.113     8391.689    45250.244    12391.407   -33230.714    23803.966     18825.58    78.016046 
   88500     1708.757   -109.82002    1.5461193    -108.2739   -2308.6258    4.2888052    4.2888052    4.2888052   -2308.6258   -8729.3542    21053.681   -19250.204    16606.633    37177.949   -18840.235     78.88764 
   88600    2184.3223   -110.22404    1.9764207   -108.24762   -16074.684    4.2964835    4.2964835    4.2964835   -16074.684    7010.7563   -29552.394   -25682.415     41262.93   -13366.724    2795.4649    79.312102 
   88700     1686.421   -109.76326    1.5259092   -108.23735     20014.48    4.2831552    4.2831552    4.2831552     20014.48    16090.395    50702.292   -6749.2467   -27067.364    27384.224    44138.721    78.576272 
   88800    2016.9773   -110.05808    1.8250035   -108.23308    6971.6718    4.2850096    4.2850096    4.2850096    6971.6718   -1765.0841    31980.238   -9300.1384    24103.155    30920.319   -12193.932    78.678377 
   88900    2165.1281   -110.18492    1.9590534   -108.22586   -11749.141    4.2924867    4.2924867    4.2924867   -11749.141    7527.4505    -38732.34   -4042.5335    22891.252   -15547.596    18187.107    79.090965 
   89000    1532.1191   -109.62511    1.3862935   -108.23882    2418.8385    4.2846415    4.2846415    4.2846415    2418.8385    31041.378     6657.078    -30441.94   -28512.586     26975.35    44230.743    78.658103 
   89100    2282.7965   -110.29728    2.0655222   -108.23176   -3543.5812    4.2836453    4.2836453    4.2836453   -3543.5812    3290.0078    5450.0162   -19370.768     20016.52    18456.276   -21266.321    78.603253 
   89200     1428.502   -109.53687    1.2925386   -108.24433   -23397.121    4.2869494    4.2869494    4.2869494   -23397.121    22535.393   -49144.643   -43582.112   -1532.4683   -11765.737    48518.736    78.785279 
   89300    1641.0826    -109.7281     1.484886   -108.24321    638.59382    4.2862545    4.2862545    4.2862545    638.59382    36025.458   -8613.7119   -25495.965   -28968.234    9585.2433    48802.689    78.746974 
   89400    2341.8797   -110.35422     2.118982   -108.23524   -16658.732    4.2890503    4.2890503    4.2890503   -16658.732   -252.39227   -15642.984   -34080.819     16716.73    2758.4488   -48031.342    78.901168 
   89500    784.07472   -108.97758   0.70944728   -108.26814   -8044.7397    4.2774715    4.2774715    4.2774715   -8044.7397    54204.594   -2757.6737   -75581.139   -2576.1688    68.356015    56661.768    78.263878 
   89600     1764.474   -109.86704    1.5965332   -108.27051    10592.662    4.2707181    4.2707181    4.2707181    10592.662    57238.622    10078.501   -35539.137   -8882.0872    -5738.701    55308.263    77.893769 
   89700    2363.8124   -110.39846    2.1388271   -108.25963    6187.4109    4.2804057    4.2804057    4.2804057    6187.4109   -3693.0594    47618.211   -25362.919    11903.756   -4145.7972   -28366.233    78.425048 
   89800    997.06478   -109.18455   0.90216516   -108.28239   -24888.123    4.2882861    4.2882861    4.2882861   -24888.123     57968.82   -52042.379    -80590.81    9659.0373    5426.3295    68619.868    78.858996 
   89900    2133.1913   -110.19066    1.9301563   -108.26051   -5605.8262    4.2825779    4.2825779    4.2825779   -5605.8262    51498.326   -28167.278   -40148.527    2699.9661   -12452.706    6916.5426    78.544508 
   90000    1879.4409   -109.95527    1.7005576   -108.25471   -4846.5661    4.2828803    4.2828803    4.2828803   -4846.5661   -1220.3438   -6900.7006   -6418.6538   -22987.421    8554.8589    19917.407    78.561146 
   90100     581.5954   -108.80469   0.52623974   -108.27845   -22035.843    4.2852216    4.2852216    4.2852216   -22035.843    73671.747   -98180.265   -41599.012    13049.163   -209.55492    81316.718    78.690059 
   90200    2546.1593   -110.54957    2.3038185   -108.24575    2590.6217    4.2856642    4.2856642    4.2856642    2590.6217    49324.969    -15657.79   -25895.314    13427.628   -502.26971   -21241.485    78.714439 
   90300    1645.4226   -109.74593    1.4888129   -108.25711   -14018.809     4.290212     4.290212     4.290212   -14018.809     48172.04   -72155.849   -18072.617   -23625.392    7292.0965    38285.067    78.965294 
   90400    975.17095   -109.14294   0.88235517   -108.26058   -568.89869    4.2851822    4.2851822    4.2851822   -568.89869    78395.557   -48681.085   -31421.168    8666.4577    -2747.839    70193.367    78.687888 
   90500    2524.3538   -110.51635    2.2840884   -108.23226    14641.035     4.283498     4.283498     4.283498    14641.035    24909.816    30913.177   -11899.888    11979.868    8978.0831   -21026.138    78.595141 
   90600    822.25535    -109.0039   0.74399392    -108.2599   -3162.9785    4.2895471    4.2895471    4.2895471   -3162.9785    60409.175   -7411.1806    -62486.93    5147.7368   -6880.6733    75258.304    78.928584 
   90700    1759.7706   -109.84086    1.5922774   -108.24858   -353.47468    4.2917632    4.2917632    4.2917632   -353.47468    26121.587    17410.543   -44592.554   -15656.083   -1044.8704    10307.503    79.050979 
   90800    2548.7105   -110.53004    2.3061269   -108.22391   -4372.6108    4.2877828    4.2877828    4.2877828   -4372.6108   -4224.7983    6032.2132   -14925.247    3415.1532    2398.4535    24702.788    78.831236 
   90900    1225.7307   -109.36044    1.1090669   -108.25137   -7515.0649    4.2814139    4.2814139    4.2814139   -7515.0649    32728.428   -28078.003   -27195.619    5953.9493   -1253.3395    84475.251    78.480479 
   91000    2076.7579   -110.12342    1.8790942   -108.24433    9698.5307    4.2725505    4.2725505    4.2725505    9698.5307      13721.3    31339.596   -15965.304   -16776.007   -2525.2704   -50483.604    77.994076 
   91100    1675.6585   -109.77178     1.516171   -108.25561    11949.789    4.2788142    4.2788142    4.2788142    11949.789    31415.646    555.96106    3877.7584    13956.306     11101.36    29294.774    78.337605 
   91200    1819.2125   -109.89579    1.6460617   -108.24973   -12383.214    4.2947924    4.2947924    4.2947924   -12383.214     15164.48   -22050.126   -30263.997    9846.9717    7590.6847    50917.572    79.218483 
   91300    1539.6359   -109.63717    1.3930949   -108.24407   -3314.6242    4.2890192    4.2890192    4.2890192   -3314.6242    14320.745   -4919.5761   -19345.042   -16690.083   -17154.109   -52350.929    78.899447 
   91400    1483.2007   -109.58888    1.3420311   -108.24684    19557.445    4.2763757    4.2763757    4.2763757    19557.445    40480.579     28026.23   -9834.4742   -977.59074    20730.208    2636.1861    78.203748 
   91500    2547.0548    -110.5462    2.3046288   -108.24157    3899.4473    4.2775516    4.2775516    4.2775516    3899.4473    3289.4961    25093.238   -16684.392    1695.4665    7127.7147    3592.1654    78.268275 
   91600    915.51612   -109.10157   0.82837822   -108.27319    10394.079    4.2813463    4.2813463    4.2813463    10394.079    61243.317   -19559.803   -10501.278   -3047.2762   -16606.082   -61728.286    78.476764 
   91700    1646.1057    -109.7485     1.489431   -108.25907   -9126.2603     4.296751     4.296751     4.296751   -9126.2603   -6202.4037      10196.2   -31372.577   -7847.2475    20428.712    2013.8048    79.326912 
   91800    2254.8826   -110.27225    2.0402652   -108.23198   -28756.852    4.3026477    4.3026477    4.3026477   -28756.852   -11287.089   -38865.092   -36118.375    3260.6713     15316.95    21475.144    79.653961 
   91900    1358.0327   -109.47418    1.2287765    -108.2454     9155.084    4.2759887    4.2759887    4.2759887     9155.084    59086.194   -36658.703    5037.7615   -1698.3223   -20942.838   -40114.693    78.182515 
   92000    2269.2819   -110.28676    2.0532939   -108.23347    31759.833    4.2648331    4.2648331    4.2648331    31759.833    44842.622    25840.379    24596.499    252.85981    -25707.05   -4829.1682    77.572202 
   92100    2002.6517   -110.06928    1.8120414   -108.25724    227.28649    4.2780187    4.2780187    4.2780187    227.28649    8236.9724   -38859.126    31304.013    10716.782    16817.318    43414.489    78.293918 
   92200    1488.0953   -109.61552    1.3464599   -108.26906    13505.872    4.2842383    4.2842383    4.2842383    13505.872    30709.706   -23312.311    33120.222   -686.65162   -10851.495   -24450.733      78.6359 
   92300    2315.4092   -110.34318    2.0950309   -108.24815    5490.3006    4.2947721    4.2947721    4.2947721    5490.3006    1899.1657    16833.108   -2261.3724   -1022.2984   -11910.591   -17892.403    79.217364 
   92400    1359.0552   -109.47558    1.2297017   -108.24588   -6542.1966    4.2946661    4.2946661    4.2946661   -6542.1966   -17265.255   -23081.721    20720.387    17359.027    16095.843    46206.479    79.211494 
   92500    1941.1979   -109.99182    1.7564366   -108.23538    11678.706     4.280836     4.280836     4.280836    11678.706   -11484.944    12360.267    34160.794   -6463.1977   -8528.5745   -9968.1168    78.448703 
   92600    2806.4898   -110.76625     2.539371   -108.22688    15012.163    4.2760903    4.2760903    4.2760903    15012.163   -1830.6376    37892.003    8975.1228     5768.152    328.59674   -1137.1207    78.188091 
   92700    761.26386   -108.95975   0.68880754   -108.27094   -10623.287    4.2852831    4.2852831    4.2852831   -10623.287   -12855.031   -40982.555    21967.724    22445.726    7118.5315    52081.995    78.693445 
   92800    2201.3082   -110.24374    1.9917899   -108.25195   -13051.206    4.2903951    4.2903951    4.2903951   -13051.206   -46747.143   -5825.0481    13418.573      2.05991    28106.975   -3753.8028    78.975403 
   92900    2071.8475   -110.11866    1.8746512   -108.24401   -2042.7135    4.2868268    4.2868268    4.2868268   -2042.7135    17881.008   -11400.779    -12608.37    3244.8278   -10872.737    13363.289    78.778517 
   93000    1058.1854    -109.2136    0.9574684   -108.25613   -15893.914    4.2855033    4.2855033    4.2855033   -15893.914   -2398.1572   -71802.939    26519.354    14613.888   -3401.8679    46979.652    78.705578 
   93100    2984.5877   -110.93048    2.7005177   -108.22996    12373.076    4.2788136    4.2788136    4.2788136    12373.076    9627.3385   -13976.464    41468.354   -3439.5204    19290.559   -25360.699    78.337569 
   93200    1339.1208   -109.47254    1.2116646   -108.26087    21232.584    4.2783576    4.2783576    4.2783576    21232.584    84011.329   -62110.879    41797.303    4837.0081   -14132.288    53270.659     78.31253 
   93300     1301.597    -109.4388    1.1777123   -108.26109   -20894.388    4.2906729    4.2906729    4.2906729   -20894.388    14756.051   -83008.005    5568.7896    1543.5508   -1298.7734    22634.708    78.990749 
   93400    2469.0555   -110.46427    2.2340533   -108.23021    1936.3008    4.2842614    4.2842614    4.2842614    1936.3008    13245.275    1260.0433   -8696.4161   -3976.7854    33087.371   -19864.329    78.637169 
   93500    1172.6222   -109.31067    1.0610132   -108.24966    2126.5414     4.277627     4.277627     4.277627    2126.5414    73289.346   -51214.048   -15695.674   -2640.2304     13853.67    63544.942    78.272415 
   93600    2000.0024   -110.05489    1.8096442   -108.24525   -3099.6247    4.2881736    4.2881736    4.2881736   -3099.6247    33832.843   -31199.427    -11932.29    12284.885   -8191.8675    6410.2717    78.852794 
   93700    2156.2489   -110.19077    1.9510193   -108.23975   -3286.8358    4.2885554    4.2885554    4.2885554   -3286.8358   -7322.3899    15391.718   -17929.835   -129.01106    15049.925     488.8142    78.873858 
   93800    765.98788   -108.95291   0.69308193   -108.25983   -3081.1837    4.2922367    4.2922367    4.2922367   -3081.1837    41605.256   -30002.119   -20846.688   -2809.8934    17983.159     61914.67    79.077144 
   93900    2554.2332   -110.54583    2.3111239    -108.2347   -7523.5934     4.290764     4.290764     4.290764   -7523.5934    12783.187   -24136.914   -11217.053    18961.468   -18902.155    3077.8608    78.995781 
   94000    1526.6659   -109.62596    1.3813594    -108.2446    29468.645    4.2786469    4.2786469    4.2786469    29468.645    53115.234    41379.083   -6088.3809   -12039.227     21681.99    6522.9384    78.328414 
   94100     1407.636   -109.52629    1.2736586   -108.25264   -2648.5416    4.2939589    4.2939589    4.2939589   -2648.5416     64851.11   -28329.256   -44467.479   -26677.291    18514.976    38598.213     79.17237 
   94200    2878.2219    -110.8191    2.6042757   -108.21482    1615.4281    4.3012168    4.3012168    4.3012168    1615.4281    48191.246    -36087.87   -7257.0919    16305.655   -28888.438    -23306.54    79.574515 
   94300    1199.1363    -109.3329    1.0850037   -108.24789     4167.454    4.2865785    4.2865785    4.2865785     4167.454    8342.2695    14062.448   -9902.3552    672.70484    33008.669     29615.93    78.764829 
   94400    1860.5476   -109.93009    1.6834626   -108.24662    3808.3757    4.2824589    4.2824589    4.2824589    3808.3757    12909.327   -9457.0106     7972.811   -2947.1156    13172.512    40793.574    78.537958 
   94500    2461.5962   -110.45863    2.2273039   -108.23133   -8313.0993    4.2972714    4.2972714    4.2972714   -8313.0993   -7526.3573   -7315.8368   -10097.104    14684.898   -15865.178   -15793.612    79.355742 
   94600     767.9158   -108.91056   0.69482635   -108.21574   -14618.911    4.3176766    4.3176766    4.3176766   -14618.911   -13141.604    16667.074   -47382.203   -6309.1841    42054.262    41799.347    80.491557 
   94700    2717.5707   -110.60654    2.4589151   -108.14763   -29897.061     4.317875     4.317875     4.317875   -29897.061   -41581.684   -8950.6969   -39158.802    7302.0746   -15629.999   -15988.273    80.502654 
   94800    808.34007   -108.91146   0.73140309   -108.18006   -51760.328    4.3042524    4.3042524    4.3042524   -51760.328   -26580.909   -36305.751   -92394.323    1403.5904    5138.7105    15258.443    79.743116 
   94900    2386.9302   -110.33873    2.1597446   -108.17899    11706.103    4.2619983    4.2619983    4.2619983    11706.103    21247.125    15412.201   -1541.0166    -5143.382    30055.409    18864.062    77.417619 
   95000    1269.9362   -109.36767    1.1490649   -108.21861    29372.903    4.2571709    4.2571709    4.2571709    29372.903    17974.292    35052.834    35091.583   -2911.0014    -49989.87   -2732.8783    77.154856 
   95100    1526.6064   -109.63579    1.3813055   -108.25449   -29466.318    4.2974037    4.2974037    4.2974037   -29466.318   -31831.493   -3741.8377   -52825.623    7249.9593   -3192.5413   -6726.3923    79.363069 
   95200    2355.9261   -110.33762    2.1316914   -108.20593   -35752.653     4.326448     4.326448     4.326448   -35752.653   -29397.014   -30398.524   -47462.421   -2515.9678    8478.4816    1199.5448     80.98311 
   95300    446.66842   -108.60419   0.40415497   -108.20003   -32664.422    4.3259438    4.3259438    4.3259438   -32664.422    -64824.99    -5777.708   -27390.569   -4398.4601   -35501.223   -16751.234    80.954804 
   95400    2590.0716   -110.51697    2.3435512   -108.17342    3910.6278    4.2780143    4.2780143    4.2780143    3910.6278    14999.624    1817.6195   -5085.3601    21422.696    12699.552     8091.559    78.293678 
   95500    947.35176      -109.04   0.85718378   -108.18282    42417.972    4.2419467    4.2419467    4.2419467    42417.972    60344.371    43480.156    23429.389   -35971.444    1121.8742    7834.2149    76.330064 
   95600    1312.2648   -109.43925    1.1873648   -108.25189   -10581.479    4.2782615    4.2782615    4.2782615   -10581.479   -22286.066     6559.789    -16018.16   -10535.512   -32600.788   -7099.1477    78.307253 
   95700    2229.7256    -110.2376    2.0175026    -108.2201    -27968.15    4.3133839    4.3133839    4.3133839    -27968.15    13996.328   -71328.827   -26571.952    26284.917    11090.047    10066.722    80.251719 
   95800    884.18011   -109.02892   0.80002474    -108.2289   -42384.555    4.3116304    4.3116304    4.3116304   -42384.555   -68939.932   -41842.579   -16371.152   -35301.181    2468.6703    9812.7259    80.153883 
   95900    2138.1218   -110.14345    1.9346175   -108.20883    5522.2209    4.2743112    4.2743112    4.2743112    5522.2209    3632.8801    5631.6858     7302.097   -7199.0559   -16668.434   -6525.3199    78.090537 
   96000    1193.7492   -109.30778    1.0801294   -108.22765    4297.8906    4.2529598    4.2529598    4.2529598    4297.8906    37594.209   -58593.327     33892.79    57085.692    1044.4344    5796.2768     76.92612 
   96100    1463.8737   -109.59058    1.3245437   -108.26604    973.51754    4.2678382    4.2678382    4.2678382    973.51754   -9173.2737   -13828.487    25922.313   -5677.2743    15296.879    19714.049    77.736293 
   96200    2328.6537   -110.35815    2.1070148   -108.25114   -16816.375    4.2976996    4.2976996    4.2976996   -16816.375    -21822.58   -27258.154    -1368.391    4096.5496    9962.1921   -16245.603    79.379466 
   96300    780.81127   -108.95378   0.70649444   -108.24729   -21322.358    4.3053961    4.3053961    4.3053961   -21322.358   -14906.034   -71014.621    21953.579    50930.509   -6807.6183    1673.5363    79.806697 
   96400    2376.1062   -110.36506    2.1499508   -108.21511   -3975.7127    4.2881368    4.2881368    4.2881368   -3975.7127   -5338.7743    1230.0244    -7818.388   -11450.093    7492.3722    15137.964    78.850763 
   96500    1554.9711   -109.63882    1.4069706   -108.23185    11169.927    4.2676413    4.2676413    4.2676413    11169.927   -47041.361   -4593.4378    85144.579    24367.193    7111.2399   -4767.1323    77.725537 
   96600    920.41942   -109.09482   0.83281484     -108.262    2483.6389    4.2653726    4.2653726    4.2653726    2483.6389   -45821.602   -3031.4307     56303.95    57284.389   -4076.1821   -23515.772    77.601645 
   96700    2802.9506   -110.78333    2.5361686   -108.24716   -1144.7215    4.2845875    4.2845875    4.2845875   -1144.7215   -17258.564    37538.905   -23714.506   -14372.108   -14588.921     616.6635     78.65513 
   96800    1225.3921   -109.36841    1.1087606   -108.25965   -18625.271    4.2999287    4.2999287    4.2999287   -18625.271   -74051.931   -25549.121    43725.239    39049.324   -456.43355    8714.4164    79.503045 
   96900    1766.3806   -109.83192    1.5982583   -108.23366   -19546.561     4.293716     4.293716     4.293716   -19546.561    -68600.02    -37248.67    47209.007    37451.881     15.21092   -20964.197    79.158937 
   97000    2436.1154    -110.4132    2.2042484   -108.20895    5791.7173    4.2733668    4.2733668    4.2733668    5791.7173    9731.6724    33904.906   -26261.426   -16531.161   -11091.786    32168.519    78.038789 
   97100    1092.6161   -109.23409   0.98862204   -108.24547   -9808.9143    4.2694785    4.2694785    4.2694785   -9808.9143   -23314.556   -42108.981    35996.793    50381.457   -7569.7413    27907.413     77.82596 
   97200    2437.9051   -110.44406    2.2058677   -108.23819    -7383.959    4.2830827    4.2830827    4.2830827    -7383.959   -28925.103   -3880.9541     10654.18    23034.645    15506.151   -22719.425    78.572285 
   97300    1574.4354   -109.66276    1.4245822   -108.23818   -31789.621    4.3068063    4.3068063    4.3068063   -31789.621    4058.1125   -34428.784   -64998.192   -8547.3067    3283.4892    60218.485    79.885142 
   97400    1550.9905   -109.61446    1.4033688    -108.2111   -16821.771    4.3037253    4.3037253    4.3037253   -16821.771   -27185.286   -22399.545    -880.4815    39481.985   -3012.5096     16823.26    79.713822 
   97500    2128.9177   -110.12511    1.9262894   -108.19882   -2410.0108    4.2780587    4.2780587    4.2780587   -2410.0108   -2660.7601   -3333.1139   -1236.1584    6740.9041    3290.5424   -2345.4825    78.296114 
   97600    990.99217   -109.11945   0.89667054   -108.22278   -8627.2068     4.267288     4.267288     4.267288   -8627.2068    46317.774   -36387.652   -35811.742   -6441.2334   -1877.4752    60602.686    77.706237 
   97700    1994.2383   -110.03797    1.8044287   -108.23354    254.45336    4.2714758    4.2714758    4.2714758    254.45336    6716.9524    -40370.06    34416.468    52800.029    1753.9775    3448.9924    77.935233 
   97800    1279.8971   -109.41702    1.1580778   -108.25894    3441.6672    4.2896196    4.2896196    4.2896196    3441.6672    18735.744    12787.211   -21197.953    6623.5524    560.17989   -11132.723    78.932586 
   97900    1350.6663   -109.46888    1.2221112   -108.24677   -29840.578    4.2991143    4.2991143    4.2991143   -29840.578    16943.941   -50898.252   -55567.423   -7507.3689    1818.3478    35172.291    79.457881 
   98000    1883.5046   -109.92897    1.7042345   -108.22474   -7809.8471    4.2795964    4.2795964    4.2795964   -7809.8471   -11207.091   -51284.697    39062.246   -6949.8814   -5721.4938   -4075.5837    78.380573 
   98100    878.87334   -109.03756   0.79522307   -108.24233   -11934.504     4.270959     4.270959     4.270959   -11934.504      33422.9   -30086.053   -39140.361    6398.3244   -1635.7783   -34889.235    77.906949 
   98200    1880.5857    -109.9364    1.7015935    -108.2348    12050.071    4.2774591    4.2774591    4.2774591    12050.071    14560.646    14910.258    6679.3082   -7697.3193    627.99614    3800.6956    78.263197 
   98300    1264.6222   -109.38853    1.1442567   -108.24427    46.197344    4.2891561    4.2891561    4.2891561    46.197344   -31993.421   -8042.4977    40174.511   -42085.956     998.5305    2551.6555    78.907003 
   98400    1570.9879   -109.65686    1.4214629    -108.2354   -22030.612    4.2968517    4.2968517    4.2968517   -22030.612     8563.026   -33586.848   -41068.013    22756.072   -3301.2578   -16764.523    79.332492 
   98500    1767.2682   -109.82462    1.5990614   -108.22556   -6271.9143     4.282176     4.282176     4.282176   -6271.9143   -33020.939   -40544.452    54749.649   -49431.296   -11777.108    -3980.945    78.522398 
   98600    844.78846   -109.00566   0.76438235   -108.24128    13305.032    4.2658647    4.2658647    4.2658647    13305.032   -32083.447   -10628.891    82627.435   -48808.117    6178.3757    20784.225    77.628506 
   98700    2331.5801   -110.34404    2.1096626   -108.23438    12479.922     4.272371     4.272371     4.272371    12479.922    14942.838    27956.105   -5459.1758     39072.85     -5235.86    9127.9081    77.984244 
   98800    1391.4391   -109.51457    1.2590034   -108.25557   -17750.329    4.2865128    4.2865128    4.2865128   -17750.329   -49299.851   -52481.031    48529.897    -90414.46   -3204.0036   -16732.409     78.76121 
   98900    1604.5953   -109.69504    1.4518716   -108.24317   -6605.6375    4.2884736    4.2884736    4.2884736   -6605.6375   -27109.728   -50989.571    58282.386   -16555.503     9146.894    28002.041    78.869341 
   99000    2223.8361    -110.2317    2.0121736   -108.21952    10157.616    4.2832223    4.2832223    4.2832223    10157.616    22683.556   -4231.5466    12020.838    2382.6993   -5840.6619    4825.8695    78.579967 
   99100    1185.2089   -109.31302    1.0724019   -108.24061   -11045.343    4.2801473    4.2801473    4.2801473   -11045.343   -21315.266   -45059.178    33238.415   -111470.96    4904.8833   -21772.855    78.410849 
   99200     2679.441    -110.6489    2.4244145   -108.22448    20226.707    4.2684887    4.2684887    4.2684887    20226.707    39213.302    14179.767    7287.0527    26950.367   -1945.4785    17465.907    77.771846 
   99300    1411.5837   -109.53175    1.2772306   -108.25452    6513.3409    4.2767408    4.2767408    4.2767408    6513.3409   -18141.033   -20018.919    57699.975   -77412.259    376.57257    7066.5675    78.223777 
   99400    1865.7116   -109.92573    1.6881351   -108.23759   -24411.961    4.2964644    4.2964644    4.2964644   -24411.961   -57509.878    -17863.51    2137.5049   -47271.295    12451.413   -15466.901    79.311041 
   99500    2265.3304   -110.27078    2.0497186   -108.22106   -7525.6125    4.2860964    4.2860964    4.2860964   -7525.6125    11992.328   -1857.0948   -32712.071    7031.5406   -1824.3982   -4653.7061     78.73826 
   99600    1192.7315   -109.30891    1.0792086    -108.2297   -564.25187    4.2729278    4.2729278    4.2729278   -564.25187   -40522.983   -21903.794    60734.022   -107082.56   -4525.6917    18418.132    78.014742 
   99700    2338.4502   -110.33449    2.1158789   -108.21861   -281.56873    4.2764059    4.2764059    4.2764059   -281.56873    6981.6483    760.93718   -8587.2917    30995.618    6436.3133   -16207.921    78.205403 
   99800    1286.6715   -109.40607    1.1642074   -108.24186   -11355.133    4.2790208    4.2790208    4.2790208   -11355.133   -20642.908    10911.375   -24333.867   -22444.783     11546.52   -9270.2455    78.348951 
   99900    1667.2915    -109.7512    1.5086004    -108.2426   -10602.417    4.2822037    4.2822037    4.2822037   -10602.417   -14195.516   -32430.136    14818.401   -75684.286   -3283.5638    8051.3435    78.523919 
  100000    1938.8278   -109.98492    1.7542921   -108.23063    -16653.25    4.2852496    4.2852496    4.2852496    -16653.25   -22735.369     -10679.4   -16544.982    61313.278    4352.0431   -8291.2498    78.691599 
Loop time of 22.6772 on 1 procs for 100000 steps with 8 atoms

Pair  time (%) = 7.20901 (31.7897)
Kspce time (%) = 5.35336 (23.6068)
Neigh time (%) = 0.240382 (1.06002)
Comm  time (%) = 1.15825 (5.10756)
Outpt time (%) = 0.0238681 (0.105251)
Other time (%) = 8.69233 (38.3307)

Nlocal:    8 ave 8 max 8 min
Histogram: 1 0 0 0 0 0 0 0 0 0
Nghost:    2147 ave 2147 max 2147 min
Histogram: 1 0 0 0 0 0 0 0 0 0
Neighs:    2258 ave 2258 max 2258 min
Histogram: 1 0 0 0 0 0 0 0 0 0

Total # of neighbors = 2258
Ave neighs/atom = 282.25
Neighbor list builds = 2759
Dangerous builds = 0
unfix 20
unfix 21
print "seeds:3103820"
seeds:3103820
