LAMMPS (10 Feb 2015)
# ---- initialize simulations
clear
units metal
dimension 3
boundary p p p
atom_style charge
atom_modify map array
# ---- create atoms
read_data /Users/eugeneragasa/pyflamestk_git/pypospack/tests/tests_integration/workflow/WorkflowLammpsThermalExpansion/param_1256/MgO_NaCl_unit.npt.T2000/lammps.structure
  triclinic box = (0 0 0) to (4.2565 4.2565 4.2565) with tilt (0 0 0)
  1 by 1 by 1 MPI processor grid
  reading atoms ...
  8 atoms
# ---- define interatomic potential
include potential.mod
mass 1 24.305
mass 2 15.999

group Mg type 1
4 atoms in group Mg
group O type 2
4 atoms in group O

set group Mg charge 1.66039996869
  4 settings made for charge
set group O charge -1.66039996869
  4 settings made for charge

variable R_cut equal 10.0

pair_style buck/coul/long ${R_cut}
pair_style buck/coul/long 10
pair_coeff 1 1 0.0 0.5 0.0 ${R_cut}
pair_coeff 1 1 0.0 0.5 0.0 10
pair_coeff 1 2 1528.2261267 0.282600919639 0.0 ${R_cut}
pair_coeff 1 2 1528.2261267 0.282600919639 0.0 10
pair_coeff 2 2 6677.06285722 0.138925130231 8.13419383626 ${R_cut}
pair_coeff 2 2 6677.06285722 0.138925130231 8.13419383626 10

kspace_style pppm 1.0e-5

neighbor 1.0 bin
neigh_modify every 1 delay 0 check yes
# ---- define settings
compute eng all pe/atom
compute eatoms all reduce sum c_eng
# ---- run minimization
reset_timestep 0
fix 1 all box/relax iso 0.0 vmax 0.001
thermo 10
thermo_style custom step pe lx ly lz xy xz yz press pxx pyy pzz pxy pxz pyz c_eatoms
min_style cg
minimize 1e-25 1e-25 5000 10000
PPPM initialization ...
  G vector (1/distance) = 0.352851
  grid = 8 8 8
  stencil order = 5
  estimated absolute RMS force accuracy = 3.9608e-05
  estimated relative force accuracy = 2.75062e-06
  using double precision FFTs
  3d grid and FFT values/proc = 3375 512
Neighbor list info ...
  1 neighbor list requests
  update every 1 steps, delay 0 steps, check yes
  master list distance cutoff = 11
Memory usage per processor = 4.06549 Mbytes
Step PotEng Lx Ly Lz Xy Xz Yz Press Pxx Pyy Pzz Pxy Pxz Pyz eatoms 
       0   -110.92329       4.2565       4.2565       4.2565            0            0            0    120138.29    120138.29    120138.29    120138.29 1.5343687e-10 -1.0407196e-10 -1.3145771e-10   -110.92329 
      10   -111.05478     4.299065     4.299065     4.299065            0            0            0    61836.089    61836.089    61836.089    61836.089 1.0666232e-10 -5.0344756e-11 -1.3613158e-10   -111.05478 
      20   -111.10767      4.34163      4.34163      4.34163            0            0            0    10591.608    10591.608    10591.608    10591.608 -1.2465538e-10 -9.1160209e-12 2.8254225e-10   -111.10767 
      25   -111.10952     4.351169     4.351169     4.351169            0            0            0   -6.6622077   -6.6622077   -6.6622077   -6.6622077 -1.5540302e-10 -3.5403029e-11 3.0098099e-10   -111.10952 
Loop time of 0.0182259 on 1 procs for 25 steps with 8 atoms

Minimization stats:
  Stopping criterion = linesearch alpha is zero
  Energy initial, next-to-last, final = 
        -110.923293971     -111.109518965     -111.109518965
  Force two-norm initial, final = 17.348 0.0010058
  Force max component initial, final = 17.348 0.0010053
  Final line search alpha, max atom move = 0.00777135 7.8125e-06
  Iterations, force evaluations = 25 41

Pair  time (%) = 0.00476503 (26.1443)
Kspce time (%) = 0.00298214 (16.3621)
Neigh time (%) = 0 (0)
Comm  time (%) = 0.000542164 (2.97469)
Outpt time (%) = 4.69685e-05 (0.257702)
Other time (%) = 0.0098896 (54.2612)

Nlocal:    8 ave 8 max 8 min
Histogram: 1 0 0 0 0 0 0 0 0 0
Nghost:    2189 ave 2189 max 2189 min
Histogram: 1 0 0 0 0 0 0 0 0 0
Neighs:    2344 ave 2344 max 2344 min
Histogram: 1 0 0 0 0 0 0 0 0 0

Total # of neighbors = 2344
Ave neighs/atom = 293
Neighbor list builds = 0
Dangerous builds = 0
unfix 1
# ---- define output variables ----
variable natoms equal "count(all)"
variable tot_energy equal "c_eatoms"
variable length_x equal "lx"
variable length_y equal "ly"
variable length_z equal "lz"
variable tilt_xy equal "xy"
variable tilt_xz equal "xz"
variable tilt_yz equal "yz"
variable tot_press equal "press"
variable press_xx equal "pxx"
variable press_yy equal "pyy"
variable press_zz equal "pzz"
variable press_xy equal "pxy"
variable press_xz equal "pxz"
variable press_yz equal "pyz"

# ---- output ----
print "pypospack:output_section:begin"
pypospack:output_section:begin
print "tot_energy = ${tot_energy}"
tot_energy = -111.109518965105
print "num_atoms = ${natoms}"
num_atoms = 8
print "xx = ${length_x}"
xx = 4.35116899821938
print "yy = ${length_y}"
yy = 4.35116899821938
print "zz = ${length_z}"
zz = 4.35116899821938
print "xy = ${tilt_xy}"
xy = 0
print "xz = ${tilt_xz}"
xz = 0
print "yz = ${tilt_yz}"
yz = 0
print "tot_press = ${tot_press}"
tot_press = -6.66220766530753
print "pxx = ${press_xx}"
pxx = -6.66220766529406
print "pyy = ${press_yy}"
pyy = -6.66220766581444
print "pzz = ${press_zz}"
pzz = -6.6622076648141
print "pxy = ${press_xy}"
pxy = -1.55403020158447e-10
print "pxz = ${press_xz}"
pxz = -3.54030294322521e-11
print "pyz = ${press_yz}"
pyz = 3.00980987063428e-10
print "pypospack:output_section:done"
pypospack:output_section:done
print "pypospack:lammps_sim:done"
pypospack:lammps_sim:done
#------------------------------------------------------------------------------
# RUN THERMOSTAT
# running using an NPT Nose-Hoover style thermostat
#------------------------------------------------------------------------------
variable tempdamp equal 0.1
variable pressdamp equal 1.0
# set initial velocities
velocity all create 2000 1753698 mom yes dist gaussian loop all
# fix for Nose-Hoover style thermostat
fix 20 all npt temp 2000 2000 0.1 aniso 0.0 0.0 1.0 drag 1.0 couple xyz
variable boxx equal lx
variable boxy equal ly
variable boxz equal lz
variable boxp equal press
variable boxt equal temp
# calculate averages every 10000 steps
reset_timestep 0
fix 21 all ave/time 10 10 100 v_boxx v_boxy v_boxz v_boxp v_boxt file lattice.out
thermo_style custom step temp pe ke etotal press lx ly lz press pxx pyy pzz pxy pxz pyz vol
thermo_modify flush yes
thermo 100
run 100000
PPPM initialization ...
  G vector (1/distance) = 0.351894
  grid = 8 8 8
  stencil order = 5
  estimated absolute RMS force accuracy = 4.14019e-05
  estimated relative force accuracy = 2.8752e-06
  using double precision FFTs
  3d grid and FFT values/proc = 3375 512
Memory usage per processor = 3.06549 Mbytes
Step Temp PotEng KinEng TotEng Press Lx Ly Lz Press Pxx Pyy Pzz Pxy Pxz Pyz Volume 
       0         2000   -111.10953     1.809642   -109.29989    23454.715     4.351169     4.351169     4.351169    23454.715    18960.058    26015.941    25388.146    2231.8736   -3931.5525    10416.281    82.379254 
     100    699.63777   -109.69532   0.63304695   -109.06227    8560.4596    4.3791548    4.3791548    4.3791548    8560.4596    46473.198   -47315.469    26523.649    20000.007      1656.17   -20497.721    83.979037 
     200    1176.6863   -109.63229    1.0646904    -108.5676   -18355.225    4.4204497    4.4204497    4.4204497   -18355.225   -33249.589   -79984.551    58168.466    9444.9045    645.87282   -10011.361    86.377246 
     300    1781.8431   -109.74577    1.6122491   -108.13352    955.73583    4.4360686    4.4360686    4.4360686    955.73583    11700.561   -39929.779    31096.425     14609.44   -1410.8138    3090.9715    87.296085 
     400    1124.5019   -108.79425     1.017473   -107.77678   -2859.8056    4.4351546    4.4351546    4.4351546   -2859.8056    27353.745   -78873.575    42940.414    27041.882   -13110.391    -36030.76    87.242133 
     500    2648.4316   -109.90322    2.3963566   -107.50686   -3040.8277    4.4272643    4.4272643    4.4272643   -3040.8277   -11450.869   -18468.917    20797.303   -1473.5639    12714.917    3734.2643    86.777342 
     600    1372.2111   -108.65208    1.2416054   -107.41047   -36086.369    4.4353442    4.4353442    4.4353442   -36086.369     16921.54   -107758.87   -17421.775    50030.968    470.38355   -33373.098    87.253322 
     700    2924.1758   -110.00765    2.6458557    -107.3618   -23003.604    4.4399823    4.4399823    4.4399823   -23003.604   -31513.492   -22037.454   -15459.865   -1768.2921    10731.744    243.29218     87.52734 
     800    2373.9363    -109.5124    2.1479874   -107.36442   -7145.0815    4.4227163    4.4227163    4.4227163   -7145.0815    2329.9481   -21405.423   -2359.7695    30555.052    4863.5744   -16454.263    86.510187 
     900    1380.9544   -108.63989    1.2495166   -107.39038    19068.505    4.4248588    4.4248588    4.4248588    19068.505    61490.472   -6663.1759    2378.2205    31108.507    5930.4583   -13890.616    86.635969 
    1000    2731.5512   -109.83898     2.471565   -107.36741   -1800.8189    4.4353498    4.4353498    4.4353498   -1800.8189   -46083.776    7470.7056    33210.614   -6197.9149   -15129.415    25078.871    87.253656 
    1100    1498.9758   -108.74678    1.3563048   -107.39048   -3682.0581    4.4254857    4.4254857    4.4254857   -3682.0581    -42270.68    29674.622    1549.8838     32513.79   -704.62499   -55841.945    86.672802 
    1200    2857.7617   -109.96897    2.5857628   -107.38321    13166.105    4.4156961    4.4156961    4.4156961    13166.105   -3747.3941    786.54259    42459.167   -12867.469   -12767.521     11480.42    86.098884 
    1300    1159.5864   -108.46877    1.0492181   -107.41955     28833.46     4.419281     4.419281     4.419281     28833.46   -12917.528   -30736.116    130154.02    34560.291   -12445.757   -22677.484    86.308754 
    1400    2073.5339   -109.29806    1.8761771   -107.42189    25673.969      4.43524      4.43524      4.43524    25673.969   -24531.454     87922.36    13631.001   -7693.0074   -6327.5591   -10944.773    87.247173 
    1500    2073.2498    -109.2664      1.87592   -107.39048     7037.861    4.4386233    4.4386233    4.4386233     7037.861   -471.71195    -19580.75    41166.045    21596.084    12515.533    33561.206    87.446989 
    1600    1499.6513   -108.71718     1.356916   -107.36026    13386.512    4.4218793    4.4218793    4.4218793    13386.512    71290.804     -70362.4    39231.131    25422.012    2295.9169   -47666.424    86.461077 
    1700    2483.1263   -109.61584    2.2467848   -107.36906      7551.66     4.426112     4.426112     4.426112      7551.66     14157.78    12759.884    -4262.684   -3001.6209    7460.1409    15889.995    86.709603 
    1800    1579.5327   -108.81379    1.4291944    -107.3846    29047.965    4.4308894    4.4308894    4.4308894    29047.965    72414.951    -37174.84    51903.783    32781.275    7368.6571   -2303.9801     86.99068 
    1900     1706.166   -108.92959    1.5437748   -107.38582    12061.632    4.4482806    4.4482806    4.4482806    12061.632     61327.31   -3805.6912   -21336.722   -4673.8443   -8219.7486   -15455.074    88.019017 
    2000    2224.8682   -109.37836    2.0131075   -107.36525   -42083.954    4.4664703    4.4664703    4.4664703   -42083.954   -36552.216    -42020.58   -47679.067    30132.296    5706.3622   -4085.6242     89.10321 
    2100    2490.4678   -109.57742    2.2534276   -107.32399   -13893.802    4.4458465    4.4458465    4.4458465   -13893.802   -4008.3649   -45676.526    8003.4853    -21854.31    7256.2834   -22987.921    87.874609 
    2200    2357.4916   -109.44404     2.133108   -107.31093   -35048.059    4.4314683    4.4314683    4.4314683   -35048.059   -14898.588   -84205.672   -6039.9156   -14898.285    12544.665   -11506.545    87.024781 
    2300    2365.6971   -109.47661    2.1405325   -107.33608   -12540.062    4.4304682    4.4304682    4.4304682   -12540.062   -28576.988   -34364.631    25321.432    6094.7881    13499.332   -23187.422    86.965876 
    2400    2464.2257   -109.57593    2.2296832   -107.34625    -6257.534    4.4367274    4.4367274    4.4367274    -6257.534    22169.597   -23719.564   -17222.634   -18964.214    6892.7744   -16330.479    87.334983 
    2500    2047.8894   -109.19865    1.8529733   -107.34568   -15984.072    4.4489198    4.4489198    4.4489198   -15984.072    25290.298   -29809.843   -43432.671    34282.076    274.99089   -8366.9354    88.056966 
    2600    1735.3097   -108.90347    1.5701447   -107.33333    -9722.853    4.4488042    4.4488042    4.4488042    -9722.853    9311.2322   -49993.112     11513.32   -36062.856   -1877.7866    12361.183    88.050107 
    2700    2075.1303    -109.1971    1.8776215   -107.31948    20091.523    4.4308885    4.4308885    4.4308885    20091.523   -14077.386    32768.068    41583.886    30581.453   -25597.225    18997.723     86.99063 
    2800    1930.7321   -109.06917     1.746967   -107.32221    26622.285    4.4210681    4.4210681    4.4210681    26622.285    50365.204     10632.58    18869.072   -3425.5836   -23132.025    4726.9642    86.413503 
    2900     1447.512   -108.68582    1.3097393   -107.37608   -16884.447    4.4281963    4.4281963    4.4281963   -16884.447   -49734.714   -51744.235     50825.61   -17592.912   -9967.6199    15875.991    86.832155 
    3000    2371.8804   -109.52535    2.1461273   -107.37923   -2369.8419    4.4341132    4.4341132    4.4341132   -2369.8419    328.20697    -9365.467    1927.7343     9221.247    -16234.23    17727.535    87.180695 
    3100    1640.0959   -108.87206    1.4839932   -107.38807   -276.64819    4.4264185    4.4264185    4.4264185   -276.64819   -64786.171   -15673.518    79629.745   -47995.337    5168.4673    3755.1562    86.727617 
    3200    2033.7401   -109.21922    1.8401708   -107.37905    6518.7663    4.4264012    4.4264012    4.4264012    6518.7663   -8312.8213   -57118.225    84987.345    30827.124   -11458.183    14141.337      86.7266 
    3300    1464.4452   -108.71752    1.3250608   -107.39246   -2497.9159    4.4174215    4.4174215    4.4174215   -2497.9159   -10966.783   -88676.933    92149.967   -48116.037   -5344.7969    15074.859    86.199855 
    3400    1848.8076    -109.0627      1.67284   -107.38986    60917.818    4.4121852    4.4121852    4.4121852    60917.818    65283.495    14569.936    102900.02    19362.194   -29643.543    2409.5973    85.893677 
    3500    1999.4715   -109.21036    1.8091638   -107.40119    6765.8229    4.4323376    4.4323376    4.4323376    6765.8229    18253.177   -61120.639    63164.931   -24311.008   -7456.5232    21543.586    87.076006 
    3600    1403.0383   -108.65042    1.2694985   -107.38092   -2601.0074    4.4398419    4.4398419    4.4398419   -2601.0074    30925.793   -46203.365    7474.5502   -1353.9969    948.20733   -1163.0922    87.519033 
    3700    2125.3929   -109.28168    1.9231002   -107.35858    19288.716    4.4322196    4.4322196    4.4322196    19288.716    42010.199    33298.543   -17442.594    26147.404   -10469.788    23090.034    87.069049 
    3800    1619.3543   -108.83458    1.4652258   -107.36936    9934.6609    4.4215195    4.4215195    4.4215195    9934.6609   -18458.244   -5713.4718    53975.698   -43908.815   -642.18047    8201.3981    86.439974 
    3900    2379.2274   -109.52662    2.1527749   -107.37384    34949.275    4.4197272    4.4197272    4.4197272    34949.275    19615.232    53563.596    31668.998    34824.295   -4624.4225    2046.8796    86.334898 
    4000    1197.4209   -108.47647    1.0834516   -107.39302   -9638.3141    4.4379844    4.4379844    4.4379844   -9638.3141   -75688.127   -38662.448    85435.633   -50997.535     6367.128    36956.517    87.409236 
    4100     2802.307   -109.89923    2.5355862   -107.36364    -34436.26     4.432277     4.432277     4.432277    -34436.26   -58621.017   -33731.123   -10956.641   -2636.3211    5828.1488    1002.7975    87.072434 
    4200    2148.5416   -109.30504    1.9440456     -107.361    26653.151    4.4083456    4.4083456    4.4083456    26653.151    10368.822    12839.323    56751.307   -35162.786   -3219.8944   -3596.1453    85.669633 
    4300    1686.9764   -108.92469    1.5264117   -107.39828   -4801.1454    4.4240913    4.4240913    4.4240913   -4801.1454     1819.358   -83685.923    67463.129   -22538.859   -6956.8811    13574.586    86.590898 
    4400    2540.3045   -109.66968    2.2985209   -107.37116   -23143.232    4.4469728    4.4469728    4.4469728   -23143.232    38476.568   -73984.781   -33921.483   -8090.0603   -3477.6034   -1615.3803    87.941408 
    4500    1669.6809   -108.88444    1.5107624   -107.37368    -18009.86    4.4458868    4.4458868    4.4458868    -18009.86    28299.862   -58816.875   -23512.567   -53470.599   -1892.1829    12551.334    87.876995 
    4600    2128.0726   -109.26987    1.9255248   -107.34434    16788.586    4.4419285    4.4419285    4.4419285    16788.586    45769.057    6600.3217   -2003.6208    24148.169   -8600.5456   -18879.263    87.642485 
    4700    925.75018   -108.19634   0.83763822    -107.3587   -26035.502    4.4330872    4.4330872    4.4330872   -26035.502    2443.1323    -70386.04     -10163.6   -58413.362    7813.6674    17025.926     87.12019 
    4800    2725.0339   -109.81042    2.4656679   -107.34475    16831.912    4.4086756    4.4086756    4.4086756    16831.912    19002.886   -811.21197    32304.061   -961.62206    6790.1584   -1908.1422     85.68887 
    4900    2546.4865   -109.69102    2.3041145    -107.3869    3414.9856    4.4099921    4.4099921    4.4099921    3414.9856   -32379.894     34015.53    8609.3201   -14072.669    13674.499    14338.258    85.765661 
    5000     1287.667   -108.60894    1.1651081   -107.44383   -17000.368     4.433332     4.433332     4.433332   -17000.368   -2315.6117   -80093.094    31407.602   -24922.096   -762.00152    32293.982    87.134625 
    5100    2294.2564   -109.47315    2.0758914   -107.39726   -10295.371    4.4481672    4.4481672    4.4481672   -10295.371   -53814.882    16725.004    6203.7632   -7605.1261    -3698.689    12574.329    88.012286 
    5200    1970.5816   -109.16051    1.7830236   -107.37749   -22319.709    4.4348542    4.4348542    4.4348542   -22319.709    -23598.71   -28823.304   -14537.113   -43947.455   -2707.8958    35735.342    87.224408 
    5300    2092.9795   -109.24338    1.8937718   -107.34961    29910.861    4.4106951    4.4106951    4.4106951    29910.861   -13136.808    9311.7805    93557.612    1660.4959    7950.1891    29564.213    85.806684 
    5400    2121.4691   -109.30231    1.9195498   -107.38276   -3808.5802    4.4171923    4.4171923    4.4171923   -3808.5802   -41062.745   -28431.764    58068.769   -37762.662   -1417.6768    1747.2494    86.186436 
    5500    2253.0223   -109.41982    2.0385819   -107.38124    1160.9287    4.4295172    4.4295172    4.4295172    1160.9287   -44967.762   -512.38874    48962.937   -6402.8391    2624.5836    30250.439    86.909887 
    5600    1868.3803   -109.08216    1.6905497   -107.39161    6545.2841    4.4481483    4.4481483    4.4481483    6545.2841   -64691.568   -11213.951    95541.371   -15709.828   -1815.6471   -3511.8493    88.011164 
    5700    2460.0145   -109.57738    2.2258728    -107.3515   -7818.0847    4.4560013    4.4560013    4.4560013   -7818.0847   -14127.429    349.46221   -9676.2871    9391.1667    1084.5274    710.50497    88.478125 
    5800    980.92339   -108.23869   0.88756009   -107.35113    10797.451    4.4301778    4.4301778    4.4301778    10797.451   -11085.334    51153.251    -7675.565    37044.844    -427.3723   -7667.4123    86.948776 
    5900     2087.353   -109.22114    1.8886808   -107.33246     41467.15    4.4163048    4.4163048    4.4163048     41467.15    18519.972    49664.592    56216.888    11678.511   -5726.0839    1012.6071    86.134494 
    6000    2087.7456   -109.26523    1.8890361    -107.3762   -24700.247     4.431933     4.431933     4.431933   -24700.247   -29499.666    17976.072   -62577.147    18951.173   -1632.0389   -8340.6616    87.052159 
    6100    2095.4806   -109.28615    1.8960349   -107.39012    7044.1415    4.4385299    4.4385299    4.4385299    7044.1415   -891.53964    21574.107    449.85697    39278.072    5940.1308   -12913.908    87.441472 
    6200    1599.0304   -108.84321    1.4468363   -107.39638   -12615.781     4.459763     4.459763     4.459763   -12615.781   -10881.108    -6403.066   -20563.168    8710.6782   -3472.7076    17537.008    88.702395 
    6300    1575.6681   -108.78034    1.4256976   -107.35465   -37350.526    4.4635801    4.4635801    4.4635801   -37350.526   -52136.295   -17393.085   -42522.197    29988.817     11343.98    14766.329    88.930348 
    6400    2747.8461   -109.79721    2.4863089    -107.3109    33284.266    4.4217906    4.4217906    4.4217906    33284.266    41476.799    3519.9157    54856.083    10521.926    609.39359    7107.9821    86.455875 
    6500    838.21683   -108.12165    0.7584362   -107.36321    70342.508    4.4107135    4.4107135    4.4107135    70342.508    83645.906   -6053.9397    133435.56     6002.614   -26137.093   -9601.5945    85.807759 
    6600    2573.0455    -109.7314    2.3281456   -107.40325   -15802.419    4.4507579    4.4507579    4.4507579   -15802.419    21184.241   -74923.901    6332.4046    9005.0334    5617.8961    18390.121    88.166155 
    6700    1658.3674   -108.87771    1.5005257   -107.37719   -43391.273    4.4736023    4.4736023    4.4736023   -43391.273   -46920.141   -92499.929    9246.2508   -24438.017   -11626.216   -456.34635    89.530726 
    6800    2388.5462   -109.51349    2.1612068   -107.35228   -22055.389    4.4428348    4.4428348    4.4428348   -22055.389   -62437.416    14095.022   -17823.772    19144.477    5092.7058   -7844.4036    87.696146 
    6900    1601.3021    -108.7996    1.4488918   -107.35071    12262.043    4.3865814    4.3865814    4.3865814    12262.043    78139.976   -45093.709    3739.8618    -30164.31    8853.8762     39966.64    84.407024 
    7000    1993.9525   -109.20536    1.8041701   -107.40119    38475.875    4.3800357    4.3800357    4.3800357    38475.875   -10143.304    71059.889     54511.04     17201.37   -41375.393    -3460.111    84.029729 
    7100    2295.0358    -109.5311    2.0765966   -107.45451   -14298.395     4.424237     4.424237     4.424237   -14298.395    6553.0841   -44095.045   -5353.2236   -15656.668   -5200.9977    28067.487    86.599452 
    7200    1871.8149   -109.11049    1.6936575   -107.41683   -56100.247    4.4518547    4.4518547    4.4518547   -56100.247    -75947.33   -43617.255   -48736.156   -19407.086   -9891.9085    33178.351    88.231354 
    7300    2040.8253   -109.20845    1.8465817   -107.36187    6264.8999    4.4375849    4.4375849    4.4375849    6264.8999   -20246.349    48846.274   -9805.2256    19399.363   -19230.373    9434.8438    87.385633 
    7400     1464.683   -108.68952     1.325276   -107.36425    3736.6149    4.4156517    4.4156517    4.4156517    3736.6149    16918.979    35297.903   -41007.037   -24492.268    5586.9077    44809.809     86.09629 
    7500     2699.673   -109.82929    2.4427208   -107.38657    10613.588    4.4096702    4.4096702    4.4096702    10613.588   -25493.203    81902.724   -24568.758    27708.738   -34009.821    24329.957    85.746881 
    7600    2237.5577   -109.44443    2.0245893   -107.41984   -7563.2853    4.4213198    4.4213198    4.4213198   -7563.2853    13168.013   -33806.921   -2050.9481   -7029.0094    17417.597   -266.01052    86.428265 
    7700    1581.0268    -108.8593    1.4305462   -107.42875   -29353.271    4.4486675    4.4486675    4.4486675   -29353.271    -47157.12    23911.853   -64814.548   -13827.186    -24046.82    18360.243    88.041987 
    7800     2172.353   -109.35386    1.9655907   -107.38826   -2312.3651    4.4431093    4.4431093    4.4431093   -2312.3651   -1139.4348     31731.93   -37529.591    4053.4279    20363.493    2417.3272    87.712398 
    7900    2167.4524   -109.33284    1.9611565   -107.37168   -17504.027    4.4065586    4.4065586    4.4065586   -17504.027   -29862.325   -49414.344    26764.586   -49839.578   -14216.381    22229.237    85.565489 
    8000    2266.8017   -109.42592    2.0510498   -107.37487    54812.361    4.3989089    4.3989089    4.3989089    54812.361    51622.095    73485.381    39329.609    14040.946    403.68709    -24704.64    85.120644 
    8100    1253.6886   -108.54927    1.1343638   -107.41491   -18020.507    4.4295356    4.4295356    4.4295356   -18020.507   -38571.072    -32732.72     17242.27   -34159.156    29918.032    27529.671    86.910969 
    8200    2820.1649   -109.91471    2.5517444   -107.36297   -32626.211    4.4395828    4.4395828    4.4395828   -32626.211   -25090.618   -67379.262   -5408.7521   -4421.8324   -18714.331   -6025.8871    87.503712 
    8300    1880.6308    -109.0599    1.7016342   -107.35827   -17066.097    4.4302083    4.4302083    4.4302083   -17066.097   -26936.728   -1830.1441   -22431.419   -8168.2313    27859.395   -23378.908    86.950574 
    8400    2131.8958   -109.28584    1.9289842   -107.35686     10768.45    4.4179666    4.4179666    4.4179666     10768.45   -9926.1183    36617.139    5614.3296   -14136.631    1018.7453    19891.589    86.231767 
    8500    1472.0801   -108.72699     1.331969   -107.39503   -15022.153    4.4095447    4.4095447    4.4095447   -15022.153    43288.097   -7023.6944   -81330.863    5483.4057    17406.583   -59039.051     85.73956 
    8600    2238.5765   -109.42384    2.0255111   -107.39833    24093.626    4.4085286    4.4085286    4.4085286    24093.626   -17132.867    76372.272    13041.474   -5103.4207   -984.62017    19118.102    85.680304 
    8700     1999.989   -109.22447    1.8096321   -107.41484    1499.9848    4.4192952    4.4192952    4.4192952    1499.9848    54781.204   -1844.1239   -48437.125    11751.713    23751.716   -25364.301    86.309587 
    8800    1636.6288   -108.89525    1.4808561   -107.41439   -15119.577    4.4305208    4.4305208    4.4305208   -15119.577   -20958.237    40261.603   -64662.096    2194.8622    11963.401    -13876.12    86.968971 
    8900    2391.6323   -109.55318    2.1639992   -107.38918    3842.1213    4.4231612    4.4231612    4.4231612    3842.1213    43675.582   -6892.2511   -25256.966     838.9144    4373.9528   -1840.6989    86.536298 
    9000    1615.2269   -108.87229    1.4614912    -107.4108   -40791.763    4.4151566    4.4151566    4.4151566   -40791.763   -7662.4249   -35669.857   -79043.008   -3228.0047     49255.92   -29641.166    86.067333 
    9100    2567.4463   -109.71342    2.3230794   -107.39034    34151.719    4.4053492    4.4053492    4.4053492    34151.719    45864.359    59107.735   -2516.9354    21811.409   -12113.571    9939.0663    85.495062 
    9200    1589.3691   -108.86541    1.4380946   -107.42732    -12502.22    4.4104965    4.4104965    4.4104965    -12502.22   -7862.0902    36839.402   -66483.972    5933.1989    45886.937   -31363.497    85.795092 
    9300    2090.2322   -109.30776     1.891286   -107.41647    -4935.407    4.4308822    4.4308822    4.4308822    -4935.407     1950.092   -20658.549    3902.2358    9922.9847    -11377.38    -21913.43    86.990257 
    9400    1818.1238   -109.03635    1.6450767   -107.39127   -18658.554    4.4395509    4.4395509    4.4395509   -18658.554   -49171.481    69170.401   -75974.581    7604.7642    56215.132    7239.6842    87.501826 
    9500    1941.2105   -109.11867     1.756448   -107.36222    12282.894    4.4201283    4.4201283    4.4201283    12282.894     21340.84     101664.3   -86156.457   -2557.0149   -7530.8888   -40839.182    86.358411 
    9600     1484.363   -108.70138    1.3430828    -107.3583    44189.317    4.4036379    4.4036379    4.4036379    44189.317    16560.951    136131.31   -20124.307    18428.059     40017.62    2347.3013    85.395464 
    9700      2401.49   -109.55893    2.1729186   -107.38601   -7368.4049    4.4213717    4.4213717    4.4213717   -7368.4049   -6146.6575    31809.214   -47767.771    8679.0169   -745.46462   -31113.764    86.431307 
    9800     1646.597   -108.87967    1.4898755    -107.3898   -27464.839    4.4344475    4.4344475    4.4344475   -27464.839   -34223.648    16629.369   -64800.238   -96.628365     29633.46   -36501.293    87.200417 
    9900    1968.8566   -109.15056    1.7814629   -107.36909    -10414.66    4.4267845    4.4267845    4.4267845    -10414.66    8231.6459     -21435.5   -18040.127   -10701.702    9229.8241    16920.074    86.749133 
   10000    2268.5749   -109.42725    2.0526543   -107.37459   -32499.083    4.4288168    4.4288168    4.4288168   -32499.083   -17968.585   -11507.963     -68020.7    6914.0699    11897.527   -29689.463    86.868667 
   10100    1633.3418   -108.86748     1.477882    -107.3896   -14175.668    4.4054659    4.4054659    4.4054659   -14175.668   -65656.818    18809.021    4320.7928    15743.449    65178.237   -9017.0508    85.501856 
   10200    2529.3635   -109.65416    2.2886213   -107.36554    17798.748    4.3860386    4.3860386    4.3860386    17798.748    65640.667   -22081.677    9837.2554    -17111.99   -29444.338    7924.4542    84.375692 
   10300    1112.0594    -108.4322    1.0062147   -107.42598    -34661.85    4.4104288    4.4104288    4.4104288    -34661.85     -58624.3    16125.232   -61486.482    8858.1785    75217.213   -9512.1066     85.79114 
   10400    2389.6814   -109.57992     2.162234   -107.41769    6753.7782    4.4319345    4.4319345    4.4319345    6753.7782   -17233.047   -23991.905    61486.286    8506.9932   -20071.254    17888.223     87.05225 
   10500    2220.7402   -109.41535    2.0093724   -107.40598   -40825.386    4.4396514    4.4396514    4.4396514   -40825.386   -60980.025   -7179.4144   -54316.718    9760.2513    56610.703   -11066.525    87.507772 
   10600    1655.6124   -108.89512    1.4980329   -107.39709   -2468.6907    4.4088112    4.4088112    4.4088112   -2468.6907   -54548.546    52278.005   -5135.5306    13929.027     33159.83   -7866.2675     85.69678 
   10700    1802.0349   -109.00903    1.6305191   -107.37852    64123.361    4.3902481    4.3902481    4.3902481    64123.361    47852.583    72402.484    72115.016    7264.4982   -1277.8511     15523.54    84.618865 
   10800    2239.5393   -109.44529    2.0263822   -107.41891   -32738.541    4.4219857    4.4219857    4.4219857   -32738.541   -49485.559    -8208.847   -40521.218    5313.1241    48510.418   -8078.6084    86.467318 
   10900    2024.1807   -109.22384    1.8315212   -107.39232    31056.745    4.4371595    4.4371595    4.4371595    31056.745   -6585.7859    30824.061    68931.959    31121.334   -28828.738    13985.385    87.360505 
   11000    1969.1047   -109.15488    1.7816873   -107.37319    1148.0635    4.4428522    4.4428522    4.4428522    1148.0635    10907.296    27757.156   -35220.262   -15781.527    41048.245   -12048.221    87.697174 
   11100    1664.0028   -108.86572    1.5056247   -107.36009   -33092.235     4.435024     4.435024     4.435024   -33092.235    -47107.12   -60958.067    8788.4831    43070.954    618.82536   -16164.455    87.234427 
   11200    2212.3678    -109.3592    2.0017969   -107.35741   -15302.805    4.3916062    4.3916062    4.3916062   -15302.805   -24982.999    3350.2301   -24275.646    16818.081    18247.785    6285.9285    84.697415 
   11300    2157.1976   -109.34414    1.9518777   -107.39226     44584.15    4.3865972    4.3865972    4.3865972     44584.15   -6956.1369    40501.305    100207.28    19156.627    20543.603    13953.156    84.407936 
   11400    1601.3242   -108.89468    1.4489118   -107.44577   -19121.832    4.4203597    4.4203597    4.4203597   -19121.832   -57775.643   -26928.059    27338.206    43298.064   -21479.911   -20368.525    86.371971 
   11500     2058.173   -109.27954    1.8622782   -107.41726    9661.0528    4.4322624    4.4322624    4.4322624    9661.0528   -22913.436     65854.39   -13957.796   -15226.497   -4948.5452    15015.732    87.071574 
   11600    1331.7645   -108.62129    1.2050085   -107.41628    -12442.35    4.4451407    4.4451407    4.4451407    -12442.35   -28063.792    5166.4815   -14429.739    31215.103    2371.0114   -20703.368    87.832764 
   11700    1854.0278   -109.07057    1.6775633     -107.393    15290.688    4.4379532    4.4379532    4.4379532    15290.688   -10081.464    82261.018   -26307.491   -12381.326   -16043.315   -13356.803    87.407392 
   11800     2583.936   -109.72145    2.3379996   -107.38345    -25495.27    4.4220386    4.4220386    4.4220386    -25495.27    -69560.04   -19828.884    12903.114    47492.948   -8485.3072    11181.619    86.470421 
   11900    1661.0332   -108.88114    1.5029377    -107.3782   -2706.7249    4.4023067    4.4023067    4.4023067   -2706.7249   -29154.293    31303.192   -10269.073    12834.967   -12304.698   -20504.101    85.318043 
   12000    2488.5709   -109.65598    2.2517112   -107.40427   -23627.012    4.4213905    4.4213905    4.4213905   -23627.012   -44175.773    65.559122   -26770.822    2721.5454    -10750.17    2752.1339     86.43241 
   12100    1474.2842   -108.73025    1.3339634   -107.39629    -18445.16    4.4405712    4.4405712    4.4405712    -18445.16   -63056.049   -32357.812     40078.38    87585.492    4809.0896   -4961.6656    87.562167 
   12200    2271.2628   -109.41709    2.0550863   -107.36201    35225.329     4.425443     4.425443     4.425443    35225.329    52497.716    27419.308    25758.963   -29062.003   -22039.998    -11443.45     86.67029 
   12300    1664.5046   -108.91111    1.5060787   -107.40503    15082.869    4.4294214    4.4294214    4.4294214    15082.869   -30621.077    60693.194     15176.49    59905.848   -769.67043   -5590.4117    86.904244 
   12400    2384.0379   -109.55001    2.1571276   -107.39289   -3285.0252    4.4438641    4.4438641    4.4438641   -3285.0252   -19707.351    66423.495    -56571.22   -8693.2344    4860.9218   -31230.853    87.757112 
   12500    1764.6219   -108.98786     1.596667    -107.3912   -36324.721    4.4415308    4.4415308    4.4415308   -36324.721   -71059.187   -49275.568    11360.593    65195.122    3121.6757   -773.44981    87.618947 
   12600    2080.6972   -109.26142    1.8826586   -107.37877     19481.68    4.4223281    4.4223281    4.4223281     19481.68    10567.913     98445.22   -50568.093   -7010.9998    4001.6129   -29748.649    86.487408 
   12700    2041.6473   -109.25558    1.8473254   -107.40826   -6649.7217    4.4137025    4.4137025    4.4137025   -6649.7217   -4377.7771    21448.781   -37020.169    684.57899    -2419.136   -27268.149    85.982324 
   12800    1829.8997   -109.11314    1.6557317   -107.45741    1678.1513    4.4231562    4.4231562    4.4231562    1678.1513   -37051.009     21692.64    20392.823    41829.181    841.75115    19305.764    86.536001 
   12900    2378.1102   -109.58542    2.1517641   -107.43365    20455.371     4.441353     4.441353     4.441353    20455.371   -11795.108    114632.34   -41471.119   -15791.152   -4718.4914    -14252.18    87.608428 
   13000    1649.1594   -108.91219    1.4921941      -107.42   -10626.954    4.4403538    4.4403538    4.4403538   -10626.954   -28554.202    10828.691   -14155.352    81548.776   -5168.6495   -3244.7072    87.549312 
   13100    2311.9525   -109.48757    2.0919032   -107.39567   -11132.413    4.4267485    4.4267485    4.4267485   -11132.413   -5818.9857   -4913.1233   -22665.131    -7177.425    -40827.19    7784.5754    86.747016 
   13200    2054.8126   -109.25055    1.8592376   -107.39131    53507.185    4.4040513    4.4040513    4.4040513    53507.185    37351.194    55808.138    67362.222    29508.675   -5153.2056    -9382.457    85.419514 
   13300    1621.7789   -108.89558    1.4674197   -107.42817    43225.391    4.4151946    4.4151946    4.4151946    43225.391    34493.327    84191.063    10991.784    20417.401    -30680.65   -12056.546    86.069555 
   13400     2274.206   -109.46422    2.0577494   -107.40647   -26179.567    4.4487884    4.4487884    4.4487884   -26179.567   -45919.536    51229.706    -83848.87    3697.7437   -23061.981    5647.2619    88.049165 
   13500    1257.5882   -108.52883    1.1378923   -107.39093   -11814.534     4.446017     4.446017     4.446017   -11814.534   -54287.802    46077.129   -27232.928     56258.77   -879.84796   -11947.579    87.884718 
   13600    2559.1674   -109.69493    2.3155884   -107.37934   -16762.033    4.4100387    4.4100387    4.4100387   -16762.033   -4425.4934    30951.714   -76812.319   -6980.4951    -54264.66    4682.2865     85.76838 
   13700    2614.6546   -109.74642    2.3657945   -107.38063    35018.031    4.3808698    4.3808698    4.3808698    35018.031    3624.3153    41646.327     59783.45    22678.495    13470.482   -17851.999     84.07774 
   13800    1647.8888    -108.9341    1.4910444   -107.44306   -26505.223    4.4049869    4.4049869    4.4049869   -26505.223   -66021.576    33991.732   -47485.826    28489.436   -69277.729    590.38628    85.473968 
   13900    2693.4672   -109.87315    2.4371057   -107.43604   -34374.418    4.4485115    4.4485115    4.4485115   -34374.418   -40635.101   -10599.554   -51888.599   -17897.188    3525.5462   -17831.249    88.032729 
   14000     1200.287   -108.47771    1.0860449   -107.39167   -8694.1885    4.4696985    4.4696985    4.4696985   -8694.1885   -87837.635    75394.444   -13639.374    25621.243   -30310.307   -17484.355    89.296549 
   14100    2803.7424   -109.89062     2.536885   -107.35374   -25624.363    4.4435235    4.4435235    4.4435235   -25624.363   -60640.561   -11749.592   -4482.9368   -17589.954   -25353.281   -2715.2844    87.736933 
   14200     1790.711   -108.96462    1.6202729   -107.34434    44114.458    4.3901108    4.3901108    4.3901108    44114.458   -36556.923    94568.619    74331.678    17454.931    746.23087    6967.9804    84.610923 
   14300    1766.4963   -109.00581    1.5983629   -107.40744    1696.2587    4.3909888    4.3909888    4.3909888    1696.2587   -11068.665    48153.713   -31996.272    7112.3778   -85772.919   -9873.6437    84.661702 
   14400    2234.3457   -109.45099     2.021683   -107.42931    23663.503    4.4227289    4.4227289    4.4227289    23663.503    7053.7683    46777.913    17158.828   -4781.9878    20704.425     2256.119    86.510926 
   14500    1496.6754    -108.7982    1.3542234   -107.44398     7574.756    4.4465035    4.4465035    4.4465035     7574.756    76053.912   -18790.554    -34539.09    6889.1561   -62463.406    13800.675    87.913571 
   14600     2372.951   -109.53304    2.1470959   -107.38594   -29641.061    4.4638598    4.4638598    4.4638598   -29641.061    22661.929   -30442.975   -81142.136   -31993.536     11285.19   -9627.4681    88.947068 
   14700    1765.4874   -108.95662    1.5974501   -107.35917   -2052.3793    4.4354164    4.4354164    4.4354164   -2052.3793   -218.16096     68836.01   -74774.987    3537.1198   -20474.545   -470.89243    87.257586 
   14800    2606.0982   -109.70052    2.3580524   -107.34247    5600.0381    4.4053146    4.4053146    4.4053146    5600.0381   -12088.982    23118.394    5770.7017    7562.3188   -40111.995   -8823.4645    85.493045 
   14900    2508.0614    -109.6525    2.2693467   -107.38316     12321.69    4.4084219    4.4084219    4.4084219     12321.69    32062.201    46931.812   -42028.942   -21526.889   -4961.3078    15551.569    85.674079 
   15000    1540.9085   -108.84324    1.3942464   -107.44899   -15830.586    4.4368926    4.4368926    4.4368926   -15830.586    15508.532   -5937.2168   -57063.074    22235.692   -68883.098   -2390.3707    87.344738 
   15100    2176.6052   -109.37103    1.9694382   -107.40159     8007.863    4.4584296    4.4584296    4.4584296     8007.863    38139.328   -2299.5715   -11816.167     8376.499   -3225.1478   -11182.823    88.622856 
   15200    1979.1186   -109.14922    1.7907481   -107.35847   -20581.003    4.4618713    4.4618713    4.4618713   -20581.003    412.43281    11463.166   -73618.608    1821.5267   -57711.102   -256.71743    88.828254 
   15300     2549.561   -109.62477    2.3068963   -107.31787    1368.5222    4.4468512    4.4468512    4.4468512    1368.5222    95124.966   -38963.353   -52056.046   -4391.1821    8042.7209   -29462.399    87.934194 
   15400    1151.8373    -108.3808    1.0422066   -107.33859    15674.962    4.4303107    4.4303107    4.4303107    15674.962    71878.997    30873.469    -55727.58    -6288.831   -44417.282    -10473.36    86.956602 
   15500     2959.391   -110.02152    2.6777192    -107.3438    7442.6861    4.4407547    4.4407547    4.4407547    7442.6861    25172.748     7195.088   -10039.778   -3969.8202    16450.977     8117.998    87.573028 
   15600    1402.5574   -108.64529    1.2690634   -107.37623   -9817.1439    4.4590137    4.4590137    4.4590137   -9817.1439   -26955.058    57122.362   -59618.736   -8128.6039   -43724.312   -26131.333    88.657694 
   15700    2327.5135   -109.44012    2.1059831   -107.33414   -8821.7278    4.4537165    4.4537165    4.4537165   -8821.7278    18308.026   -26238.645   -18534.564     18960.82    11466.101   -3100.1871    88.342098 
   15800    1944.1535    -109.1086    1.7591109   -107.34949     1970.427    4.4370482    4.4370482    4.4370482     1970.427   -207.86137    12561.236   -6442.0935    21932.764   -14077.895   -13698.722    87.353931 
   15900    2087.8435   -109.27485    1.8891247   -107.38573   -8567.6164    4.4237817    4.4237817    4.4237817   -8567.6164   -50416.184    19890.263    4823.0721   -9943.3737   -18062.992   -35039.429    86.572722 
   16000    2545.1461   -109.70824    2.3029017   -107.40533   -22866.292    4.4315659    4.4315659    4.4315659   -22866.292   -40622.618   -41943.254    13966.995    34094.849    30855.667    15529.894     87.03053 
   16100    1573.2787   -108.83877    1.4235357   -107.41524   -4077.1919    4.4459176    4.4459176    4.4459176   -4077.1919   -56742.477    9555.3214     34955.58     -20465.2   -18655.999   -10905.423    87.878822 
   16200    2196.3079   -109.37906    1.9872655   -107.39179    9767.7078    4.4533313    4.4533313    4.4533313    9767.7078   -29916.858     10578.76    48641.221   -5003.4331    21006.706    13741.309    88.319175 
   16300    2189.4798   -109.34724    1.9810873   -107.36615   -23315.338    4.4451855    4.4451855    4.4451855   -23315.338   -65308.041     42747.38   -47385.353   -13554.075   -47321.391    18444.268    87.835415 
   16400     1639.372   -108.83924    1.4833382    -107.3559    13738.141    4.4353605    4.4353605    4.4353605    13738.141   -55548.652    33680.255     63082.82   -27664.812   -7134.7968   -23859.974    87.254287 
   16500    2127.4222   -109.28926    1.9249363   -107.36432    12314.876    4.4330948    4.4330948    4.4330948    12314.876   -37064.766    48603.812    25405.581    13041.973     3620.934    25491.779    87.120638 
   16600    1536.8866   -108.78573    1.3906073   -107.39513   -305.86888    4.4465352    4.4465352    4.4465352   -305.86888   -72162.554    220.70071    71024.246   -23325.333   -7288.1812    1477.3046    87.915451 
   16700    2437.7261   -109.58608    2.2057058   -107.38037   -16321.768    4.4596442    4.4596442    4.4596442   -16321.768   -32660.519    10885.849   -27190.635    18019.744   -7117.0313   -6132.7886    88.695304 
   16800    1315.4059    -108.5593    1.1902069   -107.36909    37287.842    4.4413302    4.4413302    4.4413302    37287.842   -4526.4189    67004.312    49385.634   -5545.7427   -24755.114    3981.2172    87.607076 
   16900    1968.3022   -109.13096    1.7809612      -107.35    3706.8807    4.4255113    4.4255113    4.4255113    3706.8807   -10045.449    22695.227   -1529.1362   -18602.425    41394.577   -5540.9412    86.674303 
   17000    2210.0001   -109.34983    1.9996545   -107.35017    15774.448    4.4161232    4.4161232    4.4161232    15774.448    22463.793    13011.312    11848.237    12359.889   -40903.785   -4656.6604    86.123871 
   17100    1494.9671   -108.76494    1.3526777   -107.41226     -19063.1    4.4265211    4.4265211    4.4265211     -19063.1   -40125.366   -38074.815    21010.881   -47516.194    25654.733     18046.39    86.733651 
   17200    2533.9409   -109.71746     2.292763   -107.42469   -25626.788    4.4162536    4.4162536    4.4162536   -25626.788   -68668.169   -4678.7586   -3533.4352    13449.832    22338.597   -12666.703    86.131498 
   17300    2198.6965   -109.41091    1.9894268   -107.42149     45920.33    4.3966831    4.3966831    4.3966831     45920.33    66687.234    14728.108    56345.649   -9445.4163   -11757.502   -11286.337    84.991502 
   17400    916.06003   -108.29436   0.82887036   -107.46549   -17904.067    4.4188054    4.4188054    4.4188054   -17904.067   -75850.045   -12674.109    34811.954   -22916.346    36509.057    16545.004    86.280893 
   17500    2773.0139   -109.92774    2.5090813   -107.41866   -7242.2919    4.4274847    4.4274847    4.4274847   -7242.2919   -5921.1949    1250.4852   -17056.166    12271.947   -4629.3602   -3719.5108    86.790302 
   17600    1515.5441   -108.80445    1.3712962   -107.43315    3319.0003    4.4303819    4.4303819    4.4303819    3319.0003   -34711.905    19802.729    24866.177   -34915.249    14334.114   -2535.7568    86.960794 
   17700    1967.0644   -109.18285    1.7798412   -107.40301   -18920.754     4.431797     4.431797     4.431797   -18920.754   -34935.583   -16445.872   -5380.8053    -16887.27    33163.818    19179.212    87.044145 
   17800    1975.1467   -109.17049    1.7871543   -107.38334    47943.848    4.4172536    4.4172536    4.4172536    47943.848    84043.393    62211.161   -2423.0092   -1754.5087   -24475.981   -10400.862    86.190022 
   17900    1828.6718   -109.05892    1.6546207    -107.4043   -9486.2398    4.4217366    4.4217366    4.4217366   -9486.2398   -16660.481    16319.624   -28117.862   -51249.148    29022.992     -2264.92     86.45271 
   18000    2291.0628   -109.47334    2.0730017   -107.40033   -8739.3972    4.4308912    4.4308912    4.4308912   -8739.3972   -647.75717   -12005.544   -13564.891   -1106.1009   -9021.1804    11502.562    86.990788 
   18100     1678.266   -108.90827    1.5185304   -107.38974    25415.109    4.4321253    4.4321253    4.4321253    25415.109    25967.164    34854.651    15423.511   -19491.739    4849.7957   -30970.201    87.063492 
   18200    2062.3414   -109.26487    1.8660498   -107.39883   -4056.8622    4.4408116    4.4408116    4.4408116   -4056.8622   -30281.587    22940.489   -4829.4882    -3296.995    41950.772    1578.7079    87.576389 
   18300    2522.2313   -109.66284    2.2821679   -107.38067    5164.6808    4.4401292    4.4401292    4.4401292    5164.6808   -10684.484   -21008.741    47187.267   -16571.435   -9454.7647   -12589.706    87.536023 
   18400     1741.148   -108.96464    1.5754273   -107.38921     7466.784    4.4245447    4.4245447    4.4245447     7466.784    17543.568   -38541.299    43398.083   -27768.333    34848.578    10417.167    86.617525 
   18500    2336.1211   -109.50678    2.1137715   -107.39301    13663.396    4.4339972    4.4339972    4.4339972    13663.396    43065.126    22862.078   -24937.017    2510.8127    15742.115   -14396.599    87.173851 
   18600    1899.4556   -109.10255    1.7186673   -107.38388   -11845.706    4.4589285    4.4589285    4.4589285   -11845.706   -3404.2631   -79249.181    47116.325   -25286.521   -13878.221    7448.1003    88.652612 
   18700    2307.8345   -109.40832    2.0881772   -107.32014   -66796.336    4.4665008    4.4665008    4.4665008   -66796.336   -52573.762   -76939.063   -70876.183    17127.808    41399.137    15799.206    89.105037 
   18800    2115.6088   -109.20649    1.9142473   -107.29224   -22900.316    4.4425699    4.4425699    4.4425699   -22900.316    17179.967    -62721.59   -23159.324   -63076.903    21178.536   -3131.3482    87.680456 
   18900     2808.266   -109.85089    2.5409781   -107.30992    7733.6782    4.4157056    4.4157056    4.4157056    7733.6782    45278.774   -13281.595   -8796.1443    22506.282    717.09884    10730.736    86.099442 
   19000    1070.8215   -108.35505   0.96890184   -107.38615    17189.555     4.402101     4.402101     4.402101    17189.555   -11803.025   -3534.3892    66906.079   -56980.632    18015.029    7852.5283    85.306085 
   19100    2497.6614   -109.69362    2.2599365   -107.43369   -6793.7451    4.4127427    4.4127427    4.4127427   -6793.7451   -25562.326   -4120.9633    9302.0535    11676.651    9121.7618    11227.263     85.92624 
   19200    2005.6149    -109.2733    1.8147225   -107.45858   -18154.133    4.4283945    4.4283945    4.4283945   -18154.133   -67129.122   -50414.561    63081.282     -27892.8    1295.6567   -7254.8357    86.843819 
   19300    1501.0013   -108.80344    1.3581375    -107.4453   -21463.165    4.4318909    4.4318909    4.4318909   -21463.165   -68537.435   -14265.003    18412.941   -33604.915    28739.013    5698.9192    87.049681 
   19400    2194.2401   -109.38902    1.9853945   -107.40362    2.2918308     4.430969     4.430969     4.430969    2.2918308   -28032.145   -21597.905    49636.926    24752.241   -5532.4281     15820.69     86.99537 
   19500    1405.6791   -108.66908     1.271888   -107.39719    11111.938    4.4238939    4.4238939    4.4238939    11111.938   -23426.686   -38787.635    95550.134    -45164.01    12004.648   -4635.9406    86.579305 
   19600     2732.537   -109.85037    2.4724569   -107.37791   -6372.3967    4.4211424    4.4211424    4.4211424   -6372.3967   -12572.186    16148.977   -22693.981    3784.6096    29887.193    16517.408    86.417859 
   19700    1394.3169   -108.67045    1.2616073   -107.40884    -23445.44    4.4374075    4.4374075    4.4374075    -23445.44   -25822.507   -60382.102    15868.289   -51543.508   -6967.5323    10346.094    87.375151 
   19800    2624.3669   -109.72699    2.3745823   -107.35241    11444.162    4.4387862    4.4387862    4.4387862    11444.162    7433.8717    20130.562    6768.0513    11305.546    18011.286    3980.7098    87.456616 
   19900    1945.5095   -109.11944    1.7603379    -107.3591   -37026.418    4.4327889    4.4327889    4.4327889   -37026.418   -78684.093   -33165.137    769.97688   -69899.738   -2773.1671    10482.298    87.102609 
   20000    3056.7153   -110.11267    2.7657803   -107.34689   -12776.289    4.4387405    4.4387405    4.4387405   -12776.289    6886.5675    -29551.71   -15663.725    18405.066   -5818.4363    20261.175    87.453916 
   20100    1463.3547   -108.66909    1.3240741   -107.34501   -26703.576    4.4452254    4.4452254    4.4452254   -26703.576   -78471.702   -51181.678    49542.652   -62613.841    14888.192   -10524.547    87.837785 
   20200    1639.5045   -108.81609    1.4834581   -107.33263    20343.917    4.4382137    4.4382137    4.4382137    20343.917    19115.515    65708.674   -23792.437    24745.174    156.80406    862.56429    87.422781 
   20300    2215.4995   -109.34339    2.0046305   -107.33876   -1912.4999    4.4203467    4.4203467    4.4203467   -1912.4999    -29620.25   -48460.036    72342.786   -49927.994    21317.631   -2348.8497    86.371209 
   20400    2188.7433   -109.35597    1.9804209   -107.37555    957.15186    4.4119511    4.4119511    4.4119511    957.15186    17241.965    -15572.64    1202.1302    -6336.369   -26553.116    2785.3092    85.880005 
   20500    1772.4952   -109.02333    1.6037909   -107.41954    1553.8182    4.4248594    4.4248594    4.4248594    1553.8182    11860.504        29539   -36738.049   -10951.593   -10690.515    11221.488    86.636009 
   20600    1503.7462   -108.77646    1.3606212   -107.41583   -2966.7138    4.4340227    4.4340227    4.4340227   -2966.7138   -21556.346   -41715.785    54371.989   -66833.149    11452.557    4072.6635    87.175356 
   20700    2147.9269   -109.34332    1.9434894   -107.39983    6626.3568    4.4173426    4.4173426    4.4173426    6626.3568   -13503.557    32848.884     533.7431   -763.59198   -46146.007   -882.09756    86.195233 
   20800    2212.2161    -109.4039    2.0016596   -107.40224    37097.805    4.4128251    4.4128251    4.4128251    37097.805    10849.766    56965.758     43477.89   -33522.666    11053.466    3958.3031    85.931056 
   20900    1814.4927   -109.06972    1.6417911   -107.42792    5412.4096    4.4280488    4.4280488    4.4280488    5412.4096   -42373.842    40556.243    18054.828   -33043.404   -40859.387   -5225.3573    86.823482 
   21000    1922.4395   -109.14703    1.7394636   -107.40757    9025.3493    4.4530196    4.4530196    4.4530196    9025.3493   -54057.543    16943.776    64189.815    15764.537    8851.0197   -8625.6735    88.300631 
   21100    1066.4439   -108.34253   0.96494082   -107.37759   -33905.972    4.4519976    4.4519976    4.4519976   -33905.972   -95801.867    22815.639   -28731.687    -2239.406   -34185.064   -12382.202    88.239853 
   21200    2100.5766   -109.24027    1.9006458   -107.33962    21235.535    4.4069504    4.4069504    4.4069504    21235.535    8586.3671    71897.843   -16777.605   -2892.8119   -31634.892    7688.0143    85.588318 
   21300    3147.7082   -110.20438    2.8481125   -107.35627    27058.983    4.3818754    4.3818754    4.3818754    27058.983    41079.721    37678.728    2418.5018   -20536.282    10333.594    1282.8934    84.135656 
   21400    1154.6013    -108.5096    1.0447075   -107.46489    -11219.48    4.3976293    4.3976293    4.3976293    -11219.48   -66920.435    33542.685   -280.69028   -33658.095   -67638.153    -22059.48    85.046386 
   21500    2429.3565   -109.65756    2.1981328   -107.45943    5545.4704    4.4349787    4.4349787    4.4349787    5545.4704    25020.756   -41298.043    32913.698    10505.417    34285.232    1091.2237    87.231757 
   21600    1322.1886   -108.61671     1.196344   -107.42037   -51965.989    4.4484607    4.4484607    4.4484607   -51965.989   -75543.629   -12780.111   -67574.227   -10485.879   -77982.385    1571.0084     88.02971 
   21700    2205.3147   -109.37221    1.9954151    -107.3768    27404.261    4.3997864    4.3997864    4.3997864    27404.261    28881.037   -36302.141    89633.887   -16282.225    3772.9263   -12825.533    85.171592 
   21800    2528.1078   -109.65705    2.2874851   -107.36957    24487.001    4.3677273    4.3677273    4.3677273    24487.001    10359.966    30918.878    32182.158    13598.502   -14703.725    9898.0099    83.323317 
   21900    1617.9349   -108.90599    1.4639415   -107.44205    5275.6087    4.3774935    4.3774935    4.3774935    5275.6087   -34906.614    11185.102    39548.338   -25531.363   -53710.305    141.50553    83.883497 
   22000    2642.3181   -109.85012    2.3908249   -107.45929   -5663.9714    4.4125883    4.4125883    4.4125883   -5663.9714   -20743.969   -42015.807    45767.862   -7787.3147    10643.916    3949.0424    85.917219 
   22100    1146.0681   -108.47221    1.0369865   -107.43522   -33258.648    4.4368638    4.4368638    4.4368638   -33258.648   -81372.077   -16845.048   -1558.8188   -500.53227    -66210.29     9571.967    87.343035 
   22200    2049.4484   -109.25846     1.854384   -107.40407   -8226.8321    4.4181279    4.4181279    4.4181279   -8226.8321   -53453.069   -47296.791    76069.363   -33034.964    27260.397    5303.1623    86.241212 
   22300    2447.7166    -109.6114    2.2147454   -107.39666    7886.2115    4.3917602    4.3917602    4.3917602    7886.2115   -31127.848    37837.477    16949.005    19104.589    -47815.06   -1598.8338     84.70633 
   22400    1857.3828   -109.11183     1.680599   -107.43123    446.44491    4.3662863    4.3662863    4.3662863    446.44491    -39755.96     27843.79    13251.505    -39353.07   -31643.571    9284.2037    83.240873 
   22500    1937.2383   -109.22561    1.7528539   -107.47276    520.32666    4.3798743    4.3798743    4.3798743    520.32666   -10932.454   -27329.728    39823.162   -13946.986    32965.008    10346.984    84.020439 
   22600    2717.0034    -109.9179    2.4584018    -107.4595   -19194.144    4.4105859    4.4105859    4.4105859   -19194.144   -52409.676   -26030.254    20857.497    19433.727   -22084.213   -23877.137    85.800308 
   22700    1384.0945   -108.68965    1.2523578   -107.43729   -28293.647    4.4141342    4.4141342    4.4141342   -28293.647   -48106.515    -43447.53    6673.1033   -71870.139    6140.4232    26687.575    86.007557 
   22800    2130.3493   -109.33436    1.9275848   -107.40677   -11801.849    4.4076617    4.4076617    4.4076617   -11801.849   -35357.153   -23409.315    23360.922    55225.422    12184.354   -22669.448    85.629769 
   22900    2273.5365   -109.46326    2.0571436   -107.40612   -19046.231    4.4058459    4.4058459    4.4058459   -19046.231   -53526.084   -42565.753    38953.143   -43602.869   -6161.2841    13556.583    85.523978 
   23000    1933.5331   -109.16874    1.7495014   -107.41924    28029.525    4.3866039    4.3866039    4.3866039    28029.525   -15890.162    35522.765    64455.973    177.97776    15084.664   -1544.3869    84.408322 
   23100    2191.3559   -109.42549    1.9827849    -107.4427    14268.178    4.3946443    4.3946443    4.3946443    14268.178   -35079.096    41287.164    36596.467    46790.283    21231.143   -2724.8073     84.87332 
   23200    2630.0217   -109.79193    2.3796989   -107.41223   -6985.7098     4.421261     4.421261     4.421261   -6985.7098   -40998.283    15758.362    4282.7916   -27747.848    608.86855   -3839.8584    86.424814 
   23300    1031.1052    -108.3729   0.93296563   -107.43993   -46909.615    4.4144658    4.4144658    4.4144658   -46909.615   -99583.555    4932.0074   -46077.296    58511.583    24511.441   -3929.7061    86.026938 
   23400    2016.0834   -109.26593    1.8241946   -107.44174   -5235.2726    4.3862216    4.3862216    4.3862216   -5235.2726   -25269.289    23216.036   -13652.565    7425.2047   -17393.825   -5777.0755    84.386256 
   23500    2714.6912    -109.9005    2.4563096   -107.44419      40729.3    4.3676721    4.3676721    4.3676721      40729.3    6782.2997    42885.703    72519.897   -2335.5763    8014.4006   -11932.044    83.320157 
   23600    1649.3712   -108.99166    1.4923857   -107.49928   -1078.4062    4.3928309    4.3928309    4.3928309   -1078.4062    1536.1725    26593.074   -31364.465     59548.63    22392.922    12765.958    84.768296 
   23700    1947.4655   -109.22692    1.7621077   -107.46482   -26661.715    4.4229135    4.4229135    4.4229135   -26661.715   -31239.029    1683.6475   -50429.764   -34838.331   -13068.549   -16817.169    86.521756 
   23800     2074.233   -109.31156    1.8768096   -107.43475    14127.952    4.4070122    4.4070122    4.4070122    14127.952    -10164.33    7919.6129    44628.573   -20997.175    792.25018    9011.5905     85.59192 
   23900    1860.6125   -109.10447    1.6835213   -107.42095    5889.7972    4.3867742    4.3867742    4.3867742    5889.7972   -3916.7172   -17335.942    38922.051    20428.192    14843.383    -3774.822    84.418154 
   24000    1371.8822   -108.69034    1.2413078   -107.44903   -18755.881    4.3924414    4.3924414    4.3924414   -18755.881   -86433.194   -11368.697    41534.247   -75340.459   -98.331486    2580.6671    84.745752 
   24100    3340.9356   -110.44706    3.0229488   -107.42411    6327.2645    4.4063431    4.4063431    4.4063431    6327.2645   -30786.343     19921.85    29846.286    16465.124   -10201.202   -1120.5281    85.552937 
   24200    2007.7269   -109.27361    1.8166335   -107.45698   -36698.309    4.4112599    4.4112599    4.4112599   -36698.309   -81568.822   -58775.901    30249.794   -61314.582    10730.234   -20533.988    85.839647 
   24300    1147.3265   -108.49385    1.0381251   -107.45573   -12953.662    4.3935437    4.3935437    4.3935437   -12953.662   -80121.554   -12868.236    54128.804   -19261.108   -17453.329   -6449.8585    84.809566 
   24400     2553.544   -109.75512    2.3105003   -107.44462    1314.0799    4.3825557    4.3825557    4.3825557    1314.0799    -34845.89    8447.7778    30340.352    23192.382    2898.8256    8076.4878    84.174849 
   24500    2153.6139   -109.40695    1.9486351   -107.45831    12045.692    4.3954811    4.3954811    4.3954811    12045.692   -7272.8707     18065.52    25344.425   -40276.589   -3913.4071   -7827.9026    84.921814 
   24600    1355.8977   -108.70052    1.2268448   -107.47368   -30000.318    4.4090167    4.4090167    4.4090167   -30000.318   -77288.419    3167.5582   -15880.094    35909.175   -5248.8369    -12948.34    85.708766 
   24700    2315.8891    -109.5522    2.0954652   -107.45674   -2561.2802    4.4024035    4.4024035    4.4024035   -2561.2802   -25619.414   -34394.083    52329.656    36617.769    16991.763     11637.52    85.323672 
   24800    2877.7991   -110.04245    2.6038931   -107.43855        17593     4.398181     4.398181     4.398181        17593   -7281.0242     50819.06    9240.9637    -13633.47   -22271.134    7021.9982    85.078398 
   24900    1089.5173   -108.45205   0.98581812   -107.46624   -26129.308    4.3956812    4.3956812    4.3956812   -26129.308   -81133.614    5931.4988   -3185.8089    66928.781    14060.677   -2975.0291    84.933408 
   25000    1407.2559   -108.74159    1.2733147   -107.46827    24832.545    4.3969494    4.3969494    4.3969494    24832.545    -16212.52    5324.6128    85385.543   -7823.5158    8720.1918    6947.9518    85.006947 
   25100    2855.0562   -110.02855    2.5833149   -107.44523    -5496.858    4.4077274    4.4077274    4.4077274    -5496.858   -33890.488    -13595.66    30995.574    12664.995     337.9592   -2879.4403    85.633596 
   25200    2176.2963    -109.4179    1.9691586   -107.44874    -20716.42    4.4106241    4.4106241    4.4106241    -20716.42   -73886.201   -21857.605    33594.546    36879.624    33992.245    213.30657    85.802539 
   25300    1374.9766    -108.6846    1.2441077   -107.44049     3433.121       4.4045       4.4045       4.4045     3433.121   -44805.584    34962.782    20142.165   -30266.261   -7586.6074    25210.734    85.445629 
   25400    2146.6245   -109.38477    1.9423109   -107.44246    12822.331    4.4015388    4.4015388    4.4015388    12822.331   -39274.694    66490.543    11251.145    31374.879   -8621.0787    -5036.167    85.273403 
   25500    2475.3353   -109.68934    2.2397354   -107.44961   -1369.0577    4.4054072    4.4054072    4.4054072   -1369.0577   -37239.337    21741.437    11390.727   -4416.1543    5635.5437    3160.0562    85.498436 
   25600    1241.5564    -108.5977    1.1233863   -107.47432   -18589.625    4.4087666    4.4087666    4.4087666   -18589.625   -39154.799    17031.125     -33645.2   -14664.487   -25945.666    21101.229    85.694181 
   25700    1756.0296   -109.05731    1.5888925   -107.46841   -25794.292    4.3988498    4.3988498    4.3988498   -25794.292    18049.877   -66611.104    -28821.65    27186.425    -3934.948   -23069.882    85.117215 
   25800    2953.8757   -110.12355    2.6727288   -107.45082    20633.143    4.3883691    4.3883691    4.3883691    20633.143    15367.855    20671.908    25859.664   -2462.1501   -14462.553   -13068.231    84.510263 
   25900    2234.2077   -109.49953    2.0215581   -107.47797     -2397.36    4.4029967    4.4029967    4.4029967     -2397.36    11271.647   -13955.085   -4508.6416   -4146.0858   -15619.326    18799.087    85.358167 
   26000    926.02586   -108.32464   0.83788766   -107.48675   -13573.329    4.4171564    4.4171564    4.4171564   -13573.329    14235.949   -16897.488   -38058.447    36522.406   -2670.9555   -40668.542    86.184332 
   26100    3212.5307   -110.33221    2.9067653   -107.42544    -5120.922    4.4273693    4.4273693    4.4273693    -5120.922    6599.1467   -44311.709    22349.796   -7943.9618   -11455.405    1147.9802    86.783517 
   26200    1550.1656   -108.81004    1.4026224   -107.40741    4185.3915    4.4276787    4.4276787    4.4276787    4185.3915    41826.121    -42260.02    12990.073    18426.157    4956.5279    -36472.47    86.801712 
   26300    1957.2913   -109.14414    1.7709983   -107.37314    660.08483    4.4223601    4.4223601    4.4223601    660.08483   -9511.2425   -15034.624    26526.121   -8448.4344    3543.0838     23288.72    86.489285 
   26400    2178.2055   -109.35033    1.9708862   -107.37944   -17018.065    4.4189475    4.4189475    4.4189475   -17018.065    47316.657   -87712.316   -10658.535   -21375.955   -4631.9181   -41521.046    86.289215 
   26500    2161.9447   -109.34737     1.956173   -107.39119   -20117.748    4.4051318    4.4051318    4.4051318   -20117.748   -5246.7728   -30244.166   -24862.306      45033.6   -1963.6889     -14519.7    85.482402 
   26600    1880.4702   -109.12616     1.701489   -107.42467   -3538.6824    4.3991994    4.3991994    4.3991994   -3538.6824    22428.413   -37114.637    4070.1769    -32055.03    7131.3093    21711.268    85.137509 
   26700    2694.4557    -109.8664    2.4380001    -107.4284   -7544.3742    4.4218937    4.4218937    4.4218937   -7544.3742   -5289.9273   -17487.755    144.56007    3923.4438   -11513.975   -11951.363    86.461926 
   26800    1069.0834   -108.39788   0.96732913   -107.43055    6867.5799    4.4281893    4.4281893    4.4281893    6867.5799    65912.449   -40241.576   -5068.1336    6824.5572   -8900.5902    5353.2469    86.831744 
   26900    2565.2802   -109.72054    2.3211194   -107.39943   -5641.6405    4.4222445    4.4222445    4.4222445   -5641.6405    50749.653   -46182.651   -21491.923   -13723.315    4593.8556    8867.7339    86.482502 
   27000    2291.9946   -109.47746    2.0738448   -107.40362    5207.3003    4.3927434    4.3927434    4.3927434    5207.3003     3715.886    1080.6243     10825.39    19863.205   -88.313204    3552.2866    84.763234 
   27100    1491.4989   -108.78006    1.3495396   -107.43052    60190.491    4.3912605    4.3912605    4.3912605    60190.491    79033.867    50063.615     51473.99   -1142.3716    9977.1957    -1192.446    84.677417 
   27200    2310.9445   -109.51803    2.0909912   -107.42704   -35299.282    4.4187753    4.4187753    4.4187753   -35299.282   -9812.1035   -52073.259   -44012.482   -8649.4803   -7759.0413   -13512.416    86.279131 
   27300     1348.345   -108.66001    1.2200108      -107.44   -9603.3399     4.408057     4.408057     4.408057   -9603.3399   -39990.386    19655.536   -8475.1702    23201.577    16219.026    2145.2757     85.65281 
   27400    3049.0117   -110.17588    2.7588098   -107.41708    20867.154    4.4122211    4.4122211    4.4122211    20867.154    56862.254   -25757.991    31497.199    6209.6799   -1353.6606      15879.1    85.895774 
   27500    1579.9217   -108.87122    1.4295464   -107.44168   -25435.637    4.4110371    4.4110371    4.4110371   -25435.637   -59434.341   -224.34721   -16648.224    10564.275   -7333.6853   -8216.4118    85.826642 
   27600    1710.1263    -108.9761    1.5473582   -107.42874    23487.902    4.4019203    4.4019203    4.4019203    23487.902    38937.829   -7647.1212    39172.997    9029.2864    16258.227    26261.812     85.29558 
   27700    2246.6578   -109.45535    2.0328232   -107.42253     3187.397    4.4090668    4.4090668    4.4090668     3187.397   -26084.733     11866.59    23780.333   -18531.408   -3850.7284    3173.8958    85.711688 
   27800    1784.0693   -109.04381    1.6142634   -107.42954    18510.189    4.4088109    4.4088109    4.4088109    18510.189    53506.268   -9100.5093    11124.808    31739.077   -7223.0461   -3296.0226    85.696762 
   27900    2573.9975   -109.74593    2.3290071   -107.41693    36807.798    4.4102251    4.4102251    4.4102251    36807.798    16292.663    16865.987    77264.745   -15578.766   -2486.5118     27520.34    85.779253 
   28000    1031.7443   -108.37225   0.93354392    -107.4387    12611.719    4.4117115    4.4117115    4.4117115    12611.719    53709.234   -34997.117    19123.041    1265.7908     4756.179    -9099.171    85.866014 
   28100    2659.2775   -109.82057    2.4061702    -107.4144   -15960.396    4.4254103    4.4254103    4.4254103   -15960.396   -9667.2623   -31200.175   -7013.7494    19804.091   -2717.2779   -9005.8385     86.66837 
   28200     2312.123   -109.49822    2.0920574   -107.40616    16424.333    4.4137837    4.4137837    4.4137837    16424.333    7873.8528   -12760.936    54160.081   -24021.334    2679.2305    5005.6764    85.987068 
   28300    1507.9793    -108.7807    1.3644513   -107.41625    16106.031     4.405871     4.405871     4.405871    16106.031    18165.802   -3955.4225    34107.714     29733.27    13856.563   -17448.546    85.525444 
   28400    1960.9366   -109.17963    1.7742967   -107.40534    18184.561    4.4178539    4.4178539    4.4178539    18184.561     65097.26   -37660.923    27117.344   -23798.498    7930.6242     2708.656    86.225167 
   28500    2201.1081   -109.38378    1.9916089   -107.39217   -49220.754    4.4365905    4.4365905    4.4365905   -49220.754   -61557.997    -85164.31   -939.95429     21656.01    3314.6656    5663.2533      87.3269 
   28600    2745.1408   -109.84427    2.4838611   -107.36041   -7179.1565    4.4288932    4.4288932    4.4288932   -7179.1565    56325.084   -45209.125   -32653.429    2699.1997   -988.42819    3084.7057    86.873158 
   28700    1491.7334   -108.72492    1.3497517   -107.37517    2527.1066    4.3973169    4.3973169    4.3973169    2527.1066    5479.3202   -42238.816    44340.816    12183.718    6377.8994    31403.489     85.02826 
   28800    2134.7128    -109.3167     1.931533   -107.38517    2408.4799    4.3855735    4.3855735    4.3855735    2408.4799     831.2127   -57109.149    63503.376    51579.569    4845.3561   -1781.5487    84.348851 
   28900    2384.9883   -109.57387    2.1579876   -107.41588    2231.8162    4.4081678    4.4081678    4.4081678    2231.8162    77992.977   -28204.498    -43093.03   -19613.152   -11531.254    13223.124    85.659265 
   29000    1234.1997   -108.56001    1.1167298   -107.44328   -70536.131    4.4335884    4.4335884    4.4335884   -70536.131   -89697.675   -110544.09   -11366.629    70206.988    8133.3883    8993.4184    87.149743 
   29100    2853.8334   -109.98693    2.5822085   -107.40472   -11369.122    4.4110601    4.4110601    4.4110601   -11369.122    45990.052   -70416.571   -9680.8475   -4525.6155   -1317.0407   -22467.928    85.827988 
   29200    1966.3732   -109.17756    1.7792158   -107.39835   -3694.7292    4.3837328    4.3837328    4.3837328   -3694.7292    2017.9231   -36521.558    23419.447    53604.608   -18611.523   -3040.1659    84.242689 
   29300    1827.0792    -109.0762    1.6531797   -107.42302   -10090.558    4.3943796    4.3943796    4.3943796   -10090.558    10973.953   -54294.313    13048.686    18298.781    12659.922   -14340.927    84.857985 
   29400    2015.1832   -109.24983    1.8233801   -107.42645     -663.922    4.4074222    4.4074222    4.4074222     -663.922     50243.42   -41638.293   -10596.893    10761.126    -8694.582   -32932.279    85.615809 
   29500    1713.4246   -108.98133    1.5503426   -107.43099   -2334.0571    4.4281438    4.4281438    4.4281438   -2334.0571   -57038.778    -33608.02    83644.627    38280.417   -4267.1443   -3593.9418    86.829067 
   29600    2424.5995   -109.59614    2.1938286   -107.40232   -12383.352    4.4232732    4.4232732    4.4232732   -12383.352     4266.378   -44026.747    2610.3115   -18602.592    30463.012   -40053.048    86.542867 
   29700    1322.3154   -108.58411    1.1964587   -107.38765    38167.993    4.3966633    4.3966633    4.3966633    38167.993    23363.897    2069.5832    89070.499    48346.145   -27136.047   -1062.8548    84.990351 
   29800    2476.8766   -109.63383      2.24113    -107.3927   -12245.949    4.4035915    4.4035915    4.4035915   -12245.949   -15813.499   -22709.316    1784.9691   -33770.363     45034.96   -25157.855    85.392765 
   29900    1495.3396   -108.76043    1.3530147   -107.40742    16108.084    4.4125116    4.4125116    4.4125116    16108.084    50275.161   -36061.163    34110.254     40063.96   -14361.317   -805.10211    85.912745 
   30000     2277.166   -109.47422    2.0604276    -107.4138   -16830.538    4.4303072    4.4303072    4.4303072   -16830.538   -10671.884   -26317.553   -13502.176   -16629.498    20892.384   -6039.2159    86.956392 
   30100    1778.0998   -109.02112    1.6088621   -107.41226   -26313.505    4.4229548    4.4229548    4.4229548   -26313.505   -15362.319    -63335.86   -242.33519   -1775.5894    34593.507   -7448.2088    86.524179 
   30200    1662.6689    -108.8884    1.5044177   -107.38398    16158.091    4.3894167    4.3894167    4.3894167    16158.091    28669.383   -30946.841    50751.731    46160.631   -28805.482   -8892.4752      84.5708 
   30300    2155.7086   -109.35369    1.9505305   -107.40316    12935.348    4.3924256    4.3924256    4.3924256    12935.348   -1271.1568   -11282.182    51359.381   -71461.366    27081.947    5643.5676    84.744837 
   30400    1854.8638   -109.09358    1.6783198   -107.41526    -1893.399    4.4129047    4.4129047    4.4129047    -1893.399    1120.8815   -57583.766    50782.687    66728.133    3163.2552    -5158.999    85.935707 
   30500    1916.8523   -109.15214    1.7344082   -107.41773   -6696.4903    4.4333905    4.4333905    4.4333905   -6696.4903   -18481.254   -35512.658    33904.441   -40213.298   -7878.3072   -12040.642    87.138076 
   30600      2238.51   -109.40579    2.0254509   -107.38034    -4579.435     4.432692     4.432692     4.432692    -4579.435    3789.6585   -37187.455    19659.491    14081.192    10830.803   -365.68461    87.096893 
   30700    1562.4005   -108.78847    1.4136928   -107.37478    10500.427    4.3999414    4.3999414    4.3999414    10500.427    54759.788   -33861.482    10602.974    17892.342    -1599.004   -13169.963    85.180595 
   30800    2322.7873   -109.47963    2.1017067   -107.37792    26085.902    4.3813168    4.3813168    4.3813168    26085.902   -4904.5052    85662.771   -2500.5604   -32093.451   -17881.638   -4363.9732     84.10348 
   30900    2147.8807   -109.38193    1.9434476   -107.43849   -13137.679     4.400622     4.400622     4.400622   -13137.679    37717.855   -52670.696   -24460.195     43569.99    17748.823   -15060.008    85.220133 
   31000    2075.0324   -109.31937     1.877533   -107.44184   -21201.829    4.4302505    4.4302505    4.4302505   -21201.829    5705.9863    -17330.88   -51980.595   -20173.611   -18838.756   -10944.943    86.953059 
   31100     1859.076   -109.10631     1.682131   -107.42418    -2189.118    4.4248668    4.4248668    4.4248668    -2189.118   -22258.663    70521.603   -54830.294    19284.893   -3836.4069    2503.3165    86.636442 
   31200    1479.4457   -108.74405    1.3386335   -107.40541    -1593.534    4.4152407    4.4152407    4.4152407    -1593.534    44537.194   -1217.2071   -48100.589    5861.8143    10057.984   -25714.846     86.07225 
   31300    2598.2206   -109.74349    2.3509246   -107.39256    1209.8718    4.4127426    4.4127426    4.4127426    1209.8718    17145.928    25698.903   -39215.215   -87.226232   -6210.0248    -9057.255    85.926237 
   31400    1857.3621   -109.10187    1.6805803   -107.42129    25772.372    4.3987869    4.3987869    4.3987869    25772.372    23089.887    53671.069    556.16024    33507.633    9587.8951   -11025.005    85.113562 
   31500    1980.2721    -109.2287    1.7917918   -107.43691   -2420.8291    4.4114191    4.4114191    4.4114191   -2420.8291     63590.78    5299.7699   -76153.037    1273.2307    3958.9097    11930.929    85.848942 
   31600    2716.6652   -109.86991    2.4580958   -107.41181   -13159.501    4.4148426    4.4148426    4.4148426   -13159.501    4048.9803   -4124.1981   -39403.285    31940.166    1994.8004    12421.149    86.048969 
   31700    1426.7466   -108.71878    1.2909503   -107.42783    22133.175    4.3948374    4.3948374    4.3948374    22133.175    54804.588     51752.82   -40157.882    17192.885    17849.239   -23786.033    84.884506 
   31800    2244.8311   -109.47476    2.0311703   -107.44359   -9486.4961    4.4052266    4.4052266    4.4052266   -9486.4961    40653.689   -4811.6592   -64301.518   -11572.092   -9258.3995    24214.432    85.487922 
   31900    1901.9711   -109.15678    1.7209434   -107.43583   -5488.5459    4.4053722    4.4053722    4.4053722   -5488.5459   -39361.465    31620.918   -8725.0909   -7409.8999   -7008.3439    6814.0937    85.496397 
   32000    1872.3225   -109.13666    1.6941167   -107.44254     -28421.9    4.4042387    4.4042387    4.4042387     -28421.9    33220.858   -43338.181   -75148.377    18007.607   -605.76703   -54696.012    85.430423 
   32100    2068.8749   -109.31261    1.8719615   -107.44064   -19654.595    4.4119957    4.4119957    4.4119957   -19654.595   -47845.336    2843.3353   -13961.783   -46548.014   -11357.278    23018.646    85.882613 
   32200    1454.9765   -108.76273    1.3164933   -107.44624   -35364.736    4.4190319    4.4190319    4.4190319   -35364.736   -61278.624   -12526.258   -32289.327   -13334.273    6789.5892   -38576.988    86.294158 
   32300    2394.9293   -109.60279    2.1669824   -107.43581   -6278.9172    4.4023825    4.4023825    4.4023825   -6278.9172    12041.804    6185.8794   -37064.435    20082.459    944.38205   -26707.904    85.322452 
   32400    1976.5149   -109.24409    1.7883922    -107.4557    17810.152    4.3936503    4.3936503    4.3936503    17810.152   -4231.8177     47188.39    10473.885   -53677.163   -16906.329    7588.3783    84.815743 
   32500    1663.0674   -108.97455    1.5047783   -107.46977   -10890.449    4.3982878    4.3982878    4.3982878   -10890.449   -1898.1059    13591.633   -44364.875    23645.865    10202.454   -57978.508    85.084593 
   32600    1940.9929   -109.22148    1.7562512   -107.46523    5792.5651    4.3985336    4.3985336    4.3985336    5792.5651   -33326.165    62839.651   -12135.791   -10755.439   -1154.1091    16485.941    85.098862 
   32700    2206.6986   -109.45766    1.9966672   -107.46099   -19483.159    4.4000581    4.4000581    4.4000581   -19483.159   -35983.245    -19122.79   -3343.4434   -32730.937   -21803.281   -27330.589    85.187373 
   32800    2185.9522   -109.42836    1.9778954   -107.45046    9186.8015    4.4078989    4.4078989    4.4078989    9186.8015    4686.4229    61017.969   -38143.988    17119.115    9597.7228   -25031.247    85.643592 
   32900    1483.4878   -108.78466    1.3422909   -107.44237   -50961.845    4.4175703    4.4175703    4.4175703   -50961.845   -130443.01   -34294.381     11851.86   -60425.736       -13715    15829.733    86.208561 
   33000    1818.5092   -109.08151    1.6454254   -107.43609   -17.934089    4.3873734    4.3873734    4.3873734   -17.934089   -29220.768    17834.518    11332.448    -2379.496   -14508.501   -32231.383    84.452747 
   33100    2549.9064   -109.75026    2.3072089   -107.44305    31439.795    4.3813999    4.3813999    4.3813999    31439.795    1956.7489    90343.897    2018.7386   -5668.2197    3067.1359    -36519.72    84.108269 
   33200    2439.2322   -109.67175    2.2070685   -107.46468   -13152.225    4.3998277    4.3998277    4.3998277   -13152.225   -60199.668    40129.459   -19386.467   -44515.296   -24903.336    9569.5775    85.173992 
   33300    1049.5227   -108.42229   0.94963023   -107.47266    29249.287    4.4150076    4.4150076    4.4150076    29249.287   -20885.132    135509.05   -26876.059    32193.547    5346.2935   -37936.338    86.058617 
   33400    2363.0881   -109.57082    2.1381718   -107.43265   -36961.747    4.4335922    4.4335922    4.4335922   -36961.747    -75078.42   -2758.7541   -33048.066     1427.582   -15797.945    419.93372    87.149967 
   33500    2276.3722   -109.47574    2.0597094   -107.41603    9272.8637    4.4086261    4.4086261    4.4086261    9272.8637   -43256.128    74443.723   -3369.0036    1967.3741   -11929.376    -13980.98    85.685988 
   33600    1579.1764   -108.84013     1.428872   -107.41126    17538.573     4.385051     4.385051     4.385051    17538.573   -16162.058    12235.421    56542.355    38460.902     3818.479   -27010.989    84.318706 
   33700    2061.4572   -109.29016    1.8652498   -107.42491    24237.051    4.3906756    4.3906756    4.3906756    24237.051   -39266.517    34170.737    77806.934   -20255.705   -30107.422    23767.169    84.643586 
   33800    1883.6817   -109.16298    1.7043948   -107.45858   -24869.645    4.4042746    4.4042746    4.4042746   -24869.645   -18870.896   -24223.652   -31514.389    34334.403    12073.173   -22973.038    85.432511 
   33900    1894.2903   -109.17245    1.7139937   -107.45845    -21471.09      4.41809      4.41809      4.41809    -21471.09   -20856.929   -5779.4086   -37776.933    950.84917   -3244.9904    -52805.64    86.238995 
   34000    2423.9002   -109.61728    2.1931958   -107.42408    147.83535    4.4154443    4.4154443    4.4154443    147.83535   -16276.785    2958.6823    13761.609   -13723.436     -17708.5    28061.348    86.084155 
   34100    1329.7568   -108.63338    1.2031919   -107.43019   -28232.838    4.4149114    4.4149114    4.4149114   -28232.838   -11134.003   -54733.863   -18830.649    19033.656    12466.662    -61207.25    86.052992 
   34200    2762.8233   -109.90635    2.4998606   -107.40649    10241.352    4.4015797    4.4015797    4.4015797    10241.352   -18274.738    15593.159    33405.636     6132.502   -21011.329    13576.915    85.275781 
   34300     1714.166   -108.97124    1.5510134   -107.42022    1944.9657    4.4066052    4.4066052    4.4066052    1944.9657    14393.402   -12365.073    3806.5683    6061.6846     1567.776   -44081.057    85.568208 
   34400    1367.8166   -108.66111    1.2376292   -107.42348   -60747.877    4.4230172    4.4230172    4.4230172   -60747.877   -37058.752   -81302.804   -63882.075    10498.123    2453.9065   -30244.914    86.527843 
   34500     2772.299    -109.9061    2.5084344   -107.39767    5679.8319     4.404082     4.404082     4.404082    5679.8319   -9634.1391   -3113.5152     29787.15   -3903.5734   -1198.3944    10419.135    85.421305 
   34600    1761.4173   -109.01055    1.5937674   -107.41678    14667.181    4.3979911    4.3979911    4.3979911    14667.181     84161.05   -8717.5603   -31441.948   -2638.0356    3214.1711   -61197.728    85.067374 
   34700    2101.4746   -109.31412    1.9014584   -107.41266   -20119.604    4.4090056    4.4090056    4.4090056   -20119.604   -2951.1031   -35385.418    -22022.29    8148.0344    13680.983    38531.838    85.708119 
   34800    1503.0057   -108.77877    1.3599512   -107.41882    19032.692    4.4076569    4.4076569    4.4076569    19032.692    19263.442    19111.813    18722.822   -17292.838   -6185.3131    -57056.76    85.629485 
   34900    2512.1989   -109.68428    2.2730904   -107.41119    1248.6694    4.4190495    4.4190495    4.4190495    1248.6694    41981.711   -21967.837   -16267.866    8647.9142    18391.232     32979.43    86.295193 
   35000    1686.2081   -108.93429    1.5257165   -107.40858   -11678.705     4.419376     4.419376     4.419376   -11678.705    53853.967   -52038.923   -36851.158   -13394.982    4090.9404   -26339.793    86.314323 
   35100    1938.3601   -109.15244    1.7538689   -107.39857    9697.8237    4.3973615    4.3973615    4.3973615    9697.8237    25170.731    3548.7355    374.00427    2053.1097    -15903.52   -28953.946     85.03085 
   35200    2141.3108   -109.33909     1.937503   -107.40159    23350.283    4.3981933    4.3981933    4.3981933    23350.283    50271.931    14807.842    4971.0766   -5670.0741   -2586.7616    33778.938    85.079108 
   35300    1347.6948   -108.65585    1.2194226   -107.43643   -21259.956    4.4070711    4.4070711    4.4070711   -21259.956    24704.481   -35691.469   -52792.879   -12732.353    5126.3387   -73565.999    85.595353 
   35400    2661.7962   -109.82527    2.4084492   -107.41682    24171.518    4.4135799    4.4135799    4.4135799    24171.518    16873.151    62965.843   -7324.4404     -13447.5   -25628.721    27211.985    85.975158 
   35500    1312.7986   -108.62194    1.1878477    -107.4341   -35271.362    4.4239257    4.4239257    4.4239257   -35271.362    30415.639   -67659.318   -68570.408   -22330.872    28689.288   -48478.917    86.581175 
   35600     2217.122    -109.4148    2.0060986    -107.4087    -27956.93    4.3972061    4.3972061    4.3972061    -27956.93   -31550.655   -24567.635   -27752.499   -23955.219   -24065.537    -4672.818    85.021833 
   35700    2418.5948   -109.58316    2.1883954   -107.39477    21066.931     4.379439     4.379439     4.379439    21066.931    44590.256    12699.058     5911.479     15242.57    6848.1354   -26070.525    83.995388 
   35800    1180.5765   -108.50365    1.0682105   -107.43544   -11086.296    4.3942936    4.3942936    4.3942936   -11086.296   -11966.219   -26069.786    4777.1164   -32170.012    15282.928   -36875.523       84.853 
   35900    2694.5473   -109.84721     2.438083   -107.40913    3973.8029    4.4071781    4.4071781    4.4071781    3973.8029    34663.498   -19015.855   -3726.2338     5764.468    7578.9715    24785.524    85.601587 
   36000     1555.538   -108.82811    1.4074835   -107.42062   -50709.424    4.4200825    4.4200825    4.4200825   -50709.424   -6837.3394   -79435.433   -65855.501    1721.1835    9972.1246   -35360.445    86.355725 
   36100    2415.3546   -109.57413    2.1854636   -107.38866   -6167.3235    4.4079009    4.4079009    4.4079009   -6167.3235   -35154.053    4429.4983    12222.584   -32314.982     6037.953    -3238.358    85.643712 
   36200    1729.5119   -108.96214    1.5648987   -107.39724    -13184.58     4.395109     4.395109     4.395109    -13184.58    23764.135   -36701.879   -26615.996    -3617.963   -4933.3316    24235.607    84.900247 
   36300    1882.3293   -109.12709    1.7031711   -107.42392   -6301.0556    4.3936141    4.3936141    4.3936141   -6301.0556   -5308.2678   -10945.955   -2648.9441    15658.535    11614.239   -42456.629    84.813646 
   36400    2722.2006   -109.89286    2.4631043   -107.42975    3921.8288    4.3966367    4.3966367    4.3966367    3921.8288    6524.0496    -2163.881    7405.3178   -7060.9675   -30326.827    21336.763    84.988811 
   36500    1041.9742   -108.39268   0.94280014   -107.44988   -9631.3214    4.4192291    4.4192291    4.4192291   -9631.3214    60079.237   -68207.855   -20765.346     12104.53   -8643.4238   -17188.144    86.305714 
   36600    2698.9276   -109.82014    2.4420464    -107.3781   -23664.011    4.4333024    4.4333024    4.4333024   -23664.011   -37201.769    -29196.31   -4593.9545    5831.4551   -3181.9328   -1116.7638    87.132879 
   36700    1458.1834   -108.69835     1.319395   -107.37895   -12749.879    4.4147033    4.4147033    4.4147033   -12749.879    2876.7731   -40004.363   -1122.0458     11016.33   -14781.025   -18433.056    86.040822 
   36800     2302.608   -109.46383    2.0834481   -107.38038    1063.9608    4.3954252    4.3954252    4.3954252    1063.9608    70103.416   -58201.851   -8709.6829    6293.1843    1298.0288   -7125.6394     84.91857 
   36900    2478.6428   -109.64193    2.2427281    -107.3992    6835.8078    4.3963049    4.3963049    4.3963049    6835.8078    11259.754    17369.185    -8121.515    13421.687    38109.899    -10192.04     84.96957 
   37000    1766.4721   -109.02419    1.5983411   -107.42585    33959.384    4.4134662    4.4134662    4.4134662    33959.384    116642.46   -54354.478    39590.165    8744.2164   -18451.714    -23194.65    85.968515 
   37100    2070.4194    -109.2749     1.873359   -107.40154   -17046.032    4.4347187    4.4347187    4.4347187   -17046.032    27929.767   -41967.346   -37100.518    12979.114     53413.74    10005.255    87.216414 
   37200     1362.129   -108.63191    1.2324829   -107.39942   -26656.067    4.4128579    4.4128579    4.4128579   -26656.067    69052.717   -64637.066   -84383.851    11195.914    -2633.313   -56659.802    85.932972 
   37300     2795.795   -109.88846    2.5296941   -107.35877    56697.315    4.3859021    4.3859021    4.3859021    56697.315    101995.39    39485.511     28611.04    20538.145    22487.834    22296.584    84.367813 
   37400    1290.7126   -108.58406    1.1678639    -107.4162   -41094.604    4.4034514    4.4034514    4.4034514   -41094.604   -27677.544   -265.53933   -95340.729    15088.892    45000.099    -65679.11    85.384615 
   37500    3085.7296   -110.18626     2.792033   -107.39423   -16060.022     4.427576     4.427576     4.427576   -16060.022   -22524.199   -15208.256    -10447.61    16890.363   -8702.2585    4406.3139    86.795673 
   37600    1384.0047   -108.63929    1.2522765   -107.38701   -58075.312    4.4573593    4.4573593    4.4573593   -58075.312   -31134.928   -47297.301   -95793.707    11430.619    40904.672   -27956.325    88.559049 
   37700    2182.1177   -109.29403     1.974426    -107.3196   -26249.294    4.4466695    4.4466695    4.4466695   -26249.294   -19250.508   -18939.667   -40557.707   -1499.4837    15637.771   -10566.875    87.923418 
   37800    2258.1879   -109.34891    2.0432558   -107.30566    9014.1554    4.4162752    4.4162752    4.4162752    9014.1554    10068.713   -15227.213    32200.966    3363.7026    22418.883    22472.764    86.132764 
   37900    1507.0605   -108.72564      1.36362   -107.36202   -4069.4909    4.4142682    4.4142682    4.4142682   -4069.4909    11560.852   -15204.562   -8564.7629    4583.3677    34737.321   -42473.487    86.015386 
   38000    2534.4388   -109.65629    2.2932135   -107.36307    20959.751    4.4091962    4.4091962    4.4091962    20959.751   -12015.566    -16418.31    91313.129    -15510.78   -12980.485      23025.3    85.719234 
   38100    1446.0711   -108.73848    1.3084356   -107.43005   -41365.898    4.4111069    4.4111069    4.4111069   -41365.898    -16667.87   -29610.183   -77819.642    24573.272    21760.818   -24790.101    85.830717 
   38200    2305.4365   -109.49411    2.0860074    -107.4081    1550.5713    4.4180256    4.4180256    4.4180256    1550.5713   -27595.643     29736.47    2510.8873   -14347.426   -10817.255   -14000.205     86.23522 
   38300    2104.3711     -109.312    1.9040792   -107.40792   -34034.646    4.4368882    4.4368882    4.4368882   -34034.646   -27139.933   -14274.317   -60689.688   -11474.094    7930.0145   -6255.9822    87.344476 
   38400    2537.4568   -109.63464    2.2959443    -107.3387    -12077.34    4.4420936    4.4420936    4.4420936    -12077.34   -28341.019    15943.845   -23834.846    3294.3143    6859.7081   -7909.4339     87.65226 
   38500    1301.2534   -108.52834    1.1774015   -107.35094    34665.111    4.4043834    4.4043834    4.4043834    34665.111   -9577.5075    92343.406    21229.436   -11096.167   -29076.893    4185.2104     85.43884 
   38600     2468.802    -109.5858    2.2338239   -107.35197    49781.329    4.3890085    4.3890085    4.3890085    49781.329    40764.531    48145.177     60434.28    1108.9142    14661.835   -44629.922    84.547207 
   38700    1976.3401   -109.19602     1.788234   -107.40778   -14144.854    4.4191585    4.4191585    4.4191585   -14144.854   -38698.719    7482.9976   -11218.839   -19842.934   -36328.995    14809.584     86.30158 
   38800    1701.0983   -108.92804    1.5391895   -107.38885   -6888.0756     4.441244     4.441244     4.441244   -6888.0756   -8744.4557    33864.186   -45783.957    147.72995   -15886.537   -38152.862    87.601973 
   38900    1483.0801   -108.69959     1.341922   -107.35766    14274.534    4.4389448    4.4389448    4.4389448    14274.534     19045.46    -4588.496    28366.637   -790.41618   -5610.3524   -10354.599    87.465992 
   39000    1713.8284   -108.89661    1.5507079   -107.34591   -15133.441    4.4230279    4.4230279    4.4230279   -15133.441    -47549.52    19547.484   -17398.287   -15538.061   -19270.535     17168.33    86.528475 
   39100    2780.4262   -109.85818    2.5157881    -107.3424    33229.047    4.4129184    4.4129184    4.4129184    33229.047   -9168.5873    122687.94   -13832.211    10472.844   -6139.1792   -13217.041    85.936508 
   39200    1208.9827   -108.50027     1.093913   -107.40636   -35698.588    4.4197203    4.4197203    4.4197203   -35698.588   -54719.784   -10324.385   -42051.595   -18866.724   -27422.149    19927.678    86.334499 
   39300    2406.5781   -109.57592    2.1775224    -107.3984   -3659.9103     4.415104     4.415104     4.415104   -3659.9103   -26634.072    13223.345    2430.9955   -17439.915     14684.02    20479.096    86.064257 
   39400    1754.2479   -109.02301    1.5872803   -107.43573   -19419.297      4.41967      4.41967      4.41967   -19419.297   -38462.803    62390.057   -82185.145    4540.5946   -32125.383   -17882.138    86.331547 
   39500    2604.9742   -109.78803    2.3570354     -107.431    7114.3502    4.4085141    4.4085141    4.4085141    7114.3502   -10579.021    34458.617   -2536.5454   -29238.245    774.10796    17330.141    85.679459 
   39600     1872.999   -109.14456    1.6947289   -107.44983    18114.248    4.4101697    4.4101697    4.4101697    18114.248   -4225.9311      87688.2   -29119.524    13059.491   -3969.3873    6697.0601    85.776025 
   39700    1136.3702   -108.47191    1.0282116    -107.4437   -18105.723    4.4243673    4.4243673    4.4243673   -18105.723   -23385.109    26945.564   -57877.624   -23490.649   -34956.397   -13284.995    86.607104 
   39800    2438.8562   -109.60519    2.2067283   -107.39846   -12409.122    4.4198602    4.4198602    4.4198602   -12409.122    18660.566   -43234.773   -12653.158   -25583.363    19039.841    23031.283    86.342693 
   39900    1825.8514    -109.0507    1.6520687   -107.39863   -24355.501    4.4212166    4.4212166    4.4212166   -24355.501   -27634.967    47632.811   -93064.348     14193.39    9630.9154   -3553.5663    86.422209 
   40000    1474.0923   -108.73524    1.3337897   -107.40145   -6410.3876    4.4178355    4.4178355    4.4178355   -6410.3876    29054.378    9377.2447   -57662.785   -37201.389    2763.4916    22610.579     86.22409 
   40100    2621.4124   -109.77487    2.3719091   -107.40296   -16800.444    4.4055923    4.4055923    4.4055923   -16800.444    28864.243   -13161.001   -66104.574   -26938.687    772.44681    21065.835    85.509213 
   40200    1643.2119   -108.91479    1.4868127   -107.42797    28183.998    4.4050007    4.4050007    4.4050007    28183.998    37327.684    118035.83   -70811.515   -9264.2078   -832.69193   -4687.2548    85.474768 
   40300    1640.9076   -108.93342    1.4847277    -107.4487   -14673.417    4.4239064    4.4239064    4.4239064   -14673.417    12671.693    -34.58571   -56657.359   -40373.251    9378.8812    28142.793    86.580042 
   40400    2712.6129   -109.86777    2.4544292   -107.41334    898.20881    4.4244776    4.4244776    4.4244776    898.20881   -14462.467    59986.389   -42829.296   -6906.8498   -12921.545   -15557.102    86.613584 
   40500    1714.3167    -108.9813    1.5511498   -107.43015    -7726.579    4.4017164    4.4017164    4.4017164    -7726.579   -31360.642    37343.364   -29162.459   -10004.633    8913.9437    16384.479    85.283725 
   40600    1616.2731   -108.92239    1.4624379   -107.45995   -3587.1971    4.3997051    4.3997051    4.3997051   -3587.1971    33385.078   -21833.147   -22313.522    2109.0898    13598.955    14569.243    85.166874 
   40700    2782.1138   -109.96429     2.517315   -107.44697    24862.991    4.4130646    4.4130646    4.4130646    24862.991   -2286.8367    50654.529    26221.281    -8556.224   -8346.5605    -12025.97    85.945048 
   40800    1304.7413   -108.63251    1.1805574   -107.45195   -31095.638    4.4350052    4.4350052    4.4350052   -31095.638   -25725.665     -42692.9    -24868.35   -24962.491    7078.4561    25049.485    87.233318 
   40900    2334.4153   -109.52597     2.112228   -107.41375   -22419.249      4.42372      4.42372      4.42372   -22419.249    -17308.22     26176.97   -76126.497    20310.435   -13571.542   -11247.279    86.569097 
   41000    2359.1938   -109.54128    2.1346482   -107.40663      42129.5    4.3899152    4.3899152    4.3899152      42129.5    63566.082    41969.053    20853.366   -34973.487   -21566.846    6462.7955    84.599615 
   41100    1771.6854   -109.04413    1.6030582   -107.44107    32968.851    4.3960472    4.3960472    4.3960472    32968.851    23467.461    72267.573    3171.5183   -7257.2813    1220.6808    2786.2429    84.954626 
   41200    1370.8818   -108.70257    1.2404027   -107.46217    12790.251    4.4348173    4.4348173    4.4348173    12790.251     46979.96    86155.097   -94764.304   -2087.8596   -43512.985    -2241.015    87.222233 
   41300    3006.3976   -110.08235    2.7202518    -107.3621   -16988.765    4.4565606    4.4565606    4.4565606   -16988.765    37693.897   -16920.752   -71739.439    5684.8701    1361.7485    11423.935    88.511451 
   41400    1083.4522   -108.34795   0.98033032   -107.36762   -38610.469    4.4378414    4.4378414    4.4378414   -38610.469   -34878.337    18406.157   -99359.228    3990.5211   -25301.106   -9935.2766    87.400786 
   41500    2357.8885   -109.52075     2.133467   -107.38729    2033.4769    4.3892391    4.3892391    4.3892391    2033.4769    16780.347   -7278.8481   -3401.0676    31992.622    40507.301   -80.301324    84.560536 
   41600    2408.3775   -109.56443    2.1791506   -107.38528    61493.109    4.3579946    4.3579946    4.3579946    61493.109     77716.26    34585.976    72177.091   -22752.499   -45155.437    6551.0374    82.767546 
   41700    1231.4053   -108.58365    1.1142014   -107.46944   -16657.812    4.3963677    4.3963677    4.3963677   -16657.812    -17974.65   -6024.7755    -25974.01    28802.582    24104.419   -24849.772    84.973211 
   41800     1812.286    -109.0825    1.6397945    -107.4427   -13242.094    4.4226953    4.4226953    4.4226953   -13242.094   -22667.779   -62783.069    45724.564    5272.7428   -6880.1648    22315.759    86.508951 
   41900    2784.4624   -109.92954    2.5194401    -107.4101    1920.2095    4.4263495    4.4263495    4.4263495    1920.2095    29552.003   -7910.8498   -15880.524   -17519.577    4772.7413   -92.671165    86.723561 
   42000    1103.3206   -108.43708   0.99830763   -107.43878   -34469.685    4.4155034    4.4155034    4.4155034   -34469.685   -34479.651   -16855.528   -52073.875     14789.79    39711.935   -12762.807    86.087612 
   42100    2093.5143   -109.29864    1.8942557   -107.40439    32056.774    4.3817213    4.3817213    4.3817213    32056.774     3779.967    75054.384    17335.972   -14174.302   -23258.984    37316.278     84.12678 
   42200    1833.1179    -109.0821    1.6586436   -107.42346    18111.971    4.4006408    4.4006408    4.4006408    18111.971    81719.655     19216.11   -46599.852   -10291.381    6458.1759   -30907.713    85.221221 
   42300    2126.2178    -109.3236    1.9238466   -107.39976   -35902.002    4.4248318    4.4248318    4.4248318   -35902.002   -19578.512   -55728.827   -32398.667     7277.406    44163.114    12354.835    86.634388 
   42400    1494.9854   -108.75762    1.3526942   -107.40493    19448.279    4.4083411    4.4083411    4.4083411    19448.279    81490.779    9593.1284   -32739.072    5372.4939   -77385.339    2393.2475     85.66937 
   42500    3067.4101   -110.16939    2.7754571   -107.39393    9368.2896    4.4149499    4.4149499    4.4149499    9368.2896    66717.256   -8120.9335   -30491.454     -4539.05    9156.0229     4028.497    86.055244 
   42600    1298.4255   -108.57789    1.1748426   -107.40305   -3766.1482    4.4300657    4.4300657    4.4300657   -3766.1482   -2566.3195    69616.373   -78348.498    10378.796   -60636.805    26573.608    86.942174 
   42700    1983.7507   -109.16472    1.7949393   -107.36978    15402.885    4.4368877    4.4368877    4.4368877    15402.885    28063.035   -8064.9852    26210.603    2062.0376    1080.5203   -531.89903     87.34445 
   42800    2223.2896   -109.35317    2.0116792   -107.34149   -13917.394     4.434314     4.434314     4.434314   -13917.394   -28171.023   -5372.0988   -8209.0598    1374.6069   -57598.503   -16208.659    87.192542 
   42900    1747.1155   -108.93662    1.5808268    -107.3558    24027.584    4.4119417    4.4119417    4.4119417    24027.584     6779.401   -23656.485    88959.836   -6142.8189   -27641.785    2090.8672    85.879458 
   43000    1702.1512   -108.93217    1.5401422   -107.39202    26659.485    4.4055049    4.4055049    4.4055049    26659.485    41422.214   -53699.131    92255.372   -10327.154    -2951.275   -19437.681    85.504124 
   43100    2443.8317   -109.63008    2.2112302   -107.41885   -5119.3746    4.4061161    4.4061161    4.4061161   -5119.3746   -19604.234    14726.143   -10480.033   -5421.5865   -60797.679   -9724.5238    85.539715 
   43200    2023.9959   -109.25926     1.831354   -107.42791   -30035.945    4.4185606    4.4185606    4.4185606   -30035.945   -37317.743   -68655.976    15865.884   -19350.938    13987.194   -2981.6696    86.266553 
   43300     1884.566   -109.12285    1.7051949   -107.41766   -12021.732    4.4293136    4.4293136    4.4293136   -12021.732    55899.725   -71065.216   -20899.706    17504.351   -9311.6449   -12753.996    86.897902 
   43400    2402.9096   -109.56156    2.1742031   -107.38735   -14952.987    4.4335603    4.4335603    4.4335603   -14952.987   -19823.764   -60472.731    35437.534   -11346.599    8562.8744    -2928.314    87.148089 
   43500    1153.9309   -108.45649    1.0441009   -107.41238   -30354.877    4.4112505    4.4112505    4.4112505   -30354.877   -79044.455   -52584.687    40564.513    3412.9266   -4038.3045   -1592.5264    85.839102 
   43600    2923.1979    -110.0361    2.6449709   -107.39113    41746.137    4.3763484    4.3763484    4.3763484    41746.137    107584.03    -8592.153    26246.537   -9106.0216    6448.2436    3813.9957    83.817689 
   43700    1857.5401   -109.12708    1.6807413   -107.44634    7709.6511     4.389094     4.389094     4.389094    7709.6511    9030.1629   -15376.593    29475.383    33085.915     2502.934    14019.288    84.552151 
   43800    1366.1494   -108.70378    1.2361207   -107.46766   -6624.4297    4.4203417    4.4203417    4.4203417   -6624.4297    28229.473   -73062.308    24959.547   -23722.668     1898.439    4455.6601    86.370918 
   43900    2404.3443   -109.60139    2.1755013   -107.42589    13200.822    4.4316359    4.4316359    4.4316359    13200.822    55320.154   -19444.287    3726.5995    2269.9691    -16443.78    9189.3113    87.034654 
   44000    1711.9097   -108.96241    1.5489719   -107.41344    -26906.28    4.4235556    4.4235556    4.4235556    -26906.28     -19762.3   -99344.429    38387.889   -16742.716    12500.818     22821.04    86.559446 
   44100    2248.3069   -109.42835    2.0343153   -107.39404    9513.9632    4.3938006    4.3938006    4.3938006    9513.9632    39609.132   -30429.837    19362.594   -9627.9648   -14581.284    348.88566    84.824447 
   44200    2339.8068   -109.51709    2.1171064   -107.39998    38549.864    4.3789359    4.3789359    4.3789359    38549.864    57102.785    28769.832    29776.976   -6282.4116   -30366.692    63.138521    83.966444 
   44300    1440.7605   -108.76231    1.3036304   -107.45868   -2046.5626    4.4011125    4.4011125    4.4011125   -2046.5626    1195.8826   -83125.087    75789.516    -11747.94    17565.013    11721.987    85.248632 
   44400    2402.6274   -109.61437    2.1739478   -107.44042   -13772.812    4.4221809    4.4221809    4.4221809   -13772.812    13739.386    -24177.21   -30880.611    21008.119   -12024.085    -3981.948     86.47877 
   44500    2415.7119   -109.61187    2.1857869   -107.42609   -11692.126    4.4168079    4.4168079    4.4168079   -11692.126    8816.3354   -7768.7624   -36123.952   -33909.079   -19186.814    2914.0758    86.163935 
   44600    1129.5172   -108.45918    1.0220109   -107.43717    2057.9944    4.4073212    4.4073212    4.4073212    2057.9944   -2138.2623   -32354.308    40666.553    42945.488    13415.746    7307.0584    85.609923 
   44700     2724.412   -109.89016    2.4651053   -107.42505   -17128.898    4.4000795    4.4000795    4.4000795   -17128.898    27071.981   -43754.885   -34703.789    11735.614    610.03485    -13633.78    85.188618 
   44800    1685.2853   -108.98285    1.5248816   -107.45797    29327.577    4.3940355    4.3940355    4.3940355    29327.577    62948.731   -7032.1267    32066.128    5764.4479   -3328.3687    15771.488     84.83805 
   44900    1539.0828   -108.88375    1.3925944   -107.49116   -20692.687    4.4153963    4.4153963    4.4153963   -20692.687   -41338.906   -59804.472    39065.316    30754.836    15465.339    1253.8728    86.081348 
   45000    2926.2779   -110.07667    2.6477577   -107.42892    -10980.92    4.4261749    4.4261749    4.4261749    -10980.92    76521.991   -42104.414   -67360.335   -14387.495    2713.1993   -2497.2733    86.713299 
   45100    907.83657   -108.26373    0.8214296    -107.4423   -2950.3117    4.4109346    4.4109346    4.4109346   -2950.3117   -9717.5273   -60975.186    61841.778    56601.122   -5276.4273    1051.7122    85.820662 
   45200    2097.8893   -109.31756    1.8982143   -107.41934    2440.2117    4.3920822    4.3920822    4.3920822    2440.2117   -13840.212   -9882.4157    31043.263   -29147.703   -3342.2114    782.52569    84.724959 
   45300    2678.9263   -109.84411    2.4239488   -107.42017    17823.882    4.3965797    4.3965797    4.3965797    17823.882    43712.939    15023.651   -5264.9439    32709.158   -20837.753   -7736.9081    84.985502 
   45400    1103.3254    -108.4494   0.99831198   -107.45109   -15204.998    4.4192767    4.4192767    4.4192767   -15204.998   -31712.236   -66995.006    53092.248   -13946.514   -2900.2689   -2110.6601    86.308504 
   45500    2598.6889   -109.75236    2.3513484   -107.40101     1610.715    4.4352898    4.4352898    4.4352898     1610.715    81473.609   -32647.873   -43993.591   -3980.6324     9415.149     -614.472    87.250114 
   45600    1634.3576    -108.8702    1.4788011    -107.3914   -4500.1647    4.4265576    4.4265576    4.4265576   -4500.1647   -12067.227   -53038.571    51605.303   -21497.204    2062.7398    5687.0169    86.735793 
   45700    1946.6158   -109.15092    1.7613389   -107.38958   -11499.632    4.3966368    4.3966368    4.3966368   -11499.632    -2198.211   -57491.786    25191.102   -12942.648    12684.047    5362.0084    84.988815 
   45800    2512.5584   -109.67259    2.2734157   -107.39917    39217.465    4.3815079    4.3815079    4.3815079    39217.465    97927.031     25082.06   -5356.6946   -1112.7869    5549.5791   -8802.3679    84.114489 
   45900    1466.4004   -108.78307    1.3268299   -107.45625    14591.966    4.3929926    4.3929926    4.3929926    14591.966    33610.492    -61075.67    71241.075   -37530.927   -5716.3172    1054.0966     84.77766 
   46000    2241.1333   -109.49141    2.0278245   -107.46359   -21274.169    4.4243915    4.4243915    4.4243915   -21274.169    7850.2609   -52494.364   -19178.403    56644.703     8589.213   -10014.935    86.608524 
   46100     2489.977   -109.67486    2.2529835   -107.42188   -32183.958    4.4301073    4.4301073    4.4301073   -32183.958    6379.9006   -36916.601   -66015.174   -36354.359    19327.555    -2206.701    86.944622 
   46200    1391.2601   -108.67854    1.2588414    -107.4197    13765.426    4.4013967    4.4013967    4.4013967    13765.426    53315.438   -49162.256    37143.097    29313.567   -21571.685    1083.8978    85.265146 
   46300     2219.344   -109.42427    2.0081091   -107.41616    20136.444    4.3830237    4.3830237    4.3830237    20136.444    36173.671    27884.102   -3648.4419    34997.017    38050.615   -5362.3884    84.201817 
   46400    2322.1916    -109.5386    2.1011677   -107.43743    22129.691    4.3978196    4.3978196    4.3978196    22129.691    44560.443    4967.3751    16861.254    2048.4479    7661.3359    2795.1354    85.057423 
   46500    1466.5003   -108.77726    1.3269203   -107.45034   -22726.703    4.4232319    4.4232319    4.4232319   -22726.703   -37247.249   -75874.663    44941.802    67985.961   -6836.7221     11208.49    86.540446 
   46600    2314.6073   -109.49455    2.0943053   -107.40024    34811.839    4.4253781    4.4253781    4.4253781    34811.839      78038.2     49945.36   -23548.044   -18658.425    20181.388    3625.0833    86.666478 
   46700    1823.1836   -109.04361    1.6496548   -107.39395   -29539.131    4.4262723    4.4262723    4.4262723   -29539.131   -25343.993   -76599.321    13325.921    62657.383    -12672.19    10700.184    86.719026 
   46800    1937.1662   -109.14621    1.7527887   -107.39342    15233.079    4.4063606    4.4063606    4.4063606    15233.079     49539.53   -32628.615    28788.323   -29223.293   -3262.8969    9019.0723    85.553956 
   46900    2308.7131   -109.47855    2.0889721   -107.38957    25642.566    4.3957916    4.3957916    4.3957916    25642.566    22580.754    13282.131    41064.813    33770.281   -12901.406   -20588.943     84.93981 
   47000    1662.3305   -108.92308    1.5041116   -107.41897   -22355.692    4.4134117    4.4134117    4.4134117   -22355.692   -34649.162   -76261.738    43843.824   -14768.973   -4667.3431    23821.259    85.965326 
   47100     2185.624   -109.37494    1.9775986   -107.39735     36384.44    4.4114583    4.4114583    4.4114583     36384.44    20278.159    4701.2205    84173.941   -12393.815   -1403.1054   -12184.252    85.851232 
   47200    1610.3262   -108.87021     1.457057   -107.41316    5569.4017    4.4212981    4.4212981    4.4212981    5569.4017    14141.292   -32975.103    35542.016    6777.8639   -17208.424   -1195.4801    86.426988 
   47300    2325.6025   -109.49497     2.104254   -107.39071   -25097.864    4.4255149    4.4255149    4.4255149   -25097.864   -54919.887    -27451.64     7077.935   -39303.375   -7860.3289     12835.39    86.674513 
   47400    1740.3527   -108.96482    1.5747077   -107.39011     44723.89    4.3966289    4.3966289    4.3966289     44723.89    36872.779    43321.411    53977.479    17761.454    22664.543   -29000.825    84.988359 
   47500    2001.2573   -109.22112    1.8107797   -107.41034    24243.904    4.3917905    4.3917905    4.3917905    24243.904     23996.37    6296.6181    42438.725   -30323.957   -15288.556    8537.2456    84.708083 
   47600    1789.4583   -109.04549    1.6191395   -107.42635   -2654.4832    4.4105182    4.4105182    4.4105182   -2654.4832   -24782.539    24120.979   -7301.8897    3587.4182    34719.455    2240.5644    85.796357 
   47700     1986.246   -109.22072    1.7971971   -107.42353    5245.5952    4.4220958    4.4220958    4.4220958    5245.5952   -2039.5042    47418.469   -29642.179   -5555.5482    12573.223   -24514.365    86.473781 
   47800    2181.3742   -109.38031    1.9737532   -107.40655    12762.679     4.417284     4.417284     4.417284    12762.679   -28982.413    31043.373    36227.076   -20115.619    9925.1873     20300.87    86.191805 
   47900    1455.8988   -108.72714    1.3173279   -107.40981    12718.795      4.41604      4.41604      4.41604    12718.795    61074.409    24029.998   -46948.022    430.58714    26521.672   -5616.9567    86.119002 
   48000      2132.84   -109.32522    1.9298384   -107.39538    154.76225    4.4118418    4.4118418    4.4118418    154.76225   -1891.0179   -18420.632    20775.936   -11099.598    -13896.54   -23938.655    85.873626 
   48100    2230.6432   -109.42108    2.0183329   -107.40275   -10455.598    4.4017867    4.4017867    4.4017867   -10455.598   -52503.237     36245.09   -15108.647   -18534.599      55918.3    17467.872    85.287813 
   48200     1796.961    -109.0482     1.625928   -107.42227    12557.973    4.4070591    4.4070591    4.4070591    12557.973    61027.692   -15035.073   -8318.6997    3959.3684   -35006.272   -5599.7315     85.59465 
   48300    1892.1787   -109.13965    1.7120831   -107.42757   -28161.302    4.4142683    4.4142683    4.4142683   -28161.302    -17525.15   -32801.358   -34157.398   -8470.0164    20859.799   -21573.218    86.015391 
   48400    2498.8428   -109.67017    2.2610055   -107.40916    1405.4224    4.4158256    4.4158256    4.4158256    1405.4224   -21493.216     37509.14   -11799.657    9745.9991    8708.2007    19493.719    86.106462 
   48500    1693.0853    -108.9435    1.5319392   -107.41156   -39029.271    4.4301252    4.4301252    4.4301252   -39029.271   -3833.9628   -20000.563   -93253.288   -2791.0292   -32207.995   -44592.202    86.945678 
   48600    2587.7115    -109.7208    2.3414158   -107.37939   -38937.431    4.4279762    4.4279762    4.4279762   -38937.431   -64724.403   -21962.644   -30125.245    3678.0065    18868.161   -10863.364     86.81921 
   48700    2100.7868    -109.2827    1.9008361   -107.38187   -3531.9429    4.4051048    4.4051048    4.4051048   -3531.9429   -13017.075    39423.612   -37002.365    14481.053   -33577.035   -3022.4652    85.480832 
   48800    1868.6667   -109.10613    1.6908089   -107.41532   -14956.946    4.4071864    4.4071864    4.4071864   -14956.946   -2255.8132    202.75872   -42817.784   -10147.853    -7832.987   -42208.088    85.602069 
   48900    2341.2598   -109.53204    2.1184211   -107.41362    -11234.94    4.4103798    4.4103798    4.4103798    -11234.94   -43615.555   -463.33183    10374.068    8646.2864   -2696.4373    13763.324    85.788281 
   49000    1415.4524   -108.70982    1.2807311   -107.42909   -3327.0756    4.4158932    4.4158932    4.4158932   -3327.0756    541.43382    51330.099    -61852.76   -557.76908   -27282.644   -43773.977    86.110416 
   49100    2634.3516   -109.79303    2.3836167   -107.40941   -20343.639    4.4243361    4.4243361    4.4243361   -20343.639   -21989.311   -19536.078   -19505.527    18907.798    17099.422     -6765.17    86.605271 
   49200     1605.584   -108.87556    1.4527662   -107.42279    2066.1524    4.4155611    4.4155611    4.4155611    2066.1524   -51119.969    57985.497   -667.07023    6807.7078   -30618.812    2795.5553    86.090987 
   49300    1211.4897   -108.53668    1.0961814    -107.4405   -8391.1566    4.3958338    4.3958338    4.3958338   -8391.1566    14508.128    20418.377   -60099.975   -17317.322    -220.0426     -27105.8    84.942254 
   49400    3126.6007   -110.26168    2.8290141   -107.43267    31257.252     4.393519     4.393519     4.393519    31257.252    16552.468    52352.506    24866.784   -7533.3852    2380.2779    20102.069     84.80814 
   49500    1713.5834   -109.01506    1.5504863   -107.46458    7412.5222    4.4097007    4.4097007    4.4097007    7412.5222     25260.55    19719.383   -22742.366     9907.594   -19339.513   -13096.402    85.748661 
   49600    1388.7127   -108.71032    1.2565364   -107.45378    8977.9864    4.4166565    4.4166565    4.4166565    8977.9864   -12079.448    22063.697     16949.71   -4688.5819    17744.044    2825.0236    86.155076 
   49700    2361.1556   -109.55637    2.1364232   -107.41995   -411.05548    4.4188236    4.4188236    4.4188236   -411.05548   -48107.043    35417.714    11456.163    14417.105   -13239.491    13058.459    86.281956 
   49800    1897.9256   -109.12227     1.717283   -107.40499    11453.372    4.4222318    4.4222318    4.4222318    11453.372   -25853.733    73392.983   -13179.135   -439.71399    16945.679   -31879.993    86.481759 
   49900    2110.6121   -109.29703    1.9097262   -107.38731   -19609.086    4.4327196    4.4327196    4.4327196   -19609.086   -72029.565   -10172.409    23374.715    9191.9233    5502.3334    25537.597    87.098523 
   50000    1599.8564   -108.83635    1.4475837   -107.38877    18818.901    4.4198217    4.4198217    4.4198217    18818.901   -525.15858    24585.331    32396.532    34859.173    16840.452   -21082.351    86.340438 
   50100    2394.4052    -109.5424    2.1665082   -107.37589    30517.584    4.4014808    4.4014808    4.4014808    30517.584    67705.851    16883.328    6963.5741    12231.249    19535.235   -24543.427    85.270034 
   50200      1418.66   -108.70911    1.2836334   -107.42548   -3064.4902    4.4127688    4.4127688    4.4127688   -3064.4902     11095.86    -70852.47    50563.139    18337.962    9827.8519    7972.3555    85.927767 
   50300    2146.1564   -109.36272    1.9418874   -107.42083   -12718.833     4.416374     4.416374     4.416374   -12718.833    3671.0474   -12516.181   -29311.364   -20138.417    20680.143   -3771.2119    86.138544 
   50400    2628.4063   -109.79429    2.3782372   -107.41605   -21059.802      4.42069      4.42069      4.42069   -21059.802   -40584.285    13159.349   -35754.471    10238.594   -5874.6672    15497.241    86.391332 
   50500     1952.095   -109.17377    1.7662966   -107.40747   -65382.176    4.4413878    4.4413878    4.4413878   -65382.176   -79793.477   -90201.798   -26151.254    -39146.45    22259.043    -23260.07    87.610483 
   50600    1726.9794   -108.94756    1.5626073   -107.38495   -39420.466    4.4232189    4.4232189    4.4232189   -39420.466   -3782.7782   -29676.547   -84802.072   -104.96449    12237.891     47961.01    86.539681 
   50700    3287.7124   -110.32167    2.9747913   -107.34688    13398.254    4.3993496    4.3993496    4.3993496    13398.254   -32899.071     60530.36    12563.474    -8024.673   -6103.3303   -22042.721    85.146231 
   50800    948.45797   -108.27743    0.8581847   -107.41925   -46809.989     4.412834     4.412834     4.412834   -46809.989    -28420.18   -75232.636   -36777.152   -34394.953    36861.601    28091.362    85.931577 
   50900    1601.8433   -108.88448    1.4493815    -107.4351    -6439.344    4.4010541    4.4010541    4.4010541    -6439.344    4478.5134    11464.806   -35261.351    31625.082    9396.5278     9613.979    85.245237 
   51000    2772.2033   -109.95951    2.5083478   -107.45116    11641.653    4.4080337    4.4080337    4.4080337    11641.653   -25221.814    39982.941    20163.832    12732.174    2184.8772    -3567.774    85.651447 
   51100    2102.1452   -109.36819    1.9020652   -107.46613   -7971.9835    4.4084665    4.4084665    4.4084665   -7971.9835   -16533.992     26426.99   -33808.949   -15411.234    14805.338    34179.184    85.676683 
   51200     1323.542   -108.65756    1.1975686   -107.45999    -618.1887    4.3929227    4.3929227    4.3929227    -618.1887   -33101.934   -1832.5443    33079.912    58856.794    2022.4482    13130.408     84.77361 
   51300    2295.1154   -109.54056    2.0766686    -107.4639   -8164.1531     4.406627     4.406627     4.406627   -8164.1531   -39164.877    2220.3725    12452.046   -54765.988     7504.046   -20059.879    85.569476 
   51400    2779.3016   -109.95999    2.5147705   -107.44522   -16381.184    4.4105184    4.4105184    4.4105184   -16381.184    -56892.64    20622.424   -12873.337    38765.053    14563.561      7256.18    85.796368 
   51500    1251.3067   -108.58616    1.1322086   -107.45395   -8449.0184    4.4130353    4.4130353    4.4130353   -8449.0184   -52611.403   -2866.1609    30130.509    -25969.96    1058.2008    3765.3042    85.943333 
   51600    1628.2886   -108.91841    1.4733097    -107.4451   -34794.949    4.4146347    4.4146347    4.4146347   -34794.949   -36570.889   -31684.892   -36129.067    -25292.65   -6109.2567   -9275.1249    86.036811 
   51700    2693.8832    -109.8601    2.4374821   -107.42262    10962.939    4.4001923    4.4001923    4.4001923    10962.939   -41018.617    61938.642    11968.792   -2959.1762    6625.9267    5371.1354    85.195166 
   51800    2223.7938   -109.45049    2.0121354   -107.43835   -15786.401    4.4031475    4.4031475    4.4031475   -15786.401   -55728.224   -18713.787     27082.81   -55079.757   -1308.6129   -3302.2693    85.366937 
   51900    1046.0019   -108.40416   0.94644448   -107.45772   -2819.5003    4.4160959    4.4160959    4.4160959   -2819.5003    51533.908   -34759.691   -25232.718    17693.992   -6833.9234    7212.5007    86.122272 
   52000    3198.4145   -110.31185    2.8939927   -107.41786   -422.67726    4.4249995    4.4249995    4.4249995   -422.67726   -5684.2914    19959.718   -15543.458   -6865.7852   -5845.4416    2308.8843    86.644238 
   52100    2029.8335   -109.27177     1.836636   -107.43513   -34988.631     4.424915     4.424915     4.424915   -34988.631   -40393.815   -14664.076   -49908.002    24339.091    1545.9814   -9678.0162    86.639274 
   52200    1241.2308   -108.58128    1.1230917   -107.45819   -47477.707    4.3967184    4.3967184    4.3967184   -47477.707    8823.9457   -88528.412   -62728.655    16973.904   -2499.7825   -2275.8543    84.993546 
   52300    1954.4778   -109.24044    1.7684526   -107.47198    37782.694    4.3755119    4.3755119    4.3755119    37782.694   -26638.853    41280.175    98706.761   -54890.675    2532.7138   -1895.0917    83.769633 
   52400    2778.8929   -110.00043    2.5144007   -107.48603    27264.864      4.39572      4.39572      4.39572    27264.864   -21591.073    89858.724    13526.942    25411.904    1929.5279    19480.817    84.935662 
   52500    1813.0137   -109.14283    1.6404529   -107.50238   -22240.425    4.4226389    4.4226389    4.4226389   -22240.425   -50056.591   -22955.709    6291.0241   -42140.274   -2860.4524    12711.068    86.505646 
   52600    1046.5095   -108.42705   0.94690383   -107.48014   -23841.883    4.4349758    4.4349758    4.4349758   -23841.883   -99670.072    9042.3294    19102.095    36351.982   -5622.5837   -20960.843    87.231583 
   52700    3025.0648   -110.15739    2.7371422   -107.42025   -7583.6925    4.4215849    4.4215849    4.4215849   -7583.6925   -55124.884    20866.321    11507.486    5568.4983    3698.8875    2584.7544    86.443811 
   52800    2372.6545   -109.57754    2.1468277   -107.43072    11142.542    4.3966502    4.3966502    4.3966502    11142.542   -26137.581    2049.8442    57515.364    19827.879    2012.9716   -10303.108    84.989594 
   52900     964.9287   -108.34363   0.87308777   -107.47054    6027.0875    4.3862986    4.3862986    4.3862986    6027.0875   -11682.564   -32786.242    62550.068    26215.927    1090.0992   -5636.6394    84.390698 
   53000    2013.7657   -109.32395    1.8220975   -107.50185    -3029.658    4.3974924    4.3974924    4.3974924    -3029.658   -5548.5005   -18.938422   -3521.5351    -39412.31    14835.561    -7914.319    85.038443 
   53100    3014.4073   -110.19986    2.7274991   -107.47236    30767.868    4.4116095    4.4116095    4.4116095    30767.868   -4367.0378    42723.349    53947.292    27920.494   -1807.3883    23120.513    85.860062 
   53200    1080.3453   -108.45935   0.97751911   -107.48183    -16156.19    4.4271661    4.4271661    4.4271661    -16156.19   -54363.888      6905.25   -1009.9312   -27074.434    75.644387    1911.5623    86.771569 
   53300    1702.5102   -108.97236     1.540467    -107.4319   -21489.587    4.4290667    4.4290667    4.4290667   -21489.587   -79564.762    6152.5029    8943.4979   -42736.365    7980.9909   -16811.171    86.883368 
   53400    2646.9843   -109.78985     2.395047    -107.3948    25716.457    4.4044433    4.4044433    4.4044433    25716.457    -23140.77    90981.301    9308.8403    23024.214   -529.03884    15041.448    85.442326 
   53500    1981.5737   -109.19886    1.7929695   -107.40589    8787.3871    4.4044364    4.4044364    4.4044364    8787.3871   -13696.685    54179.792   -14120.945   -33783.407    22345.953    1596.4865    85.441927 
   53600    1392.3878   -108.68279    1.2598618   -107.42293   -39648.544    4.4204135    4.4204135    4.4204135   -39648.544   -50979.693   -45978.573   -21987.366    49510.691    -17646.67   -12506.521    86.375125 
   53700    2312.6734   -109.51584    2.0925555   -107.42328   -18329.379     4.409543     4.409543     4.409543   -18329.379    -80549.71    65678.164   -40116.592     12807.51    13494.069   -7225.4903    85.739458 
   53800    2203.6733   -109.42843    1.9939299    -107.4345    3454.8585    4.4083619    4.4083619    4.4083619    3454.8585   -35628.559    -2862.121    48855.255    27634.013    19825.543   -256.76758     85.67058 
   53900    1203.6971   -108.52876    1.0891304   -107.43963   -3284.2775    4.4134994    4.4134994    4.4134994   -3284.2775   -9633.4287   -32321.233    32101.829    51194.459   -20811.471   -14875.218    85.970455 
   54000    2655.6878   -109.80825    2.4029221   -107.40532   -17483.538    4.4311671    4.4311671    4.4311671   -17483.538    -50575.09    24336.255   -26211.781   -27399.358    12110.439   -4552.7098    87.007037 
   54100    1531.9222   -108.76089    1.3861154   -107.37478   -70690.722    4.4449236    4.4449236    4.4449236   -70690.722   -72959.924   -114583.57   -24528.673    79010.082   -10503.916   -4958.9223    87.819891 
   54200    1802.9779   -109.00343    1.6313723   -107.37205    -13193.44    4.3950192    4.3950192    4.3950192    -13193.44    22659.002   -5892.5616   -56346.759   -7268.5879   -49405.221   -3291.4662    84.895044 
   54300    2020.9194   -109.19433    1.8285703   -107.36576     38325.06    4.3632513    4.3632513    4.3632513     38325.06    58755.856   -5878.0353     62097.36   -33930.812    23026.866     5041.048    83.067413 
   54400    2055.0333   -109.30099    1.8594373   -107.44155   -2323.4581    4.3860725    4.3860725    4.3860725   -2323.4581    23644.661    611.98006   -31227.016    42311.151   -42205.743   -1424.7311    84.377647 
   54500    1771.9035   -109.07184    1.6032556   -107.46858   -36230.476    4.4220772    4.4220772    4.4220772   -36230.476   -22211.791    -34213.97   -52265.667   -46873.667   -35037.895    -1935.613    86.472689 
   54600    2566.3341    -109.7409    2.3220731   -107.41882   -11440.075    4.4251047    4.4251047    4.4251047   -11440.075   -2441.4676   -25227.935   -6650.8222    -17900.46    17582.673    10752.197    86.650417 
   54700      1333.19   -108.61602    1.2062983   -107.40972     8961.564    4.4043777    4.4043777    4.4043777     8961.564     52551.53    -5114.538     -20552.3    15208.258   -64647.815   -2568.9028    85.438507 
   54800    2183.2701   -109.39048    1.9754687   -107.41501   -14924.048    4.3876405    4.3876405    4.3876405   -14924.048   -4223.4666   -57755.217    17206.539    -61333.85    14184.605   -3995.7584    84.468172 
   54900    1971.0895   -109.20909    1.7834832   -107.42561    34125.453    4.3787638    4.3787638    4.3787638    34125.453     85271.89    76861.622   -59757.153    7040.0886   -47889.757    7191.8474    83.956546 
   55000      2042.96   -109.30588    1.8485131   -107.45737   -26158.546    4.4105257    4.4105257    4.4105257   -26158.546   -13322.164    -34823.11   -30330.364     1572.694   -17906.028   -6667.1541    85.796797 
   55100    2372.3137   -109.56468    2.1465193   -107.41816   -14232.125    4.4183013    4.4183013    4.4183013   -14232.125    49830.782    -32202.12   -60325.038   -10935.181   -24588.533    6029.3424    86.251368 
   55200    1360.7368   -108.66374    1.2312233   -107.43251   -12114.388    4.3955668    4.3955668    4.3955668   -12114.388   -31413.924    79382.378   -84311.617    7967.9319   -71276.429    4454.1562    84.926779 
   55300    2346.1668   -109.52607     2.122861   -107.40321    37750.689    4.3821038    4.3821038    4.3821038    37750.689    54474.343    22807.025    35970.698    18104.997    33122.924   -9378.0628    84.148811 
   55400    1696.2851   -108.97596    1.5348344   -107.44113   -17716.163    4.4044393    4.4044393    4.4044393   -17716.163   -10843.161    33236.413   -75541.741   -9506.2816   -118630.59    12083.421    85.442095 
   55500    2507.8841   -109.68239    2.2691862   -107.41321     5949.408    4.4152902    4.4152902    4.4152902     5949.408    14317.895    -12833.53    16363.859    7201.4518    48358.659   -4266.3079    86.075147 
   55600     1391.233   -108.68838    1.2588168   -107.42957   -4435.4986    4.3978867    4.3978867    4.3978867   -4435.4986   -31050.028    26287.245   -8543.7133    8155.9023    -80957.18   -183.71978    85.061318 
   55700    2412.2308   -109.60592    2.1826371   -107.42328      14185.3    4.3988966    4.3988966    4.3988966      14185.3    18054.144   -4572.8642     29074.62    -19233.58   -18977.531    7774.8446    85.119929 
   55800    2167.3873   -109.37781    1.9610976   -107.41671    5800.4326    4.4055384    4.4055384    4.4055384    5800.4326   -32775.683    5297.9723    44879.009   -8134.1049   -33741.631   -1602.0667    85.506078 
   55900    1517.6086   -108.79461    1.3731641   -107.42144   -2290.1305    4.4175656    4.4175656    4.4175656   -2290.1305    1720.2761    1355.4454    -9946.113   -13854.659    -42627.92    2852.6101    86.208289 
   56000    2238.3429   -109.43518    2.0252997   -107.40988   -22386.351    4.4101988    4.4101988    4.4101988   -22386.351   -30369.807   -52918.573    16129.328   -50793.196    16943.686    9159.4601    85.777718 
   56100     1876.155   -109.10156    1.6975845   -107.40398    46234.022    4.3856414    4.3856414    4.3856414    46234.022    32198.739      97481.8    9021.5282    19788.246   -71925.075   -8265.9498    84.352773 
   56200    1952.7654   -109.19405    1.7669032   -107.42714    35214.998    4.3881054    4.3881054    4.3881054    35214.998    55933.234    16878.975    32832.784   -37000.561    24385.197    8632.5762    84.495028 
   56300    2255.5585   -109.48589    2.0408768   -107.44502   -42433.045      4.41456      4.41456      4.41456   -42433.045   -46182.626   -25109.087   -56007.423    293.73016   -36401.316    963.48205    86.032448 
   56400    1952.1221   -109.18672    1.7663211    -107.4204   -9468.5998    4.4165705    4.4165705    4.4165705   -9468.5998   -15158.008    16025.019   -29272.811   -10874.417    -29704.33   -23117.208    86.150047 
   56500    2106.1235   -109.30733    1.9056648   -107.40166    21771.249    4.3967205    4.3967205    4.3967205    21771.249   -16108.126    31869.562     49552.31   -34098.243    15500.119    5913.5007    84.993671 
   56600    2102.0565   -109.31565    1.9019849   -107.41366    7533.7093    4.3957571    4.3957571    4.3957571    7533.7093    52432.768    19684.975   -49516.615     16555.86   -11999.682   -22606.621    84.937811 
   56700    1660.2106   -108.92832    1.5021934   -107.42612    5183.1515    4.4068243    4.4068243    4.4068243    5183.1515   -28352.276   -1540.9734    45442.704   -59731.653   -4396.9157       -25294    85.580969 
   56800    2352.8816   -109.54177    2.1289367   -107.41283    10258.346     4.423071     4.423071     4.423071    10258.346      3806.21    40743.525   -13774.698    37750.881     16219.19    16185.536    86.531003 
   56900    1917.9915    -109.1632     1.735439   -107.42776   -40051.976    4.4059249    4.4059249    4.4059249   -40051.976   -71165.939   -30482.405   -18507.584   -44145.164    -7951.706   -5690.3473    85.528584 
   57000    1593.0764   -108.86974     1.441449   -107.42829    40552.057    4.3667567    4.3667567    4.3667567    40552.057    28790.848    27289.211    65576.112   -68090.154    -3581.842   -24905.562    83.267781 
   57100    2874.0559   -110.04051    2.6005062      -107.44     33880.78    4.3745437    4.3745437    4.3745437     33880.78     38953.83    10822.157    51866.352    12700.594    27123.356    27515.824    83.714036 
   57200    932.49401   -108.32709   0.84374017   -107.48335    -6547.257    4.4134332    4.4134332    4.4134332    -6547.257   -59672.025   -46668.215    86698.469   -76194.209   -17497.403   -220.25441    85.966587 
   57300    2887.2724   -109.99284    2.6124647   -107.38037   -37319.704    4.4464309    4.4464309    4.4464309   -37319.704   -29243.011   -43347.423   -39368.677     26148.98    1627.8496   -21749.105    87.909263 
   57400    1620.1214   -108.82277    1.4659199   -107.35685   -48320.242    4.4349017    4.4349017    4.4349017   -48320.242   -98190.527   -50388.752    3618.5513   -94929.532   -1012.6093    3940.8041    87.227214 
   57500    2484.2813   -109.57948      2.24783   -107.33165    24528.636    4.3876492    4.3876492    4.3876492    24528.636    26471.325    46917.118    197.46616     31544.61   -16599.661   -8186.2716    84.468677 
   57600    1423.8811   -108.66274    1.2883575   -107.37439    31321.064    4.3648396    4.3648396    4.3648396    31321.064    24073.881   -34006.493     103895.8   -73206.113   -3505.1755   -7433.4085    83.158162 
   57700     1976.818   -109.23221    1.7886665   -107.44354    24396.586    4.3801422    4.3801422    4.3801422    24396.586    61893.815    23401.786   -12105.843   -16862.186    10757.949    38045.779    84.035856 
   57800    2725.4431   -109.91573    2.4660382   -107.44969   -19085.307    4.4227204    4.4227204    4.4227204   -19085.307   -33526.873   -21931.485   -1797.5633   -10631.447   -16696.544   -7565.7338    86.510425 
   57900    970.41002   -108.29862   0.87804738   -107.42057   -47526.547    4.4391526    4.4391526    4.4391526   -47526.547   -68328.522   -71460.748   -2790.3703    -29054.79    8935.6658     6841.843    87.478275 
   58000    3032.3001   -110.11108    2.7436889   -107.36739   -976.06527    4.4079323    4.4079323    4.4079323   -976.06527    7709.4252    22712.528   -33350.149    17058.536    1459.9379    16060.348    85.645538 
   58100    1548.1831   -108.77635    1.4008286   -107.37552    28820.843    4.3823103    4.3823103    4.3823103    28820.843    17026.537   -46.087438     69482.08   -45316.066   -2332.2423   -22922.559    84.160707 
   58200    2210.2161   -109.39977      1.99985   -107.39992    18814.952     4.396316     4.396316     4.396316    18814.952    13121.518    45124.208   -1800.8696    26008.196    3104.5479    22259.746     84.97021 
   58300    1871.8867     -109.108    1.6937224   -107.41427   -22780.233    4.4272518    4.4272518    4.4272518   -22780.233   -22341.059   -46878.817    879.17844   -34038.741    -12564.98   -41580.422     86.77661 
   58400    2402.1998   -109.57397    2.1735609   -107.40041    -13004.34    4.4161813    4.4161813    4.4161813    -13004.34   -75214.322    313.63609    35887.667    6865.4574    870.55699    22805.277    86.127268 
   58500    1412.9105   -108.68317    1.2784311   -107.40473    39118.609    4.3851121    4.3851121    4.3851121    39118.609    69210.667   -820.17901     48965.34    19453.464   -1104.8185    -41331.03    84.322236 
   58600    2788.9238   -109.91911    2.5234768   -107.39563    22695.652     4.397339     4.397339     4.397339    22695.652    9905.6124    28252.873     29928.47   -2697.0701   -19473.092    8582.5491    85.029544 
   58700    1484.4121   -108.74312    1.3431272   -107.39999   -56157.133     4.430957     4.430957     4.430957   -56157.133   -50951.949   -70710.818   -46808.633     28727.22    12367.718   -41322.249     86.99466 
   58800    2374.4167     -109.515    2.1484221   -107.36658   -17380.125     4.434063     4.434063     4.434063   -17380.125    24830.114   -25125.653   -51844.836   -14843.833   -11335.397   -5202.3195    87.177734 
   58900    2069.5174   -109.24843    1.8725429   -107.37589   -31019.918    4.4110328    4.4110328    4.4110328   -31019.918   -19255.433   -15637.908   -58166.413    4447.6471    5190.4925   -33293.099    85.826392 
   59000    1423.7641   -108.68665    1.2882517    -107.3984   -3463.6988    4.3755012    4.3755012    4.3755012   -3463.6988    85743.245   -45022.583   -51111.758    18378.532    24008.967   -65357.384    83.769017 
   59100    2614.5671   -109.76302    2.3657153   -107.39731    38182.396    4.3804689    4.3804689    4.3804689    38182.396    77884.095   -8414.4422    45077.534   -32936.652   -15576.252    194.92342     84.05466 
   59200    1096.3063   -108.41855   0.99196098   -107.42659   -38967.822    4.4247249    4.4247249    4.4247249   -38967.822   -146.04233   -95009.466   -21747.958    9891.0149     25136.16   -78731.289    86.628106 
   59300    2977.3301   -110.01865    2.6939509    -107.3247   -29929.402    4.4520039    4.4520039    4.4520039   -29929.402   -11696.518   -32527.506   -45564.183   -13703.109   -4353.1334    11792.444    88.240224 
   59400    1145.8407   -108.36637    1.0367807   -107.32959   -45748.298    4.4345272    4.4345272    4.4345272   -45748.298    -26099.83   -63622.782   -47522.282    19059.654    9668.1291   -88863.096    87.205115 
   59500    2763.0616   -109.82898    2.5000762    -107.3289    17831.394    4.3752071    4.3752071    4.3752071    17831.394   -12420.585    30854.068      35060.7      3303.48    24702.615    39870.179    83.752126 
   59600    1024.5404   -108.29622   0.92702573    -107.3692    37441.076    4.3449746    4.3449746    4.3449746    37441.076    152576.08   -2006.2892   -38246.559   -7765.0459   -3205.1707   -65884.706    82.027924 
   59700    2802.7155   -109.97888    2.5359559   -107.44292    12887.265    4.3800594    4.3800594    4.3800594    12887.265   -1543.3359    42478.713   -2273.5835    14660.758   -6400.0158   -11537.855    84.031093 
   59800    2161.6888   -109.39453    1.9559415   -107.43859    -32888.87    4.4217132    4.4217132    4.4217132    -32888.87    776.99239    -1867.976   -97575.627   -5153.6674    13256.694   -24348.413    86.451337 
   59900    1170.2153   -108.49578    1.0588354   -107.43695   -33987.544     4.419343     4.419343     4.419343   -33987.544    36913.813   -48205.602   -90670.845    4338.1395   -13772.958    -22934.33    86.312388 
   60000    3046.4764   -110.13582    2.7565159    -107.3793    30118.237    4.3886744    4.3886744    4.3886744    30118.237    17737.483    85148.362   -12531.133   -1878.5036    7845.7829   -5945.3998    84.527904 
   60100    988.76858   -108.30096   0.89465859    -107.4063   -15062.442    4.3792246    4.3792246    4.3792246   -15062.442    53216.721   -29699.985   -68704.062   -13368.442    8820.5359    -30904.14    83.983052 
   60200    2717.1377   -109.85444    2.4585233   -107.39592    32038.883    4.3848516    4.3848516    4.3848516    32038.883     51368.64    57276.627   -12528.619    7252.2541   -4082.8005    51377.877    84.307204 
   60300    1726.2481   -108.98925    1.5619455    -107.4273   -4302.8959    4.3984096    4.3984096    4.3984096   -4302.8959    59159.177   -22933.148   -49134.716    19168.311   -6982.4397   -54328.531    85.091666 
   60400     1992.368   -109.21612    1.8027365   -107.41338   -4249.4827    4.4134455    4.4134455    4.4134455   -4249.4827    41198.033   -15031.122    -38915.36   -13451.558    9161.7298    29858.991    85.967303 
   60500    2083.1803   -109.28356    1.8849053   -107.39866   -28103.188     4.409142     4.409142     4.409142   -28103.188   -48553.589   -17159.749   -18596.226    43604.577   -20767.945   -12669.822    85.716073 
   60600    1711.3838   -108.96205     1.548496   -107.41356   -2708.2741    4.3908853    4.3908853    4.3908853   -2708.2741      54205.7   -24880.276   -37450.247     9287.233    15663.938   -60895.387    84.655712 
   60700    3181.5457   -110.27362    2.8787295   -107.39489    22160.459    4.3787364    4.3787364    4.3787364    22160.459   -814.46976    25744.998    41550.848    518.19436   -2971.8701    23780.396     83.95497 
   60800    769.47428   -108.15779    0.6962365   -107.46156   -31007.411    4.3916213    4.3916213    4.3916213   -31007.411   -13904.588   -71890.457   -7227.1876    41530.157   -20864.539    -71388.29    84.698292 
   60900    2539.0475   -109.75017    2.2973835   -107.45279     7863.877    4.4066118    4.4066118    4.4066118     7863.877    22631.821   -35841.211    36801.022     556.5579    12020.088   -4617.0885    85.568594 
   61000    2129.9459   -109.37833    1.9272198   -107.45111   -11013.351    4.4058468    4.4058468    4.4058468   -11013.351     31416.92   -33879.738   -30577.235   -4752.7438   -26704.675    9583.7443    85.524036 
   61100    1694.0147   -108.96706    1.5327801   -107.43428    15515.641    4.3848256    4.3848256    4.3848256    15515.641    24170.937   -19762.998    42138.984    34264.523   -17261.429   -50004.605    84.305707 
   61200    2334.8344    -109.5319    2.1126073   -107.41929    26534.291    4.3852962    4.3852962    4.3852962    26534.291    44622.885    28940.678     6039.309    206.53216    26373.742    42635.959    84.332855 
   61300    1540.3527   -108.82157    1.3937435   -107.42783   -8102.0599    4.4046859    4.4046859    4.4046859   -8102.0599   -9408.7576    25053.517   -39950.939   -2666.2689   -51038.026    -22798.44    85.456446 
   61400    1715.1886    -108.9688    1.5519387   -107.41686   -4535.2279    4.4109867    4.4109867    4.4109867   -4535.2279   -34387.692    28010.069   -7228.0608    36059.716    26363.263   -13467.851    85.823705 
   61500    2753.0023   -109.89022    2.4909744   -107.39925    6166.4926    4.4025021    4.4025021    4.4025021    6166.4926   -28070.466     81319.85   -34749.906   -22349.105   -19009.741    17306.083    85.329402 
   61600     1386.067   -108.67799    1.2541425   -107.42385    -20788.82    4.3904353    4.3904353    4.3904353    -20788.82    -40084.43    -4103.705   -18178.325    43422.539   -25376.683   -29385.363    84.629691 
   61700    2188.7573   -109.40337    1.9804336   -107.42294    28177.738    4.3824107    4.3824107    4.3824107    28177.738    22479.312    53683.058     8370.844    17221.431    36774.832   -10268.458    84.166491 
   61800    1968.4152   -109.20592    1.7810635   -107.42486    220.91358    4.4036549    4.4036549    4.4036549    220.91358   -16746.549    40021.993   -22612.704    7369.6355   -57770.606    5326.4631    85.396453 
   61900    1485.2769   -108.74758    1.3439097   -107.40367   -44788.795    4.4247813    4.4247813    4.4247813   -44788.795   -63930.741   -44123.975    -26311.67    51589.794    28522.127   -44878.946     86.63142 
   62000    2734.0142   -109.84289    2.4737935    -107.3691   -15380.663    4.4107184    4.4107184    4.4107184   -15380.663   -9722.4194    24982.908   -61402.477   -26847.713    -21162.33    37230.007    85.808043 
   62100     1798.718   -109.01253    1.6275179   -107.38501   -38345.557    4.3964583    4.3964583    4.3964583   -38345.557   -53582.352   -57581.314   -3873.0041    73911.989   -17569.688   -42135.988    84.978465 
   62200    1913.6077   -109.13153    1.7314725   -107.40005   -2196.8179    4.3814855    4.3814855    4.3814855   -2196.8179    21827.584   -13655.605   -14762.433     10546.78     16188.69   -24612.092    84.113198 
   62300    2550.6495    -109.7286    2.3078812   -107.42071     4588.789    4.3847054    4.3847054    4.3847054     4588.789   -20592.875    23395.025    10964.217    12251.263    -11240.99    39189.541    84.298774 
   62400    1098.0436   -108.43095   0.99353288   -107.43741   -24706.637    4.4098913    4.4098913    4.4098913   -24706.637    6116.5204   -103482.25    23245.822    49725.659    14794.783   -78575.563    85.759778 
   62500    2918.0609   -110.01724    2.6403228   -107.37692    22417.656    4.4147065    4.4147065    4.4147065    22417.656    15888.418    29223.549        22141   -15403.773    3080.0547    32330.494    86.041014 
   62600    1088.4014   -108.38041   0.98480848    -107.3956   -19366.569    4.4184544    4.4184544    4.4184544   -19366.569   -4840.0924   -101233.48    47973.862    75829.522    16762.662   -45856.426    86.260334 
   62700    2624.4828   -109.72243    2.3746872   -107.34775    6448.2171    4.4092732    4.4092732    4.4092732    6448.2171    16375.984    -17399.24    20367.907   -45828.393   -9902.2123    6295.4357    85.723721 
   62800    1929.7393   -109.10124    1.7460686   -107.35517   -8493.4189    4.3886795    4.3886795    4.3886795   -8493.4189    -21712.52    -3502.106   -265.63096    57484.981    22848.641   -8703.0491    84.528198 
   62900    1810.9134    -109.0361    1.6385525   -107.39755    -4565.257    4.3807829    4.3807829    4.3807829    -4565.257    25776.481   -10272.762   -29199.489    2906.8972   -22343.409   -62004.773    84.072737 
   63000    2037.6176   -109.26928    1.8436792    -107.4256    25354.595    4.3841074    4.3841074    4.3841074    25354.595   -10153.327    83715.458    2501.6551   -28492.344   -16823.506    29208.711    84.264289 
   63100    1922.1719   -109.18345    1.7392215   -107.44423   -2971.2616    4.3975052    4.3975052    4.3975052   -2971.2616   -8739.6343    4606.4237   -4780.5743    37963.498    16998.377   -46011.338    85.039182 
   63200    1871.5672   -109.12556    1.6934334   -107.43213   -4298.8266    4.4039925    4.4039925    4.4039925   -4298.8266   -20558.791    54285.896   -46623.584   -19989.612   -59375.813   -5494.0484    85.416092 
   63300    2046.6766   -109.25921     1.851876   -107.40733    33376.855    4.3950308    4.3950308    4.3950308    33376.855    16324.296    65988.678    17817.591   -13825.314    33039.353    9657.3095    84.895713 
   63400    1846.9187   -109.08281    1.6711308   -107.41168   -7063.4037    4.3931488    4.3931488    4.3931488   -7063.4037   -12366.111      43361.1     -52185.2    7730.3339   -47473.556   -38775.078    84.786701 
   63500    2069.6691   -109.28665    1.8726801   -107.41397    4656.3041    4.3877539    4.3877539    4.3877539    4656.3041   -24771.331    57568.324    -18828.08   -10121.956   -41786.287    7384.5052    84.474723 
   63600    2293.1006     -109.492    2.0748456   -107.41715    10730.648    4.3889797    4.3889797    4.3889797    10730.648   -247.23051    16902.592    15536.581   -9603.7853    44571.064    -15136.15    84.545542 
   63700    1292.8975   -108.60435    1.1698408   -107.43451   -19321.807    4.4065572    4.4065572    4.4065572   -19321.807   -34134.867   -2014.1511   -21816.402   -4166.8787   -76480.035   -27935.718    85.565411 
   63800    2270.2859   -109.46987    2.0542024   -107.41566   -18261.376    4.4026049    4.4026049    4.4026049   -18261.376   -16303.734   -57731.906    19251.512   -16182.233    16314.938    54408.732    85.335381 
   63900    1991.7421    -109.2136    1.8021701   -107.41143    29527.192    4.3805589    4.3805589    4.3805589    29527.192    16723.313    12432.745    59425.518   -12220.746     -5621.01   -29701.197     84.05984 
   64000    2007.4663   -109.23445    1.8163977   -107.41805     12227.76    4.3798027    4.3798027    4.3798027     12227.76    23095.054   -21184.353    34772.579   -15040.166   -24881.109    35318.946    84.016314 
   64100    1405.4573    -108.7125    1.2716873   -107.44082    3250.6105    4.3929228    4.3929228    4.3929228    3250.6105   -1132.5937   -64008.753    74893.178   -28167.798    19426.292    48615.205    84.773619 
   64200    2970.8726   -110.08661     2.688108    -107.3985    4541.2362    4.4084243    4.4084243    4.4084243    4541.2362    49208.021   -17795.159   -17789.154     10013.03   -19015.742   -5565.8304     85.67422 
   64300    1232.8093   -108.54055    1.1154718   -107.42508   -21742.033    4.4093796    4.4093796    4.4093796   -21742.033    60830.298   -93841.003   -32215.393   -51986.188    7597.9561    75575.179    85.729932 
   64400    2238.3015   -109.43485    2.0252622   -107.40959   -6020.2532    4.3915361    4.3915361    4.3915361   -6020.2532    4163.7338   -19213.239   -3011.2547   -15903.693    18485.289   -29603.439    84.693362 
   64500    1842.8788   -109.08284    1.6674755   -107.41537    28420.901     4.377332     4.377332     4.377332    28420.901     112352.6   -15082.511    -12007.39   -8349.9693   -655.30197    34342.898    83.874215 
   64600    1622.5024   -108.91046    1.4680742   -107.44238   -10010.794    4.3929488    4.3929488    4.3929488   -10010.794   -26041.158   -34886.003    30894.778   -102498.64    -2787.273    14509.799    84.775122 
   64700    2627.8191   -109.78159    2.3777059   -107.40389    33517.425     4.415703     4.415703     4.415703    33517.425    4531.4694    105665.03   -9644.2192    12187.498    12598.725    6090.9994     86.09929 
   64800    1089.7813    -108.3798   0.98605702   -107.39375   -521.67053    4.4308447    4.4308447    4.4308447   -521.67053    20485.536   -20593.753   -1456.7947   -80502.969   -8674.1874    36540.222    86.988046 
   64900    2554.1834   -109.63832    2.3110788   -107.32724    -28979.05    4.4287078    4.4287078    4.4287078    -28979.05    -45593.31    18863.788   -60207.628    29359.122     41251.11   -30211.346    86.862248 
   65000    1641.2593   -108.83861    1.4850459   -107.35356   -4467.2592     4.391354     4.391354     4.391354   -4467.2592   -17549.111   -52408.569    56555.903   -71052.283   -3019.9175    13017.772    84.682825 
   65100    2175.5153   -109.33158    1.9684519   -107.36313    21486.046    4.3615992    4.3615992    4.3615992    21486.046    16355.038    35305.713    12797.386   -20653.949    21891.915    23248.806    82.973087 
   65200    2372.3331   -109.55212    2.1465369   -107.40558    26553.286    4.3751253    4.3751253    4.3751253    26553.286   -5005.3667    66868.147    17797.078   -19648.455    19204.596   -25444.424    83.747432 
   65300    1246.5696   -108.56334    1.1279224   -107.43542    4533.5662    4.4076999    4.4076999    4.4076999    4533.5662   -19603.075   -33912.768    67116.542   -55146.254    -686.2415    25952.834    85.631995 
   65400    2129.7278   -109.31276    1.9270225   -107.38574   -15527.657    4.4329776    4.4329776    4.4329776   -15527.657   -13694.364   -7507.2629   -25381.344     20210.44     37564.76    10190.283    87.113729 
   65500    1986.6554    -109.1674    1.7975675   -107.36983   -33963.522    4.4159969    4.4159969    4.4159969   -33963.522    -61583.62   -58570.008    18263.061   -61419.007   -17591.785   -10447.896    86.116482 
   65600     2190.033   -109.35815    1.9815879   -107.37656    17884.993    4.3680748    4.3680748    4.3680748    17884.993    7255.8976    66168.845   -19769.763    7487.8005    19760.151    55453.846    83.343208 
   65700    2372.2916   -109.53658    2.1464993   -107.39008    49289.998    4.3484771    4.3484771    4.3484771    49289.998   -19739.334    62680.251    104929.08   -30907.466     9014.214   -18512.119    82.226452 
   65800    1000.4881   -108.38121   0.90526264   -107.47595   -18466.305    4.3816383    4.3816383    4.3816383   -18466.305   -71164.074   -16941.926    32707.085   -33377.156    -34333.07    9800.0279    84.121997 
   65900    3121.8567   -110.24715    2.8247216   -107.42243   -33255.923    4.4212486    4.4212486    4.4212486   -33255.923   -54927.448    -4869.114   -39971.208    2609.8965    13811.271    15878.142    86.424091 
   66000    2014.2108   -109.23953    1.8225003   -107.41703   -36474.743     4.415935     4.415935     4.415935   -36474.743   -96592.935   -58875.602    46044.309   -35930.773   -5352.8315   -7628.6414    86.112863 
   66100    1781.4483   -109.01699    1.6118919    -107.4051    17816.873    4.3711731    4.3711731    4.3711731    17816.873   -37498.101    46567.423    44381.297    23349.218    18492.712    2063.2351    83.520677 
   66200    2132.9145   -109.33987    1.9299058   -107.40996    12471.022    4.3566698    4.3566698    4.3566698    12471.022   -41418.801    75748.145    3083.7206   -27249.018     49106.86    1423.3883    82.692082 
   66300    2577.5052   -109.76404    2.3321809   -107.43186     11243.03    4.3751759    4.3751759    4.3751759     11243.03   -52368.849   -5177.4598      91275.4    6443.4632   -12205.722   -10157.769    83.750336 
   66400    1184.5146   -108.54047    1.0717737    -107.4687   -34184.311    4.4010184    4.4010184    4.4010184   -34184.311   -100966.94    42100.362   -43686.359    19640.467    59370.611    8568.0195    85.243162 
   66500    2293.1541   -109.51708    2.0748941   -107.44219   -33393.673     4.406667     4.406667     4.406667   -33393.673   -60738.112    2627.4045   -42070.311   -4440.7251   -56992.501     23850.22    85.571808 
   66600     2162.727   -109.39555    1.9568809   -107.43867    -4370.243    4.3820497    4.3820497    4.3820497    -4370.243   -20521.314   -4047.4212    11458.007    29727.955    34083.327    -48468.82    84.145695 
   66700    1898.1588    -109.1535    1.7174939   -107.43601    10864.966    4.3650291    4.3650291    4.3650291    10864.966   -14373.501    57503.722   -10535.324    8076.0173    -6637.491    23670.333    83.168988 
   66800    1789.6754   -109.07715    1.6193359   -107.45781   -7360.9586    4.3689383    4.3689383    4.3689383   -7360.9586    18629.131   -13321.367    -27390.64   -15215.537    -46419.53   -7711.6075    83.392642 
   66900    1774.6269   -109.08367    1.6057197   -107.47795    3534.7513    4.3803203    4.3803203    4.3803203    3534.7513    10067.404   -39934.938    40471.788    32196.771    19471.195   -57083.009    84.046108 
   67000     2596.947   -109.80982    2.3497722   -107.46005    2558.0203    4.3934363    4.3934363    4.3934363    2558.0203   -32007.698    33405.924    6275.8349    17365.821   -50089.571    24435.437    84.803346 
   67100    1905.4486   -109.17996    1.7240899   -107.45587   -7761.0357    4.3952565    4.3952565    4.3952565   -7761.0357    12045.143   -53820.719    18492.469   -6483.2841   -5769.3179   -69812.072    84.908793 
   67200    1342.9884   -108.66697    1.2151641   -107.45181   -13067.167     4.385214     4.385214     4.385214   -13067.167   -18803.293   -61901.272    41503.065    59852.679    -6082.703    7943.7804    84.328109 
   67300    2349.4984    -109.5609    2.1258756   -107.43502    489.33157    4.3795034    4.3795034    4.3795034    489.33157    28106.025    -13765.42    -12872.61   -28208.731   -35569.478    21996.488    83.999096 
   67400    2481.3441    -109.6811    2.2451723   -107.43592   -14969.294    4.3838174    4.3838174    4.3838174   -14969.294   -12577.585   -65515.161    33184.864    62483.936    17931.003   -26922.855    84.247569 
   67500    1364.3105   -108.69562    1.2344568   -107.46116   -23974.269    4.3852816    4.3852816    4.3852816   -23974.269   -30263.386   -53027.638    11368.217    28508.577    -26389.55    16773.466     84.33201 
   67600    1400.9969   -108.75192    1.2676514   -107.48427   -6399.5482    4.3765952    4.3765952    4.3765952   -6399.5482   -13591.467   -27303.005    21695.827   -64217.859   -39990.677    18808.298    83.831867 
   67700    3248.7456   -110.39826    2.9395333   -107.45872    37671.487    4.3714532    4.3714532    4.3714532    37671.487    50372.682   -6629.3413    69271.119    36038.776     13169.92   -3850.4421    83.536738 
   67800    1057.9437   -108.45678   0.95724965   -107.49953   -18283.701    4.3880763    4.3880763    4.3880763   -18283.701     554.7361   -55857.245    451.40464   -43824.203    -33685.04     -7839.61    84.493349 
   67900    1717.6469   -109.01954     1.554163   -107.46538   -24929.915    4.4072329    4.4072329    4.4072329   -24929.915   -36886.611    -64474.58    26571.446   -10552.988   -18641.623    38942.799    85.604778 
   68000     2717.545   -109.86671    2.4588918   -107.40782   -26666.435     4.405796     4.405796     4.405796   -26666.435    2132.5984   -48253.816   -33878.089    12595.251    3434.0079   -34068.053    85.521076 
   68100    1264.0598   -108.57393    1.1437478   -107.43018   -26973.636    4.3810172    4.3810172    4.3810172   -26973.636   -42970.852   -23508.812   -14441.244   -69751.432   -39475.116    2472.4967    84.086227 
   68200    1955.4903   -109.20766    1.7693688   -107.43829    17011.449    4.3581249    4.3581249    4.3581249    17011.449    35758.081   -16911.294    32187.561    72327.009    2872.5959    32200.047    82.774968 
   68300    2573.2309   -109.78144    2.3283134   -107.45312    32843.661    4.3652344    4.3652344    4.3652344    32843.661    13254.762     22382.58    62893.641   -6690.5308   -13853.595   -1800.5081    83.180727 
   68400    1742.8118   -109.05732    1.5769328   -107.48038   -27128.704     4.389982     4.389982     4.389982   -27128.704   -56683.115   -44387.968    19684.971   -11900.164    -26272.06    7696.4642    84.603476 
   68500     1636.275   -108.94702     1.480536   -107.46648   -25348.959    4.3985269    4.3985269    4.3985269   -25348.959   -15499.424   -92429.135    31881.682    66913.679    2716.8095    20690.467    85.098471 
   68600    2020.0693   -109.27064    1.8278012   -107.44284    13047.144    4.3838548    4.3838548    4.3838548    13047.144    2176.6059    31585.698    5379.1289   -27881.285   -5896.7098   -15456.718    84.249724 
   68700    1640.8363   -108.92879    1.4846631   -107.44412    1926.7033    4.3785231    4.3785231    4.3785231    1926.7033   -73403.748    2082.7944    77101.064    61943.011   -24411.977    16524.767    83.942698 
   68800    3147.6808   -110.26266    2.8480877   -107.41458    30000.453     4.382907     4.382907     4.382907    30000.453     41.27129   -688.17372    90648.262   -15090.514    16767.298   -13129.515    84.195091 
   68900    937.02384   -108.30748   0.84783886   -107.45964   -15945.799     4.392829     4.392829     4.392829   -15945.799   -60022.339    18078.953   -5894.0101    40819.209   -34194.136   -9695.6383     84.76819 
   69000    2516.4603   -109.69646    2.2769462   -107.41951    12839.481    4.3981968    4.3981968    4.3981968    12839.481   -1435.1334    3363.1297    36590.447    5170.1042    6353.5702    13891.682    85.079314 
   69100    1719.9412   -108.96062     1.556239   -107.40438   -6969.2692    4.3949144    4.3949144    4.3949144   -6969.2692   -66389.383   -13507.898    58989.473   -8707.1734    -30673.07    16133.349     84.88897 
   69200    2147.4565    -109.3414    1.9430638   -107.39833   -4890.2048     4.390384     4.390384     4.390384   -4890.2048   -15057.598    8472.7455   -8085.7619    29114.841   -21683.045   -2467.8508     84.62672 
   69300    1839.8986   -109.06951    1.6647789   -107.40473    1374.5166    4.3851431    4.3851431    4.3851431    1374.5166    5467.5402   -9141.0381    7797.0476   -48268.784    12201.276    52741.844    84.324024 
   69400    1510.1131   -108.79155    1.3663821   -107.42516    16900.976    4.3807993    4.3807993    4.3807993    16900.976   -61718.429    77669.094    34752.263    24565.582    -55901.49   -8586.8095    84.073685 
   69500    2664.2376   -109.82162    2.4106582   -107.41097    7036.2392    4.3933675    4.3933675    4.3933675    7036.2392    14400.876    18627.721    -11919.88    4549.2665    34922.603    15293.436    84.799363 
   69600    1072.8113    -108.4144   0.97070219    -107.4437   -13393.637    4.3936101    4.3936101    4.3936101   -13393.637   -73865.854    28733.413    4951.5306   -42149.171   -30378.361     32238.04    84.813416 
   69700    2631.7981   -109.80004    2.3813062   -107.41874   -1076.3827    4.3830332    4.3830332    4.3830332   -1076.3827   -8489.9199    6308.2417   -1047.4698   -3381.6186   -5708.8832   -34338.838    84.202363 
   69800    1902.7955   -109.14828    1.7216894   -107.42659    -14308.25    4.3800008    4.3800008    4.3800008    -14308.25    4444.2103   -4225.1497    -43143.81   -4255.2184    12649.417   -8521.4046    84.027719 
   69900     1527.298   -108.81759    1.3819313   -107.43566   -19062.955    4.3784745    4.3784745    4.3784745   -19062.955   -56244.926   -14457.324    13513.386   -36981.116   -47068.309    40841.204    83.939907 
   70000    2688.4515   -109.85752    2.4325674   -107.42495   -6107.8716    4.3836072    4.3836072    4.3836072   -6107.8716   -7487.1197    992.07873   -11828.574    20105.294    16748.309   -53553.085    84.235451 
   70100    1392.9151   -108.69947    1.2603388   -107.43913   -7577.5178    4.3900201    4.3900201    4.3900201   -7577.5178   -22681.061    8622.9683   -8674.4606   -19025.541   -40475.792    62398.546    84.605683 
   70200    2217.7903    -109.4272    2.0067033    -107.4205   -18546.787    4.4037793    4.4037793    4.4037793   -18546.787   -52807.581   -13518.263    10685.484   -23996.736   -5066.0761   -8623.1779    85.403692 
   70300    1907.4211   -109.10791    1.7258747   -107.38204   -14971.698    4.4154842    4.4154842    4.4154842   -14971.698    4119.6724    26584.262    -75619.03    1876.0464   -9865.2692     47393.96     86.08649 
   70400    1411.1357   -108.64096    1.2768252   -107.36414   -25530.688    4.4093697    4.4093697    4.4093697   -25530.688   -28100.328   -12588.906   -35902.832   -19715.166   -45361.184    26287.115    85.729355 
   70500    2542.8627   -109.66126    2.3008356   -107.36042    216.87557    4.3789414    4.3789414    4.3789414    216.87557    12391.141     9262.745    -21003.26   -4051.1819    37435.379   -22043.451    83.966758 
   70600    1476.2568   -108.73408    1.3357481   -107.39833    11603.465    4.3609093    4.3609093    4.3609093    11603.465     22552.42    -12391.06    24649.035    -13659.51   -8049.8872    75147.327    82.933723 
   70700    2747.7135   -109.89151    2.4861889   -107.40532    13062.464    4.3703418    4.3703418    4.3703418    13062.464    6278.6586   -14192.406    47101.138   -33004.369   -1594.2211   -46675.312    83.473036 
   70800    1154.1205   -108.49896    1.0442725   -107.45469   -18040.045    4.3960212    4.3960212    4.3960212   -18040.045    26374.434   -43532.067   -36962.501     4331.935    32589.819    14622.549    84.953119 
   70900    2600.9689   -109.76076    2.3534113   -107.40735   -32548.289     4.409787     4.409787     4.409787   -32548.289   -43668.149   -38341.377   -15635.342   -12086.728   -29679.055    26777.604    85.753692 
   71000    1429.3757   -108.70322    1.2933291   -107.40989   -4019.2775     4.385701     4.385701     4.385701   -4019.2775    5337.7812    217.90338   -17613.517    -8935.796   -28395.364   -49244.403    84.356209 
   71100    3052.2728   -110.13513    2.7617606   -107.37337    29932.636    4.3674064    4.3674064    4.3674064    29932.636    28144.532    37349.499    24303.875    16897.742     16931.28    18817.388    83.304951 
   71200    1117.8595   -108.43724    1.0114628   -107.42578   -30161.685    4.3740403    4.3740403    4.3740403   -30161.685   -79615.828    16859.208   -27728.435   -1423.4605   -89162.397   -21753.562    83.685137 
   71300    2736.7965    -109.8919     2.476311   -107.41559     11465.84    4.3926502    4.3926502    4.3926502     11465.84    49213.433   -13015.464    -1800.449    876.42669    17420.309   -31973.993    84.757834 
   71400    1500.4652   -108.75898    1.3576524   -107.40132    -72300.88    4.4213087    4.4213087    4.4213087    -72300.88   -116614.46   -20072.369   -80215.811   -3834.5698   -63381.566    14611.738     86.42761 
   71500    2133.7342   -109.31763    1.9306476   -107.38698   -16113.816    4.3940373    4.3940373    4.3940373   -16113.816   -5750.4408   -16339.357   -26251.651    6191.8099   -19739.138   -38430.264    84.838156 
   71600    1674.9934   -108.88364    1.5155692   -107.36808    5092.4976       4.3591       4.3591       4.3591    5092.4976    15696.385    62053.762   -62472.655   -4887.5342   -7081.3914    38152.456    82.830541 
   71700    1671.8955    -108.9262    1.5127662   -107.41344   -12697.434    4.3649382    4.3649382    4.3649382   -12697.434   -17696.077    38417.056   -58813.281    209.94888   -68726.461    15367.839    83.163797 
   71800    2788.1236   -109.92701    2.5227528   -107.40426    8052.4582    4.3858476    4.3858476    4.3858476    8052.4582    32164.921    28251.613   -36259.159    6875.5949    19330.278   -22533.354    84.364668 
   71900    1328.9596    -108.6146    1.2024706   -107.41213   -40896.956    4.4158994    4.4158994    4.4158994   -40896.956   -69760.429    67838.126   -120768.56    151.76629   -53197.933    28031.755    86.110777 
   72000    2529.0647   -109.63712    2.2883509   -107.34877   -11481.689    4.4129876    4.4129876    4.4129876   -11481.689    34619.326   -14657.597   -54406.796    3558.6981    10750.733   -63598.867     85.94055 
   72100    1450.7749    -108.6704    1.3126916   -107.35771    -4839.382    4.3821542    4.3821542    4.3821542    -4839.382   -59997.857    79087.987   -33608.276    7724.3084   -43984.477   -92.434178    84.151715 
   72200    2779.3351   -109.85785    2.5148008   -107.34305    33448.327    4.3599266    4.3599266    4.3599266    33448.327    65999.413    32825.616    1519.9528   -3002.8308    29012.943   -35728.244     82.87767 
   72300    1193.0474    -108.4842    1.0794944   -107.40471   -5421.0959    4.3629893    4.3629893    4.3629893   -5421.0959   -11460.266    1593.0682   -6396.0901   -6348.6228   -66642.227   -46372.097    83.052451 
   72400     2855.742   -109.99066    2.5839354   -107.40672     14289.33    4.3901092    4.3901092    4.3901092     14289.33   -16657.259    28215.321    31309.927    12633.949   -2475.1803      19610.7    84.610833 
   72500    992.04203   -108.31672   0.89762048    -107.4191   -15850.685    4.4124599    4.4124599    4.4124599   -15850.685    13118.075   -16046.962   -44623.168   -12851.301   -40768.879   -57086.959    85.909723 
   72600    2977.1393   -110.02895    2.6937782   -107.33517    1418.4723     4.418458     4.418458     4.418458    1418.4723   -1728.1998    15296.292   -9312.6754     1387.229   -8522.7863    22542.187    86.260543 
   72700     880.6786   -108.13023   0.79685651   -107.33337    -21733.44    4.4106609    4.4106609    4.4106609    -21733.44    19067.889   -48052.825   -36215.385   -10286.548   -37753.995   -66538.998    85.804689 
   72800    2755.2705    -109.8101    2.4930267   -107.31707   -1389.8283    4.3861524    4.3861524    4.3861524   -1389.8283   -2592.4692    13260.305    -14837.32   -1079.2366   -42750.532    14991.965    84.382263 
   72900    2040.9077   -109.19772    1.8466562   -107.35107   -7051.2321     4.373082     4.373082     4.373082   -7051.2321    21479.301   -45928.128    3295.1306    13821.612    26635.217   -47084.097     83.63015 
   73000    1517.0454   -108.78268    1.3726546   -107.41003   -22278.298    4.3748682    4.3748682    4.3748682   -22278.298   -16153.813    3730.6303   -54411.711   -16844.858   -76202.058   -51861.284    83.732667 
   73100    2327.4427   -109.52009    2.1059191   -107.41418    11328.194    4.3763678    4.3763678    4.3763678    11328.194    32786.614    -22120.49    23318.459    32877.471     13593.67    41940.076    83.818798 
   73200    1640.7169   -108.91755    1.4845551   -107.43299   -9327.2447    4.3905248    4.3905248    4.3905248   -9327.2447      32155.1   -60195.063    58.228842   -3567.9664   -9551.3138   -82722.682    84.634866 
   73300    2379.2517   -109.55814    2.1527969   -107.40534     12454.01    4.3906033    4.3906033    4.3906033     12454.01    21357.648   -30278.733    46283.114    13102.005   -24799.519    33354.522    84.639402 
   73400    1403.7412   -108.68357    1.2701345   -107.41344   -4420.8167    4.3846978    4.3846978    4.3846978   -4420.8167    19547.017   -56403.485    23594.017    25071.771    7209.0007    18711.032    84.298335 
   73500    2966.7476    -110.0718    2.6843755   -107.38742    6344.5721    4.3797143    4.3797143    4.3797143    6344.5721   -29731.103    26859.815    21905.004   -6466.6192    4255.2235   -45731.394    84.011232 
   73600    707.20003    -108.0706   0.63988945   -107.43071    1917.2682    4.3693009    4.3693009    4.3693009    1917.2682    4528.9261   -30679.069    31901.947    17934.514   -7040.6918    84570.535    83.413409 
   73700    2859.7602   -110.01149    2.5875712   -107.42392    11861.655    4.3791226    4.3791226    4.3791226    11861.655   -11193.003    46645.638    132.33114    4808.8713    10504.994   -22652.183    83.977188 
   73800    1530.6267   -108.81769    1.3849432   -107.43274   -15570.151    4.3912149    4.3912149    4.3912149   -15570.151   -16592.513   -20765.221   -9352.7201    11550.561    13841.371    22186.354    84.674778 
   73900    2139.0003   -109.34245    1.9354124   -107.40704   -4314.4884    4.3963649    4.3963649    4.3963649   -4314.4884   -26330.561   -21080.293    34467.389    17268.409   -9418.6835    44145.448    84.973047 
   74000    1840.0952   -109.06829    1.6649568   -107.40333   -16288.703    4.3905409    4.3905409    4.3905409   -16288.703    39494.013   -25911.168   -62448.954   -10602.351   -14081.085   -76443.389    84.635798 
   74100    2448.7008   -109.60682    2.2156359   -107.39119    12997.841    4.3666478    4.3666478    4.3666478    12997.841    24296.931   -12970.907      27667.5    12139.745    14111.995    34022.082    83.261553 
   74200     1483.528    -108.7569    1.3423273   -107.41457   -10852.528    4.3668842    4.3668842    4.3668842   -10852.528    11433.739    5680.5221   -49671.845    1307.2957   -48483.373   -58168.891    83.275073 
   74300    1845.7065   -109.10693    1.6700341   -107.43689   -9612.1966    4.3843727    4.3843727    4.3843727   -9612.1966    41690.816   -28765.404   -41762.002   -273.26895    15210.954   -60175.696    84.279589 
   74400    2554.3947   -109.71507      2.31127    -107.4038   -18337.976    4.4005855    4.4005855    4.4005855   -18337.976   -19529.717   -7742.1672   -27742.042   -5062.6239    -29095.21    5671.2251    85.218012 
   74500    1151.1109   -108.47077    1.0415493   -107.42922   -34208.014    4.3943234    4.3943234    4.3943234   -34208.014    -24128.28   -1892.0445   -76603.718    4772.1058   -45371.159   -75446.076    84.854727 
   74600    2973.5504   -110.08275    2.6905309   -107.39222    35712.612    4.3654573    4.3654573    4.3654573    35712.612    21366.573    6248.0233    79523.241   -31918.458    26433.637    26155.981    83.193468 
   74700    1155.9481   -108.47428    1.0459262   -107.42836   -19304.521      4.36766      4.36766      4.36766   -19304.521    30156.231   -25793.497   -62276.297    725.26955   -47677.282   -55467.042    83.319467 
   74800    2547.7999   -109.70833    2.3053029   -107.40303   -11965.674    4.3896947    4.3896947    4.3896947   -11965.674   -29942.288   -6542.9364    588.20107   -12157.963   -1739.9937   -5188.8151    84.586867 
   74900    1538.1856     -108.813    1.3917827   -107.42122   -20094.855    4.3940969    4.3940969    4.3940969   -20094.855   -11745.529   -38980.545   -9558.4896   -14805.835    32716.822   -17120.763     84.84161 
   75000    2971.6028   -110.08222    2.6887687   -107.39345    13980.181    4.3875432    4.3875432    4.3875432    13980.181    20786.835    17854.011    3299.6966    5373.2644   -21533.005   -23556.801    84.462556 
   75100      1263.44   -108.56735    1.1431871   -107.42416   -30925.353    4.3777998    4.3777998    4.3777998   -30925.353   -107815.06   -5448.7524    20487.751    8029.9126    61990.465    939.35739    83.901109 
   75200    2566.9427   -109.72065    2.3226237   -107.39803    31177.752    4.3697306    4.3697306    4.3697306    31177.752    25772.679    52785.395    14975.183   -4168.2445   -13132.289    8997.7461    83.438022 
   75300    1624.9629   -108.87788    1.4703005   -107.40758   -24735.813    4.3915532    4.3915532    4.3915532   -24735.813   -98599.174    34403.119   -10011.384    10403.307    -28317.78    -6401.798    84.694349 
   75400     2592.289   -109.71108    2.3455575   -107.36552   -22680.483     4.405849     4.405849     4.405849   -22680.483   -18355.008   -14306.233   -35380.208    6121.5247    26449.954    17604.411     85.52416 
   75500    1498.6922   -108.73313    1.3560482   -107.37708   -23784.675       4.3966       4.3966       4.3966   -23784.675   -62426.574    41227.112   -50154.562    6762.2692   -96284.519    3370.8823    84.986681 
   75600    2810.3427   -109.90759    2.5428572   -107.36473    5192.2055    4.3809142    4.3809142    4.3809142    5192.2055   -20597.507   -1095.1421    37269.266    22758.073    19904.615    9169.5042    84.080298 
   75700    1205.7363   -108.48608    1.0909755   -107.39511    28386.343    4.3702403    4.3702403    4.3702403    28386.343    24819.493    76223.708   -15884.172    5094.5987   -83596.118    29524.062     83.46722 
   75800    2724.3732    -109.8399    2.4650702   -107.37483    12652.482    4.3929496    4.3929496    4.3929496    12652.482    13207.046   -7680.1308    32430.531    14855.561     5265.175   -12250.712    84.775168 
   75900    1260.1862   -108.51797    1.1402429   -107.37773   -30632.469    4.4073318    4.4073318    4.4073318   -30632.469   -21265.884   -777.12502   -69854.399   -1420.0162   -71695.661    19485.649     85.61054 
   76000    2828.4237   -109.88951    2.5592172   -107.33029    10849.137    4.4005454    4.4005454    4.4005454    10849.137    4028.0029    539.26695    27980.141    1996.0703   -681.52213    301.77759    85.215679 
   76100    1102.3387   -108.33721   0.99741922   -107.33979   -68661.629    4.4059529    4.4059529    4.4059529   -68661.629   -133463.52    10877.098   -83398.467    17397.718   -94745.507   -5250.6659     85.53021 
   76200    3083.2772   -110.10342     2.789814   -107.31361    9059.6733    4.3775777    4.3775777    4.3775777    9059.6733    26880.131    21366.227   -21067.338   -12624.345   -12057.847   -6689.9121     83.88834 
   76300    1225.0483   -108.46637    1.1084495   -107.35792   -37008.745     4.375706     4.375706     4.375706   -37008.745   -93197.049     2602.373   -20431.557    21642.312   -32010.724    2809.1628     83.78078 
   76400     2507.977   -109.62834    2.2692703   -107.35907   -2194.3952    4.3840337    4.3840337    4.3840337   -2194.3952    3153.7288    31016.778   -40753.692   -7004.4111   -46737.351   -20726.543    84.260039 
   76500    1350.8518   -108.61833    1.2222791   -107.39606   -9162.4265    4.3951785    4.3951785    4.3951785   -9162.4265   -52868.595   -11209.038    36590.354   -1312.1994    31406.488    -4995.608    84.904272 
   76600     2662.278   -109.77442    2.4088851   -107.36553   -32991.199    4.4085001    4.4085001    4.4085001   -32991.199   -58418.347    9441.2184   -49996.468    20754.174   -23073.549   -1478.4481    85.678639 
   76700    1391.1496   -108.64641    1.2587414   -107.38767    29177.698    4.3773559    4.3773559    4.3773559    29177.698    26660.206    42463.495    18409.392   -26784.067    23460.074   -6907.1041    83.875589 
   76800    2160.2318   -109.34291    1.9546231   -107.38829    6966.4345    4.3706563    4.3706563    4.3706563    6966.4345   -50471.447      28097.4     43273.35     12154.64    21644.689    7468.3982    83.491058 
   76900    2195.3586   -109.36035    1.9864066   -107.37394    15785.351    4.3847334    4.3847334    4.3847334    15785.351    45450.336    19835.919   -17930.203   -24711.226    625.09536    20760.229    84.300386 
   77000    2006.2506   -109.18671    1.8152977   -107.37141   -1421.0467    4.4045554    4.4045554    4.4045554   -1421.0467   -35308.629    20551.052    10494.437   -18755.627    33928.979   -2402.7561     85.44885 
   77100    1712.8365    -108.8962    1.5498104   -107.34639   -46737.041    4.4189829    4.4189829    4.4189829   -46737.041   -31842.232   -12687.836   -95681.054   -6388.5217   -41200.651    16485.124    86.291291 
   77200    2183.1993   -109.29954    1.9754046   -107.32414   -6720.1701    4.3965208    4.3965208    4.3965208   -6720.1701    -25590.26   -5731.6581    11161.408   -39901.907    22.605626    15964.498    84.982086 
   77300    2106.5281   -109.23825    1.9060309   -107.33222    -19669.68    4.3785294    4.3785294    4.3785294    -19669.68    20061.859   -22064.871   -57006.028    8030.8179   -5694.6276   -50612.557    83.943065 
   77400    1772.7975   -108.98356    1.6040645    -107.3795   -8529.7343    4.3704467    4.3704467    4.3704467   -8529.7343   -13836.884   -20657.633    8905.3151   -32023.134   -44525.354    22420.507    83.479045 
   77500    2021.7662    -109.2271    1.8293366   -107.39776    29024.746    4.3745767    4.3745767    4.3745767    29024.746    35593.328    26134.217    25346.692   -3097.3692     54427.59   -23420.123     83.71593 
   77600    1716.6051   -108.96462    1.5532204    -107.4114    -25020.64     4.405635     4.405635     4.405635    -25020.64     1616.348   -42135.312   -34542.956   -3173.5239   -36055.689   -11816.315    85.511703 
   77700    2201.4776   -109.34789    1.9919432   -107.35594   -10344.966    4.4197369    4.4197369    4.4197369   -10344.966   -32750.879    23557.133   -21841.151   -4279.9359    54886.262   -4909.9893    86.335468 
   77800    1730.4388   -108.88607    1.5657374   -107.32033    17167.569    4.4097054    4.4097054    4.4097054    17167.569    47937.724    -3953.702    7518.6834    15657.038   -13873.935   -30642.185    85.748934 
   77900     2189.348   -109.30399    1.9809681   -107.32303    14777.307    4.3914383    4.3914383    4.3914383    14777.307   -19088.728     72137.94   -8717.2897    366.04513    55075.679    15053.499    84.687702 
   78000    2005.4045   -109.16033    1.8145322    -107.3458    21784.431    4.3744969    4.3744969    4.3744969    21784.431    9453.3368     38757.11    17142.845    1004.4106     25429.63   -37783.695    83.711347 
   78100    1728.1068   -108.92568    1.5636274   -107.36205    894.76444    4.3801444    4.3801444    4.3801444    894.76444   -27700.534    4685.9032    25698.924    5173.6468    44400.425    11116.492    84.035985 
   78200     1867.468   -109.09445    1.6897243   -107.40473   -13423.569     4.397534     4.397534     4.397534   -13423.569   -53093.881    7739.0891    5084.0835   -7563.9953    65409.185    7475.3371    85.040854 
   78300    2735.0063   -109.86532    2.4746912   -107.39063   -12040.307    4.3995617    4.3995617    4.3995617   -12040.307   -60737.102    4849.2465    19766.936    5257.1248    22221.788   -1401.5354    85.158544 
   78400    998.30139   -108.31504   0.90328408   -107.41176   -26504.223    4.3864333    4.3864333    4.3864333   -26504.223   -60757.076    51895.227    -70650.82    9128.7674    77628.903    12502.992    84.398471 
   78500    2774.8136   -109.89064    2.5107097   -107.37993    16227.683    4.3725383    4.3725383    4.3725383    16227.683    43961.632    -6182.783    10904.199   -7738.1817   -21277.831    50559.706    83.598961 
   78600    1516.3065   -108.78673    1.3719859   -107.41474   -5570.1822    4.3743651    4.3743651    4.3743651   -5570.1822   -73903.272    54409.585    2783.1398    16724.092    87405.576   -25302.962    83.703783 
   78700    2448.2739   -109.61378    2.2152497   -107.39853   -7108.8777    4.3840049    4.3840049    4.3840049   -7108.8777     11363.52   -27630.248   -5059.9052   -12084.187   -43104.513    41610.072    84.258375 
   78800    1473.8741   -108.74585    1.3335922   -107.41226    -47041.02    4.3999684    4.3999684    4.3999684    -47041.02   -37468.607   -24963.798   -78690.655    13469.769    85648.116   -17378.555    85.182163 
   78900    2222.5563   -109.41351    2.0110156   -107.40249   -21315.544    4.3923565    4.3923565    4.3923565   -21315.544   -54406.935   -29235.295    19695.596     15473.56   -37035.889   -1679.6993    84.740835 
   79000    1996.8969   -109.20896    1.8068342   -107.40212   -9140.8967    4.3707721    4.3707721    4.3707721   -9140.8967   -25551.569    25959.716   -27830.837   -2459.4553    26079.027        10185    83.497695 
   79100    1821.4371   -109.06555    1.6480746   -107.41748   -1507.5788     4.367939     4.367939     4.367939   -1507.5788    4708.2342    26392.242   -35623.212    12996.492    73677.127   -12931.325    83.335434 
   79200    2036.8303   -109.26263    1.8429669   -107.41966   -3387.4954    4.3809382    4.3809382    4.3809382   -3387.4954   -4410.9964    8074.1125   -13825.602    23194.185   -81076.462    1753.2195    84.081678 
   79300    1432.3214   -108.73786    1.2959945   -107.44187   -17752.044    4.3884933    4.3884933    4.3884933   -17752.044   -17476.465    41161.395    -76941.06   -1174.3553    100501.26   -2716.2294    84.517436 
   79400    3190.1693   -110.29117    2.8865322   -107.40464     16067.72    4.3863645    4.3863645    4.3863645     16067.72    49846.978     11562.24   -13206.058   -22014.065   -37479.258   -2100.6402    84.394499 
   79500    821.39487   -108.18342   0.74321534   -107.44021    6870.0658    4.3767268    4.3767268    4.3767268    6870.0658   -34328.182    121585.53   -66647.154    18923.036    55940.855    2117.3129    83.839429 
   79600    2847.0708   -109.97619    2.5760895    -107.4001    14595.752    4.3808106    4.3808106    4.3808106    14595.752    56870.113   -2726.3843   -10356.472   -28003.899   -20367.084    8912.8266    84.074331 
   79700     1528.928    -108.7883    1.3834062   -107.40489   -26918.444    4.3885565    4.3885565    4.3885565   -26918.444   -49810.222    50181.537   -81126.646   -19059.942    97914.277   -4336.0151    84.521091 
   79800    2246.1683   -109.41079    2.0323803   -107.37841    44.701035    4.3891665    4.3891665    4.3891665    44.701035   -11415.357    39907.362   -28357.902    5490.6895   -31066.971    7827.8947    84.556339 
   79900    1547.3339   -108.78671    1.4000602   -107.38665   -39681.822    4.3961262    4.3961262    4.3961262   -39681.822    -84168.25    37056.768   -71933.985    -8331.027    87276.202   -8054.9694    84.959207 
   80000    1922.3865    -109.1419    1.7394157   -107.40249   -15546.402    4.3848551    4.3848551    4.3848551   -15546.402   -71172.411    35233.655   -10700.449   -12700.269    57701.354   -85.171524    84.307406 
   80100    2547.1352   -109.69402    2.3047014   -107.38932    25271.073    4.3716965    4.3716965    4.3716965    25271.073   -22083.986    75703.167    22194.038    1703.3846    51530.057   -14102.107    83.550687 
   80200    1541.1027   -108.79163    1.3944221   -107.39721   -8332.6509     4.385856     4.385856     4.385856   -8332.6509   -80452.187    58799.294   -3345.0594   -6373.5358    57926.761   -13022.206    84.365153 
   80300    1972.8161   -109.15316    1.7850455   -107.36811    7186.4798    4.3949679    4.3949679    4.3949679    7186.4798   -29094.394    51064.277   -410.44371   -3456.4422    23163.468   -18452.757    84.892067 
   80400    2310.6014   -109.44549    2.0906807   -107.35481    13958.303    4.3952454    4.3952454    4.3952454    13958.303   -15491.064    80477.436   -23111.464    8.9152748    56249.852   -10549.678    84.908151 
   80500    1402.2926   -108.64707    1.2688238   -107.37825   -6704.0154    4.3869603    4.3869603    4.3869603   -6704.0154   -72159.469    17553.025    34494.398   -22511.188   -4895.0112    1784.0097    84.428898 
   80600    2495.6227   -109.63173    2.2580919   -107.37364    32605.161    4.3748736    4.3748736    4.3748736    32605.161    8326.8179    92894.789   -3406.1227    18673.135    50289.505   -7978.4549    83.732975 
   80700    1560.0654   -108.81019      1.41158   -107.39861    7114.6805    4.3768109    4.3768109    4.3768109    7114.6805   -63785.002    31588.279    53540.764   -25639.414   -28346.209   -6731.7486     83.84426 
   80800    2104.3053   -109.30774    1.9040197   -107.40372   -7774.5081    4.3916657    4.3916657    4.3916657   -7774.5081   -28491.403   -3335.3911    8503.2701    6981.8068    21342.503     6877.517    84.700859 
   80900    2174.9738   -109.36206     1.967962   -107.39409   -8580.9864    4.3924454    4.3924454    4.3924454   -8580.9864   -14623.572    31452.637   -42572.025   -11069.507   -29450.803   -21332.422    84.745979 
   81000    1843.9812   -109.05591    1.6684729   -107.38744   -13821.718    4.3902221    4.3902221    4.3902221   -13821.718   -53646.911    -25167.07    37348.826   -22347.042    -6569.205    16308.464     84.61736 
   81100    1986.8982   -109.15186    1.7977873   -107.35408   -19954.812    4.4012748    4.4012748    4.4012748   -19954.812   -4976.9194   -11250.669   -43636.847    9474.5477   -16807.935   -42900.766    85.258061 
   81200    1928.5171    -109.1008    1.7449628   -107.35584   -15072.976    4.4029046    4.4029046    4.4029046   -15072.976   -64002.276    -3081.566    21864.914    -51143.81   -14512.952    8635.1426    85.352809 
   81300    2446.0661   -109.56885     2.213252    -107.3556    10528.944    4.3866812    4.3866812    4.3866812    10528.944    44839.803    19449.159    -32702.13    21942.242    9706.9994    2982.9477    84.412786 
   81400    1242.9807   -108.51465     1.124675   -107.38998     6349.483    4.3723075    4.3723075    4.3723075     6349.483   -18321.302    17545.081    19824.669   -52818.713   -24349.442   -30125.758    83.585718 
   81500     2662.508   -109.79657    2.4090932   -107.38748    27394.447    4.3761562    4.3761562    4.3761562    27394.447    20794.635    23866.084    37522.621   -9923.0405    14685.451    16204.954    83.806641 
   81600    1361.6874   -108.64946    1.2320834   -107.41738   -22600.058    4.3988648    4.3988648    4.3988648   -22600.058    43911.429    -36871.04   -74840.563    12910.551   -6630.7887   -13156.488    85.118085 
   81700    2977.1988   -110.05343     2.693832    -107.3596    12050.414    4.4111575    4.4111575    4.4111575    12050.414   -2073.2371   -9431.1519     47655.63   -9099.9293   -356.91114    -9618.187     85.83367 
   81800    538.77123   -107.88993   0.48749153   -107.40244   -7435.1605    4.3979772    4.3979772    4.3979772   -7435.1605     81606.07   -28113.917   -75797.635     42022.61    13769.743    21750.303     85.06657 
   81900    3017.6583   -110.08995    2.7304407   -107.35951    35953.628    4.3817334    4.3817334    4.3817334    35953.628    38536.605    8378.2835    60945.996    2503.0184   -5052.3528   -22093.302    84.127474 
   82000    1363.2933   -108.64357    1.2335364   -107.41003   -8563.5252     4.369784     4.369784     4.369784   -8563.5252    26319.458     7491.168   -59501.201    -19879.63    299.82509    44178.256    83.441079 
   82100    2497.9163   -109.66993    2.2601672   -107.40977    34217.699    4.3740179    4.3740179    4.3740179    34217.699    77641.796    19450.076    5561.2238    22463.837    11157.672    17746.027    83.683854 
   82200    1531.4194   -108.80982    1.3856604   -107.42416   -11416.521    4.3955316    4.3955316    4.3955316   -11416.521   -17185.639    4027.7152    -21091.64   -47752.803   -6904.9074   -13189.423     84.92474 
   82300    2164.7084   -109.34761    1.9586736   -107.38893   -12188.699    4.4056358    4.4056358    4.4056358   -12188.699     27866.15    9057.8928    -73490.14    14145.322    10732.291    49100.289    85.511748 
   82400    1549.2143   -108.78289    1.4017616   -107.38113   -6461.1579    4.3984044    4.3984044    4.3984044   -6461.1579   -4364.8826   -56759.849    41741.258   -3064.2503   -483.01555   -30737.825    85.091363 
   82500    2181.4177    -109.3594    1.9737926   -107.38561    13641.514     4.381028     4.381028     4.381028    13641.514    -1932.207    61180.183   -18323.433   -31493.976   -29541.207    3955.7832    84.086853 
   82600    2441.5074   -109.60756    2.2091272   -107.39843    21196.407    4.3733423    4.3733423    4.3733423    21196.407    12132.821    1039.7628    50416.639     24168.31    6839.7391     6342.801    83.645082 
   82700    1462.6962   -108.75585    1.3234782   -107.43237    6561.9347    4.3799594    4.3799594    4.3799594    6561.9347   -46632.789    4672.7389    61645.854   -14976.383   -14096.122   -38851.672    84.025337 
   82800    1954.9562   -109.20489    1.7688854     -107.436   -5095.0824    4.3876515    4.3876515    4.3876515   -5095.0824    16125.403    33134.076   -64544.727   -9514.1161   -23993.314    86274.987    84.468812 
   82900    2619.7326    -109.8017    2.3703892   -107.43131    11976.124    4.3786163    4.3786163    4.3786163    11976.124    15490.286    28776.915   -8338.8287     8678.925    6524.4165    11069.352    83.948061 
   83000    1376.4931   -108.69668    1.2454799    -107.4512   -10985.977    4.3840513    4.3840513    4.3840513   -10985.977    1713.3793    385.92312   -35057.234   -18537.769   -15812.925    56202.064    84.261052 
   83100    1434.5208   -108.75342    1.2979846   -107.45544   -39874.791    4.3966306    4.3966306    4.3966306   -39874.791   -2087.1261   -44730.672   -72806.576   -5752.5498   -23863.515    63163.887    84.988454 
   83200    2748.9998   -109.90819    2.4873528   -107.42084    29733.897    4.3853276    4.3853276    4.3853276    29733.897    46560.327    39088.818    3552.5473    -3994.806    7415.4803   -13233.938    84.334667 
   83300    1259.6284   -108.56343    1.1397382   -107.42369    -12442.55    4.3904213    4.3904213    4.3904213    -12442.55     79723.59   -43547.108   -73504.131   -13959.563   -41668.419     84726.35    84.628878 
   83400     2396.654   -109.53649    2.1685429   -107.36795    17278.496     4.397507     4.397507     4.397507    17278.496    7320.4666   -5397.9338    49912.954   -5993.2922   -30451.345    -25618.78    85.039286 
   83500    2003.4732    -109.1778    1.8127846   -107.36502   -5630.4277    4.4040363    4.4040363    4.4040363   -5630.4277    27887.359   -27267.145   -17511.497    9245.7971   -1274.9462    74708.376    85.418646 
   83600    2020.4973   -109.18238    1.8281884   -107.35419   -11448.624    4.4011865    4.4011865    4.4011865   -11448.624   -56334.638   -841.73022    22830.497   -29210.676   -47417.345   -26646.434    85.252932 
   83700    1585.9538   -108.80674    1.4350043   -107.37174   -10030.521    4.3850475    4.3850475    4.3850475   -10030.521    58233.711   -58712.765   -29612.509    2188.9071    569.80126    82610.944    84.318505 
   83800    2649.9124   -109.76962    2.3976964   -107.37192    29222.619    4.3755564    4.3755564    4.3755564    29222.619    -16913.76    35558.211    69023.405    -19173.21     21688.83    -14213.76    83.772187 
   83900    1657.9902   -108.91613    1.5001844   -107.41595    12429.174    4.3776129    4.3776129    4.3776129    12429.174    51569.774   -22834.452    8552.2007   -32498.443   -27943.511    49217.283    83.890359 
   84000     1753.313    -109.0071    1.5864345   -107.42066    4148.4135    4.3924742    4.3924742    4.3924742    4148.4135   -11390.697    50581.562   -26745.624    -4188.764    53678.028    26451.223    84.747652 
   84100    2279.7718   -109.46143    2.0627854   -107.39865   -2263.3378    4.4013001    4.4013001    4.4013001   -2263.3378   -52104.192    24180.113    21134.066   -11449.176    15790.994    -6948.956    85.259531 
   84200    1418.1469    -108.6936    1.2831691   -107.41043    3386.6701    4.3898146    4.3898146    4.3898146    3386.6701    9678.7466    11174.084    -10692.82    -13658.74    11065.551    75264.503    84.593801 
   84300    2714.8532   -109.82904    2.4564562   -107.37259     11135.25    4.3883693    4.3883693    4.3883693     11135.25   -35259.365    62098.741    6566.3726    14086.281    20341.944   -28570.873    84.510271 
   84400    1527.2775   -108.75256    1.3819128   -107.37064   -26094.227    4.4006396    4.4006396    4.4006396   -26094.227    4982.9975   -72404.673   -10861.005   -25680.455    -7864.306    91195.048    85.221154 
   84500    2605.1431   -109.70397    2.3571882   -107.34678   -17219.571    4.4095838    4.4095838    4.4095838   -17219.571   -62740.631   -2254.3168    13336.234    17352.418    44117.737   -29708.748    85.741842 
   84600    1442.1574   -108.67486    1.3048943   -107.36997   -35674.027    4.4050995    4.4050995    4.4050995   -35674.027    44577.727   -89777.139   -61822.668    2004.9604    -5324.178    102715.89    85.480522 
   84700    2861.0883   -109.93307    2.5887728    -107.3443    28565.105    4.3818084    4.3818084    4.3818084    28565.105    15286.703     14287.73     56120.88   -8493.7918    19279.189   -39861.407    84.131793 
   84800    1274.8016   -108.54287    1.1534673    -107.3894    190.64165    4.3726221    4.3726221    4.3726221    190.64165    14916.114   -15690.261    1346.0727    9844.5526    32803.892    70538.406    83.603764 
   84900    2670.7886   -109.81257    2.4165857   -107.39598    18609.547    4.3806119    4.3806119    4.3806119    18609.547    19013.814   -15732.365    52547.191    13285.881   -17399.065    11912.368    84.062896 
   85000    1543.4208   -108.81104    1.3965196   -107.41452   -6687.4724    4.3984829    4.3984829    4.3984829   -6687.4724    17640.578   -2824.3303   -34878.665    4228.5373    48937.077   -27718.752    85.095916 
   85100    2118.6446   -109.30429    1.9169941    -107.3873    331.61603    4.4075366    4.4075366    4.4075366    331.61603    19834.927    -15517.19   -3322.8883    9379.0883     6604.219     69586.44    85.622475 
   85200    2154.0318   -109.33282    1.9490132    -107.3838   -26524.266    4.3955236    4.3955236    4.3955236   -26524.266   -10511.295    -10870.85   -58190.653     10510.98    1396.6966   -62036.924    84.924275 
   85300    1877.8025     -109.084    1.6990752   -107.38493    8936.2384    4.3729454    4.3729454    4.3729454    8936.2384    22851.267    18917.636   -14960.188   -4903.3078     57924.56    52834.141    83.622308 
   85400    2289.4256    -109.4553    2.0715204   -107.38378   -10340.799    4.3815533    4.3815533    4.3815533   -10340.799   -28922.711    6869.4597   -8969.1457    13099.301   -54917.544   -32524.306    84.117101 
   85500    1452.9926   -108.73442    1.3146982   -107.41972   -24450.915    4.3875905    4.3875905    4.3875905   -24450.915   -23196.501   -4335.5759   -45820.669    15184.491     23166.77   -12009.302    84.465287 
   85600    2612.0572   -109.75286    2.3634442   -107.38942    12109.322    4.3952362    4.3952362    4.3952362    12109.322    11648.959    33239.876   -8560.8685    -29010.16   -19219.495    7963.9209    84.907617 
   85700    1181.0934   -108.48434    1.0686781   -107.41566   -30758.229    4.4036737    4.4036737    4.4036737   -30758.229    4873.5458   -22905.078   -74243.154    11849.706   -55219.798    -34424.37    85.397547 
   85800    3022.1473   -110.08756    2.7345024   -107.35306    9390.6024    4.3964572    4.3964572    4.3964572    9390.6024    7767.6312    2805.4457     17598.73   -6253.0637     21766.21      18057.1    84.978402 
   85900    837.72075   -108.14167   0.75798734   -107.38368   -30895.339    4.3972915    4.3972915    4.3972915   -30895.339   -29296.804   -16386.645   -47002.569   -31831.937   -73836.937   -26945.528    85.026786 
   86000    3178.7913    -110.2284    2.8762371   -107.35217    13599.362    4.3948946    4.3948946    4.3948946    13599.362    42517.663    8088.3182   -9807.8949    19881.038    37007.083    -10128.83     84.88782 
   86100    921.94318   -108.24975   0.83419357   -107.41556   -2783.7719    4.3806207    4.3806207    4.3806207   -2783.7719   -20221.858    14582.819   -2712.2771   -62863.514   -48412.428    4383.1603    84.063403 
   86200    2380.7618   -109.56391    2.1541633   -107.40975    6437.5234    4.3790098    4.3790098    4.3790098    6437.5234    6505.0304   -2348.1598      15155.7    11246.798   -18260.325   -14355.793    83.970697 
   86300    1988.0932   -109.22532    1.7988685   -107.42645   -19186.141    4.3847797    4.3847797    4.3847797   -19186.141   -64425.815    5933.9414    933.45092    7807.1483    29613.794   -3741.6942    84.303059 
   86400    2065.1609   -109.29091     1.868601   -107.42231    5964.7231    4.3865031    4.3865031    4.3865031    5964.7231    22745.955    5652.1459   -10503.932    -56564.28   -54696.343    135.38777      84.4025 
   86500    1559.2936   -108.82846    1.4108816   -107.41757   -14921.767     4.389799     4.389799     4.389799   -14921.767   -24288.391    -58021.86    37544.951    93384.362     19305.15    678.12697    84.592898 
   86600    2420.5949   -109.58182    2.1902052   -107.39161   -15516.724    4.3990429    4.3990429    4.3990429   -15516.724   -19377.013    2856.8866   -30030.045   -54744.562   -13107.708    3583.5698    85.128423 
   86700    1761.8383    -108.9816    1.5941483   -107.38745   -36313.914    4.4006398    4.4006398    4.4006398   -36313.914   -59926.595   -72995.243    23980.095     97587.23   -14693.376    5009.4741    85.221167 
   86800    2365.2899   -109.51775     2.140164   -107.37758    154.92932    4.3868448    4.3868448    4.3868448    154.92932    21277.527    17450.649   -38263.388    -9292.368    12445.717    2556.2338    84.422231 
   86900    1693.8653   -108.91479     1.532645   -107.38215    7078.9993     4.383217     4.383217     4.383217    7078.9993     -54041.3   -2985.6673    78263.965    96448.187   -379.73128     3406.506    84.212955 
   87000    2501.4479   -109.61915    2.2633626   -107.35578    790.08642     4.398185     4.398185     4.398185    790.08642     9430.847    5851.9533   -12912.541   -8832.7041     10948.92    -31787.88    85.078626 
   87100    976.51946   -108.25778   0.88357533   -107.37421   -14239.066    4.4050159    4.4050159    4.4050159   -14239.066    8795.5302   -41935.618   -9577.1089    69690.421    10172.279   -551.16444    85.475657 
   87200    2791.2061    -109.8668    2.5255419   -107.34126    8387.8467    4.3948912    4.3948912    4.3948912    8387.8467    1485.0167   -5263.6143    28942.138    6781.0003    -1017.887    -6237.435    84.887623 
   87300    1701.8722   -108.90782    1.5398897   -107.36793   -5487.4857    4.3821732    4.3821732    4.3821732   -5487.4857    50443.162   -49066.559    -17839.06    7534.3207    4658.7549   -3807.2508    84.152809 
   87400     2297.506   -109.45153    2.0788317    -107.3727    23979.991    4.3768536    4.3768536    4.3768536    23979.991    27953.159    23614.699    20372.117    60285.247   -1952.9021    4935.3104    83.846716 
   87500    1745.7161   -108.97445    1.5795606   -107.39489    20922.982    4.3816376    4.3816376    4.3816376    20922.982    53527.096   -34058.085    43299.934    -62381.15   -9901.5431    -9069.456    84.121956 
   87600    2062.9093   -109.26074    1.8665637   -107.39417    2919.2967    4.3928402    4.3928402    4.3928402    2919.2967    39329.195   -34680.105    4108.8007    70017.712   -5323.4344    21597.101    84.768837 
   87700    2170.6249   -109.35063     1.964027    -107.3866    -4957.414    4.3914845    4.3914845    4.3914845    -4957.414   -2786.0018   -7361.8314   -4724.4089   -70569.228   -13351.043    -17749.05    84.690378 
   87800    1680.0493   -108.91465    1.5201439   -107.39451   -3234.5281    4.3853243    4.3853243    4.3853243   -3234.5281    24733.552   -47256.473    12819.337    18146.426   -14302.716    2138.2781    84.334475 
   87900    2417.2251   -109.56336    2.1871561    -107.3762   -7404.0816    4.3833044    4.3833044    4.3833044   -7404.0816   -52548.298    26033.978    4302.0743   -44493.293     22463.47   -3028.5549    84.217996 
   88000    1127.1694   -108.43686    1.0198866   -107.41697   -29822.253    4.3899886    4.3899886    4.3899886   -29822.253   -31719.238   -40570.797   -17176.725   -54944.136   -4509.0555   -22123.586    84.603862 
   88100    3110.4297   -110.19152    2.8143822   -107.37714    8321.0883    4.3875817    4.3875817    4.3875817    8321.0883    -14514.08    10815.341    28662.005    11345.916   -15970.359   -11513.404    84.464779 
   88200    774.19382   -108.11984   0.70050684   -107.41933   -17536.752    4.3835822    4.3835822    4.3835822   -17536.752   -62434.608   -51339.487    61163.839   -92180.573     33879.38   -5273.9603    84.234008 
   88300    3155.8222   -110.23907    2.8554542   -107.38361    19442.243    4.3772338    4.3772338    4.3772338    19442.243    46016.626    4656.1116    7653.9931    33928.172   -25063.748   -30728.481    83.868571 
   88400    926.71773   -108.26285   0.83851368   -107.42433   -10231.694    4.3792627    4.3792627    4.3792627   -10231.694   -25998.171   -83073.941    78377.031   -57483.887    13730.063    8894.2313    83.985247 
   88500    3148.5187   -110.23503    2.8488459   -107.38618    11818.644    4.3931468    4.3931468    4.3931468    11818.644    33520.979   -1150.6161    3085.5694   -2837.5278   -8821.8752   -9440.1413    84.786586 
   88600    1069.1949   -108.38226   0.96743005   -107.41483   -11715.779    4.3968541    4.3968541    4.3968541   -11715.779   -44761.672   -25526.101    35140.436    -30870.72   -34331.814   -4394.5602    85.001417 
   88700    2275.5573   -109.44839    2.0589721   -107.38942   -692.63111    4.3889165    4.3889165    4.3889165   -692.63111    23356.093   -71369.354    45935.368   -519.70699    16361.294    13743.044    84.541889 
   88800    1916.7257   -109.12735    1.7342936   -107.39306     17400.48    4.3761113    4.3761113    4.3761113     17400.48   -20568.519    3529.0196    69240.939   -30265.801    1047.4641    7150.7374    83.804065 
   88900    1855.1863   -109.08994    1.6786116   -107.41133    7459.9004    4.3779145    4.3779145    4.3779145    7459.9004   -9866.6563   -34783.045    67029.403   -44087.652   -27742.941   -12290.522    83.907704 
   89000    2598.5049   -109.74099    2.3511819    -107.3898    4455.2514    4.3951269    4.3951269    4.3951269    4455.2514   -45455.851    32210.169    26611.437   -162.11474    41779.887    15210.868    84.901285 
   89100    985.03049   -108.29764   0.89127629   -107.40636   -20936.819    4.4012489    4.4012489    4.4012489   -20936.819   -97539.952   -33828.638    68558.134   -87697.969   -21208.141   -4920.7774    85.256558 
   89200    2896.3381   -109.97862    2.6206676   -107.35795   -11489.003    4.3969878    4.3969878    4.3969878   -11489.003   -24085.874    -31231.21    20850.076    60474.321    16114.458    797.03928     85.00917 
   89300    1204.7815   -108.48982    1.0901116    -107.3997   -14462.448    4.3745778    4.3745778    4.3745778   -14462.448   -83449.681    27715.055    12347.282    -67310.69    7243.9891    10161.909    83.715994 
   89400    2811.1491   -109.91895    2.5435867   -107.37537    18698.101    4.3639682    4.3639682    4.3639682    18698.101    8846.7103   -3504.5762     50752.17     29670.61   -6308.9905   -1622.7398    83.108364 
   89500    1205.0238   -108.51123    1.0903308    -107.4209   -30287.321    4.3852199    4.3852199    4.3852199   -30287.321   -83596.355    -36718.82    29453.212    52054.648    13832.258   -7406.1007    84.328451 
   89600    2719.1736   -109.84333    2.4603654   -107.38296   -3915.7595     4.401498     4.401498     4.401498   -3915.7595    -32032.78    2313.0981    17972.404   -46218.756   -3984.3273    8371.6675    85.271034 
   89700    1277.9114   -108.55333    1.1562811   -107.39704   -41506.499    4.4022114    4.4022114    4.4022114   -41506.499   -90166.682   -75270.336    40917.521    114860.64    4863.5423   -3391.5612    85.312505 
   89800    2554.1528   -109.68308    2.3110511   -107.37203    8599.6034    4.3807531    4.3807531    4.3807531    8599.6034   -11212.093     57152.18   -20141.277   -37989.486    30784.692   -26460.197    84.071025 
   89900    1492.8899   -108.74219    1.3507982   -107.39139    11083.461    4.3667786    4.3667786    4.3667786    11083.461   -13883.401    -26701.57    73835.354    103887.62   -23408.329    13324.569     83.26903 
   90000    2312.3737   -109.48672    2.0922843   -107.39443    11412.894    4.3845668    4.3845668    4.3845668    11412.894    -6698.287    45482.027    -4545.058   -23175.222    35249.831   -5020.0083    84.290782 
   90100    1615.3251   -108.85853    1.4615801   -107.39695    -39075.01    4.4030508    4.4030508    4.4030508    -39075.01   -58189.412   -86494.085    27458.467    90851.021    2615.6245   -21954.871    85.361312 
   90200    2380.3004   -109.54042    2.1537458   -107.38668   -20667.227    4.3910309    4.3910309    4.3910309   -20667.227   -10633.015   -32131.047   -19237.619    16706.713   -7854.9244    32153.168    84.664136 
   90300    1843.3987   -109.06977    1.6679459   -107.40183   -4522.0819    4.3681962    4.3681962    4.3681962   -4522.0819   -34434.229   -1048.6833    21916.667    45823.784    38959.293   -10103.125    83.350156 
   90400    1789.2375    -109.0439    1.6189397   -107.42496    17768.848    4.3645457    4.3645457    4.3645457    17768.848   -43580.521   -237.76338    97124.827    84141.536    -12438.79   -2941.1415    83.141365 
   90500    2181.6322   -109.39648    1.9739866    -107.4225    15119.658    4.3925043    4.3925043    4.3925043    15119.658   -28541.873    41137.783    32763.065    12349.804    20668.841    6635.2794    84.749389 
   90600    1280.0769   -108.55794    1.1582405    -107.3997   -29183.409    4.4188398    4.4188398    4.4188398   -29183.409   -72949.334   -80542.764    65941.871    64686.401    22938.194   -1985.6787    86.282905 
   90700    2526.2521   -109.60789     2.285806   -107.32208   -25945.991    4.4158799    4.4158799    4.4158799   -25945.991   -31284.226   -47644.461    1090.7141    37041.533   -1948.1668   -730.00895    86.109637 
   90800    1346.4417   -108.54266    1.2182887   -107.32437   -12811.652    4.3939969    4.3939969    4.3939969   -12811.652   -32520.738       -26141    20226.783    74837.662    30074.544   -97.512917    84.835813 
   90900    2083.7522   -109.20006    1.8854228   -107.31464    31619.046    4.3706205    4.3706205    4.3706205    31619.046    14522.911   -27038.993    107373.22    44817.764   -5850.7236   -9679.3934    83.489008 
   91000    2292.4875   -109.42737    2.0742908   -107.35308   -10020.426     4.376028     4.376028     4.376028   -10020.426   -25552.253    -41678.26    37169.235    57945.814    9336.9655     4409.074    83.799278 
   91100    1769.4353   -108.97476    1.6010222   -107.37374    -4110.383    4.3994374    4.3994374    4.3994374    -4110.383   -43546.667    -26933.79    58149.307    45534.863    27875.253   -12733.616    85.151326 
   91200    2097.3295   -109.25701    1.8977078    -107.3593   -25389.527    4.4130539    4.4130539    4.4130539   -25389.527   -7529.4819   -61539.169   -7099.9283    37436.471   -25551.494    1086.6236     85.94442 
   91300    1961.6402   -109.12959    1.7749333   -107.35465   -36106.143    4.4065952    4.4065952    4.4065952   -36106.143   -74872.256   -45402.361    11956.187    52773.407    15999.098    5457.3334    85.567624 
   91400    1581.6664   -108.80451     1.431125   -107.37339   -8455.3206    4.3846131    4.3846131    4.3846131   -8455.3206   -56085.596   -29027.858    59747.493    67106.187    27238.648   -21476.377    84.293453 
   91500    2124.6794   -109.29146    1.9224546     -107.369    37823.847    4.3618938    4.3618938    4.3618938    37823.847    21637.896    6078.9027    85754.741    43596.997   -15570.978   -2649.0999    82.989907 
   91600    1766.5867   -108.99686    1.5984447   -107.39841   -16076.522    4.3768075    4.3768075    4.3768075   -16076.522   -70701.944   -13668.198    36140.577    65800.245    17386.561    5933.3175    83.844069 
   91700    1944.9206   -109.15392    1.7598051   -107.39412   -21870.089    4.3942532    4.3942532    4.3942532   -21870.089   -45846.709   -17543.127   -2220.4327   -19346.103      28424.6   -7860.7588     84.85066 
   91800    2404.7731   -109.56273    2.1758893   -107.38685    4877.7583    4.3921321    4.3921321    4.3921321    4877.7583   -22536.448   -39524.408     76694.13    76468.723   -6668.9477    -9206.407    84.727848 
   91900    1446.1327   -108.70645    1.3084913   -107.39796   -24077.147    4.3903821    4.3903821    4.3903821   -24077.147   -75458.203    30712.608   -27485.846   -63688.327    20044.713    4553.4439    84.626612 
   92000    2082.0355   -109.28182    1.8838695   -107.39795   -5365.7471    4.3813387    4.3813387    4.3813387   -5365.7471   -14564.188   -24666.313    23133.259    44309.578    11169.536   -16746.031    84.104745 
   92100    1993.8435   -109.20709    1.8040715   -107.40302    19085.462    4.3698103    4.3698103    4.3698103    19085.462    2935.6639   -11302.381    65623.104   -65726.286    5956.5524    4345.5811    83.442584 
   92200    1583.5019   -108.85735    1.4327858   -107.42456   -14924.506    4.3888409    4.3888409    4.3888409   -14924.506   -76817.341    46737.879   -14694.055   -17104.916    6672.6574    6076.7231    84.537519 
   92300    2869.3394   -109.97318    2.5962385   -107.37694    8227.2661    4.3979231    4.3979231    4.3979231    8227.2661    13038.114    -40765.64    52409.324    -23331.84    3118.0384    10816.179    85.063428 
   92400    952.52823   -108.26497   0.86186756   -107.40311    693.86735    4.3861701    4.3861701    4.3861701    693.86735    -51383.14   -45065.475    98530.217   -59684.159    31436.158    10840.677    84.383279 
   92500    3219.6832   -110.27285     2.913237   -107.35961    31105.146    4.3772966    4.3772966    4.3772966    31105.146     73316.34   -18394.686    38393.784    8712.4029     1829.694    3069.4519    83.872178 
   92600    773.65481   -108.12212   0.70001913    -107.4221   -12607.867    4.3784857    4.3784857    4.3784857   -12607.867   -57604.607   -74085.212    93866.218   -50993.779     5693.844     2951.834    83.940551 
   92700    3268.7957   -110.33087    2.9576751    -107.3732    27642.025     4.387156     4.387156     4.387156    27642.025    53354.884    14243.557    15327.633    21422.009    28880.615    16063.642    84.440194 
   92800    1120.2898   -108.41589    1.0136618   -107.40223   -35019.213    4.4004354    4.4004354    4.4004354   -35019.213   -54756.912   -66537.717    16236.989   -66892.878   -33684.664   -4835.9809    85.209289 
   92900    2846.3119   -109.94601    2.5754028    -107.3706   -4673.7851    4.3954319    4.3954319    4.3954319   -4673.7851    21062.517    -28234.73   -6849.1429     51962.06    15924.483    5418.1653     84.91896 
   93000    1221.3179   -108.49186    1.1050741   -107.38678   -14418.946    4.3873437    4.3873437    4.3873437   -14418.946   -38928.688   -63237.967    58909.815   -87752.876   -31303.113    5381.8792    84.451034 
   93100    2925.0308   -109.99969    2.6466293   -107.35307   -696.57417    4.3976666    4.3976666    4.3976666   -696.57417   -7680.7147   -15238.311    20829.303    15495.375   -11777.121   -8719.7895    85.048549 
   93200    1439.7105   -108.66444    1.3026803   -107.36176   -20829.618      4.40933      4.40933      4.40933   -20829.618   -27034.653   -52292.954    16838.755   -77077.983    4378.6731    14562.657    85.727035 
   93300    2250.5898   -109.37994    2.0363809   -107.34356   -12722.379    4.4085354    4.4085354    4.4085354   -12722.379   -17731.655   -1075.1488   -19360.335    4733.6941   -50747.366    7030.9533    85.680696 
   93400    1994.0253   -109.16998     1.804236   -107.36575   -7096.4995    4.3856362    4.3856362    4.3856362   -7096.4995   -25262.793   -53091.844    57065.138   -44721.699    10809.398   -10461.721    84.352471 
   93500    1567.8799   -108.82214    1.4186507   -107.40349    6280.2706    4.3612248    4.3612248    4.3612248    6280.2706    47808.392   -38590.963    9623.3826   -65774.589    14904.468    18427.372    82.951723 
   93600    2915.8247   -110.04008    2.6382995   -107.40178    27614.888    4.3615316    4.3615316    4.3615316    27614.888    51870.136   -4834.0146    35808.542    24426.153   -21023.697   -7170.0065     82.96923 
   93700    677.67101   -108.07267   0.61317097    -107.4595   -19143.951     4.386633     4.386633     4.386633   -19143.951   -9754.3108   -113208.46    65530.918   -75438.945    16004.653   -3351.1681        84.41 
   93800    3243.9956   -110.32801    2.9352354   -107.39278   -8492.5696    4.4032763    4.4032763    4.4032763   -8492.5696    24098.312   -17117.178   -32458.843    16872.766    23355.397    3498.3837    85.374427 
   93900    1012.3885   -108.33936    0.9160304   -107.42333   -18046.292    4.3892669    4.3892669    4.3892669   -18046.292    31795.243   -104272.86    18338.743   -61732.011   -15732.709    2105.9776    84.562142 
   94000    3014.6728   -110.13217    2.7277393   -107.40443    16461.114    4.3727683    4.3727683    4.3727683    16461.114    48208.919    -19754.08    20928.502    20434.562    3424.3403   -3221.1295    83.612152 
   94100    1533.4862   -108.82645    1.3875306   -107.43892    41947.431     4.356737     4.356737     4.356737    41947.431    136857.24   -17026.345    6011.4002   -47422.777   -4423.6603   -4825.7954    82.695911 
   94200    1861.3348   -109.14954    1.6841749   -107.46537    10878.316    4.3730877    4.3730877    4.3730877    10878.316   -3879.2484    26897.512    9616.6854   -50651.687   -13189.927    1579.0864    83.630473 
   94300    2865.7132   -110.02132    2.5929575   -107.42836    3847.3237    4.3952216    4.3952216    4.3952216    3847.3237   -4462.5521    49281.749   -33277.225    18017.478    20045.727   -9494.9052    84.906773 
   94400    1113.8164   -108.44595    1.0078045   -107.43815    2089.7151    4.3967933    4.3967933    4.3967933    2089.7151    13640.961    -19476.08    12104.264   -84918.457    -1953.244   -5628.4676    84.997893 
   94500    3124.2404   -110.20076    2.8268784   -107.37388   -7203.4473    4.3997748    4.3997748    4.3997748   -7203.4473   -1571.0085   -10730.094   -9309.2393    50124.984    9541.6276   -2928.8826    85.170923 
   94600    905.95753   -108.22764   0.81972941   -107.40791   -26391.855    4.3844151    4.3844151    4.3844151   -26391.855   -71341.409   -73647.965    65813.808   -75355.047    27476.271     667.2393    84.282029 
   94700    2492.3112   -109.64431    2.2550956   -107.38921    23304.442    4.3629654    4.3629654    4.3629654    23304.442    41353.103    28791.211    -230.9881    4548.3765   -41336.218     -5528.89    83.051086 
   94800    1492.8594   -108.77747    1.3507705    -107.4267   -5244.8839    4.3678853    4.3678853    4.3678853   -5244.8839    -50771.24   -31100.116    66136.705   -20042.849   -29456.927     3829.731    83.332356 
   94900    2417.6884   -109.61488    2.1875752    -107.4273   -1945.6753    4.3846229    4.3846229    4.3846229   -1945.6753    8816.3668   -43931.706    29278.313   -29949.925    12281.401   -8470.4178    84.294018 
   95000     1980.622   -109.21097    1.7921084   -107.41886   -16091.685    4.4003314    4.4003314    4.4003314   -16091.685   -36504.992   -10233.888   -1536.1758   -7365.6627   -57299.812   -2610.7589    85.203251 
   95100    1478.5951   -108.74695    1.3378639   -107.40909   -13780.089    4.3913244    4.3913244    4.3913244   -13780.089   -53171.334   -77694.902     89525.97   -42902.749    8820.4346    13929.947    84.681114 
   95200    2491.9135    -109.6259    2.2547357   -107.37116    5977.6384    4.3818523    4.3818523    4.3818523    5977.6384    16191.226    24219.754   -22478.065    25378.829    1615.9804   -1810.5741    84.134321 
   95300    1330.1917   -108.60025    1.2035854   -107.39667   -29518.688    4.3803787    4.3803787    4.3803787   -29518.688   -86014.802   -71713.314    69172.053   -129121.33   -16862.507   -4995.1827    84.049468 
   95400    3081.4916   -110.17307    2.7881983   -107.38487    20818.328    4.3741036    4.3741036    4.3741036    20818.328    32642.212      29973.5   -160.72834    36806.323    12423.564    2241.3468    83.688774 
   95500    945.01541   -108.30011    0.8550698   -107.44504   -51832.132     4.379576     4.379576     4.379576   -51832.132    -118559.6   -60816.164    23879.363   -132697.14    27510.755    8586.2831     84.00327 
   95600    2621.6593   -109.79783    2.3721325    -107.4257    720.34831    4.3757183    4.3757183    4.3757183    720.34831   -24922.251    22497.112    4586.1836    3049.1269   -35042.624   -3773.4425    83.781485 
   95700    1470.3101   -108.76687    1.3303675    -107.4365   -15007.846    4.3851037    4.3851037    4.3851037   -15007.846    -49379.47   -41451.014    45806.947   -50975.036    3598.4209    24255.198    84.321747 
   95800    2081.0494   -109.29692    1.8829772   -107.41394   -15526.153     4.393747     4.393747     4.393747   -15526.153   -35488.312    5032.7336   -16122.882    -45936.35     40175.98    2438.2067     84.82134 
   95900    2243.5563   -109.42515    2.0300169   -107.39513    3213.3867    4.3866015    4.3866015    4.3866015    3213.3867    26326.241   -16333.083   -352.99698   -6696.4639   -10053.594    14680.756    84.408184 
   96000    1452.9464   -108.72025    1.3146565   -107.40559    3446.2007    4.3786513    4.3786513    4.3786513    3446.2007   -11344.641   -43276.575    64959.819   -70431.505    17192.236    2253.8119    83.950072 
   96100    2566.3512   -109.70986    2.3220885   -107.38777    33627.226    4.3786385    4.3786385    4.3786385    33627.226    56142.725    61392.577   -16653.622    19216.011    32766.313    13033.516    83.949337 
   96200     1260.194   -108.56012      1.14025   -107.41987   -19717.887    4.3842507    4.3842507    4.3842507   -19717.887   -16544.098   -47725.782    5116.2174   -87239.156   -20750.782    18127.922    84.272549 
   96300    3436.8197   -110.50038    3.1097067   -107.39067    15666.406    4.3838026    4.3838026    4.3838026    15666.406    27279.365    33573.685   -13853.831     21817.11    24522.825   -10980.037    84.246713 
   96400    999.50782   -108.34145   0.90437568   -107.43707   -36545.351    4.3925711    4.3925711    4.3925711   -36545.351   -26830.647   -61964.887   -20840.518    -61814.21    4998.8767    19399.145    84.753258 
   96500    2036.6629   -109.27186    1.8428154   -107.42904   -31970.178    4.3917793    4.3917793    4.3917793   -31970.178    -25395.47   -17146.725    -53368.34   -28880.635   -37804.558    4085.4603    84.707432 
   96600    2270.7398   -109.46346    2.0546131   -107.40885    8954.7161    4.3825516    4.3825516    4.3825516    8954.7161      9165.73   -3426.0292    21124.447   -10935.412    19787.571   -4187.6533    84.174608 
   96700    1593.5325   -108.85752    1.4418617   -107.41566   -16072.669    4.3854144    4.3854144    4.3854144   -16072.669   -3748.4484   -63851.118    19381.559   -62501.669   -14941.841    13570.722    84.339676 
   96800    3167.6907   -110.25565    2.8661931   -107.38946    24937.168    4.3780779    4.3780779    4.3780779    24937.168    35846.541    56835.208   -17870.246    6643.2256    5770.3601   -8045.6625    83.917099 
   96900    439.92877   -107.85169   0.39805679   -107.45364   -27474.381    4.3812576    4.3812576    4.3812576   -27474.381   -23661.854   -72328.331    13567.043    -82367.06    24939.885    88.575975    84.100072 
   97000    3193.8576   -110.30526    2.8898695   -107.41539    11046.204    4.3845591    4.3845591    4.3845591    11046.204    40583.085    28844.607   -36289.078    19897.178    -22697.62    7424.7643    84.290339 
   97100    1135.4865   -108.47455    1.0274121   -107.44714   -7401.6259    4.3854911    4.3854911    4.3854911   -7401.6259    26613.785   -60908.532    12089.869   -90767.441   -8204.6279    -13150.67    84.344099 
   97200    2600.7834   -109.76127    2.3532435   -107.40803   -2267.2366    4.3861522    4.3861522    4.3861522   -2267.2366    17687.214   -14010.928   -10477.995    16044.757    11083.905    8742.6093    84.382251 
   97300    1457.3404   -108.73849    1.3186322   -107.41986    22115.456    4.3767143    4.3767143    4.3767143    22115.456    15777.831    161.38767    50407.149   -58094.946   -47843.628    2440.0917     83.83871 
   97400    2106.0255   -109.31821    1.9055761   -107.41264    5799.7126    4.3852981    4.3852981    4.3852981    5799.7126   -18843.897   -18137.963    54380.997   -17293.935    6552.1324    4451.0554    84.332964 
   97500     2011.906   -109.21264    1.8204148   -107.39222    9286.3492    4.3938736    4.3938736    4.3938736    9286.3492   -16828.206    18372.973    26314.281   -41742.618   -12514.213    4676.3635    84.828674 
   97600    1488.0625   -108.74706    1.3464302   -107.40063   -10892.576    4.4025422    4.4025422    4.4025422   -10892.576   -94323.562    2216.7028    59429.131   -66896.618   -29454.817   -3250.9338    85.331735 
   97700    2475.6964   -109.60553    2.2400622   -107.36547    20010.924    4.3930649    4.3930649    4.3930649    20010.924   -13191.866    27547.592    45677.048   -21564.181    11612.962   -5360.2771    84.781844 
   97800    1466.6272   -108.70066    1.3270351   -107.37362    3975.1286    4.3804639    4.3804639    4.3804639    3975.1286   -30130.675    11585.804    30470.257   -75283.176   -47927.854   -1999.1788    84.054375 
   97900    2831.2628   -109.92251    2.5617861   -107.36072   -1231.8998    4.3815294    4.3815294    4.3815294   -1231.8998    26196.887   -6434.1489   -23458.437    10010.472   -21034.934    -20074.45    84.115726 
   98000    1226.9542    -108.5183     1.110174   -107.40813    27733.894    4.3774059    4.3774059    4.3774059    27733.894    40719.099   -32631.579    75114.163   -90640.375   -6915.9373   -7559.7335     83.87846 
   98100    2606.9136   -109.74288    2.3587902   -107.38409   -4537.3513    4.3964131    4.3964131    4.3964131   -4537.3513   -2129.7934    27746.066   -39228.327    25482.582   -76642.718   -5986.8557    84.975842 
   98200    1812.8331   -109.03351    1.6402895   -107.39322    -8402.471    4.3942692    4.3942692    4.3942692    -8402.471    10092.882   -69790.862    34490.567   -98992.033     21891.87    1876.9099     84.85159 
   98300    2106.0378   -109.28788    1.9055873   -107.38229    24497.495    4.3804693    4.3804693    4.3804693    24497.495   -19178.234      61489.6    31181.118    22291.035   -70062.608   -15774.011    84.054683 
   98400    1803.5093    -109.0164    1.6318532   -107.38454    3266.3276    4.3820394    4.3820394    4.3820394    3266.3276    -11767.27   -8962.3631    30528.616   -76169.752   -4617.5729    11515.958    84.145099 
   98500    1979.4552   -109.17484    1.7910527   -107.38379    12955.606     4.387613     4.387613     4.387613    12955.606   -19253.553    22864.227    35256.144   -11318.618   -24862.233   -1445.6666    84.466587 
   98600    1909.5479   -109.11859    1.7277991   -107.39079    -3179.507     4.390328     4.390328     4.390328    -3179.507   -22477.392    25571.813   -12632.943    -29333.33   -49623.041   -5246.8588    84.623483 
   98700    1757.8583   -108.98344    1.5905472   -107.39289     26982.28    4.3868147    4.3868147    4.3868147     26982.28    21252.238    1483.5069    58211.096   -51886.776    23451.928    25194.572    84.420488 
   98800    2126.3798     -109.305    1.9239932   -107.38101    24769.475    4.3878237    4.3878237    4.3878237    24769.475   -18214.421    49052.574    43470.271    35936.646   -44115.239   -4563.3258    84.478754 
   98900    1525.5655   -108.77009    1.3803638   -107.38972    5673.1328    4.3938742    4.3938742    4.3938742    5673.1328   -29652.863   -36476.192    83148.453   -107968.89    2434.4429    12128.106    84.828709 
   99000    2679.8324   -109.77502    2.4247687   -107.35025    2036.8129    4.3957537    4.3957537    4.3957537    2036.8129   -42193.234    55636.357   -7332.6841    59837.856   -14907.397     7509.481    84.937611 
   99100    1177.4637   -108.43836    1.0653939   -107.37297   -40216.883    4.3957046    4.3957046    4.3957046   -40216.883   -106404.35   -76642.958    62396.658   -104311.69   -17463.204   -621.19444    84.934767 
   99200    3174.2485   -110.20589    2.8721268   -107.33377    18479.003    4.3885259    4.3885259    4.3885259    18479.003   -17262.706     78132.91   -5433.1962    38491.762    15089.391    8442.0966     84.51932 
   99300     850.2346   -108.15334   0.76931013   -107.38403   -21552.213    4.3862039    4.3862039    4.3862039   -21552.213   -102052.74   -32060.422    69456.526   -92021.658    -25684.82    779.63097    84.385229 
   99400    3102.5383   -110.15705    2.8072418   -107.34981    29394.633    4.3818241    4.3818241    4.3818241    29394.633    1378.7319    76930.973    9874.1945     42568.22    12886.881    -13780.47    84.132698 
   99500    932.68384   -108.24583   0.84391194   -107.40192   -24595.979    4.3876153    4.3876153    4.3876153   -24595.979   -112301.12   -1162.1046    39675.283   -88711.642    21566.189    11226.202     84.46672 
   99600     3160.394   -110.22802    2.8595909   -107.36843    9666.1098    4.3935574    4.3935574    4.3935574    9666.1098    8986.3056    23446.758   -3434.7343    18770.121   -18118.236   -12934.874    84.810364 
   99700     923.2201   -108.22723   0.83534895   -107.39189   -34210.203    4.3997274    4.3997274    4.3997274   -34210.203   -99448.033   -6204.5261    3021.9512   -89326.747    52800.308   -456.85895    85.168168 
   99800    2879.6472   -109.95197    2.6055653   -107.34641    6998.1663    4.4012851    4.4012851    4.4012851    6998.1663    4908.8873    13504.806    2580.8059      1549.69   -16837.993   -3737.9614    85.258661 
   99900    1250.7805   -108.50341    1.1317325   -107.37167   -34608.852    4.3940954    4.3940954    4.3940954   -34608.852   -80752.136    859.94672   -23934.367    -62710.31    42556.786    24298.209    84.841523 
  100000    1958.9017   -109.16565    1.7724554   -107.39319    11222.386    4.3730739    4.3730739    4.3730739    11222.386   -12291.121    35975.515    9982.7625   -54153.097    26808.881   -15617.453    83.629681 
Loop time of 22.17 on 1 procs for 100000 steps with 8 atoms

Pair  time (%) = 6.55209 (29.5539)
Kspce time (%) = 5.48008 (24.7185)
Neigh time (%) = 0.263119 (1.18683)
Comm  time (%) = 0.955187 (4.30847)
Outpt time (%) = 0.0260303 (0.117412)
Other time (%) = 8.89345 (40.1149)

Nlocal:    8 ave 8 max 8 min
Histogram: 1 0 0 0 0 0 0 0 0 0
Nghost:    2026 ave 2026 max 2026 min
Histogram: 1 0 0 0 0 0 0 0 0 0
Neighs:    2043 ave 2043 max 2043 min
Histogram: 1 0 0 0 0 0 0 0 0 0

Total # of neighbors = 2043
Ave neighs/atom = 255.375
Neighbor list builds = 3375
Dangerous builds = 0
unfix 20
unfix 21
print "seeds:1753698"
seeds:1753698
