LAMMPS (10 Feb 2015)
# ---- initialize simulations
clear
units metal
dimension 3
boundary p p p
atom_style charge
atom_modify map array
# ---- create atoms
read_data /Users/eugeneragasa/pyflamestk_git/pypospack/tests/tests_integration/workflow/WorkflowLammpsThermalExpansion/param_5091/MgO_NaCl_unit.npt.T400/lammps.structure
  triclinic box = (0 0 0) to (4.2565 4.2565 4.2565) with tilt (0 0 0)
  1 by 1 by 1 MPI processor grid
  reading atoms ...
  8 atoms
# ---- define interatomic potential
include potential.mod
mass 1 24.305
mass 2 15.999

group Mg type 1
4 atoms in group Mg
group O type 2
4 atoms in group O

set group Mg charge 1.60395442224
  4 settings made for charge
set group O charge -1.60395442224
  4 settings made for charge

variable R_cut equal 10.0

pair_style buck/coul/long ${R_cut}
pair_style buck/coul/long 10
pair_coeff 1 1 0.0 0.5 0.0 ${R_cut}
pair_coeff 1 1 0.0 0.5 0.0 10
pair_coeff 1 2 1640.33364459 0.274285748818 0.0 ${R_cut}
pair_coeff 1 2 1640.33364459 0.274285748818 0.0 10
pair_coeff 2 2 138.503876614 0.167383398543 15.9463705464 ${R_cut}
pair_coeff 2 2 138.503876614 0.167383398543 15.9463705464 10

kspace_style pppm 1.0e-5

neighbor 1.0 bin
neigh_modify every 1 delay 0 check yes
# ---- define settings
compute eng all pe/atom
compute eatoms all reduce sum c_eng
# ---- run minimization
reset_timestep 0
fix 1 all box/relax iso 0.0 vmax 0.001
thermo 10
thermo_style custom step pe lx ly lz xy xz yz press pxx pyy pzz pxy pxz pyz c_eatoms
min_style cg
minimize 1e-25 1e-25 5000 10000
PPPM initialization ...
  G vector (1/distance) = 0.352384
  grid = 8 8 8
  stencil order = 5
  estimated absolute RMS force accuracy = 3.76636e-05
  estimated relative force accuracy = 2.6156e-06
  using double precision FFTs
  3d grid and FFT values/proc = 3375 512
Neighbor list info ...
  1 neighbor list requests
  update every 1 steps, delay 0 steps, check yes
  master list distance cutoff = 11
Memory usage per processor = 4.06549 Mbytes
Step PotEng Lx Ly Lz Xy Xz Yz Press Pxx Pyy Pzz Pxy Pxz Pyz eatoms 
       0   -105.40733       4.2565       4.2565       4.2565            0            0            0    42357.047    42357.047    42357.047    42357.047 -5.4591187e-11 1.2697943e-10 -3.1158894e-11   -105.40733 
      10   -105.43209    4.2922445    4.2922445    4.2922445            0            0            0   -4.9211524   -4.9211524   -4.9211524   -4.9211524 1.7090498e-11 -3.1779622e-11 -1.1443831e-10   -105.43209 
      12   -105.43209    4.2922402    4.2922402    4.2922402            0            0            0  -0.19512063  -0.19512063  -0.19512063  -0.19512063 3.2638439e-11 -8.1058727e-11 1.6032595e-10   -105.43209 
Loop time of 0.00854492 on 1 procs for 12 steps with 8 atoms

Minimization stats:
  Stopping criterion = linesearch alpha is zero
  Energy initial, next-to-last, final = 
        -105.407331285      -105.43208818      -105.43208818
  Force two-norm initial, final = 6.11638 6.94804e-05
  Force max component initial, final = 6.11638 2.86507e-05
  Final line search alpha, max atom move = 0.5 1.43253e-05
  Iterations, force evaluations = 12 25

Pair  time (%) = 0.00233078 (27.2768)
Kspce time (%) = 0.00136733 (16.0017)
Neigh time (%) = 0 (0)
Comm  time (%) = 0.000261545 (3.06083)
Outpt time (%) = 1.12057e-05 (0.131138)
Other time (%) = 0.00457406 (53.5296)

Nlocal:    8 ave 8 max 8 min
Histogram: 1 0 0 0 0 0 0 0 0 0
Nghost:    2189 ave 2189 max 2189 min
Histogram: 1 0 0 0 0 0 0 0 0 0
Neighs:    2344 ave 2344 max 2344 min
Histogram: 1 0 0 0 0 0 0 0 0 0

Total # of neighbors = 2344
Ave neighs/atom = 293
Neighbor list builds = 0
Dangerous builds = 0
unfix 1
# ---- define output variables ----
variable natoms equal "count(all)"
variable tot_energy equal "c_eatoms"
variable length_x equal "lx"
variable length_y equal "ly"
variable length_z equal "lz"
variable tilt_xy equal "xy"
variable tilt_xz equal "xz"
variable tilt_yz equal "yz"
variable tot_press equal "press"
variable press_xx equal "pxx"
variable press_yy equal "pyy"
variable press_zz equal "pzz"
variable press_xy equal "pxy"
variable press_xz equal "pxz"
variable press_yz equal "pyz"

# ---- output ----
print "pypospack:output_section:begin"
pypospack:output_section:begin
print "tot_energy = ${tot_energy}"
tot_energy = -105.432088180201
print "num_atoms = ${natoms}"
num_atoms = 8
print "xx = ${length_x}"
xx = 4.29224022422512
print "yy = ${length_y}"
yy = 4.29224022422512
print "zz = ${length_z}"
zz = 4.29224022422512
print "xy = ${tilt_xy}"
xy = 0
print "xz = ${tilt_xz}"
xz = 0
print "yz = ${tilt_yz}"
yz = 0
print "tot_press = ${tot_press}"
tot_press = -0.195120630166908
print "pxx = ${press_xx}"
pxx = -0.195120630011552
print "pyy = ${press_yy}"
pyy = -0.195120630547228
print "pzz = ${press_zz}"
pzz = -0.195120629941943
print "pxy = ${press_xy}"
pxy = 3.26384388476247e-11
print "pxz = ${press_xz}"
pxz = -8.10587270505021e-11
print "pyz = ${press_yz}"
pyz = 1.60325951029016e-10
print "pypospack:output_section:done"
pypospack:output_section:done
print "pypospack:lammps_sim:done"
pypospack:lammps_sim:done
#------------------------------------------------------------------------------
# RUN THERMOSTAT
# running using an NPT Nose-Hoover style thermostat
#------------------------------------------------------------------------------
variable tempdamp equal 0.1
variable pressdamp equal 1.0
# set initial velocities
velocity all create 400 5124749 mom yes dist gaussian loop all
# fix for Nose-Hoover style thermostat
fix 20 all npt temp 400 400 0.1 aniso 0.0 0.0 1.0 drag 1.0 couple xyz
variable boxx equal lx
variable boxy equal ly
variable boxz equal lz
variable boxp equal press
variable boxt equal temp
# calculate averages every 10000 steps
reset_timestep 0
fix 21 all ave/time 10 10 100 v_boxx v_boxy v_boxz v_boxp v_boxt file lattice.out
thermo_style custom step temp pe ke etotal press lx ly lz press pxx pyy pzz pxy pxz pyz vol
thermo_modify flush yes
thermo 100
run 100000
PPPM initialization ...
  G vector (1/distance) = 0.352034
  grid = 8 8 8
  stencil order = 5
  estimated absolute RMS force accuracy = 3.82705e-05
  estimated relative force accuracy = 2.65774e-06
  using double precision FFTs
  3d grid and FFT values/proc = 3375 512
Memory usage per processor = 3.06549 Mbytes
Step Temp PotEng KinEng TotEng Press Lx Ly Lz Press Pxx Pyy Pzz Pxy Pxz Pyz Volume 
       0          400   -105.43209   0.36192841   -105.07017    4887.3737    4.2922402    4.2922402    4.2922402    4887.3737     3211.041    10697.952    753.12802   -2030.9019     -227.257    662.48228    79.077342 
     100    125.61211   -105.13325   0.11365648   -105.01959   -6832.6583    4.3066955    4.3066955    4.3066955   -6832.6583   -16731.008    8556.4572   -12323.424    81.803505   -859.73755    15.916067    79.878978 
     200    183.62345    -105.0864   0.16614636   -104.92025    10173.172    4.2992571    4.2992571    4.2992571    10173.172   -5427.7962    38495.634   -2548.3205   -1434.0976   -540.79385    -1892.132    79.465796 
     300    478.35561   -105.26945   0.43282621   -104.83662   -6209.4862    4.3057165    4.3057165    4.3057165   -6209.4862   -8907.2839   -1645.1647   -8076.0099    3015.1488   -133.15029    1717.4638    79.824516 
     400    263.33051   -105.01177   0.23826698    -104.7735    1172.8125    4.3071707    4.3071707    4.3071707    1172.8125   -15855.677    35395.388   -16021.273   -294.69293   -1194.8912    1227.8035    79.905423 
     500    508.77765   -105.18794   0.46035271   -104.72759    4055.6163    4.3040747    4.3040747    4.3040747    4055.6163   -6291.7494    25165.961   -6707.3628    1895.1651    938.57139   -1582.0596    79.733236 
     600    372.10088   -105.04672    0.3366847   -104.71003   -9503.3218    4.3106566    4.3106566    4.3106566   -9503.3218   -24409.501    11817.417   -15917.882   -3012.5777   -1598.8912    1574.2793    80.099588 
     700    275.34758   -104.95581   0.24914028   -104.70667    6903.7298    4.3037598    4.3037598    4.3037598    6903.7298   -13070.089    41652.286   -7871.0078   -5846.6691    398.76985    3027.2634    79.715738 
     800    508.15318   -105.16667   0.45978768   -104.70689   -2795.0409    4.3101922    4.3101922    4.3101922   -2795.0409   -11232.783    14610.562   -11762.902    899.24574   -325.53315    60.918185      80.0737 
     900    434.21277   -105.10205   0.39288484   -104.70916   -5940.1418    4.3066378    4.3066378    4.3066378   -5940.1418   -22483.996    20897.243   -16233.672   -2404.8229   -1267.9861     145.5782    79.875768 
    1000    393.14759   -105.06552    0.3557282   -104.70979    -3595.681    4.3073116    4.3073116    4.3073116    -3595.681   -12055.993    10258.234   -8989.2837    2701.4355    430.06959    1831.7072    79.913262 
    1100    343.80683   -105.02204   0.31108364   -104.71095    5227.8956    4.3087339    4.3087339    4.3087339    5227.8956   -13365.096    43619.013    -14570.23    1244.9903   -1751.9736   -706.52188    79.992455 
    1200    380.83947   -105.05661   0.34459156   -104.71202   -1319.7059     4.306996     4.306996     4.306996   -1319.7059   -15745.933    21174.047   -9387.2318   -1.0125076    217.83446    408.65228    79.895701 
    1300    588.60913   -105.24499   0.53258591    -104.7124   -7757.5657    4.3086837    4.3086837    4.3086837   -7757.5657   -18849.001    11087.366   -15511.062    -1336.808   -1007.8326   -3126.9082     79.98966 
    1400     282.0343   -104.97145   0.25519056   -104.71625    1110.1982     4.308931     4.308931     4.308931    1110.1982   -19830.751    35859.221   -12697.876   -2861.4391   -578.66667    1895.6682    80.003432 
    1500    309.73465   -104.99639   0.28025442   -104.71613    6274.4676    4.3080601    4.3080601    4.3080601    6274.4676   -12748.679    41411.307   -9839.2247     -4039.21   -515.83154    275.33633    79.954933 
    1600    533.22159   -105.19488    0.4824701   -104.71241   -11052.318     4.309593     4.309593     4.309593   -11052.318   -15317.654    3129.4448   -20968.745    120.53086   -378.47271   -1846.4026    80.040311 
    1700    312.00556   -104.99698   0.28230919   -104.71467    1991.9384    4.3115012    4.3115012    4.3115012    1991.9384   -18080.123    36241.761   -12185.823    404.26495   -68.010848    2777.4798     80.14668 
    1800    420.79085   -105.09328    0.3807404   -104.71254    895.63751    4.3054227    4.3054227    4.3054227    895.63751   -11626.161    23957.448   -9644.3749    916.89294   -137.28497    3683.3168    79.808174 
    1900    367.44939   -105.04507   0.33247593    -104.7126   -1416.9949    4.3155483    4.3155483    4.3155483   -1416.9949   -22050.388    40633.852   -22834.449    1119.7468   -215.78587   -2952.5229    80.372588 
    2000    384.21771    -105.0594   0.34764826   -104.71175    12918.706    4.3016936    4.3016936    4.3016936    12918.706   -8312.0435    52139.311   -5071.1493   -2007.6767    728.26373   -195.45836    79.600981 
    2100    320.99105   -105.00764   0.29043944    -104.7172   -16293.934    4.3175083    4.3175083    4.3175083   -16293.934   -24009.113   -372.08098   -24500.607    98.637276   -1438.2589    1271.3348    80.482144 
    2200    455.28444   -105.12379   0.41195093   -104.71184     13364.76    4.3013972    4.3013972    4.3013972     13364.76   -8580.3017    56293.929   -7619.3477   -4514.7463    475.14386   -4553.4679     79.58453 
    2300    539.05078   -105.19908   0.48774448   -104.71133   -17096.544    4.3153628    4.3153628    4.3153628   -17096.544    -24353.11   -7227.8832    -19708.64   -309.04089   -806.86163    -1050.371    80.362221 
    2400    212.43618   -104.90317   0.19221672   -104.71095     16777.23    4.3027986    4.3027986    4.3027986     16777.23   -5829.3614     65342.18   -9181.1291    2807.8752   -410.05899     721.1801    79.662341 
    2500     385.3639   -105.05831   0.34868536   -104.70963   -9770.7781    4.3123057    4.3123057    4.3123057   -9770.7781   -15614.031    784.95068   -14483.254    -463.6601   -28.246569   -47.913639     80.19155 
    2600    491.28348   -105.15456   0.44452362   -104.71004   -9640.7916     4.306859     4.306859     4.306859   -9640.7916   -17490.635    4173.7165   -15605.456   -694.98191   -1196.8452   -1467.1248    79.888077 
    2700    406.55088    -105.0798   0.36785578   -104.71194    7256.8874    4.3072681    4.3072681    4.3072681    7256.8874   -9988.2026    49335.809   -17576.944   -2574.3954    189.56309    1194.5667    79.910842 
    2800    349.93839   -105.03055   0.31663161   -104.71391    5411.9475    4.3086427    4.3086427    4.3086427    5411.9475    -13720.35    38745.278   -8789.0848   -3051.6882   -1083.0171    1307.5009    79.987375 
    2900    388.28936   -105.06335   0.35133237   -104.71202   -8559.5341    4.3081322    4.3081322    4.3081322   -8559.5341   -15081.567    4225.5394   -14822.574   -1599.0426    235.06247   -2506.1134    79.958948 
    3000    397.54771   -105.07068   0.35970952   -104.71097    24.208464    4.3074404    4.3074404    4.3074404    24.208464   -7144.5757    19834.102   -12616.901    2587.8306   -178.47534   -1144.2487    79.920432 
    3100    459.72143   -105.12632   0.41596561   -104.71035   -2680.6521    4.3083376    4.3083376    4.3083376   -2680.6521   -15204.582    20692.793   -13530.167   -341.27239   -65.683379    1166.8244    79.970384 
    3200    430.43226   -105.09804   0.38946415   -104.70858   -451.27814    4.3093645    4.3093645    4.3093645   -451.27814   -10618.435    28561.276   -19296.675    4842.0137    607.61869   -2813.8925    80.027579 
    3300    337.34851   -105.01399   0.30524002   -104.70875    1141.4829    4.3070506    4.3070506    4.3070506    1141.4829    -11571.44    24325.122   -9329.2334   -4710.9263   -589.33617   -1191.8623    79.898739 
    3400    379.87646   -105.05534    0.3437202   -104.71162   -8913.4801    4.3104439    4.3104439    4.3104439   -8913.4801   -17007.679    4727.7052   -14460.467    1860.6504   -106.66513   -305.22172    80.087731 
    3500    464.39376   -105.13193   0.42019324   -104.71174    7014.0697    4.3069464    4.3069464    4.3069464    7014.0697   -5957.1174    40435.752   -13436.425   -6684.5628    503.98713   -526.04495    79.892938 
    3600    468.02851   -105.13567   0.42348203   -104.71219   -11588.121    4.3113756    4.3113756    4.3113756   -11588.121   -18743.866    2324.3353   -18344.833   -1130.1935   -1064.9862   -348.27947    80.139678 
    3700    239.36127   -104.92946    0.2165791   -104.71288    18707.881    4.3076666    4.3076666    4.3076666    18707.881   -3798.6976    69935.251   -10012.911     859.7054    258.20699   -666.65602    79.933024 
    3800    434.22803   -105.10538   0.39289865   -104.71248   -11024.216    4.3110001    4.3110001    4.3110001   -11024.216   -11341.904   -3270.0591   -18460.683    1572.3284    -1341.032    553.99569    80.118736 
    3900    480.32822   -105.14799   0.43461107   -104.71338   -4632.3375     4.308001     4.308001     4.308001   -4632.3375   -13118.094    11841.216   -12620.135    285.40473    -785.6899    977.23215    79.951643 
    4000    304.42872   -104.98793   0.27545351   -104.71248    10079.149    4.3095734    4.3095734    4.3095734    10079.149   -7996.6285    51454.159   -13220.083    5514.4589    142.62148   -4350.6101    80.039218 
    4100    391.48883   -105.06795   0.35422732   -104.71372   -3411.3766    4.3074453    4.3074453    4.3074453   -3411.3766   -16307.605    23348.775     -17275.3   -2381.7122    -506.5765    203.85149    79.920704 
    4200    469.05708   -105.13322    0.4244127   -104.70881   -2332.4474    4.3100922    4.3100922    4.3100922   -2332.4474   -9928.8688    15134.888   -12203.362   -2573.6024   -40.539049    900.11446    80.068131 
    4300     258.2677    -104.9429   0.23368604   -104.70922    2165.7926    4.3069479    4.3069479    4.3069479    2165.7926    -7967.637    29505.909   -15040.894   -1788.7737   -414.24263   -2949.1794    79.893022 
    4400     506.9588   -105.16727   0.45870698   -104.70856   -8599.3295    4.3090497    4.3090497    4.3090497   -8599.3295   -18246.049    8496.5835   -16048.523   -1731.0186   -273.47873   -792.75899    80.010045 
    4500     474.7772   -105.13697   0.42958839   -104.70738    6061.5451    4.3062465    4.3062465    4.3062465    6061.5451   -7080.7913    34386.401   -9120.9745    4528.5409    169.02347    3290.3118    79.853998 
    4600     288.8893   -104.97062   0.26139311   -104.70922   -422.09817    4.3089472    4.3089472    4.3089472   -422.09817    -14727.38    33533.937   -20072.851    -2044.312   -467.70413   -709.65422    80.004333 
    4700    407.17172   -105.07724   0.36841753   -104.70882    8.7302991    4.3049675    4.3049675    4.3049675    8.7302991    -241.4178    5648.3859   -5380.7772    3394.3648    403.77523    746.65482    79.782866 
    4800    470.42954    -105.1352   0.42565453   -104.70954   -7128.8297    4.3115357    4.3115357    4.3115357   -7128.8297   -20228.656    22569.696   -23727.529   -723.95978   -1838.8906   -690.99963    80.148605 
    4900    339.45904   -105.01706   0.30714968   -104.70991    5284.5515    4.3028306    4.3028306    4.3028306    5284.5515   -3095.0872    26463.582   -7514.8404    -3354.491   -698.11281     2003.737     79.66412 
    5000    478.83226   -105.14112   0.43325749   -104.70786   -7620.9805    4.3163379    4.3163379    4.3163379   -7620.9805   -15771.977    12495.826    -19586.79   -1479.7817   -314.33171   -3028.0478    80.416709 
    5100    319.11995   -104.99713   0.28874644   -104.70839    13881.013    4.2964899    4.2964899    4.2964899    13881.013    4036.8961      42102.7   -4496.5565    354.48307   -1281.6482   -875.33406    79.312456 
    5200    330.83244   -105.00859   0.29934414   -104.70924   -16919.552    4.3231097    4.3231097    4.3231097   -16919.552    -17479.04   -8450.9066   -24828.709   -112.18145     17.08084     575.4904    80.795799 
    5300    574.10238   -105.22397    0.5194599   -104.70451    15038.887    4.2926634    4.2926634    4.2926634    15038.887     4429.554    40000.485    686.62378    4174.4595   -1273.0642   -94.766997    79.100735 
    5400    386.10936   -105.05806   0.34935987    -104.7087   -20137.419    4.3250782    4.3250782    4.3250782   -20137.419   -18749.611   -7736.1882   -33926.457    2754.1631   -325.42687    485.25993    80.906215 
    5500    349.18379   -105.01959   0.31594883   -104.70364    23467.699    4.2935512    4.2935512    4.2935512    23467.699    11867.505    51239.131     7296.462   -1320.9855    1125.0822    1900.1626    79.149821 
    5600    319.65322   -104.99434   0.28922895   -104.70511   -13586.458    4.3202286    4.3202286    4.3202286   -13586.458   -15398.001     801.8666    -26163.24   -1745.8316   -826.85632    1317.3846    80.634365 
    5700    529.03983   -105.18164   0.47868635   -104.70296     5584.731    4.2996797    4.2996797    4.2996797     5584.731     2127.621    23315.278   -8688.7063   -7684.9241    592.28838    2330.1465    79.489235 
    5800    428.70699   -105.09375   0.38790309   -104.70585   -4999.0919    4.3111326    4.3111326    4.3111326   -4999.0919   -11236.514    8611.0336   -12371.796    1398.8207   -684.42847   -425.34137    80.126127 
    5900    293.94306    -104.9727   0.26596586   -104.70673    3007.9194    4.3082876    4.3082876    4.3082876    3007.9194   -5672.9423     32667.65   -17970.949   -3646.0567   -260.05237   -469.69157    79.967599 
    6000    421.37779   -105.08777   0.38127148    -104.7065    2713.6298    4.3036691    4.3036691    4.3036691    2713.6298   -3783.0317     16137.88   -4213.9586   -323.37561    682.58229    2456.6325    79.710698 
    6100    376.39887    -105.0498   0.34057361   -104.70923   -7649.9887    4.3139671    4.3139671    4.3139671   -7649.9887   -11281.775    9459.1701   -21127.361    2063.3183   -1146.9471   -2549.6705    80.284272 
    6200    501.44649    -105.1605   0.45371932   -104.70678    7873.4001    4.3006788    4.3006788    4.3006788    7873.4001   -5604.6095    37635.701   -8410.8911    2972.7756    20.104099   -1019.1101    79.544657 
    6300    377.14942   -105.04875   0.34125272    -104.7075   -18086.816    4.3167503    4.3167503    4.3167503   -18086.816   -16036.335   -18937.022   -19287.092   -8622.5838   -1157.2481    2359.4427    80.439766 
    6400    247.03586   -104.93172   0.22352324   -104.70819    19756.892    4.2991337    4.2991337    4.2991337    19756.892    1876.7937     63346.74    -5952.857    4988.9244   -204.43201   -546.64926    79.458956 
    6500    487.26122   -105.14829    0.4408842   -104.70741    -12745.63    4.3179505    4.3179505    4.3179505    -12745.63   -17415.923   -918.67544   -19902.291   -10562.889    786.13308    -716.0747    80.506874 
    6600    475.41651   -105.13846   0.43016685   -104.70829    3558.6836    4.3001546    4.3001546    4.3001546    3558.6836   -5241.6862     25291.52   -9373.7829    1787.0532   -1133.2063    2167.2669    79.515576 
    6700     384.5585   -105.05688   0.34795661   -104.70892   -7435.6885    4.3161527    4.3161527    4.3161527   -7435.6885   -18601.649     15264.75   -18970.166   -1308.0572    430.10442     1809.626    80.406358 
    6800    347.53343   -105.02269   0.31445555   -104.70824    5789.3621    4.3014624    4.3014624    4.3014624    5789.3621    998.57596    23215.944   -6846.4342    2364.6776    -805.2956    46.361144    79.588147 
    6900    391.90489     -105.062   0.35460378   -104.70739   -7756.2159    4.3135224    4.3135224    4.3135224   -7756.2159   -14755.639    11603.542   -20116.551    2724.4255    115.33521   -164.38576    80.259446 
    7000    406.23351   -105.07369   0.36756861   -104.70612    10304.009    4.3047075    4.3047075    4.3047075    10304.009   -1182.1465    39323.395   -7229.2199   -4241.4041     643.4424    570.40995    79.768408 
    7100    431.15943   -105.09952   0.39012211    -104.7094   -8465.7013    4.3066909    4.3066909    4.3066909   -8465.7013   -16156.749    5776.3371   -15016.693   -2824.0977    -1324.086     309.2526     79.87872 
    7200    425.66646   -105.09261   0.38515196   -104.70746   -10614.983    4.3123249    4.3123249    4.3123249   -10614.983   -8051.4388   -9970.1431   -13823.368    1045.8563   -555.85278   -2086.3209    80.192624 
    7300    237.20655   -104.92234   0.21462947   -104.70771    15134.526    4.3015545    4.3015545    4.3015545    15134.526   -1239.5173      52312.2   -5669.1042   -10636.291   -570.02787       144.88    79.593257 
    7400    421.76691   -105.09138   0.38162357   -104.70975   -12329.716     4.314616     4.314616     4.314616   -12329.716   -16953.196    3059.2817   -23095.233    768.43091   -628.71274   -1091.7749    80.320507 
    7500     622.7409   -105.26906   0.56346906   -104.70559    5303.1331    4.3027091    4.3027091    4.3027091    5303.1331   -2053.5574    25719.883   -7756.9265    3215.6003    731.91452     3023.978     79.65737 
    7600    213.01628   -104.90234   0.19274161    -104.7096   -2490.7503    4.3096338    4.3096338    4.3096338   -2490.7503   -12464.468    19465.246   -14473.029   -3127.6962   -1186.6831   -1353.0296    80.042588 
    7700    430.55932   -105.09764   0.38957912   -104.70806    -5613.993    4.3111972    4.3111972    4.3111972    -5613.993   -3271.8119    1664.4561   -15234.623    4684.4812   -81.195499    1105.6502     80.12973 
    7800    436.98684   -105.10327   0.39539488   -104.70787    16501.773    4.2992301    4.2992301    4.2992301    16501.773    3359.5953    46843.461   -697.73668   -2006.9677   -304.38684    1141.0051    79.464303 
    7900     343.4384   -105.02235   0.31075028    -104.7116   -11444.548    4.3205028    4.3205028    4.3205028   -11444.548   -22011.647    16559.081   -28881.078    941.84329    124.51575     257.1779     80.64972 
    8000    635.56749   -105.27969   0.57507482   -104.70462      9818.38    4.2942524    4.2942524    4.2942524      9818.38    7392.9543    20570.825    1491.3604   -5028.0055    803.33785     -3911.95    79.188609 
    8100    204.32616   -104.89475    0.1848786   -104.70987   -13820.945    4.3206877    4.3206877    4.3206877   -13820.945   -17261.894    521.03784   -24721.979    1108.8771   -1260.1475    2404.9868    80.660078 
    8200    315.75403   -104.99202   0.28570088   -104.70632    14240.924     4.298697     4.298697     4.298697    14240.924    8398.0824    38508.803   -4184.1119    2972.1953   -377.40749   -623.39836    79.434742 
    8300     629.8084   -105.27382   0.56986388   -104.70395   -5954.7151     4.310524     4.310524     4.310524   -5954.7151   -6501.9222    3151.9013   -14514.124    903.04491   -918.26239   -1411.4548    80.092197 
    8400    306.52953   -104.98574   0.27735436   -104.70839    1156.4169    4.3086457    4.3086457    4.3086457    1156.4169   -14487.922    35113.749   -17156.577   -441.63008   -677.62913    850.92884     79.98754 
    8500    368.35682   -105.04051   0.33329699   -104.70721    3372.0293    4.3012642    4.3012642    4.3012642    3372.0293     12439.56    1778.1588   -4101.6313    8321.5922    567.54675    169.03831    79.577146 
    8600    429.87763   -105.09699   0.38896231   -104.70803     -19118.3    4.3184028    4.3184028    4.3184028     -19118.3   -17799.115   -14343.779   -25212.005   -9115.7997   -1870.9985    753.43034     80.53218 
    8700    293.15902   -104.97374   0.26525644   -104.70848    23633.466    4.2925546    4.2925546    4.2925546    23633.466    8606.6914    61796.901    496.80437   -3698.9339   -107.34613   -295.80864     79.09472 
    8800    504.85771   -105.16582   0.45680587   -104.70901   -11978.146    4.3241104    4.3241104    4.3241104   -11978.146   -21788.071    12548.625    -26694.99   -1278.2918   -458.77696   -1862.7226    80.851915 
    8900    433.70791   -105.09881   0.39242803   -104.70638    7558.9495    4.2932828    4.2932828    4.2932828    7558.9495    1122.3772    23075.327   -1520.8556   -3236.4578     110.0912    413.85619    79.134978 
    9000    267.88304   -104.95082   0.24238621   -104.70843   -11736.295    4.3186601    4.3186601    4.3186601   -11736.295   -11332.091   -3346.8026   -20529.991    717.61736    1167.6413   -376.93639    80.546574 
    9100    459.78221   -105.12019    0.4160206   -104.70417    5329.7074    4.3016221    4.3016221    4.3016221    5329.7074   -2416.9285     26806.42    -8400.369     2085.508   -1721.8913   -3646.6807     79.59701 
    9200    442.29838   -105.10545   0.40020087   -104.70525   -4674.1192    4.3099611    4.3099611    4.3099611   -4674.1192   -16357.586    18721.419   -16386.191    160.75061    206.66162     745.1444    80.060824 
    9300    457.81583   -105.11751   0.41424138   -104.70327    583.12215    4.3096633    4.3096633    4.3096633    583.12215   -6680.3617    22141.046   -13711.318    679.78149   -111.22234    611.04923    80.044231 
    9400    267.45689   -104.94907   0.24200061   -104.70706   -3695.0914    4.3035052    4.3035052    4.3035052   -3695.0914   -3836.8466     4021.997   -11270.425   -5356.6375     20.35488   -743.16721    79.701594 
    9500    421.96054   -105.09037   0.38179876   -104.70858   -9099.7242    4.3131235    4.3131235    4.3131235   -9099.7242   -8970.6185   -422.09808   -17906.456   -1016.7715    156.83768    89.542287    80.237182 
    9600    420.91358   -105.08888   0.38085146   -104.70803    7909.2572    4.3018695    4.3018695    4.3018695    7909.2572   -1553.5675    35828.699    -10547.36   -1099.5432   -1801.7812    1138.0351    79.610747 
    9700    450.10115   -105.11526   0.40726098     -104.708   -9762.7395    4.3134157    4.3134157    4.3134157   -9762.7395   -18651.609    10042.543   -20679.152   -7741.0321   -5.9106535      783.574    80.253494 
    9800    362.81146   -105.03346   0.32827944   -104.70518    11234.894    4.3043762    4.3043762    4.3043762    11234.894    6523.4202      32445.6   -5264.3389     6880.542    1051.6879   -2752.5228    79.749993 
    9900    203.78654   -104.89207   0.18439035   -104.70768   -2069.8197    4.3093363    4.3093363    4.3093363   -2069.8197   -1715.8863    13628.026   -18121.599    860.10763    128.30536   -481.14795     80.02601 
   10000     609.8964   -105.25842   0.55184708   -104.70657   -4069.8891    4.3068443    4.3068443    4.3068443   -4069.8891   -8594.0732    8154.0449   -11769.639   -141.06666    894.54833    439.55512     79.88726 
   10100    477.91066   -105.14211   0.43242361   -104.70968   -1319.5595    4.3090272    4.3090272    4.3090272   -1319.5595   -4646.9955     20373.56   -19685.243   -1104.6889   -1305.9566   -1843.3704    80.008791 
   10200    186.46169   -104.88088   0.16871446   -104.71216    8092.7612    4.3052266    4.3052266    4.3052266    8092.7612   -4491.2323    41791.672   -13022.156   -703.81196     1572.272   -1630.7042    79.797271 
   10300    518.29041   -105.17636   0.46896006    -104.7074   -7530.1815    4.3091304    4.3091304    4.3091304   -7530.1815    1846.3265   -13669.787   -10767.085    -7064.952    1171.1619   -196.40227    80.014541 
   10400    313.68882   -104.99294   0.28383224   -104.70911   -1728.9289    4.3087721    4.3087721    4.3087721   -1728.9289   -9868.7616    25326.568   -20644.593    953.05275   -184.25154   -1421.6463    79.994581 
   10500    480.27366   -105.14066    0.4345617    -104.7061     175.4369    4.3050177    4.3050177    4.3050177     175.4369    -8278.634    19390.557   -10585.613   -6056.1464    69.229629    2207.8202    79.785659 
   10600    488.58983   -105.14782   0.44208635   -104.70573   -8055.1907    4.3137088    4.3137088    4.3137088   -8055.1907   -7403.2061    5292.8765   -22055.242    5066.7971   -1448.5225   -3284.2038    80.269853 
   10700    201.18456   -104.89121   0.18203602   -104.70917    15530.188    4.2992286    4.2992286    4.2992286    15530.188    1512.9198    54944.133   -9866.4883   -4483.2098    1457.9233    1803.8852    79.464218 
   10800    416.15165   -105.08618   0.37654276   -104.70963   -11595.897    4.3181298    4.3181298    4.3181298   -11595.897   -10804.439   -5967.2375   -18016.015   -916.66226    450.82826     1349.023    80.516906 
   10900    533.49037   -105.18953   0.48271329   -104.70681    8991.1684    4.2958311    4.2958311    4.2958311    8991.1684    1259.9744    31590.928    -5877.397    100.15329   -95.478044   -2802.0941    79.275975 
   11000    328.40645   -105.00597   0.29714906   -104.70882   -15298.123    4.3205964    4.3205964    4.3205964   -15298.123   -23830.046    7472.6848   -29537.007   -6746.2198    381.27287   -1205.4638    80.654963 
   11100    415.30648   -105.08002   0.37577803   -104.70425    21817.425    4.2951491    4.2951491    4.2951491    21817.425    17854.471    43837.947     3759.856   -4524.1998   -429.51507    1275.2705    79.238226 
   11200    357.46389   -105.02968   0.32344084   -104.70624   -18085.609    4.3178726    4.3178726    4.3178726   -18085.609   -19214.053   -1721.2786   -33321.497    2225.8308    2223.1708    -1458.052    80.502517 
   11300    377.29641   -105.04622   0.34138572   -104.70483    12354.813    4.2995222    4.2995222    4.2995222    12354.813    3962.4031    32889.918    212.11608   -2637.6082    1268.5991   -1933.5416    79.480497 
   11400    520.23098    -105.1766   0.47071592   -104.70588   -8482.3405    4.3111659    4.3111659    4.3111659   -8482.3405   -11986.772    5187.5151   -18647.764    45.067731    49.317306    547.80699    80.127982 
   11500    339.06424   -105.01484   0.30679245   -104.70805   -3452.3569    4.3056123    4.3056123    4.3056123   -3452.3569   -2027.2626    7355.9838   -15685.792    2592.8317    529.08187    1363.5627     79.81872 
   11600    310.63308   -104.98867   0.28106734    -104.7076    11899.052    4.3072976    4.3072976    4.3072976    11899.052   -1236.1604    45886.671   -8953.3538   -3570.5265   -114.34787    415.59791    79.912487 
   11700    487.08452   -105.14922   0.44072431    -104.7085   -12418.956    4.3099838    4.3099838    4.3099838   -12418.956   -13508.312   -521.01583   -23227.539   -244.70612    2260.9976   -1702.4735    80.062086 
   11800    446.88129   -105.11557   0.40434758   -104.71122    5655.5002    4.3043054    4.3043054    4.3043054    5655.5002   -5014.6605     29568.97   -7587.8088   -9906.3689   -270.31722    2921.8446    79.746059 
   11900    377.83272     -105.052   0.34187098   -104.71013   -4473.7688    4.3126113    4.3126113    4.3126113   -4473.7688   -6003.0626    8581.5929   -15999.837    85.743101   -1096.6334    861.05829    80.208602 
   12000    359.56856   -105.03514   0.32534519   -104.70979    4311.3952    4.3027278    4.3027278    4.3027278    4311.3952    3861.0262    19557.004   -10483.845   -3028.7334    1082.9763   -1355.0581    79.658407 
   12100    391.24772   -105.06269   0.35400916   -104.70869   -4492.7123    4.3113119    4.3113119    4.3113119   -4492.7123   -13258.217    16054.639   -16274.558   -4125.5083    48.522991   -129.61472    80.136121 
   12200    401.81849   -105.07149   0.36357382   -104.70792    2537.4215    4.3043486    4.3043486    4.3043486    2537.4215   -6841.0682    26520.496   -12067.163    3276.9199    3413.7014    687.50655     79.74846 
   12300    507.38279    -105.1649   0.45909062   -104.70581    -10111.26    4.3100328    4.3100328    4.3100328    -10111.26   -6587.5019   -4870.4423   -18875.837   -1264.4685    328.42658    1565.1842    80.064821 
   12400     328.3293   -105.00276   0.29707925   -104.70568    1440.0233    4.3038408    4.3038408    4.3038408    1440.0233    1852.5838    8785.9622   -6318.4762    -11926.14     159.5111   -106.17039    79.720241 
   12500    298.89963   -104.97721   0.27045066   -104.70675    4583.6551    4.3098437    4.3098437    4.3098437    4583.6551   -3287.6409    31684.702   -14646.096    2016.2167    1256.7568   -759.52699    80.054281 
   12600    542.52763   -105.19759    0.4908904    -104.7067   -5009.9005    4.3033232    4.3033232    4.3033232   -5009.9005   -4106.5163   -1026.5461   -9896.6392   -10881.994    114.06989    4174.0476     79.69148 
   12700     361.3678   -105.03757   0.32697318    -104.7106    3850.5923    4.3109284    4.3109284    4.3109284    3850.5923   -5031.2314    34400.704   -17817.696   -762.62116     1288.514   -77.251116    80.114738 
   12800    432.87282   -105.09994   0.39167242   -104.70827    1688.9501    4.3028168    4.3028168    4.3028168    1688.9501    8142.3029    5884.2585    -8959.711   -2584.1595   -2788.0481   -2517.9042     79.66335 
   12900    357.61635   -105.03176   0.32357879   -104.70818   -14624.071     4.314814     4.314814     4.314814   -14624.071   -16100.399   -11764.995    -16006.82   -307.07214   -59.681741    3974.5746    80.331565 
   13000    346.78244   -105.01928   0.31377604    -104.7055    19251.061     4.299299     4.299299     4.299299    19251.061    6358.9595    56686.064   -5291.8395    3590.5539   -306.77018   -151.72764    79.468122 
   13100    482.94407   -105.14406   0.43697794   -104.70708   -11386.602    4.3164161    4.3164161    4.3164161   -11386.602   -10942.367   -2722.3944   -20495.045   -6146.4738    1219.1722    599.11371    80.421084 
   13200    416.60561   -105.08281   0.37695351   -104.70586    9256.3951    4.2988201    4.2988201    4.2988201    9256.3951    13816.077    20803.415   -6850.3059    -3930.195    256.71131    1220.8455     79.44157 
   13300    323.96125   -104.99926   0.29312695   -104.70613   -7152.7864    4.3135831    4.3135831    4.3135831   -7152.7864   -13882.434    10274.645   -17850.571    1732.5847    123.76964    1967.7442    80.262839 
   13400    392.36303   -105.06232   0.35501832    -104.7073    -2043.507    4.3023552    4.3023552    4.3023552    -2043.507   -6072.3785    3899.2411   -3957.3837   -13503.748   -644.34516    3267.2075    79.637716 
   13500     492.1028   -105.15309   0.44526496   -104.70783   -2502.9591    4.3091431    4.3091431    4.3091431   -2502.9591    -9774.785    21211.091   -18945.183    2866.0112    3855.9432    580.53602    80.015249 
   13600    358.45162   -105.03091   0.32433456   -104.70658    8684.6311    4.3075971    4.3075971    4.3075971    8684.6311     372.7751    35351.439    -9670.321    1933.5139   -1082.7004    113.03991    79.929158 
   13700    390.86517   -105.06102   0.35366302   -104.70736   -5218.5085    4.3024495    4.3024495    4.3024495   -5218.5085    1811.7959   -7431.7755   -10035.546   -5584.8193    1123.0522    4149.3271    79.642952 
   13800    395.11635   -105.06493   0.35750958   -104.70742   -10143.531    4.3145681    4.3145681    4.3145681   -10143.531   -18830.742    7991.0768   -19590.927    4672.2074   -1892.1731   -2089.0346    80.317832 
   13900     375.8221   -105.04677   0.34005174   -104.70672    15893.629      4.29692      4.29692      4.29692    15893.629    8641.1738    36787.475    2252.2384   -3205.4442    290.66108   -626.44015    79.336276 
   14000    472.28137   -105.13482   0.42733011   -104.70749   -20872.509    4.3190068    4.3190068    4.3190068   -20872.509   -18867.715   -15501.102    -28248.71     -3803.94    889.02729    1750.9245    80.565973 
   14100    341.01382   -105.01311   0.30855647   -104.70455    20258.923    4.2956766    4.2956766    4.2956766    20258.923    4389.5101    54356.993    2030.2664   -4510.8753    -530.4208    665.24362    79.267423 
   14200    293.96591   -104.97372   0.26598654   -104.70773   -18596.456     4.318177     4.318177     4.318177   -18596.456   -19277.751   -12541.103   -23970.512   -9534.5364   -506.59587    2387.6414    80.519544 
   14300    562.71562   -105.21406   0.50915692    -104.7049    2044.1843    4.2981598    4.2981598    4.2981598    2044.1843      106.827    13132.256     -7106.53    1957.3609   -40.770068   -14.814848    79.404968 
   14400    374.51353   -105.04515   0.33886771   -104.70628   -2466.9473    4.3159348    4.3159348    4.3159348   -2466.9473   -7733.4514    19074.696   -18742.086   -5314.8207    1249.1012    3916.0025    80.394182 
   14500    275.57135   -104.95675   0.24934274   -104.70741    8551.2075    4.2987079    4.2987079    4.2987079    8551.2075    1288.5031    27048.377   -2683.2577   -4709.6569    1442.5192    3975.5788    79.435349 
   14600    502.85083   -105.15992      0.45499   -104.70493   -11183.866    4.3143575    4.3143575    4.3143575   -11183.866    -13089.35    54.083364   -20516.332     7647.632    394.93446   -2238.0345    80.306074 
   14700    353.35083   -105.02571   0.31971925   -104.70599    6983.9172     4.301807     4.301807     4.301807    6983.9172   -2439.2971     29410.22    -6019.171   -6922.9695   -700.62028    2622.5295    79.607274 
   14800    415.77748   -105.08523    0.3762042   -104.70903   -7716.4834    4.3087668    4.3087668    4.3087668   -7716.4834    -7943.927    4587.3287   -19792.852   -1020.1093    198.93185    1777.4628    79.994286 
   14900    467.96088   -105.13039   0.42342084   -104.70697   -1551.1824    4.3077735    4.3077735    4.3077735   -1551.1824    134.27964    4867.7016   -9655.5284    650.17789     5.407638   -1903.6524    79.938976 
   15000    201.60099   -104.89252   0.18241281    -104.7101     15015.64    4.3025457    4.3025457    4.3025457     15015.64    448.19378    49797.283   -5198.5581   -7309.6963    1333.1186    161.05682    79.648295 
   15100    550.77869   -105.20665   0.49835613   -104.70829    -14968.65    4.3148566    4.3148566    4.3148566    -14968.65   -11754.442    -9926.389   -23225.119   -1584.4883   -2730.9562      -641.92    80.333946 
   15200     466.5724   -105.12942   0.42216451   -104.70726     12374.17    4.2979917    4.2979917    4.2979917     12374.17    6300.9323    31680.445    -858.8658    1744.6198    29.523043    983.91731    79.395652 
   15300     183.1349   -104.87474   0.16570431   -104.70904   -11445.377    4.3174976    4.3174976    4.3174976   -11445.377   -18897.953    11502.057   -26940.234    -2157.193   -254.68006    1708.9766    80.481549 
   15400     607.4772   -105.25356   0.54965813    -104.7039    4540.2635    4.2974606    4.2974606    4.2974606    4540.2635    7502.8616    8578.6911   -2460.7623    4037.1619    216.93774   -3139.6932    79.366223 
   15500    321.51324   -104.99902   0.29091194   -104.70811    -270.4419     4.313685     4.313685     4.313685    -270.4419   -12607.642     29020.52   -17224.204   -7141.0337    1125.1139    4089.5275    80.268526 
   15600    309.17873   -104.98884   0.27975141   -104.70909    3540.9705    4.3032548    4.3032548    4.3032548    3540.9705   -2099.3274    23445.027   -10722.788    2341.5281   -1800.6299     1035.775    79.687678 
   15700    589.42484   -105.23906   0.53332398   -104.70573   -3551.7211    4.3078339    4.3078339    4.3078339   -3551.7211    1915.1667    1246.1555   -13816.485   -5686.2927    162.83293   -3523.2931    79.942339 
   15800    209.23584   -104.89989   0.18932098   -104.71057   -4098.0345    4.3096999    4.3096999    4.3096999   -4098.0345   -13580.217    19446.274    -18160.16   -7017.1569    1346.6141    2814.7149    80.046267 
   15900    466.96709   -105.13185   0.42252164   -104.70933    7331.1065    4.3020271    4.3020271    4.3020271    7331.1065    2209.6409    27421.043   -7637.3643    809.32364   -180.43225   -122.60271    79.619496 
   16000    494.56936   -105.15537   0.44749675   -104.70788   -12012.173    4.3138533    4.3138533    4.3138533   -12012.173   -20668.421    1436.8021   -16804.901    1869.6171    222.22718     -1431.15    80.277924 
   16100    191.37288    -104.8828   0.17315821   -104.70964    9898.7446    4.3002736    4.3002736    4.3002736    9898.7446    -7080.919    45041.906   -8264.7534   -6503.2169   -2375.5359   -870.62478    79.522178 
   16200    530.80794   -105.18691   0.48028618   -104.70662   -6839.3375     4.311624     4.311624     4.311624   -6839.3375    2605.7191   -4240.3067   -18883.425    6486.7882   -592.61977   -2167.8452    80.153525 
   16300    451.55418   -105.11612   0.40857571   -104.70754   -6447.1022    4.3059367    4.3059367    4.3059367   -6447.1022   -11950.766    7307.3737   -14697.914   -7712.7056    675.25573    954.41009    79.836763 
   16400    269.71698   -104.95195   0.24404559   -104.70791    8867.8864    4.3059626    4.3059626    4.3059626    8867.8864   -200.05153    40336.558   -13532.847   -2552.2362   -856.31553   -3569.2098    79.838202 
   16500    467.80563   -105.13108   0.42328036    -104.7078   -8108.7157    4.3106522    4.3106522    4.3106522   -8108.7157   -9807.6884    680.96638   -15199.425   -5662.4624   -767.21165   -3437.9857    80.099342 
   16600    389.20944   -105.06307   0.35216488    -104.7109     2539.301    4.3029981    4.3029981    4.3029981     2539.301   -6546.9096    24527.577   -10362.764   -677.47942   -1879.4814    3643.2428    79.673418 
   16700    339.31093   -105.01657   0.30701566   -104.70955   -3214.1567     4.312917     4.312917     4.312917   -3214.1567   -207.10503    11834.443   -21269.808    -302.0206    340.22724   -3746.8173    80.225658 
   16800    526.61056   -105.18311    0.4764883   -104.70662    203.25311    4.3010756    4.3010756    4.3010756    203.25311   -2242.3658    10974.244    -8122.119    1900.4751    1601.4275   -683.46912    79.566677 
   16900    253.35247   -104.93739   0.22923864   -104.70815    85.016303    4.3136013    4.3136013    4.3136013    85.016303   -3392.2033    26098.931   -22451.679    411.41137   -2885.0134    553.57754    80.263856 
   17000    389.57502    -105.0578   0.35249566   -104.70531    9502.3043    4.3018207    4.3018207    4.3018207    9502.3043    9045.8516     26716.94   -7255.8788     6044.964    168.23262   -2151.0294    79.608037 
   17100    560.59053   -105.21259    0.5072341   -104.70535   -10282.619    4.3116063    4.3116063    4.3116063   -10282.619   -11668.621    -1953.765   -17225.471   -9418.2512    -3013.186   -233.23577    80.152539 
   17200     262.2578   -104.94522   0.23729637   -104.70793    2352.4457    4.3050516    4.3050516    4.3050516    2352.4457   -4426.8866    24257.746   -12773.523   -1410.0438    697.48528   -5113.5267    79.787544 
   17300    383.40885   -105.05609   0.34691638   -104.70918    3061.7184    4.3060665    4.3060665    4.3060665    3061.7184   -1368.1603    23938.984   -13385.668   -2829.4071   -555.50116   -2132.4575    79.843984 
   17400    479.02268   -105.14217   0.43342979   -104.70874   -6117.5548    4.3105494    4.3105494    4.3105494   -6117.5548   -1746.0133    3202.1242   -19808.775   -5523.6329   -2486.4164    1391.4773    80.093611 
   17500    330.77576   -105.00851   0.29929286   -104.70922    11830.675    4.3024902    4.3024902    4.3024902    11830.675    7765.0506    39278.954   -11551.978    896.97394   -1134.6348   -8423.7985    79.645213 
   17600     436.9507   -105.10298   0.39536217   -104.70762   -8695.1998    4.3121688    4.3121688    4.3121688   -8695.1998   -10999.906      937.578   -16023.272    1786.3761   -507.00578    249.68889    80.183915 
   17700    414.27522   -105.08082   0.37484493   -104.70597   -2460.1662    4.3023293    4.3023293    4.3023293   -2460.1662   -10024.654     12592.31   -9948.1548    1138.8906    266.23329   -81.196739    79.636274 
   17800    297.77475   -104.97644   0.26943285     -104.707    3035.8891    4.3111074    4.3111074    4.3111074    3035.8891   -1066.9127    32738.092   -22563.512   -1603.1468    484.99656   -4890.7237    80.124719 
   17900    528.06302   -105.18502   0.47780252   -104.70722   -39.774686    4.3038268    4.3038268    4.3038268   -39.774686   -3866.0993     14862.43   -11115.655   -831.03865   -2894.9577    950.98277    79.719463 
   18000    408.88055   -105.07906   0.36996371    -104.7091    251.61819    4.3076476    4.3076476    4.3076476    251.61819   -5484.0135    20571.291   -14332.423    -3633.597    18.782059   -3202.3863    79.931966 
   18100    247.60343   -104.93279   0.22403679   -104.70875    1230.3655    4.3099101    4.3099101    4.3099101    1230.3655   -4069.4009    22762.742   -15002.245   -3067.6194   -846.65103    929.23445    80.057982 
   18200    546.43368   -105.20041   0.49442468   -104.70598   -1451.7982     4.302343     4.302343     4.302343   -1451.7982   -1981.3061    8815.9174   -11190.006   -6968.0037   -176.24027   -2621.8775    79.637039 
   18300    387.58404   -105.05861   0.35069418   -104.70792   -4314.5153     4.313448     4.313448     4.313448   -4314.5153   -2110.7745    15683.437   -26516.208    7126.3558   -869.74191   -3945.9801    80.255294 
   18400    310.60751    -104.9885    0.2810442   -104.70746    5665.6075    4.3010608    4.3010608    4.3010608    5665.6075   -11087.979    35405.389   -7320.5881   -3808.1893   -3860.4707    2441.5035    79.565857 
   18500    506.86701    -105.1646   0.45862392   -104.70598   -11540.571    4.3105865    4.3105865    4.3105865   -11540.571   -16480.822   -3544.7693   -14596.122    3563.7564    1774.8503   -3285.5361    80.095678 
   18600    279.79689   -104.96156   0.25316611   -104.70839    4842.3035    4.3064219    4.3064219    4.3064219    4842.3035    7195.0238    24601.848   -17269.961    1535.9028   -2075.4972    -4529.178    79.863755 
   18700    459.43866   -105.12303   0.41570975   -104.70732     115.0874    4.3040898    4.3040898    4.3040898     115.0874   -2434.4602     14781.93   -12002.207    1067.6712    1285.1928    2251.8829    79.734076 
   18800    471.15764   -105.13192   0.42631333    -104.7056   -12366.175    4.3144172    4.3144172    4.3144172   -12366.175   -1850.0615   -10224.121   -25024.343   -7736.4201   -773.96319   -4372.5049    80.309406 
   18900    206.63084   -104.89422   0.18696393   -104.70726    12601.089    4.2975841    4.2975841    4.2975841    12601.089   -6988.1133    51836.205   -7044.8239   -139.51676    -2014.876   -734.88813    79.373064 
   19000    528.79554   -105.18644   0.47846532   -104.70797   -10760.549    4.3156852    4.3156852    4.3156852   -10760.549   -12009.581   -1430.4556   -18841.609   -7342.3814    1874.2449   -2584.0126    80.380235 
   19100    450.11464   -105.11491   0.40727318   -104.70763    4941.4209    4.3005162    4.3005162    4.3005162    4941.4209    8959.1153     15556.23   -9691.0821    4736.3555    259.81763   -1619.9651    79.535637 
   19200    206.03718    -104.8951   0.18642677   -104.70867   -320.82835    4.3089526    4.3089526    4.3089526   -320.82835   -12354.618    28245.842   -16853.708   -5728.9707   -1043.9833    3349.6411    80.004636 
   19300    544.05221   -105.19733   0.49226987   -104.70506   -5158.6868    4.3089394    4.3089394    4.3089394   -5158.6868    26.882301    95.253824   -15598.196    5358.0687    113.85775   -4228.2551    80.003898 
   19400    389.18598   -105.05869   0.35214365   -104.70655    4513.1136    4.3022486    4.3022486    4.3022486    4513.1136    1766.8281    26283.088   -14510.576   -663.43933   -2372.1505    1635.0379    79.631797 
   19500    340.57871   -105.01632   0.30816277   -104.70816    267.35196    4.3137278    4.3137278    4.3137278    267.35196   -5166.6179    23709.664    -17740.99   -4556.1548    2360.1639    4219.3637    80.270913 
   19600    501.16042   -105.15981   0.45346048   -104.70635    1234.0181    4.2988443    4.2988443    4.2988443    1234.0181    2080.1607    5310.5352   -3688.6415   -5075.5959    249.53896   -4287.7863    79.442912 
   19700    242.62352   -104.93199   0.21953086   -104.71246    -10052.23    4.3148031    4.3148031    4.3148031    -10052.23    -15841.28    12309.839   -26625.247    2251.1859   -328.69448    1235.8075    80.330959 
   19800    476.91014   -105.14003   0.43151831   -104.70851     9551.241    4.3004822    4.3004822    4.3004822     9551.241    3875.1866     30462.05   -5683.5137    -7915.182    758.46724   -1190.2008    79.533749 
   19900    550.83136   -105.20491   0.49840379   -104.70651   -8835.0199    4.3094761    4.3094761    4.3094761   -8835.0199   -692.18824   -4655.1974   -21157.674    5355.0826    -672.3036    -1366.594    80.033798 
   20000    159.79987   -104.85272   0.14459028   -104.70812    8770.7852    4.3074812    4.3074812    4.3074812    8770.7852   -4049.5859    42787.901    -12425.96    945.58287    2855.7447    713.11457    79.922706 
   20100    462.00198   -105.12354    0.4180291   -104.70552    1860.6295    4.3009485    4.3009485    4.3009485    1860.6295   -630.12713    7199.7139   -987.69833    1548.9147    354.74407   -4084.8298    79.559624 
   20200    477.74487   -105.13975    0.4322736   -104.70748   -17144.316    4.3156264    4.3156264    4.3156264   -17144.316   -14562.061   -6550.6092   -30320.278   -1821.8865   -548.41252    4736.5047    80.376949 
   20300    298.41159   -104.97738   0.27000908   -104.70737    15751.746    4.2958988    4.2958988    4.2958988    15751.746   -192.04588    48397.762   -950.47797   -3889.7707    1084.3043    1215.7414    79.279723 
   20400    488.86986   -105.14956   0.44233973   -104.70722   -16723.587    4.3171111    4.3171111    4.3171111   -16723.587   -17622.571   -8272.8056   -24275.382   -2693.7123   -422.04029   -2880.6639    80.459933 
   20500    284.17897   -104.96471   0.25713111   -104.70758    10037.305    4.2986581    4.2986581    4.2986581    10037.305    5614.9367    30813.157   -6316.1805   -3504.1205    2413.5301    4515.9616    79.432589 
   20600    409.88949   -105.07668   0.37087662    -104.7058   -4058.8268    4.3127149    4.3127149    4.3127149   -4058.8268   -13425.069     14752.27   -13503.681   -4967.9934   -126.05363    1100.6846    80.214382 
   20700    531.93209   -105.18638   0.48130333   -104.70508   -2625.6311    4.3031158    4.3031158    4.3031158   -2625.6311    4723.0329    3018.4758   -15618.402    5626.0557   -2167.8627   -1184.1376    79.679958 
   20800    256.78874   -104.94061   0.23234785   -104.70826   -4324.9105    4.3076342    4.3076342    4.3076342   -4324.9105   -15032.948    17332.297   -15274.081   -3557.2594    1914.5654    2511.7841    79.931223 
   20900     411.0319   -105.07825    0.3719103   -104.70634    2188.8152    4.3078663    4.3078663    4.3078663    2188.8152    -8477.702    25356.842   -10312.694   -1892.0266    77.865038   -282.14879    79.944143 
   21000    507.14736   -105.16626   0.45887759   -104.70738   -3815.8767    4.3037424    4.3037424    4.3037424   -3815.8767    501.73665    1944.2165   -13893.583    1709.1008    1381.2183    4048.2567     79.71477 
   21100    312.93242   -104.99228   0.28314783   -104.70914   -1554.6736    4.3108891    4.3108891    4.3108891   -1554.6736   -12972.796    19339.929   -11031.154   -8209.6631    553.00115   -1189.6045    80.112552 
   21200    386.88775   -105.05677   0.35006417    -104.7067    11812.675    4.3011008    4.3011008    4.3011008    11812.675    17430.213    24145.788   -6137.9771   -5377.6904   -1942.2859   -1040.6213    79.568078 
   21300    409.89121    -105.0788   0.37087818   -104.70793   -15927.527    4.3130901    4.3130901    4.3130901   -15927.527   -10623.499    -10465.98   -26693.102   -2783.5126    3038.2824    5192.9075    80.235321 
   21400    399.22308    -105.0688   0.36122543   -104.70757     14880.28     4.300606     4.300606     4.300606     14880.28    9642.1142    35374.113   -375.38685   -2345.7565    393.89433   -1575.8492    79.540619 
   21500    464.28088   -105.12785    0.4200911   -104.70776    -6921.741     4.310104     4.310104     4.310104    -6921.741   -7847.5847    4820.2259   -17737.864    2633.0792    168.20925   -1210.7305    80.068789 
   21600     284.4016   -104.96635   0.25733254   -104.70902   -3550.4916    4.3052338    4.3052338    4.3052338   -3550.4916   -8737.8582    5647.5596   -7561.1762   -3168.8333    76.413889    2884.5839    79.797675 
   21700    397.10059   -105.06633   0.35930496   -104.70703     9358.183     4.306617     4.306617     4.306617     9358.183    12405.052    22428.423   -6758.9256    3623.7192   -123.42898    1115.5611     79.87461 
   21800    539.68939    -105.1962    0.4883223   -104.70788   -7223.8481    4.3070254    4.3070254    4.3070254   -7223.8481   -2718.2586    3764.1564   -22717.442   -2717.7241    2849.3297    2558.5363    79.897335 
   21900     319.1044   -104.99753   0.28873237    -104.7088    2824.1353    4.3069341    4.3069341    4.3069341    2824.1353    8897.7964    8035.3199   -8460.7102   -8646.8246    386.87585    132.66098    79.892255 
   22000    404.49464   -105.07278   0.36599525   -104.70678    1442.3649    4.3056011    4.3056011    4.3056011    1442.3649   -6653.6224    18380.406   -7399.6885    226.41658    -662.8524    1644.5458    79.818097 
   22100    394.66995   -105.06768   0.35710567   -104.71058   -10165.933     4.307684     4.307684     4.307684   -10165.933    -13535.18   -1145.6494   -15816.971   -4474.9797    713.69834    5349.3267    79.933996 
   22200    403.12813   -105.07343    0.3647588   -104.70867    6510.6173    4.3056431    4.3056431    4.3056431    6510.6173    5759.1534    16475.189   -2702.4905   -6291.6883    741.26083   -1247.7498    79.820436 
   22300    501.16544   -105.15971   0.45346502   -104.70624   -2354.4259    4.3069753    4.3069753    4.3069753   -2354.4259    1859.1726    9010.7935   -17933.244    7548.1049    1803.8818     -346.221     79.89455 
   22400    231.57161   -104.91874   0.20953086   -104.70921   -505.66106    4.3071323    4.3071323    4.3071323   -505.66106    2667.4599    9239.3446   -13423.788   -3258.4695   -92.852204    3189.0145    79.903283 
   22500    461.17727   -105.12397   0.41728289   -104.70668    2707.8407    4.3057075    4.3057075    4.3057075    2707.8407   -5105.7609    16227.068   -2997.7852     877.4973   -1530.8983   -54.590108    79.824014 
   22600    512.71378   -105.17151    0.4639142   -104.70759   -6475.9413    4.3082294    4.3082294    4.3082294   -6475.9413   -4198.7605    1382.6746   -16611.738   -2889.5412    3832.6579     454.6337    79.964358 
   22700    233.21882   -104.92133   0.21102129    -104.7103     3913.495    4.3039171    4.3039171    4.3039171     3913.495   -3994.0851    20046.175   -4311.6049   -4926.8795    320.72184   -600.15766    79.724479 
   22800    476.57307   -105.13908   0.43121333   -104.70787   -2712.4276    4.3104181    4.3104181    4.3104181   -2712.4276   -5232.4595    10714.765   -13619.588   -2658.2708    2036.0819    1834.5562    80.086294 
   22900    394.69512   -105.06623   0.35712844    -104.7091    20.836665     4.302744     4.302744     4.302744    20.836665    4282.6397    8577.9715   -12798.101   -6285.6765   -938.08533    3406.7356    79.659309 
   23000    401.67695   -105.07109   0.36344575   -104.70764   -3847.7809    4.3121763    4.3121763    4.3121763   -3847.7809   -5725.9199    7650.6583   -13468.081   -2621.8691   -140.69043   -2403.6566    80.184335 
   23100    466.12424   -105.12768   0.42175901   -104.70592    10683.267    4.3003185    4.3003185    4.3003185    10683.267    13365.224    22198.285   -3513.7077    3927.1362    1804.9656    2034.7436    79.524666 
   23200    253.76548   -104.93985   0.22961234   -104.71024   -11118.924    4.3117777    4.3117777    4.3117777   -11118.924   -20604.872    1770.0994   -14522.001   -10844.308    435.11229    2695.1123    80.162101 
   23300    483.46157   -105.14305   0.43744619   -104.70561    7756.8752    4.3044188    4.3044188    4.3044188    7756.8752   -2547.0184    31007.988   -5190.3439    4423.9707   -1984.0848   -858.91013    79.752363 
   23400    492.14393   -105.15237   0.44530217   -104.70707   -3076.1551    4.3045819    4.3045819    4.3045819   -3076.1551    4060.6044    190.12456   -13479.194   -3406.6994    16.056656    517.43963    79.761427 
   23500    295.04688   -104.97677   0.26696462    -104.7098   -9410.2933    4.3129661    4.3129661    4.3129661   -9410.2933   -12958.857    1620.2003   -16892.223   -10784.928   -1428.0325    935.84797    80.228402 
   23600    412.73161   -105.07847   0.37344823   -104.70502    20652.274    4.2979135    4.2979135    4.2979135    20652.274    18364.366    40173.698    3418.7589    894.10499    2189.3782    2433.0739     79.39132 
   23700    399.77524   -105.07037   0.36172504   -104.70864   -19052.884    4.3164776    4.3164776    4.3164776   -19052.884   -22894.731   -12589.318   -21674.602   -5698.1107    97.294255    1806.1005    80.424521 
   23800    451.28522   -105.11515   0.40833235   -104.70681    13551.515    4.2979731    4.2979731    4.2979731    13551.515    4266.0444    36186.933    201.56825   -4597.6242   -1721.0787    -2348.742    79.394619 
   23900    377.17229   -105.04855   0.34127341   -104.70728   -8905.9657    4.3138857    4.3138857    4.3138857   -8905.9657   -7736.8535   -250.52906   -18730.515    46.650224    363.56208    4270.9543    80.279727 
   24000    328.67317   -105.00588    0.2973904   -104.70849   -5525.2747    4.3026702    4.3026702    4.3026702   -5525.2747   -11161.737     3813.062   -9227.1493   -7232.5814   -462.76553    320.29408     79.65521 
   24100    493.70978   -105.15237   0.44671899   -104.70565    7819.2246    4.3075489    4.3075489    4.3075489    7819.2246    1802.2528    29976.433   -8321.0117    688.35201    1677.9902   -3371.8968    79.926474 
   24200    401.38248   -105.07286   0.36317931   -104.70968   -1609.2874    4.3078384    4.3078384    4.3078384   -1609.2874   -5323.1874    11933.779   -11438.454   -6009.6439   -2104.2763    2688.1643     79.94259 
   24300    356.87893   -105.03343   0.32291156   -104.71052   -284.45283    4.3034616    4.3034616    4.3034616   -284.45283   -1772.2256    7018.8607   -6099.9935   -5781.0219   -2561.8504    1216.4741    79.699168 
   24400    390.54764   -105.05998   0.35337571    -104.7066   -1520.3961    4.3111515    4.3111515    4.3111515   -1520.3961   -6796.2459    15941.269   -13706.211    5681.5958   -1182.0699    997.79371     80.12718 
   24500    360.77014   -105.03576    0.3264324   -104.70933   -4133.5873    4.3026329    4.3026329    4.3026329   -4133.5873   -9038.3989    7072.1964   -10434.559   -11319.853   -801.63653    994.05496    79.653135 
   24600    559.74273    -105.2139   0.50646698   -104.70743   -4329.2125    4.3095327    4.3095327    4.3095327   -4329.2125   -7348.5885    9025.2578   -14664.307    2790.2349   -377.83936    650.60936    80.036952 
   24700    326.72457   -105.00351   0.29562725   -104.70788    5924.9965    4.3068375    4.3068375    4.3068375    5924.9965    -1494.463    26852.046   -7582.5934   -2345.4736    -1425.414    3866.6423    79.886878 
   24800    267.53548    -104.9522   0.24207173   -104.71013   -3438.8254    4.3045783    4.3045783    4.3045783   -3438.8254    437.25807   -4078.2869   -6675.4473   -12369.191   -2729.2448   -1827.6323    79.761229 
   24900     588.5361   -105.23927   0.53251983   -104.70675   -1994.2081     4.310612     4.310612     4.310612   -1994.2081   -8169.0939    16579.971   -14393.502   -2075.7809    700.19001   -1718.1768    80.097103 
   25000    333.68255   -105.01265   0.30192298   -104.71073    2931.5521    4.3023197    4.3023197    4.3023197    2931.5521    833.17845     15904.49   -7943.0119   -6450.6431    326.32237    3561.2894    79.635742 
   25100    390.95789   -105.06343   0.35374691   -104.70968   -9414.6639    4.3113921    4.3113921    4.3113921   -9414.6639   -19648.643    8545.8177   -17141.167   -8550.9601   -49.191377   -2278.0906    80.140596 
   25200    462.38081   -105.12467   0.41837187    -104.7063    5982.9984    4.3042829    4.3042829    4.3042829    5982.9984   -292.12299    25783.335   -7542.2165    2898.1847     -88.5744    670.82704    79.744809 
   25300    235.35917   -104.92442   0.21295792   -104.71146   -1857.7454    4.3069027    4.3069027    4.3069027   -1857.7454   -2052.5738    4336.3253   -7856.9876   -7947.9833    -2657.031    705.55515    79.890506 
   25400    602.44982   -105.25195   0.54510926   -104.70684   -3147.3906    4.3093675    4.3093675    4.3093675   -3147.3906   -7838.8622    11047.921   -12651.231    5732.2353    1234.5665    2480.4398    80.027746 
   25500    319.13417   -104.99672    0.2887593   -104.70796     4253.034    4.3026868    4.3026868    4.3026868     4253.034    4573.9722    13663.677   -5478.5469   -8064.5089   -391.11498    1783.0679    79.656131 
   25600    255.93562   -104.94209   0.23157593   -104.71052   -7731.6783    4.3103739    4.3103739    4.3103739   -7731.6783   -16994.506    8565.6686   -14766.197   -6868.0962   -587.98796   -1700.4466    80.083832 
   25700    651.09607   -105.29406   0.58912541   -104.70494     2078.505    4.3049324    4.3049324    4.3049324     2078.505    1493.7434    16733.774   -11992.003    236.80692   -1213.6248     940.3204    79.780913 
   25800     256.4844     -104.942   0.23207248   -104.70993   -113.43895    4.3069238    4.3069238    4.3069238   -113.43895   -10676.012    16766.974   -6431.2786   -11696.203   -1667.0319    3327.2642    79.891682 
   25900    406.60034   -105.07716   0.36790053   -104.70926   -5739.1149     4.308743     4.308743     4.308743   -5739.1149   -10966.148    4268.2516   -10519.448   -5263.5467    1546.1432   -5000.6924    79.992961 
   26000    468.16604    -105.1313   0.42360647   -104.70769    4093.2771    4.3052397    4.3052397    4.3052397    4093.2771    6694.2521    13945.753   -8360.1735     7240.356    1777.9188    538.57109    79.797998 
   26100    254.04865   -104.94117   0.22986856    -104.7113    830.31163    4.3075158    4.3075158    4.3075158    830.31163   -3911.2524    19250.485   -12848.297   -11772.205   -608.30737    76.708086    79.924633 
   26200    596.66764    -105.2471   0.53987742   -104.70722   -2589.8979    4.3085039    4.3085039    4.3085039   -2589.8979   -4859.8997    13447.339   -16357.133    3214.6785     898.6556    231.51001    79.979646 
   26300    350.39224   -105.02597   0.31704226   -104.70893    4036.4516     4.302466     4.302466     4.302466    4036.4516   -10169.726      26113.9   -3834.8194   -4712.8304   -259.98192    142.12491    79.643867 
   26400    237.44982   -104.92672   0.21484959   -104.71187   -9263.0206    4.3140901    4.3140901    4.3140901   -9263.0206   -14702.133    3054.3713     -16141.3   -6397.8727    1938.5813   -1291.8719    80.291143 
   26500    574.31444   -105.22506   0.51965177   -104.70541    13562.272    4.2992459    4.2992459    4.2992459    13562.272    11889.166    31217.444   -2419.7938   -2673.3791    1819.1995    2681.4797    79.465175 
   26600    353.49887    -105.0301   0.31985321   -104.71025   -12611.017    4.3152145    4.3152145    4.3152145   -12611.017   -20344.823    3851.4047   -21339.634   -7012.6734   -2062.8835   -109.16097    80.353937 
   26700    340.77429   -105.01643   0.30833974   -104.70809     10209.92     4.300134     4.300134     4.300134     10209.92    3146.6529    32509.794   -5026.6868   -1906.4965    1094.9483   -3611.9472    79.514435 
   26800    503.90589   -105.16237   0.45594464   -104.70643    -4769.808    4.3104378    4.3104378    4.3104378    -4769.808   -11544.792    12113.693   -14878.325    259.95922   -1452.1588    907.41065     80.08739 
   26900    293.69622   -104.97512   0.26574251   -104.70937   -3769.1628    4.3069057    4.3069057    4.3069057   -3769.1628   -6723.5183    5386.6815   -9970.6516   -13732.413    2023.8627     890.4549    79.890676 
   27000    464.12028   -105.12693   0.41994578   -104.70699    7795.5446    4.3022987    4.3022987    4.3022987    7795.5446   -774.59087     29483.26   -5322.0356    5982.6158    1456.1023   -4453.1183    79.634575 
   27100    413.28637   -105.08262   0.37395019   -104.70867   -15677.308    4.3143156    4.3143156    4.3143156   -15677.308    -28859.44   -395.75896   -17776.725   -9825.9215   -1040.0948    1150.5864    80.303731 
   27200    254.20779   -104.93911   0.23001255    -104.7091    13442.441    4.2974497    4.2974497    4.2974497    13442.441    10272.411    35174.282   -5119.3694   -6824.1353    871.52935   -1918.5716    79.365621 
   27300    600.42805   -105.24924   0.54327992   -104.70596   -10215.622    4.3177483    4.3177483    4.3177483   -10215.622    -10239.21    4160.2576   -24567.914    3641.7198    1545.2403    1240.1315    80.495567 
   27400    354.11227    -105.0299   0.32040823   -104.70949    4468.0512    4.2978245    4.2978245    4.2978245    4468.0512    575.82941    14559.528   -1731.2035   -7795.3778    1506.1019   -3966.1792    79.386384 
   27500    308.52181   -104.98861   0.27915701   -104.70945   -5388.0757    4.3140753    4.3140753    4.3140753   -5388.0757   -19541.922      18475.5   -15097.805   -568.59746    2699.2101   -1552.6362    80.290318 
   27600    487.91862   -105.14807   0.44147902   -104.70659    2718.4233    4.3046931    4.3046931    4.3046931    2718.4233   -7663.9301    20452.175   -4632.9745   -808.51618   -2152.6671    2668.3596    79.767609 
   27700    348.44717   -105.02575   0.31528232   -104.71047   -3129.6341     4.305974     4.305974     4.305974   -3129.6341   -5400.8917    12405.527   -16393.537   -7050.4516     1664.466   -1632.7416    79.838836 
   27800    477.63024   -105.13905   0.43216988   -104.70688   -4692.0696     4.312382     4.312382     4.312382   -4692.0696   -9952.5025    14295.937   -18419.643    2429.7521    180.29994   -3558.5131    80.195811 
   27900     338.3962   -105.01358   0.30618799    -104.7074    6396.0803    4.3009028    4.3009028    4.3009028    6396.0803   -1726.7063    23421.682   -2506.7347   -12349.867    504.23153    2895.2872    79.557089 
   28000    357.91548   -105.03306   0.32384945   -104.70921   -12507.506    4.3135662    4.3135662    4.3135662   -12507.506    -18007.89    2329.0886   -21843.716    190.27886    1079.3421    -2552.479    80.261891 
   28100    521.15652     -105.178   0.47155337   -104.70644    11105.847    4.3024763    4.3024763    4.3024763    11105.847    12101.896     22716.21    -1500.564   -4391.5006    -2339.433   -1271.3534     79.64444 
   28200    315.21415   -104.99507   0.28521238   -104.70986   -10423.546     4.309648     4.309648     4.309648   -10423.546   -23211.732    10403.072   -18461.978   -5819.8188     2980.486   -2774.2267    80.043374 
   28300    384.66679   -105.05588   0.34805459   -104.70783   -3168.5341    4.3062264    4.3062264    4.3062264   -3168.5341   -7412.4007    13559.069   -15652.271    2973.0715     1060.046   -2585.5056     79.85288 
   28400    470.67721   -105.13286   0.42587863   -104.70698    3392.5283    4.3073324    4.3073324    4.3073324    3392.5283    158.56988    20033.124   -10014.109     531.5146    840.32044    1369.5644    79.914421 
   28500    396.09369   -105.06735   0.35839389   -104.70896   -2648.9843    4.3061473    4.3061473    4.3061473   -2648.9843   -1607.9882    9730.7017   -16069.666   -6497.5165    1688.3367   -6256.0439    79.848477 
   28600    372.83199   -105.04454   0.33734622   -104.70719    6693.4019    4.3090361    4.3090361    4.3090361    6693.4019    8450.1028    22235.729   -10605.626    568.70702   -867.62661   -2339.1133    80.009288 
   28700    377.59017   -105.05079   0.34165152   -104.70913    3528.1705    4.3019033    4.3019033    4.3019033    3528.1705   -9037.5155     22287.51   -2665.4829   -8061.0989    1224.7281    3536.4456    79.612622 
   28800     422.7676   -105.09503   0.38252901    -104.7125   -14709.252    4.3153339    4.3153339    4.3153339   -14709.252   -13228.936   -492.40119   -30406.417   -5180.9361    2120.7375   -3647.7035    80.360608 
   28900    461.99686    -105.1267   0.41802447   -104.70868    15060.936    4.2977387    4.2977387    4.2977387    15060.936    15606.929     31843.68   -2267.8029   -397.79087   -1346.0792      -1059.8    79.381631 
   29000    358.39825   -105.03442   0.32428627   -104.71013   -14337.915    4.3168874    4.3168874    4.3168874   -14337.915   -22665.772    1736.4767   -22084.449   -1012.3476    1376.2399   -1198.5332     80.44743 
   29100    312.61279   -104.99109   0.28285862   -104.70823    6975.3875    4.2998825    4.2998825    4.2998825    6975.3875    7770.4734     22626.13   -9470.4409    4704.4262   -638.39174   -2312.0866    79.500482 
   29200    463.08035   -105.12586   0.41900483   -104.70686   -1275.5021     4.310495     4.310495     4.310495   -1275.5021   -10465.961    18081.823   -11442.368   -2114.3116    1613.9013    1215.4138    80.090581 
   29300    411.79297   -105.08148   0.37259894   -104.70888   -6459.0035    4.3086671    4.3086671    4.3086671   -6459.0035   -9430.3494    11573.031   -21519.693   -4776.7489    1831.5421    -5983.276    79.988733 
   29400    434.42811   -105.10152   0.39307968   -104.70844    9252.9599    4.2983314    4.2983314    4.2983314    9252.9599    2500.1745    30985.603   -5726.8973   -520.32157   -1195.3799    1840.4909    79.414481 
   29500    319.94834   -104.99819   0.28949598   -104.70869   -13594.609    4.3189795    4.3189795    4.3189795   -13594.609   -31243.524     9749.676    -19289.98   -7978.2023    1126.7612    1783.7717    80.564448 
   29600    405.52556     -105.073   0.36692805   -104.70607    15202.698    4.2901959    4.2901959    4.2901959    15202.698    12175.626    31793.672    1638.7971    -4002.771    21.513464   -6762.1581    78.964404 
   29700    509.87899   -105.16512   0.46134923   -104.70377   -19855.051    4.3244663    4.3244663    4.3244663   -19855.051   -20943.231   -5998.9259   -32622.995    3586.4884    1543.0474    1924.3592    80.871882 
   29800    285.62923   -104.96191   0.25844333   -104.70346    22975.194     4.288109     4.288109     4.288109    22975.194    13902.553    46601.524    8421.5057   -6556.5864    1612.7122   -347.16657     78.84923 
   29900    412.58116   -105.07757    0.3733121   -104.70426    -21441.67     4.321911     4.321911     4.321911    -21441.67   -24477.114   -5781.0258   -34066.869    4577.4085   -1920.2778   -4086.0754    80.728608 
   30000      432.693   -105.09393   0.39150972   -104.70242    12540.401    4.2950062    4.2950062    4.2950062    12540.401    2042.6737    31376.478    4202.0504   -4756.3765    2091.2881    631.30231    79.230318 
   30100     356.3821   -105.02983   0.32246201   -104.70737    -6142.705    4.3121925    4.3121925    4.3121925    -6142.705   -13975.361     12691.08   -17143.834    369.32961   -838.72311   -2195.5174    80.185237 
   30200    450.33485   -105.11367   0.40747244    -104.7062   -949.55654    4.3040841    4.3040841    4.3040841   -949.55654   -4877.2083    16003.444   -13974.905   -5302.2921    1083.5559    2306.5151    79.733761 
   30300    323.98195   -105.00107   0.29314568   -104.70792    1712.0131    4.3055258    4.3055258    4.3055258    1712.0131   -8823.9589    24657.143   -10697.145   -3374.6479      1525.13    176.41279    79.813913 
   30400    420.34693   -105.08813   0.38033873   -104.70779    458.94268    4.3084738    4.3084738    4.3084738    458.94268   -2128.1888    22510.177   -19005.161   -1438.0078   -2475.0202   -3562.4427    79.977971 
   30500     485.3827   -105.14706   0.43918446   -104.70787     2330.671    4.3027554    4.3027554    4.3027554     2330.671   -538.22745    16477.381   -8947.1404    1720.8499    1549.7639    6762.6065     79.65994 
   30600    319.59989   -104.99713    0.2891807   -104.70795   -4483.1909    4.3108388    4.3108388    4.3108388   -4483.1909   -16338.276    14668.127   -11779.423   -8157.8948    406.66569   -2620.7385    80.109742 
   30700    347.63907   -105.02146   0.31455114    -104.7069     3760.504    4.3022583    4.3022583    4.3022583     3760.504   -1174.9522    24323.762   -11867.298    7059.5101    198.91143   -2494.6389    79.632334 
   30800    478.18857    -105.1407   0.43267507   -104.70803   -9159.3203     4.309666     4.309666     4.309666   -9159.3203   -11615.643    5451.5529   -21313.871   -6243.0065    794.27573    4027.0071    80.044377 
   30900    403.28209   -105.07278   0.36489811   -104.70788    4880.4319    4.3047863    4.3047863    4.3047863    4880.4319    -1344.507     26271.57   -10285.767   -2671.0931   -2345.7487   -2591.0218    79.772791 
   31000    399.12421    -105.0684   0.36113598   -104.70726   -3472.5228    4.3068714    4.3068714    4.3068714   -3472.5228   -3924.1112    9630.7506   -16124.208   -2836.5557     1396.194    1043.0859    79.888768 
   31100    380.51927   -105.05245   0.34430183   -104.70815   -2444.8117    4.3058479    4.3058479    4.3058479   -2444.8117   -8090.2498    10983.396   -10227.582   -2222.9979    338.72658    473.10838    79.831822 
   31200    389.91583   -105.06133   0.35280404   -104.70853    4057.0563    4.3064584    4.3064584    4.3064584    4057.0563    3020.3381    22293.607   -13142.776   -2155.3561   -173.96385     52.96149    79.865785 
   31300    460.21868   -105.12526   0.41641554   -104.70885   -1824.9998    4.3050546    4.3050546    4.3050546   -1824.9998    -2558.171    15445.896   -18362.724    965.84613    98.584514    6041.1928     79.78771 
   31400    432.44333   -105.09848   0.39128381    -104.7072   -4601.6122    4.3076862    4.3076862    4.3076862   -4601.6122   -17834.895    15252.579   -11222.521   -1489.6008   -2357.6335   -4257.3372    79.934115 
   31500    301.64964   -104.98118   0.27293893   -104.70824    5173.3685    4.3047764    4.3047764    4.3047764    5173.3685    174.71974    26394.986     -11049.6    1404.4693    1631.4765    3456.7645    79.772239 
   31600    398.06078    -105.0698   0.36017376   -104.70963   -3055.7437    4.3070434    4.3070434    4.3070434   -3055.7437   -3942.1273    11693.312   -16918.416   -6788.0817   -426.44223    4244.0637    79.898335 
   31700    535.04246   -105.19068   0.48411766   -104.70657    895.51628     4.305418     4.305418     4.305418    895.51628    1293.0627     11448.32   -10054.834   -6352.0816   -783.11116   -3155.4283    79.807918 
   31800    277.52097    -104.9599   0.25110681    -104.7088    3640.0499    4.3067062    4.3067062    4.3067062    3640.0499    604.65895    28674.245   -18358.754    423.69229    250.61011    4077.6803    79.879574 
   31900     397.1773   -105.06886   0.35937437   -104.70949   -8137.2677    4.3057063    4.3057063    4.3057063   -8137.2677   -20002.015    8877.5671   -13287.355   -11173.124   -2280.3329     1955.199    79.823947 
   32000    500.40388   -105.16073   0.45277594   -104.70795   -1279.9227    4.3073528    4.3073528    4.3073528   -1279.9227    1462.6068    6476.1402   -11778.515    4582.6441    1137.7544    1645.9658    79.915558 
   32100    283.38491   -104.96644   0.25641262   -104.71003    2353.8531    4.3060385    4.3060385    4.3060385    2353.8531   -114.90955    23529.493   -16353.024    1772.5906    731.07298    3531.9052    79.842428 
   32200    499.31583    -105.1595   0.45179145   -104.70771   -7680.6519    4.3074014    4.3074014    4.3074014   -7680.6519   -16783.194    5881.6237   -12140.386   -856.58908   -2385.5979   -2060.7909    79.918263 
   32300    383.36541   -105.05425   0.34687708   -104.70738    8632.6261    4.3042494    4.3042494    4.3042494    8632.6261    9872.6248    27567.327   -11542.074   -236.56322    927.87385    4914.2258     79.74295 
   32400    280.04315   -104.96429   0.25338893   -104.71091   -8339.2588    4.3094318    4.3094318    4.3094318   -8339.2588   -16405.462    14126.184   -22738.498   -3934.7877   -2414.0676    548.22201     80.03133 
   32500    605.41944   -105.25608   0.54779624   -104.70828    4150.6288    4.3018977    4.3018977    4.3018977    4150.6288    2910.6784     12870.25   -3329.0418   -7370.4035    1329.6808   -2890.4141     79.61231 
   32600    316.84191   -104.99765   0.28668522   -104.71096    -7021.792    4.3109215    4.3109215    4.3109215    -7021.792   -14760.883    12702.176   -19006.669     509.9598   -1008.8569     5408.403    80.114358 
   32700    302.19779   -104.98339   0.27343491   -104.70996    4329.1632    4.3011585    4.3011585    4.3011585    4329.1632   -13066.145     32301.93   -6248.2954    -10776.56   -2325.0413    1854.3064    79.571281 
   32800    549.88295   -105.20262   0.49754565   -104.70507   -1392.9717    4.3104281    4.3104281    4.3104281   -1392.9717    4466.1344    10072.611   -18717.661    7781.3924   -600.92174     1058.199    80.086851 
   32900    277.42129   -104.95975   0.25101662   -104.70873   -254.00127    4.3022317    4.3022317    4.3022317   -254.00127   -104.63182    12705.146   -13362.518   -5099.0161   -1563.8749    3509.9498    79.630858 
   33000    438.70823   -105.10537   0.39695242   -104.70842   -2663.5779    4.3086864    4.3086864    4.3086864   -2663.5779   -8272.9013    13006.265   -12724.097   -2796.5622   -951.20853    152.76573     79.98981 
   33100    464.67993   -105.12806   0.42045217   -104.70761   -1036.1051    4.3044231    4.3044231    4.3044231   -1036.1051   -7731.7579    15850.408   -11226.965    3119.2031    88.430393    5053.2487    79.752604 
   33200    212.17759   -104.90525   0.19198275   -104.71327    2711.4349    4.3070743    4.3070743    4.3070743    2711.4349   -3756.5822    24957.019   -13066.133   -9155.8528    -4024.053   -1296.5852    79.900055 
   33300    553.79321    -105.2096   0.50108374   -104.70852    -363.3122     4.305635     4.305635     4.305635    -363.3122   -1708.6104    11765.525   -11146.851   -8752.1287    1805.2431   -2183.0696    79.819981 
   33400    399.87385   -105.07231   0.36181426   -104.71049    -4108.837    4.3067009    4.3067009    4.3067009    -4108.837   -3062.3456    7461.3141   -16725.479    1601.6058   -2295.5649    5469.8054    79.879277 
   33500    287.45119   -104.97147   0.26009188   -104.71138     686.5397    4.3056035    4.3056035    4.3056035     686.5397   -7482.7331    19658.218   -10115.865   -11281.457   -417.66725   -2443.0939    79.818233 
   33600    573.31001   -105.22628   0.51874294   -104.70754     2151.723    4.3053799    4.3053799    4.3053799     2151.723    948.42099    17571.582   -12064.834     3223.272   -485.48181   -770.61689    79.805794 
   33700    305.26346   -104.98565    0.2762088   -104.70944    608.11725    4.3078209    4.3078209    4.3078209    608.11725   -3623.7683    19948.014   -14499.894   -5042.8221   -4204.8041    1633.9495    79.941613 
   33800    338.23309   -105.01452   0.30604041   -104.70848    2044.9885    4.3030328    4.3030328    4.3030328    2044.9885   -6081.9315    17652.489   -5435.5921     -4073.75    625.78348   -481.96239    79.675348 
   33900     544.9791   -105.20004   0.49310854   -104.70693   -6085.7965    4.3088867    4.3088867    4.3088867   -6085.7965   -10498.475    12528.408   -20287.322     335.2907    -1854.726    1188.2587    80.000963 
   34000     292.8039    -104.9748   0.26493512   -104.70987   -193.23289     4.303195     4.303195     4.303195   -193.23289   -942.20401    9312.9396   -8950.4343   -9590.5605   -1285.6197   -1399.0449    79.684358 
   34100    445.46901   -105.11073   0.40306972   -104.70766    4087.2821    4.3086305    4.3086305    4.3086305    4087.2821   -1844.9383    26642.858   -12536.073   -203.79313   -1463.0147   -721.14977    79.986693 
   34200    420.46634    -105.0891   0.38044678   -104.70865    76.819608    4.3028499    4.3028499    4.3028499    76.819608   -5037.4557    16066.572   -10798.657   -995.78805   -2766.3708    3963.8386     79.66519 
   34300    275.29879   -104.96019   0.24909613   -104.71109   -5063.3583    4.3078989    4.3078989    4.3078989   -5063.3583    -12952.25    8851.2293   -11089.054   -9219.1756    628.13319   -4253.1945    79.945955 
   34400    543.49152    -105.1977   0.49176255   -104.70594    565.52903    4.3061092    4.3061092    4.3061092    565.52903   -5035.7272    23973.441   -17241.126    4252.4792   -598.89371    -9.693349    79.846358 
   34500    375.71611   -105.04829   0.33995584   -104.70834   -6492.4112    4.3055957    4.3055957    4.3055957   -6492.4112   -7280.1853    930.37346   -13127.422   -4647.7027   -1175.6163    2713.7237    79.817797 
   34600    326.66272   -105.00452   0.29557129   -104.70895    3903.0222    4.3074792    4.3074792    4.3074792    3903.0222   -10007.373     30117.34   -8400.9008   -8154.8779   -326.37425   -3072.6116    79.922594 
   34700    446.31169    -105.1117   0.40383219   -104.70787      1398.12      4.30494      4.30494      4.30494      1398.12   -6270.4497    21553.217   -11088.408    1551.3188   -2567.7327    -474.4841    79.781337 
   34800    435.72172   -105.10387   0.39425017   -104.70962   -6473.0574    4.3061302    4.3061302    4.3061302   -6473.0574   -11320.744    2966.5823    -11065.01   -10666.497    2187.8029   -2369.1484    79.847529 
   34900    365.97766    -105.0404   0.33114428   -104.70926    2182.9372    4.3068201    4.3068201    4.3068201    2182.9372   -579.09497    20766.699   -13638.793   -1113.8104   -2078.8031   -1919.7144     79.88591 
   35000    432.90422   -105.10019   0.39170083   -104.70849   -1257.4464    4.3030356    4.3030356    4.3030356   -1257.4464   -11241.917    18599.171   -11129.593   -5301.9144   -1667.3656   -1235.7911    79.675506 
   35100    337.07422   -105.01321   0.30499184   -104.70821   -8669.3705    4.3114328    4.3114328    4.3114328   -8669.3705   -17041.596    6356.1367   -15322.652   -4393.7415   -382.12779   -5131.8574    80.142865 
   35200    417.74784   -105.08411   0.37798702   -104.70612    13585.982    4.2992936    4.2992936    4.2992936    13585.982     914.9494    45133.997    -5290.999    2985.6009    -3544.389    1649.8358    79.467825 
   35300    458.60981   -105.12273   0.41495979   -104.70777   -12657.284    4.3116431    4.3116431    4.3116431   -12657.284   -18639.892   -5131.0236   -14200.936   -8157.3479    1833.6766    2597.2983    80.154591 
   35400    301.36148   -104.98028    0.2726782    -104.7076   -51.694935    4.3022724    4.3022724    4.3022724   -51.694935     2772.839    3388.9596   -6316.8834   -4764.8239   -1891.5781   -6536.6943    79.633117 
   35500     392.6126   -105.06258   0.35524413   -104.70733    7021.3689    4.3055473    4.3055473    4.3055473    7021.3689   -9117.1273    42944.919   -12763.685    514.51589   -1664.0655    2645.5391    79.815107 
   35600    462.85409   -105.12918   0.41880011   -104.71038   -11623.577    4.3092544    4.3092544    4.3092544   -11623.577   -10639.712    -9373.899   -14857.119   -16095.822    777.38419   -2510.4709    80.021448 
   35700    424.95901    -105.0942   0.38451184   -104.70968    10606.984    4.2998288    4.2998288    4.2998288    10606.984    942.57838    35341.594   -4463.2203    2891.1539   -888.86733   -4545.3818    79.497502 
   35800    295.22328   -104.97569   0.26712423   -104.70857   -5727.1291    4.3135138    4.3135138    4.3135138   -5727.1291   -12638.428    9292.1939   -13835.153   -4090.8276    2266.1656   -1680.3298     80.25897 
   35900    425.20234   -105.09211   0.38473201   -104.70738   -1270.0111    4.2997626    4.2997626    4.2997626   -1270.0111    1490.8358    570.50232   -5871.3714   -4928.3247   -628.03592   -4095.3659    79.493834 
   36000    459.26792   -105.12238   0.41555527   -104.70683    3865.2892    4.3100453    4.3100453    4.3100453    3865.2892   -1034.5805    29778.494   -17148.046    4776.5274   -724.58549    1605.1245    80.065518 
   36100    362.71978   -105.03639   0.32819648    -104.7082    2824.7358    4.3055552    4.3055552    4.3055552    2824.7358   -3615.3451     20703.24   -8613.6877   -6886.6583    647.02723   -2702.6745    79.815544 
   36200    458.20833   -105.12124   0.41459653   -104.70664   -819.81565    4.3028312    4.3028312    4.3028312   -819.81565    2599.8449    2994.6809   -8053.9727   -3783.0172   -1145.1392   -4732.7907    79.664149 
   36300     281.7818   -104.96245    0.2549621   -104.70749   -1300.6223    4.3115161    4.3115161    4.3115161   -1300.6223   -10210.706    17701.117   -11392.278   -2661.6004    943.78899    2974.5391    80.147509 
   36400    416.34242   -105.08438   0.37671537   -104.70766    3320.1119    4.2994539    4.2994539    4.2994539    3320.1119    2508.7353    10515.249   -3063.6488    -14895.55   -1698.9723   -3025.2459    79.476714 
   36500    536.67628   -105.19153   0.48559597   -104.70594   -7176.5109    4.3113435    4.3113435    4.3113435   -7176.5109   -8191.9396     7172.916   -20510.509    4237.9798   -1834.3528    -4246.397    80.137885 
   36600    275.75293   -104.95683   0.24950705   -104.70733    10301.324     4.303216     4.303216     4.303216    10301.324   -827.82461    37694.579   -5962.7825   -8989.2819    2091.4479    1031.9161    79.685527 
   36700      403.734   -105.07324     0.365307   -104.70793   -4907.6158    4.3046114    4.3046114    4.3046114   -4907.6158    -1980.607    -4575.168   -8167.0723    -2756.252   -993.95453   -3299.2303    79.763071 
   36800    458.14914   -105.12149   0.41454297   -104.70695   -10686.091     4.312012     4.312012     4.312012   -10686.091   -11827.809    -3990.655   -16239.809    2942.2901    2822.6479    943.54744    80.175168 
   36900    310.13472    -104.9885   0.28061642   -104.70788    13893.042    4.2962976    4.2962976    4.2962976    13893.042   -244.00205    36620.003     5303.124   -10373.271    391.06914   -4436.6734    79.301805 
   37000    487.17065   -105.14862   0.44080224   -104.70782   -18955.246    4.3177833    4.3177833    4.3177833   -18955.246   -23161.328     -3150.43    -30553.98   -1747.7451   -375.71611   -1559.6418    80.497526 
   37100    400.94821   -105.06831   0.36278636   -104.70552    15590.185    4.2932046    4.2932046    4.2932046    15590.185    9616.0038    33976.664    3177.8865    -4535.691    3076.5817    1861.7387    79.130653 
   37200    272.56625   -104.95359   0.24662367   -104.70697   -12373.477    4.3172052    4.3172052    4.3172052   -12373.477    -21760.44     2368.583   -17728.574   -8234.1124   -863.32889   -4895.4834    80.465197 
   37300    529.36347   -105.18268   0.47897919    -104.7037    5608.7514    4.2973455    4.2973455    4.2973455    5608.7514    5896.6198    16356.329   -5426.6943    617.19317   -477.60644    -3001.086    79.359845 
   37400    364.22953   -105.03601   0.32956254   -104.70645   -3185.7359    4.3104701    4.3104701    4.3104701   -3185.7359    -15974.89     13122.73   -6705.0482    -5833.282   -1022.0354    2376.3322    80.089189 
   37500    337.03276   -105.01108   0.30495432   -104.70612    3116.2955     4.305541     4.305541     4.305541    3116.2955    -5516.688    29311.144   -14445.569    896.07729   -2428.5602   -4300.0765    79.814758 
   37600    507.83863   -105.16445   0.45950307   -104.70495   -72.864372    4.3021654    4.3021654    4.3021654   -72.864372   -2603.7499    10585.583   -8200.4266   -80.740882    2050.1409   -277.85753    79.627177 
   37700    294.31864   -104.97511   0.26630569   -104.70881   -9275.1511    4.3121938    4.3121938    4.3121938   -9275.1511   -15938.216   -166.44179   -11720.796   -9983.4801   -659.47012   -1552.8382     80.18531 
   37800    427.24303   -105.09379   0.38657847   -104.70721    10415.995    4.2965685    4.2965685    4.2965685    10415.995    8418.3403    28590.771   -5761.1247    3416.4602     112.8441   -1208.7059    79.316808 
   37900    469.29376   -105.13077   0.42462685   -104.70614   -16048.792    4.3163499    4.3163499    4.3163499   -16048.792    -17872.21   -15074.719   -15199.448   -10415.293     1377.892    1661.5037    80.417382 
   38000    237.47512   -104.92173   0.21487248   -104.70685    18607.024    4.2955453    4.2955453    4.2955453    18607.024    8527.1356    46358.856    935.08164   -6886.5017   -50.636502   -5623.3586    79.260156 
   38100    501.42152     -105.159   0.45369673   -104.70531    -14365.53    4.3142356    4.3142356    4.3142356    -14365.53   -14135.549   -5020.1078   -23940.932   -492.82467    4177.9765   -729.61252    80.299265 
   38200    417.98582   -105.08397   0.37820236   -104.70577    1478.8255    4.3008176    4.3008176    4.3008176    1478.8255   -1463.7009    5993.9674   -93.790163   -6340.8668   -1569.5023    1296.9137    79.552361 
   38300    311.34883   -104.98957   0.28171497   -104.70786    2853.2508    4.3072816    4.3072816    4.3072816    2853.2508   -3078.9125    27279.073   -15640.408   -104.64901    1130.7028   -7106.6529    79.911594 
   38400    523.34621    -105.1807   0.47353465   -104.70717   -1303.5415    4.3058773    4.3058773    4.3058773   -1303.5415    -3008.703    5067.0429   -5968.9645   -369.75243    -1224.415   -430.46283    79.833461 
   38500    316.29327   -104.99486    0.2861888   -104.70868    5183.7899    4.3041024    4.3041024    4.3041024    5183.7899    309.83123    21013.637   -5772.0988   -8581.9652   -329.00801    944.75516    79.734777 
   38600    339.24566   -105.01528    0.3069566   -104.70832    42.156502    4.3086006    4.3086006    4.3086006    42.156502   -3679.7774    23620.495   -19814.248    2212.9256     1147.473   -4061.8317    79.985031 
   38700    555.86914   -105.20958   0.50296208   -104.70662    1115.9714    4.3018369    4.3018369    4.3018369    1115.9714    2809.8522    4221.5885   -3683.5267   -14395.852   -917.60994    2321.4877    79.608936 
   38800    318.23685   -104.99684   0.28794739   -104.70889    -8697.803    4.3111948    4.3111948    4.3111948    -8697.803   -8362.1056   -1304.5125   -16426.791    775.69309   -460.76724   -4426.6037    80.129593 
   38900    337.90251   -105.01243    0.3057413   -104.70668    10825.493    4.3010318    4.3010318    4.3010318    10825.493   -981.42293    36298.871   -2840.9693   -967.69113    3358.3387    2312.9016     79.56425 
   39000    447.92967   -105.11257   0.40529617   -104.70728   -10598.755    4.3098816    4.3098816    4.3098816   -10598.755   -10401.806   -8047.8181    -13346.64   -5924.0384   -107.56979   -1348.6375    80.056394 
   39100    393.80969   -105.06481   0.35632729   -104.70849    802.52897    4.3041554    4.3041554    4.3041554    802.52897    -3367.931    23172.409   -17396.891     4229.705    4819.4775   -5447.9857    79.737723 
   39200    438.41415   -105.10307   0.39668634   -104.70638    8.3970749    4.3061693    4.3061693    4.3061693    8.3970749   -2874.9086    9009.5476   -6109.4477    2375.5904    6.1423393    3488.5152    79.849702 
   39300    374.19351   -105.04568   0.33857815    -104.7071   -13254.123    4.3076417    4.3076417    4.3076417   -13254.123   -13731.389   -12156.052   -13874.928    -9767.981    282.27829   -113.91832    79.931641 
   39400     320.6661   -104.99682   0.29014543   -104.70667    10888.584    4.3025647    4.3025647    4.3025647    10888.584   -4925.4252    41295.419    -3704.242    4693.6617    3018.2823   -3703.2705    79.649348 
   39500    528.92566   -105.18455   0.47858305   -104.70596   -8168.4436     4.309729     4.309729     4.309729   -8168.4436   -13199.073    3448.4053   -14754.663   -12899.728   -1963.8138    2969.1574     80.04789 
   39600    399.60024   -105.06889    0.3615667   -104.70732    509.49379    4.3014192    4.3014192    4.3014192    509.49379   -9187.7765    22455.304   -11739.046     820.0901    1437.2639   -3255.9339     79.58575 
   39700    346.93409   -105.02176   0.31391326   -104.70785   -2173.3758     4.309121     4.309121     4.309121   -2173.3758   -7421.8584    9361.7656   -8460.0345   -2464.2801   -1721.0882    42.762166    80.014017 
   39800    387.17013   -105.05921   0.35031967   -104.70889   -3633.4146    4.3044919    4.3044919    4.3044919   -3633.4146   -11656.529    11482.465    -10726.18   -2414.2026    273.03603   -1853.5415    79.756426 
   39900     450.1762   -105.11497   0.40732889   -104.70764    2590.5187    4.3045174    4.3045174    4.3045174    2590.5187   -7534.9821     20912.28   -5605.7423      5412.52    1510.0145   -3378.8819    79.757841 
   40000    389.44468   -105.06016   0.35237773   -104.70778     333.7629    4.3103334    4.3103334    4.3103334     333.7629   -11940.405    27155.856   -14214.162   -2514.0334    1780.5798    5990.8009     80.08157 
   40100    362.62277   -105.03759   0.32810871   -104.70948    66.636389    4.2983524    4.2983524    4.2983524    66.636389   -9115.8438    14025.705   -4709.9523   -6486.4967    552.65801   -1523.7037    79.415644 
   40200    464.24722   -105.12794   0.42006064   -104.70788   -14907.062    4.3156009    4.3156009    4.3156009   -14907.062   -16374.854   -12372.643   -15973.689      2256.13    1962.5331   -246.95301    80.375525 
   40300    282.22567   -104.96431   0.25536371   -104.70895     17026.86    4.2952886    4.2952886    4.2952886     17026.86   -871.63589    50021.354    1930.8613   -8127.2871   -51.308646     6907.582    79.245946 
   40400    461.16614   -105.12688   0.41727281   -104.70961   -12550.731    4.3165607    4.3165607    4.3165607   -12550.731   -23623.763    6031.1281   -20059.559   -3664.1515    3121.8759   -2640.7186    80.429167 
   40500    489.30221   -105.14926   0.44273093   -104.70653    11250.808    4.2968279    4.2968279    4.2968279    11250.808    7301.2719    25724.442    726.70974    7254.3125   -1024.2963    1075.7478    79.331171 
   40600    185.36484   -104.87676     0.167722   -104.70904   -4245.0928    4.3121783    4.3121783    4.3121783   -4245.0928   -16059.685     18388.44   -15064.034   -5069.0867     1268.093    2335.7176    80.184445 
   40700    591.39864   -105.23899   0.53510992   -104.70388   -2721.6592     4.303289     4.303289     4.303289   -2721.6592   -3809.2788    911.61568   -5267.3146     6896.924   -1173.2232   -1014.6122    79.689579 
   40800    333.87204   -105.00886   0.30209443   -104.70677    8986.2312     4.302808     4.302808     4.302808    8986.2312   -7723.8252    36168.366   -1485.8468    -1808.913     -19.3033    2877.8574    79.662862 
   40900    335.12174   -105.01131   0.30322519   -104.70809   -2544.9162    4.3122086    4.3122086    4.3122086   -2544.9162   -16934.676    26775.043   -17475.115   -944.39977    2883.0321    -2148.273    80.186134 
   41000    553.07062   -105.20659   0.50042992   -104.70616     5121.647    4.2962009    4.2962009    4.2962009     5121.647    7196.1812    5989.3908    2179.3691    3838.4808   -931.94435    2183.9501    79.296449 
   41100    288.10075   -104.97215   0.26067961   -104.71147   -14175.126    4.3161197    4.3161197    4.3161197   -14175.126   -19040.526   -3833.8906    -19650.96   -5434.0192    1964.1073    3162.8779    80.404513 
   41200    396.18468   -105.06616   0.35847622   -104.70768     17267.68    4.2974361    4.2974361    4.2974361     17267.68    4598.3297     45485.36    1719.3512    168.82834      997.527   -2139.3236    79.364864 
   41300    503.36094   -105.16264   0.45545155   -104.70719   -15974.842    4.3137302    4.3137302    4.3137302   -15974.842    -21240.59   -13669.754   -13014.182    9484.9339    1489.4482     1308.137     80.27105 
   41400    267.07733   -104.95026   0.24165718   -104.70861    15339.039    4.3004977    4.3004977    4.3004977    15339.039     3684.999    45689.996   -3357.8775   -9540.1295    3033.0881    4185.4607    79.534609 
   41500    450.31427   -105.11468   0.40745381   -104.70722   -9834.5626    4.3120096    4.3120096    4.3120096   -9834.5626   -14652.188   -3577.2128   -11274.287    10932.942    690.73015   -1054.1463    80.175032 
   41600    399.57072   -105.07026   0.36153999   -104.70872    4001.4064    4.3001632    4.3001632    4.3001632    4001.4064   -3333.8922    20109.222   -4771.1103   -2108.8962   -308.22509    2668.7135     79.51605 
   41700    439.03675   -105.10575   0.39724968    -104.7085   -6529.1586    4.3138112    4.3138112    4.3138112   -6529.1586   -16467.917    14850.125   -17969.684   -3616.2182    1498.4364    1731.6721    80.275568 
   41800     404.5205   -105.07316   0.36601865   -104.70714      15837.5    4.2951737    4.2951737    4.2951737      15837.5    5895.1092    35373.391    6243.9993    6571.0295   -904.78508    1402.9222    79.239587 
   41900    361.25981   -105.03279   0.32687547   -104.70591   -14234.273     4.317867     4.317867     4.317867   -14234.273   -17563.829   -3201.1838   -21937.805   -7543.5828    2896.3452     2183.673    80.502204 
   42000     380.2871   -105.04643   0.34409176   -104.70233    16740.026     4.291918     4.291918     4.291918    16740.026    4166.0345    35459.024     10595.02    5456.9025   -1651.9038   -3785.7521    79.059531 
   42100    446.33944   -105.10975   0.40385731   -104.70589   -19281.063    4.3182134    4.3182134    4.3182134   -19281.063   -25822.357   -9309.8713   -22710.959    3306.2958     2043.207    3949.3823     80.52158 
   42200    445.98956   -105.10974   0.40354073    -104.7062    9081.5859    4.2943568    4.2943568    4.2943568    9081.5859    4520.4746    20771.489    1952.7939   -6147.6101    1199.4442   -1543.4383    79.194384 
   42300    273.06506   -104.95865   0.24707501   -104.71158    2663.9759    4.3125438    4.3125438    4.3125438    2663.9759   -13920.571    31760.722   -9848.2238    13074.173    1826.1894   -598.78549    80.204834 
   42400    407.26983   -105.08043    0.3685063   -104.71193   -5804.9462    4.3041083    4.3041083    4.3041083   -5804.9462   -5560.7693   -3339.1666   -8514.9026   -5495.1353    3751.3269    2970.3993    79.735104 
   42500    571.87907   -105.22816    0.5174482   -104.71071   -635.41792    4.3021877    4.3021877    4.3021877   -635.41792   -10375.267      12298.4   -3829.3868   -4823.8563   -425.71527    2710.6161    79.628416 
   42600    229.76193   -104.91779   0.20789342    -104.7099   -957.44646    4.3141279    4.3141279    4.3141279   -957.44646   -16167.974      27570.7   -14275.066    9392.6879    1136.3533    1231.7012     80.29325 
   42700    507.61532   -105.16391     0.459301    -104.7046    2665.4046    4.2976141    4.2976141    4.2976141    2665.4046   -950.86306    11961.528   -3014.4513    -10669.44    1796.3902    3565.0264    79.374728 
   42800    380.85687   -105.04871    0.3446073    -104.7041   -2378.4363    4.3139987    4.3139987    4.3139987   -2378.4363   -19606.899    21104.178   -8632.5882    8325.3058    -602.3535   -2726.1139     80.28604 
   42900    260.13708   -104.94261    0.2353775   -104.70723    3840.0943    4.3021097    4.3021097    4.3021097    3840.0943   -8100.6916    26783.791   -7162.8164    1099.7075    2459.6109    7348.2469     79.62408 
   43000    582.11526   -105.23458   0.52671012   -104.70787   -5519.3222    4.3070429    4.3070429    4.3070429   -5519.3222   -11319.655    2844.6098   -8082.9217   -741.85481   -1109.0106   -1968.5848    79.898312 
   43100    383.69573   -105.05942   0.34717596   -104.71224   -7418.9229    4.3097047    4.3097047    4.3097047   -7418.9229   -14709.157    5723.9136   -13271.525    6073.1831   -353.30868   -95.680678    80.046536 
   43200    274.71589   -104.95974   0.24856871   -104.71117    12138.314    4.3022193    4.3022193    4.3022193    12138.314   -2203.3704    45741.035   -7122.7207   -7270.4662    2405.4657    5861.5161    79.630166 
   43300    492.62115   -105.15453   0.44573397    -104.7088     -8040.16    4.3115599    4.3115599    4.3115599     -8040.16   -14973.398   -184.20037   -8962.8814    1045.4089   -72.154043   -2153.4512    80.149953 
   43400     389.4174   -105.06255   0.35235305    -104.7102    3396.3824     4.301641     4.301641     4.301641    3396.3824   -9649.3001    27434.073   -7595.6258    3805.0087    3504.7168      1210.57    79.598062 
   43500    428.75952   -105.09582   0.38795062   -104.70787   -5073.9799    4.3122604    4.3122604    4.3122604   -5073.9799   -12293.382    7327.6288   -10256.186   -8501.4267   -307.29184    2486.0018    80.189024 
   43600    343.26545   -105.01861   0.31059379   -104.70802    10303.452      4.30096      4.30096      4.30096    10303.452   -4139.8031    40591.674    -5541.516    11359.349    1581.7933   -272.29931    79.560265 
   43700    363.24406   -105.03754   0.32867085   -104.70887   -7277.8844    4.3123331    4.3123331    4.3123331   -7277.8844    -12646.28    11565.989   -20753.362    90.362757    3276.9167    702.76467    80.193082 
   43800    506.30865   -105.16519   0.45811871   -104.70707    6129.0286    4.3004962    4.3004962    4.3004962    6129.0286   -1438.3667    19668.564    156.88865   -2062.3408    37.771236     1115.388    79.534527 
   43900    301.80971   -104.98251   0.27308377   -104.70942   -7252.3293    4.3118813    4.3118813    4.3118813   -7252.3293   -19785.013    15899.528   -17871.504    8809.3245    3060.6005   -425.29028    80.167881 
   44000    503.69933   -105.16093   0.45575774   -104.70517   -1271.3783    4.3013697    4.3013697    4.3013697   -1271.3783   -2398.5519   -373.67777   -1041.9052   -7253.8056   -1365.9445    5569.9346    79.583003 
   44100    277.08311   -104.95777   0.25071062   -104.70706   -1458.3332    4.3111315    4.3111315    4.3111315   -1458.3332    -11604.09    24533.181    -17304.09    3654.8984   -231.61629    -5636.309    80.126062 
   44200    442.35854   -105.10763    0.4002553   -104.70738   -3132.1575    4.3014673    4.3014673    4.3014673   -3132.1575   -4951.6875    6298.4407   -10743.226   -1473.1034    2474.8942    5157.3604    79.588418 
   44300    532.96062   -105.18987   0.48223397   -104.70763   -3088.2744    4.3093076    4.3093076    4.3093076   -3088.2744   -9134.5293    11800.387    -11930.68   -243.56419   -1498.8522   -1311.3481    80.024411 
   44400    231.61428   -104.92155   0.20956946   -104.71198    378.33394    4.3056512    4.3056512    4.3056512    378.33394   -7509.0442    19423.522   -10779.476    7378.0867    1356.7472   -2717.7945    79.820885 
   44500    480.88334    -105.1452   0.43511335   -104.71009   -2931.1544    4.3058009    4.3058009    4.3058009   -2931.1544    -7372.011    6784.3489   -8205.8012    1315.2716   -347.11867    1525.3899    79.829211 
   44600     403.1353   -105.07445   0.36476529   -104.70969    3334.9679    4.3081305    4.3081305    4.3081305    3334.9679   -4732.6683    29530.914   -14793.342   -1091.6056    691.91514   -649.59234    79.958855 
   44700    353.26091   -105.02956    0.3196379   -104.70993   -5740.0729    4.3075427    4.3075427    4.3075427   -5740.0729   -15394.425    10374.666    -12200.46     7305.322    3506.8664    638.87532    79.926129 
   44800    504.97715   -105.16306   0.45691394   -104.70614    9412.5227     4.304071     4.304071     4.304071    9412.5227   -1268.1951     32022.72   -2516.9565   -7651.9608    411.24412    343.63668    79.733029 
   44900    300.50046   -104.98139   0.27189914   -104.70949   -15390.873    4.3149421    4.3149421    4.3149421   -15390.873   -19691.996    -6252.831   -20227.792    5257.5412    1389.5131   -3795.2164    80.338721 
   45000    370.50167    -105.0425    0.3352377   -104.70726    18657.882    4.2951088    4.2951088    4.2951088    18657.882    6548.9627    47451.896    1972.7873    3563.5243    1480.7784    2611.9649    79.235992 
   45100     509.9029   -105.16671   0.46137086   -104.70533   -18297.041     4.323299     4.323299     4.323299   -18297.041   -20877.886   -2342.3864    -31670.85    117.96652   -1329.9119   -1819.5122    80.806409 
   45200    311.29849   -104.98646   0.28166941   -104.70479    15905.135    4.2875608    4.2875608    4.2875608    15905.135    4930.0153    36790.704    5994.6861    10794.191    4167.8828   -3227.7011    78.818991 
   45300    439.42082   -105.10065    0.3975972   -104.70305   -16254.742    4.3254451    4.3254451    4.3254451   -16254.742   -22267.757   -1494.2063   -25002.264    -470.9246   -2809.5007    3344.2945    80.926807 
   45400    361.80183   -105.03129    0.3273659   -104.70392    14491.264    4.2884906    4.2884906    4.2884906    14491.264    9457.9206    23877.399    10138.471    1701.8881    969.66167   -4219.8052    78.870282 
   45500     381.5645   -105.05275   0.34524758   -104.70751   -16241.558     4.320316     4.320316     4.320316   -16241.558    -25626.92   -544.29006   -22553.464    6020.1737    493.10808   -304.62783    80.639262 
   45600    510.23807   -105.16647   0.46167413   -104.70479    16814.522    4.2948395    4.2948395    4.2948395    16814.522    9454.5038     35356.19    5632.8712   -6198.5841   -2.9296378   -2479.6992    79.221089 
   45700    272.50436    -104.9569   0.24656767   -104.71034    -17234.46    4.3120571    4.3120571    4.3120571    -17234.46   -24211.138   -9699.5715   -17792.671    6826.3896    4069.1396    -3090.123    80.177687 
   45800    437.04138   -105.10155   0.39544422   -104.70611    326.22153    4.3027595    4.3027595    4.3027595    326.22153   -4338.2789    2456.4768    2860.4667    9367.2981    623.71198    1653.5598    79.660166 
   45900      400.325   -105.06997   0.36222247   -104.70775    3892.5024    4.3049119    4.3049119    4.3049119    3892.5024   -4215.9296    20155.071   -4261.6347   -1487.5538    285.40269   -4231.1233    79.779776 
   46000    359.71687   -105.03636   0.32547939   -104.71088   -11735.033    4.3087557    4.3087557    4.3087557   -11735.033   -20036.865   -2459.3846    -12708.85    13670.085    3803.3503   -2969.4123    79.993666 
   46100    507.72579   -105.16821   0.45940096   -104.70881     12226.19    4.3020306    4.3020306    4.3020306     12226.19    4738.3616    22897.137    9043.0706   -64.564362   -1584.2486    2955.5863    79.619693 
   46200    273.34875   -104.96235   0.24733169   -104.71502   -12947.356    4.3110278    4.3110278    4.3110278   -12947.356   -18394.842   -5192.9417   -15254.284     3651.387   -399.37075   -4651.0599    80.120284 
   46300    384.78848   -105.06293   0.34816471   -104.71477    11358.576    4.2986068    4.2986068    4.2986068    11358.576    5462.8796    22677.755    5935.0927    7796.2181    192.58737   -1382.5375    79.429746 
   46400    526.18115   -105.18648   0.47609977   -104.71038   -8802.8081    4.3159842    4.3159842    4.3159842   -8802.8081   -16658.431     4235.198   -13985.191   -4459.9002   -3540.4833    3038.8269    80.396943 
   46500    246.53458   -104.93131   0.22306967   -104.70824    19863.923    4.2892809    4.2892809    4.2892809    19863.923    7071.0762    41330.087    11190.604    11926.329    4559.5006   -5812.2054    78.913895 
   46600    463.54651   -105.11941   0.41942663   -104.69999   -15771.678    4.3246481    4.3246481    4.3246481   -15771.678   -26168.944   -11921.917   -9224.1743    4936.4032   -1638.8199    546.85741    80.882082 
   46700    352.90577   -105.01601   0.31931656    -104.6967    33247.778    4.2770364    4.2770364    4.2770364    33247.778    26328.133     50686.26    22728.942   -698.26086    1539.2962   -4714.7153    78.240001 
   46800    368.48583   -105.03182   0.33341372   -104.69841   -35499.799    4.3323115    4.3323115    4.3323115   -35499.799   -40147.609   -36436.914   -29914.874    18578.031    1402.0793   -4211.9621    81.312821 
   46900    538.56879   -105.18025   0.48730836   -104.69294    39964.207    4.2726979    4.2726979    4.2726979    39964.207    32984.173    55147.816    31760.632   -5881.7877     892.4117   -1647.5874    78.002147 
   47000    231.98871   -104.91237   0.20990826   -104.70246   -33566.667    4.3317511    4.3317511    4.3317511   -33566.667   -39092.489   -29228.736   -32378.776    12359.828   -226.64535   -4489.8818    81.281273 
   47100    396.03029   -105.05875   0.35833653   -104.70041     28442.99    4.2789781    4.2789781    4.2789781     28442.99    23776.776    24910.302    36641.891    5266.2024    596.79716   -990.93154    78.346608 
   47200    551.67234   -105.20178   0.49916472   -104.70261    -21181.41    4.3223402    4.3223402    4.3223402    -21181.41   -23051.375   -11721.611   -28771.245   -134.40924   -3831.4775    3076.0667    80.752662 
   47300    189.11257   -104.87922   0.17111303    -104.7081    9769.2801    4.2904584    4.2904584    4.2904584    9769.2801    7027.8205    4304.7957    17975.224    15653.005     4273.234   -5586.4623    78.978899 
   47400    609.85338   -105.25592   0.55180815   -104.70411   -9204.2792    4.3096337    4.3096337    4.3096337   -9204.2792   -10198.641    -9183.314   -8230.8829   -418.43139   -4962.3713    2784.1893     80.04258 
   47500    221.93143   -104.90969   0.20080822   -104.70888    4713.1233     4.301121     4.301121     4.301121    4713.1233    2143.2596    9944.0857    2052.0245    5450.9261    1733.4416   -1394.3453    79.569197 
   47600     402.4469    -105.0734   0.36414241   -104.70926   -2434.9832    4.2992557    4.2992557    4.2992557   -2434.9832   -9175.4234   -3317.5245    5187.9984    17004.946    52.846737   -3338.6697    79.465721 
   47700      559.042    -105.2079   0.50583295   -104.70206   -3583.0079    4.3100241    4.3100241    4.3100241   -3583.0079   -3389.5284    4573.6609   -11933.156   -10517.112     1527.726   -1469.2231    80.064336 
   47800    201.77393   -104.88885   0.18256929   -104.70628     5138.943     4.291609     4.291609     4.291609     5138.943   -4950.5176    803.81642     19563.53    21922.122    3406.7653     -2754.32     79.04246 
   47900    470.80607   -105.12862   0.42599522   -104.70263   -15354.177    4.3157625    4.3157625    4.3157625   -15354.177     -15781.4    -15324.01   -14957.121   -3088.9444    940.17734   -3378.4904    80.384557 
   48000     409.4873   -105.07294   0.37051271   -104.70243    17480.321    4.2883609    4.2883609    4.2883609    17480.321    7089.9146    27558.224    17792.824    4779.0745    85.778717    1214.9887    78.863122 
   48100    327.09526   -105.00188   0.29596267   -104.70592    -25156.49    4.3175464    4.3175464    4.3175464    -25156.49   -32592.926   -24267.611   -18608.934    13825.554    2683.3705   -8108.4725    80.484274 
   48200    541.79674    -105.1902   0.49022907   -104.69997     23319.86    4.2876367    4.2876367    4.2876367     23319.86    21605.629     33092.02     15261.93   -5842.1725   -4175.6443    3492.2787    78.823176 
   48300    234.32607   -104.91774   0.21202315   -104.70572   -17716.831    4.3167124    4.3167124    4.3167124   -17716.831   -28175.272   -20553.802   -4421.4196    15939.186   -249.75789   -1712.4279    80.437646 
   48400    454.18204   -105.11388   0.41095346   -104.70292    13744.401    4.2894919    4.2894919    4.2894919    13744.401    17746.483    8194.7639    15291.957    5091.1857   -1533.3492   -2124.3324    78.925537 
   48500    484.20309   -105.13993   0.43811713   -104.70181   -7305.4522    4.3144949    4.3144949    4.3144949   -7305.4522   -16174.304    1315.7655   -7057.8179   -3.7344036    201.63397    1222.5814    80.313747 
   48600    279.98175   -104.95905   0.25333337   -104.70572    7965.6136    4.2913969    4.2913969    4.2913969    7965.6136    11321.152    704.54773    11871.142    21744.487    2794.5972   -1213.9278     79.03074 
   48700    495.05536   -105.15109    0.4479365   -104.70315   -5747.2543    4.3126195    4.3126195    4.3126195   -5747.2543   -7651.2469   -855.16443   -8735.3517   -8492.2365   -990.57136   -2236.0191    80.209062 
   48800    342.71507   -105.01586    0.3100958   -104.70577    10585.439    4.2932786    4.2932786    4.2932786    10585.439    7496.5951     4077.653    20182.069    13138.834    3274.9725   -688.57376    79.134749 
   48900    400.32594   -105.07062   0.36222332    -104.7084   -12272.824    4.3095503    4.3095503    4.3095503   -12272.824   -14970.065   -12269.426   -9578.9818    7916.0934    1590.5511   -7834.3617    80.037933 
   49000    481.65279   -105.14067   0.43580957   -104.70486    8062.6487    4.2975119    4.2975119    4.2975119    8062.6487    11138.107    3106.7343    9943.1047   -5837.7289    1273.1088   -299.79424    79.369063 
   49100    318.23024    -104.9974   0.28794141   -104.70946   -9960.4873    4.3039768    4.3039768    4.3039768   -9960.4873   -17067.443   -14602.694    1788.6751    21333.415   -232.87581   -4219.5401    79.727796 
   49200    393.88836   -105.06299   0.35639847   -104.70659    866.08919    4.3037858    4.3037858    4.3037858    866.08919   -3079.4139    8069.6606   -2391.9791   -6590.6953    1541.9203   -7295.1415    79.717185 
   49300    467.40453   -105.12903   0.42291744   -104.70612    634.84858    4.2985937    4.2985937    4.2985937    634.84858   -7870.1556    2968.1943     6806.507    13113.678   -2110.5802    2765.2371     79.42902 
   49400     316.9332   -104.99303   0.28676782   -104.70627   -12406.883    4.3092544    4.3092544    4.3092544   -12406.883   -16861.412   -11721.227   -8638.0091    11647.202    2888.7666   -4157.8506    80.021445 
   49500     505.4833   -105.15901   0.45737192   -104.70164    8530.2121    4.2939854    4.2939854    4.2939854    8530.2121    8152.0779    9082.7634    8355.7949   -6567.6265   -4113.2602    115.05492    79.173835 
   49600    303.53179   -104.98008   0.27464194   -104.70544   -9802.0071    4.3104979    4.3104979    4.3104979   -9802.0071   -25908.596   -4887.5566    1390.1311    18072.576    2336.5676     -278.217    80.090741 
   49700    433.85153   -105.09646   0.39255798   -104.70391    6044.1335    4.2948412    4.2948412    4.2948412    6044.1335    4362.3851    9921.6987    3848.3166    -1559.585    1553.2901   -4697.8699    79.221183 
   49800    442.74787   -105.10491   0.40060758    -104.7043   -1334.3185    4.3075691    4.3075691    4.3075691   -1334.3185   -7949.3855    10178.837   -6232.4073    2066.6201    2374.5205    533.59183    79.927599 
   49900     318.9065   -104.99604   0.28855331   -104.70748     1289.009    4.2980668    4.2980668    4.2980668     1289.009   -5489.6505    2782.2236    6574.4537    16076.626    1839.9402   -3923.6526    79.399814 
   50000    467.15877   -105.12766   0.42269507   -104.70497     575.3332    4.3052054    4.3052054    4.3052054     575.3332    3624.1811    4451.7061   -6349.8876   -8136.0531    3775.2001   -8214.5299    79.796092 
   50100    361.86378   -105.03366   0.32742195   -104.70624     2427.392     4.300944     4.300944     4.300944     2427.392   -9799.6009    2030.7934    15050.983    16970.607    42.247176    3190.9158    79.559373 
   50200    384.00191    -105.0536   0.34745299   -104.70614    657.67251     4.301376     4.301376     4.301376    657.67251    6996.1518    391.69796   -5414.8323     853.9432    4281.3132   -9667.3095    79.583349 
   50300    474.61231   -105.13348   0.42943919   -104.70404    533.97964    4.3049304    4.3049304    4.3049304    533.97964   -5171.5693    8123.0614   -1349.5532    601.08991   -4345.9633    575.12827    79.780801 
   50400    313.87925   -104.99052   0.28400454   -104.70652     668.7043    4.2979958    4.2979958    4.2979958     668.7043   -2666.0088   -6552.8117    11224.933    15487.779    1001.1387   -1415.6133    79.395881 
   50500    463.08291   -105.12452   0.41900715   -104.70551   -3607.5548    4.3076546    4.3076546    4.3076546   -3607.5548   -2727.1071    4558.8641   -12654.421   -6035.2492    1155.6401   -914.85568    79.932354 
   50600    327.90557   -105.00391   0.29669586   -104.70722    5923.2198    4.2966557    4.2966557    4.2966557    5923.2198    2217.9469   -4213.0989    19764.811     8584.919   -100.89878    2482.6454    79.321635 
   50700    468.20324   -105.13103   0.42364013   -104.70739   -10672.242     4.306465     4.306465     4.306465   -10672.242   -10841.362   -13467.697   -7707.6683    11007.987    2122.7484   -1109.1814    79.866154 
   50800    394.73188   -105.06286    0.3571617    -104.7057    5600.5446    4.3008627    4.3008627    4.3008627    5600.5446   -78.118481     9674.914    7204.8384   -6031.3443    3119.7375    -4245.368    79.554865 
   50900    339.67187   -105.01391   0.30734225   -104.70656   -3104.3015    4.2997359    4.2997359    4.2997359   -3104.3015   -13054.865   -5902.1911    9644.1514    18057.038    579.20812    3908.1426    79.492353 
   51000    443.06227   -105.10458   0.40089205   -104.70369   -4702.7369    4.3077947    4.3077947    4.3077947   -4702.7369   -4822.2254    3349.5316   -12635.517   -4979.4787    6990.3076   -10423.532    79.940154 
   51100     419.2178   -105.08343   0.37931708   -104.70411     5299.901    4.2929369    4.2929369    4.2929369     5299.901   -1798.4608   -702.06955    18400.233    9704.1465   -2434.5369   -1416.6523    79.115855 
   51200    369.83818    -105.0401   0.33463736   -104.70546   -13261.847    4.3129948    4.3129948    4.3129948   -13261.847   -20462.056   -9865.8066   -9457.6785    8723.1733    3046.8355   -2168.6683    80.230004 
   51300    423.62103   -105.08615   0.38330121   -104.70285    15448.858    4.2910278    4.2910278    4.2910278    15448.858    7179.2289    19608.301    19559.045   -4377.3528    5155.3993   -3148.5898    79.010351 
   51400    321.19776   -104.99668   0.29062648   -104.70605   -13323.606    4.3112848    4.3112848    4.3112848   -13323.606   -21811.818   -15028.459   -3130.5398    13701.738    -1338.936    2773.1857    80.134613 
   51500    490.25286   -105.14708   0.44359109   -104.70349    4554.5933    4.2964776    4.2964776    4.2964776    4554.5933   -552.04188    14380.838   -165.01564    2617.7232      5435.56   -253.71741    79.311772 
   51600    377.66238   -105.04628   0.34171686   -104.70456     127.3002    4.3033273    4.3033273    4.3033273     127.3002    -6005.494    1545.7189    4841.6757    1337.2965    2410.1163    1150.8157    79.691707 
   51700    359.52685   -105.03103   0.32530744   -104.70572   -4410.7818    4.3040833    4.3040833    4.3040833   -4410.7818   -8796.6613   -5945.3243    1509.6402    13957.808    1253.4893    3286.6415    79.733715 
   51800    416.28485   -105.08068   0.37666328   -104.70402    8905.4305    4.2972678    4.2972678    4.2972678    8905.4305    5657.2655    12326.254    8732.7723   -5354.2313    8678.6833   -5065.4091    79.355542 
   51900    423.05463   -105.08877   0.38278872   -104.70598   -10885.968    4.3074361    4.3074361    4.3074361   -10885.968   -18655.446   -12559.562   -1442.8975    14348.055    -3624.189   -2368.4968    79.920194 
   52000    369.37681   -105.04011    0.3342199   -104.70589    5718.7797    4.2982015    4.2982015    4.2982015    5718.7797    3601.9863    7217.5958    6336.7569   -140.24727    7300.8296   -1032.5835    79.407281 
   52100    456.19006   -105.11758   0.41277035   -104.70481    -2574.227    4.3030129    4.3030129    4.3030129    -2574.227    -9133.547    1944.5697   -533.70362    2372.5561    5570.2059   -6249.0051     79.67424 
   52200    307.86291   -104.98539   0.27856083   -104.70683   -4564.0518    4.3046697    4.3046697    4.3046697   -4564.0518   -2538.0139    -14410.59    3256.4488    10222.194   -1115.7573    2794.2189    79.766311 
   52300    478.91007    -105.1378   0.43332789   -104.70448    5564.8231    4.2971976    4.2971976    4.2971976    5564.8231   -1116.0916    12390.892    5419.6691   -2872.4892    8907.6301   -2130.5384     79.35165 
   52400    392.19208   -105.06084   0.35486364   -104.70597   -4796.6896    4.3078461    4.3078461    4.3078461   -4796.6896   -1090.5369   -16048.955    2749.4237    5400.0745   -174.26266    3891.1453    79.943021 
   52500    344.52887   -105.01767   0.31173696   -104.70594    3076.1025    4.2971609    4.2971609    4.2971609    3076.1025   -7240.1253    612.04199    15856.391    6218.5019    3392.6343    3301.2067     79.34962 
   52600    468.72996    -105.1285   0.42411672   -104.70439   -2679.1645     4.304538     4.304538     4.304538   -2679.1645   -4754.3617    1096.3213   -4379.4531    -3047.107    5053.9305    1298.2818    79.758988 
   52700    331.03067    -105.0062   0.29952351   -104.70668   -4036.3835    4.3029238    4.3029238    4.3029238   -4036.3835   -6466.1383   -9476.3428    3833.3304    12646.794   -4257.4582   -1609.2615    79.669294 
   52800    415.83933   -105.08185   0.37626016   -104.70559    8072.0347    4.2973644    4.2973644    4.2973644    8072.0347    5528.8519    8487.8666    10199.386   -4655.6187    7500.4221    3647.0293    79.360895 
   52900      466.947   -105.12759   0.42250345   -104.70509   -9960.3787    4.3091836    4.3091836    4.3091836   -9960.3787   -13669.638   -11680.036   -4531.4624    9911.8927    2745.2411   -5463.1513      80.0175 
   53000    256.73362    -104.9386   0.23229798    -104.7063    10091.451    4.2927681    4.2927681    4.2927681    10091.451   -754.30731    4035.9754    26992.685    7109.8494   -2225.5289    1199.6171    79.106522 
   53100    537.26176   -105.18987   0.48612573   -104.70374   -13486.325    4.3117696    4.3117696    4.3117696   -13486.325   -14416.316   -4886.9546   -21155.704   -2450.2172    9466.2211   -2659.3515    80.161647 
   53200    309.78563   -104.98611   0.28030055   -104.70581    10913.099    4.2922938    4.2922938    4.2922938    10913.099    2412.7605    8519.9045    21806.632     12369.52   -1878.2865    2804.7212    79.080302 
   53300    432.58175   -105.09695   0.39140906   -104.70554   -11687.679     4.310386     4.310386     4.310386   -11687.679   -19733.757   -10933.269   -4396.0112   -2439.9988    4659.6503    2152.2812    80.084504 
   53400    430.30141   -105.09384   0.38934576   -104.70449     6946.522    4.2951069    4.2951069    4.2951069     6946.522    6143.1123    11284.473    3411.9811    3241.9222    2174.8279    3046.1253    79.235888 
   53500    278.47153   -104.95994    0.2519669   -104.70797   -3149.9585      4.30465      4.30465      4.30465   -3149.9585   -12304.133   -8724.0207    11578.278    6397.0823   -2828.3914    864.30488    79.765217 
   53600     525.2147    -105.1798    0.4752253   -104.70458   -4113.5423    4.3031281    4.3031281    4.3031281   -4113.5423   -7908.0719   -1884.9097   -2547.6453    -7413.817    6388.0004    6345.2333    79.680642 
   53700    349.75134    -105.0223   0.31646236   -104.70584    6861.0283    4.2959985    4.2959985    4.2959985    6861.0283   -6724.9069    7256.9536    20051.038    13527.396   -2737.7662   -2520.5524    79.285242 
   53800    357.71078   -105.02935   0.32366423   -104.70568   -11564.264    4.3101132    4.3101132    4.3101132   -11564.264   -13525.201    -16168.43    -4999.161   -4426.5606   -1918.6791    1013.0525    80.069297 
   53900    480.61877   -105.13781   0.43487396   -104.70294    10177.076    4.2918435    4.2918435    4.2918435    10177.076    6216.9158    22132.961    2181.3511    2185.0199    6996.2624   -1424.5383    79.055415 
   54000    316.22592     -104.992   0.28612786   -104.70587   -7745.2682    4.3108174    4.3108174    4.3108174   -7745.2682   -13848.926   -17326.543    7939.6651    9034.9004   -4938.0886   -1597.3624    80.108553 
   54100    483.08763   -105.14075   0.43710784   -104.70365    6015.5639    4.2943581    4.2943581    4.2943581    6015.5639   -745.77844    9309.4972    9482.9729   -9287.5848    4869.6144    1616.2149    79.194455 
   54200    353.11701   -105.02419   0.31950769   -104.70468    974.51405    4.3055343    4.3055343    4.3055343    974.51405   -4152.8067    654.43595    6421.9129    9266.3837    -1137.628    233.33888    79.814382 
   54300    392.67266   -105.06076   0.35529848   -104.70546   -4300.5068    4.3011263    4.3011263    4.3011263   -4300.5068   -13073.441   -3198.8273    3370.7479   -4730.8468    1011.2498    1793.3287    79.569492 
   54400    446.14504   -105.10776   0.40368141   -104.70408    6231.8585    4.2991012    4.2991012    4.2991012    6231.8585    5891.5916    10566.352    2237.6317   -3353.5949    2915.1652    6553.2859    79.457153 
   54500    372.91634   -105.04268   0.33742254   -104.70525   -1488.3585     4.305937     4.305937     4.305937   -1488.3585   -8425.9016   -6285.1855    10246.012    7792.8482   -2212.6521     1242.054    79.836779 
   54600    406.98179   -105.07328   0.36824568   -104.70503    2047.8205    4.2967465    4.2967465    4.2967465    2047.8205   -1786.4628    3759.5282    4170.3962   -11491.933   -374.67946    2073.1435    79.326664 
   54700    399.11715    -105.0656   0.36112958   -104.70447    225.89201    4.3054772    4.3054772    4.3054772    225.89201   -3955.2823   -949.01422    5581.9726    6202.2347    2200.9814    2388.9134     79.81121 
   54800    413.96784   -105.08066    0.3745668   -104.70609    -4875.076    4.2992535    4.2992535    4.2992535    -4875.076   -11253.211   -9271.7884    5899.7718    2350.3854   -5625.5164   -1993.1522    79.465597 
   54900    362.65748   -105.03484   0.32814011    -104.7067    2637.9432    4.3021526    4.3021526    4.3021526    2637.9432   -396.06844    335.30754    7974.5904   -10038.722    652.14626    1683.3448    79.626463 
   55000    451.82484   -105.11425   0.40882061   -104.70543   -3299.4638    4.3031068    4.3031068    4.3031068   -3299.4638   -7358.2745   -1676.8685   -863.24837    12477.671   -4331.2301   -3315.6508     79.67946 
   55100    353.97862   -105.02682   0.32028729   -104.70653   -2910.9479    4.2985343    4.2985343    4.2985343   -2910.9479   -8499.6904   -3538.4015    3305.2482   -13333.788    1799.8396    2489.5744    79.425723 
   55200    423.24394   -105.08801   0.38296001   -104.70505   -2203.0119    4.3058216    4.3058216    4.3058216   -2203.0119   -154.74091   -5800.7198   -653.57494    2634.7944   -474.44779    1936.3664     79.83036 
   55300    411.45752   -105.07766   0.37229542   -104.70536    618.55833    4.2973054    4.2973054    4.2973054    618.55833   -8531.1847   -1703.4296    12090.289   -1665.6422   -795.04195    933.76954    79.357626 
   55400    347.64895   -105.02126   0.31456008    -104.7067   -6333.3426     4.305317     4.305317     4.305317   -6333.3426   -16408.334   -5988.1342    3396.4408   -13337.479    1206.1841    2286.5031    79.802299 
   55500      486.946   -105.14512   0.44059897   -104.70452    1362.3127    4.2994996    4.2994996    4.2994996    1362.3127    1754.9052    4879.0881   -2547.0552    7608.5186    2642.4369    3088.5773    79.479248 
   55600    332.52907   -105.00787   0.30087929   -104.70699   -3580.2716    4.3019992    4.3019992    4.3019992   -3580.2716   -13147.965    -1164.465    3571.6148   -11292.073   -3124.6782   -1456.9697    79.617946 
   55700    394.48825   -105.06253   0.35694125   -104.70559    3711.8482    4.3032537    4.3032537    4.3032537    3711.8482    1016.3583    3298.8286    6820.3578   -4830.1172    868.81455    3304.9956    79.687617 
   55800    492.77964   -105.15053   0.44587737   -104.70465    584.50179    4.2978672    4.2978672    4.2978672    584.50179    -8341.911    4745.5082    5349.9082    4174.2439   -3589.3845   -4385.1995    79.388755 
   55900    259.61133    -104.9421   0.23490178    -104.7072   -5517.2451    4.3060543    4.3060543    4.3060543   -5517.2451   -18340.203   -8409.7187    10198.187   -17882.867    1286.2782    2785.9601    79.843303 
   56000    547.92125   -105.19944   0.49577066   -104.70366    3763.4745    4.2974126    4.2974126    4.2974126    3763.4745    10884.638    4448.4404    -4042.655    5881.4588   -2580.2285   -2513.7928    79.363563 
   56100    287.71393   -104.96807   0.26032961   -104.70774   -3497.3543    4.3048779    4.3048779    4.3048779   -3497.3543   -20916.949   -727.59545    11152.482   -14604.419    -1377.366   -1571.2783    79.777884 
   56200    417.40439   -105.08438   0.37767626   -104.70671    3238.5558     4.299139     4.299139     4.299139    3238.5558    2108.3476   -895.41478    8502.7344    -6990.891     414.7831    700.22183    79.459249 
   56300    495.91902   -105.15377   0.44871795   -104.70506   -3480.3147    4.3028512    4.3028512    4.3028512   -3480.3147   -5796.2073     512.3893   -5157.1263   -775.88823    2363.8891    3798.2308    79.665261 
   56400    223.18011   -104.91025   0.20193806   -104.70831   -3711.1675    4.3023222    4.3023222    4.3023222   -3711.1675   -12707.578   -12060.429    13634.504    -17383.74   -1756.4998   -1249.6204    79.635884 
   56500     573.7756   -105.22302   0.51916422   -104.70386    1936.5109    4.2990384    4.2990384    4.2990384    1936.5109     2677.808    2790.2618    341.46302    3768.2936    1824.1028    5449.2762    79.453674 
   56600    311.11147   -104.98945   0.28150019   -104.70795   -7598.3834    4.3054865    4.3054865    4.3054865   -7598.3834   -20961.514   -7448.4087    5614.7726   -8818.0695   -2020.3695   -2608.4589    79.811722 
   56700    369.93683   -105.04231   0.33472662   -104.70758    4034.5063    4.2969924    4.2969924    4.2969924    4034.5063    975.30915    2712.6769    8415.5329    -7678.779    1287.2911    3723.4058    79.340283 
   56800    528.78693   -105.18284   0.47845753   -104.70438   -2968.6205    4.3058285    4.3058285    4.3058285   -2968.6205     -3570.13    6397.6616   -11733.393    2220.1638   -2198.5149   -2615.1081    79.830747 
   56900    218.42178   -104.90609   0.19763262   -104.70846    3453.2976    4.2983366    4.2983366    4.2983366    3453.2976   -6013.5447   -1255.1954    17628.633   -16310.221    -2574.074   -1534.2548    79.414766 
   57000    566.83592   -105.21706   0.51288505   -104.70417   -1032.6668    4.3034044    4.3034044    4.3034044   -1032.6668   -10925.425    6555.9947    1271.4303     2141.224   -950.87004   -100.37808    79.695994 
   57100    320.43973   -104.99686   0.28994061   -104.70692    1386.6852    4.3007264    4.3007264    4.3007264    1386.6852   -4066.4557    1930.8034    6295.7079   -10062.221    908.48156   -144.81983    79.547303 
   57200    342.62009   -105.01843   0.31000985   -104.70842   -3224.4167    4.3012036    4.3012036    4.3012036   -3224.4167   -11925.019   -1213.8421     3465.611   -11134.521   -2705.7959   -2632.1355    79.573781 
   57300    559.51249   -105.21028   0.50625866   -104.70402    3578.9673    4.3024533    4.3024533    4.3024533    3578.9673   -793.84741    11270.039     260.7099    6799.6522    1119.4721    2702.4391     79.64316 
   57400    221.13591   -104.90889   0.20008842    -104.7088    2330.6828     4.300999     4.300999     4.300999    2330.6828   -7709.4504     1192.393    13509.106   -17116.365   -278.66722   -1201.3661    79.562427 
   57500    498.56164   -105.15708   0.45110905   -104.70597   -3016.0998    4.3013541    4.3013541    4.3013541   -3016.0998   -11120.473   -3247.0711    5319.2446    6092.7623    2936.6642    2926.0365    79.582136 
   57600    409.82909   -105.07672   0.37082197    -104.7059    1141.8212    4.3026544    4.3026544    4.3026544    1141.8212    1319.2801    35.672625    2070.5109   -5596.1573   -49.775023   -3125.2994    79.654331 
   57700    328.28604    -105.0056   0.29704011   -104.70856   -8650.3392    4.3005679    4.3005679    4.3005679   -8650.3392   -19108.581   -12827.812    5985.3747    -9668.601   -321.17481   -598.95814    79.538503 
   57800    497.26847   -105.15461   0.44993896   -104.70467    1209.3304    4.3022851    4.3022851    4.3022851    1209.3304   -7011.6576    4698.4396    5941.2092    8291.5523   -311.58136   -1084.3219    79.633822 
   57900    319.14104   -104.99618   0.28876552   -104.70742    619.83547    4.3016334    4.3016334    4.3016334    619.83547   -2438.2756   -4221.7357    8519.5177   -16026.416    1844.7799    -4081.099     79.59764 
   58000     391.3576   -105.06175   0.35410858   -104.70764   -6189.5873    4.3006002    4.3006002    4.3006002   -6189.5873   -15158.231   -7916.4426    4505.9114    4543.5531   -3722.0225   -2072.7821    79.540296 
   58100    502.01678    -105.1588   0.45423533   -104.70456     1567.909    4.3044811    4.3044811    4.3044811     1567.909   -2389.6758    3713.2421    3380.1608    901.75546    317.58165   -1038.9509    79.755824 
   58200    321.04336   -104.99855   0.29048678   -104.70806   -3362.8547    4.2975586    4.2975586    4.2975586   -3362.8547   -14216.032   -7787.6299    11915.098   -12563.193   -1113.3948   -1292.5451    79.371651 
   58300    376.43451   -105.04734   0.34060586   -104.70673   -5901.8145    4.3066543    4.3066543    4.3066543   -5901.8145   -15691.079   -7626.1901    5611.8259    15353.515    2538.2451    561.51726    79.876686 
   58400    486.03378   -105.14425   0.43977358   -104.70448    7416.2598    4.2969182    4.2969182    4.2969182    7416.2598    3580.2308    12371.378    6297.1706   -11332.783     549.7279    56.109782    79.336177 
   58500    327.59383   -105.00414   0.29641378   -104.70772   -11833.553    4.3056078    4.3056078    4.3056078   -11833.553   -22977.724   -15571.386    3048.4497    3306.1204    225.39704     115.7704     79.81847 
   58600    452.14254   -105.11382   0.40910807   -104.70472    11187.834    4.2995226    4.2995226    4.2995226    11187.834    8027.5894    18111.028    7424.8854    6691.3308    1661.1361    2376.7009    79.480522 
   58700    397.55219   -105.06609   0.35971358   -104.70638   -1849.9472    4.3011033    4.3011033    4.3011033   -1849.9472   -12052.011   -7930.9084    14433.078   -10800.278    2606.4624   -3695.4366    79.568214 
   58800    278.55734   -104.96045   0.25204454    -104.7084   -5696.7711    4.3052241    4.3052241    4.3052241   -5696.7711   -19100.271   -4025.3757    6035.3336    15028.872   -1655.1274   -583.68314    79.797134 
   58900    603.06812   -105.24927   0.54566871    -104.7036    10205.076    4.2954754    4.2954754    4.2954754    10205.076    7632.2773    14993.961    7988.9906   -5960.0513    271.65505   -2837.7688    79.256285 
   59000    297.51533   -104.97766   0.26919813   -104.70846   -12349.499    4.3093163    4.3093163    4.3093163   -12349.499   -22106.018   -13075.555   -1866.9257    2741.7663   -490.67515   -1617.6527    80.024893 
   59100     335.0072   -105.00978   0.30312156   -104.70666    15994.208    4.2945341    4.2945341    4.2945341    15994.208    9760.7666    17699.133    20522.726    12328.954     1952.922   -2754.3194    79.204193 
   59200    530.83343   -105.18472   0.48030924   -104.70441   -3853.4665    4.3057738    4.3057738    4.3057738   -3853.4665   -15278.174    126.90457    3590.8703   -7618.2919   -476.55932     1043.034    79.827702 
   59300    251.87293   -104.93642   0.22789992   -104.70852   -2212.4547    4.3013068    4.3013068    4.3013068   -2212.4547   -9944.9559   -8208.1928    11515.785    11716.802   -330.10759   -1201.2639    79.579508 
   59400    556.99095   -105.20818   0.50397712    -104.7042    5128.6712    4.2987832    4.2987832    4.2987832    5128.6712    894.78261        13522    969.23054    2317.5945    2341.0618    6135.0516    79.439521 
   59500      341.317   -105.01595   0.30883079   -104.70712   -11110.756    4.3078088    4.3078088    4.3078088   -11110.756   -21606.118   -13686.201    1960.0516   -989.30212    1540.8865   -2637.7067    79.940943 
   59600    271.44481   -104.95356   0.24560897   -104.70795    10723.854    4.2941293    4.2941293    4.2941293    10723.854    2903.1768    6950.8933    22317.493      13084.2   -49.138111    2599.3143    79.181794 
   59700    617.49152   -105.26203    0.5587193   -104.70331   -10730.247      4.30958      4.30958      4.30958   -10730.247   -12887.673    -5035.064   -14268.004   -6020.4591    1022.1689    1683.9942    80.039589 
   59800    236.29435   -104.92102    0.2138041   -104.70722    4065.3992    4.2958427    4.2958427    4.2958427    4065.3992   -3589.5711   -2162.4181    17948.187    13138.612    183.08231     -2766.51    79.276615 
   59900    476.25487   -105.13579   0.43092542   -104.70486   -8800.0173    4.3051166    4.3051166    4.3051166   -8800.0173   -14403.565   -6439.8804   -5556.6061    3178.3565     2306.249   -129.10447    79.791157 
   60000     373.9958   -105.04356   0.33839926   -104.70516   -4645.0451    4.3023393    4.3023393    4.3023393   -4645.0451   -12560.978   -8441.5862    7067.4283    2373.7559    173.01253    2730.4317    79.636832 
   60100    312.23423   -104.98986   0.28251609   -104.70734    435.01716    4.2983573    4.2983573    4.2983573    435.01716   -5038.7279   -3796.0996    10139.879    14941.573   -1262.9308   -2223.9309    79.415916 
   60200    561.39075   -105.21149   0.50795815   -104.70353   -10292.979    4.3080817    4.3080817    4.3080817   -10292.979   -9052.2398   -2845.5019   -18981.195     -2674.51    3604.7117    10801.478    79.956135 
   60300    283.50725   -104.96286   0.25652332   -104.70634    8319.6419    4.2942749    4.2942749    4.2942749    8319.6419    1334.7541    2146.2738    21477.898     12098.27   -554.30831   -2384.7493    79.189852 
   60400    414.53281   -105.08036   0.37507799   -104.70529   -12220.771    4.3092192    4.3092192    4.3092192   -12220.771   -19638.939   -11671.245   -5352.1286    1175.2438    1095.4471    8252.3141    80.019487 
   60500    416.57609   -105.08122    0.3769268   -104.70429     5770.417    4.2961039    4.2961039    4.2961039     5770.417     3148.801    7787.2589    6375.1911    2553.0995    1081.7007    7888.3678     79.29108 
   60600    378.47228   -105.04831   0.34244968   -104.70586   -4782.2565     4.304458     4.304458     4.304458   -4782.2565   -15071.831   -1617.6243    2342.6864    9059.0719    990.95475   -2666.5071    79.754542 
   60700    482.45106   -105.14061   0.43653186   -104.70408   -3774.1607    4.3023662    4.3023662    4.3023662   -3774.1607   -3088.3786    1862.0646   -10096.168   -2934.3571     3077.629    6496.1284    79.638323 
   60800    299.61313   -104.97698   0.27109626   -104.70588    9383.9472    4.2985917    4.2985917    4.2985917    9383.9472    2120.2667    10475.652    15555.923    9635.1779    950.36987    809.20698    79.428908 
   60900    407.46789   -105.07458   0.36868551   -104.70589   -4968.7605    4.3058972    4.3058972    4.3058972   -4968.7605   -14029.475   -1647.5947     770.7879    6521.8277   -1536.9805    91.817164    79.834565 
   61000    459.42689   -105.12093    0.4156991   -104.70523    6219.7879    4.2969861    4.2969861    4.2969861    6219.7879    8531.7001    6768.2274    3359.4363   -1375.5867    3490.7704    8893.8353    79.339936 
   61100    388.96293   -105.05765   0.35194183    -104.7057   -6229.1659    4.3061087    4.3061087    4.3061087   -6229.1659   -16915.199   -2199.9147    427.61569    12286.027   -1438.9992    -2857.108     79.84633 
   61200    383.51781    -105.0518   0.34701497   -104.70479    1589.5459     4.298781     4.298781     4.298781    1589.5459   -567.41095     2963.246    2372.8026    -6665.674    485.87787    10467.581    79.439401 
   61300    362.74784   -105.03349   0.32822187   -104.70526    4206.3392    4.3023194    4.3023194    4.3023194    4206.3392    3346.2655     6489.716    2783.0361    7800.1303    321.52907    7763.4731    79.635726 
   61400    443.72569    -105.1067   0.40149233   -104.70521   -4893.4452    4.3036028    4.3036028    4.3036028   -4893.4452   -11945.125   -7352.3999    4617.1888   -1028.8201     212.3842   -1570.6817    79.707013 
   61500    431.71533   -105.09575    0.3906251   -104.70513     4194.329    4.2981311    4.2981311    4.2981311     4194.329    8776.2852    4108.0461   -301.34426   -2567.4227    3087.4249    12305.714    79.403379 
   61600    344.72343   -105.01774     0.311913   -104.70583   -5383.6265    4.3061253    4.3061253    4.3061253   -5383.6265   -12440.809    -3761.487    51.415985    8154.3794    2079.4455   -1363.1994    79.847254 
   61700    391.49412   -105.05924   0.35423211   -104.70501    2385.7741    4.2971905    4.2971905    4.2971905    2385.7741   -3494.0013   -1286.2201    11937.544   -777.91572   -1449.2987    4239.6448    79.351256 
   61800    417.83295   -105.08342   0.37806403   -104.70535   -3379.3808    4.3054829    4.3054829    4.3054829   -3379.3808    2468.3302    654.24065   -13260.713    997.37112    4689.9245    4857.5418    79.811524 
   61900    436.06131   -105.09923   0.39455744   -104.70468    2324.0578    4.2984081    4.2984081    4.2984081    2324.0578   -10195.615    9507.0347    7660.7534    9554.8022   -1087.2237   -3483.3757    79.418733 
   62000    367.36462   -105.03848   0.33239922   -104.70608    794.47198    4.3034419    4.3034419    4.3034419    794.47198    8311.7169   -2305.9008   -3622.4002   -6907.8448    640.58174    10478.517    79.698074 
   62100    372.94284   -105.04336   0.33744652   -104.70591    640.40119     4.300888     4.300888     4.300888    640.40119    -7923.954    4589.1663    5255.9913    10372.896   -204.14073    2387.0749    79.556269 
   62200    420.85683   -105.08701    0.3808001   -104.70621    229.65753     4.300833     4.300833     4.300833    229.65753   -6172.9451    -287.8841    7149.8018   -4796.3124   -588.68001    1456.4131    79.553214 
   62300    439.05027   -105.10278   0.39726191   -104.70552   -3841.7693    4.3031197    4.3031197    4.3031197   -3841.7693   -1254.2382    3409.0516   -13680.121    365.90083    2899.8767    13978.784    79.680174 
   62400    371.54952   -105.04137   0.33618582   -104.70519    1800.4754    4.2999608    4.2999608    4.2999608    1800.4754   -8732.7592    7479.7623    6654.4232    6141.7958    1381.6048    -3545.056    79.504825 
   62500     369.7278   -105.03967   0.33453749   -104.70513   -1362.9048    4.3032179    4.3032179    4.3032179   -1362.9048   -187.15377   -3854.7842   -46.776399   -6922.7621   -1991.4628    7687.2624     79.68563 
   62600    396.21812   -105.06351   0.35850648   -104.70501    1745.0963    4.2996491    4.2996491    4.2996491    1745.0963   -5362.2145    10964.002   -366.49859    5000.5923    5028.9731      1634.69     79.48754 
   62700    453.50096    -105.1157    0.4103372   -104.70536   -6316.3672    4.3036486    4.3036486    4.3036486   -6316.3672   -11652.666    -9085.404    1788.9684    2869.0719    -438.7812   -2982.1581     79.70956 
   62800    397.42569   -105.06488   0.35959912   -104.70528   -1076.7883     4.299821     4.299821     4.299821   -1076.7883   -2766.8014    2716.9882   -3180.5518   -7068.5333    983.60598    8091.6336    79.497073 
   62900    310.60451   -104.98713   0.28104149   -104.70609   -326.47727    4.3025879    4.3025879    4.3025879   -326.47727   -12036.659    8631.2775    2425.9495    8428.9886    1038.5883   -5587.6399    79.650639 
   63000    448.00251   -105.11083   0.40536209   -104.70546   -4709.9496    4.3015511    4.3015511    4.3015511   -4709.9496   -10490.068    -6214.701    2574.9199   -9604.4861   -1575.3931    3792.8057    79.593071 
   63100     436.6124   -105.09995   0.39505608   -104.70489    1159.8528    4.3007632    4.3007632    4.3007632    1159.8528   -2931.2313    13302.807   -6892.0169    2897.5656    3978.2203    7519.4944    79.549341 
   63200    376.92437    -105.0471   0.34104909   -104.70605   -4001.4388    4.3028435    4.3028435    4.3028435   -4001.4388   -10668.571   -4373.7928    3038.0477   -399.84489    1489.9951   -3731.3772    79.664833 
   63300    377.29585   -105.04708   0.34138521   -104.70569    2112.3542    4.2994147    4.2994147    4.2994147    2112.3542   -3961.5412    3680.8826    6617.7213    -9448.649   -1863.5447      6698.24    79.474538 
   63400    392.25738   -105.06085   0.35492272   -104.70592    -435.8072    4.3036081    4.3036081    4.3036081    -435.8072   -9409.3445    10432.627   -2330.7039     6973.211    5298.6957     553.3639     79.70731 
   63500    438.30528   -105.10324   0.39658782   -104.70665   -6020.9814    4.3009827    4.3009827    4.3009827   -6020.9814    -13104.11   -6383.2935    1424.4595   -7388.1543   -418.45794   -2566.6806    79.561522 
   63600    425.05151   -105.08966   0.38459554   -104.70507    6126.8715    4.3001821    4.3001821    4.3001821    6126.8715   -2296.8988    21887.176   -1209.6625   -2600.9962    2264.4121    2555.2967    79.517099 
   63700    334.69813   -105.00957    0.3028419   -104.70673   -5121.9063    4.3042885    4.3042885    4.3042885   -5121.9063   -9101.3991    -9354.077    3089.7572    3360.8443    713.66971   -7538.7303    79.745122 
   63800    388.40729   -105.05722   0.35143908   -104.70578    4596.0776    4.2975152    4.2975152    4.2975152    4596.0776   -6263.6875    5886.5308    14165.389   -9907.8648   -1926.9581    2510.3434    79.369248 
   63900    495.60913   -105.15296   0.44843756   -104.70452   -1687.2731    4.3051886    4.3051886    4.3051886   -1687.2731   -6615.5956    9741.0947   -8187.3184    3769.2815    5351.2921    143.71215    79.795158 
   64000    340.68437   -105.01574   0.30825838   -104.70748   -3051.7336     4.297833     4.297833     4.297833   -3051.7336   -10628.269   -7639.1017    9112.1699   -7791.0331    131.08917   -3748.4154    79.386857 
   64100    396.31972   -105.06459   0.35859842   -104.70599    2826.4442    4.3043351    4.3043351    4.3043351    2826.4442   -6515.5162    14906.445    88.403458   -4275.8107    713.07768    4480.2938    79.747708 
   64200     409.9826   -105.07759   0.37096088   -104.70663    1793.6699    4.2989286    4.2989286    4.2989286    1793.6699   -7709.6529    5804.8797    7285.7829     2727.723    4107.8368    1547.7933    79.447586 
   64300    351.01035   -105.02582   0.31760154   -104.70822   -4843.6556    4.3035301    4.3035301    4.3035301   -4843.6556   -13787.633    -1805.419    1062.0853   -8112.1438    95.163273   -4631.7209    79.702973 
   64400    537.92867   -105.19064   0.48672917   -104.70391    6316.5669    4.3003288    4.3003288    4.3003288    6316.5669   -986.64716    15047.461    4888.8871    1790.8033    4952.3872    3193.7992     79.52524 
   64500    292.43518   -104.97241    0.2646015    -104.7078    -5269.001    4.3015888    4.3015888    4.3015888    -5269.001   -12916.869   -4866.3828    1976.2488      277.509   -997.79567   -7075.9917    79.595164 
   64600    325.09555   -105.00093   0.29415329   -104.70678       3784.3    4.3020354    4.3020354    4.3020354       3784.3    -8977.613    11048.809    9281.7036   -5206.0432   -603.81003    309.61037    79.619957 
   64700    607.88394   -105.25474   0.55002617   -104.70472   -3414.3666    4.3001193    4.3001193    4.3001193   -3414.3666   -10962.041    7318.7343   -6599.7931    3197.0536    6411.6291   -4586.1487    79.513618 
   64800    250.23849   -104.93565   0.22642105   -104.70922    -4987.004    4.3028974    4.3028974    4.3028974    -4987.004   -11945.844   -3989.7487      974.581    -8080.949   -1349.6362   -3567.1834    79.667828 
   64900    444.81465   -105.10838   0.40247764   -104.70591    3417.5592    4.3009188    4.3009188    4.3009188    3417.5592   -8232.0539    13016.764     5467.967   -554.63249     4986.756     1253.856    79.557975 
   65000    390.54566    -105.0598   0.35337392   -104.70643   -4081.7397    4.3020214    4.3020214    4.3020214   -4081.7397    -8505.344   -3637.7766   -102.09839   -2961.8262    3007.8497     1520.684    79.619179 
   65100    331.42938   -105.00712   0.29988427   -104.70723   -1884.1423    4.3017379    4.3017379    4.3017379   -1884.1423   -13264.545    2804.3055    4807.8124     -7778.16    2049.3049   -5085.5744    79.603438 
   65200    566.98376   -105.21692   0.51301882    -104.7039   -1818.0809     4.301073     4.301073     4.301073   -1818.0809   -6084.6747    10230.515    -9600.083     2186.838     8899.622    6521.3787    79.566535 
   65300    251.74942   -104.93516   0.22778816   -104.70737   -1532.0496    4.3016629    4.3016629    4.3016629   -1532.0496   -10165.388    1050.6531    4518.5863   -4564.3061   -3046.1199   -4948.7373    79.599277 
   65400     389.4368   -105.05852    0.3523706   -104.70615   -1238.8904     4.302325     4.302325     4.302325   -1238.8904   -12143.857     2661.026    5766.1595   -1782.0987    3973.9446    264.47734    79.636036 
   65500    519.43575   -105.17462   0.46999638   -104.70462    568.01968    4.2995551    4.2995551    4.2995551    568.01968   -2820.0384    8507.2535   -3983.1561    1199.4681    4274.9969   -842.27408    79.482325 
   65600    298.90287   -104.97742    0.2704536   -104.70697   -1489.1966    4.3045604    4.3045604    4.3045604   -1489.1966   -13679.419    353.80016    8858.0294   -5896.9019   -2522.7622   -3420.7982    79.760236 
   65700    475.48968   -105.13437   0.43023305   -104.70414    1763.7259    4.2982763    4.2982763    4.2982763    1763.7259    399.46907    7567.0443   -2675.3359    1697.6646    5839.5276    2068.0922    79.411424 
   65800    304.11983   -104.98118   0.27517402     -104.706   -292.87131    4.3043172    4.3043172    4.3043172   -292.87131   -13253.275    8021.0803    4353.5811   -7815.7987   -517.86993    318.82881    79.746713 
   65900    436.10189   -105.10014   0.39459415   -104.70555    1642.5888    4.2990357    4.2990357    4.2990357    1642.5888   -7491.1885    7295.4971    5123.4579   -5218.5689    2502.2779   -3406.3605     79.45352 
   66000      487.988   -105.14624   0.44154179   -104.70469   -2971.1399    4.3033787    4.3033787    4.3033787   -2971.1399   -6428.2741    5662.7061   -8147.8518     413.3833    8218.4813    10638.943    79.694562 
   66100    283.17944   -104.96255   0.25622671   -104.70633    5087.1575    4.3004154    4.3004154    4.3004154    5087.1575   -6965.0029    2236.1917    19990.284   -10281.434   -3685.2291   -2755.5367    79.530044 
   66200    447.13696   -105.11001   0.40457892   -104.70543   -2856.1136    4.3010686    4.3010686    4.3010686   -2856.1136   -7069.3042    3489.6592   -4988.6957    2546.6962    6674.5702    3229.3377    79.566288 
   66300    381.37782   -105.05096   0.34507866   -104.70588   -1179.7031    4.3029501    4.3029501    4.3029501   -1179.7031    -8147.809    5927.8421   -1319.1423   -4254.1855    3610.0607    5566.9474    79.670756 
   66400    466.80312    -105.1278   0.42237327   -104.70542    18.222153    4.2992544    4.2992544    4.2992544    18.222153   -8725.7671    720.40052     8060.033   -1560.4925   -1795.7213   -3443.0154    79.465651 
   66500    357.76365    -105.0294   0.32371207   -104.70569   -3758.4214    4.3044029    4.3044029    4.3044029   -3758.4214   -8315.6832    5720.7905   -8680.3716    1623.0874    5873.0678    3964.6796    79.751478 
   66600    309.61987   -104.98616   0.28015057   -104.70601    5283.3381    4.2983426    4.2983426    4.2983426    5283.3381   -6620.6572    8219.1427    14251.529   -8044.6552   -1834.0756    378.41517    79.415101 
   66700    539.40564   -105.19252   0.48806556   -104.70446    -7631.397    4.3039786    4.3039786    4.3039786    -7631.397    -12602.84   -3332.1959   -6959.1545     863.5198     3441.175   -1116.5479      79.7279 
   66800    335.34049   -105.00986   0.30342312   -104.70644   -593.18648    4.3009802    4.3009802    4.3009802   -593.18648   -6113.1047    6613.6613    -2280.116   -4065.2473    7158.5527    10577.519    79.561385 
   66900    384.33977   -105.05349    0.3477587   -104.70573    3914.0464    4.2995719    4.2995719    4.2995719    3914.0464   -7340.0339    9001.2322    10080.941   -9606.0967   -3547.1163    -2099.074    79.483256 
   67000    411.83311   -105.07813   0.37263526    -104.7055   -6472.1943    4.3056293    4.3056293    4.3056293   -6472.1943   -11237.751    6196.4381    -14375.27     3489.563    7788.7051    6507.8926    79.819667 
   67100    360.63666   -105.03238   0.32631163   -104.70607    6240.1128    4.2959161    4.2959161    4.2959161    6240.1128    1380.8838    12053.377    5286.0774   -8108.8787    1695.5519     9991.107     79.28068 
   67200    501.43364   -105.15794    0.4537077   -104.70423   -7409.9848    4.3073712    4.3073712    4.3073712   -7409.9848   -19834.727   -1185.4546   -1209.7727    2622.7156     1873.629   -4134.2252    79.916584 
   67300    305.63407   -104.98182   0.27654413   -104.70528    5660.7282    4.2963214    4.2963214    4.2963214    5660.7282    2372.6098    9276.9003    5332.6745   -662.72575    4499.8651     9151.213    79.303121 
   67400    384.42426   -105.05379   0.34783515   -104.70595   -3220.0576    4.3040385    4.3040385    4.3040385   -3220.0576   -10288.773     503.8954    124.70483   -5613.0247   -2034.6818    720.83853    79.731227 
   67500    499.06085   -105.15639   0.45156074   -104.70483   -3340.4545     4.301613     4.301613     4.301613   -3340.4545   -7359.9374    5247.2145   -7908.6407     5271.737    4000.1608    963.10083    79.596505 
   67600    299.44729   -104.97802    0.2709462   -104.70707    6906.2549    4.2980343    4.2980343    4.2980343    6906.2549    764.50561    14256.132    5698.1272   -7520.5267    3412.3057    7867.7405    79.398011 
   67700    477.62222   -105.13683   0.43216262   -104.70467   -10945.869    4.3073303    4.3073303    4.3073303   -10945.869   -21036.097   -12639.151    837.64282   -5739.7405   -2792.3877   -1282.8895    79.914307 
   67800    328.55415   -105.00209    0.2972827    -104.7048    12011.215    4.2941199    4.2941199    4.2941199    12011.215    10800.003    17449.036    7784.6075    3700.6613      4945.36    9085.2706    79.181276 
   67900    419.57026     -105.085   0.37963599   -104.70537   -11349.797     4.308268     4.308268     4.308268   -11349.797    -16366.62   -8331.4272   -9351.3436   -13421.349    207.48898      6069.36    79.966509 
   68000    471.82347   -105.13077   0.42691579   -104.70386    5050.0887    4.2956539    4.2956539    4.2956539    5050.0887   -2741.6358    4086.2877    13805.614    5414.7588    3360.6422   -1374.5842    79.266168 
   68100    304.16059   -104.98133    0.2752109   -104.70611   -668.42461    4.3044192    4.3044192    4.3044192   -668.42461   -9313.1966     12363.27   -5055.3473   -5179.3109    2884.4321    11911.614    79.752388 
   68200    422.58509   -105.08789   0.38236387   -104.70553   -3312.2202    4.3008053    4.3008053    4.3008053   -3312.2202   -12024.351   -2216.5113    4304.2017   -3795.6779   -1737.4282   -2595.0283    79.551677 
   68300    446.61875   -105.10924   0.40411003   -104.70513    5540.1007    4.2993745    4.2993745    4.2993745    5540.1007   -426.67167    15416.156    1630.8178     7780.756     4788.978    2152.9138    79.472307 
   68400      369.456   -105.04113   0.33429155   -104.70683    -6896.097    4.3042539    4.3042539    4.3042539    -6896.097   -15486.873   -9184.8472    3983.4298   -12192.291    1494.1088    3696.3126    79.743198 
   68500    421.21841   -105.08657   0.38112727   -104.70545    1320.6317    4.2986764    4.2986764    4.2986764    1320.6317    -11035.05    1987.4155    13009.529    1270.1699    -1188.594    238.70027    79.433603 
   68600    362.49855   -105.03361    0.3279963   -104.70561    1416.6737    4.3029035    4.3029035    4.3029035    1416.6737   -7405.6333    15393.466   -3737.8112    1073.1816    3875.7603    3137.5744    79.668165 
   68700    435.86286   -105.10023   0.39437788   -104.70585   -5942.3768    4.3012371    4.3012371    4.3012371   -5942.3768   -11667.794   -9609.0306    3449.6943   -16060.544   -1943.4878    4196.6936     79.57564 
   68800    427.43481   -105.09133     0.386752   -104.70458    5893.4409     4.300492     4.300492     4.300492    5893.4409   -10041.554    17801.425    9920.4516    9043.0933    4654.2365    -1618.773    79.534293 
   68900    336.72427   -105.01063   0.30467519   -104.70595   -3692.7581    4.3017681    4.3017681    4.3017681   -3692.7581   -13598.553   -3174.0108    5694.2896   -12276.645    553.86006    9919.3258    79.605115 
   69000    416.70145   -105.08282   0.37704023   -104.70578    -2794.419    4.3015502    4.3015502    4.3015502    -2794.419   -13192.284   -7058.8606    11867.888   -408.88671   -1466.4472   -3066.7669    79.593018 
   69100    443.28798   -105.10612   0.40109628   -104.70503    3407.6067    4.3003724    4.3003724    4.3003724    3407.6067   -4370.3286    13719.517    873.63137    5163.6634    4471.8218    3725.9084    79.527659 
   69200    361.10762   -105.03404   0.32673776    -104.7073   -5703.7126    4.3032365    4.3032365    4.3032365   -5703.7126   -15354.276   -7809.7117      6052.85    -14334.91    13.141575    3969.9201    79.686663 
   69300    405.35161   -105.07179   0.36677066   -104.70502    4897.5957    4.2991534    4.2991534    4.2991534    4897.5957   -10883.664    9251.7131    16324.738    10316.348     625.4636    1086.4313    79.460048 
   69400    400.30544   -105.06768   0.36220477   -104.70547    -7483.805    4.3039359    4.3039359    4.3039359    -7483.805   -11841.108   -4712.7869   -5897.5198   -6918.0194     1081.386   -963.03548    79.725526 
   69500    373.29431   -105.04446   0.33776453    -104.7067    730.19919    4.2984176    4.2984176    4.2984176    730.19919   -6926.5327   -2524.3369    11641.467   -10359.908   -2535.6375    4083.0489    79.419257 
   69600    485.36822    -105.1433   0.43917136   -104.70413   -2016.0593    4.3037532    4.3037532    4.3037532   -2016.0593   -9622.3793    3228.8783     345.3231    10124.132    1797.1124   -3592.4868    79.715374 
   69700    312.44675   -104.98933   0.28270839   -104.70662   -2350.8561    4.3000761    4.3000761    4.3000761   -2350.8561   -7770.7204   -9331.2813    10049.433   -17873.694    -796.2371    3869.5818    79.511221 
   69800    405.28401   -105.07244   0.36670949   -104.70574    2587.8643    4.3007856    4.3007856    4.3007856    2587.8643   -6929.2425    9592.6933     5100.142    5414.2951   -3635.1685   -3363.9466    79.550586 
   69900    449.62401   -105.11226   0.40682926   -104.70543   -2831.7158    4.3033918    4.3033918    4.3033918   -2831.7158   -2262.4741    213.46073    -6446.134   -3630.3249    2907.0405    1631.3658    79.695289 
   70000    352.83447   -105.02666   0.31925204   -104.70741    -471.9184     4.298097     4.298097     4.298097    -471.9184   -4379.6752   -8069.1685    11033.089   -10908.099   -1265.0613    4184.6138    79.401489 
   70100    462.41375   -105.12301   0.41840167   -104.70461   -2928.7279    4.3055928    4.3055928    4.3055928   -2928.7279   -13079.973    2532.6112    1761.1777    10875.717    507.23332   -418.12398    79.817635 
   70200    307.12754   -104.98503   0.27789545   -104.70713    5890.9403    4.2961655    4.2961655    4.2961655    5890.9403    5917.4239   -600.43188    12355.829   -14035.074   -506.50762    574.61011    79.294492 
   70300    453.17786   -105.11629   0.41004485   -104.70624   -6323.4947     4.306111     4.306111     4.306111   -6323.4947   -9168.3409   -6143.1682    -3658.975   -2389.6489   -1165.5137    5230.3159     79.84646 
   70400    469.37005   -105.12908   0.42469589   -104.70438    9730.6556    4.2974282    4.2974282    4.2974282    9730.6556    10307.684    9709.3415    9174.9412    4801.7049   -46.330853   -4945.0148    79.364428 
   70500    271.57727   -104.95371   0.24572882   -104.70798   -4564.3299     4.303444     4.303444     4.303444   -4564.3299   -13932.761   -8631.0113    8870.7827   -19261.446    1057.4806   -506.57333     79.69819 
   70600    467.50217   -105.12728   0.42300579   -104.70427    2417.4808    4.3011084    4.3011084    4.3011084    2417.4808   -506.97424    1571.1064    6188.3104     7358.479   -6116.8606   -1243.9165    79.568501 
   70700    400.24263   -105.06849   0.36214794   -104.70634    2114.0352    4.2996121    4.2996121    4.2996121    2114.0352    785.99454   -5476.5586     11032.67   -11422.615    2633.3682   -3311.3073    79.485484 
   70800    378.85468   -105.05011   0.34279568   -104.70731   -5961.8922    4.3040335    4.3040335    4.3040335   -5961.8922   -10164.713    -8907.386    1186.4224   -6709.0817   -3443.2907    3705.9269    79.730948 
   70900    462.22163   -105.12267   0.41822784   -104.70444    10338.044    4.2981236    4.2981236    4.2981236    10338.044    3804.1833    12178.434    15031.515    4625.1643   -739.21895   -2232.2802     79.40296 
   71000    280.79157   -104.96217   0.25406611    -104.7081   -9417.3105    4.3045841    4.3045841    4.3045841   -9417.3105   -12963.923   -22138.159      6850.15   -16686.353   -1717.2748    2155.7855     79.76155 
   71100    481.44477   -105.14131   0.43562135   -104.70569    2157.4189    4.2985628    4.2985628    4.2985628    2157.4189    4456.6593    1969.0329    46.564608    3539.9846   -677.09786    6809.7289    79.427308 
   71200    448.90938   -105.11174   0.40618264   -104.70555   -3185.0219    4.3040092    4.3040092    4.3040092   -3185.0219    -12671.09   -7546.8668    10662.891   -4601.1923   -1452.6594   -3647.3565      79.7296 
   71300    287.82794   -104.96781   0.26043277   -104.70738   -6317.7341    4.2996272    4.2996272    4.2996272   -6317.7341   -9764.2568   -13836.349    4647.4041   -15158.803    1916.6313    2623.9552    79.486321 
   71400    466.99555   -105.12706   0.42254739   -104.70452    4439.0392    4.3020897    4.3020897    4.3020897    4439.0392    3100.2674    4506.5759    5710.2743    6564.4167    -7921.717     1836.833    79.622974 
   71500    365.04333   -105.03831   0.33029887   -104.70801   -6391.8001    4.3015554    4.3015554    4.3015554   -6391.8001   -6600.6571   -17147.488    4572.7448   -17766.218    3546.2983   -4931.1246    79.593309 
   71600     398.0393   -105.06768   0.36015432   -104.70752    391.12983    4.3016615    4.3016615    4.3016615    391.12983    5670.8122   -1973.1199   -2524.3028    55.718397   -4002.9943    4116.0116    79.599197 
   71700    481.86126   -105.14088    0.4359982   -104.70488   -842.58239    4.3013282    4.3013282    4.3013282   -842.58239   -9347.0669   -7685.9109    14505.231   -6526.4508   -1453.5144   -4744.2316    79.580696 
   71800    252.49459   -104.93576   0.22846241    -104.7073   -7726.3312    4.3018711    4.3018711    4.3018711   -7726.3312   -2055.1801   -20410.237   -713.57644   -12105.223   -2121.8028    3671.3048    79.610834 
   71900    470.92386   -105.13077   0.42610181   -104.70467    4149.5735    4.3003826    4.3003826    4.3003826    4149.5735    7528.9388    5087.1396   -167.35787    5363.7758   -639.09085    5835.9265    79.528227 
   72000    461.85707   -105.12345   0.41789798   -104.70555   -5296.4988    4.3025287    4.3025287    4.3025287   -5296.4988   -8826.6851   -12605.976    5543.1647   -12280.547   -2022.0417    -1804.272     79.64735 
   72100    298.99429   -104.97777   0.27053631   -104.70723    4725.4314    4.3008297    4.3008297    4.3008297    4725.4314    15035.469   -3323.3812    2464.2069   -4026.3693   -415.71263    8027.4753    79.553031 
   72200    466.79847   -105.12705   0.42236906   -104.70468    1047.5477    4.3005955    4.3005955    4.3005955    1047.5477   -649.26367   -3048.6118    6840.5185    1483.8912   -6715.7764    3112.8423    79.540036 
   72300    332.97659   -105.00807   0.30128422   -104.70678   -5491.8507    4.3038501    4.3038501    4.3038501   -5491.8507   -4241.5776   -11985.288   -248.68641   -13796.961    3883.4876   -279.80611    79.720756 
   72400    463.74843   -105.12464   0.41960933   -104.70503    5149.0141    4.2980885    4.2980885    4.2980885    5149.0141    7852.2777    1806.3197    5788.4449     2730.274   -3454.0556    5490.2858    79.401018 
   72500    420.51634   -105.08618   0.38049202   -104.70569   -5387.5144    4.3049061    4.3049061    4.3049061   -5387.5144   -9515.5544   -8895.9074    2248.9186   -11529.241    -2726.305   -3924.9911    79.779454 
   72600    301.96653   -104.97914   0.27322566   -104.70592    9533.5125    4.2976941    4.2976941    4.2976941    9533.5125    15945.407    2470.6503     10184.48   -5040.7742   -203.90639    4957.1045    79.379159 
   72700    479.33804   -105.13822   0.43371514   -104.70451   -5022.7251    4.3041992    4.3041992    4.3041992   -5022.7251   -7787.9856   -2734.4828   -4545.7069    205.56885   -3204.0468     1848.643    79.740159 
   72800    359.42751   -105.03118   0.32521756   -104.70596    1351.2909    4.3003315    4.3003315    4.3003315    1351.2909   -3413.5586   -3534.6626    11002.094   -14250.393   -1970.9384   -1144.2519    79.525389 
   72900    446.41877   -105.10871   0.40392908   -104.70478    1347.2415    4.3009752    4.3009752    4.3009752    1347.2415    8801.8587   -8452.4278    3692.2934     2170.972   -3138.3108    9186.3414    79.561105 
   73000    360.50019   -105.03176   0.32618814   -104.70557   -6312.7966    4.3034801    4.3034801    4.3034801   -6312.7966   -15549.742    404.50778   -3793.1553   -4725.8575   -5834.5752    587.46703      79.7002 
   73100    361.23767   -105.03275   0.32685544    -104.7059    4389.2131    4.2985212    4.2985212    4.2985212    4389.2131     5982.704   -3690.9659    10875.901   -9871.3282    2377.1322    4827.7514    79.424998 
   73200    504.12532   -105.16063   0.45614319   -104.70448    -6247.215    4.3047541    4.3047541    4.3047541    -6247.215   -3093.8156   -2719.6217   -12928.208    3371.0382   -4774.4886    4557.0975       79.771 
   73300    287.68337   -104.96763   0.26030195   -104.70732    4701.5414    4.2978963    4.2978963    4.2978963    4701.5414    2113.4424   -247.78577    12238.967   -14891.893    -1728.071   -891.45122    79.390362 
   73400    484.47943   -105.14302   0.43836717   -104.70466   -7109.0076    4.3049411    4.3049411    4.3049411   -7109.0076   -6507.2857   -10366.168   -4453.5694     322.5295    1709.0006    6048.0077    79.781395 
   73500    365.85047   -105.03672   0.33102919   -104.70569   -5151.1143    4.2998255    4.2998255    4.2998255   -5151.1143    -11509.57   -512.59738   -3431.1754   -7724.9097   -2807.1891   -842.24832    79.497319 
   73600     333.7971   -105.00895   0.30202663   -104.70692    815.44974    4.3014641    4.3014641    4.3014641    815.44974    6573.7943   -10365.051    6237.6057   -14118.658      1147.17   -153.17537    79.588243 
   73700    542.47947   -105.19503   0.49084682   -104.70419   -2148.6741    4.3030969    4.3030969    4.3030969   -2148.6741    2994.3252   -2249.0545   -7191.2931    5399.4715   -4280.8132    6297.5308    79.678909 
   73800    271.18968   -104.95295   0.24537812   -104.70757    4412.2493    4.2985541    4.2985541    4.2985541    4412.2493   -3480.0483    5066.6738    11650.122   -13823.242   -2756.5719   -1699.5541    79.426825 
   73900    454.56166   -105.11677   0.41129694   -104.70548   -7155.3048    4.3054727    4.3054727    4.3054727   -7155.3048   -3656.3166   -12869.245   -4940.3528   -2628.6872    250.18066    6819.4675     79.81096 
   74000    410.25119   -105.07676    0.3712039   -104.70555    4930.0699    4.2968075    4.2968075    4.2968075    4930.0699    6034.0698     3310.184    5445.9559    708.41463   -6293.2076    2350.7308    79.330043 
   74100    331.49638   -105.00732   0.29994489   -104.70737   -5188.5691    4.3059933    4.3059933    4.3059933   -5188.5691   -9071.0537   -11231.227    4736.5738    -12987.63   -1675.9429    1950.9211    79.839913 
   74200    527.88324   -105.18107   0.47763984   -104.70343    4315.7757    4.2984418    4.2984418    4.2984418    4315.7757    5713.4266    4569.6438    2664.2567    4355.1334     2376.919    8482.0774    79.420598 
   74300    278.87095   -104.95924   0.25232829   -104.70691    3033.0542    4.3023195    4.3023195    4.3023195    3033.0542    4526.6822   -1576.0188    6148.4993   -12649.214   -1954.5764    -1426.556    79.635735 
   74400    409.22672   -105.07654   0.37027694   -104.70626   -2665.8444    4.3028326    4.3028326    4.3028326   -2665.8444   -1899.7303   -3538.9731   -2558.8297   -7026.5933    2577.3857    2737.5312     79.66423 
   74500    504.55994   -105.16112   0.45653643   -104.70458    5469.6789    4.2982758    4.2982758    4.2982758    5469.6789    3392.3727    2721.4575    10295.207    2716.7857   -1096.5886    4812.7197    79.411398 
   74600    285.46187   -104.96604    0.2582919   -104.70775   -5852.4194    4.3058008    4.3058008    4.3058008   -5852.4194   -10326.475   -6757.1904   -473.59294   -17424.471    478.60356   -2402.6087    79.829204 
   74700    454.91465   -105.11587   0.41161634   -104.70425    5698.6812     4.297601     4.297601     4.297601    5698.6812    14527.312   -2120.2074    4688.9388    4325.1019    1125.0611    5935.9774    79.374001 
   74800    408.50741   -105.07492   0.36962609   -104.70529   -4377.3395    4.3043142    4.3043142    4.3043142   -4377.3395   -4921.0324   -5976.6727   -2234.3134   -3740.7008   -5664.6823   -281.26256    79.746549 
   74900    355.42648   -105.02817   0.32159735   -104.70657    6.0930683    4.3009943    4.3009943    4.3009943    6.0930683    1707.1399   -1477.1708   -211.68999   -10615.075   -962.81576     2295.563    79.562167 
   75000    495.33354   -105.15276    0.4481882   -104.70458    5390.7061     4.299205     4.299205     4.299205    5390.7061    11007.547    308.85027    4855.7209     7703.132    -46.14085    7446.8506     79.46291 
   75100    295.61406   -104.97445   0.26747782   -104.70697   -8956.4183    4.3061639    4.3061639    4.3061639   -8956.4183   -12263.706   -10319.719   -4285.8295   -14610.261   -2560.3909   -1277.4439    79.849401 
   75200    434.76338   -105.09868   0.39338304   -104.70529    3822.1813     4.295638     4.295638     4.295638    3822.1813     10625.62    -2862.102     3703.026    689.21804     920.5399    5989.7509    79.265283 
   75300    453.68556   -105.11571   0.41050423    -104.7052   -6047.0405    4.3067822    4.3067822    4.3067822   -6047.0405    4358.4325   -13381.046   -9118.5075    -2091.775    875.35652    2047.2214    79.883802 
   75400    287.88533   -104.96718   0.26048469    -104.7067    4305.2929    4.2982297    4.2982297    4.2982297    4305.2929    9868.9036   -1157.3595    4204.3346   -15591.319    1150.8217    695.33405    79.408841 
   75500    522.12758   -105.17683     0.472432    -104.7044   -1961.8394    4.3013689    4.3013689    4.3013689   -1961.8394    2485.6794   -6041.1698   -2330.0278    8120.2084    2002.3952    5959.4924    79.582958 
   75600    294.50428   -104.97378   0.26647366   -104.70731   -6974.3931    4.3052311    4.3052311    4.3052311   -6974.3931   -8000.9864   -10242.944   -2679.2489   -9172.1321   -4853.7173   -1543.8842    79.797524 
   75700    415.16883   -105.08186   0.37565349   -104.70621    7145.9728     4.294107     4.294107     4.294107    7145.9728    18125.084    1631.8514    1680.9833   -6109.0345   -306.22057    3411.4091    79.180561 
   75800    497.04654   -105.15408   0.44973816   -104.70435   -14173.583    4.3111347    4.3111347    4.3111347   -14173.583   -11810.031   -19783.857   -10926.861    7699.7067   -891.93374    6103.2593    80.126241 
   75900    258.66484   -104.93926   0.23404538   -104.70521    11839.875    4.2908734    4.2908734    4.2908734    11839.875    17496.151    2640.9761    15382.497   -15162.185   -4821.7706   -1731.3859    79.001823 
   76000    481.17697   -105.13853   0.43537904   -104.70315   -11637.202    4.3105292    4.3105292    4.3105292   -11637.202   -140.25108   -20757.559   -14013.795    6117.2857   -1821.7118    8085.9834    80.092487 
   76100    350.38367   -105.02188    0.3170345   -104.70484    4439.5842    4.2949647    4.2949647    4.2949647    4439.5842    3153.9699    2941.8174    7222.9654    -6279.027   -1076.4464   -1352.4241     79.22802 
   76200    440.98351   -105.10463   0.39901115   -104.70562   -5635.6557    4.3034834    4.3034834    4.3034834   -5635.6557   -928.73352   -8521.0544   -7457.1792   -9244.5834   -2598.1987    4497.8281    79.700382 
   76300    423.65213   -105.08863   0.38332935    -104.7053   -1427.9513    4.3028446    4.3028446    4.3028446   -1427.9513    5193.3316   -9962.1883    485.00302    7119.2258   -163.62196    5050.8986    79.664897 
   76400    278.10474   -104.95821   0.25163501   -104.70658    6598.6014     4.296399     4.296399     4.296399    6598.6014    13611.379   -4523.4096    10707.835    -12775.44   -4618.4962   -1749.1701    79.307419 
   76500     511.7867   -105.16735   0.46307536   -104.70428   -8581.7694    4.3080021    4.3080021    4.3080021   -8581.7694   -2137.6085   -14362.731   -9244.9689    601.34708    1089.7053    4133.6458    79.951703 
   76600    387.69454   -105.05564   0.35079417   -104.70485    7422.9758    4.2942711    4.2942711    4.2942711    7422.9758    14874.683    730.93861    6663.3054    6519.5764   -134.73789    2833.1838    79.189642 
   76700    356.55958   -105.02801    0.3226226   -104.70539   -7414.8048    4.3071798    4.3071798    4.3071798   -7414.8048   -2914.1441   -13995.913   -5334.3568    -11429.13   -3993.1676   -1357.7751    79.905929 
   76800    453.39442   -105.11447    0.4102408   -104.70423     4119.172    4.2969085    4.2969085    4.2969085     4119.172    5186.1288    283.71181    6887.6755    9349.7292    1667.8633    6952.5112    79.335637 
   76900    326.45078   -105.00233   0.29537952   -104.70695    660.46227    4.3027258    4.3027258    4.3027258    660.46227    7553.7499   -8980.4848    3408.1217   -3765.9897    365.94163   -3374.5823    79.658295 
   77000    448.73224   -105.11158   0.40602236   -104.70556    1804.1401    4.3021783    4.3021783    4.3021783    1804.1401     14367.41    -7081.901   -1873.0891   -5653.6585   -1586.4468    5162.6305    79.627893 
   77100    435.43329   -105.09921   0.39398919   -104.70522     -802.955    4.2986078    4.2986078    4.2986078     -802.955    5580.4045   -9105.1275     1115.858    6518.1578   -605.74136    3253.6175    79.429801 
   77200    314.01543   -104.99064   0.28412776   -104.70651   -4667.3866    4.3054805    4.3054805    4.3054805   -4667.3866   -7220.0175   -11561.581    4779.4384   -10985.257   -2292.4717   -1215.3742    79.811391 
   77300    466.28838   -105.12631   0.42190752    -104.7044    6038.6994    4.2965539    4.2965539    4.2965539    6038.6994    18586.676   -432.80384   -37.773687    5027.5261    -611.0391    3721.0298    79.315997 
   77400    380.04038   -105.05039   0.34386852   -104.70653    -5889.534     4.304952     4.304952     4.304952    -5889.534   -3635.2733   -13983.566   -49.762935    4142.0726    858.51074    1683.4531    79.782005 
   77500    429.81411    -105.0943   0.38890484    -104.7054    4111.0353    4.2993897    4.2993897    4.2993897    4111.0353    14158.859   -3508.1283    1682.3751   -8420.7919   -5039.0497    61.069964     79.47315 
   77600    383.78248   -105.05299   0.34725445   -104.70574   -371.05928    4.3004368    4.3004368    4.3004368   -371.05928    9850.7849   -10238.096   -725.86685    13497.016    5572.0281    4478.4348     79.53123 
   77700    329.52186   -105.00473   0.29815831   -104.70657   -2551.8363      4.30481      4.30481      4.30481   -2551.8363     -1935.04   -12464.779      6744.31   -4366.0645    92.069214   -3189.2082    79.774108 
   77800    515.98437    -105.1708    0.4668735   -104.70392    2603.7303    4.2964913    4.2964913    4.2964913    2603.7303     11799.86   -3417.4402    -571.2284   -2699.5182    2116.0711    2404.3541    79.312534 
   77900    354.39685   -105.02731   0.32066572   -104.70665   -10269.408    4.3060958    4.3060958    4.3060958   -10269.408   -8011.6644   -18633.678   -4162.8823    8322.8218   -1.0320697    1916.7653    79.845613 
   78000    346.85086   -105.01962   0.31383795   -104.70579    10611.078    4.2970907    4.2970907    4.2970907    10611.078    21193.731    2422.8979    8216.6035   -11033.197    1886.6965   -1660.9174    79.345732 
   78100    475.45009   -105.13569   0.43019724   -104.70549   -6843.8768    4.3034592    4.3034592    4.3034592   -6843.8768   -1920.5095   -12748.118   -5863.0032    7232.0065   -1565.6765    2303.5189    79.699036 
   78200    330.34706    -105.0057   0.29890496   -104.70679    1168.6796    4.3018305    4.3018305    4.3018305    1168.6796    4286.2083   -8525.9259    7745.7564    1211.4549    477.49181    409.23761    79.608583 
   78300    483.93093   -105.14186   0.43787088   -104.70399    2151.0792    4.2979537    4.2979537    4.2979537    2151.0792     15481.04   -5664.5874    -3363.215   -4570.5379   -5952.4488    1553.3361    79.393548 
   78400    335.65174    -105.0102   0.30370474   -104.70649   -12278.072     4.306932     4.306932     4.306932   -12278.072   -15087.643   -14612.286   -7134.2875    15112.588    5888.7179    1228.0221    79.892138 
   78500     387.4919   -105.05635   0.35061082   -104.70574    11899.808    4.2946305    4.2946305    4.2946305    11899.808    18208.519    5207.5002    12283.404   -6458.4421    -2803.828   -1033.1212    79.209523 
   78600    494.04909   -105.15257     0.447026   -104.70554   -7643.9725    4.3069247    4.3069247    4.3069247   -7643.9725    4876.4641   -15607.763   -12200.618    3220.1188    2093.7477   -2196.5032    79.891734 
   78700    283.17683    -104.9636   0.25622434   -104.70737    4959.1642     4.297597     4.297597     4.297597    4959.1642    9371.9062   -1995.1592    7500.7457    9425.9428    1675.6873    2071.7111    79.373781 
   78800    507.81841   -105.16353   0.45948477   -104.70405   -3139.2387    4.3021506    4.3021506    4.3021506   -3139.2387   -821.58726    -2358.633   -6237.4957   -9613.9997    3015.5429   -4853.4006    79.626351 
   78900    326.91199   -105.00248   0.29579683   -104.70669   -7307.8926    4.3041906    4.3041906    4.3041906   -7307.8926   -3831.1112   -13029.122   -5063.4442    10101.248   -287.36211    254.87587    79.739677 
   79000    383.29753   -105.05269   0.34681566   -104.70587    7924.1673    4.2959084    4.2959084    4.2959084    7924.1673    14840.573   -87.625234     9019.554    2116.2787    1029.7804   -1601.1873    79.280254 
   79100    525.85349   -105.18024   0.47580329   -104.70443   -7790.7868    4.3075126    4.3075126    4.3075126   -7790.7868   -503.32504   -13473.132   -9395.9037   -936.03493    -2787.811    624.33205    79.924451 
   79200    226.51246   -104.91308   0.20495324   -104.70813    4085.2735    4.2960519    4.2960519    4.2960519    4085.2735    7936.9902   -464.60049    4783.4307     17833.82    2771.6277    1300.2823    79.288199 
   79300    508.02424   -105.16437   0.45967101    -104.7047   -1988.2419    4.3040538    4.3040538    4.3040538   -1988.2419    2646.0656   -3855.2988   -4755.4925   -4365.6644   -2998.7069    209.58258    79.732076 
   79400    388.13115   -105.05858   0.35118922   -104.70739   -5981.1675    4.3015162    4.3015162    4.3015162   -5981.1675   -3499.3151   -11748.314   -2695.8729    11122.728   -147.85883   -2490.2678    79.591136 
   79500    317.14693   -104.99503    0.2869612   -104.70807    1732.8008    4.2990508    4.2990508    4.2990508    1732.8008    684.27272   -2639.9986    7154.1282    10596.072    2451.0365    4343.3057    79.454362 
   79600    540.70691   -105.19344   0.48924297    -104.7042   -2516.7926    4.3056548    4.3056548    4.3056548   -2516.7926     8497.762   -6273.7692   -9774.3705   -8180.8683    2036.0824    -5791.797    79.821086 
   79700     215.6118   -104.90439   0.19509009    -104.7093    1328.5432    4.2960312    4.2960312    4.2960312    1328.5432    5913.3061   -5220.1727    3292.4961    18226.836    165.47237    787.96105    79.287052 
   79800     533.3851   -105.18902   0.48261805    -104.7064   -2880.2461    4.3066942    4.3066942    4.3066942   -2880.2461   -943.16116   -3730.3168   -3967.2603    -844.6787    2482.9171   -2798.0995    79.878907 
   79900    422.27561   -105.08976   0.38208384   -104.70768    4308.9404    4.2963755    4.2963755    4.2963755    4308.9404    11104.317   -1010.9901    2833.4944    4223.7586    1008.8566    -656.1233     79.30612 
   80000    217.41304     -104.907   0.19671989   -104.71028   -7139.6317    4.3044663    4.3044663    4.3044663   -7139.6317   -8824.2268   -12635.585    40.917244    17732.498    2017.4889    1898.0665    79.755003 
   80100    642.93855   -105.28501   0.58174431   -104.70327    3109.8195    4.3010113    4.3010113    4.3010113    3109.8195    9893.3177    2075.7408   -2639.6001    -2573.722   -1297.2346   -1278.9886     79.56311 
   80200    230.64813   -104.91868   0.20869528   -104.70998   -1959.7621    4.2992017    4.2992017    4.2992017   -1959.7621    4082.8903   -9236.9087   -725.26791    17024.372    248.65134     107.0711    79.462726 
   80300    419.05147   -105.08765   0.37916658   -104.70849    1963.5722    4.3054429    4.3054429    4.3054429    1963.5722    7318.5559   -1782.8139    354.97472    6129.3701    1793.1184    3483.2297      79.8093 
   80400    548.49863   -105.20255   0.49629309   -104.70626    5777.0346    4.2957129    4.2957129    4.2957129    5777.0346    6038.9862    4754.4993    6537.6184   -718.70336   -68.470841   -3004.6774    79.269432 
   80500     145.1094   -104.84304   0.13129804   -104.71174   -12184.975    4.3071678    4.3071678    4.3071678   -12184.975   -17097.618   -17605.448    -1851.858    20687.404   -1176.5286    749.15822     79.90526 
   80600    601.02018   -105.24848   0.54381569   -104.70467    11290.111    4.2964993    4.2964993    4.2964993    11290.111    21548.475    11496.482    825.37574   -8631.1756    470.98299   -2260.4709    79.312973 
   80700    353.74101   -105.02925    0.3200723   -104.70918   -6651.1814    4.3040442    4.3040442    4.3040442   -6651.1814   -6583.4081   -10111.953   -3258.1829    13701.441     1291.967   -2038.3749    79.731544 
   80800    319.18016   -104.99822   0.28880091   -104.70941    2646.5346    4.3016124    4.3016124    4.3016124    2646.5346     9525.575   -5944.9253     4358.954    11746.703   -293.61099    2256.8421    79.596473 
   80900     557.8637    -105.2087    0.5047668   -104.70394    6036.4994    4.2982677    4.2982677    4.2982677    6036.4994    7201.0951    8541.2338    2367.1695   -3226.8458   -1115.3816   -3859.5328    79.410949 
   81000    190.19545   -104.88259   0.17209284   -104.71049   -11520.289    4.3062673    4.3062673    4.3062673   -11520.289   -15001.236   -15251.381   -4308.2499    20478.307     1537.005    983.56589    79.855156 
   81100    566.65674   -105.21852   0.51272293    -104.7058    6475.3743    4.2965618    4.2965618    4.2965618    6475.3743    13249.031    7175.9247   -998.83316    228.09577    2481.6033    1892.3024    79.316435 
   81200    419.81124   -105.08733   0.37985403   -104.70748   -6076.2016    4.3056931    4.3056931    4.3056931   -6076.2016   -1479.8887   -12476.592   -4272.1238    5138.2058   -1311.5101   -1477.9463    79.823214 
   81300    235.28609   -104.92169   0.21289179    -104.7088     2765.697    4.2997699    4.2997699    4.2997699     2765.697    13401.632   -7499.6614    2395.1203    15062.155     118.9901    765.43121    79.494236 
   81400    551.32146   -105.20271   0.49884724   -104.70386    2203.6058    4.3006813    4.3006813    4.3006813    2203.6058    324.75046    7351.3852   -1065.3183   -10769.981    272.48707   -1768.4212    79.544799 
   81500    314.78381   -104.99379     0.284823   -104.70897    -8144.178    4.3045879    4.3045879    4.3045879    -8144.178   -2557.5199   -17561.294   -4313.7198    19614.349    285.66296   -2230.3299    79.761762 
   81600     430.6761    -105.0963   0.38968478   -104.70662    4758.2593    4.2975777    4.2975777    4.2975777    4758.2593    12008.135    4374.6194   -2107.9767   -617.88832   -895.38015    2461.0552    79.372712 
   81700     475.2398   -105.13547   0.43000696   -104.70546   -6665.1002    4.3059328    4.3059328    4.3059328   -6665.1002   -8161.8373   -7204.3653   -4629.0979    1172.3975    -1091.947   -4250.7051    79.836546 
   81800    241.30169   -104.92661   0.21833484   -104.70827    3282.3508    4.2984867    4.2984867    4.2984867    3282.3508    14860.382   -9865.5937    4852.2636    21109.843    1913.0837     1677.774    79.423086 
   81900    489.58266   -105.14762   0.44298468   -104.70463    2191.0301    4.3026317    4.3026317    4.3026317    2191.0301    8985.7468    1071.0111   -3483.6677   -8451.8463    2696.4655    69.370811     79.65307 
   82000    426.67741    -105.0924   0.38606668   -104.70633   -9685.5084     4.303516     4.303516     4.303516   -9685.5084   -8461.0713    -19019.32   -1576.1339    11749.881   -1405.3875     478.7472    79.702192 
   82100    317.31412    -104.9935   0.28711249   -104.70639    5181.5731    4.2973213    4.2973213    4.2973213    5181.5731    10007.445    5763.7863    -226.5115     8960.485    1934.6303    1611.2615    79.358505 
   82200    478.87782   -105.13836   0.43329871   -104.70506   -6609.1743    4.3068077    4.3068077    4.3068077   -6609.1743   -1785.3506   -10889.913   -7152.2595   -8596.3643    2076.3723    -1427.292     79.88522 
   82300    313.59206   -104.99119   0.28374469   -104.70744    2765.1208      4.29677      4.29677      4.29677    2765.1208    6455.7602   -9039.7165    10879.319    19384.074    49.878991   -1605.7567    79.327967 
   82400    453.12226    -105.1153   0.40999454   -104.70531    2344.3374    4.3049565    4.3049565    4.3049565    2344.3374    14914.889   -2865.6288   -5016.2485   -7154.7973    516.29068    1504.3595    79.782256 
   82500    398.12756   -105.06662   0.36023418   -104.70638   -2126.8329    4.2993848    4.2993848    4.2993848   -2126.8329    904.34172   -13460.287    6175.4463    8528.4689   -1497.0465   -3158.9187    79.472882 
   82600    341.29999   -105.01481    0.3088154     -104.706   -4037.5053    4.3032309    4.3032309    4.3032309   -4037.5053   -3750.0795   -3774.0213   -4588.4152    12369.174    2973.5511    713.92731    79.686351 
   82700    500.89341    -105.1573   0.45321889   -104.70408    3255.8601    4.3001602    4.3001602    4.3001602    3255.8601    13747.444   -4717.3674    737.50346   -8369.5543    564.28441   -2161.7846    79.515888 
   82800    314.16196    -104.9924   0.28426035   -104.70814    -4249.938    4.3031842    4.3031842    4.3031842    -4249.938   -2753.3758   -15886.235    5889.7966    17893.833   -1752.9921    1126.9648    79.683756 
   82900    443.51422   -105.10666   0.40130099   -104.70536    9577.1712    4.2992984    4.2992984    4.2992984    9577.1712    20679.297    4100.2301    3951.9867   -1282.5358    470.07876      1854.17    79.468088 
   83000    386.93339   -105.05665   0.35010546   -104.70654   -7449.4886    4.3038827    4.3038827    4.3038827   -7449.4886   -7762.4931    -16942.26     2356.287    -1645.315    1888.2741   -48.500343    79.722567 
   83100    353.88785   -105.02701   0.32020516   -104.70681   -919.37014    4.2993753    4.2993753    4.2993753   -919.37014     2769.031   -7547.7988    2020.6573    16439.495   -2635.2013   -726.20925    79.472353 
   83200    527.88493   -105.18194   0.47764138    -104.7043    942.36191    4.3028461    4.3028461    4.3028461    942.36191      8863.91   -4724.9745   -1311.8498   -9080.5134    1324.7058    860.03327    79.664979 
   83300    297.63044   -104.97723   0.26930228   -104.70793   -6621.8938    4.3023811    4.3023811    4.3023811   -6621.8938   -11914.167   -14809.001    6857.4872     12159.66    560.22279   -1910.4453    79.639153 
   83400    395.58061   -105.06361   0.35792965   -104.70568    10466.662    4.2981655    4.2981655    4.2981655    10466.662    27291.893    -308.1473    4416.2403    4939.7314    4320.3402   -92.151806    79.405282 
   83500    452.99668   -105.11612   0.40988092   -104.70624   -9450.6514    4.3066216    4.3066216    4.3066216   -9450.6514   -9396.4537    -14486.27   -4469.2302    -2206.785    1238.2866   -3701.2474    79.874866 
   83600    353.03906   -105.02693   0.31943716   -104.70749    826.10371     4.296135     4.296135     4.296135    826.10371    4962.8143   -10444.257    7959.7537    16869.114    704.73053   -2164.4167    79.292803 
   83700    476.77012   -105.13558   0.43139162   -104.70419   -657.24263    4.3058891    4.3058891    4.3058891   -657.24263    9387.9664   -5130.8259   -6228.8684   -5900.5197    2478.5987    1212.6396    79.834116 
   83800    314.07085   -104.99144    0.2841779   -104.70726   -3343.1488    4.2991074    4.2991074    4.2991074   -3343.1488   -7584.2792   -13503.107     11057.94     9596.092   -888.68294   -1025.3495    79.457499 
   83900    401.97936   -105.07006   0.36371937   -104.70634    1174.2716    4.3023424    4.3023424    4.3023424    1174.2716    14119.004   -10662.692    66.502726    7783.5181   -2987.3998     677.2887    79.637003 
   84000    453.69952   -105.11576   0.41051686   -104.70525    2285.1776    4.3025467    4.3025467    4.3025467    2285.1776    12287.145   -1405.6563   -4025.9558   -5557.6004   -1745.0048    212.30106    79.648348 
   84100    354.94944   -105.02853   0.32116571   -104.70736   -5961.7144    4.2994452    4.2994452    4.2994452   -5961.7144   -5956.9249   -17882.075     5953.857    13975.245    1364.8749    536.03642    79.476231 
   84200    424.68638    -105.0891   0.38426516   -104.70484   -921.23613    4.3049448    4.3049448    4.3049448   -921.23613    4815.6857   -3618.2945   -3961.0995   -680.47727   -1769.3925    1564.3397    79.781605 
   84300    356.74598   -105.02944   0.32279126   -104.70665    3083.1841    4.2972164    4.2972164    4.2972164    3083.1841    7946.5854   -9728.6471    11031.614    4138.9225    2215.3562   -1066.8416    79.352693 
   84400     421.6478   -105.08814   0.38151579   -104.70662   -8178.4628    4.3057284    4.3057284    4.3057284   -8178.4628   -6152.2105   -18287.699   -95.479016    11334.187   -338.98511   -2873.4917    79.825175 
   84500    440.35155   -105.10274   0.39843933    -104.7043    9527.0917     4.299238     4.299238     4.299238    9527.0917    25977.706    6542.0747   -3938.5056   -2248.1484    4584.0963    1096.2572    79.464738 
   84600    338.60876   -105.01364   0.30638033   -104.70726   -9468.4552    4.3016969    4.3016969    4.3016969   -9468.4552   -10192.098   -23472.862    5259.5948    14191.213   -2834.2337   -2994.7813    79.601162 
   84700    415.61808   -105.08192   0.37605997   -104.70586   -374.73333    4.3036338    4.3036338    4.3036338   -374.73333    1895.4925   -1876.5532   -1143.1393   -636.64681    759.29264    1211.8064     79.70874 
   84800     441.2458    -105.1051   0.39924847   -104.70585    3186.1283    4.2981912    4.2981912    4.2981912    3186.1283    11587.936   -7984.7222    5955.1708     4555.016   -1468.5787   -1263.5609     79.40671 
   84900    351.46657   -105.02616   0.31801434   -104.70814   -9410.5712    4.3050414    4.3050414    4.3050414   -9410.5712   -11030.619   -20781.861    3580.7665    10183.723     1743.294    722.57318    79.786974 
   85000    453.95964   -105.11497   0.41075223   -104.70422    8259.3824    4.2985703    4.2985703    4.2985703    8259.3824     25846.97    5669.0754   -6737.8985   -4005.8359   -5713.3855    3171.7734    79.427721 
   85100    367.86565   -105.03921   0.33285257   -104.70636   -10835.354    4.3040029    4.3040029    4.3040029   -10835.354   -12374.673    -24060.58    3929.1917    10791.616    2525.5015    2477.9652    79.729247 
   85200    391.77181   -105.06117   0.35448337   -104.70668    2670.3116    4.3005067    4.3005067    4.3005067    2670.3116    10117.677   -2732.5046    625.76264    4281.9052   -2576.7374    676.75731    79.535109 
   85300     468.2449   -105.12894   0.42367783   -104.70527    605.64993     4.301075     4.301075     4.301075    605.64993     7167.123   -6563.3217    1213.1485    2379.7398    1729.4064    2613.7517    79.566648 
   85400    307.99443   -104.98661   0.27867983   -104.70793   -8442.2686    4.3036676    4.3036676    4.3036676   -8442.2686   -11407.714   -18790.941    4871.8494    12471.495    -4058.416   -1123.3465    79.710613 
   85500    443.96246   -105.10678   0.40170656   -104.70507    8726.8969    4.2981048    4.2981048    4.2981048    8726.8969    29702.962    1909.5658   -5431.8375    -3447.406    863.42746    2127.4778     79.40192 
   85600     407.3279   -105.07502   0.36855885   -104.70646   -6527.4744    4.3054067    4.3054067    4.3054067   -6527.4744   -4012.8033   -17600.494    2030.8746    12698.805    77.874238   -1708.5463    79.807285 
   85700    370.18466   -105.04187   0.33495086   -104.70692    2195.5341    4.2986715    4.2986715    4.2986715    2195.5341    5397.1294   -4835.2971    6024.7698    764.37863   -589.64351   -2487.5869    79.433329 
   85800    431.15853   -105.09399    0.3901213   -104.70386    588.70106    4.3033352    4.3033352    4.3033352    588.70106    11605.642   -5720.7323   -4118.8062    -843.5913    -3313.388    826.80181    79.692145 
   85900    319.28421   -104.99638   0.28889507   -104.70748   -4461.2663    4.3011591    4.3011591    4.3011591   -4461.2663   -6084.8192   -14741.322     7442.342    13916.627    2611.7946   -312.79063    79.571315 
   86000    483.58204   -105.14365   0.43755519   -104.70609    1463.9238    4.3006842    4.3006842    4.3006842    1463.9238    13822.255   -4873.2729   -4557.2111   -5630.8284   -4168.5907    1958.3157    79.544958 
   86100    384.36849   -105.05392   0.34778469   -104.70613    2521.6217     4.304397     4.304397     4.304397    2521.6217    15123.451   -10231.367    2672.7809    9598.2312   -2049.6639    734.17216    79.751151 
   86200    346.52424   -105.02128   0.31354242   -104.70774   -3621.8864     4.297692     4.297692     4.297692   -3621.8864   -10797.141   -12377.443    12308.924    8835.9605   -2625.3613    1218.6114    79.379044 
   86300    458.86593   -105.11988   0.41519153   -104.70469   -3220.4955     4.306258     4.306258     4.306258   -3220.4955    4637.8168   -6348.4009   -7950.9025   -4391.9195   -2035.3685    2434.1209    79.854635 
   86400    325.49385   -105.00142   0.29451368    -104.7069     2355.831    4.2981163    4.2981163    4.2981163     2355.831    6471.2292   -8124.6696    8720.9335    17611.119    1578.7332    1764.0045     79.40256 
   86500    487.60374   -105.14737   0.44119411   -104.70618   -6819.5056    4.3031031    4.3031031    4.3031031   -6819.5056   -5338.7065   -11392.971   -3726.8391   -6948.4631   -3190.4183   -1857.3519    79.679255 
   86600    401.17075   -105.06772   0.36298773   -104.70473    7401.7852     4.302477     4.302477     4.302477    7401.7852     23199.77     -4562.18    3567.7659    8584.2605    1541.2846    14.004566    79.644479 
   86700    292.84591    -104.9728   0.26497313   -104.70783   -3261.5887    4.2983193    4.2983193    4.2983193   -3261.5887   -6714.2186   -15088.023    12017.476    7803.4216    1969.2197    -1942.084    79.413807 
   86800    492.05857   -105.15003   0.44522493   -104.70481   -4262.8834    4.3068034    4.3068034    4.3068034   -4262.8834    839.43681   -5631.3294   -7996.7576   -9324.6312   -2384.8697    243.57765    79.884981 
   86900    379.78651   -105.05021   0.34363882   -104.70657    6713.3649    4.2957936    4.2957936    4.2957936    6713.3649     14424.12   -2741.2837    8457.2581    18481.031   -1566.1281   -1539.5678    79.273899 
   87000    401.95262   -105.07131   0.36369518   -104.70762   -10313.523    4.3069305    4.3069305    4.3069305   -10313.523   -6345.7368   -19190.302   -5404.5295   -3792.6649    457.84919   -635.67585    79.892056 
   87100    438.20415   -105.10059   0.39649633    -104.7041    11569.643    4.2977347    4.2977347    4.2977347    11569.643    24004.337    6393.4882     4311.104    1174.5386   -2645.8305    624.08268    79.381412 
   87200     297.7545   -104.97664   0.26941453   -104.70722    -4077.839     4.302561     4.302561     4.302561    -4077.839   -1374.8273   -17474.405    6615.7151    17491.918    102.06486      2430.37    79.649145 
   87300    462.91441   -105.12405   0.41885469    -104.7052   -547.52102    4.3033435    4.3033435    4.3033435   -547.52102    7728.7319   -7252.3329   -2118.9621   -13036.662   -3785.9173    578.35654    79.692609 
   87400    418.48604   -105.08396   0.37865496    -104.7053    3342.3613    4.2979131    4.2979131    4.2979131    3342.3613     7798.583   -4345.8543    6574.3553    15805.441    954.57936    1269.8995    79.391298 
   87500    345.29227   -105.01991    0.3124277   -104.70748   -7790.3335     4.305695     4.305695     4.305695   -7790.3335   -3665.2377   -16333.161   -3372.6024    -1341.721     469.3007   -462.65902    79.823321 
   87600    445.92095   -105.10823   0.40347864   -104.70475    8372.1259    4.2983705    4.2983705    4.2983705    8372.1259    21177.071     3842.226    97.081131   -5512.5024    -3627.258    708.24118    79.416645 
   87700     357.4647   -105.03063   0.32344157   -104.70719   -2683.8838    4.3027984    4.3027984    4.3027984   -2683.8838    2164.8182   -16684.458    6467.9882    17366.263    1463.1133   -369.24356    79.662326 
   87800    416.41422   -105.08273   0.37678034   -104.70595   -1599.0349    4.3017932    4.3017932    4.3017932   -1599.0349    1444.2856   -8584.8318    2343.4413   -14643.778    959.23919   -1257.3537    79.606512 
   87900    420.62744   -105.08504   0.38059254   -104.70444    661.06237    4.3009467    4.3009467    4.3009467    661.06237    7039.6197    -7109.607    2053.1744    12314.366    704.10707   -1778.2619    79.559524 
   88000    328.23407   -105.00364   0.29699308   -104.70665   -1765.4779    4.3019603    4.3019603    4.3019603   -1765.4779    2241.2442   -10012.822     2475.144    5420.2229   -101.22242   -479.06138    79.615785 
   88100    489.39321   -105.14803   0.44281326   -104.70521   -545.42334    4.3019095    4.3019095    4.3019095   -545.42334    7629.3018   -6234.5262   -3031.0456   -14093.126    437.18515   -159.23855    79.612968 
   88200    375.52623   -105.04596   0.33978402   -104.70618    5378.8271    4.3004392    4.3004392    4.3004392    5378.8271    18236.265   -8356.8794    6257.0951    20691.213    444.86136    247.95569    79.531363 
   88300    358.25856   -105.03091   0.32415988   -104.70675   -5168.2403    4.3031869    4.3031869    4.3031869   -5168.2403   -11853.487   -7149.9163    3498.6818   -13179.175    206.68354   -1278.7426    79.683907 
   88400    466.97778   -105.12718   0.42253131   -104.70465    639.89272    4.2998754    4.2998754    4.2998754    639.89272    6889.9782   -6642.7825    1672.4825    599.76092   -4298.4359    695.39738    79.500089 
   88500    306.49176   -104.98367   0.27732018   -104.70635    379.08175    4.3030977    4.3030977    4.3030977    379.08175    10290.379   -11645.817    2492.6836    10992.674    534.15907    333.58707    79.678953 
   88600    511.27364   -105.16757   0.46261113   -104.70496   -5892.2415     4.301374     4.301374     4.301374   -5892.2415   -6484.3943   -8728.6792    -2463.651   -19205.327   -468.34849    852.99193    79.583241 
   88700    387.75746   -105.05634    0.3508511   -104.70549    8552.6209    4.2999236    4.2999236    4.2999236    8552.6209    23462.046   -2387.4346    4583.2518    15702.846    137.32077   -1193.7618     79.50276 
   88800     296.1945   -104.97556   0.26800301   -104.70756   -5395.2834    4.3043809    4.3043809    4.3043809   -5395.2834   -8012.4615   -10439.108     2265.719   -8252.9667   -856.82191   -321.97666    79.750258 
   88900    526.85915    -105.1814   0.47671323   -104.70469   -761.89763    4.2988149    4.2988149    4.2988149   -761.89763    2568.2816   -7283.1649    2429.1904   -5904.5274    1735.7122   -1239.9963    79.441278 
   89000    313.22323   -104.98999   0.28341096   -104.70658    2246.5992    4.3032279    4.3032279    4.3032279    2246.5992    10697.683   -7175.8989    3218.0138    14394.945    2508.3896    1446.2162    79.686185 
   89100    415.23952   -105.08231   0.37571744    -104.7066   -4910.7004    4.3016737    4.3016737    4.3016737   -4910.7004    -591.3923   -12267.294   -1873.4148   -20918.973   -779.36936    -1868.832    79.599877 
   89200    472.44276   -105.13155   0.42747614   -104.70407    4642.1768    4.3003126    4.3003126    4.3003126    4642.1768    14467.674    -2986.586    2445.4419    11022.619   -1185.0306   -215.30691    79.524344 
   89300    283.83661   -104.96389   0.25682133   -104.70707   -2173.3493    4.3034443    4.3034443    4.3034443   -2173.3493    3541.6061   -11842.028    1780.3737   -2806.7324    692.53463   -712.87927    79.698206 
   89400    466.98215   -105.12828   0.42253527   -104.70575   -308.19821    4.2994763    4.2994763    4.2994763   -308.19821    3484.8803   -6955.3957    2545.9208   -16433.882    1190.2267    927.52838    79.477952 
   89500     406.1864   -105.07291   0.36752599   -104.70538   -81.974387    4.3033171    4.3033171    4.3033171   -81.974387    171.68238   -3546.9763    3129.3708    16703.687   -1652.3382   -167.69013    79.691144 
   89600    309.56396   -104.98746   0.28009998   -104.70736   -3282.4694    4.3007248    4.3007248    4.3007248   -3282.4694    5704.6588   -16851.236    1299.1692   -18794.976    752.85343    -182.4902    79.547214 
   89700    520.05654   -105.17504   0.47055809   -104.70448    1358.6532    4.3010238    4.3010238    4.3010238    1358.6532    10582.057   -3802.1633   -2703.9342    1729.2843   -97.480713   -1640.1317    79.563803 
   89800    335.25058   -105.01018   0.30334177   -104.70684   -1128.6634    4.3036743    4.3036743    4.3036743   -1128.6634    6711.5368   -10984.981     887.4539    3385.6931    2286.1969    1572.7562    79.710989 
   89900    377.93817   -105.04922    0.3419664   -104.70725   -1424.5003    4.2983474    4.2983474    4.2983474   -1424.5003   -1246.4972   -10461.894    7434.8902   -19986.662   -2529.9958   -273.17268    79.415364 
   90000    491.10607   -105.14898   0.44436309   -104.70461   -337.81388    4.3049032    4.3049032    4.3049032   -337.81388    4579.0523    -4633.761   -958.73299    11933.661   -203.91017   -5.5227802    79.779289 
   90100    258.93546   -104.94265   0.23429025   -104.70836   -1479.6901    4.2992392    4.2992392    4.2992392   -1479.6901     4486.093   -14685.808    5760.6445   -16997.014   -34.745923   -939.78432    79.464808 
   90200    520.08272   -105.17617   0.47058178   -104.70559   -2590.2133    4.3026804    4.3026804    4.3026804   -2590.2133     6173.486   -6610.2308   -7333.8952   -5331.7664    2211.9083   -74.927843    79.655776 
   90300    412.39723   -105.07905   0.37314568    -104.7059    3492.0921     4.301544     4.301544     4.301544    3492.0921    19635.639   -10923.819    1764.4565    4765.3481   -1980.7094    1012.2764    79.592678 
   90400    285.58834   -104.96757   0.25840633   -104.70916   -8036.9334    4.3011525    4.3011525    4.3011525   -8036.9334   -13622.133   -16870.121    6381.4539   -23223.319     2203.747   -672.07656    79.570945 
   90500    559.93577   -105.21124   0.50664166    -104.7046    4712.3371    4.3021242    4.3021242    4.3021242    4712.3371    14230.366    325.69349   -419.04808    9564.0566    914.91602   -1951.2145    79.624885 
   90600    231.14752   -104.91906   0.20914713   -104.70991   -2338.5403    4.3011886    4.3011886    4.3011886   -2338.5403    4504.7086   -18184.423    6664.0938   -13319.022    1514.7325   -919.69789    79.572949 
   90700    469.09857   -105.13231   0.42445024   -104.70786   -4987.1298    4.3025466    4.3025466    4.3025466   -4987.1298    539.19422   -11712.248   -3788.3362    -12844.36   -2244.0371   -435.64853    79.648344 
   90800    506.44731   -105.16347   0.45824417   -104.70523    5751.5033    4.3005852    4.3005852    4.3005852    5751.5033    24336.993   -6337.0319   -745.45089    5618.6839   -2227.4694   -665.26243    79.539464 
   90900    174.26096    -104.8682   0.15767498   -104.71053   -8490.9755     4.302956     4.302956     4.302956   -8490.9755   -8816.4557   -20613.177    3956.7065   -23409.711    438.53687   -1151.8224    79.671081 
   91000     629.3461   -105.27406   0.56944557   -104.70462    4401.5802    4.3005097    4.3005097    4.3005097    4401.5802    14080.234   -2427.8272    1552.3341    3050.5171   -1049.6695   -2098.4155    79.535275 
   91100    257.37952   -104.94305    0.2328824   -104.71017   -2131.5777    4.3029195    4.3029195    4.3029195   -2131.5777    4742.5711   -17793.125     6655.821   -12295.888   -616.58042    1782.0424    79.669056 
   91200    336.78472   -105.01533   0.30472989    -104.7106   -259.07336    4.3005683    4.3005683    4.3005683   -259.07336    4151.7176   -10369.147    5440.2096   -13169.139    1869.4332   -401.00173    79.538529 
   91300    635.98448   -105.27951   0.57545213   -104.70406   -634.22265    4.3038256    4.3038256    4.3038256   -634.22265    14373.379   -8106.4748    -8169.572    2977.4724    3700.3275    1055.6593    79.719396 
   91400    126.85959   -104.82466   0.11478523   -104.70988   -3011.5184    4.3005132    4.3005132    4.3005132   -3011.5184    4405.4754   -19948.979    6508.9484   -23462.192   -698.25908   -585.86318    79.535471 
   91500    590.14503   -105.23943   0.53397562   -104.70545   -753.16685    4.3020456    4.3020456    4.3020456   -753.16685    5910.5703    -8425.849     255.7782    3458.1868    38.807259    653.51972    79.620525 
   91600    350.34588    -105.0253   0.31700032    -104.7083   -1862.7185    4.3029753    4.3029753    4.3029753   -1862.7185   -440.15251   -10515.234    5367.2315   -12132.428   -2804.7755    828.89649    79.672155 
   91700    257.88559   -104.94364    0.2333403    -104.7103    2079.8125    4.2997133    4.2997133    4.2997133    2079.8125    7075.3041    -13421.12    12585.253   -14673.396    703.21462   -186.90111    79.491096 
   91800    649.01231   -105.29104   0.58723998    -104.7038   -3559.4838    4.3046049    4.3046049    4.3046049   -3559.4838    10258.892   -9149.1259   -11788.218    5313.9362    -3989.238   -2650.0034    79.762707 
   91900    199.71018   -104.88947   0.18070197   -104.70877   -34.604116    4.3002376    4.3002376    4.3002376   -34.604116    6890.7621   -14317.173    7322.5983   -21780.282   -78.477195    694.54251    79.520178 
   92000    495.43095   -105.15419   0.44827634   -104.70592   -2902.0819    4.3032629    4.3032629    4.3032629   -2902.0819    3669.4648   -13626.653    1250.9431    1377.1447    1170.1928   -2574.8704    79.688131 
   92100    418.18438    -105.0841   0.37838201   -104.70572     1559.097    4.3013196    4.3013196    4.3013196     1559.097    7683.7401   -7830.3943    4823.9452     -8263.15    3508.5829    1801.5564    79.580219 
   92200    276.60607   -104.95847   0.25027899   -104.70819   -713.70847    4.3019701    4.3019701    4.3019701   -713.70847    3347.4364   -16139.784    10651.222   -14642.304   -652.91725   -1906.8373     79.61633 
   92300    564.30563   -105.21474    0.5105956   -104.70415   -1006.6541    4.3024704    4.3024704    4.3024704   -1006.6541    12553.089   -6728.6289   -8844.4229    8684.1042    948.92116    498.36722     79.64411 
   92400    291.78681   -104.97132   0.26401483    -104.7073    1865.8588     4.301216     4.301216     4.301216    1865.8588    11461.634    -11153.42     5289.363   -20644.707   -426.11951    1125.2997    79.574472 
   92500    439.20057   -105.10405    0.3973979   -104.70665   -3856.2826    4.3025675    4.3025675    4.3025675   -3856.2826   -1096.7861   -15008.625    4536.5633    3693.4197   -467.68272    1206.9883    79.649507 
   92600    424.58714   -105.08938   0.38417537    -104.7052   -1625.3265    4.3028625    4.3028625    4.3028625   -1625.3265    8604.6515   -11756.471   -1724.1603   -2902.6107   -4062.9834   -360.46421    79.665891 
   92700     290.7083   -104.96968   0.26303898   -104.70664    121.19758     4.300801     4.300801     4.300801    121.19758    6166.0563    -13841.99     8039.526   -16395.658   -1246.6195    666.67107    79.551441 
   92800    501.99586   -105.15885    0.4542164   -104.70464   -4275.1605    4.3033056    4.3033056    4.3033056   -4275.1605    1212.4972   -8074.6133   -5963.3655    10977.586    1211.5421   -3292.4436    79.690502 
   92900    379.66426   -105.04932    0.3435282   -104.70579    975.75709    4.3017942    4.3017942    4.3017942    975.75709    12033.362   -11931.292    2825.2022   -13571.417   -146.85057    2638.5389    79.606568 
   93000    364.30619   -105.03545    0.3296319   -104.70581   -105.82723    4.3014447    4.3014447    4.3014447   -105.82723    5703.9054   -11772.681    5751.2943   -1160.8393    664.81533   -3806.9334    79.587163 
   93100    420.49654   -105.08581   0.38047411   -104.70533   -5200.4105    4.3028777    4.3028777    4.3028777   -5200.4105    1852.2473   -11637.717   -5815.7621    5855.8981    406.34361   -526.24624    79.666735 
   93200    369.06672   -105.03988   0.33393932   -104.70594   -191.74352    4.3020201    4.3020201    4.3020201   -191.74352    6395.8393    -11195.23    4224.1597   -14195.949    1247.3011   -138.08384    79.619106 
   93300    416.41719   -105.08271   0.37678302   -104.70592   -1369.2895    4.3015599    4.3015599    4.3015599   -1369.2895    7959.2749   -10564.992    -1502.151    12812.136   -1849.6177   -345.60055    79.593561 
   93400    453.30127   -105.11521   0.41015652   -104.70505   -2382.0176    4.3029986    4.3029986    4.3029986   -2382.0176    5818.7276   -12752.377   -212.40378   -8559.1812   -2079.9866    2963.7376    79.673448 
   93500    337.15045   -105.01036   0.30506081    -104.7053    3643.3293    4.3019009    4.3019009    4.3019009    3643.3293    10630.787    -5671.186    5970.3864   -1596.3722   -219.86331   -1109.8574    79.612492 
   93600    379.04402   -105.04909   0.34296699   -104.70612   -2275.3483     4.300713     4.300713     4.300713   -2275.3483    8342.3072   -12925.675   -2242.6769    11057.355    2365.5617    537.12567    79.546558 
   93700    480.70931   -105.13956   0.43495589   -104.70461   -3302.8048    4.3047243    4.3047243    4.3047243   -3302.8048    2556.3538   -12254.901   -209.86673   -11937.109   -1206.3161    2909.8546    79.769342 
   93800     364.8541   -105.03661   0.33012766   -104.70649    2868.7139    4.2976633    4.2976633    4.2976633    2868.7139    10901.952   -5747.3357     3451.525    9617.3642    2394.0458   -2006.4541    79.377453 
   93900    400.36441   -105.06936   0.36225813    -104.7071   -7397.4145    4.3075082    4.3075082    4.3075082   -7397.4145    4483.4431   -18588.911    -8086.776    2765.2906    1179.8214    1523.9739    79.924209 
   94000    381.09289   -105.04995   0.34482085   -104.70513    12894.564     4.296771     4.296771     4.296771    12894.564    19005.117     4879.988    14798.586   -5252.7133    967.97518    -1431.796    79.328024 
   94100    389.08849   -105.05895   0.35205544   -104.70689   -9968.6684    4.3054747    4.3054747    4.3054747   -9968.6684    -7846.004   -21234.845   -825.15616    13703.697   -3155.1785   -567.09206     79.81107 
   94200    456.05492   -105.11704   0.41264808   -104.70439    3053.1392    4.3015958    4.3015958    4.3015958    3053.1392    16903.359   -4615.2773   -3128.6642   -6494.4365   -3245.9638    4335.5819    79.595554 
   94300    346.50186   -105.01909   0.31352216   -104.70556    2627.1928    4.2990241    4.2990241    4.2990241    2627.1928    6575.3018   -4778.8279    6085.1044     8414.085   -987.22531   -3695.9001     79.45288 
   94400     384.3579   -105.05516   0.34777511   -104.70739   -12363.543    4.3071602    4.3071602    4.3071602   -12363.543   -3892.1506   -23443.568   -9754.9094    5781.7333    681.30429    3961.9396    79.904839 
   94500    458.75166   -105.11961   0.41508814   -104.70452    15723.267    4.2956909    4.2956909    4.2956909    15723.267    26871.778    5808.5362    14489.488   -4913.1433   -1642.3854    1225.4225    79.268214 
   94600    349.08147   -105.02372   0.31585625   -104.70787   -11402.649    4.3080946    4.3080946    4.3080946   -11402.649   -5910.5059   -22136.847   -6160.5938    14066.776    4090.0054    850.68017    79.956854 
   94700      413.069   -105.07879   0.37375352   -104.70504    4626.3293    4.2983564    4.2983564    4.2983564    4626.3293    17421.964   -1293.2074   -2249.7686   -1562.9145    1669.3446    4023.9869    79.415862 
   94800    445.15754   -105.10692   0.40278789   -104.70414    1560.2336     4.302913     4.302913     4.302913    1560.2336    5370.8733   -6163.6696     5473.497     3059.105    2260.8351   -1750.7762    79.668691 
   94900    318.29046   -104.99612   0.28799589   -104.70812   -8050.1202    4.3041912    4.3041912    4.3041912   -8050.1202    5155.0015   -24668.272   -4637.0897    11440.789   -2591.5886    3100.5617     79.73971 
   95000    458.47286   -105.11948   0.41483587   -104.70464    12360.861    4.2977173    4.2977173    4.2977173    12360.861    26144.465    6301.8522    4636.2667   -2721.9665   -2929.8412    4561.7071    79.380446 
   95100    412.55945   -105.08053   0.37329246   -104.70724   -11771.808    4.3069313    4.3069313    4.3069313   -11771.808    -8802.149     -18305.4   -8207.8756    11693.232   -2079.6978   -2282.0354    79.892098 
   95200    286.11877   -104.96775   0.25888627   -104.70886    4153.9689    4.2981316    4.2981316    4.2981316    4153.9689    23210.262   -9067.9823   -1680.3729    1708.5586   -2466.7996     6692.372    79.403402 
   95300    543.64517   -105.19625   0.49190157   -104.70434    3550.9217    4.3044038    4.3044038    4.3044038    3550.9217    8473.8741    -4778.507    6957.3979    2947.9442    -3598.245   -1201.5336     79.75153 
   95400     303.5577   -104.98375   0.27466539   -104.70908   -7843.7207    4.3021883    4.3021883    4.3021883   -7843.7207   -7333.7942   -17442.775    1245.4075    12506.482    4296.5397    5896.5398    79.628446 
   95500    390.87486   -105.06082   0.35367179   -104.70715    3758.8093    4.2998782    4.2998782    4.2998782    3758.8093    21009.061   -2795.1234   -6937.5095   -4545.4804    1795.4065    1592.3898    79.500246 
   95600    507.55049   -105.16449   0.45924235   -104.70525    -9638.028    4.3070543    4.3070543    4.3070543    -9638.028   -8033.5913   -17359.915   -3520.5783    8325.9955    4260.6276   -719.66429    79.898943 
   95700    233.28687   -104.92029   0.21108286    -104.7092    4093.6166    4.2951902    4.2951902    4.2951902    4093.6166      14921.6   -6837.1023    4196.3523    7398.6876   -831.10558    6391.9977    79.240497 
   95800    556.47571   -105.20799   0.50351092   -104.70448   -5134.9507    4.3097244    4.3097244    4.3097244   -5134.9507   -3117.9447   -7919.4659   -4367.4416   -2327.0424    1194.4793    894.98814    80.047632 
   95900    344.14891   -105.01853   0.31139317   -104.70714    4540.4767    4.2951307    4.2951307    4.2951307    4540.4767     3242.477    -4192.815    14571.768    9811.7665   -1707.4683    1979.3511    79.237204 
   96000    294.31663   -104.97482   0.26630388   -104.70851   -5592.7101    4.3073189    4.3073189    4.3073189   -5592.7101    13470.763   -18012.184   -12236.709    67.096671   -2195.5273    5489.0729    79.913669 
   96100    577.48961    -105.2263   0.52252473   -104.70377    4923.4604    4.2994959    4.2994959    4.2994959    4923.4604   -4013.8122   -71.056894     18855.25    3907.9185    -4812.032   -171.48571     79.47904 
   96200    248.97909   -104.93388   0.22528151    -104.7086    -2232.935    4.3016771    4.3016771    4.3016771    -2232.935    3914.8515   -8690.5497    -1923.107    6934.3148    3742.0331    9635.9037    79.600064 
   96300    476.58995   -105.13672    0.4312286   -104.70549   -7164.0795    4.3057947    4.3057947    4.3057947   -7164.0795    1980.8641   -14029.386   -9443.7166   -4641.7529   -1882.7019   -2750.8922    79.828868 
   96400    418.85857   -105.08398   0.37899204   -104.70499     10542.56    4.2958403    4.2958403    4.2958403     10542.56    4070.4484    2305.8631    25251.367    6425.4699    4374.4078    2312.0414    79.276483 
   96500    282.34273   -104.96357   0.25546963    -104.7081   -7963.5983    4.3091105    4.3091105    4.3091105   -7963.5983    2368.0761   -16277.114   -9981.7572    3449.5101   -582.45664    5689.9717    80.013431 
   96600     548.1752   -105.19935   0.49600044   -104.70335    8837.5138    4.2962083    4.2962083    4.2962083    8837.5138   -650.54075    2345.9313    24817.151   -5159.7792    4006.4155   -4298.7457    79.296858 
   96700    354.75417   -105.02713   0.32098903   -104.70614    -7428.219    4.3058782    4.3058782    4.3058782    -7428.219   -1168.0783   -14529.519   -6587.0598    5465.4651   -215.09837    4819.6238    79.833512 
   96800    345.01746   -105.01914   0.31217904   -104.70696   -2825.6977    4.3014924    4.3014924    4.3014924   -2825.6977    4872.9701    -10480.54   -2869.5227   -2779.6592    139.47364    3798.9045     79.58981 
   96900    454.86932   -105.11586   0.41157532   -104.70428    8105.1124    4.3004384    4.3004384    4.3004384    8105.1124   -2132.7603     4879.265    21568.832    478.70419   -3803.1628    412.63921    79.531322 
   97000    374.42699   -105.04608   0.33878941   -104.70729   -8651.3887    4.3052454    4.3052454    4.3052454   -8651.3887   -739.19892   -13796.944   -11418.023    3718.1227    1847.2687    12544.303    79.798319 
   97100     411.5209   -105.07828   0.37235276   -104.70593    5979.6475     4.298412     4.298412     4.298412    5979.6475    1746.4961   -5001.4454    21193.892   -6929.4305   -2321.2512   -4582.2536    79.418946 
   97200    412.57169   -105.07858   0.37330354   -104.70527    -1286.643    4.3054616    4.3054616    4.3054616    -1286.643   -3040.1757   -1654.3004    834.54715    3732.4444    237.72048    8762.9403    79.810338 
   97300    318.15144   -104.99494   0.28787011   -104.70707   -1646.2728    4.3006482    4.3006482    4.3006482   -1646.2728    6046.3281   -8757.6662   -2227.4803    2011.1635   -1190.1484    4081.4753    79.542964 
   97400    477.87046   -105.13678   0.43238723   -104.70439    35.950337      4.30173      4.30173      4.30173    35.950337   -5367.8229   -4812.6545    10288.328   -7199.9104    774.28361    -7436.898    79.603003 
   97500    426.42109   -105.09145   0.38583477   -104.70561   -7395.0295    4.3046941    4.3046941    4.3046941   -7395.0295   -3761.0556   -9579.5491   -8844.4837    4023.3571    1204.0075    9908.7495    79.767666 
   97600    288.36649   -104.96785   0.26092006   -104.70693     8907.865    4.2980285    4.2980285    4.2980285     8907.865    5800.7398    1014.9114    19907.944   -4295.7664   -1184.4177   -1213.9596    79.397688 
   97700    508.40165   -105.16448    0.4600125   -104.70447   -4741.9689    4.3070964    4.3070964    4.3070964   -4741.9689   -5818.3049   -6588.7183   -1818.8834   -1970.9882    30.111506   -435.31403    79.901288 
   97800    354.95731   -105.02742   0.32117283   -104.70624    4936.3132    4.2973316    4.2973316    4.2973316    4936.3132    12564.203   -8915.4457    11160.182    2418.4422     1536.594    12660.707    79.359078 
   97900    392.60571   -105.06076    0.3552379   -104.70553   -5410.6464    4.3063434    4.3063434    4.3063434   -5410.6464    -9677.644   -5800.3615   -753.93361   -11088.733    825.71409   -5322.9993    79.859386 
   98000    434.53271    -105.0972   0.39317433   -104.70402    1087.7752    4.3003415    4.3003415    4.3003415    1087.7752    955.07189    3484.0249   -1175.7711    3117.9243   -1218.8352    13239.806    79.525944 
   98100    343.66187   -105.01718   0.31095248   -104.70623   -355.84791    4.3014104    4.3014104    4.3014104   -355.84791    4463.9349   -11330.448    5798.9692   -2223.5364     1106.535    3291.3711    79.585259 
   98200    477.29432   -105.13727   0.43186593    -104.7054   -4453.5753    4.3047606    4.3047606    4.3047606   -4453.5753   -9513.0613   -5149.8362    1302.1716   -7940.5354   -1724.3699   -5182.2433    79.771362 
   98300     328.4554    -105.0036   0.29719335    -104.7064    8739.1491    4.2986966    4.2986966    4.2986966    8739.1491    12427.643    1090.6425    12699.162    2287.6405    670.64435    15685.081    79.434724 
   98400    419.78893   -105.08564   0.37983384    -104.7058   -9767.1559    4.3062574    4.3062574    4.3062574   -9767.1559   -9403.9338   -8871.8845    -11025.65   -4290.3617   -2708.4455   -7942.5151    79.854605 
   98500     444.9518   -105.10678   0.40260174   -104.70417    2861.0524    4.2996881    4.2996881    4.2996881    2861.0524    5600.4942   -2403.7688    5386.4318   -2701.2055   -1407.9287    3258.3412    79.489698 
   98600    367.86952    -105.0383   0.33285608   -104.70544   -3254.4638    4.3037567    4.3037567    4.3037567   -3254.4638    783.13772   -7412.3315   -3134.1975    2910.3167    544.10657    9792.4194    79.715568 
   98700    388.18497    -105.0562   0.35123792   -104.70496   -622.97154    4.3021501    4.3021501    4.3021501   -622.97154   -7441.7638    4808.0385     764.8107   -12757.046    124.73964    -7113.673    79.626324 
   98800    404.21505   -105.07151   0.36574227   -104.70577    3119.2067    4.3006073    4.3006073    4.3006073    3119.2067    7446.2162   -6463.0311     8374.435    4109.2233     435.6503    13684.189    79.540691 
   98900    454.76447   -105.11736   0.41148045   -104.70588   -7981.6757    4.3046726    4.3046726    4.3046726   -7981.6757   -8127.3472   -8801.2208    -7016.459   -5747.9287    1998.0152    1230.4287    79.766469 
   99000     307.6743    -104.9847   0.27839017   -104.70631    9243.9792    4.3007777    4.3007777    4.3007777    9243.9792    7030.1912    7453.9843    13247.762   -8907.8956    1012.1699   -518.10104    79.550149 
   99100    451.84644   -105.11373   0.40884015   -104.70489   -3636.4822    4.3022886    4.3022886    4.3022886   -3636.4822    4450.8088     -5681.86   -9678.3956    283.43026    2142.2255    16255.258    79.634019 
   99200    377.22269   -105.04668   0.34131901   -104.70537   -4188.2084    4.3048062    4.3048062    4.3048062   -4188.2084   -2204.1498   -6982.6501   -3377.8253   -6239.0163   -1459.4297   -10899.558    79.773901 
   99300     440.4682   -105.10318   0.39854488   -104.70463    2354.7075    4.2983689    4.2983689    4.2983689    2354.7075    1846.2408   -186.01585    5403.8976   -1326.1869   -2928.3749    8709.2019    79.416558 
   99400    402.55317   -105.07005   0.36423857   -104.70582   -6130.7952    4.3063068    4.3063068    4.3063068   -6130.7952    -6460.807   -4154.9264   -7776.6523    2714.6249   -113.94315    6329.9955    79.857352 
   99500    325.13009   -105.00036   0.29418454   -104.70617    8477.3367    4.2984801    4.2984801    4.2984801    8477.3367    11144.449     500.1882    13787.373   -8575.5432   -2150.7016   -7691.0092    79.422723 
   99600    517.08024   -105.17301   0.46786507   -104.70515   -8143.2484    4.3045273    4.3045273    4.3045273   -8143.2484    2796.3622   -11212.038   -16014.069    5998.1271    -1920.735    13270.739    79.758396 
   99700    320.90579   -104.99624    0.2903623   -104.70588    3301.9114    4.3027059    4.3027059    4.3027059    3301.9114    4667.0021    3689.8758    1548.8565   -3952.4187    334.22768   -2880.8464    79.657189 
   99800    417.33238   -105.08276   0.37761111   -104.70515   -150.17748    4.2999391    4.2999391    4.2999391   -150.17748     815.7225   -1505.5605    239.30559   -8313.7907   -441.08144     3276.067    79.503624 
   99900     415.4791   -105.08047   0.37593422   -104.70454    -5196.005    4.3058694    4.3058694    4.3058694    -5196.005    4562.6125   -10912.953   -9237.6744    3158.4764    3607.3236    9947.1739    79.833019 
  100000     344.8543   -105.01824   0.31203142   -104.70621    7432.4312    4.2974954    4.2974954    4.2974954    7432.4312    6806.6124    5689.6717    9801.0094   -7870.2622    376.63028   -8719.6255    79.368148 
Loop time of 21.99 on 1 procs for 100000 steps with 8 atoms

Pair  time (%) = 7.06893 (32.1461)
Kspce time (%) = 5.26106 (23.9247)
Neigh time (%) = 0 (0)
Comm  time (%) = 1.05935 (4.81738)
Outpt time (%) = 0.0216134 (0.098287)
Other time (%) = 8.57909 (39.0135)

Nlocal:    8 ave 8 max 8 min
Histogram: 1 0 0 0 0 0 0 0 0 0
Nghost:    2189 ave 2189 max 2189 min
Histogram: 1 0 0 0 0 0 0 0 0 0
Neighs:    2344 ave 2344 max 2344 min
Histogram: 1 0 0 0 0 0 0 0 0 0

Total # of neighbors = 2344
Ave neighs/atom = 293
Neighbor list builds = 0
Dangerous builds = 0
unfix 20
unfix 21
print "seeds:5124749"
seeds:5124749
