LAMMPS (10 Feb 2015)
# ---- initialize simulations
clear
units metal
dimension 3
boundary p p p
atom_style charge
atom_modify map array
# ---- create atoms
read_data /Users/eugeneragasa/pyflamestk_git/pypospack/tests/tests_integration/workflow/WorkflowLammpsThermalExpansion/param_9837/MgO_NaCl_unit.npt.T1400/lammps.structure
  triclinic box = (0 0 0) to (4.2565 4.2565 4.2565) with tilt (0 0 0)
  1 by 1 by 1 MPI processor grid
  reading atoms ...
  8 atoms
# ---- define interatomic potential
include potential.mod
mass 1 24.305
mass 2 15.999

group Mg type 1
4 atoms in group Mg
group O type 2
4 atoms in group O

set group Mg charge 1.66768155913
  4 settings made for charge
set group O charge -1.66768155913
  4 settings made for charge

variable R_cut equal 10.0

pair_style buck/coul/long ${R_cut}
pair_style buck/coul/long 10
pair_coeff 1 1 0.0 0.5 0.0 ${R_cut}
pair_coeff 1 1 0.0 0.5 0.0 10
pair_coeff 1 2 1248.0823356 0.293822485762 0.0 ${R_cut}
pair_coeff 1 2 1248.0823356 0.293822485762 0.0 10
pair_coeff 2 2 31778.9957117 0.212502502632 34.6036277069 ${R_cut}
pair_coeff 2 2 31778.9957117 0.212502502632 34.6036277069 10

kspace_style pppm 1.0e-5

neighbor 1.0 bin
neigh_modify every 1 delay 0 check yes
# ---- define settings
compute eng all pe/atom
compute eatoms all reduce sum c_eng
# ---- run minimization
reset_timestep 0
fix 1 all box/relax iso 0.0 vmax 0.001
thermo 10
thermo_style custom step pe lx ly lz xy xz yz press pxx pyy pzz pxy pxz pyz c_eatoms
min_style cg
minimize 1e-25 1e-25 5000 10000
PPPM initialization ...
  G vector (1/distance) = 0.352908
  grid = 8 8 8
  stencil order = 5
  estimated absolute RMS force accuracy = 3.98663e-05
  estimated relative force accuracy = 2.76856e-06
  using double precision FFTs
  3d grid and FFT values/proc = 3375 512
Neighbor list info ...
  1 neighbor list requests
  update every 1 steps, delay 0 steps, check yes
  master list distance cutoff = 11
Memory usage per processor = 4.06549 Mbytes
Step PotEng Lx Ly Lz Xy Xz Yz Press Pxx Pyy Pzz Pxy Pxz Pyz eatoms 
       0   -110.76064       4.2565       4.2565       4.2565            0            0            0    174504.14    174504.14    174504.14    174504.14 9.3704156e-11 -1.8744789e-10 -4.5445427e-11   -110.76064 
      10   -110.96575     4.299065     4.299065     4.299065            0            0            0    110293.78    110293.78    110293.78    110293.78 1.4024136e-10 -8.8674493e-11 1.1163093e-10   -110.96575 
      20   -111.08678      4.34163      4.34163      4.34163            0            0            0    53874.038    53874.038    53874.038    53874.038 -1.7149362e-10 -3.6153785e-12 -2.8025662e-10   -111.08678 
      30   -111.12967     4.384195     4.384195     4.384195            0            0            0    4480.0037    4480.0037    4480.0037    4480.0037 2.9824961e-11 1.1991676e-10 2.4884808e-10   -111.12967 
      35   -111.13002    4.3883439    4.3883439    4.3883439            0            0            0  -0.29149971   -0.2914997  -0.29149971  -0.29149971 -2.2034763e-11 5.2889443e-11 3.1711826e-11   -111.13002 
Loop time of 0.0205541 on 1 procs for 35 steps with 8 atoms

Minimization stats:
  Stopping criterion = linesearch alpha is zero
  Energy initial, next-to-last, final = 
        -110.760644492     -111.130018171     -111.130018171
  Force two-norm initial, final = 25.1985 4.50194e-05
  Force max component initial, final = 25.1985 4.47407e-05
  Final line search alpha, max atom move = 0.5 2.23704e-05
  Iterations, force evaluations = 35 47

Pair  time (%) = 0.00526834 (25.6316)
Kspce time (%) = 0.00357342 (17.3855)
Neigh time (%) = 0 (0)
Comm  time (%) = 0.000637293 (3.10057)
Outpt time (%) = 9.27448e-05 (0.451224)
Other time (%) = 0.0109823 (53.4312)

Nlocal:    8 ave 8 max 8 min
Histogram: 1 0 0 0 0 0 0 0 0 0
Nghost:    2189 ave 2189 max 2189 min
Histogram: 1 0 0 0 0 0 0 0 0 0
Neighs:    2344 ave 2344 max 2344 min
Histogram: 1 0 0 0 0 0 0 0 0 0

Total # of neighbors = 2344
Ave neighs/atom = 293
Neighbor list builds = 0
Dangerous builds = 0
unfix 1
# ---- define output variables ----
variable natoms equal "count(all)"
variable tot_energy equal "c_eatoms"
variable length_x equal "lx"
variable length_y equal "ly"
variable length_z equal "lz"
variable tilt_xy equal "xy"
variable tilt_xz equal "xz"
variable tilt_yz equal "yz"
variable tot_press equal "press"
variable press_xx equal "pxx"
variable press_yy equal "pyy"
variable press_zz equal "pzz"
variable press_xy equal "pxy"
variable press_xz equal "pxz"
variable press_yz equal "pyz"

# ---- output ----
print "pypospack:output_section:begin"
pypospack:output_section:begin
print "tot_energy = ${tot_energy}"
tot_energy = -111.130018170686
print "num_atoms = ${natoms}"
num_atoms = 8
print "xx = ${length_x}"
xx = 4.38834393192064
print "yy = ${length_y}"
yy = 4.38834393192064
print "zz = ${length_z}"
zz = 4.38834393192064
print "xy = ${tilt_xy}"
xy = 0
print "xz = ${tilt_xz}"
xz = 0
print "yz = ${tilt_yz}"
yz = 0
print "tot_press = ${tot_press}"
tot_press = -0.291499705167032
print "pxx = ${press_xx}"
pxx = -0.291499704907524
print "pyy = ${press_yy}"
pyy = -0.291499705134451
print "pzz = ${press_zz}"
pzz = -0.291499705459123
print "pxy = ${press_xy}"
pxy = -2.20347627600699e-11
print "pxz = ${press_xz}"
pxz = 5.28894429779567e-11
print "pyz = ${press_yz}"
pyz = 3.17118260401048e-11
print "pypospack:output_section:done"
pypospack:output_section:done
print "pypospack:lammps_sim:done"
pypospack:lammps_sim:done
#------------------------------------------------------------------------------
# RUN THERMOSTAT
# running using an NPT Nose-Hoover style thermostat
#------------------------------------------------------------------------------
variable tempdamp equal 0.1
variable pressdamp equal 1.0
# set initial velocities
velocity all create 1400 3682438 mom yes dist gaussian loop all
# fix for Nose-Hoover style thermostat
fix 20 all npt temp 1400 1400 0.1 aniso 0.0 0.0 1.0 drag 1.0 couple xyz
variable boxx equal lx
variable boxy equal ly
variable boxz equal lz
variable boxp equal press
variable boxt equal temp
# calculate averages every 10000 steps
reset_timestep 0
fix 21 all ave/time 10 10 100 v_boxx v_boxy v_boxz v_boxp v_boxt file lattice.out
thermo_style custom step temp pe ke etotal press lx ly lz press pxx pyy pzz pxy pxz pyz vol
thermo_modify flush yes
thermo 100
run 100000
PPPM initialization ...
  G vector (1/distance) = 0.351569
  grid = 8 8 8
  stencil order = 5
  estimated absolute RMS force accuracy = 4.24255e-05
  estimated relative force accuracy = 2.94629e-06
  using double precision FFTs
  3d grid and FFT values/proc = 3375 512
Memory usage per processor = 3.06549 Mbytes
Step Temp PotEng KinEng TotEng Press Lx Ly Lz Press Pxx Pyy Pzz Pxy Pxz Pyz Volume 
       0         1400   -111.12999    1.2667494   -109.86324    16014.433    4.3883439    4.3883439    4.3883439    16014.433     22412.63    10386.855    15243.813    1883.1722   -3219.0217    2992.1518    84.508807 
     100    562.50592   -110.21673   0.50896718   -109.70776    12777.613    4.4231857    4.4231857    4.4231857    12777.613      75245.3    -1210.265   -35702.195   -2153.3303   -835.43232     4315.021    86.537732 
     200    1074.1096   -110.32923   0.97187692   -109.35736   -42934.742    4.4676925    4.4676925    4.4676925   -42934.742   -11820.345   -46217.723   -70766.158    1778.1101   -7775.0054    2276.4802    89.176375 
     300    1437.8248   -110.35815    1.3009741   -109.05718    -11237.94    4.4537733    4.4537733    4.4537733    -11237.94    5456.6035   -18486.187   -20684.237   -4298.1215   -4912.1802   -4684.6885    88.345478 
     400    965.47935   -109.67715   0.87358601   -108.80356    27096.136    4.4397077    4.4397077    4.4397077    27096.136     102562.3    9403.9789   -30677.871   -9207.1399    -15565.98    4531.5783    87.511097 
     500    1747.0237   -110.22962    1.5807437   -108.64887   -3675.8808    4.4653809    4.4653809    4.4653809   -3675.8808    46.742991   -6022.8045    -5051.581     2975.038    11587.052   -774.03597    89.038025 
     600    1240.1034    -109.6778    1.1220716   -108.55573    11672.669    4.4744002    4.4744002    4.4744002    11672.669    8795.8948    47383.767   -21161.654    11139.681   -17564.961   -3691.7301    89.578642 
     700    1079.9348   -109.49486   0.97714771   -108.51771    2398.7301    4.4784478    4.4784478    4.4784478    2398.7301    16205.913    67891.021   -76900.743    801.40521   -2061.4884    6733.3763    89.821967 
     800    1414.3009    -109.7944    1.2796892   -108.51471    12015.087    4.4586688    4.4586688    4.4586688    12015.087   -9316.1198    56487.934   -11126.553    4522.2412   -2559.7767     12207.76    88.637121 
     900    1111.7994   -109.54441    1.0059795   -108.53843    42308.491    4.4381512    4.4381512    4.4381512    42308.491   -2215.6441    124021.93    5119.1927    11380.151   -20434.159    15245.623    87.419093 
    1000    1054.4684   -109.53612    0.9541052   -108.58202    23229.005    4.4706146    4.4706146    4.4706146    23229.005    62113.932    40819.171   -33246.087   -4560.1841    15765.666    6641.9529     89.35147 
    1100    1068.4868   -109.52312   0.96678936   -108.55633   -25325.558    4.4808481    4.4808481    4.4808481   -25325.558   -61902.784    43519.248   -57593.138    2397.3074   -17896.179    2.8326122    89.966469 
    1200    1260.8917     -109.666    1.1408813   -108.52512    31251.956    4.4477566    4.4477566    4.4477566    31251.956    38232.018    75772.123   -20248.274   -9642.5707     12519.43    10627.577    87.987917 
    1300    1458.2618   -109.85448     1.319466   -108.53501    6469.1448    4.4433051    4.4433051    4.4433051    6469.1448   -4574.4982    69199.125   -45217.192   -9935.9977   -36237.944   -11004.152    87.723997 
    1400     1083.313   -109.53618   0.98020436   -108.55598   -10720.466    4.4604362    4.4604362    4.4604362   -10720.466    -54641.66    74247.715   -51767.453   -430.31835   -11700.325   -188.47723    88.742566 
    1500    1222.8278   -109.65377    1.1064402   -108.54733   -3465.7066    4.4721903    4.4721903    4.4721903   -3465.7066   -2150.9297    36531.018   -44777.208   -23926.306    7919.1752    2394.3048    89.445979 
    1600    1235.5999   -109.65581    1.1179967   -108.53782   -23824.463    4.4694216    4.4694216    4.4694216   -23824.463    -35051.69    50176.793   -86598.493   -1285.9183   -29624.256   -13578.421    89.279958 
    1700    1346.7958   -109.74662    1.2186092   -108.52801    18580.541    4.4472553    4.4472553    4.4472553    18580.541    3860.3646    36301.512    15579.746   -24368.546    9636.1728   -9977.0431    87.958172 
    1800    1156.9765   -109.59138    1.0468566   -108.54452    21555.505    4.4470549    4.4470549    4.4470549    21555.505   -45948.836    89947.975    20667.378   -2146.9487   -20007.979   -381.28544     87.94628 
    1900    1454.1685   -109.86514    1.3157622   -108.54937   -16591.427    4.4751849    4.4751849    4.4751849   -16591.427   -26849.942    22231.407   -45155.745    7310.6497    11825.911    3433.5419    89.625778 
    2000    1310.7006   -109.72137    1.1859494   -108.53542   -11087.157    4.4701178    4.4701178    4.4701178   -11087.157   -3745.7554    788.25287   -30303.968   -19369.418   -21439.146    11081.149    89.321686 
    2100    1132.7904   -109.56107    1.0249726    -108.5361    15158.669    4.4462269    4.4462269    4.4462269    15158.669    46793.879    24103.407   -25421.281    3710.6247    646.11769    2805.1114    87.897164 
    2200    1767.6623   -110.15813     1.599418   -108.55871   -6947.3395    4.4504871    4.4504871    4.4504871   -6947.3395   -23282.642   -3838.0547    6278.6779   -9514.6651    -2638.325    7817.5096    88.150063 
    2300    1049.8013   -109.52646   0.94988227   -108.57658   -13635.004     4.467696     4.467696     4.467696   -13635.004     14499.54   -15838.718   -39565.832    2693.4048   -21393.375   -2360.5004    89.176584 
    2400    1746.4124   -110.13272    1.5801907   -108.55253   -14378.776     4.461021     4.461021     4.461021   -14378.776   -21630.901    10282.948   -31788.375    10644.807   -2278.0095     7878.721    88.777478 
    2500    1177.4816   -109.61112    1.0654101   -108.54571    19207.016    4.4531375    4.4531375    4.4531375    19207.016    26330.362    16971.486      14319.2   -7207.4509   -29338.359   -8040.1411     88.30765 
    2600    1597.7174   -109.99077    1.4456483   -108.54512   -27486.123    4.4573467    4.4573467    4.4573467   -27486.123   -7661.9726   -29453.638   -45342.758   -5805.1869   -895.65418    283.07202    88.558297 
    2700    1327.1064   -109.74781    1.2007938   -108.54702   -4555.4703     4.458002     4.458002     4.458002   -4555.4703     5017.974   -9681.8064   -9002.5785    13226.325   -5294.3343    19324.392    88.597361 
    2800    1200.0989   -109.64224    1.0858747   -108.55637    6141.8266    4.4518128    4.4518128    4.4518128    6141.8266    -34508.28    51757.086    1176.6737   -5433.5912   -38007.857   -14697.192    88.228861 
    2900    1619.1843    -110.0276     1.465072   -108.56253    -7629.008    4.4547362    4.4547362    4.4547362    -7629.008   -20284.788    8181.7659   -10784.002    6333.4045    7539.9281   -2252.8519     88.40279 
    3000    992.67614   -109.47147   0.89819423   -108.57328    14450.716    4.4736385    4.4736385    4.4736385    14450.716   -23973.301   -3004.6582    70330.109    3679.5926   -9201.8239     2035.882      89.5329 
    3100    1938.3663   -110.30736    1.7538745   -108.55348   -34296.398    4.4664847    4.4664847    4.4664847   -34296.398   -37435.395   -40596.144   -24857.656   -12209.355   -10632.761    15841.758    89.104073 
    3200    1431.8493   -109.85024    1.2955673   -108.55468    10524.115     4.435717     4.435717     4.435717    10524.115    25291.452   -48715.537    54996.432    11541.933   -8673.3788    13407.099    87.275329 
    3300     1273.345   -109.73682    1.1521493   -108.58467    33341.788    4.4441838    4.4441838    4.4441838    33341.788    38104.654   -14384.377    76305.086   -1114.6618   -9218.9581   -27471.846     87.77605 
    3400    1814.0376   -110.22794    1.6413793   -108.58656   -34164.383    4.4652418    4.4652418    4.4652418   -34164.383   -29475.366   -60436.689   -12581.095     5586.912    12899.384    24397.904    89.029706 
    3500    1073.8273    -109.5418   0.97162152   -108.57017    9821.4579    4.4575767    4.4575767    4.4575767    9821.4579    9031.6744   -32170.773    52603.472    8657.3374   -10031.902    4319.4775    88.572005 
    3600    1506.2068   -109.92047    1.3628476   -108.55762   -2378.4177    4.4430701    4.4430701    4.4430701   -2378.4177    7963.5802     -11650.5   -3448.3331    -3116.238    13045.015   -3196.1628    87.710076 
    3700    1327.8261   -109.77229    1.2014449   -108.57085   -11173.318      4.43181      4.43181      4.43181   -11173.318    7242.0682   -33163.289   -7598.7322    6042.6202   -11624.061    21334.513    87.044916 
    3800    1271.4186   -109.73978    1.1504063   -108.58937    30463.614    4.4417086    4.4417086    4.4417086    30463.614   -5764.4623   -11728.392     108883.7   -9979.7015    19053.279   -23193.523    87.629472 
    3900    1815.6924   -110.21545    1.6428767   -108.57257   -40236.008    4.4723772    4.4723772    4.4723772   -40236.008   -46402.697   -51951.991   -22353.337   -8344.8157    606.00545    14532.403    89.457194 
    4000    1967.9416   -110.34111    1.7806349   -108.56047   -22306.764    4.4463182    4.4463182    4.4463182   -22306.764   -27458.161   -30859.563    -8602.567   -596.05833    -10322.14    7862.4365    87.902581 
    4100    1546.3557   -109.98294    1.3991751   -108.58377    2809.6534    4.4263193    4.4263193    4.4263193    2809.6534   -26210.447    14677.435    19961.972    1283.5159    15328.807   -26115.349    86.721786 
    4200    845.63871   -109.38808   0.76515167   -108.62293    21796.741    4.4439523    4.4439523    4.4439523    21796.741   -2488.2717   -14476.803    82355.299   -1716.2416   -10232.043    12998.851    87.762336 
    4300    1421.0391   -109.89014     1.285786   -108.60435   -16944.572    4.4700197    4.4700197    4.4700197   -16944.572   -13701.386   -22824.289   -14308.039    2414.1713    8077.3119   -28040.549    89.315807 
    4400    1494.5547   -109.93904    1.3523045   -108.58673   -13251.581    4.4620175    4.4620175    4.4620175   -13251.581   -35074.939   -2270.8984   -2408.9067    3491.1022    502.09156    2374.5252    88.836981 
    4500    1140.8522   -109.60879     1.032267   -108.57652    22183.912    4.4349248    4.4349248    4.4349248    22183.912   -32616.803    42249.374    56919.165   -2385.9216   -17028.421    5553.0198    87.228574 
    4600    1725.2307   -110.13578     1.561025   -108.57475    16887.817    4.4335719    4.4335719    4.4335719    16887.817   -17046.816    35351.795    32358.471   -5709.9112    6254.5184    -17860.39    87.148769 
    4700    839.47181   -109.35367   0.75957174    -108.5941    9158.0591    4.4659267    4.4659267    4.4659267    9158.0591   -62192.135     69188.61    20477.702   -3297.5996   -16384.653   -323.57939     89.07068 
    4800    1292.8279   -109.72414    1.1697779   -108.55437    1066.4651    4.4695825    4.4695825    4.4695825    1066.4651   -66224.374    59244.513    10179.257    7897.0682   -10260.843    12746.274    89.289599 
    4900    1187.0021   -109.60632    1.0740244   -108.53229    40036.424    4.4536835    4.4536835    4.4536835    40036.424   -16062.173    42686.455    93484.989   -4627.6319    586.66419   -12486.151    88.340134 
    5000    1215.9084   -109.64903    1.1001795   -108.54885    3016.5747    4.4488203    4.4488203    4.4488203    3016.5747   -33186.582    61654.498   -19418.192    3644.7503   -7969.5948    8584.2811     88.05106 
    5100     1332.987   -109.76384    1.2061147   -108.55773    15515.119     4.451037     4.451037     4.451037    15515.119   -21565.049    31729.032    36381.373   -8624.2447     2219.018    12658.323    88.182746 
    5200    1050.9588   -109.51984   0.95092959   -108.56891    8183.0852     4.462399     4.462399     4.462399    8183.0852   -43907.681    47356.929    21100.007   -159.61724   -11180.243   -27780.522    88.859771 
    5300    1221.8391   -109.66377    1.1055457   -108.55822    -21431.95    4.4645102    4.4645102    4.4645102    -21431.95   -47616.106   -6150.5416   -10529.203    6571.9544   -4697.8793    21604.043    88.985951 
    5400    1471.4885   -109.88497    1.3314337   -108.55353    15119.692    4.4422607    4.4422607    4.4422607    15119.692   -10721.776    29934.702    26146.149   -4418.6835    6149.5829   -2995.5953    87.662152 
    5500    1751.1967   -110.14992    1.5845196    -108.5654    17597.383    4.4332775    4.4332775    4.4332775    17597.383   -31574.309    11753.781    72612.676    9738.9253    3260.0026   -19636.364     87.13141 
    5600    1152.4051   -109.63343    1.0427203   -108.59071    1624.2118    4.4449236    4.4449236    4.4449236    1624.2118   -20421.049   -17061.463    42355.148    14907.531     6124.263    30646.903    87.819895 
    5700    1648.8302   -110.07042    1.4918962   -108.57852   -8468.9331    4.4556272    4.4556272    4.4556272   -8468.9331   -18707.982   -37297.043    30598.226   -7969.9649   -929.68141   -5397.4785    88.455844 
    5800    1044.8763   -109.52279   0.94542605   -108.57737   -29204.771       4.4654       4.4654       4.4654   -29204.771    -57138.43   -25787.447   -4688.4354    7728.8725    5685.0628    15159.312    89.039169 
    5900    1327.9289   -109.77095     1.201538   -108.56941   -24436.775    4.4359366    4.4359366    4.4359366   -24436.775   -22953.883   -27902.887   -22453.555   -43.436597    17159.739    43058.992    87.288293 
    6000    1693.7493   -110.09488    1.5325399   -108.56234    47522.395    4.4208043    4.4208043    4.4208043    47522.395    4109.4171     101216.3    37241.467   -73.488319    1443.7636   -12482.866    86.398036 
    6100    1585.2817   -110.02752    1.4343962   -108.59312   -41566.439    4.4601152    4.4601152    4.4601152   -41566.439    -62023.82   -23593.978    -39081.52    5638.8074    4615.0886    8601.5561    88.723413 
    6200    1116.3135   -109.57439    1.0100639   -108.56433   -24052.872    4.4655842    4.4655842    4.4655842   -24052.872   -48026.239   -4570.1912   -19562.185   -5836.7989    6012.3192    21481.483    89.050189 
    6300    1738.3661   -110.10833    1.5729102   -108.53542    12681.247    4.4438961    4.4438961    4.4438961    12681.247   -21674.079    39259.738    20458.082    2817.4125   -1165.9314   -14578.831    87.759004 
    6400    1201.5061   -109.65436     1.087148   -108.56721   -21078.082    4.4331766    4.4331766    4.4331766   -21078.082   -12847.698   -37095.299   -13291.249   -8708.9628    9066.5966    27008.727    87.125465 
    6500      1361.77   -109.82474    1.2321581   -108.59258    13581.336    4.4306068    4.4306068    4.4306068    13581.336   -16838.765    11730.024    45852.748    605.65106     430.5316    13521.519    86.974035 
    6600    1936.8731   -110.33708    1.7525235   -108.58456   -16236.207    4.4536579    4.4536579    4.4536579   -16236.207   -28042.312    12977.745   -33644.053    2658.5038    1704.3872   -2719.2066    88.338612 
    6700    752.55142    -109.2667   0.68092434   -108.58578   -14816.647    4.4540261    4.4540261    4.4540261   -14816.647   -10286.012   -2272.3958   -31891.534   -8683.0181    5593.8562    35588.252    88.360519 
    6800    1635.5625   -110.03835    1.4798913   -108.55846    4281.7033     4.441769     4.441769     4.441769    4281.7033    -16250.69    18207.459    10888.341    4390.1308    -1827.309   -16306.933    87.633047 
    6900    1415.6375   -109.83972    1.2808985   -108.55882    15765.807    4.4413654    4.4413654    4.4413654    15765.807   -14761.037    31314.151    30744.308   -6367.8488    11779.707    4218.2096    87.609162 
    7000     1313.071    -109.7611    1.1880942   -108.57301   -11879.226    4.4508195    4.4508195    4.4508195   -11879.226   -22466.476   -25524.361    12353.159   -495.61174     6601.291    21560.327    88.169819 
    7100     1470.925     -109.885    1.3309239   -108.55407     8807.827    4.4542908    4.4542908    4.4542908     8807.827    -2134.003    21187.683    7369.8005    969.87622   -12624.148    -30701.93    88.376276 
    7200    1267.8478   -109.70098    1.1471753    -108.5538   -12359.337    4.4385195    4.4385195    4.4385195   -12359.337   -5770.5066   -2588.7802   -28718.725   -18937.247    9443.3882    10415.256    87.440853 
    7300    1206.1553   -109.65692    1.0913546   -108.56556   -15873.893     4.433236     4.433236     4.433236   -15873.893   -23356.341   -10919.014   -13346.324   -6242.4846   -16052.367    4932.0007    87.128964 
    7400    1605.0213   -110.02186     1.452257    -108.5696   -18794.997    4.4502131    4.4502131    4.4502131   -18794.997   -17912.471   -21375.271   -17097.251    5458.4715    643.73812   -9212.4547    88.133788 
    7500    1182.2017   -109.63592    1.0696809   -108.56624   -20079.668    4.4576376    4.4576376    4.4576376   -20079.668   -35020.098    -4118.247    -21100.66   -5642.1402    20145.708    22202.278    88.575635 
    7600    1457.3541   -109.87178    1.3186446   -108.55314    4527.6627    4.4408269    4.4408269    4.4408269    4527.6627   -27551.458    51175.967   -10041.521   -5773.0659   -19939.999   -10462.465    87.577296 
    7700    1396.3676   -109.82175    1.2634627   -108.55829    19337.853    4.4323598    4.4323598    4.4323598    19337.853   -126.65792    51342.141    6798.0765    10199.672    10016.393    8687.6263    87.077313 
    7800    1185.6924   -109.66173    1.0728394   -108.58889   -29103.431    4.4500903    4.4500903    4.4500903   -29103.431   -25967.657    -34691.14   -26651.497   -24504.967    6687.1004    19777.573    88.126492 
    7900    1361.5998    -109.8126    1.2320041    -108.5806   -16089.627     4.453387     4.453387     4.453387   -16089.627   -42597.225    413.44483   -6085.1016    330.01901   -21473.379    2644.6722    88.322493 
    8000    1340.6397   -109.78456     1.213039   -108.57152    -3471.179    4.4367224    4.4367224    4.4367224    -3471.179   -7249.9192   -32079.203    28915.585   -3538.0886    12229.267    14698.335    87.334685 
    8100    1245.9688   -109.70587    1.1273788   -108.57849   -5530.2691    4.4338839    4.4338839    4.4338839   -5530.2691   -24525.198   -6863.8051    14798.196   -12114.319   -12216.423    13050.087    87.167173 
    8200     1461.955   -109.90071    1.3228076   -108.57791     3426.459    4.4550402    4.4550402    4.4550402     3426.459   -8093.0653   -16539.539    34911.981    3022.8934    1699.7312   -11414.829    88.420888 
    8300    1754.2982   -110.14859    1.5873259   -108.56126   -20549.101    4.4515637    4.4515637    4.4515637   -20549.101    1548.9895   -28988.988   -34207.305   -12652.647     7519.781    22246.714    88.214052 
    8400    836.91709   -109.31036   0.75726017    -108.5531    49987.433    4.4237103    4.4237103    4.4237103    49987.433    56013.732     39476.21    54472.355   -694.25906    -22284.64    6155.9237    86.568526 
    8500    1762.7734   -110.16301    1.5949945   -108.56801   -5158.9043    4.4376077    4.4376077    4.4376077   -5158.9043   -3138.7891    4077.7048   -16415.629    11764.224    8243.2413   -18728.515    87.386975 
    8600    1386.4112   -109.82034     1.254454   -108.56588   -17949.943    4.4537466    4.4537466    4.4537466   -17949.943   -47709.284   -7475.9905    1335.4465   -3895.7136   -11341.363    2374.4189    88.343887 
    8700     894.3364   -109.36579   0.80921437   -108.55657    1504.3315    4.4507562    4.4507562    4.4507562    1504.3315   -19975.184    24354.508     133.6707   -4672.5288   -21459.716   -212.39569    88.166055 
    8800    1767.5704   -110.14099    1.5993348   -108.54166   -10245.261    4.4438425    4.4438425    4.4438425   -10245.261     8781.292   -32229.743   -7287.3327   -3287.7146    22244.675   -11496.871    87.755829 
    8900    1521.9763   -109.92856    1.3771162   -108.55144    7135.1217    4.4310925    4.4310925    4.4310925    7135.1217   -6461.0788    20768.449    7097.9953    4786.9096   -21747.832    3964.6754    87.002642 
    9000    1398.7829   -109.83893    1.2656482   -108.57328    530.16947    4.4407881    4.4407881    4.4407881    530.16947    40159.878    1048.3875   -39617.758   -9466.5778   -15179.208   -6900.5391    87.575001 
    9100    1336.0437    -109.7763    1.2088804   -108.56742   -4194.4251    4.4537686    4.4537686    4.4537686   -4194.4251    22225.408   -46560.246    11751.562   -17652.652    7203.8362   -10009.177    88.345196 
    9200    1427.2219   -109.85245    1.2913803   -108.56107   -16462.916    4.4404075    4.4404075    4.4404075   -16462.916   -35220.941   -7545.0393   -6622.7688    7178.6691   -19835.937    281.46603    87.552486 
    9300    1043.6815   -109.51043   0.94434498   -108.56609    13800.371    4.4433117    4.4433117    4.4433117    13800.371    66044.969   -17391.108   -7252.7478    5680.0734   -2432.2275   -5742.0994    87.724385 
    9400    1568.3022   -109.97546    1.4190328   -108.55643   -8846.4154    4.4535612    4.4535612    4.4535612   -8846.4154    10642.156    -36772.86   -408.54256   -27866.375    3473.0237    6838.2204    88.332857 
    9500    1748.7381   -110.13925     1.582295   -108.55696   -17082.778    4.4369748    4.4369748    4.4369748   -17082.778    9958.6244   -17433.862   -43773.095    2527.3953   -13599.777   -12148.397    87.349591 
    9600    1133.7943   -109.59884    1.0258809   -108.57296    37961.052    4.4340156    4.4340156    4.4340156    37961.052       121839   -1561.9875   -6393.8567    22178.616   -8311.7498   -8806.3994     87.17494 
    9700    1816.1403   -110.21775     1.643282   -108.57447   -28699.424    4.4525703    4.4525703    4.4525703   -28699.424    -37580.76   -1916.8084   -46600.703   -13635.023    3719.7905    6564.6942     88.27391 
    9800    662.28127    -109.1789   0.59924601   -108.57965   -2073.5768    4.4447338    4.4447338    4.4447338   -2073.5768     44363.85   -28951.045   -21633.535    3384.6909   -18265.685   -23819.866    87.808646 
    9900    1705.9397   -110.10677    1.5435701    -108.5632    19078.003    4.4311118    4.4311118    4.4311118    19078.003    45012.083     1341.841    10880.084    15029.228    4861.4653    11908.627    87.003781 
   10000    1651.1932   -110.07034    1.4940343   -108.57631   -9907.0731    4.4505877    4.4505877    4.4505877   -9907.0731    10777.965   -9381.1152   -31118.069   -12783.381   -9505.1536   -4023.3088    88.156041 
   10100    990.33867   -109.46206   0.89607924   -108.56598   -8538.5187     4.461308     4.461308     4.461308   -8538.5187    46752.487   -37005.949   -35362.094    19556.593   -27983.607   -24538.228    88.794612 
   10200    2037.3052   -110.38542    1.8433965   -108.54202   -12874.297    4.4481514    4.4481514    4.4481514   -12874.297    -3964.889   -7021.2555   -27636.745    6304.8105    4470.6274    10580.335    88.011351 
   10300    1340.9061   -109.77986      1.21328   -108.56658   -7252.0988    4.4305845    4.4305845    4.4305845   -7252.0988    7878.5144    48.553848   -29683.365   -5838.7703   -9320.5128   -8660.4868    86.972722 
   10400    1144.2724    -109.6301    1.0353617   -108.59473   -3114.1219    4.4315389    4.4315389    4.4315389   -3114.1219    24266.819    10687.814   -44296.999    7114.7357     -27861.9   -15656.366    87.028939 
   10500    1703.2769   -110.12899    1.5411608   -108.58783   -11489.558    4.4594205    4.4594205    4.4594205   -11489.558   -7993.1029   -16335.287   -10140.285    8460.0029   -5893.8328    8135.0759    88.681957 
   10600    1420.5026   -109.85784    1.2853006   -108.57254   -18469.699    4.4524937    4.4524937    4.4524937   -18469.699    46335.783   -52479.331   -49265.548    8914.6829   -12383.225   -21653.259    88.269354 
   10700    1152.0129   -109.60238    1.0423655   -108.56001    -8519.463     4.424359     4.424359     4.424359    -8519.463    15463.452   -26062.727   -14959.114   -64.561055   -27775.608   -8050.9833    86.606619 
   10800    1809.7734   -110.21233     1.637521   -108.57481   -633.68344    4.4312712    4.4312712    4.4312712   -633.68344    329.65559   -7254.1242    5023.4183    4879.8442   -3692.0441    3137.5734    87.013168 
   10900    1487.7759   -109.92826    1.3461709   -108.58209   -33535.858    4.4560964    4.4560964    4.4560964   -33535.858    4085.4328   -48250.777   -56442.228   -4043.4792   -15079.768   -38262.294    88.483796 
   11000      1513.09   -109.94181    1.3690757   -108.57274   -29661.308    4.4503665    4.4503665    4.4503665   -29661.308   -20098.974   -28181.862   -40703.088    1905.6793   -25593.216    2868.8713    88.142901 
   11100    1450.5205   -109.87773    1.3124615   -108.56526    9637.9651    4.4356424    4.4356424    4.4356424    9637.9651     43235.09   -19565.275    5244.0802   -7136.1609    7242.9225   -1008.3785    87.270923 
   11200      1485.76    -109.9196    1.3443469   -108.57525   -17712.236    4.4545335    4.4545335    4.4545335   -17712.236    17827.573   -52470.445   -18493.837     9513.253    -11328.02   -27634.716    88.390724 
   11300    1313.8262   -109.75022    1.1887776   -108.56144   -5754.4173     4.460069     4.460069     4.460069   -5754.4173    3094.6466   -22159.842    1801.9435   -4722.2474   -4235.1301   -1045.7863    88.720654 
   11400    1472.5403   -109.88941    1.3323854   -108.55702    21937.682    4.4502421    4.4502421    4.4502421    21937.682    23534.884    8031.6874    34246.475    1735.9822    15301.138    763.60771    88.135507 
   11500    1599.2437   -109.99928    1.4470293   -108.55225    22252.508    4.4421165    4.4421165    4.4421165    22252.508    -11619.26    17819.071    60557.711   -3252.0475   -7238.5488   -8009.4928    87.653616 
   11600     947.1063   -109.43263   0.85696168   -108.57567    24132.347    4.4503423    4.4503423    4.4503423    24132.347    23254.171    5957.5338    43185.337    1323.4915   -14341.781    13760.361    88.141459 
   11700    1318.0136   -109.75341    1.1925664   -108.56084    621.46302    4.4632026    4.4632026    4.4632026    621.46302    22018.377   -55032.579    34878.591     15698.17    15588.584    6590.2653    88.907791 
   11800    1674.4849   -110.06384    1.5151091   -108.54873   -7021.4536    4.4532877    4.4532877    4.4532877   -7021.4536   -32909.992   -13327.312    25172.942   -10164.977   -14165.648   -3975.4728    88.316584 
   11900    1550.2907   -109.94998    1.4027356   -108.54724    13358.463      4.43963      4.43963      4.43963    13358.463    32612.355    21869.085    -14406.05   -847.33041   -14070.266    17428.439    87.506506 
   12000    1436.3997   -109.85646    1.2996846   -108.55677    22139.333    4.4462056    4.4462056    4.4462056    22139.333    16138.412    9395.1262    40884.461    5246.7267    21123.799   -335.75347    87.895899 
   12100    1345.5351   -109.77272    1.2174684   -108.55525    2265.9043    4.4551458    4.4551458    4.4551458    2265.9043   -38050.432   -4075.6944    48923.839   -12662.333   -10700.276   -6477.8169     88.42718 
   12200    1505.0997   -109.91437    1.3618459   -108.55252    -12633.46    4.4516627    4.4516627    4.4516627    -12633.46    4362.5092    8303.1647   -50566.054   -3226.2227   -2230.8305    17266.371    88.219939 
   12300    1339.9311   -109.76842    1.2123978   -108.55602    23503.734    4.4489505    4.4489505    4.4489505    23503.734    8134.3818    12973.704    49403.116   -16135.721    15136.939   -4268.7977     88.05879 
   12400    1329.0315   -109.75846    1.2025356   -108.55592   -9725.7958    4.4549433    4.4549433    4.4549433   -9725.7958   -36698.494    10778.224   -3257.1177   -4000.9012   -2411.2781   -725.09447    88.415123 
   12500    1479.4896   -109.88876    1.3386733   -108.55009    -15105.71    4.4385799    4.4385799    4.4385799    -15105.71   -23801.008   -8116.7914   -13399.329    3892.8509     6324.626     24702.61    87.444427 
   12600    1361.4903   -109.78932     1.231905   -108.55741    306.64814    4.4384023    4.4384023    4.4384023    306.64814   -47289.222   -5650.0533     53859.22   -17093.172   -7962.9122   -8269.5483    87.433931 
   12700    1278.0277   -109.71297    1.1563863   -108.55659   -29416.053    4.4608376    4.4608376    4.4608376   -29416.053   -31889.555    -13715.79   -42642.813   -7155.2075   -2938.5716    9231.5796    88.766528 
   12800    1472.5778   -109.87395    1.3324193   -108.54153    7543.0628    4.4405901    4.4405901    4.4405901    7543.0628    14485.513    -26483.57    34627.245   -1739.6636    1343.0746    15359.681    87.563285 
   12900    1586.3225   -109.98916    1.4353379   -108.55382   -5446.8026    4.4355326    4.4355326    4.4355326   -5446.8026    12324.607   -14142.853   -14522.162     238.0235   -6097.9699   -16157.489    87.264446 
   13000    1291.0859   -109.72735    1.1682017   -108.55914   -4827.9264    4.4520482    4.4520482    4.4520482   -4827.9264    13151.542   -16646.082   -10989.239   -7074.6587    4966.8752    25651.143    88.242858 
   13100    1606.4011   -110.00461    1.4535055    -108.5511    13377.681    4.4379707    4.4379707    4.4379707    13377.681   -7034.1672    31397.659    15769.551   -4001.6824   -13837.383    6587.3263    87.408426 
   13200    1124.7657   -109.59611    1.0177116    -108.5784    5720.3887    4.4463854    4.4463854    4.4463854    5720.3887    17114.297    1991.4575   -1944.5889    11247.887   -20652.005   -18680.455    87.906567 
   13300    1688.6313   -110.09113    1.5279091   -108.56322    5429.3972    4.4473494    4.4473494    4.4473494    5429.3972    5610.5302    7906.3056    2771.3557   -8592.8574    15391.289    6896.8901    87.963751 
   13400    973.30725   -109.45223   0.88066885   -108.57156    18304.494     4.437575     4.437575     4.437575    18304.494   -6235.1653    64589.442   -3440.7954   -12966.335   -16240.162    8851.6817    87.385043 
   13500    1084.9795   -109.55851   0.98171229    -108.5768   -25344.114    4.4531227    4.4531227    4.4531227   -25344.114    2934.1094   -26611.512    -52354.94   -2967.1919   -11758.253   -26578.723     88.30677 
   13600    1873.1325   -110.25119    1.6948497   -108.55634    22294.347    4.4311741    4.4311741    4.4311741    22294.347    28230.262    24072.798     14579.98   -11647.693    4218.8272   -5714.0632    87.007448 
   13700    1095.5481   -109.57943   0.99127497   -108.58815    28098.174    4.4356425    4.4356425    4.4356425    28098.174    46303.619    44787.007   -6796.1039    993.19543   -1654.8947    5971.6974    87.270932 
   13800    1411.3867   -109.85302    1.2770524   -108.57597   -31946.102    4.4730897    4.4730897    4.4730897   -31946.102    2195.5335   -48153.506   -49880.332    -6729.588    828.98046   -19292.399    89.499958 
   13900    1803.0985   -110.17379    1.6314814   -108.54231   -5228.9174    4.4535874    4.4535874    4.4535874   -5228.9174     21590.18   -13966.559   -23310.373   -3245.7115    1752.1884   -2169.3671    88.334416 
   14000    821.37388   -109.28715   0.74319634   -108.54395    20942.463    4.4280273    4.4280273    4.4280273    20942.463    16906.073    50388.386   -4467.0699    7266.0124   -25886.871   -18138.158    86.822216 
   14100    1401.4782   -109.83717     1.268087   -108.56909    7833.2778    4.4435473    4.4435473    4.4435473    7833.2778   -7986.9727    22493.583    8993.2228    2611.5521   -6196.7721   -7076.6931    87.738341 
   14200    1840.1883    -110.2293    1.6650411   -108.56425   -2770.8278    4.4637713    4.4637713    4.4637713   -2770.8278   -16373.005   -14827.265    22887.787    4600.6061    7420.8853   -7191.0565     88.94178 
   14300    986.28907   -109.44874   0.89241508   -108.55633    1752.8836    4.4627977    4.4627977    4.4627977    1752.8836    17605.551   -41168.571    28821.672   -2985.2916   -26803.245   -28999.934    88.883591 
   14400    1661.9623   -110.02934    1.5037784   -108.52556   -1968.0418    4.4437034    4.4437034    4.4437034   -1968.0418   -2372.3022   -29984.726    26452.903   -13427.072    6866.9139    8701.7993    87.747591 
   14500    1255.2076   -109.68597    1.1357382   -108.55023    -31430.57    4.4526692    4.4526692    4.4526692    -31430.57    -42977.82    -28733.09   -22580.798    1861.1761   -19154.767   -19532.911    88.279789 
   14600    1190.7645   -109.63545    1.0774287   -108.55802   -16969.534    4.4550257    4.4550257    4.4550257   -16969.534   -238.67677   -36949.705   -13720.219    7885.1667   -13348.023   -4692.1316    88.420024 
   14700    1612.6702   -110.00581    1.4591778   -108.54663    20843.415    4.4332776    4.4332776    4.4332776    20843.415     -7265.21   -5570.9419    75366.396    5668.3918    26474.576    15236.162     87.13142 
   14800    1203.7584   -109.66498    1.0891859   -108.57579   -20912.005    4.4430601    4.4430601    4.4430601   -20912.005   -7351.8365   -17417.315   -37966.863   -4525.0517   -29912.067   -32633.028    87.709488 
   14900    1729.8066   -110.12762    1.5651654   -108.56246   -4840.3305     4.449592     4.449592     4.449592   -4840.3305    4153.4732      -6857.5   -11816.965    8835.2482    937.51539   -10452.601    88.096886 
   15000    1586.2649   -109.99139    1.4352858    -108.5561   -5665.8948    4.4546055    4.4546055    4.4546055   -5665.8948   -20491.462    8935.6324   -5441.8552   -400.56892      2524.82   -5105.5312    88.395008 
   15100    728.20735   -109.21301   0.65889731   -108.55411    -17596.22    4.4631246    4.4631246    4.4631246    -17596.22     28757.19   -28780.766   -52765.084   -12007.076   -27500.231   -32822.408    88.903124 
   15200    1518.7219   -109.91155    1.3741715   -108.53738    12886.759    4.4302685    4.4302685    4.4302685    12886.759    2360.8516    27118.415    9181.0096    22809.848    16060.011   -3398.8034    86.954118 
   15300    1217.9199   -109.66705    1.1019995   -108.56505     16578.92     4.427667     4.427667     4.427667     16578.92    13278.927     19903.61    16554.222   -19650.697   -7743.3028   -19622.722    86.801024 
   15400    1345.9995   -109.78847    1.2178887   -108.57058    -30418.68    4.4693283    4.4693283    4.4693283    -30418.68   -26644.176   -26377.688   -38234.176    5643.5486   -2822.9698   -26926.775    89.274366 
   15500    1504.0452   -109.89813    1.3608917   -108.53724   -9445.6198    4.4576967    4.4576967    4.4576967   -9445.6198   -41167.357    12481.899    348.59881    16277.148    1251.0733    12498.829    88.579157 
   15600    1039.9007   -109.46842   0.94092403    -108.5275    4888.5299    4.4337598    4.4337598    4.4337598    4888.5299   -21984.251    44979.262   -8329.4209   -8298.3341   -33228.453   -22044.042     87.15985 
   15700    1600.2282   -109.99457    1.4479201   -108.54665   -10608.602    4.4381189    4.4381189    4.4381189   -10608.602   -12362.618   -24282.521    4819.3331    16825.751    13786.873   -7817.6772    87.417179 
   15800    1158.6776   -109.61074    1.0483958   -108.56235   -17727.405    4.4532784    4.4532784    4.4532784   -17727.405   -38885.897   -14368.298    71.979935    2686.6457   -13086.324    4243.2311    88.316027 
   15900    1554.5647   -109.95821    1.4066028   -108.55161   -36798.382    4.4632872    4.4632872    4.4632872   -36798.382   -48644.687   -21979.773   -39770.686    5434.3247   -22408.529   -3271.0355    88.912844 
   16000    1296.9565   -109.72318    1.1735135   -108.54967    15613.707    4.4415842    4.4415842    4.4415842    15613.707     30093.82   -736.73121    17484.031    29453.609    2246.2916    15079.474     87.62211 
   16100    1606.2768   -110.00064     1.453393   -108.54725    25815.926    4.4275402    4.4275402    4.4275402    25815.926    19339.928    38363.608    19744.244   -4815.4753    4188.6587   -16911.215    86.793567 
   16200    1381.5914   -109.82799    1.2500929    -108.5779   -18159.416    4.4667087    4.4667087    4.4667087   -18159.416   -43776.147    12473.493   -23175.594    22781.447   -3540.9598    276.31983    89.117481 
   16300    1794.9371   -110.14759    1.6240968   -108.52349   -38000.394    4.4789296    4.4789296    4.4789296   -38000.394   -2416.9894   -55705.134   -55879.058    2626.1425    8340.9911    10070.094    89.850955 
   16400    1102.6009   -109.49919   0.99765642   -108.50153    24826.165    4.4380869    4.4380869    4.4380869    24826.165    48564.405    35216.257    -9302.165   -3877.4769   -8542.7296   -7270.4047    87.415288 
   16500     1550.753   -109.94247    1.4031539   -108.53931   -902.61549    4.4457518    4.4457518    4.4457518   -902.61549   -38375.866    4598.6199      31069.4    19768.952    1096.4329   -7665.5001     87.86899 
   16600    1354.5647   -109.77283    1.2256386   -108.54719    10197.331    4.4712846    4.4712846    4.4712846    10197.331   -8712.3065    23790.749    15513.551   -7822.0828   -12741.281   -10169.118    89.391647 
   16700    1491.3081   -109.88334    1.3493669   -108.53398   -1724.4198    4.4671906    4.4671906    4.4671906   -1724.4198    9515.5965   -14549.319   -139.53653    10763.422   -15407.098   -17400.112    89.146323 
   16800    1797.4111   -110.15439    1.6263354   -108.52806   -15404.614    4.4647104    4.4647104    4.4647104   -15404.614    2228.9247   -22648.738   -25794.027    6090.7497   -3634.0129   -13591.051    88.997923 
   16900    1775.0527   -110.12713     1.606105   -108.52102   -10682.884     4.455191     4.455191     4.455191   -10682.884   -6476.8905   -20055.805    -5515.955   -2666.9428   -1357.1199   -10625.738    88.429868 
   17000    1335.4148   -109.74391    1.2083113    -108.5356   -14545.098    4.4523162    4.4523162    4.4523162   -14545.098   -9365.4311   -64479.126    30209.262    21491.545    16246.932   -10048.118    88.258799 
   17100    1529.1367   -109.93009    1.3835951   -108.54649    208.30259    4.4742426    4.4742426    4.4742426    208.30259    35227.878   -27829.246   -6773.7242   -13521.401    9565.3503    919.09397    89.569175 
   17200    1457.3331   -109.84689    1.3186256   -108.52827   -16877.713    4.4818999    4.4818999    4.4818999   -16877.713   -34924.684   -46572.383    30863.929    5127.7421    10069.731   -453.83717    90.029838 
   17300    1368.4599   -109.74945    1.2382113   -108.51124    3770.1429    4.4554994    4.4554994    4.4554994    3770.1429   -4320.1257   -20417.135    36047.689    1498.5679     3163.749    30422.471    88.448232 
   17400    2037.1939   -110.35868    1.8432959   -108.51538   -21004.663     4.455172     4.455172     4.455172   -21004.663   -37725.309   -1960.3048   -23328.374   -14431.073   -9405.5197    5828.7928    88.428735 
   17500    1076.7892   -109.51459   0.97430154   -108.54029   -11968.349    4.4552289    4.4552289    4.4552289   -11968.349   -33570.488   -20505.694    18171.134     37317.75    5318.4293   -5670.8156    88.432125 
   17600    1340.8751   -109.76506     1.213252   -108.55181    33109.873    4.4540383    4.4540383    4.4540383    33109.873    22889.787    6338.9302    70100.903   -9314.0912    3416.8677    24522.102    88.361248 
   17700    1593.5327   -109.99909    1.4418619   -108.55723   -16586.082    4.4679946    4.4679946    4.4679946   -16586.082    -8735.704   -40532.767   -489.77378    15828.241    2532.9749   -3457.7305    89.194467 
   17800     1304.174   -109.73682     1.180044   -108.55677    2448.1145    4.4317805    4.4317805    4.4317805    2448.1145    12944.621   -41297.187     35696.91    40222.958    3952.5841   -4948.8343    87.043176 
   17900    1321.7554   -109.74469     1.195952   -108.54874    57823.545    4.4190523    4.4190523    4.4190523    57823.545    72623.761    33759.576    67087.298   -22482.443    13477.873    18024.348    86.295356 
   18000    1184.0856   -109.64034    1.0713855   -108.56895   -46273.372    4.4712062    4.4712062    4.4712062   -46273.372   -54412.489   -80538.866   -3868.7604    43374.463    3055.2076    2178.4933    89.386948 
   18100    1348.9564   -109.76873    1.2205641   -108.54817   -6404.5114    4.4480163    4.4480163    4.4480163   -6404.5114    16627.008   -33030.111   -2810.4313   -50.681342   -2929.6967     11593.35    88.003332 
   18200    1306.4292   -109.70484    1.1820846   -108.52276    49413.262    4.4143699    4.4143699    4.4143699    49413.262    18671.419    35535.999    94032.367    10895.762    11212.344    7579.4447    86.021332 
   18300    1688.5453   -110.08873    1.5278313    -108.5609    -26005.58      4.44443      4.44443      4.44443    -26005.58   -36642.038   -30366.889   -11007.813    28165.878   -5514.6312    2343.6513    87.790639 
   18400    1394.3136   -109.82056    1.2616042   -108.55896    21090.763    4.4401077    4.4401077    4.4401077    21090.763    7852.0753    14109.011    41311.202    -18038.95    8675.1036    15571.624    87.534754 
   18500      1368.05   -109.79887    1.2378404   -108.56103    22361.994    4.4455753    4.4455753    4.4455753    22361.994    25085.988   -19409.009    61409.002    1056.8157    7017.9842     -13582.4    87.858526 
   18600    1590.6622   -109.98485    1.4392646   -108.54558   -33839.979    4.4607151    4.4607151    4.4607151   -33839.979    246.11149   -54801.679   -46964.371    14619.742    1288.8666   -13911.942    88.759215 
   18700    1108.7838   -109.54719    1.0032509   -108.54394    22695.594    4.4199708    4.4199708    4.4199708    22695.594   -2175.6246    48133.233    22129.174    4973.3204    13589.058    15684.279    86.349179 
   18800    1373.2593   -109.80437    1.2425539   -108.56182    39524.261    4.4239515    4.4239515    4.4239515    39524.261    71967.567    381.96833    46223.246   -13285.497    2403.7487    -11866.54    86.582688 
   18900    1218.8599   -109.66286      1.10285   -108.56001   -14937.184    4.4675959    4.4675959    4.4675959   -14937.184    1534.1082   -50781.664    4436.0049    8588.4737    9393.3246   -14207.758    89.170594 
   19000    1333.8818    -109.7521    1.2069243   -108.54518   -4778.5296    4.4490719    4.4490719    4.4490719   -4778.5296   -57884.783    1142.6926    42406.501    -1434.065    4983.9712    6481.7074    88.066002 
   19100    1917.7026   -110.26704    1.7351776   -108.53186    3512.1438    4.4285978    4.4285978    4.4285978    3512.1438    20563.594   -7755.7762   -2271.3866   -8951.2975   -7187.7934   -13375.468    86.855779 
   19200    1574.6512   -109.97365    1.4247775   -108.54888   -11598.228    4.4478751    4.4478751    4.4478751   -11598.228   -26234.413   -28325.251     19764.98    15813.891    -2614.691   -2477.9579    87.994947 
   19300    1244.2039   -109.67337    1.1257819   -108.54759    251.87698    4.4542576    4.4542576    4.4542576    251.87698   -54548.794    27011.588    28292.837    2124.6211    4271.0078    1306.2816    88.374303 
   19400    1365.4646    -109.7854    1.2355011    -108.5499   -5463.0255     4.443375     4.443375     4.443375   -5463.0255    2645.2522   -1012.5961   -18021.732   -11632.233    7944.2581   -21796.811    87.728139 
   19500    797.97739   -109.28215   0.72202671   -108.56013    33738.521    4.4416282    4.4416282    4.4416282    33738.521   -21394.741    53446.568    69163.738    19640.718   -949.34664    15671.617     87.62471 
   19600    1579.9065   -109.98564    1.4295326    -108.5561   -9679.0798     4.454523     4.454523     4.454523   -9679.0798   -21962.677   -25013.594    17939.031   -7590.4622    -582.8866   -21396.782    88.390097 
   19700    1077.0407   -109.53171   0.97452909   -108.55719    1808.5757    4.4480908    4.4480908    4.4480908    1808.5757   -20552.448   -20154.593    46132.768    6229.0783   -3733.6343   -33159.281    88.007751 
   19800    1464.0922   -109.87529    1.3247413   -108.55055    14944.363    4.4416498    4.4416498    4.4416498    14944.363   -36404.774    14155.406    67082.456    2300.4571    9121.7058    17321.355    87.625989 
   19900    1395.4709   -109.82643    1.2626514   -108.56378   -21206.364    4.4546849    4.4546849    4.4546849   -21206.364   -26044.261   -34762.962   -2811.8677   -2120.8548    2062.0227   -12176.211    88.399738 
   20000      1236.88   -109.68044     1.119155   -108.56128   -32044.178    4.4609925    4.4609925    4.4609925   -32044.178   -42123.488   -35728.095   -18280.951    20144.802   -20172.921   -8922.4702    88.775779 
   20100    1645.0988   -110.03341      1.48852   -108.54489   -5713.5532    4.4495152    4.4495152    4.4495152   -5713.5532   -21712.365   -10585.012    15156.717   -7871.4695   -12987.085    2532.4946    88.092329 
   20200    1312.2255   -109.74159    1.1873292   -108.55426   -11371.926    4.4465547    4.4465547    4.4465547   -11371.926   -22487.345   -26720.244    15091.811    2224.3443   -5865.2587   -24841.113    87.916607 
   20300    1705.0891   -110.09507    1.5428005   -108.55227   -27389.715    4.4445213    4.4445213    4.4445213   -27389.715    -53794.65   -19443.408   -8931.0864    8979.4446   -13305.292    7265.3191     87.79605 
   20400    1156.3408   -109.61303    1.0462815   -108.56675    29234.833    4.4376034    4.4376034    4.4376034    29234.833   -28357.328    23548.562    92513.266    -9328.921     3743.519     3086.941    87.386724 
   20500    1798.6795   -110.20425     1.627483   -108.57677   -21750.682    4.4504945    4.4504945    4.4504945   -21750.682   -36908.477   -13422.206   -14921.363    6163.9916   -10115.006   -25384.474    88.150507 
   20600     1287.096   -109.73689    1.1645915    -108.5723    23494.475    4.4357726    4.4357726    4.4357726    23494.475    -38488.21    7992.5093    100979.13   -4164.0767    -5924.565    18564.628     87.27861 
   20700    1506.0025   -109.94914    1.3626627   -108.58648   -1578.2479    4.4462775    4.4462775    4.4462775   -1578.2479   -23378.667    517.46491    18126.458   -2358.6374     12779.46   -12541.344    87.900164 
   20800    1691.5128   -110.09774    1.5305164   -108.56723   -22394.735    4.4648604    4.4648604    4.4648604   -22394.735   -44052.565    2722.7547   -25854.396   -1275.3773   -13477.046   -22948.898    89.006894 
   20900     1071.877   -109.51794   0.96985687   -108.54809   -8783.1994    4.4577827    4.4577827    4.4577827   -8783.1994   -52202.879   -26490.238    52343.519   -13089.357    16004.099    14848.992    88.584285 
   21000     1604.943   -109.98687    1.4521861   -108.53468   -11330.279    4.4492282    4.4492282    4.4492282   -11330.279   -22569.069   -20329.638    8907.8712    4548.7096    15502.822   -28713.988    88.075283 
   21100    1724.4867   -110.10569    1.5603518   -108.54534   -7037.4153    4.4484233    4.4484233    4.4484233   -7037.4153   -45986.799    3678.3762    21196.177   -16630.665   -3759.6096   -5137.0833    88.027488 
   21200    1033.5745   -109.50329   0.93519989   -108.56809   -3101.5522    4.4602208    4.4602208    4.4602208   -3101.5522   -47699.871    13308.247    25086.967   -2079.0773    10988.806    1736.2623    88.729711 
   21300    1544.2503   -109.94829    1.3972701   -108.55102   -22754.426    4.4496501    4.4496501    4.4496501   -22754.426   -15498.086   -33858.274   -18906.918    8557.7727     2746.777   -10507.752    88.100341 
   21400    1432.8856   -109.83915     1.296505   -108.54264     10809.72    4.4316642    4.4316642    4.4316642     10809.72   -19214.332    5386.8267    46256.664   -5899.3221    21249.696     5165.524    87.036326 
   21500    920.91417   -109.40559   0.83326249   -108.57233   -10104.816    4.4439276    4.4439276    4.4439276   -10104.816   -38181.384    18111.319   -10244.384     9646.971    21259.119    10563.472    87.760872 
   21600    1887.4895   -110.27462    1.7078402   -108.56678   -6827.3605    4.4531855    4.4531855    4.4531855   -6827.3605   -21277.783   -24831.538    25627.239   -2780.4611   -8687.7044   -4658.1757    88.310504 
   21700    1492.0318   -109.91864    1.3500218   -108.56862   -6995.9965    4.4534326    4.4534326    4.4534326   -6995.9965   -47516.258    2228.4845    24299.784   -853.44875    13397.699    10182.151    88.325206 
   21800    975.50791   -109.44776   0.88266006    -108.5651      18619.3    4.4422907    4.4422907    4.4422907      18619.3   -30732.485    40154.928    46435.457    26392.064   -8993.0262    11623.021    87.663926 
   21900    1930.9183   -110.29931    1.7471354   -108.55217    4693.9034    4.4445914    4.4445914    4.4445914    4693.9034   -21521.188    16814.509    18788.389   -5958.1383     10794.44   -13404.991    87.800202 
   22000    706.52232   -109.21189   0.63927625   -108.57262     18472.95    4.4463962    4.4463962    4.4463962     18472.95   -43376.101    70360.428    28434.522   -1947.0264    848.80163   -9913.1143    87.907205 
   22100    1492.1522   -109.92619    1.3501307   -108.57605   -3523.1385    4.4504149    4.4504149    4.4504149   -3523.1385   -16904.389    27747.579   -21412.605    1495.1297   -14341.558   -445.86735    88.145776 
   22200    1199.7795   -109.65389    1.0855857   -108.56831    35369.997    4.4473375    4.4473375    4.4473375    35369.997   -16001.775    82081.688    40030.079   -4080.6478    11285.724   -8690.0639    87.963046 
   22300    1016.7324   -109.49033   0.91996083   -108.57037    19344.724    4.4586984    4.4586984    4.4586984    19344.724   -53931.245    61582.456    50382.961    7584.8145   -13904.393    10499.479    88.638886 
   22400    1832.4395    -110.1984    1.6580298   -108.54037   -20527.047    4.4696777    4.4696777    4.4696777   -20527.047   -41196.464   -8795.2683   -11589.407    4613.2712    6600.2824   -7917.3562    89.295303 
   22500    1112.5975   -109.53682    1.0067016   -108.53011     44715.48     4.437594     4.437594     4.437594     44715.48   -3245.6788    78858.051    58534.068    -20262.23   -1316.2758   -11721.249    87.386169 
   22600    1293.3291   -109.72175    1.1702313   -108.55152    3679.3666    4.4344368    4.4344368    4.4344368    3679.3666    39416.012   -22215.237   -6162.6753   -2595.8225   -3841.6926    19203.937    87.199781 
   22700    1425.5124   -109.85288    1.2898336   -108.56305   -1382.0582    4.4435016    4.4435016    4.4435016   -1382.0582   -13024.526   -6928.3349    15806.687    5434.3894     11471.76    9895.7397    87.735637 
   22800    1488.8394   -109.91461    1.3471332   -108.56748   -451.51846    4.4497302    4.4497302    4.4497302   -451.51846   -18659.775   -13730.413    31035.633    5527.9084   -21231.591    2709.7603    88.105097 
   22900    1416.6277   -109.83834    1.2817945   -108.55655   -12420.982    4.4651111    4.4651111    4.4651111   -12420.982    17809.306   -28391.745   -26680.506     8072.981    6196.5664    11409.689    89.021888 
   23000    1459.2068    -109.8666     1.320321   -108.54628   -6088.6651    4.4418557    4.4418557    4.4418557   -6088.6651   -42585.507    17909.926     6409.586   -2711.6057   -26419.333   -9371.5846    87.638175 
   23100    1380.8927   -109.79206    1.2494607    -108.5426    27140.771    4.4230376    4.4230376    4.4230376    27140.771    29077.153     43502.99    8842.1697   -4440.6016   -8359.5196    14197.486    86.529041 
   23200    1479.8175   -109.89936      1.33897   -108.56039   -26057.021    4.4458492    4.4458492    4.4458492   -26057.021   -24394.101   -20872.697   -32904.265    18904.661   -1909.1469    20497.876    87.874764 
   23300    1069.3278    -109.5241   0.96755027   -108.55655   -33187.401    4.4597901    4.4597901    4.4597901   -33187.401   -75442.259    2913.9359   -27033.879   -3024.1866    -39436.99   -5207.8033    88.704008 
   23400    1626.3696   -110.00853    1.4715734   -108.53695   -19493.902    4.4551273    4.4551273    4.4551273   -19493.902   -17930.472   -26017.392   -14533.844    12080.243    9409.8473    24231.048    88.426079 
   23500    1035.3964   -109.49659   0.93684846   -108.55974   -16142.236    4.4360999    4.4360999    4.4360999   -16142.236   -43370.063    21943.239   -26999.884    6791.2838   -33657.086   -8329.6823    87.297932 
   23600     1430.735   -109.86807    1.2945591   -108.57351    15640.035    4.4291236    4.4291236    4.4291236    15640.035   -4670.2317    27851.634    23738.702    4329.6723   -3750.4474   -1230.9622    86.886718 
   23700    1888.5562   -110.28676    1.7088053   -108.57795   -8957.1066      4.45435      4.45435      4.45435   -8957.1066   -22515.433   -16403.466    12047.579    6158.8814    4943.0369    23064.953    88.379802 
   23800    590.78502   -109.10553    0.5345547   -108.57098     10395.04    4.4621219    4.4621219    4.4621219     10395.04    -41203.33    52853.795    19534.655    7025.4586   -34703.035   -4965.2195    88.843218 
   23900    1898.8743   -110.24893    1.7181414   -108.53079    1848.7719     4.453764     4.453764     4.453764    1848.7719    9969.5215   -18723.243    14300.037    5973.0302    21908.197    8762.5516    88.344922 
   24000    962.84397   -109.41558   0.87120146   -108.54438     5356.926    4.4376166    4.4376166    4.4376166     5356.926   -29066.351    -7800.907    52938.036    20090.792   -30170.746    15559.279    87.387506 
   24100    1389.6121   -109.81601    1.2573502   -108.55866    3135.5879    4.4344462    4.4344462    4.4344462    3135.5879   -29378.164    4757.2326    34027.695    7499.3628   -15464.205    6876.3897    87.200338 
   24200    1648.1628   -110.05519    1.4912924    -108.5639    3399.5901    4.4524384    4.4524384    4.4524384    3399.5901   -19012.822    13690.109    15521.484   -3587.6377    22823.069    14567.569    88.266063 
   24300    1203.2318   -109.66553    1.0887094   -108.57682   -19181.478    4.4501065    4.4501065    4.4501065   -19181.478   -48919.149   -11154.957    2529.6727     22520.58   -40118.947   -3474.4291    88.127451 
   24400    1719.2488   -110.11672    1.5556124   -108.56111    1354.3296    4.4509256    4.4509256    4.4509256    1354.3296   -21574.445    17671.905    7965.5284   -1702.0528    13826.504    16104.112    88.176127 
   24500    960.32712   -109.42012   0.86892416    -108.5512    7854.1856      4.45772      4.45772      4.45772    7854.1856   -25114.045    19609.669    29066.933    12410.498   -22169.357    18040.966    88.580545 
   24600    1532.2071   -109.92093    1.3863732   -108.53456     -14839.5    4.4546032    4.4546032    4.4546032     -14839.5   -19589.789   -36005.498    11076.787     17414.42     -9610.91    9192.5975    88.394874 
   24700    2033.3145   -110.37792    1.8397857   -108.53813    501.14759    4.4419464    4.4419464    4.4419464    501.14759   -2593.7699    9374.6176    -5277.405   -11623.842    3382.7309   -232.09839    87.643549 
   24800    903.34139   -109.38269   0.81736228   -108.56532     17951.81    4.4393919    4.4393919    4.4393919     17951.81   -31305.405    7511.2818    77649.552    31979.507   -22948.341    8889.2703    87.492425 
   24900    1685.4772   -110.09287    1.5250552   -108.56781   -11998.168    4.4599828    4.4599828    4.4599828   -11998.168   -36166.835    23076.175   -22903.845    649.40124    8419.6981    6623.6387    88.715508 
   25000    1498.5565   -109.91171    1.3559254   -108.55579   -4132.6997    4.4588135    4.4588135    4.4588135   -4132.6997   -38576.173    30389.314   -4211.2401    7365.7269   -8456.0629     11508.03    88.645751 
   25100    847.64925    -109.3181   0.76697085   -108.55113    33116.203    4.4372364    4.4372364    4.4372364    33116.203    56.130726    2348.5701    96943.908    28786.226   -18570.644    15488.024    87.365042 
   25200    2035.5597   -110.39429    1.8418171   -108.55248    85.484286    4.4414331    4.4414331    4.4414331    85.484286    1700.5458    -3913.439    2469.3461   -15425.562    15189.165     9578.643    87.613167 
   25300    822.51153   -109.31938   0.74422572   -108.57515    10385.187    4.4573793    4.4573793    4.4573793    10385.187   -34496.248     9650.418    56001.392    16017.169   -6278.4469    2032.2049    88.560239 
   25400    1376.9284   -109.81287    1.2458737     -108.567   -23380.572     4.466261     4.466261     4.466261   -23380.572   -6712.7513    -10155.52   -53273.446    5119.8005   -5329.4857    10228.738    89.090687 
   25500    1940.2011   -110.30568    1.7555347   -108.55014   -2320.6888    4.4423202    4.4423202    4.4423202   -2320.6888   -11442.704   -22502.611    26983.249    -3399.542    10686.319   -10418.968    87.665673 
   25600    1184.8474   -109.63719    1.0720748   -108.56511    18304.459    4.4435879    4.4435879    4.4435879    18304.459    5069.9209    12100.289    37743.167    24492.012   -9153.3582    1901.5358    87.740748 
   25700    1723.2637   -110.10814    1.5592452   -108.54889   -28768.602    4.4735677    4.4735677    4.4735677   -28768.602   -37097.348   -2610.9099   -46597.547   -5000.2815    15629.229    17032.716    89.528653 
   25800    1232.1756   -109.65719    1.1148984   -108.54229   -10613.248    4.4537701    4.4537701    4.4537701   -10613.248   -47093.118    -48844.06    64097.434    32177.627    3210.2044    1950.7798    88.345287 
   25900    1555.8862   -109.94329    1.4077986   -108.53549    11952.752    4.4316751    4.4316751    4.4316751    11952.752    19342.485    3885.3528    12630.418    16870.656   -12264.614    1523.3687    87.036964 
   26000    1379.4496   -109.81199     1.248155   -108.56383    7151.4431    4.4556508    4.4556508    4.4556508    7151.4431    -25308.64   -18279.277    65042.247    5866.6817    13938.569    25.049864    88.457253 
   26100    919.17111   -109.39722   0.83168534   -108.56553   -17505.001     4.469796     4.469796     4.469796   -17505.001   -38506.421   -54696.656    40688.074    31690.762   -2802.3309   -10968.447    89.302397 
   26200    1968.9679   -110.32633    1.7815635   -108.54477   -5121.0438    4.4478934    4.4478934    4.4478934   -5121.0438   -5958.9603   -7430.5022   -1973.6689   -6623.2045   -11027.593    1672.4896    87.996039 
   26300    1424.4315   -109.84678    1.2888555   -108.55793    23942.971    4.4323352    4.4323352    4.4323352    23942.971    1769.2714   -1959.0793    72018.722     16118.06     157.1917    3295.2934    87.075863 
   26400    1121.8474   -109.60598    1.0150711   -108.59091   -23355.782    4.4511227    4.4511227    4.4511227   -23355.782   -34895.298    1429.2693   -36601.316    18977.951   -34977.683   -8389.1475    88.187841 
   26500    1846.2024   -110.23993    1.6704827   -108.56945   -15357.148    4.4509993    4.4509993    4.4509993   -15357.148   -4983.7008    -12993.92   -28093.823   -3468.7901     9888.458   -20070.379    88.180505 
   26600    1347.5846   -109.78634    1.2193228   -108.56702   -24977.639    4.4534165    4.4534165    4.4534165   -24977.639   -44383.996    8244.8897    -38793.81    16193.573   -17335.137     3294.509    88.324245 
   26700    1318.0546   -109.75194    1.1926035   -108.55933   -18700.813    4.4538161    4.4538161    4.4538161   -18700.813   -21614.928    2346.1373   -36833.647     -5302.28   -23633.343   -15180.711    88.348027 
   26800    1917.2287   -110.27541    1.7347488   -108.54066   -4953.1216    4.4429943    4.4429943    4.4429943   -4953.1216    18910.947   -4391.1438   -29379.168     12929.11    21147.006   -16499.447    87.705589 
   26900    1069.4495   -109.52658   0.96766034   -108.55892    -2505.136    4.4537199    4.4537199    4.4537199    -2505.136   -12205.277    55366.715   -50676.846     2890.326   -37707.126    2445.3256    88.342299 
   27000    1580.2813   -109.97757    1.4298718    -108.5477    -31359.67    4.4602104    4.4602104    4.4602104    -31359.67   -15634.387   -16389.029   -62055.594   -5295.3816    10849.798   -13474.972    88.729094 
   27100    1472.0941   -109.88251    1.3319817   -108.55053    6986.5633    4.4295429    4.4295429    4.4295429    6986.5633    23710.614    17553.551   -20304.474    4558.3614    -11595.79   -10696.224    86.911401 
   27200    1332.8016   -109.77291    1.2059469   -108.56697    8945.7884    4.4290893    4.4290893    4.4290893    8945.7884   -14292.676    80687.597   -39557.555    13224.198   -28232.202    246.27768    86.884704 
   27300    1602.4023   -110.01845    1.4498873   -108.56857   -30680.112    4.4526968    4.4526968    4.4526968   -30680.112   -25319.584   -21159.273    -45561.48   -7792.7353    26757.971   -21030.095    88.281429 
   27400    1077.3264   -109.53564   0.97478757   -108.56085   -23070.952    4.4525181    4.4525181    4.4525181   -23070.952   -20622.814   -3896.8968   -44693.147    -2644.347   -26488.624   -424.21539    88.270802 
   27500    1844.4792   -110.20935    1.6689236   -108.54042    -21885.11     4.449408     4.449408     4.449408    -21885.11   -32043.186    3377.9811   -36990.125    9660.3372    3000.5388    10206.821    88.085962 
   27600    1026.0005   -109.48268   0.92834679   -108.55434   -7673.8861    4.4423676    4.4423676    4.4423676   -7673.8861    20758.274   -9096.8832    -34683.05   -8726.7761    11780.517   -27178.838    87.668479 
   27700    1678.2941   -110.06861    1.5185558   -108.55005    8130.6161    4.4220974    4.4220974    4.4220974    8130.6161   -14434.085    30118.736    8707.1977     8589.962    -19975.08   -328.11134    86.473875 
   27800     1365.261   -109.81777    1.2353169   -108.58245    10026.745    4.4466723    4.4466723    4.4466723    10026.745     41201.34    4949.3161    -16070.42    10033.905    23163.402    5044.1685    87.923582 
   27900    1295.5634   -109.72977     1.172253   -108.55752   -36841.708    4.4648058    4.4648058    4.4648058   -36841.708   -11043.932   -34535.922   -64945.269   -14621.193   -6654.0468   -24548.605    89.003629 
   28000    1441.2944   -109.84383    1.3041135   -108.53972    19774.783     4.423776     4.423776     4.423776    19774.783   -1281.7879    31400.844    29205.294    13842.634   -10703.473   -762.21138    86.572388 
   28100    1543.4837   -109.95817    1.3965764   -108.56159     15191.62    4.4310003    4.4310003    4.4310003     15191.62    22475.757    14294.265    8804.8373   -1415.1245    19915.563   -5057.2917    86.997214 
   28200    1564.6962   -109.97561      1.41577   -108.55984    -32983.12    4.4576478    4.4576478    4.4576478    -32983.12   -25298.835    -43303.55   -30346.976   -19909.078   -4178.3929   -6436.6718    88.576241 
   28300    1214.6013   -109.64817    1.0989968   -108.54917    24331.979    4.4399539    4.4399539    4.4399539    24331.979    35905.236    12017.798    25072.903    18594.648      1686.96    1385.5732    87.525656 
   28400    1609.1188   -110.00961    1.4559645   -108.55365   -9592.5602    4.4497843    4.4497843    4.4497843   -9592.5602   -11266.059    9745.4757   -27257.098   -9810.9239    5269.1245   -15787.309    88.108312 
   28500    731.15123   -109.22466     0.661561   -108.56309   -1981.5618    4.4474028    4.4474028    4.4474028   -1981.5618    24581.193   -38706.423    8180.5449   -24143.276   -12280.046    7313.7286    87.966921 
   28600    1794.1031   -110.18057    1.6233422   -108.55722   -3089.8764    4.4228129    4.4228129    4.4228129   -3089.8764   -26411.195    2648.8724    14492.694    29223.761    4525.1074   -2026.2011    86.515855 
   28700    1573.1026   -110.00727    1.4233763   -108.58389    -2020.544    4.4451811    4.4451811    4.4451811    -2020.544    16152.768   -14393.099   -7821.3011   -29674.302    1557.8315    -8503.355    87.835154 
   28800    1078.9508   -109.54447   0.97625737   -108.56822   -56145.536    4.4693036    4.4693036    4.4693036   -56145.536   -82535.474   -58153.338   -27747.795   -7649.2803   -19662.764    12958.229    89.272883 
   28900    1488.5797   -109.89578    1.3468982   -108.54889   -728.69833    4.4381458    4.4381458    4.4381458   -728.69833    21150.663   -13205.145   -10131.613    21677.731    8558.1331   -6306.9671    87.418773 
   29000    1490.9323   -109.89796    1.3490269   -108.54894    6721.8398    4.4177865    4.4177865    4.4177865    6721.8398    11681.709   -9162.6835    17646.494   -25781.098   -7706.2219   -8210.3193    86.221223 
   29100    835.53121   -109.34707    0.7560062   -108.59106    4615.8017    4.4463687    4.4463687    4.4463687    4615.8017    32333.682   -25146.618    6660.3408    22062.099    420.19478    8629.8179    87.905577 
   29200    1914.3949    -110.2956    1.7321848   -108.56341   -27275.427    4.4724099    4.4724099    4.4724099   -27275.427   -2705.3388   -18224.502    -60896.44    6235.7144    5535.7374    5130.2029    89.459159 
   29300    798.76735   -109.27962   0.72274148   -108.55688   -5376.2298    4.4557066    4.4557066    4.4557066   -5376.2298   -5041.9701   -28318.634    17231.915    2776.9829   -17180.834    3510.6618    88.460577 
   29400    1764.6237   -110.12137    1.5966686    -108.5247    7163.6896    4.4244075    4.4244075    4.4244075    7163.6896   -11148.438    3603.4507    29036.056    24190.477   -12520.029    2781.4396    86.609467 
   29500     1352.663   -109.77822    1.2239179    -108.5543    2217.1192    4.4364802    4.4364802    4.4364802    2217.1192   -4853.3241    32.316448    11472.365   -10363.991    6019.1692    7051.1936    87.320385 
   29600    1392.3804   -109.82737    1.2598551   -108.56752   -22913.821    4.4668125    4.4668125    4.4668125   -22913.821   -35132.515   -45421.701    11812.754     8966.075   -17525.169   -1092.4693    89.123692 
   29700    1597.1606   -109.97589    1.4451445   -108.53074   -20059.452    4.4792369    4.4792369    4.4792369   -20059.452    -5754.758   -11917.851   -42505.747    142.90127    22007.878    3644.9613    89.869454 
   29800    1254.5069   -109.66123    1.1351042   -108.52613   -9112.4626    4.4377692    4.4377692    4.4377692   -9112.4626   -29343.821    16096.273    -14089.84   -2123.0758    3771.6908    5637.1627    87.396517 
   29900    1352.3768    -109.7316     1.223659   -108.50794    51232.734    4.3958141    4.3958141    4.3958141    51232.734     57555.02    27484.607    68658.574    20565.567   -15701.473    976.25392    84.941112 
   30000     1422.253   -109.86956    1.2868844   -108.58267   -18219.484    4.4415196    4.4415196    4.4415196   -18219.484    -46477.97    25500.378    -33680.86   -15702.229    36006.429    2757.5285    87.618288 
   30100    1281.6582   -109.70042    1.1596713   -108.54075   -38142.531    4.4755525    4.4755525    4.4755525   -38142.531   -60893.089   -31025.932   -22508.571    8446.1876   -12632.784    9762.0118    89.647868 
   30200     1414.382   -109.80691    1.2797626   -108.52715    15583.409    4.4382365    4.4382365    4.4382365    15583.409   -6785.5802    13124.327     40411.48    11510.241    9283.4616    13103.596    87.424129 
   30300    1244.8287   -109.65678    1.1263472   -108.53043    29471.622    4.4127581    4.4127581    4.4127581    29471.622    25716.181     52602.73    10095.956   -9613.5951    12901.838   -1747.5669    85.927139 
   30400    1764.0719    -110.1655    1.5961693   -108.56933    278.16668    4.4383976    4.4383976    4.4383976    278.16668    6452.4985   -4267.3677   -1350.6308    19675.868   -15194.932   -3688.6005    87.433654 
   30500    1007.9698   -109.47757   0.91203225   -108.56554   -3665.7399    4.4604799    4.4604799    4.4604799   -3665.7399   -36096.744    19417.115    5682.4093    6538.5522    22719.128    1121.4844    88.745175 
   30600    1023.4248   -109.47082   0.92601624    -108.5448    8626.6846    4.4415297    4.4415297    4.4415297    8626.6846   -18256.893    38271.803    5865.1439   -11227.727   -18049.342    377.54485    87.618882 
   30700    1799.4483   -110.15887    1.6281786   -108.53069    754.06797    4.4352053    4.4352053    4.4352053    754.06797    26069.173    6994.5976   -30801.566    3390.5193     20950.84   -6998.5454    87.245127 
   30800    938.91475   -109.40698    0.8495498   -108.55743    5539.2611    4.4336216    4.4336216    4.4336216    5539.2611    -16418.78    28363.116    4673.4471   -5057.6323     14854.92   -283.80936    87.151701 
   30900    1634.7322   -110.03873      1.47914   -108.55959    11858.814    4.4529139    4.4529139    4.4529139    11858.814    48097.188   -5189.3778   -7331.3685   -460.00704   -1149.6374   -553.49025    88.294346 
   31000    1284.1387   -109.71441    1.1619157    -108.5525   -42695.208    4.4635523    4.4635523    4.4635523   -42695.208   -42509.871   -8081.5927   -77494.161   -5592.3649    50028.783    8469.5819     88.92869 
   31100     1117.025   -109.55343    1.0107077   -108.54272    14637.427       4.4088       4.4088       4.4088    14637.427    11207.897    12482.984    20221.398   -24177.128    6833.5156   -3780.1783    85.696126 
   31200    1826.3813   -110.20743    1.6525481   -108.55488    24253.605     4.420337     4.420337     4.420337    24253.605    36680.027    24198.868     11881.92   -1677.8865    7829.0595   -4349.5782    86.370643 
   31300    749.81296   -109.23227   0.67844653   -108.55383   -58462.977    4.4655767    4.4655767    4.4655767   -58462.977    -67559.61   -28643.845   -79185.477    6686.2983    30453.038    3505.2633    89.049743 
   31400    1975.2096   -110.31133    1.7872112   -108.52412   -6741.9932    4.4395376    4.4395376    4.4395376   -6741.9932    8824.2758    -9152.943   -19897.312   -15435.927   -8605.3778    -6353.972    87.501041 
   31500    1243.9768   -109.66198    1.1255764   -108.53641    -25894.11    4.4370059    4.4370059    4.4370059    -25894.11   -50893.995    27260.893   -54049.229   -8519.7732    47238.203    2338.5538    87.351431 
   31600    1180.0195   -109.61772    1.0677065   -108.55002   -18201.987    4.4243556    4.4243556    4.4243556   -18201.987   -32755.707   -2911.7108   -18938.544    8197.0601    954.57533   -5893.2283    86.606415 
   31700    2161.6452   -110.51145     1.955902   -108.55554    5167.8727    4.4271792    4.4271792    4.4271792    5167.8727    4171.1034    27706.509   -16373.994    2073.9117    8568.1473   -9271.4606    86.772341 
   31800    588.77868   -109.09702   0.53273933   -108.56428   -64152.264    4.4645109    4.4645109    4.4645109   -64152.264   -96512.012   -19049.594   -76895.186    4448.6682    32772.049   -3135.8681    88.985998 
   31900    1943.6589   -110.28461    1.7586634   -108.52595    7465.4587    4.4267073    4.4267073    4.4267073    7465.4587    13170.913   -16617.251    25842.714   -3355.9637   -13149.848    11195.704    86.744593 
   32000    1074.6287   -109.51207   0.97234661   -108.53972   -8911.7532    4.4190585    4.4190585    4.4190585   -8911.7532    -16471.14    85.807731   -10349.927    67.923762    43914.385   -15814.801    86.295717 
   32100    1383.5135   -109.80197    1.2518321   -108.55014   -23128.349    4.4413391    4.4413391    4.4413391   -23128.349   -43850.167    -10314.04    -15220.84    27225.923    4379.1451   -8394.0403    87.607601 
   32200    1736.4123   -110.11437    1.5711423   -108.54323    20688.252    4.4383638    4.4383638    4.4383638    20688.252    18820.225    18093.503    25151.028   -17651.315    14380.346     2442.043    87.431652 
   32300    933.28507    -109.4021   0.84445594   -108.55764   -24394.434    4.4558699    4.4558699    4.4558699   -24394.434    -45290.08   -4074.4113    -23818.81    10808.688      19427.8   -13460.548      88.4703 
   32400    2279.9528   -110.58296    2.0629492   -108.52001   -7746.3025    4.4413055    4.4413055    4.4413055   -7746.3025   -15600.264    4076.3146   -11714.958    -11065.57   -9246.3617    14849.105    87.605613 
   32500    742.12631   -109.20652   0.67149148   -108.53503    17978.778    4.4270662    4.4270662    4.4270662    17978.778    42379.019    4338.1729    7219.1416    -9128.769    45008.695   -9827.8284    86.765692 
   32600    2067.2469   -110.40504    1.8704884   -108.53455   -14648.209    4.4417477    4.4417477    4.4417477   -14648.209   -1671.8075    -31995.16   -10277.659    7298.0112   -15654.801   -3630.8028    87.631784 
   32700    1241.3301   -109.67425    1.1231816   -108.55107    2087.4456    4.4293248    4.4293248    4.4293248    2087.4456    5841.1182   -681.20064    1102.4193   -3236.8801    34724.414    4696.0478    86.898562 
   32800    1319.4186   -109.75842    1.1938377   -108.56459    12041.289    4.4309329    4.4309329    4.4309329    12041.289    34497.538       5563.5    -3937.172   -3546.2901     10221.14   -11487.273    86.993242 
   32900    1644.9133   -110.03401    1.4883522   -108.54566   -32234.076    4.4563104    4.4563104    4.4563104   -32234.076   -46546.955   -23537.178   -26618.096   -1857.7614     13125.42    14460.832     88.49654 
   33000    795.01573   -109.26188   0.71934694   -108.54254    6589.7717    4.4360315    4.4360315    4.4360315    6589.7717     200.1448    10366.662    9202.5081    13515.943    46716.275   -601.43433    87.293893 
   33100    2188.1559   -110.50461    1.9798894   -108.52472    17648.361    4.4301248    4.4301248    4.4301248    17648.361    29272.166    14592.503    9080.4154   -4248.5515   -23813.068   -5414.6266    86.945654 
   33200    893.55902   -109.36273   0.80851098   -108.55422   -14506.763    4.4439026    4.4439026    4.4439026   -14506.763   -23404.184    16726.204   -36842.309   -2919.9607    46668.888    11625.889    87.759392 
   33300    1438.1807   -109.84464    1.3012961   -108.54334    7754.8319    4.4408117    4.4408117    4.4408117    7754.8319     26456.18   -4433.9467    1242.2621    7679.6916    7081.6394   -9261.6549      87.5764 
   33400    1135.0808   -109.57169    1.0270449   -108.54464    17529.631     4.445941     4.445941     4.445941    17529.631    60962.198   -16665.644    8292.3394   -7644.2608    11469.593    11491.223    87.880211 
   33500    953.22061   -109.41188   0.86249404   -108.54938    596.37392     4.452731     4.452731     4.452731    596.37392    67841.811   -15700.925   -50351.765    11065.507    30901.233   -5233.7142    88.283465 
   33600    1657.8684   -110.03429    1.5000741   -108.53422     15481.55     4.443352     4.443352     4.443352     15481.55    96230.693   -30240.545   -19545.497   -6896.2686   -12960.547   -726.40039    87.726776 
   33700     1062.993   -109.51363   0.96181844   -108.55181    1186.1788    4.4308284    4.4308284    4.4308284    1186.1788    28061.164   -16876.826   -7625.8018   -11029.569    40591.255    19766.455    86.987088 
   33800    1413.0935   -109.84025    1.2785967   -108.56165    8235.3409    4.4350365    4.4350365    4.4350365    8235.3409    2498.6055   -6367.8599    28575.277    12082.722    16929.368   -16635.528    87.235164 
   33900    1447.9011    -109.8718    1.3100913   -108.56171   -4584.5513    4.4512428    4.4512428    4.4512428   -4584.5513   -7425.2108    1404.3497   -7732.7928   -7700.9195    1457.1992    31918.101    88.194977 
   34000    877.75459   -109.35054    0.7942108   -108.55633   -14252.373    4.4563485    4.4563485    4.4563485   -14252.373   -48403.841   -5870.4991    11517.221   -9058.7563     37229.19   -3212.9769    88.498814 
   34100    1938.5664   -110.29685    1.7540556   -108.54279    3884.1312    4.4192202    4.4192202    4.4192202    3884.1312    11646.592   -2478.1345    2483.9361    11391.738   -2659.8974    580.89659    86.305195 
   34200    1175.7521   -109.63564    1.0638452    -108.5718    17050.333    4.4154654    4.4154654    4.4154654    17050.333     30052.82    18323.255    2774.9247   -2471.4015     18220.68    40747.352    86.085392 
   34300    1559.4073   -109.98504    1.4109845   -108.57406   -30892.437     4.449682     4.449682     4.449682   -30892.437   -44352.022   -17181.412   -31143.876   -1225.9417    23321.412   -22753.324    88.102235 
   34400    1505.6462   -109.91772    1.3623403   -108.55538   -12869.404    4.4481423    4.4481423    4.4481423   -12869.404   -5316.0408   -10751.058   -22541.114     6783.098   -6613.0538    9838.9845    88.010812 
   34500     1111.919   -109.55948    1.0060877   -108.55339   -6653.8101    4.4379387    4.4379387    4.4379387   -6653.8101   -28172.967   -14429.375    22640.913   -3048.4967    31627.594    26989.339    87.406533 
   34600    1733.3078   -110.11863    1.5683333    -108.5503   -8727.5044    4.4352992    4.4352992    4.4352992   -8727.5044   -32923.533    291.00738    6450.0123   -7346.9197    9407.1606   -18581.441    87.250667 
   34700    1127.5113   -109.58169    1.0201959    -108.5615    30829.843    4.4408053    4.4408053    4.4408053    30829.843    17377.314    33073.391    42038.824    7358.8055     10659.75    21894.244    87.576018 
   34800    1444.6889   -109.85218    1.3071849   -108.54499   -3998.1654     4.462455     4.462455     4.462455   -3998.1654   -23944.915   -27848.507    39798.927   -16567.707    23198.921    1494.2275    88.863117 
   34900    1471.1153   -109.85319    1.3310961    -108.5221    -2449.932    4.4530742    4.4530742    4.4530742    -2449.932    5204.9378    6678.5956   -19233.329    296.03543   -2294.8816    12263.578    88.303882 
   35000    1222.0649   -109.62888      1.10575   -108.52313   -5.8912697    4.4290556    4.4290556    4.4290556   -5.8912697    -16126.29    41980.343   -25871.727   -10150.446    21742.982    13162.355    86.882716 
   35100    1496.6436    -109.8955    1.3541945   -108.54131    9631.1463    4.4265738    4.4265738    4.4265738    9631.1463    -7598.855    12762.862    23729.432   -10982.213    6209.9345    1468.9741    86.736748 
   35200    1415.1815   -109.84313     1.280486   -108.56264    8543.3071    4.4431506    4.4431506    4.4431506    8543.3071    5261.5098    27509.687   -7141.2754    7019.9417   -15793.469    24400.069    87.714848 
   35300     1258.617   -109.70026    1.1388231   -108.56144   -9702.7188     4.458754     4.458754     4.458754   -9702.7188   -28667.963    23012.975   -23453.169   -9688.7621    27349.984   -4049.6643      88.6422 
   35400    1583.4599   -109.98225    1.4327478   -108.54951   -8205.8397    4.4431068    4.4431068    4.4431068   -8205.8397   -3035.8539   -23914.147    2332.4815   -4897.3605   -3519.6287    9439.1112    87.712252 
   35500    1186.5442   -109.62232    1.0736101   -108.54871    23868.066    4.4229287    4.4229287    4.4229287    23868.066    52837.611    22918.038   -4151.4528    11858.509   -6561.5577    12932.702    86.522653 
   35600    1395.2827   -109.82793    1.2624811   -108.56545   -2971.9124    4.4421083    4.4421083    4.4421083   -2971.9124   -19960.363    17998.186   -6953.5598   -5801.6076    25839.805    -5806.242    87.653132 
   35700     1414.824   -109.83945    1.2801625   -108.55929    -22505.74    4.4608712    4.4608712    4.4608712    -22505.74   -474.79083   -51654.205   -15388.226    4479.3778   -3979.7357    18566.026    88.768536 
   35800     1501.033   -109.91787    1.3581662    -108.5597   -22422.109    4.4363589    4.4363589    4.4363589   -22422.109    2097.1887   -6871.1653   -62492.349   -1527.1729    17486.213   -22118.272    87.313221 
   35900    1471.0513   -109.88199    1.3310382   -108.55095    20163.289    4.4190147    4.4190147    4.4190147    20163.289    6805.8241    30928.846    22755.197   -10120.473    23548.451    5430.1936    86.293152 
   36000    1693.0679   -110.09671    1.5319234   -108.56479   -25013.717    4.4443809    4.4443809    4.4443809   -25013.717    9261.8951   -57021.033   -27282.011   -1380.0782   -1461.2542    154.59943    87.787733 
   36100    1610.9919   -110.01573    1.4576593   -108.55807   -14970.191    4.4375273    4.4375273    4.4375273   -14970.191   -6260.4898    795.83853   -39445.921   -4975.6952    11496.342   -32185.974    87.382229 
   36200    1365.1704    -109.7922    1.2352348   -108.55697    8832.8792    4.4375568    4.4375568    4.4375568    8832.8792     1064.346     16227.77    9206.5215    -4840.683    12296.482    5764.7699    87.383973 
   36300     1277.754   -109.70601    1.1561387   -108.54988   -32713.614    4.4536128    4.4536128    4.4536128   -32713.614    24794.585   -61315.024   -61620.404   -11815.857   -1654.5884   -46168.746     88.33593 
   36400    1759.1916   -110.13036    1.5917535    -108.5386   -8791.2451     4.424141     4.424141     4.424141   -8791.2451    9147.1128    11430.167   -46951.016   -5251.5929     18346.58   -7058.7342    86.593816 
   36500    1325.8686   -109.76078    1.1996738   -108.56111     5758.625    4.4218379    4.4218379    4.4218379     5758.625    22582.822   -1743.1129   -3563.8341   -4877.7809    5170.3532    -12529.76    86.458653 
   36600    1428.8438    -109.8638    1.2928479   -108.57095   -33837.723    4.4405996    4.4405996    4.4405996   -33837.723    8337.0414   -64993.655   -44856.556   -2053.2576   -4939.4326   -46193.771    87.563849 
   36700    1787.7644   -110.17604    1.6176068   -108.55843   -4548.3205    4.4329266    4.4329266    4.4329266   -4548.3205   -22011.271     36411.09    -28044.78   -2895.5056    17790.623    13097.526    87.110726 
   36800    749.30081   -109.25079   0.67798312    -108.5728    -17577.43    4.4447756    4.4447756    4.4447756    -17577.43     3517.158   -8308.4789   -47940.969   -5350.9078   -10004.531   -28877.831    87.811122 
   36900    1547.2744   -109.95355    1.4000064   -108.55355   -17853.305    4.4402251    4.4402251    4.4402251   -17853.305     17864.22   -35216.619   -36207.514    8530.1594    6287.8352   -32560.781    87.541699 
   37000    1681.8467   -110.06644    1.5217703   -108.54467    33007.922    4.4181369    4.4181369    4.4181369    33007.922     10505.84    57834.409    30683.518   -17144.439    2938.2496    5521.9656    86.241741 
   37100    1048.6356   -109.52572   0.94882757   -108.57689   -12006.527    4.4330063    4.4330063    4.4330063   -12006.527    14589.904   -16493.552   -34115.934    1706.6141   -18802.845   -28181.547     87.11542 
   37200    1934.1827   -110.30715    1.7500892   -108.55706   -11299.285    4.4504196    4.4504196    4.4504196   -11299.285   -7450.3394   -4149.3627   -22298.154    12137.826   -901.80008   -3407.8291    88.146055 
   37300    1266.3991   -109.69736    1.1458645   -108.55149   -3514.1179     4.446891     4.446891     4.446891   -3514.1179    -9272.708    4716.7887   -5986.4343   -21784.016    1124.5838   -17116.554    87.936558 
   37400    1019.9318   -109.47856   0.92285573    -108.5557   -5528.0869    4.4351569    4.4351569    4.4351569   -5528.0869    37241.364   -14179.094    -39646.53    11864.696   -21372.129   -23762.951    87.242274 
   37500    1849.5405   -110.21834    1.6735031   -108.54484    23036.805    4.4266849    4.4266849    4.4266849    23036.805    22986.021    28861.743    17262.652   -13903.053    313.94093    3483.8882    86.743276 
   37600    1357.2012   -109.79429    1.2280242   -108.56626    1670.5759    4.4391432    4.4391432    4.4391432    1670.5759    37053.381    -32920.84    879.18698   -15142.221   -7225.9488    -18102.37    87.477723 
   37700    1240.0132   -109.67722      1.12199   -108.55523    2157.5785    4.4537351    4.4537351    4.4537351    2157.5785    21927.486    14911.263   -30366.013    13817.828   -29527.595   -6309.3934    88.343202 
   37800    1354.8213   -109.76168    1.2258708   -108.53581    13850.366    4.4431124    4.4431124    4.4431124    13850.366    11596.278    25816.326    4138.4947   -5791.7787   -1651.0655   -356.68284    87.712586 
   37900    1276.6519   -109.68875    1.1551415   -108.53361     8661.945    4.4314454    4.4314454    4.4314454     8661.945    50235.402   -16247.486   -8002.0812    20665.427   -19256.881   -15051.227    87.023429 
   38000    1506.7141   -109.91004    1.3633066   -108.54674    30.280022    4.4408429    4.4408429    4.4408429    30.280022    26451.617    18861.256   -45222.034     7918.029    1984.6401    5551.7969    87.578244 
   38100    1851.1828   -110.22805    1.6749891   -108.55306   -2284.8616    4.4328366    4.4328366    4.4328366   -2284.8616    26919.689   -11202.901   -22571.373    1346.6129    15621.998   -8426.4974    87.105418 
   38200    1128.6311   -109.58655    1.0212092   -108.56535    34293.069    4.4213943    4.4213943    4.4213943    34293.069    45035.187    40390.554    17453.467    23526.296   -17871.237   -5603.9456    86.432631 
   38300    1198.4825   -109.66278    1.0844122   -108.57837   -23821.456     4.436555     4.436555     4.436555   -23821.456   -30211.506    25409.243   -66662.105    5793.6013    40177.605    9818.3504    87.324803 
   38400    1728.5061   -110.12538    1.5639886    -108.5614    17254.376    4.4265795    4.4265795    4.4265795    17254.376     44199.67    40924.768   -33361.308     6845.846    5083.5167   -10311.383    86.737082 
   38500    1048.8749   -109.53243   0.94904405   -108.58339    -4426.187    4.4314449    4.4314449    4.4314449    -4426.187   -285.86344    27983.315   -40976.013    12727.083    7235.7932   -2776.4668    87.023405 
   38600    1081.1216    -109.5544   0.97822159   -108.57617   -25522.046    4.4453597    4.4453597    4.4453597   -25522.046   -19178.498    17728.613   -75116.254    9497.2769    35245.298    12748.762    87.845742 
   38700    1893.3307   -110.26561    1.7131254   -108.55249    9295.0089    4.4243395    4.4243395    4.4243395    9295.0089    14663.887    8077.6922    5143.4473   -16475.501   -11796.197    10680.868    86.605474 
   38800    993.90681   -109.46946   0.89930777   -108.57015    2577.0651    4.4229731    4.4229731    4.4229731    2577.0651   -20572.599    46421.856   -18118.062     19570.76    13869.691    -7179.627    86.525255 
   38900     1524.045   -109.94143    1.3789879   -108.56244   -7273.2614    4.4348435    4.4348435    4.4348435   -7273.2614    12418.405    13821.496   -48059.685   -4323.5789    6706.3558    13073.887     87.22378 
   39000    1290.3219   -109.72959    1.1675104   -108.56208    3644.1201    4.4378393    4.4378393    4.4378393    3644.1201    22739.535     12399.03   -24206.205   -23005.126    280.67147    6092.3027    87.400661 
   39100    1476.7616   -109.88909    1.3362049   -108.55289    7525.5084     4.434611     4.434611     4.434611    7525.5084    3007.6902    33110.142   -13541.307    34989.773    15905.613    -1999.136    87.210059 
   39200    1636.2933   -110.03071    1.4805526   -108.55016    1736.5007    4.4330668    4.4330668    4.4330668    1736.5007    22758.233   -22676.392    5127.6609   -41773.588    -2021.651    22263.521    87.118989 
   39300    1235.0815   -109.68025    1.1175277   -108.56272    342.49118    4.4283267    4.4283267    4.4283267    342.49118   -21750.874    45405.489   -22627.141   -12852.444    22673.575     -3216.52    86.839826 
   39400    1628.1287   -110.02929    1.4731651   -108.55612   -7375.7881     4.426893     4.426893     4.426893   -7375.7881    6402.7012   -5450.3539   -23079.712    14383.891    10057.661   -2460.7359    86.755514 
   39500    1170.8423   -109.62734    1.0594027   -108.56794    -2692.142    4.4298492    4.4298492    4.4298492    -2692.142   -13394.528   -2112.8608    7430.9631   -59680.935   -12249.183    5572.1143    86.929427 
   39600     1499.197   -109.92299    1.3565049   -108.56649   -3532.1696    4.4324789    4.4324789    4.4324789   -3532.1696    2861.1595    12133.068   -25590.736    13822.753    30360.267    -2119.055    87.084335 
   39700     1302.778   -109.74943    1.1787809   -108.57065   -3885.0639    4.4270011    4.4270011    4.4270011   -3885.0639    956.34312   -27593.493    14981.958   -16088.353    10876.264    4779.1633    86.761865 
   39800    1068.6563   -109.54826   0.96694266   -108.58132    843.32198    4.4268212    4.4268212    4.4268212    843.32198   -2570.0102   -11782.938    16882.914   -38497.039   -5934.8496    3789.3747    86.751289 
   39900    2136.5939    -110.4989     1.933235   -108.56566   -16274.797    4.4373816    4.4373816    4.4373816   -16274.797    1082.0597    -20431.11   -29475.342    17128.424    16650.006    18903.809    87.373622 
   40000    995.33724   -109.47016   0.90060206   -108.56956    10439.337    4.4362785    4.4362785    4.4362785    10439.337   -1228.6116   -23066.189     55612.81   -45520.853   -4956.8846   -437.08755    87.308474 
   40100    1409.9852   -109.83462    1.2757843   -108.55883    6698.9912    4.4359983    4.4359983    4.4359983    6698.9912    30461.372   -30004.625    19640.226    2377.2333   -13617.492    10031.971    87.291933 
   40200    1738.9554   -110.12306    1.5734434   -108.54962    2943.1628    4.4366456    4.4366456    4.4366456    2943.1628    28018.457   -13056.648   -6132.3203   -15523.419    10363.238    5455.1403    87.330151 
   40300     825.9947    -109.3139   0.74737736   -108.56653   -8547.9845    4.4346979    4.4346979    4.4346979   -8547.9845    -8285.762   -28254.912     10896.72   -27435.253   -15368.464    -7719.135    87.215188 
   40400      1699.81   -110.10146    1.5380238   -108.56344   -804.23086    4.4210671    4.4210671    4.4210671   -804.23086    12333.077   -18730.877    3985.1066    30778.091   -13130.052    10409.482    86.413443 
   40500    1434.0579   -109.86881    1.2975657   -108.57124    12207.783    4.4255846    4.4255846    4.4255846    12207.783    17721.052    6468.4525    12433.843   -31349.591    7065.2502   -11988.255    86.678609 
   40600    1337.8137   -109.78314    1.2104819   -108.57266   -28356.356    4.4407715    4.4407715    4.4407715   -28356.356    -28672.05   -46837.379    -9559.638    1204.8332   -18576.192    4108.3725    87.574017 
   40700    1533.4192   -109.94848      1.38747   -108.56101    4741.6957    4.4303582    4.4303582    4.4303582    4741.6957    29192.567    595.87131   -15563.351    21097.574   -1126.7004    6901.9348    86.959399 
   40800    1710.3541   -110.10052    1.5475643   -108.55295   -4538.8153    4.4324855    4.4324855    4.4324855   -4538.8153    9272.4557    2386.5604   -25275.462   -19772.578    1234.5192   -19300.312     87.08472 
   40900    1106.3446   -109.55785    1.0010439   -108.55681   -18461.625    4.4345805    4.4345805    4.4345805   -18461.625   -16550.624   -25561.194   -13273.056     23072.05   -26144.657    18227.209    87.208263 
   41000    1125.7325   -109.58095    1.0185864   -108.56237    24100.174    4.4205879    4.4205879    4.4205879    24100.174    37615.938    30181.387    4503.1959    12081.992    19625.907   -12537.396    86.385351 
   41100    1859.9139   -110.24745    1.6828892   -108.56456    -903.2544    4.4305214    4.4305214    4.4305214    -903.2544    26767.194   -16943.635   -12533.322   -10997.536    -7714.533    -2446.165    86.969007 
   41200    1128.5875   -109.58825    1.0211697   -108.56708   -14139.292    4.4407459    4.4407459    4.4407459   -14139.292   -15076.414   -13503.886   -13837.575    25453.598   -22897.522    15276.727    87.572502 
   41300    1834.6488   -110.21304    1.6600287   -108.55301     8576.615    4.4307613    4.4307613    4.4307613     8576.615    23309.688    196.81402    2223.3433   -4723.4098    13100.656   -21314.704    86.983138 
   41400    1355.1059   -109.78664    1.2261283   -108.56051    12682.693     4.426919     4.426919     4.426919    12682.693    40713.326    -24144.19    21478.944   -1253.5621   -4991.9715     16464.59    86.757041 
   41500    1217.2329   -109.67012    1.1013779   -108.56875   -17713.945    4.4352632    4.4352632    4.4352632   -17713.945   -11469.881     4637.531   -46309.485    30915.298   -1717.3379    5667.9474    87.248546 
   41600    1589.2772   -109.99392    1.4380114   -108.55591    5077.4228    4.4374637    4.4374637    4.4374637    5077.4228    28890.158   -12646.057   -1011.8323   -30176.067    14894.162   -11992.403    87.378468 
   41700    872.49181    -109.3535   0.78944892   -108.56405   -6041.7775    4.4355647    4.4355647    4.4355647   -6041.7775   -16682.591   -17424.594    15981.852    12562.929   -8856.9199    21203.489    87.266337 
   41800    1704.7197   -110.10014    1.5424662   -108.55767   -7547.6858     4.433368     4.433368     4.433368   -7547.6858   -5349.3464    1819.5918   -19113.303    10389.108    3238.6062   -8446.9908     87.13675 
   41900    1246.6872   -109.69301    1.1280287   -108.56498    27553.029    4.4212256    4.4212256    4.4212256    27553.029    4666.2764    15849.916    62142.893   -34992.279    14165.283   -4977.7305    86.422736 
   42000    1485.8558   -109.91427    1.3444336   -108.56984    5949.0024    4.4312907    4.4312907    4.4312907    5949.0024   -2681.8298    22194.535   -1665.6977    19877.152   -30125.203    9152.3988     87.01432 
   42100    1668.1114    -110.0697    1.5093422   -108.56036   -10634.384     4.443825     4.443825     4.443825   -10634.384   -10770.677   -4583.1375   -16549.338   -18713.368   -2582.6049   -19817.135    87.754792 
   42200    1132.6818   -109.58101    1.0248743   -108.55614    37986.473    4.4234919    4.4234919    4.4234919    37986.473   -2840.9494    39816.885    76983.482   -10617.432    9337.4269    6080.9527    86.555706 
   42300    1453.7892    -109.8784     1.315419   -108.56298    -2728.235    4.4269129    4.4269129    4.4269129    -2728.235   -25767.927    30828.868   -13245.646    22217.252    -32914.21   -11887.713    86.756684 
   42400    1547.6757   -109.96446    1.4003695   -108.56409    -16108.66      4.43436      4.43436      4.43436    -16108.66   -33213.015    -14977.46    -135.5063   -26536.696    963.03495   -11831.171    87.195252 
   42500    1273.4875     -109.718    1.1522783   -108.56572    18425.237    4.4267458    4.4267458    4.4267458    18425.237   -4989.6383    17946.081    42319.268     5858.845    -10979.77    16616.811    86.746858 
   42600     910.2143   -109.39768   0.82358102    -108.5741   -3901.0721    4.4418548    4.4418548    4.4418548   -3901.0721    -28774.94    40127.294    -23055.57    9562.4929   -24169.302   -24348.686    87.638122 
   42700    1954.4975   -110.32819    1.7684704   -108.55972   -4257.8979    4.4281386    4.4281386    4.4281386   -4257.8979   -9800.3574   -10338.351    7365.0148   -6815.8502    13892.775   -3742.2365    86.828763 
   42800    1074.6811   -109.54264     0.972394   -108.57024    25391.312    4.4133215    4.4133215    4.4133215    25391.312   -10347.636    64503.639    22017.931      16419.8   -29610.036    22522.962    85.960056 
   42900    1397.4841   -109.83927     1.264473    -108.5748   -15087.101    4.4409182    4.4409182    4.4409182   -15087.101   -19502.536    15840.092    -41598.86    8034.7938   -6005.7792   -21374.188    87.582701 
   43000    1929.5763    -110.3024    1.7459212   -108.55648   -3621.2884    4.4355593    4.4355593    4.4355593   -3621.2884   -729.29969    -22173.56    12038.994    2163.9488      2956.28    8794.9903    87.266017 
   43100    900.50886   -109.38046   0.81479934   -108.56566    16953.681    4.4252704    4.4252704    4.4252704    16953.681    104.94758    12681.479    38074.616    21106.371   -18008.104    13285.832    86.660152 
   43200    1798.1022   -110.17629    1.6269607   -108.54933   -22239.739    4.4373093    4.4373093    4.4373093   -22239.739   -21993.965   -30415.326   -14309.925    1878.1921    12876.873     58.21578    87.369352 
   43300    1081.0454   -109.54059   0.97815258   -108.56244    1178.3741    4.4303746    4.4303746    4.4303746    1178.3741    14928.764   -15970.942    4577.3005    1736.6225   -1743.6808    35279.362    86.960364 
   43400    1227.6549   -109.68141     1.110808    -108.5706    4461.1351    4.4347043    4.4347043    4.4347043    4461.1351   -9441.8838   -13117.714    35943.003    31115.461   -4228.2437   -12045.475    87.215567 
   43500    1929.3771   -110.31094     1.745741    -108.5652   -17719.266    4.4295802    4.4295802    4.4295802   -17719.266   -407.99962   -18122.946   -34626.852   -3141.6121    21913.423    22342.282    86.913597 
   43600    1039.6234   -109.51609   0.94067312   -108.57542    31956.762    4.4112753    4.4112753    4.4112753    31956.762     65334.52   -3305.9804    33841.746    5583.5352   -10566.182    34199.392    85.840547 
   43700    1284.7413   -109.75464     1.162461   -108.59218   -18760.561    4.4388917    4.4388917    4.4388917   -18760.561   -20056.036   -42131.324     5905.678    24284.974   -2298.9549   -20699.184    87.462852 
   43800    1812.6589   -110.20132    1.6401319   -108.56119   -28032.758    4.4448275    4.4448275    4.4448275   -28032.758    15393.059   -54797.471   -44693.861    -6953.028    18277.882    6901.4416    87.814195 
   43900    1019.2352   -109.48003   0.92222541    -108.5578    13331.241    4.4184369    4.4184369    4.4184369    13331.241    42813.933   -16510.784    13690.572    16959.641   -18523.784    18495.681    86.259309 
   44000    1411.6883   -109.85209    1.2773252   -108.57477   -15824.442    4.4178673    4.4178673    4.4178673   -15824.442   -2857.7738   -37258.017    -7357.534    12041.919    6573.9238   -24420.545    86.225952 
   44100    1877.4502   -110.27399    1.6987564   -108.57524    7511.3202    4.4285772    4.4285772    4.4285772    7511.3202    32819.122   -3349.9704   -6935.1913    -14240.92    3008.4001   -8626.7446    86.854567 
   44200    1373.5254   -109.82862    1.2427946   -108.58582   -17714.817    4.4445036    4.4445036    4.4445036   -17714.817   -2129.1366   -38302.268   -12713.047    24513.644   -15336.157    3686.8474       87.795 
   44300     886.8728   -109.38066   0.80246115    -108.5782    -22645.28    4.4382515    4.4382515    4.4382515    -22645.28    16214.606   -52318.497   -31831.948   -71.310166    11723.319   -49845.427     87.42502 
   44400    1948.8213   -110.31066    1.7633345   -108.54732    11817.254    4.4166662    4.4166662    4.4166662    11817.254    207.63971    6517.4119     28726.71   -5626.4526    7505.4374    4282.6478    86.155646 
   44500    1182.1238    -109.6377    1.0696105   -108.56809   -26485.694    4.4397337    4.4397337    4.4397337   -26485.694    -14402.07   -49365.709   -15689.303    15013.121   -6610.9058   -22046.987    87.512635 
   44600    1169.1378   -109.62081    1.0578605   -108.56295   -28092.909    4.4403464    4.4403464    4.4403464   -28092.909   -14141.338   -30859.063   -39278.325   -13853.234     4584.223   -26744.427    87.548873 
   44700    1875.7999   -110.24611    1.6972632   -108.54885    16686.139    4.4148526    4.4148526    4.4148526    16686.139    16986.125     12689.64    20382.651    989.67063     17806.26    23915.985    86.049553 
   44800    1517.5558   -109.94273    1.3731164   -108.56961   -14992.039    4.4266265    4.4266265    4.4266265   -14992.039    9870.0978   -35202.591   -19643.624    11628.579   -9738.8683   -42130.611    86.739845 
   44900    1337.5476   -109.78412    1.2102412   -108.57388    462.79375     4.429223     4.429223     4.429223    462.79375    4055.2691    2823.9115   -5490.7993   -15722.695    9255.1971    4533.9863     86.89257 
   45000    1352.3155   -109.79523    1.2236034   -108.57163    3955.2782    4.4393322    4.4393322    4.4393322    3955.2782    36842.918   -24415.766   -561.31649   -2937.7908    8754.4396    9161.4807    87.488893 
   45100    1610.3803   -110.01232    1.4571059   -108.55521   -9724.4207    4.4400105    4.4400105    4.4400105   -9724.4207    5908.0692   -31969.399   -3111.9322    2800.0919    -11713.19   -19035.523    87.529004 
   45200    981.13566   -109.44592   0.88775216   -108.55817    8495.9667    4.4220741    4.4220741    4.4220741    8495.9667    5802.8698    13361.095    6323.9356   -4969.9921    27484.704    16840.598    86.472504 
   45300     1543.744   -109.95667     1.396812   -108.55986    5517.8685    4.4278887    4.4278887    4.4278887    5517.8685    7953.3456    1807.3154    6792.9445    4342.9379   -15609.031   -48.528666    86.814064 
   45400    1803.7998   -110.19327     1.632116   -108.56115    15134.124     4.425832     4.425832     4.425832    15134.124    24317.425    2925.5896    18159.358   -7908.2744    6735.7238    24.608786     86.69315 
   45500    728.60285   -109.24516   0.65925517    -108.5859   -7229.9504    4.4370275    4.4370275    4.4370275   -7229.9504    6856.4732   -25849.338   -2696.9863    142.61173    22149.591    21813.827    87.352707 
   45600    1834.9873    -110.2267     1.660335   -108.56636    3761.9522     4.435671     4.435671     4.435671    3761.9522    12401.102   -20429.186     19313.94    19156.965   -12852.214   -3454.9023    87.272612 
   45700    1269.7279   -109.71635    1.1488765   -108.56747    39935.412    4.4140833    4.4140833    4.4140833    39935.412    67732.181    26838.632    25235.423   -7872.7569    13313.913    641.42966    86.004576 
   45800    1167.7099   -109.63617    1.0565684    -108.5796   -18489.576     4.437672     4.437672     4.437672   -18489.576   -29403.234   -26044.203   -21.291581    6215.3917    10346.521    24696.546    87.390774 
   45900    1654.1267   -110.05125    1.4966886   -108.55456      5298.55    4.4370646    4.4370646    4.4370646      5298.55    15812.743    13354.677   -13271.771    12530.032   -11885.844   -20424.006    87.354895 
   46000    1302.2448   -109.73598    1.1782984   -108.55768    14303.624    4.4246389    4.4246389    4.4246389    14303.624   -1152.3201    19485.514    24577.678   -6835.2894    22860.146    10591.422    86.623055 
   46100    1493.0009    -109.9111    1.3508986    -108.5602   -10329.539    4.4295486    4.4295486    4.4295486   -10329.539   -12106.666     -31481.2    12599.248    7624.8438    4971.8091    4446.9953    86.911734 
   46200    1286.6825   -109.73129    1.1642173   -108.56707    24801.156    4.4116646    4.4116646    4.4116646    24801.156    14637.128    27719.289     32047.05    1888.6856    -18634.76   -30249.498    85.863278 
   46300    1317.5056    -109.7822    1.1921068   -108.59009   -4409.7069    4.4304959    4.4304959    4.4304959   -4409.7069   -43943.158    10292.723    20421.314   -2601.9811    30174.101    6029.5668    86.967504 
   46400     1758.412   -110.15823    1.5910482   -108.56718   -18897.741    4.4386356    4.4386356    4.4386356   -18897.741   -25024.909   -46408.312    14739.998    3715.9581   -8427.3116   -8719.8498    87.447717 
   46500    1262.9043   -109.70576    1.1427024   -108.56306    10524.079     4.411947     4.411947     4.411947    10524.079   -10765.043    24002.299    18334.981   -595.62514    182.42105   -7654.8557    85.879766 
   46600       1355.4   -109.80522    1.2263944   -108.57882   -15327.755    4.4262856    4.4262856    4.4262856   -15327.755   -43259.096    25501.253   -28225.422   -7348.7731    16953.601    12401.669    86.719804 
   46700    1902.6962   -110.28151    1.7215995   -108.55992   -20834.503    4.4377042    4.4377042    4.4377042   -20834.503    -11537.73   -46812.756   -4153.0222   -5857.5868   -10853.211    1959.4766    87.392679 
   46800    1015.6394   -109.49136   0.91897184   -108.57238   -13560.802    4.4279056    4.4279056    4.4279056   -13560.802   -45617.268    19761.596   -14826.734   -2521.1226     10523.33   -6191.2231    86.815059 
   46900    1329.3085   -109.77171    1.2027863   -108.56892    5093.0681    4.4239002    4.4239002    4.4239002    5093.0681   -4324.2492   -122.13548    19725.589   -1111.0434   -3476.3022    32748.685    86.579675 
   47000    1209.2132   -109.66106    1.0941215   -108.56694   -11927.403    4.4429929    4.4429929    4.4429929   -11927.403   -5833.7929   -62729.412    32780.997    3971.4616   -3037.2158    7886.7759    87.705506 
   47100    1055.6619   -109.51719   0.95518504     -108.562    6516.2714    4.4345004    4.4345004    4.4345004    6516.2714   -37123.515    28385.893    28286.436   -66.233608    24828.187   -13970.484    87.203537 
   47200    1224.5024   -109.66577    1.1079555   -108.55781    29537.858      4.42767      4.42767      4.42767    29537.858    9305.3838    14404.636    64903.553    5850.6952    -13415.04    29284.352    86.801202 
   47300    1596.3271   -109.99676    1.4443903   -108.55237   -6791.9566     4.441285     4.441285     4.441285   -6791.9566   -39467.976    -16844.72    35936.827    14919.086    6844.3564    -2480.196    87.604401 
   47400    1164.9314   -109.60491    1.0540544   -108.55086   -15519.567     4.438276     4.438276     4.438276   -15519.567   -34535.573     8915.218   -20938.346   -5074.3388      18367.4    2216.0893    87.426464 
   47500     1582.165   -109.97089    1.4315761   -108.53931   -429.86019    4.4268648    4.4268648    4.4268648   -429.86019   -18585.468   -7911.3146    25207.202    15640.801   -14078.964    14323.743    86.753854 
   47600    1049.4535   -109.50657   0.94956756   -108.55701   -14157.235    4.4297727    4.4297727    4.4297727   -14157.235   -38695.132    20630.481   -24407.055    15732.439     35835.45    -7745.385    86.924924 
   47700    1435.0712   -109.85798    1.2984825    -108.5595   -8539.9637    4.4261208    4.4261208    4.4261208   -8539.9637   -11006.169    21662.859   -36276.582    1364.1752   -12784.989    11265.896    86.710123 
   47800    1661.4669   -110.06526    1.5033302   -108.56193   -23140.496    4.4370541    4.4370541    4.4370541   -23140.496   -41918.163   -24417.743   -3085.5803    19047.131    8951.8644    -5315.052    87.354277 
   47900    997.48772   -109.47059   0.90254785   -108.56805   -29486.213    4.4376925    4.4376925    4.4376925   -29486.213   -65349.428    32029.299    -55138.51   -5112.1232    40410.362   -17042.789     87.39199 
   48000    2012.7255   -110.36792    1.8211563   -108.54677   -1464.1892    4.4179502    4.4179502    4.4179502   -1464.1892   -11441.355   -3355.9877    10404.775    7582.9981   -32414.241    9856.7759    86.230807 
   48100    1131.8754   -109.59242    1.0241447   -108.56828   -19266.789    4.4288269    4.4288269    4.4288269   -19266.789   -47596.954   -14510.562    4307.1492    15185.032    36679.005   -2635.2993     86.86926 
   48200    1273.7283   -109.72038    1.1524961   -108.56788   -8164.6946    4.4347966    4.4347966    4.4347966   -8164.6946    -22942.26   -2919.5188    1367.6956   -1636.5741    22393.359   -18305.948    87.221012 
   48300    1538.3932   -109.95192    1.3919705   -108.55995   -6871.3711    4.4490131    4.4490131    4.4490131   -6871.3711   -29116.369   -45830.623    54332.878    7826.0523   -17376.971   -4949.8448     88.06251 
   48400    837.25363   -109.31232   0.75756468   -108.55475    -16779.73    4.4507632    4.4507632    4.4507632    -16779.73   -55998.085    2242.6534    3416.2429    -1753.509     44866.91   -7175.9567    88.166475 
   48500    2016.2167   -110.35104    1.8243152   -108.52672    31078.662    4.4192809    4.4192809    4.4192809    31078.662    11868.931    18645.026     62722.03   -3789.3803   -15641.312   -9841.9277    86.308747 
   48600     1121.127   -109.58076    1.0144193   -108.56634   -11671.713    4.4186936    4.4186936    4.4186936   -11671.713   -26424.555   -16090.249    7499.6634    10475.298    32127.594   -987.60142    86.274341 
   48700    734.31589   -109.25518   0.66442445   -108.59076   -6119.8147    4.4304236    4.4304236    4.4304236   -6119.8147   -1111.7601   -20478.001    3230.3167   -757.41823    35627.013    14964.589    86.963248 
   48800    2109.9408   -110.48043    1.9091188   -108.57131    8692.8901       4.4283       4.4283       4.4283    8692.8901    11581.875    280.50789    14216.288   -142.92927   -26945.278    -7610.063    86.838261 
   48900    824.83746   -109.33561   0.74633027   -108.58928   -6977.4532    4.4300903    4.4300903    4.4300903   -6977.4532   -28639.352    15941.316   -8234.3232    405.68314    52580.287   -4297.5548    86.943622 
   49000    1404.4991   -109.84583    1.2708203   -108.57501    370.50999    4.4216966    4.4216966    4.4216966    370.50999   -2313.8664   -10812.572    14237.969   -13612.637    -4356.457    15791.495     86.45036 
   49100    1375.9097   -109.82067     1.244952   -108.57572   -8906.7366    4.4320188    4.4320188    4.4320188   -8906.7366   -49418.821    24105.718   -1407.1067    5234.9821   -16264.387   -11728.278    87.057217 
   49200    1136.6672   -109.59728    1.0284804    -108.5688   -10748.013     4.431608     4.431608     4.431608   -10748.013   -42464.353    32087.941   -21867.628     1344.286    56946.523    5276.4389    87.033009 
   49300     1723.655   -110.11356    1.5595993   -108.55396    14731.257    4.4258374    4.4258374    4.4258374    14731.257   -9483.2936   -9712.5518    63389.615   -5105.0446   -33110.688    11103.906    86.693467 
   49400    1281.7725   -109.72573    1.1597747   -108.56595   -19646.863    4.4326144    4.4326144    4.4326144   -19646.863   -44252.942    12464.556   -27152.203    1040.5994    26841.139    622.21355    87.092322 
   49500     1546.135   -109.95883    1.3989755   -108.55986     8893.448    4.4256946    4.4256946    4.4256946     8893.448   -8210.1632   -20564.634    55455.141    -9072.646    20133.841    7955.6864    86.685075 
   49600     1370.805   -109.80337    1.2403332   -108.56303   -2444.9174    4.4355557    4.4355557    4.4355557   -2444.9174   -34587.016    12402.562    14849.702    2461.4182   -9031.0688   -221.51946     87.26581 
   49700    917.26325   -109.39201   0.82995906   -108.56205   -6641.0036    4.4309535    4.4309535    4.4309535   -6641.0036   -46812.108    51874.424   -24985.326    4337.7548    31942.375   -5175.4394    86.994456 
   49800    1983.5793   -110.33912    1.7947842   -108.54433    11843.685    4.4279178    4.4279178    4.4279178    11843.685    -24637.19   -3675.6428    63843.887    9748.8279   -12296.242    4881.2935    86.815778 
   49900    1233.7353   -109.67414    1.1163096   -108.55783   -11418.374    4.4361958    4.4361958    4.4361958   -11418.374   -58944.268    52104.386   -27415.241    -4604.277     31525.99   -3712.1611    87.303591 
   50000     1218.248   -109.65835    1.1022964   -108.55606    2528.5951    4.4257009    4.4257009    4.4257009    2528.5951   -34573.232    16285.989    25873.029   -2868.6026    1657.9668   -2902.6133    86.685442 
   50100    1767.1986   -110.15033    1.5989984   -108.55133   -1072.0691    4.4292222    4.4292222    4.4292222   -1072.0691   -17053.357   -16390.907    30228.056    4670.2492    240.57099    7403.3295    86.892521 
   50200    938.45206   -109.41696   0.84913114   -108.56783   -3284.3257    4.4299406    4.4299406    4.4299406   -3284.3257   -62084.643    52042.556    189.11058   -1883.4892    30957.951    4410.2524    86.934808 
   50300    1371.7647   -109.80436    1.2412015   -108.56316    2021.8696     4.432915     4.432915     4.432915    2021.8696   -37094.623    119.43432    43040.797    10224.874   -24774.743   -1014.6815    87.110042 
   50400    1501.0956   -109.91813    1.3582228   -108.55991   -17844.518    4.4326612    4.4326612    4.4326612   -17844.518   -1053.8103   -27838.258   -24641.487    -1273.553    28850.616    14504.244    87.095078 
   50500    1331.6284   -109.76221    1.2048853   -108.55733    8328.1734    4.4163085    4.4163085    4.4163085    8328.1734   -34899.241    34117.838    25765.923   -3427.2314    11462.878   -2591.8323    86.134711 
   50600    1599.1933   -110.01425    1.4469837   -108.56727   -9166.1388    4.4290855    4.4290855    4.4290855   -9166.1388    -29828.21   -16200.296     18530.09    6641.4984   -29290.868    11691.964    86.884477 
   50700    1591.8484   -110.00364    1.4403379    -108.5633   -13299.735    4.4328799    4.4328799    4.4328799   -13299.735   -29475.719   -11005.438      581.951   -1455.4158    33476.062     9871.984    87.107968 
   50800    987.78194   -109.46322   0.89376586   -108.56945    14392.461    4.4236516    4.4236516    4.4236516    14392.461   -38668.627    52876.052    28969.959    3915.9201   -21820.407   -7059.8162    86.565081 
   50900    1653.2333   -110.06212    1.4958803   -108.56624   -5764.5739    4.4274068    4.4274068    4.4274068   -5764.5739   -18777.486    1849.7506   -365.98601    -132.0034    -18298.23     12571.77    86.785723 
   51000    1522.0006   -109.94473    1.3771381   -108.56759    18800.142    4.4210417    4.4210417    4.4210417    18800.142   -27258.095    18135.002    65523.518   -3671.8324    17064.865    4804.4133    86.411954 
   51100    808.26922   -109.31867   0.73133897   -108.58733   -2090.8678    4.4320673    4.4320673    4.4320673   -2090.8678   -64413.367    51939.763    6201.0009    1502.5362    -37109.71    3585.6702    87.060076 
   51200    2232.6297   -110.57597    2.0201303   -108.55584   -2441.1097    4.4350227    4.4350227    4.4350227   -2441.1097    -19928.14   -20705.737    33310.548    2947.0711     10602.02   -3947.7475    87.234351 
   51300    1060.0959   -109.52785   0.95919708   -108.56866    6697.3004     4.421367     4.421367     4.421367    6697.3004   -38181.084     36684.77    21588.216    3809.5194   -26017.501    3598.2684     86.43103 
   51400    889.35277   -109.38584   0.80470507   -108.58114   -17460.049    4.4281139    4.4281139    4.4281139   -17460.049   -60267.459    36023.245   -28135.931   -6465.9174     1709.391    -12571.56    86.827313 
   51500    2258.0141   -110.60052    2.0430986   -108.55743    3546.0007    4.4236776    4.4236776    4.4236776    3546.0007   -18169.489    6635.5473    22171.944   -3672.9443    763.16337   -2182.0741    86.566608 
   51600    984.61347   -109.47177   0.89089896   -108.58087   -13291.624     4.432633     4.432633     4.432633   -13291.624    -39635.18    29349.271   -29588.962   -10615.666   -33562.174     4815.411    87.093418 
   51700    1438.8867   -109.86818     1.301935   -108.56625   -12733.952    4.4373003    4.4373003    4.4373003   -12733.952   -30799.413    10112.923   -17515.365   -3025.6505    38645.095   -27399.306    87.368816 
   51800    1737.8296   -110.12792    1.5724248   -108.55549    16895.079    4.4215847    4.4215847    4.4215847    16895.079   -3883.2365    26851.622    27716.851     6404.613   -27415.111    20140.857    86.443799 
   51900     824.6761   -109.32373   0.74618426   -108.57755    4737.2631    4.4207319    4.4207319    4.4207319    4737.2631   -29259.788    38705.852    4765.7251   -9001.3884    10484.963    -1867.626    86.393792 
   52000    1603.5981   -110.02395    1.4509692   -108.57298   -2054.2611    4.4376786    4.4376786    4.4376786   -2054.2611   -43270.239    28252.401    8855.0544    2445.8075    20336.257    3405.0593    87.391164 
   52100    1430.4241     -109.855    1.2942777   -108.56072   -18631.282     4.443902     4.443902     4.443902   -18631.282   -48717.112    -5376.785   -1799.9483    2549.5491   -17283.102    16480.354    87.759354 
   52200    1212.9491    -109.6515    1.0975018     -108.554    11054.943    4.4244405    4.4244405    4.4244405    11054.943       -47427    52792.673    27799.157   -774.07218    25919.596   -5328.4561    86.611404 
   52300    2184.0872    -110.5203     1.976208   -108.54409    13496.709     4.415578     4.415578     4.415578    13496.709   -11113.595    18877.022    32726.698    5662.1724   -6385.9056    16033.499    86.091975 
   52400    1012.0055   -109.49334   0.91568387   -108.57766    5167.7838    4.4278697    4.4278697    4.4278697    5167.7838   -42252.579    38631.656    19124.274    4965.7984    12340.326    -7060.934    86.812948 
   52500    1347.4389   -109.78607     1.219191   -108.56688   -19063.007    4.4402963    4.4402963    4.4402963   -19063.007   -67364.802    22730.963   -12555.181   -5173.8081    11468.541   -440.01441    87.545907 
   52600    1532.9823   -109.93823    1.3870746   -108.55115    2635.1446    4.4275864    4.4275864    4.4275864    2635.1446    3220.4681    229.74735    4455.2185   -8347.4513   -1438.0329    681.58686    86.796284 
   52700    1085.9708   -109.53731   0.98260924    -108.5547    7811.0873    4.4223066    4.4223066    4.4223066    7811.0873   -5589.1729    38316.864   -9294.4289   -788.24447    27856.515   -3856.4619    86.486145 
   52800    1678.2587   -110.07057    1.5185238   -108.55204    3765.2269    4.4303464    4.4303464    4.4303464    3765.2269   -7117.3521    19737.868   -1324.8355   -16765.457   -13735.685   -1263.1653    86.958701 
   52900    1396.1796   -109.81444    1.2632927   -108.55114    3984.1962    4.4391178    4.4391178    4.4391178    3984.1962   -7768.5872    46587.308   -26866.133   -4025.3398    26779.865   -6685.5125    87.476219 
   53000    1266.8706   -109.69542    1.1462912   -108.54913   -801.62225    4.4307544    4.4307544    4.4307544   -801.62225   -19254.716    38776.876   -21927.027   -3047.0218    16471.635    6034.4681    86.982732 
   53100    1483.2831   -109.88759    1.3421057   -108.54549    13098.914    4.4165989    4.4165989    4.4165989    13098.914    17086.485    27437.349   -5227.0922   -13476.865   -14887.053    -14947.99    86.151705 
   53200    966.24248   -109.44242    0.8742765   -108.56814    10878.872    4.4274206    4.4274206    4.4274206    10878.872   -9377.2726    54715.202   -12701.312   -4594.5821    49546.259   -6945.7697    86.786535 
   53300    1875.8686   -110.25025    1.6973254   -108.55293   -2989.6913    4.4381803    4.4381803    4.4381803   -2989.6913    7396.4306   -12589.953   -3775.5513    -3012.214   -13098.059    6510.6809    87.420812 
   53400    1125.0762   -109.57388    1.0179926   -108.55589   -12289.459    4.4385093    4.4385093    4.4385093   -12289.459   -6397.2312    14048.136   -44519.283   -2314.7169    30175.228   -21882.466    87.440251 
   53500    1489.7191   -109.89782    1.3479292   -108.54989    8452.7429    4.4268337    4.4268337    4.4268337    8452.7429    -8694.082    54362.296   -20309.985   -720.59971    32100.206    6928.3396    86.752025 
   53600    2027.4544   -110.38216    1.8344833   -108.54768     19453.13    4.4156943    4.4156943    4.4156943     19453.13     33850.59    28867.247   -4358.4448      5600.28   -14520.224   -14105.765     86.09878 
   53700    690.85999   -109.21064   0.62510464   -108.58554   -11468.848    4.4324344    4.4324344    4.4324344   -11468.848   -16201.105    40933.413   -59138.853   -514.79255    64951.571   -18487.751    87.081709 
   53800     2273.574   -110.60526    2.0571776   -108.54808   -19028.687    4.4419781    4.4419781    4.4419781   -19028.687   -16647.515   -15428.114   -25010.432    6370.3805   -11550.409    21264.836    87.645424 
   53900    1064.8003   -109.52285   0.96345368    -108.5594    6618.7652     4.423223     4.423223     4.423223    6618.7652    17925.685    17175.175   -15244.565   -3886.5719    39894.927   -11425.664    86.539921 
   54000    1052.9895    -109.5216   0.95276702   -108.56884    530.97143    4.4186089    4.4186089    4.4186089    530.97143   -10641.374    24855.191   -12620.904    7312.5798    30023.055   -26445.951    86.269382 
   54100    1962.4284   -110.34086    1.7756464   -108.56521    9583.3485    4.4218459    4.4218459    4.4218459    9583.3485    13303.437   -6204.4084    21651.017   -2698.9303   -8158.3435    19722.514     86.45912 
   54200    810.61032   -109.32518   0.73345725   -108.59172   -4696.4799    4.4370258    4.4370258    4.4370258   -4696.4799   -35023.561    33782.781   -12848.659   -1386.2138    32996.224   -19821.861    87.352605 
   54300    1678.4632   -110.08209    1.5187088   -108.56338    -24246.32    4.4451776    4.4451776    4.4451776    -24246.32   -38621.833   -24467.471   -9649.6564   -5484.3393   -13201.914   -13570.614    87.834946 
   54400    1659.4048   -110.04841    1.5014643   -108.54694    -1685.973    4.4230804    4.4230804    4.4230804    -1685.973    -27990.55    10615.905    12316.727    1517.6656    36633.595    9905.3062    86.531555 
   54500    1155.5169   -109.60206     1.045536   -108.55652   -1956.6932    4.4238732    4.4238732    4.4238732   -1956.6932   -7938.9158    14582.845   -12514.009   -2553.4993    14094.717   -31843.615    86.578092 
   54600    1587.8287   -109.98741    1.4367008   -108.55071   -19581.393    4.4410054    4.4410054    4.4410054   -19581.393   -21835.677    -14067.08   -22841.422   -4907.2881   -225.40549      -1327.5    87.587857 
   54700    1422.2034   -109.84111    1.2868395   -108.55427   -10937.583    4.4277228    4.4277228    4.4277228   -10937.583   -44844.824    31863.022   -19830.946    3053.9794    32901.721     1838.807    86.804306 
   54800    1535.8261   -109.94582    1.3896477   -108.55618    -3237.726    4.4223073    4.4223073    4.4223073    -3237.726   -2917.8099    4190.1931   -10985.561   -13344.883   -16363.603   -20501.826    86.486187 
   54900    1274.0863   -109.71876    1.1528201   -108.56594   -14992.955    4.4326732    4.4326732    4.4326732   -14992.955   -14582.631   -6167.7512   -24228.482   -16634.356    29136.273    7424.8916    87.095785 
   55000    1673.4264   -110.07154    1.5141513   -108.55739   -6604.8112    4.4322307    4.4322307    4.4322307   -6604.8112   -29955.798    29850.235    -19708.87    4941.8155    5821.3677    4259.1354    87.069705 
   55100    1694.7182   -110.08957    1.5334167   -108.55615   -23275.912    4.4396238    4.4396238    4.4396238   -23275.912   -13783.112    -28989.79   -27054.834   -17631.845   -11613.411   -23271.152    87.506138 
   55200    1271.1575   -109.70584      1.15017   -108.55567   -9485.3769    4.4331776    4.4331776    4.4331776   -9485.3769   -17713.918   -1487.1405   -9255.0725   -19418.085    32573.878    10981.336    87.125521 
   55300    2018.7743   -110.36899    1.8266294   -108.54236    735.27227    4.4301223    4.4301223    4.4301223    735.27227    2559.5844   -3209.3076      2855.54    11079.383   -20579.026   -10552.418    86.945507 
   55400    997.50795   -109.46079   0.90256616   -108.55822   -27636.035    4.4535486    4.4535486    4.4535486   -27636.035   -37227.613   -40985.602   -4694.8898   -34000.922     33744.56   -2797.5805    88.332105 
   55500    1653.2785   -110.03167    1.4959211   -108.53575   -25254.258    4.4467806    4.4467806    4.4467806   -25254.258   -53160.093   -11668.533   -10934.149    9244.7647   -16298.784    5844.5666    87.930008 
   55600    1657.3853   -110.02843    1.4996371   -108.52879    3722.4296     4.413376     4.413376     4.413376    3722.4296   -12080.767    33551.581   -10303.525   -7717.4482     2365.559    4855.7906    85.963243 
   55700    1101.3431   -109.55472   0.99651836    -108.5582   -3776.2722    4.4187081    4.4187081    4.4187081   -3776.2722   -35317.576    14058.271    9930.4886   -31167.413    31301.864   -1827.6837    86.275194 
   55800    1911.6615   -110.28412    1.7297115   -108.55441   -17621.979    4.4464888    4.4464888    4.4464888   -17621.979   -25136.031   -6183.3249   -21546.582    20307.305   -28826.732    6236.1603    87.912698 
   55900    1037.4293   -109.49653   0.93868785   -108.55784   -15854.707    4.4445139    4.4445139    4.4445139   -15854.707   -41262.425    4867.8632   -11169.559   -19651.127    30777.152    8017.5715     87.79561 
   56000    1503.5261   -109.90094     1.360422   -108.54051    3644.2397    4.4271548    4.4271548    4.4271548    3644.2397   -15052.902    8132.0588    17853.562    -15602.62   -6277.8426   -3433.7857    86.770905 
   56100    1677.4197   -110.06286    1.5177646    -108.5451   -4099.7109     4.423854     4.423854     4.423854   -4099.7109   -11353.889    26378.605   -27323.849    21832.415    12983.499    2820.3465    86.576963 
   56200    964.22819   -109.43935   0.87245393   -108.56689    6122.2603    4.4201387    4.4201387    4.4201387    6122.2603   -22636.053    23885.377    17117.456   -37917.466     29996.48   -3750.7563    86.359017 
   56300    1469.5533   -109.90355    1.3296827   -108.57386    8079.3771    4.4338162    4.4338162    4.4338162    8079.3771    21203.343   -3229.2109    6263.9991   -2753.0958   -23616.884   -8468.9149    87.163175 
   56400    1518.0592   -109.93264    1.3735719   -108.55907   -12680.054    4.4479685    4.4479685    4.4479685   -12680.054   -30692.192    17919.892   -25267.863   -1649.9561    25799.211   -750.98019    88.000494 
   56500    1162.3557    -109.6045    1.0517239   -108.55278    24263.922    4.4270515    4.4270515    4.4270515    24263.922   -21864.956     35519.75    59136.971   -31160.477    4537.1212   -24151.577    86.764832 
   56600    1542.8055    -109.9402    1.3959628   -108.54423    30652.189    4.4214703    4.4214703    4.4214703    30652.189    55215.843    37734.466     -993.743    10079.926   -23005.379   -23516.706    86.437089 
   56700    986.04451    -109.4516   0.89219379   -108.55941    20042.508    4.4349877    4.4349877    4.4349877    20042.508     7135.707    21185.332    31806.486   -35408.328    23734.636    12663.797    87.232288 
   56800    1375.6615   -109.79698    1.2447274   -108.55225   -10290.646    4.4432691    4.4432691    4.4432691   -10290.646   -28004.194   -12579.694    9711.9492   -9085.4603   -11875.422   -20751.296    87.721862 
   56900    1615.8077   -110.00757    1.4620168   -108.54556    637.91125    4.4288026    4.4288026    4.4288026    637.91125    14220.397    -6181.046   -6125.6175    8997.7195   -4925.6135    11028.182    86.867832 
   57000    1297.5357   -109.72839    1.1740376   -108.55435    4246.6513    4.4247848    4.4247848    4.4247848    4246.6513    7310.5894   -37762.347    43191.711    -31435.24    14964.526    10220.573    86.631628 
   57100    1865.7884   -110.23967    1.6882046   -108.55146   -20153.399    4.4453739    4.4453739    4.4453739   -20153.399   -24827.282   -44576.295    8943.3794    8541.3208   -8558.7339   -23484.027    87.846583 
   57200    881.90853   -109.36123   0.79796937   -108.56326   -10059.411      4.44122      4.44122      4.44122   -10059.411    -14542.46   -40336.471    24700.698   -21213.748   -2018.5623    38882.741    87.600555 
   57300     1434.575   -109.86164    1.2980336   -108.56361    20705.371    4.4256404    4.4256404    4.4256404    20705.371    11158.286   -19610.672    70568.498    80.740739    12646.337     19939.02    86.681891 
   57400    1736.4784   -110.13793    1.5712022   -108.56673    21061.373    4.4250629    4.4250629    4.4250629    21061.373   -3615.6464   -13461.065    80260.832   -6820.6158    1596.1023    3251.6583    86.647963 
   57500    724.03986    -109.2521   0.65512648   -108.59697    18772.939     4.435941     4.435941     4.435941    18772.939    12917.468   -23163.167    66564.514   -18350.029   -6438.7478    43859.112    87.288553 
   57600    1668.9348   -110.06549    1.5100873   -108.55541   -6435.9884    4.4570068    4.4570068    4.4570068   -6435.9884    2666.1991   -35744.488    13770.324    14485.214     1808.441   -14788.665    88.538037 
   57700    1104.4394   -109.54682   0.99931996    -108.5475   -14567.462    4.4340422    4.4340422    4.4340422   -14567.462   -22251.897   -31730.318    10279.828    -28140.48   -14335.632    18683.782     87.17651 
   57800    1203.3238   -109.62325    1.0887926   -108.53446    21958.151    4.4092405    4.4092405    4.4092405    21958.151    6705.9977    32565.006    26603.449    25.426795   -1642.0062    18112.717    85.721819 
   57900    1726.2355   -110.11299    1.5619341   -108.55105   -9827.3395    4.4294931    4.4294931    4.4294931   -9827.3395    -4047.368   -16735.138   -8699.5127   -3673.0462    10553.571   -34142.851    86.908465 
   58000    1229.0367   -109.67924    1.1120582   -108.56718   -6482.3311    4.4398132    4.4398132    4.4398132   -6482.3311    -10629.16   -23573.919    14756.085    -9770.523   -7121.3204    33405.143    87.517338 
   58100    1524.2911   -109.94665    1.3792106   -108.56744     -450.846    4.4353324    4.4353324    4.4353324     -450.846    -12462.56    6311.9398    4798.0822    6866.1105   -6161.8713    654.17146    87.252626 
   58200    1552.5714   -109.96536    1.4047992   -108.56056    4261.4957    4.4241472    4.4241472    4.4241472    4261.4957   -6557.0019   -7292.8849    26634.374   -14446.429    18620.336   -13513.612    86.594182 
   58300    819.27477   -109.31204   0.74129703   -108.57074    4594.9855    4.4225132    4.4225132    4.4225132    4594.9855   -21286.768    26708.562    8363.1624   -16178.873   -12181.959    38505.135    86.498271 
   58400    1505.4292   -109.92559     1.362144   -108.56344    5028.4849    4.4360937    4.4360937    4.4360937    5028.4849   -40709.597     45776.64    10018.412    6674.2432     12818.89   -18422.654    87.297564 
   58500    1519.8234   -109.93287    1.3751682    -108.5577    -698.3611    4.4381595    4.4381595    4.4381595    -698.3611   -11140.607   -5375.2717    14420.796   -12045.356    1462.4769    20032.364    87.419581 
   58600    1079.2565   -109.53908   0.97653398   -108.56255    7354.7939    4.4278374    4.4278374    4.4278374    7354.7939   -9726.5918    40393.904   -8602.9307    2118.9559   -4058.9866    29414.244    86.811046 
   58700    1986.3918   -110.34877     1.797329   -108.55144    22005.457    4.4181051    4.4181051    4.4181051    22005.457   -11794.218    43517.797    34292.792    9763.8316    16926.781   -16351.787    86.239877 
   58800    1056.5114   -109.53922   0.95595368   -108.58327   -2419.3989    4.4269936    4.4269936    4.4269936   -2419.3989    9101.2838    1188.9432   -17548.424   -17077.924   -8825.4435    33119.628    86.761426 
   58900    1163.7202   -109.63266    1.0529585    -108.5797   -21976.751    4.4394955    4.4394955    4.4394955   -21976.751   -27331.724   -10152.678   -28445.852   -510.99587   -13571.265    27954.331     87.49855 
   59000    2056.0119   -110.41644    1.8603228   -108.55612    8234.2392    4.4246946    4.4246946    4.4246946    8234.2392   -12832.951    5033.0112    32502.657    608.78668    6399.9495   -13922.306     86.62633 
   59100    494.03573   -109.02773   0.44701391   -108.58072   -21974.205     4.432497     4.432497     4.432497   -21974.205    26348.673   -39104.561   -53166.727   -16680.799   -7353.7615    52287.698    87.085398 
   59200    1987.9309   -110.34694    1.7987216   -108.54822    6269.0937    4.4289346    4.4289346    4.4289346    6269.0937    1150.5634    687.68479    16969.033    1732.5544    802.36491    9345.6528    86.875599 
   59300    1463.2162   -109.88722    1.3239488   -108.56327   -4118.7261    4.4301522    4.4301522    4.4301522   -4118.7261   -21078.648   -14306.572    23029.041    4716.8288   -9248.7368    18842.189     86.94727 
   59400    1059.8653   -109.53318   0.95898842   -108.57419   -24687.376    4.4334839    4.4334839    4.4334839   -24687.376   -15811.144   -33728.312   -24522.672   -17848.753   -12433.891    36895.293    87.143579 
   59500    1886.7599   -110.25784      1.70718   -108.55066    23047.225     4.418569     4.418569     4.418569    23047.225   -15994.787    17232.028    67904.435    8067.3456    26348.795    -11335.97    86.267043 
   59600    830.28606   -109.32241   0.75126028   -108.57115    -10424.45     4.435986     4.435986     4.435986    -10424.45   -13226.037   -17441.988   -605.32596   -6580.6107   -9401.4517    41983.548    87.291206 
   59700     1531.993   -109.93659    1.3861795   -108.55041   -2857.7566    4.4328142    4.4328142    4.4328142   -2857.7566   -12780.039   -13539.066    17745.835   -13121.464   -4269.3281   -6920.9395    87.104099 
   59800    1117.9048   -109.56256    1.0115037   -108.55106    21374.742     4.423698     4.423698     4.423698    21374.742    6495.8892   -3643.9096    61272.245    18373.713    19955.468     19092.76    86.567806 
   59900    1341.2213   -109.77187    1.2135652    -108.5583   -21550.863    4.4423913    4.4423913    4.4423913   -21550.863   -17123.864   -42643.228   -4885.4966   -19867.887   -1561.2931    37401.869    87.669886 
   60000    1884.8228     -110.247    1.7054273   -108.54158    9766.7707    4.4314823    4.4314823    4.4314823    9766.7707   -27127.315    9068.8432    47358.785    7825.2805    3944.3858   -18542.153    87.025607 
   60100    914.23348   -109.38586   0.82721766   -108.55864    3243.7658    4.4277405    4.4277405    4.4277405    3243.7658    45471.904   -14359.986   -21380.621    8117.0064    10584.402    49122.035    86.805347 
   60200    1980.6675   -110.33644    1.7921495   -108.54429   -12946.723    4.4350748    4.4350748    4.4350748   -12946.723    19.405635   -30497.002   -8362.5727   -14905.989   -7467.6715    5636.4138    87.237426 
   60300    1469.0573   -109.88641    1.3292339   -108.55718    9882.8834    4.4152811    4.4152811    4.4152811    9882.8834   -14122.785   -4460.2762    48231.712    27032.329    9871.3788    2750.9199    86.074614 
   60400    846.42174   -109.35014   0.76586018   -108.58428   -13943.083    4.4257313    4.4257313    4.4257313   -13943.083    20229.593   -15549.159   -46509.683    4999.4436    17092.639    37903.362    86.687229 
   60500     1883.357   -110.26224     1.704101   -108.55814   -3049.5671    4.4331734    4.4331734    4.4331734   -3049.5671   -13385.004   -6565.1406    10801.443   -11111.632   -26070.499   -13407.805    87.125274 
   60600     788.2031   -109.28748   0.71318273   -108.57429    -2806.435    4.4248123    4.4248123    4.4248123    -2806.435   -22248.709    15216.404   -1387.0002    23235.103    10897.388    36735.785    86.633243 
   60700    1465.4168   -109.89575    1.3259399   -108.56981   -10702.642    4.4261729    4.4261729    4.4261729   -10702.642   -24235.231    22882.073   -30754.768    2720.1693    27937.309    11906.837    86.713182 
   60800    2002.2215   -110.36929    1.8116521   -108.55763   -10907.997    4.4281171    4.4281171    4.4281171   -10907.997   -26856.556    9939.6415   -15807.077   -431.86757   -40280.216   -7483.4397    86.827498 
   60900    877.19766   -109.36358   0.79370688   -108.56987   -12881.259     4.434817     4.434817     4.434817   -12881.259   -27130.399    10576.969   -22090.346    19022.095    27211.171    35796.796    87.222213 
   61000    1600.7171   -110.00045    1.4483624   -108.55209   -2515.2331    4.4314244    4.4314244    4.4314244   -2515.2331   -19335.156     37919.97   -26130.514   -8365.7309   -1893.2672    2095.8439    87.022192 
   61100    1294.6852   -109.72771    1.1714583   -108.55625   -878.00529    4.4257456    4.4257456    4.4257456   -878.00529    26176.386   -23475.498   -5334.9043    5570.8759   -25938.658    31040.296     86.68807 
   61200    1030.4389   -109.49911    0.9323628   -108.56675   -16857.379    4.4233898    4.4233898    4.4233898   -16857.379   -24545.262   -45657.604    19630.731    12988.369    33314.412    19699.121    86.549717 
   61300    1611.2343   -110.02509    1.4578786   -108.56721    10676.405    4.4234049    4.4234049    4.4234049    10676.405   -14683.591    20821.172    25891.634   -5166.9502    -5709.473   -3131.7672    86.550601 
   61400    1230.1577     -109.684    1.1130725   -108.57093   -9811.9129    4.4435843    4.4435843    4.4435843   -9811.9129     11213.97   -30503.679    -10146.03    10932.501   -2272.8059    39439.626    87.740533 
   61500    1321.0413   -109.74894     1.195306   -108.55363   -19108.674    4.4464077    4.4464077    4.4464077   -19108.674   -39465.466   -4945.6769   -12914.878    8478.2848    16966.757    5580.8802    87.907888 
   61600    2054.1715   -110.37684    1.8586576   -108.51818    -25490.43    4.4454878    4.4454878    4.4454878    -25490.43   -7667.7078   -21270.596   -47532.986    1693.6623   -16095.078   -6549.0462    87.853339 
   61700    837.07591   -109.28611   0.75740387    -108.5287   -40806.805    4.4479101    4.4479101    4.4479101   -40806.805   -18788.246   -60013.417   -43618.752    11568.887    14211.608    28740.465     87.99703 
   61800    1900.4165   -110.23728    1.7195368   -108.51775    11267.357    4.4243478    4.4243478    4.4243478    11267.357    20365.191     209.3899    13227.489     9626.306     12442.15   -10842.952    86.605961 
   61900    1369.1333   -109.79273    1.2388206   -108.55391   -169.23644    4.4340345    4.4340345    4.4340345   -169.23644    64141.013   -36760.701   -27888.021   -2962.2916    5869.1454    16252.596    87.176056 
   62000    844.32386   -109.32221   0.76396197   -108.55825   -11710.461    4.4427937    4.4427937    4.4427937   -11710.461    22186.456   -16182.277   -41135.561    10185.415    45540.221    13534.372    87.693712 
   62100    1566.8981   -109.96158    1.4177623   -108.54382    23349.589     4.424296     4.424296     4.424296    23349.589    73312.484    13027.305   -16291.022   -2221.8846    959.35078    1676.7991    86.602916 
   62200    1103.7084   -109.56282   0.99865853   -108.56416    6130.8131    4.4365684    4.4365684    4.4365684    6130.8131    61675.536   -19947.757    -23335.34   -4677.1486    11694.023     16924.44    87.325591 
   62300    1364.5789   -109.78703    1.2346997   -108.55233   -10572.676    4.4490727    4.4490727    4.4490727   -10572.676   -1579.2402   -14446.796   -15691.993    13959.762    35688.518   -6185.8169    88.066048 
   62400    1110.8817   -109.55886    1.0051491   -108.55371     8658.498    4.4336522    4.4336522    4.4336522     8658.498    1658.2553    37928.935   -13611.696   -516.90395   -27544.733    9864.1535    87.153505 
   62500    1552.3655   -109.95941    1.4046129   -108.55479    6547.2937    4.4336291    4.4336291    4.4336291    6547.2937    1697.4565    8825.8469    9118.5778    3789.7799   -2549.8867    15822.292    87.152141 
   62600    2036.1651   -110.38906     1.842365   -108.54669   -28230.619    4.4573626    4.4573626    4.4573626   -28230.619   -38659.281   -18062.902   -27969.675     3198.852   -5619.4551    -3308.895    88.559244 
   62700    1117.1665   -109.55751    1.0108357   -108.54668    -29144.26    4.4486376    4.4486376    4.4486376    -29144.26   -19396.344   -9152.6064    -58883.83    7851.9566   -34672.606    15599.041    88.040212 
   62800    1545.2411   -109.93152    1.3981666   -108.53335    15547.537    4.4241893    4.4241893    4.4241893    15547.537    15031.163     18631.54    12979.909    27191.949   -7214.8411    -4772.166    86.596653 
   62900    1987.2605   -110.34558     1.798115   -108.54746   -8972.7089    4.4292788    4.4292788    4.4292788   -8972.7089    9892.8015   -2750.6469   -34060.281   -12632.233   -6239.3945    5106.6052    86.895855 
   63000    692.27162   -109.19892   0.62638191   -108.57253    15507.897    4.4362762    4.4362762    4.4362762    15507.897    40296.991    30952.516   -24725.816    30007.671   -22402.158    8137.1018    87.308337 
   63100    1493.9428   -109.91075    1.3517509   -108.55899    -959.3077    4.4528772    4.4528772    4.4528772    -959.3077   -25789.011    30873.837   -7962.7492    16725.365    20154.432   -12623.245    88.292164 
   63200    1486.6236   -109.90067    1.3451283   -108.55554    -5544.744    4.4389653    4.4389653    4.4389653    -5544.744   -10131.464     2253.834   -8756.6024   -7410.9639   -7512.8671    6764.4849    87.467206 
   63300    956.30831   -109.42108   0.86528785   -108.55579    28839.804    4.4055355    4.4055355    4.4055355    28839.804    5360.2345    34315.717     46843.46     30030.73   -17324.774    3622.5014    85.505906 
   63400     1515.839   -109.95116     1.371563    -108.5796    10219.121    4.4251558    4.4251558    4.4251558    10219.121   -11635.414    266.89448    42025.883   -16308.924    42059.361   -12343.086     86.65342 
   63500    1408.9284   -109.84639     1.274828   -108.57156   -14794.308    4.4486083    4.4486083    4.4486083   -14794.308   -50515.213   -4829.1648    10961.453    3069.6929   -25770.249     2826.363    88.038475 
   63600    825.54444   -109.31008   0.74696996   -108.56311    6597.9064    4.4398672    4.4398672    4.4398672    6597.9064   -35327.932    23500.024    31621.627    14421.906   -2682.7574     11213.47    87.520532 
   63700    1543.2124   -109.93639     1.396331   -108.54006    18402.854    4.4280451    4.4280451    4.4280451    18402.854    11180.007   -11320.054    55348.609   -5281.4016    23211.684   -7511.1268    86.823265 
   63800    979.78959   -109.44453   0.88653421   -108.55799    11544.267    4.4333567    4.4333567    4.4333567    11544.267    -47594.81    24116.348    58111.263    16023.151    -32121.72    12473.261    87.136079 
   63900    1385.4732   -109.80486    1.2536052   -108.55125    20459.612    4.4398999    4.4398999    4.4398999    20459.612   -25441.668    13003.646     73816.86   -8211.0455     12332.01    20516.959    87.522466 
   64000    1099.1795   -109.55404    0.9945607   -108.55948    6395.9941     4.442214     4.442214     4.442214    6395.9941   -5068.5139    15813.794    8442.7021    933.99053    -14059.07    -12850.14     87.65939 
   64100    1086.7347   -109.53911   0.98330036   -108.55581   -1325.5566    4.4341154    4.4341154    4.4341154   -1325.5566   -31963.016    13010.885     14975.46    793.16581   -21165.139    18685.724    87.180825 
   64200    1638.4171   -110.02979    1.4824742   -108.54732    26342.103    4.4162516    4.4162516    4.4162516    26342.103    2102.2796    50690.987    26233.043   -9635.1202    6592.3103    27754.053    86.131385 
   64300    640.83315   -109.16498    0.5798393   -108.58515     7260.492    4.4299493    4.4299493    4.4299493     7260.492   -1666.2806    41902.266   -18454.509    1061.8479   -34749.218   -20892.743    86.935325 
   64400    1656.1313   -110.06767    1.4985024   -108.56917    -2673.018    4.4414593    4.4414593    4.4414593    -2673.018   -20135.698    20699.131   -8582.4863   -7643.8054    1136.2733    4910.4867    87.614716 
   64500    1582.8326   -109.99162    1.4321802   -108.55944    9966.8231    4.4362319    4.4362319    4.4362319    9966.8231    1051.5322    27734.179    1114.7583    6210.1508   -13736.734    12661.564    87.305724 
   64600    682.75813   -109.19009    0.6177739   -108.57231    -2.821079     4.433618     4.433618     4.433618    -2.821079   -8935.5158   -1429.0163    10356.069    3375.5238   -32070.959   -29883.327    87.151492 
   64700    1868.4491   -110.24148     1.690612   -108.55087    20526.701    4.4354812    4.4354812    4.4354812    20526.701    4559.8407   -3266.5111    60286.773   -5827.6436    8278.4869     552.8839    87.261411 
   64800    714.20284   -109.21381   0.64622574   -108.56758    13608.598    4.4399436    4.4399436    4.4399436    13608.598   -24102.078    10914.014    54013.859    3753.1743   -30446.485   -7627.1854    87.525051 
   64900    1062.8564   -109.52357   0.96169477   -108.56188    11142.429    4.4445171    4.4445171    4.4445171    11142.429   -10356.523   -1380.8053    45164.615   -6490.2875    3365.3174   -33418.059    87.795804 
   65000    1613.4731   -109.99879    1.4599044   -108.53888    17469.844    4.4409643    4.4409643    4.4409643    17469.844   -1727.2176     8795.034    45341.717    4616.8823    2143.0056    12895.719    87.585428 
   65100    850.61328   -109.32556   0.76965278    -108.5559     3582.526    4.4313453    4.4313453    4.4313453     3582.526    15332.475    1989.8908   -6574.7873    17424.704   -23579.304    -41901.94    87.017536 
   65200    1695.9054   -110.07989    1.5344908    -108.5454    22305.738    4.4202147    4.4202147    4.4202147    22305.738    13847.886    28359.842    24709.485   -2014.0678     12633.24   -8464.5128    86.363473 
   65300    1468.1908   -109.89603    1.3284499   -108.56758   -9107.7078    4.4281642    4.4281642    4.4281642   -9107.7078   -15461.389    6221.4187   -18083.153    60.572284   -19041.962    14054.279    86.830267 
   65400    862.05987   -109.35465   0.78000989   -108.57464   -3284.5227    4.4351518    4.4351518    4.4351518   -3284.5227    24994.288   -6551.3564     -28296.5    11895.564   -18492.545   -45638.415    87.241972 
   65500     1626.005    -110.0267    1.4712435   -108.55546    14867.397    4.4225359    4.4225359    4.4225359    14867.397    5986.3358    30464.554    8151.3012   -3725.7823    13802.028    16705.202    86.499602 
   65600    1042.5095   -109.51118   0.94328447   -108.56789   -11013.188    4.4301776    4.4301776    4.4301776   -11013.188    662.83805    2190.2042   -35892.607    9848.8533   -30281.287   -3867.5214    86.948763 
   65700    1497.6179   -109.91414    1.3550762   -108.55907   -6904.3486    4.4280832    4.4280832    4.4280832   -6904.3486     6379.696   -6507.0377   -20585.704    -857.7122    882.72024   -21876.053    86.825503 
   65800    1560.0623   -109.96836    1.4115771   -108.55678   -3694.4241    4.4252324    4.4252324    4.4252324   -3694.4241   -14020.559    5139.1806   -2201.8942   -9112.8389    3629.9959    17226.561    86.657917 
   65900    1253.7649   -109.69409    1.1344328   -108.55966   -22299.413    4.4366404    4.4366404    4.4366404   -22299.413   -14292.862   -15488.434   -37116.943    15072.105   -35910.469   -8675.0283    87.329842 
   66000    1498.3435   -109.90764    1.3557327   -108.55191   -14519.773    4.4334962    4.4334962    4.4334962   -14519.773   -6509.0026   -46964.509    9914.1938   -25971.891    19282.731   -434.41009    87.144308 
   66100    1187.3613   -109.62814    1.0743495   -108.55379   -3677.2266    4.4277399    4.4277399    4.4277399   -3677.2266   -4895.9671    1128.9898   -7264.7026    2931.2559   -20310.191    16489.047    86.805313 
   66200    1423.6208   -109.83558    1.2881221   -108.54746   -8470.8583    4.4355627    4.4355627    4.4355627   -8470.8583   -12182.433   -12381.456   -848.68675   -11030.111   -22744.672   -11619.686    87.266221 
   66300    1550.9879   -109.95307    1.4033665    -108.5497   -11949.925     4.439134     4.439134     4.439134   -11949.925   -8260.6298   -42772.135    15182.988   -22250.258    24411.784    4131.9342    87.477179 
   66400    1383.4161   -109.80315    1.2517439   -108.55141    5412.2114    4.4189843    4.4189843    4.4189843    5412.2114    7662.3498    14965.632   -6391.3474    25813.545   -37903.552    422.02635    86.291374 
   66500    1267.2916   -109.71231    1.1466721   -108.56563    16229.604    4.4171476    4.4171476    4.4171476    16229.604   -6639.2327   -8774.2137    64102.257   -37141.028     3103.704   -6459.3565    86.183817 
   66600    1550.2858   -109.96113    1.4027312   -108.55839    -16268.38    4.4422869    4.4422869    4.4422869    -16268.38     514.0098   -33871.918   -15447.233    4986.0796   -2293.8958   -319.87465    87.663702 
   66700    988.85625   -109.45015   0.89473791   -108.55541   -7000.4304    4.4368998    4.4368998    4.4368998   -7000.4304   -13979.256   -10214.082    3192.0469    8033.8296   -34541.815   -3218.8966    87.345166 
   66800    1822.7796    -110.1866    1.6492893   -108.53731   -1650.4421    4.4266796    4.4266796    4.4266796   -1650.4421   -13815.859   -32035.357     40899.89   -35001.544    12392.113    3953.1491    86.742965 
   66900    1206.6608    -109.6497     1.091812   -108.55789   -7160.2452    4.4185139    4.4185139    4.4185139   -7160.2452   -16563.711    13554.823   -18471.848    16688.373   -37629.045   -197.93394    86.263817 
   67000    1263.5649    -109.7152       1.1433    -108.5719    11874.227    4.4131698    4.4131698    4.4131698    11874.227   -11274.861    273.93693    46623.605   -2613.8736   -15200.427    7496.7164    85.951196 
   67100    1806.6619   -110.19992    1.6347056   -108.56522   -26513.924    4.4467367    4.4467367    4.4467367   -26513.924   -26537.357   -27433.354   -25571.062   -6052.0129    9194.2197   -876.28646    87.927404 
   67200    641.55259   -109.14776   0.58049026   -108.56727   -23420.567    4.4396834    4.4396834    4.4396834   -23420.567   -30373.872    4762.8346   -44650.662    21633.432   -43972.955   -5505.0447     87.50966 
   67300    2086.7881   -110.41663    1.8881698   -108.52846    31341.804    4.4074893    4.4074893    4.4074893    31341.804    25967.941    24838.552    43218.919    5400.2633    12687.945    6932.1094    85.619719 
   67400    1201.3381   -109.64821     1.086996   -108.56121   -23497.494    4.4265797    4.4265797    4.4265797   -23497.494   -35384.771    6594.0612   -41701.773     2828.753   -13976.679    458.46524    86.737094 
   67500    1097.7513   -109.55723   0.99326847   -108.56396   -18074.715    4.4350194    4.4350194    4.4350194   -18074.715   -70350.334    11165.937    4960.2526    29598.561   -35171.362    1884.9543     87.23416 
   67600    1795.2894   -110.17071    1.6244155   -108.54629   -7276.6307     4.437185     4.437185     4.437185   -7276.6307    -31419.05    16688.996   -7099.8375   -9385.4454    19553.664   -2642.1706    87.362007 
   67700    1075.7135   -109.53174   0.97332821   -108.55841   -23044.873     4.429531     4.429531     4.429531   -23044.873   -31304.005    10953.827   -48784.443     11731.51   -27034.199    4706.3977    86.910695 
   67800    1786.8024   -110.16528    1.6167364   -108.54855    32467.794    4.4087944    4.4087944    4.4087944    32467.794    1080.7064    70785.768    25536.908    1927.3332    1100.2816   -619.69538    85.695802 
   67900    1126.7872   -109.59912    1.0195407   -108.57958   -27860.818    4.4312425    4.4312425    4.4312425   -27860.818   -21988.518   -23715.515   -37878.421   -18779.656   -10990.735     1126.343    87.011477 
   68000    1469.6777   -109.89905    1.3297952   -108.56926   -21044.278    4.4319607    4.4319607    4.4319607   -21044.278   -14481.656   -1402.8758   -47248.301   -3936.7004   -32131.167    8923.2903    87.053794 
   68100    1838.5703   -110.21684     1.663577   -108.55327    24278.086      4.41695      4.41695      4.41695    24278.086    22807.203    24693.226    25333.828   -11632.311    22184.178    757.93498    86.172255 
   68200    763.20887   -109.26076   0.69056742   -108.57019    -34019.07    4.4362554    4.4362554    4.4362554    -34019.07   -28519.445   -31784.722   -41753.043   -9219.3856   -23272.126    8810.4738     87.30711 
   68300    1915.3775   -110.28082    1.7330738   -108.54775    900.23428     4.426457     4.426457     4.426457    900.23428   -2177.7483   -6488.4088     11366.86    8915.3675    520.59998    1761.6626    86.729881 
   68400     1254.396   -109.69609    1.1350038   -108.56108   -15621.908      4.42916      4.42916      4.42916   -15621.908   -26557.727   -16132.703   -4175.2946   -13602.428    8187.3402    3056.8514    86.888863 
   68500    1649.8363   -110.03791    1.4928065    -108.5451   -19792.432    4.4388358    4.4388358    4.4388358   -19792.432   -6016.4954   -43368.168    -9992.632    -15921.02    -18320.59    7628.5306    87.459551 
   68600    1530.8092   -109.93043    1.3851083   -108.54532   -8731.0395    4.4232893    4.4232893    4.4232893   -8731.0395    -28053.82   -19968.386    21829.088    49809.351    23480.317   -3546.9453    86.543816 
   68700    1358.2785   -109.78812    1.2289989   -108.55912    465.95498    4.4218716    4.4218716    4.4218716    465.95498    22786.455   -12897.954   -8490.6357   -36299.666    10868.967    11561.968    86.460627 
   68800    1435.0909   -109.85776    1.2985004   -108.55926   -9877.6975    4.4312396    4.4312396    4.4312396   -9877.6975   -11021.866   -45592.316    26981.089    31768.192   -6381.9418   -2423.0862    87.011308 
   68900    1099.5437   -109.55975   0.99489021   -108.56486   -11406.032    4.4277859    4.4277859    4.4277859   -11406.032   -22114.207   -21509.224    9405.3343    32124.141    16556.013    5203.9647    86.808015 
   69000    1699.3983   -110.09006    1.5376513   -108.55241   -4891.3065    4.4285576    4.4285576    4.4285576   -4891.3065   -961.49828   -18676.258    4963.8371   -25580.114   -562.14549    8556.7637    86.853415 
   69100    1085.8868   -109.54221   0.98253319   -108.55967   -12392.425    4.4278109    4.4278109    4.4278109   -12392.425   -17097.107    -48021.05    27940.883    67601.187    10585.467   -8452.8251    86.809489 
   69200    1785.8869   -110.17146     1.615908   -108.55555   -5081.9535    4.4232594    4.4232594    4.4232594   -5081.9535   -14162.755    16680.654    -17763.76   -13838.534    23685.768    9922.6239    86.542061 
   69300    1193.0418    -109.6444    1.0794893   -108.56491   -7773.3478    4.4272516    4.4272516    4.4272516   -7773.3478   -31273.825   -23003.983    30957.764    37493.959   -6149.8414    1593.9844    86.776594 
   69400    1190.5163   -109.64073    1.0772041   -108.56353   -7915.3626    4.4318873    4.4318873    4.4318873   -7915.3626   -43207.848    11750.504    7711.2554    38336.005    13446.817   -1564.6642    87.049468 
   69500     1747.912   -110.13309    1.5815475   -108.55154    6835.1576    4.4269865    4.4269865    4.4269865    6835.1576   -14608.489    51115.601   -16001.639   -13821.273    16649.229    9053.0895    86.761008 
   69600    1065.9644   -109.52622     0.964507   -108.56172    2419.9947    4.4202197    4.4202197    4.4202197    2419.9947   -42871.863    16227.295    33904.552    65915.742   -8336.9113    1536.9929    86.363766 
   69700    1553.1663   -109.96659    1.4053375   -108.56125    7128.5803    4.4310849    4.4310849    4.4310849    7128.5803    -17508.49    65124.018   -26229.787   -17491.939    24206.153    7075.6515    87.002195 
   69800    1408.7806   -109.83094    1.2746943   -108.55625   -4390.8188     4.432072     4.432072     4.432072   -4390.8188   -34356.845    16822.536    4361.8521    34157.353   -654.14258   -1600.4072    87.060352 
   69900    1249.9798   -109.68323     1.131008   -108.55223    15272.109    4.4217548    4.4217548    4.4217548    15272.109   -29810.535    42041.791    33585.071     22741.84    1704.9894    3757.6023    86.453774 
   70000    1397.7308   -109.82041    1.2646962   -108.55572   -14137.606    4.4321101    4.4321101    4.4321101   -14137.606   -45643.081    19817.845   -16587.582   -19119.256    18414.376   -2529.3437    87.062597 
   70100    1480.1755   -109.89512    1.3392939   -108.55582    9343.6542     4.426792     4.426792     4.426792    9343.6542    5149.3202     12743.71    10137.932    38331.386   -9007.7607   -8355.4422    86.749571 
   70200    1471.0677   -109.89022     1.331053   -108.55916    27339.366    4.4213452    4.4213452    4.4213452    27339.366    19452.858    36465.037    26100.202    -6592.203    27259.944    11420.081    86.429751 
   70300    1337.7472   -109.77199    1.2104218   -108.56157    7115.1798    4.4313488    4.4313488    4.4313488    7115.1798    15268.556    11445.059   -5368.0751   -2932.2933    2014.9851   -24885.668    87.017743 
   70400    1597.8987   -109.99208    1.4458123   -108.54627    14736.837    4.4317474    4.4317474    4.4317474    14736.837    52547.951   -6169.4871   -2167.9525    17744.712   -7289.1069    6354.1345    87.041224 
   70500    939.33478   -109.40167   0.84992985   -108.55174    3343.9817    4.4284385    4.4284385    4.4284385    3343.9817   -13786.114    15512.902    8305.1569   -7976.9098    31528.193    8364.3729    86.846405 
   70600    1650.5287    -110.0401    1.4934331   -108.54667   -1756.0184    4.4279135    4.4279135    4.4279135   -1756.0184   -5229.7834   -5104.8346    5066.5627    32.766618   -12654.662   -33273.254    86.815525 
   70700    1223.5978   -109.66028     1.107137   -108.55314    13995.967    4.4260768    4.4260768    4.4260768    13995.967   -1432.1215    16074.777    27345.246    807.16617    14590.937    41832.565    86.707532 
   70800    1301.9441   -109.73629    1.1780264   -108.55826    2627.6737    4.4324647    4.4324647    4.4324647    2627.6737   -22009.842    14838.422    15054.441   -14824.532    6651.9246   -17917.297    87.083493 
   70900    1831.7582   -110.20658    1.6574133   -108.54916   -1276.3947     4.425445     4.425445     4.425445   -1276.3947    11051.889   -22674.351    7793.2778    1422.1513   -8365.0941    2637.1177    86.670408 
   71000    1227.0568   -109.66816    1.1102668   -108.55789    12720.841    4.4188189    4.4188189    4.4188189    12720.841    3625.8343    21043.875    13492.812   -4834.6653    20631.054    39924.928    86.281681 
   71100    1608.6256   -110.01671    1.4555183   -108.56119   -4736.0478    4.4272227    4.4272227    4.4272227   -4736.0478   -41375.209    5570.2427    21596.823   -13282.911    -6916.862   -29243.476    86.774899 
   71200    1316.7871    -109.7538    1.1914567   -108.56235   -11230.704    4.4297784    4.4297784    4.4297784   -11230.704    1843.4325   -33883.598   -1651.9461    9796.2458   -8036.3328    40458.563    86.925259 
   71300     1647.763   -110.04484    1.4909306   -108.55391   -14593.937    4.4312864    4.4312864    4.4312864   -14593.937   -33128.143   -9440.5171   -1213.1507   -13392.222    6087.5974    5570.4395    87.014063 
   71400    1425.2629   -109.85307    1.2896078   -108.56346   -16365.995    4.4259773    4.4259773    4.4259773   -16365.995    -44267.05   -9496.6495    4665.7162   -9884.0382   -9205.9204   -7919.8904    86.701684 
   71500    1306.3681   -109.74952    1.1820293   -108.56749    20565.345    4.4207469    4.4207469    4.4207469    20565.345    36972.284    749.67557    23974.075    5813.3998   -4104.2603    39011.783    86.394672 
   71600    1944.5225   -110.31706    1.7594448   -108.55762    130.45244    4.4342983    4.4342983    4.4342983    130.45244   -4139.0669   -8233.4133    12763.838   -33926.612    7312.5202   -10288.682    87.191611 
   71700    1286.6437   -109.73179    1.1641823   -108.56761    8119.2468     4.425656     4.425656     4.425656    8119.2468   -11342.318    12587.009    23113.049    8395.3064   -7485.4953    23871.614    86.682807 
   71800    1043.4733   -109.51037   0.94415657   -108.56621    23692.178    4.4152729    4.4152729    4.4152729    23692.178    17334.457    15381.736    38360.341   -11487.095    4626.8089    24411.668     86.07413 
   71900    1710.7311   -110.10152    1.5479054   -108.55362   -1768.3515    4.4374509    4.4374509    4.4374509   -1768.3515    -14834.46   -14077.071    23606.476   -24431.197      2569.83   -3543.9266    87.377716 
   72000    991.83454   -109.45527   0.89743274   -108.55783   -9058.9438    4.4409062    4.4409062    4.4409062   -9058.9438   -7488.7821   -15055.213   -4632.8365    20791.521   -12290.194     42013.76    87.581989 
   72100    1828.6151   -110.19194    1.6545694   -108.53737    15255.468    4.4178227    4.4178227    4.4178227    15255.468    3086.4026    12641.512    30038.488   -11541.009    3928.1764    4217.5333    86.223344 
   72200    1315.1662   -109.74891      1.18999   -108.55892    7487.6514    4.4112679    4.4112679    4.4112679    7487.6514    24571.849     7545.577   -9654.4714   -5292.5135   -4396.5664   -4143.3591    85.840119 
   72300    772.63901   -109.29244   0.69910001   -108.59334   -28112.817    4.4246785    4.4246785    4.4246785   -28112.817   -22572.055   -21558.242   -40208.154    34127.093   -16844.167    24978.845    86.625379 
   72400    2097.9533   -110.47195    1.8982723   -108.57368    6723.2973    4.4298356    4.4298356    4.4298356    6723.2973    -33299.86    39982.954    13486.798   -2587.0928     5569.085   -10730.718    86.928629 
   72500    1120.5905   -109.59753    1.0139338    -108.5836   -13296.109    4.4348969    4.4348969    4.4348969   -13296.109    -1186.516   -6206.7531   -32495.057     1870.735   -11966.934    31563.934    87.226929 
   72600    1361.0893   -109.79547    1.2315422   -108.56393    7333.8121    4.4299643    4.4299643    4.4299643    7333.8121   -22982.347    37493.778    7490.0048    13942.782    -6976.179    2990.6015    86.936205 
   72700    1333.5183   -109.75776    1.2065954   -108.55116    21126.702    4.4284991    4.4284991    4.4284991    21126.702   -382.71632    35563.266    28199.558    -35548.38    8860.7941    7585.0123    86.849972 
   72800    1060.0377   -109.50505   0.95914441    -108.5459    3934.7123      4.43536      4.43536      4.43536    3934.7123    25412.177    32493.721   -46101.761    10625.137    -14580.88    27399.549    87.254255 
   72900    1315.0745   -109.73224    1.1899071   -108.54234   -7221.8939    4.4315273    4.4315273    4.4315273   -7221.8939   -12438.076    8645.3939       -17873   -26503.443    17299.955   -10789.863    87.028259 
   73000    1415.8661   -109.83015    1.2811054   -108.54905    9493.9682    4.4218604    4.4218604    4.4218604    9493.9682     18267.57    12818.473   -2604.1375   -23901.816   -3891.3098     16751.63    86.459973 
   73100    1535.2927   -109.94593    1.3891651   -108.55677   -7660.2785     4.429574     4.429574     4.429574   -7660.2785   -11473.262    8598.4302   -20106.003    12896.911   -23116.045    12356.882    86.913229 
   73200    1312.3989   -109.74605    1.1874861   -108.55857   -11290.459    4.4311195    4.4311195    4.4311195   -11290.459   -33218.917   -24370.453    23717.993   -28018.442    18319.731   -11147.952    87.004236 
   73300    1495.2509   -109.90782    1.3529344   -108.55489   -4146.9149    4.4234365    4.4234365    4.4234365   -4146.9149   -24920.084    15551.552   -3072.2134     3705.946    -31450.44    2428.3146    86.552454 
   73400    1406.8505   -109.83319    1.2729479   -108.56025   -8231.9097    4.4329776    4.4329776    4.4329776   -8231.9097   -31532.094   -16417.472    23253.837   -5139.5416   -17166.471   -3059.1552    87.113731 
   73500    1513.5133   -109.91986    1.3694586    -108.5504   -15216.872    4.4398215    4.4398215    4.4398215   -15216.872   -44373.698   -14943.754    13666.838    -23703.69    5617.5699   -1344.1677    87.517826 
   73600    1303.7371    -109.7251    1.1796487   -108.54545    1241.2968    4.4273804    4.4273804    4.4273804    1241.2968   -45536.078    55783.257   -6523.2893    5976.3678   -49361.366    10518.607    86.784171 
   73700    1392.1064    -109.8006    1.2596071   -108.54099    13637.317    4.4255187    4.4255187    4.4255187    13637.317    -26816.83    -3916.252    71645.035   -44689.679    14324.304     5090.596    86.674737 
   73800    1310.0201   -109.72465    1.1853337   -108.53932   -11696.927    4.4398478    4.4398478    4.4398478   -11696.927   -53384.183    23135.406   -4842.0057    3616.9072   -31129.156    1379.3856    87.519383 
   73900    1047.2773   -109.49043   0.94759854   -108.54283   -2531.1151    4.4363721    4.4363721    4.4363721   -2531.1151   -34523.103    39083.757   -12153.999   -11751.304   -21747.468    3701.3951    87.314005 
   74000    1542.2527   -109.92828    1.3954627   -108.53282    9841.1155    4.4220315    4.4220315    4.4220315    9841.1155    2002.3747    20624.143    6896.8288   -27745.687     1105.883    6334.5534    86.470008 
   74100    1592.4151   -109.98936    1.4408506   -108.54851    2850.3389    4.4265099    4.4265099    4.4265099    2850.3389   -36309.609    50269.177   -5408.5518     10921.89   -49568.515   -9242.2667    86.732991 
   74200    1553.3715   -109.95303    1.4055232   -108.54751    1537.0458    4.4359493    4.4359493    4.4359493    1537.0458   -15193.496   -14885.519    34690.153    -20999.56    20061.654    3927.1321    87.289041 
   74300     1334.801   -109.75605     1.207756   -108.54829    1584.8436     4.434004     4.434004     4.434004    1584.8436    1783.2239    4864.0831   -1892.7763   -10840.011   -30302.765   -6319.9856    87.174252 
   74400    1857.5697   -110.22286    1.6807681   -108.54209    5301.7626    4.4230417    4.4230417    4.4230417    5301.7626    8456.3517   -6107.5292    13556.465    12423.654   -6264.0035   -10431.318     86.52928 
   74500    866.07424   -109.35135   0.78364217   -108.56771    7187.3911    4.4121692    4.4121692    4.4121692    7187.3911    14246.526   -12915.277    20230.924   -35257.653    7569.2087   -2642.1857    85.892746 
   74600    1728.7332   -110.13497    1.5641941   -108.57078   -232.65663    4.4276389    4.4276389    4.4276389   -232.65663   -6935.9831   -5195.2125    11433.226    2901.7866   -23875.258    3311.3535    86.799372 
   74700    1141.4751   -109.59446    1.0328307   -108.56163   -17861.242    4.4463172    4.4463172    4.4463172   -17861.242   -45051.072    -38636.14    30103.485    3586.2557    17980.547   -8290.3963    87.902521 
   74800    1186.2676   -109.61645    1.0733599   -108.54309    3194.7927    4.4329055    4.4329055    4.4329055    3194.7927    -1005.143     241.5914     10347.93   -22422.954   -540.69545   -5937.7251    87.109478 
   74900    2041.0738   -110.36854    1.8468064   -108.52173    12486.067    4.4169562    4.4169562    4.4169562    12486.067   -8656.7751    8685.5932    37429.382    23838.044     2977.902    5115.3802    86.172617 
   75000    803.66034     -109.287   0.72716876   -108.55983   -8156.4269     4.424094     4.424094     4.424094   -8156.4269   -40080.337    -26322.45    41933.506   -34965.335    18108.696    264.63345    86.591054 
   75100    1886.6537   -110.25914    1.7070839   -108.55206    8533.0016    4.4315077    4.4315077    4.4315077    8533.0016    123.90205   -3774.9803    29250.083    -3068.767   -1724.4236   -5292.6603    87.027101 
   75200    1196.4435   -109.64761    1.0825672   -108.56504    4952.9936    4.4320452    4.4320452    4.4320452    4952.9936   -29867.539    1863.0571    42863.462    16128.587    1174.3055    2645.8403    87.058776 
   75300    1266.2732   -109.70408    1.1457506   -108.55833   -17020.257    4.4278466    4.4278466    4.4278466   -17020.257   -45050.565   -12459.398    6449.1914   -40036.359    11443.223    9991.4388    86.811586 
   75400    1421.3868   -109.83852    1.2861007   -108.55242     20766.31    4.4094735    4.4094735    4.4094735     20766.31   -11668.571     53401.26    20566.242    23094.599   -39126.325   -9252.6279    85.735405 
   75500    1203.0073   -109.66029    1.0885063   -108.57178    7132.4433    4.4208043    4.4208043    4.4208043    7132.4433   -20140.568   -631.00052    42168.898   -20513.381    7091.4506    3260.6473    86.398034 
   75600    1494.5727   -109.90897    1.3523208   -108.55665   -18144.444    4.4398276    4.4398276    4.4398276   -18144.444    -41028.45   -14280.766    875.88481   -13746.583   -13454.695    7265.2841    87.518186 
   75700    1523.1314   -109.92616    1.3781613     -108.548   -501.30593    4.4261269    4.4261269    4.4261269   -501.30593   -22460.234    21157.942   -201.62544    16490.935   -40709.426    -9504.601    86.710477 
   75800    1470.4177   -109.87603    1.3304648   -108.54556    11005.922    4.4172871    4.4172871    4.4172871    11005.922   -15679.017   -163.03468    48859.818    -35174.82    12288.649    7386.0347    86.191986 
   75900    1196.2894   -109.64072    1.0824278   -108.55829     -1810.03    4.4187668    4.4187668    4.4187668     -1810.03    -25988.78    39773.946   -19215.256    1377.5654   -49614.492    7997.3995    86.278634 
   76000    1724.9161   -110.11339    1.5607403   -108.55265   -4950.0358    4.4310713    4.4310713    4.4310713   -4950.0358   -22050.724    8093.6659   -893.04945   -1081.0341    8193.7365   -8570.2735    87.001393 
   76100    877.49208   -109.35752   0.79397327   -108.56355   -28653.243    4.4361062    4.4361062    4.4361062   -28653.243   -78938.284    22152.039   -29173.484   -25356.096   -35498.172    3972.2499    87.298303 
   76200    1312.2116   -109.74981    1.1873166   -108.56249    9231.4967    4.4123057    4.4123057    4.4123057    9231.4967   -13539.731    77286.207   -36051.986    9434.8085   -32801.974    2114.1796    85.900718 
   76300    2007.4627   -110.37227    1.8163944   -108.55588    10637.076    4.4139816    4.4139816    4.4139816    10637.076   -10994.634    25592.971    17312.891   -12417.067    22577.889   -1336.5577    85.998633 
   76400    901.09041   -109.39392   0.81532554    -108.5786   -34149.974     4.435599     4.435599     4.435599   -34149.974   -86748.352    23186.256   -38887.826   -19774.295   -70143.321     193.7811    87.268361 
   76500    1846.3953   -110.22196    1.6706572    -108.5513   -10255.102    4.4324055    4.4324055    4.4324055   -10255.102   -26960.544     15545.32    -19350.08    7901.2699    27817.398   -2913.7192    87.080005 
   76600    1361.1909   -109.77941    1.2316341   -108.54777   -27405.833    4.4301228    4.4301228    4.4301228   -27405.833   -53215.441    8217.2506   -37219.308    -9575.884   -33796.108   -4713.1509    86.945539 
   76700    1196.3513   -109.63582    1.0824838   -108.55333   -14599.026    4.4213586    4.4213586    4.4213586   -14599.026    -24321.99    27992.114   -47467.201   -12654.478    -46819.78   -4969.6172    86.430537 
   76800    1940.5496   -110.30432    1.7558501   -108.54847    9238.8422    4.4251541    4.4251541    4.4251541    9238.8422    16563.321    29134.417   -17981.211     8477.639    25747.343    6877.6851     86.65332 
   76900    886.02917   -109.35876   0.80169782   -108.55706   -25311.858    4.4474746    4.4474746    4.4474746   -25311.858   -60401.083    21473.084   -37007.574   -20325.345   -46896.134   -2564.5349    87.971185 
   77000    1964.6607   -110.31012    1.7776663   -108.53245    6255.4285    4.4247894    4.4247894    4.4247894    6255.4285    22853.641   -5000.4223    913.06645    1699.0798    20561.083      22142.5    86.631895 
   77100    1023.1713   -109.47223   0.92578691   -108.54645    25374.071    4.4107008    4.4107008    4.4107008    25374.071    23586.294    56064.388   -3528.4682    3598.7035   -47573.082    10415.846    85.807016 
   77200     1427.464   -109.84536    1.2915994   -108.55376   -4569.4471    4.4308443    4.4308443    4.4308443   -4569.4471   -10847.263    2785.0123   -5646.0901   -15244.494   -12510.602    1558.7114    86.988024 
   77300     1266.792   -109.69383      1.14622   -108.54761    8944.0356    4.4365825    4.4365825    4.4365825    8944.0356    47497.561   -13586.094   -7079.3601    825.33454    -19355.28     11349.64    87.326427 
   77400    1448.6231   -109.85222    1.3107447   -108.54148   -4483.3355    4.4407931    4.4407931    4.4407931   -4483.3355    2516.1642   -1916.1835   -14049.987   -3231.5758   -35666.994   -8747.5231    87.575297 
   77500    1916.4778   -110.26084    1.7340694   -108.52677   -12787.494    4.4356642    4.4356642    4.4356642   -12787.494   -296.79591   -32031.095   -6034.5907   -9186.3697    10746.263    1566.0929    87.272211 
   77600    910.76772   -109.36239   0.82408178   -108.53831    8858.3359    4.4248567    4.4248567    4.4248567    8858.3359    12328.146    24769.177   -10522.315   -4890.4708   -49906.981    12470.534    86.635848 
   77700    1947.4713   -110.29702    1.7621129    -108.5349   -5269.9536    4.4296435    4.4296435    4.4296435   -5269.9536    15105.405   -17835.648   -13079.618    636.77153    22609.114   -14773.009    86.917319 
   77800    919.71292   -109.39547   0.83217558   -108.56329     15749.69    4.4172521    4.4172521    4.4172521     15749.69    43346.264    13123.041   -9220.2353   -3693.9534   -31707.673    21362.105    86.189938 
   77900     1052.282   -109.52656   0.95212682   -108.57443    4158.3518    4.4217139    4.4217139    4.4217139    4158.3518     4815.667    19799.306   -12139.918    -750.1673   -16996.728    7330.2529    86.451377 
   78000     1912.659   -110.28554     1.730614   -108.55492   -15824.769    4.4348609    4.4348609    4.4348609   -15824.769   -7558.2872   -17691.442   -22224.578    4226.1984    27351.217   -8801.4702    87.224805 
   78100    1102.6651   -109.55776   0.99771457   -108.56005    8445.0822    4.4199865    4.4199865    4.4199865    8445.0822    45291.494   -1187.6298   -18768.618   -5205.1783   -46007.199    37847.865    86.350098 
   78200    1655.6169   -110.05286     1.498037   -108.55482    4051.5907    4.4204892    4.4204892    4.4204892    4051.5907   -2433.3317   -8048.4849    22636.589   -5741.0251     18727.06   -11535.305    86.379561 
   78300    1410.1638   -109.83341    1.2759459   -108.55746   -9337.8395    4.4262077    4.4262077    4.4262077   -9337.8395   -1179.5762   -12531.904   -14302.039    9799.5436   -15137.947    7133.5887    86.715229 
   78400    1347.5492   -109.77939    1.2192909    -108.5601   -5509.5252     4.424552     4.424552     4.424552   -5509.5252    34620.671   -14205.682   -36943.564   -8750.6289   -20129.192    21139.213    86.617954 
   78500    1306.4466   -109.73854    1.1821003   -108.55644   -14163.136    4.4337459    4.4337459    4.4337459   -14163.136   -20806.448    -35216.93    13533.969    6984.7621    10705.637   -17785.233    87.159034 
   78600    1266.7676   -109.69799     1.146198   -108.55179   -2277.7578    4.4268853    4.4268853    4.4268853   -2277.7578   -9210.7217   -3625.3425    6002.7909    31818.287   -28485.571    13659.176    86.755061 
   78700    1694.9416   -110.08019    1.5336188   -108.54657    6613.1359    4.4207375    4.4207375    4.4207375    6613.1359    16577.996   -982.89551    4244.3073   -18397.292    27284.213   -18584.397    86.394117 
   78800    957.42829   -109.42741   0.86630123   -108.56111   -8898.6916    4.4337979    4.4337979    4.4337979   -8898.6916   -29630.446    -39901.83    42836.202    25887.859   -7072.8702   -18646.926    87.162099 
   78900    1997.7656   -110.34985    1.8076203   -108.54223   -3343.9104    4.4313566    4.4313566    4.4313566   -3343.9104    13451.883   -4439.9395   -19043.674    2497.5781   -10489.273    5812.9542    87.018202 
   79000    925.36198   -109.39555   0.83728696   -108.55827    3644.2392    4.4188714    4.4188714    4.4188714    3644.2392    3790.5525   -1245.7348    8387.9001   -5241.2117    29961.648   -11562.187    86.284756 
   79100    1422.1945   -109.85291    1.2868314   -108.56608   -15294.554    4.4234636    4.4234636    4.4234636   -15294.554    1088.3088   -49164.634    2192.6645    23757.103   -10383.007   -4631.8476    86.554045 
   79200    1807.1007   -110.19511    1.6351027      -108.56    2497.7256    4.4241514    4.4241514    4.4241514    2497.7256   -47.123169     13181.88   -5641.5801   -8851.9579    17394.585    11461.629    86.594429 
   79300     771.3503   -109.27478   0.69793397   -108.57685    -73.09734    4.4249238    4.4249238    4.4249238    -73.09734   -30122.006   -7622.2475    37524.962    13064.809    9838.2647   -3123.7627    86.639788 
   79400    1968.7067   -110.33344    1.7813272   -108.55211   -12351.449    4.4354001    4.4354001    4.4354001   -12351.449    450.68261   -36061.353   -1443.6756    8347.9807   -7982.4327    3235.5902    87.256624 
   79500    1011.3649    -109.4716   0.91510419    -108.5565   -5586.5683     4.431029     4.431029     4.431029   -5586.5683   -21061.218     9434.407   -5132.8936    -9385.834    10884.385    11225.371    86.998902 
   79600    1738.0159   -110.10678    1.5725933   -108.53418    6106.0066    4.4238024    4.4238024    4.4238024    6106.0066   -23681.753   -9663.1588    51662.931     12109.99     5765.104   -14487.895    86.573933 
   79700    1189.4884    -109.6148    1.0762741   -108.53853   -13135.665    4.4365373    4.4365373    4.4365373   -13135.665    -21559.86     9705.039   -27552.175   -495.02836   -28529.563    11361.536    87.323756 
   79800    986.59344   -109.43507   0.89269048   -108.54238   -6171.7618    4.4282595    4.4282595    4.4282595   -6171.7618   -38016.812       7085.4    12416.127    5385.5566    20705.883    13984.856    86.835876 
   79900    1750.8036   -110.11492    1.5841639   -108.53076    4834.5251    4.4181877    4.4181877    4.4181877    4834.5251    -26820.16    12659.827    28663.909    3247.5176   -25124.876   -22714.572    86.244714 
   80000    791.45243   -109.27616   0.71612279   -108.56004   -24353.459    4.4277228    4.4277228    4.4277228   -24353.459    -45317.74    12783.684   -40526.321   -5156.3864   -12277.329    17637.443    86.804305 
   80100    2185.9636   -110.52021    1.9779058   -108.54231    7879.5073    4.4169583    4.4169583    4.4169583    7879.5073   -2734.2851    5936.4756    20436.331   -7762.9274    15838.315    510.67209    86.172738 
   80200    864.25202   -109.35223   0.78199339   -108.57024   -8304.7273    4.4257908    4.4257908    4.4257908   -8304.7273   -27388.023    43234.297   -40760.456    9779.3128   -45451.275   -16623.776    86.690726 
   80300      1517.38   -109.92208    1.3729573   -108.54912   -15958.291    4.4341987    4.4341987    4.4341987   -15958.291   -32888.201    10110.576   -25097.248    -10255.83    20875.049    12966.284    87.185737 
   80400    1347.6384   -109.76226    1.2193716   -108.54289   -7935.0798    4.4302226    4.4302226    4.4302226   -7935.0798    3437.4728    7526.0316   -34768.744     3323.134   -26729.591   -24687.202    86.951415 
   80500    948.04144     -109.414   0.85780782   -108.55619   -13459.827    4.4286029    4.4286029    4.4286029   -13459.827   -15704.549    29452.307    -54127.24    2228.5199   -22227.767   -8662.5502    86.856077 
   80600    2321.9421   -110.63072     2.100942   -108.52978    16505.006    4.4187075    4.4187075    4.4187075    16505.006    23725.324    4271.9265    21517.768   -13364.736    901.20769    2870.4971    86.275156 
   80700     710.0394   -109.20974   0.64245857   -108.56729   -578.77826    4.4234643    4.4234643    4.4234643   -578.77826    21512.612    8521.9077   -31770.855    3967.8284    -37908.02    -34252.89    86.554085 
   80800    2136.7226   -110.47329    1.9333515   -108.53994   -8315.9753    4.4370985    4.4370985    4.4370985   -8315.9753   -22282.174    3315.8698   -5981.6221   -2379.5713      17945.8    3786.4814      87.3569 
   80900     1058.886   -109.50577   0.95810226   -108.54766   -17437.896    4.4346416    4.4346416    4.4346416   -17437.896   -21795.122   -1755.1657   -28763.399   -4755.0803    -32663.35   -18602.968    87.211867 
   81000     1087.508   -109.52795   0.98400005   -108.54395    877.61336    4.4258653    4.4258653    4.4258653    877.61336    11512.352    4171.2616   -13050.774   -2770.5068   -3684.2397   -33146.211    86.695106 
   81100    1875.8687   -110.22957    1.6973254   -108.53224    3271.2867    4.4272758    4.4272758    4.4272758    3271.2867   -10858.867    39625.669   -18952.942    4120.6364   -19299.534    16325.568     86.77802 
   81200     864.1613   -109.33112   0.78191131   -108.54921   -4511.5491    4.4313397    4.4313397    4.4313397   -4511.5491    10939.431    12552.198   -37026.277    1460.0201   -33871.318   -25341.516    87.017206 
   81300    2034.3356   -110.36752    1.8407096   -108.52681    8578.4036    4.4397984    4.4397984    4.4397984    8578.4036    23441.761   -1307.3041    3600.7539    5786.9962    17975.417   -1544.0733    87.516464 
   81400    507.90607   -109.00813   0.45956408   -108.54856   -5146.5875    4.4358518    4.4358518    4.4358518   -5146.5875   -12272.941    27346.622   -30513.444    2644.4407    -46107.58   -17765.687    87.283288 
   81500    1470.0965   -109.86912    1.3301742   -108.53895     19301.43    4.4226446    4.4226446    4.4226446     19301.43    15453.927    11229.411    31220.951   -4441.0992    3015.2525    -28810.23    86.505977 
   81600    1695.1475    -110.0724    1.5338051   -108.53859    -5505.676    4.4298412    4.4298412    4.4298412    -5505.676   -26076.521   -2503.2103    12062.703    1917.5229   -5371.6824     22969.75    86.928957 
   81700    891.32896     -109.366   0.80649317   -108.55951   -11251.483    4.4327373    4.4327373    4.4327373   -11251.483   -26518.598    9524.7681   -16760.619   -6004.0658   -33571.662    -29468.44    87.099567 
   81800    2328.7136   -110.63924     2.107069   -108.53217    -8071.084    4.4308595    4.4308595    4.4308595    -8071.084   -14247.563   -24740.979     14775.29   -2793.5408        13069    13695.772    86.988919 
   81900    624.52629   -109.12129   0.56508451   -108.55621   -23705.406    4.4311304    4.4311304    4.4311304   -23705.406   -21984.749    253.51206   -49384.982    2638.1555   -40667.926     5332.572    87.004874 
   82000    1867.0185   -110.22399    1.6893176   -108.53467    2323.8113      4.42373      4.42373      4.42373    2323.8113    9530.3654    -12720.46    10161.529   -5906.6904    3872.8074   -10522.306    86.569688 
   82100    1067.8182    -109.5205   0.96618436   -108.55431   -3001.6737    4.4307752    4.4307752    4.4307752   -3001.6737     17958.06    14725.578   -41688.659    3268.8656    -16343.13    25022.566    86.983954 
   82200    1398.1827   -109.81325    1.2651051   -108.54814   -4113.7851    4.4356545    4.4356545    4.4356545   -4113.7851   -6308.4738    28430.867   -34463.748    3414.2372   -27567.184   -14455.699    87.271639 
   82300    1904.5161   -110.25925    1.7232461     -108.536     4114.279    4.4284335    4.4284335    4.4284335     4114.279    39791.026   -10614.507   -16833.682    2428.7741    16916.905    31274.526    86.846115 
   82400    525.19829   -109.03573   0.47521045   -108.56052    8835.1462    4.4235306    4.4235306    4.4235306    8835.1462    14133.235    65200.792   -52828.588   -3707.8433   -44633.789    4189.0512    86.557981 
   82500    1959.0252   -110.31076    1.7725671   -108.53819   -1890.1658    4.4280696    4.4280696    4.4280696   -1890.1658    7525.0787   -10516.277   -2679.2995    2467.0509   -4677.8507   -701.08211    86.824704 
   82600    802.11941   -109.28421    0.7257745   -108.55843   -16605.247    4.4300299    4.4300299    4.4300299   -16605.247     14636.13   -18448.951   -46002.921    2452.3295    3659.7986    34347.057    86.940069 
   82700    1614.8596    -110.0083    1.4611589   -108.54714    5671.6465    4.4192039    4.4192039    4.4192039    5671.6465    -22.06489    38377.467   -21340.463    -1176.544     -40188.7   -7506.5613    86.304236 
   82800    1465.0291   -109.87784    1.3255891   -108.55225   -8644.3204     4.429317     4.429317     4.429317   -8644.3204    15301.141   -17546.999   -23687.103    15035.526    18216.917    6052.3222    86.898099 
   82900    1298.9294    -109.7334    1.1752987    -108.5581   -13558.105    4.4251499    4.4251499    4.4251499   -13558.105   -4787.5035     15174.96   -51061.771   -5335.6064   -9786.0324    25975.798     86.65307 
   83000    2056.6363   -110.40173    1.8608877   -108.54084     24.80532    4.4162609    4.4162609    4.4162609     24.80532     9854.992   -1756.4934   -8024.0827   -4732.7995   -16165.773   -6042.0857     86.13193 
   83100    597.18906   -109.10888   0.54034921   -108.56853   -17730.841    4.4297548    4.4297548    4.4297548   -17730.841    21969.124    -21385.51   -53776.136    10086.853    23078.768    3832.6222    86.923874 
   83200    2006.3234   -110.35775    1.8153636   -108.54238   -5287.3483    4.4269673    4.4269673    4.4269673   -5287.3483   -9681.2948     28469.64    -34650.39   -2740.4691    2758.2714    8384.4173    86.759878 
   83300    1110.9327   -109.56054    1.0051952   -108.55535   -19171.176    4.4312741    4.4312741    4.4312741   -19171.176    21826.448   -56441.225    -22898.75   -10964.504   -4892.1017   -19569.545     87.01334 
   83400    1660.0609    -110.0423     1.502058   -108.54025   -6927.4787    4.4344975    4.4344975    4.4344975   -6927.4787    8153.1585    2450.5263   -31386.121    7403.0853    22393.933    17978.153    87.203364 
   83500    1413.2413   -109.82088    1.2787304   -108.54215   -7310.2009    4.4263597    4.4263597    4.4263597   -7310.2009    2140.1242   -22364.941   -1705.7865   -9830.1869   -847.70896   -24691.906    86.724161 
   83600    886.98771   -109.36056   0.80256512     -108.558   -11927.698    4.4186508    4.4186508    4.4186508   -11927.698    30637.213   -61130.438   -5289.8685    8090.6921    8480.7128     -31602.3    86.271834 
   83700    2097.9285   -110.44193    1.8982498   -108.54368    10257.642     4.421483     4.421483     4.421483    10257.642    12417.016    38096.962   -19741.052   -8367.8471    5675.2147    12331.325    86.437838 
   83800    460.44538   -108.99159   0.41662066   -108.57497   -25183.332    4.4390231    4.4390231    4.4390231   -25183.332     4938.734   -54271.614   -26217.116   -12740.408   -4822.3184    -28262.92    87.470623 
   83900    2033.2416   -110.38086    1.8397197   -108.54114   -844.95032    4.4265053    4.4265053    4.4265053   -844.95032    29005.903   -10386.997   -21153.757    21100.596   -3137.0261   -799.47008    86.732719 
   84000    1395.0309   -109.81221    1.2622533   -108.54996    2315.6141    4.4151732    4.4151732    4.4151732    2315.6141     15508.66    7863.1484   -16424.966   -32214.827   -9851.6907   -770.97088    86.068303 
   84100    1019.7178   -109.49031   0.92266214   -108.56765   -4717.2409    4.4255735    4.4255735    4.4255735   -4717.2409    37591.545   -28992.067   -22751.201   -538.63806    -307.8874   -31929.177    86.677956 
   84200    2101.0393   -110.44691    1.9010645   -108.54585    9870.5503    4.4269266    4.4269266    4.4269266    9870.5503    17037.836    25911.514     -13337.7     2957.407    2835.7478    8804.0681    86.757487 
   84300    728.55052   -109.22841   0.65920782    -108.5692   -18091.773    4.4324833    4.4324833    4.4324833   -18091.773    26236.293   -50224.297   -30287.316   -33704.967   -8081.9849   -11636.805    87.084595 
   84400    1796.4644    -110.1709    1.6254788   -108.54542    13832.554    4.4212374    4.4212374    4.4212374    13832.554    35126.004    26599.604   -20227.946    7836.8542    6235.5171   -7446.0464    86.423433 
   84500    1095.5312   -109.54716   0.99125963    -108.5559    27983.281    4.4154749    4.4154749    4.4154749    27983.281    13544.741    40936.212     29468.89   -22860.299     10427.26    10942.403    86.085944 
   84600    1301.1782   -109.73727    1.1773334   -108.55994   -18437.622    4.4397231    4.4397231    4.4397231   -18437.622   -6042.6343   -28908.768   -20361.463   -14420.694   -6638.1865   -21506.198    87.512008 
   84700    1798.3139   -110.16772    1.6271522   -108.54057    1185.0368    4.4306523    4.4306523    4.4306523    1185.0368   -4157.2781    19220.994   -11508.605    16475.497    10788.438    635.16107    86.976715 
   84800    1133.9775   -109.57889    1.0260467   -108.55285    3862.8311    4.4157655    4.4157655    4.4157655    3862.8311   -7389.5521   -21399.047    40377.093   -39238.067    7296.2588    112.93781    86.102943 
   84900    1663.8808    -110.0559    1.5055143   -108.55039    8857.6647    4.4178217    4.4178217    4.4178217    8857.6647    11284.345    1465.4883    13823.161     8955.686   -24385.103   -13524.774    86.223283 
   85000    1040.0391   -109.50972   0.94104926   -108.56867    3668.2654    4.4244595    4.4244595    4.4244595    3668.2654   -5912.9884   -9408.5547    26326.339    15311.801    4514.8574    11735.629    86.612522 
   85100    1456.1537   -109.88098    1.3175585   -108.56342   -9766.9197    4.4382238    4.4382238    4.4382238   -9766.9197   -18439.865   -7801.1845   -3059.7097   -30738.672    1146.7258    4722.9669     87.42338 
   85200    1594.5663   -109.99475    1.4427971   -108.55195   -11230.618    4.4275372    4.4275372    4.4275372   -11230.618    -13061.64   -1112.1838   -19518.031    32275.276   -30530.096   -9803.2826    86.793389 
   85300    1343.4025   -109.76814    1.2155388    -108.5526    2648.1194    4.4143518    4.4143518    4.4143518    2648.1194   -14848.565    -26839.43    49632.353     -8461.59     2527.505    13068.717    86.020272 
   85400     1847.843   -110.21703    1.6719672   -108.54507   -9337.0174    4.4260879    4.4260879    4.4260879   -9337.0174   -10036.298   -4154.3144    -13820.44   -7212.3556   -21689.369    -1483.909    86.708187 
   85500    934.07873   -109.40501   0.84517406   -108.55983   -15921.199    4.4281102    4.4281102    4.4281102   -15921.199   -31773.965   -23482.011    7492.3792    27861.179   -23896.975    -4213.642    86.827092 
   85600    1761.0588   -110.14349     1.593443   -108.55005   -2717.7785    4.4302627    4.4302627    4.4302627   -2717.7785    12324.614   -38498.114    18020.164   -12497.716    8043.0786    12625.631    86.953777 
   85700    1097.4436   -109.55388   0.99299001   -108.56089   -16980.632    4.4263318    4.4263318    4.4263318   -16980.632   -23911.156   -2942.4019   -24088.339    25096.548   -45013.872    183.41963    86.722521 
   85800    1425.4575   -109.85371    1.2897839   -108.56392    12517.262    4.4153528    4.4153528    4.4153528    12517.262    5371.5239   -6793.9157    38974.176    9205.5333    6822.3978   -2200.1554    86.078804 
   85900    1952.8643   -110.31783    1.7669927   -108.55084   -9307.8039    4.4372158    4.4372158    4.4372158   -9307.8039   -24841.875   -12254.127    9172.5908   -10666.214   -7923.1328     3588.751    87.363828 
   86000    472.28692   -108.98789   0.42733513   -108.56055   -20731.681    4.4391516    4.4391516    4.4391516   -20731.681   -54432.881   -23137.884     15375.72    34305.548   -34886.484    2366.2524    87.478216 
   86100    1941.7629   -110.29497    1.7569479   -108.53802    9295.4125    4.4220617    4.4220617    4.4220617    9295.4125    8955.1915   -18541.744    37472.789   -4924.9683    26700.739   -183.67572    86.471782 
   86200    984.83844    -109.4486   0.89110252    -108.5575    16997.541    4.4132795    4.4132795    4.4132795    16997.541   -5554.1752    1128.1308    55418.667    12656.692   -30258.865    8725.3741    85.957601 
   86300    1027.4768   -109.50735   0.92968256   -108.57766    17919.504    4.4260683    4.4260683    4.4260683    17919.504    12716.996   -2819.9176    43861.432     16132.72     -5662.75    -3740.942    86.707032 
   86400    2054.9319   -110.40484    1.8593456   -108.54549   -6108.9135    4.4429828    4.4429828    4.4429828   -6108.9135    10944.735   -36394.332    7122.8556   -3741.7144    9664.7206    2170.8009     87.70491 
   86500    608.51692   -109.11131    0.5505989   -108.56071    2753.1862    4.4252813    4.4252813    4.4252813    2753.1862   -8075.9655   -31518.986     47854.51      33275.5   -37801.539   -1656.4832    86.660791 
   86600    1828.9891    -110.2016    1.6549078   -108.54669    18490.942    4.4138348    4.4138348    4.4138348    18490.942    36807.762   -10855.709    29520.774   -4597.9656    9449.5333   -7886.5073    85.990056 
   86700      1047.36   -109.51752   0.94767331   -108.56985    19250.748    4.4138415    4.4138415    4.4138415    19250.748    33441.805   -20598.523    44908.962    11870.066   -3791.6384    7511.0367    85.990447 
   86800    854.42613   -109.36653   0.77310272   -108.59343   -6949.6307    4.4353388    4.4353388    4.4353388   -6949.6307   -15344.001   -33172.131     27667.24    26807.386   -30771.293    3811.8111    87.253003 
   86900    2296.8486   -110.63333    2.0782369   -108.55509    3408.3645    4.4340698    4.4340698    4.4340698    3408.3645    2881.8157   -8318.6518     15661.93   -8818.6258    24140.997   -2720.5898    87.178137 
   87000    745.93453   -109.24221   0.67493724   -108.56727    18332.706    4.4117823    4.4117823    4.4117823    18332.706   -18000.414     940.9182    72057.616      34416.4    -21404.21   -390.32849    85.870149 
   87100    1853.1223   -110.22899     1.676744   -108.55224   -6825.1001    4.4256437    4.4256437    4.4256437   -6825.1001   -2708.2467   -7604.7186   -10162.335    3884.9343   -14447.648   -4275.2925    86.682086 
   87200    1137.9005   -109.58213    1.0295963   -108.55254   -1245.5065    4.4324422    4.4324422    4.4324422   -1245.5065   -34988.406    8138.7284    23113.158    7531.8505    9358.3201    916.14859    87.082169 
   87300     1081.423   -109.52421   0.97849423   -108.54571   -10481.266    4.4312129    4.4312129    4.4312129   -10481.266   -30209.734   -14975.845    13741.782    29325.127   -21677.712    5447.3404    87.009733 
   87400     2061.112   -110.39457    1.8649375   -108.52963   -2174.8611    4.4255072    4.4255072    4.4255072   -2174.8611   -1541.3085   -18028.503    13045.228   -17520.025    16098.501   -17612.569    86.674063 
   87500    1050.0384   -109.50271   0.95009685   -108.55261   -2831.7875    4.4172234    4.4172234    4.4172234   -2831.7875   -41104.308   -4828.7042     37437.65    33887.776   -13215.377    10408.526    86.188257 
   87600    1677.9804   -110.07044    1.5182719   -108.55217   -11245.075     4.428304     4.428304     4.428304   -11245.075    14995.351   -25170.007   -23560.571    7629.8302   -9584.1597   -14498.568    86.838494 
   87700    948.53903   -109.41983   0.85825805   -108.56158   -9902.6257    4.4261925    4.4261925    4.4261925   -9902.6257    2068.2516   -43633.297    11857.169   -8670.3709    12898.196   -23066.216    86.714333 
   87800    1178.1872   -109.62828    1.0660485   -108.56223      11808.9    4.4181554    4.4181554    4.4181554      11808.9    20232.574    -3986.903    19181.028    32143.142   -9016.5962    10417.877     86.24282 
   87900    1815.4055   -110.19558    1.6426171   -108.55297     -2378.13    4.4274306    4.4274306    4.4274306     -2378.13    30056.351   -27840.141   -9350.6001   -12859.717    12575.968   -13087.142     86.78712 
   88000    1067.3774    -109.5283   0.96578552   -108.56251    6211.8606    4.4224754    4.4224754    4.4224754    6211.8606     15294.03   -30976.274    34317.826    2827.1209    9849.8558   -8213.4128    86.496052 
   88100    2096.5595   -110.44041    1.8970111    -108.5434    1809.6922    4.4310237    4.4310237    4.4310237    1809.6922    25211.199    -13956.67   -5825.4528    12484.684   -1713.8505    7033.9247    86.998589 
   88200    984.39412    -109.4449   0.89070049    -108.5542   -19514.245    4.4356213    4.4356213    4.4356213   -19514.245   -4880.9639   -35413.135   -18248.638   -14571.576     27351.11   -9520.1623    87.269679 
   88300    1649.9361   -110.03041    1.4928969   -108.53751    6906.6875    4.4218083    4.4218083    4.4218083    6906.6875    9497.2612   -12264.399      23487.2   -10322.714   -3230.9051   -332.11051    86.456916 
   88400    1246.0373   -109.67598    1.1274407   -108.54854   -21199.023    4.4228458    4.4228458    4.4228458   -21199.023   -2381.6069    192.74451   -61408.207    5889.4168     6724.156    27052.527    86.517785 
   88500    1203.0029   -109.64846    1.0885023   -108.55996    6757.5875    4.4193829    4.4193829    4.4193829    6757.5875   -14404.956    35850.324   -1172.6049   -24115.395    13585.711   -7396.3832    86.314725 
   88600    1822.0535   -110.20213    1.6486323    -108.5535   -14017.341    4.4363722    4.4363722    4.4363722   -14017.341   -23365.559    266.71753   -18953.181   -6591.0296   -10909.424    12729.701     87.31401 
   88700    1042.8908   -109.50294   0.94362953   -108.55931   -19107.083    4.4369522    4.4369522    4.4369522   -19107.083   -34353.396    12172.136    -35139.99    852.06693     5223.094    27339.632    87.348261 
   88800    2102.7454   -110.43713    1.9026083   -108.53452    22807.557    4.4121417    4.4121417    4.4121417    22807.557   -15932.813    36813.422    47542.061   -13194.289   -1570.0295   -23791.059    85.891137 
   88900    836.70457   -109.31808   0.75706788   -108.56101    6301.6157    4.4111113    4.4111113    4.4111113    6301.6157   -3313.5081    42700.692   -20482.336     2590.735   -6053.7535    26357.843    85.830974 
   89000    1246.4451   -109.69444    1.1278097   -108.56663    7420.6221    4.4328253    4.4328253    4.4328253    7420.6221   -23435.675    30674.189    15023.352   -3425.2541     9944.386     7144.177    87.104752 
   89100    1447.7021   -109.86244    1.3099113   -108.55252   -17786.106    4.4439702    4.4439702    4.4439702   -17786.106   -20028.187   -8602.7402   -24727.391    1995.2412   -5180.3372   -17675.141    87.763398 
   89200    838.91811   -109.31885   0.75907073   -108.55978   -2385.2472    4.4202344    4.4202344    4.4202344   -2385.2472    -504.6648    18267.602   -24918.679     11590.06    6353.1241    24194.805    86.364624 
   89300    2384.1986   -110.69369     2.157273   -108.53642    27524.218    4.4069862    4.4069862    4.4069862    27524.218    892.97004    42987.574     38692.11    3001.3068    1900.6115    -13607.12    85.590404 
   89400    684.20375   -109.19931   0.61908193   -108.58023    2146.0025    4.4244338    4.4244338    4.4244338    2146.0025    6596.5662     24406.63   -24565.189   -822.68547   -10354.585    7840.6903    86.611012 
   89500    1542.9089   -109.95125    1.3960564    -108.5552   -21436.815    4.4474005    4.4474005    4.4474005   -21436.815   -26476.295   -2927.9968   -34906.153    6942.7552    4704.9562    14459.758    87.966786 
   89600    1053.7375   -109.49732    0.9534438   -108.54388    3833.6757    4.4313186    4.4313186    4.4313186    3833.6757   -23191.187    44568.443   -9876.2295   -15160.913   -18565.964    -21180.05     87.01596 
   89700    1119.9262   -109.55414    1.0133327    -108.5408    7873.0379    4.4137019    4.4137019    4.4137019    7873.0379    12916.335    26549.572   -15846.793     2800.151    1426.2971    18205.858    85.982286 
   89800    2008.2693   -110.35037    1.8171243   -108.53324    4356.9073    4.4183444    4.4183444    4.4183444    4356.9073   -17645.903    13815.889    16900.735    -11272.89   -6260.6368    1192.8977    86.253892 
   89900    658.68738   -109.16258   0.59599419   -108.56659   -5008.5945    4.4282509    4.4282509    4.4282509   -5008.5945    -36240.81    37774.026   -16558.999   -10749.104   -31165.692   -8505.7735    86.835371 
   90000    2263.0813   -110.58395    2.0476836   -108.53627   -10972.789    4.4347157    4.4347157    4.4347157   -10972.789   -25233.045   -10244.497    2559.1757    9698.2633    2412.3043    3090.5733    87.216238 
   90100    930.02117     -109.398    0.8415027    -108.5565   -22310.367    4.4260074    4.4260074    4.4260074   -22310.367   -53526.711    29224.193   -42628.584    -9482.679   -12410.545    -9162.158    86.703459 
   90200    1541.2329   -109.94042    1.3945399   -108.54588    14294.349    4.4131363    4.4131363    4.4131363    14294.349   -565.56472    30896.715    12551.898   -3839.2571   -9925.2323    2666.0127    85.949234 
   90300    1352.0426   -109.77609    1.2233566   -108.55274   -18132.843    4.4279317    4.4279317    4.4279317   -18132.843   -31318.039   -36134.427    13053.938    30204.195    564.76521    1212.4868    86.816595 
   90400    1130.4433   -109.57834    1.0228488   -108.55549   -17835.346    4.4302013    4.4302013    4.4302013   -17835.346   -27946.906    10553.187    -36112.32   -15285.097   -17075.554   -20690.292    86.950162 
   90500    1814.8969   -110.17973    1.6421568   -108.53757   -10802.771    4.4296012    4.4296012    4.4296012   -10802.771   -12261.797   -35911.632    15765.117    22351.765   -3104.9093    13937.626    86.914827 
   90600    1088.2081   -109.53732   0.98463358   -108.55268   -22167.543    4.4266003    4.4266003    4.4266003   -22167.543   -26117.901   -27003.516   -13381.212     14679.03     4762.904    8051.0384    86.738305 
   90700    2207.8475   -110.53074    1.9977068   -108.53303   -6422.6798    4.4221855    4.4221855    4.4221855   -6422.6798    202.98805    4267.0536   -23738.081    1740.3937   -16648.135   -8462.2106    86.479041 
   90800    739.24027   -109.22333   0.66888013   -108.55445     -31109.1       4.4346       4.4346       4.4346     -31109.1   -13215.354   -61835.049   -18276.896    35722.733    5001.4924    15437.725    87.209409 
   90900    1797.2811   -110.16332    1.6262177    -108.5371   -6172.6176    4.4264809    4.4264809    4.4264809   -6172.6176    1276.0172    -1699.337   -18094.533   -6062.5061    4782.5663    4174.4455    86.731287 
   91000    1444.8607   -109.85184    1.3073403    -108.5445   -16320.948    4.4260422    4.4260422    4.4260422   -16320.948   -5278.2471   -57708.839    14024.243    24392.999   -7956.2187    3754.6477    86.705504 
   91100    1238.3651   -109.66705    1.1204988   -108.54655   -17129.818    4.4325627    4.4325627    4.4325627   -17129.818    6290.2863   -43146.477   -14533.263    16844.204    11521.922      10150.1    87.089273 
   91200     1947.706   -110.29426    1.7623253   -108.53194   -1407.2104    4.4256755    4.4256755    4.4256755   -1407.2104   -12943.818    4154.2557    4567.9313   -2148.2322    4030.7698   -6329.6487    86.683954 
   91300    797.42644   -109.27577    0.7215282   -108.55424   -4963.7215    4.4200782    4.4200782    4.4200782   -4963.7215   -893.98518   -58412.244    44415.065    38628.026   -2885.2831    16285.215     86.35547 
   91400    1774.4525   -110.14317    1.6055619   -108.53761   -2786.4927    4.4294956    4.4294956    4.4294956   -2786.4927   -1475.8839   -3956.5731   -2927.0211   -9458.0054    10588.441    7411.0247    86.908617 
   91500     782.5445   -109.25744   0.70806271   -108.54937   -25393.837    4.4404313    4.4404313    4.4404313   -25393.837   -33141.564   -60184.391    17144.443    25391.707    9365.0858   -14115.992    87.553894 
   91600    1771.9837   -110.13745    1.6033281   -108.53412   -2437.0261    4.4266374    4.4266374    4.4266374   -2437.0261   -9545.8765   -24151.164    26385.962    20419.831   -1271.9911    14025.687    86.740482 
   91700    1557.1019   -109.94622    1.4088985   -108.53733   -10882.256    4.4243975    4.4243975    4.4243975   -10882.256   -10692.825   -19886.702   -2067.2414   -2053.0655    7126.0906   -1859.8108    86.608877 
   91800    1388.2534   -109.80543    1.2561208   -108.54931   -14174.057    4.4274107    4.4274107    4.4274107   -14174.057   -19498.985   -45367.774    22344.587    34435.267    3471.2191   -4146.7337    86.785952 
   91900    2017.6912   -110.36294    1.8256494   -108.53729   -3993.9436    4.4259053    4.4259053    4.4259053   -3993.9436    -17112.67    20240.427   -15109.588   -9610.3347   -4496.5211    4919.6495    86.697456 
   92000    964.03429    -109.4203   0.87227849   -108.54802   -28702.062    4.4341354    4.4341354    4.4341354   -28702.062   -25923.604   -53314.572   -6868.0116    18963.296    15780.388   -10057.596    87.182005 
   92100    1454.5055   -109.85379    1.3160671   -108.53772    220.98214    4.4212999    4.4212999    4.4212999    220.98214   -15543.088    2186.7905    14019.244    14371.023    -19672.76    622.39353    86.427096 
   92200    1172.8041    -109.6127    1.0611778   -108.55152   -6147.2649    4.4175128    4.4175128    4.4175128   -6147.2649   -17031.476    18340.843   -19751.161   -12136.272   -16009.759   -4246.2808    86.205198 
   92300    1514.8556   -109.92026    1.3706732   -108.54959   -2070.0118    4.4275056    4.4275056    4.4275056   -2070.0118   -10906.629   -20158.629    24855.223    24527.144    14200.212   -5733.1319    86.791531 
   92400    1583.0937   -109.98081    1.4324164    -108.5484   -3680.7162     4.432936     4.432936     4.432936   -3680.7162   -6098.8238    25592.094   -30535.419    -12742.86   -46567.037    4744.8371    87.111279 
   92500    1470.6123   -109.86789    1.3306409   -108.53725   -5740.7292    4.4349311    4.4349311    4.4349311   -5740.7292   -5220.6335   -17664.224    5662.6695    14342.129    12035.543   -4100.7176     87.22895 
   92600    1262.5569     -109.672     1.142388   -108.52961    9354.0498    4.4224775    4.4224775    4.4224775    9354.0498    16584.321    8223.6248    3254.2038    22666.788   -31470.586   -2560.8492    86.496171 
   92700    985.79102   -109.43561   0.89196443   -108.54365     1499.384    4.4190083    4.4190083    4.4190083     1499.384    23443.862    6826.5935   -25772.303    -9509.235   -37571.825    10568.421    86.292778 
   92800    1447.9684   -109.85111    1.3101523   -108.54096    1165.1424     4.427382     4.427382     4.427382    1165.1424    9071.8749   -22782.773    17206.325    24333.445    4819.6579     11362.05    86.784265 
   92900      1208.66   -109.64775     1.093621   -108.55413    7621.6496    4.4273089    4.4273089    4.4273089    7621.6496    11948.243    17454.086   -6537.3796   -2636.2708   -63523.381   -1296.0555    86.779966 
   93000    1927.0364   -110.28467    1.7436231   -108.54105   -379.43551    4.4328196    4.4328196    4.4328196   -379.43551   -2786.2338   -9934.2371    11582.164    3406.8173    10352.198    1845.1861    87.104417 
   93100    1111.8996   -109.55696    1.0060702   -108.55089   -1444.3626      4.42203      4.42203      4.42203   -1444.3626   -35721.645    27758.469     3630.088    17964.133   -38870.994   -7282.2874    86.469919 
   93200    1556.9296   -109.94741    1.4087426   -108.53867    13006.697    4.4187183    4.4187183    4.4187183    13006.697    13112.528    26824.353   -916.78832   -13535.123   -23256.195   -10513.313    86.275793 
   93300    1100.2438   -109.54136   0.99552367   -108.54583   -9055.3182    4.4371121    4.4371121    4.4371121   -9055.3182   -22658.601    17179.695   -21687.048    29218.065    849.74853    173.41267    87.357701 
   93400    1116.9428   -109.55754    1.0106334   -108.54691   -237.10709    4.4313311    4.4313311    4.4313311   -237.10709   -39229.573    63420.703   -24902.451    3544.3177   -49348.846   -7590.9682      87.0167 
   93500    2233.6876   -110.55023    2.0210875   -108.52914    5512.7779     4.421379     4.421379     4.421379    5512.7779     16539.27    2070.1561    -2071.092   -8793.8511    20214.325    1268.1053    86.431733 
   93600    814.06788   -109.30316   0.73658572   -108.56658   -7857.7906    4.4141889    4.4141889    4.4141889   -7857.7906   -38594.405    42655.994   -27634.961    28761.952   -55756.991    13374.596    86.010751 
   93700    1709.1654   -110.11262    1.5464887   -108.56613    7050.8736    4.4207404    4.4207404    4.4207404    7050.8736    24282.622    18480.384   -21610.385   -2423.0038   -3231.6954    3085.5368     86.39429 
   93800    1387.8053   -109.81769    1.2557154   -108.56197   -26258.714    4.4372106    4.4372106    4.4372106   -26258.714   -25185.218     -14710.1   -38880.826    10973.891   -19714.559    3229.7001    87.363518 
   93900    805.88246   -109.28751   0.72917939   -108.55833   -4367.8012    4.4247558    4.4247558    4.4247558   -4367.8012   -10639.946    24858.693    -27322.15    11427.331   -51136.695   -1832.6599    86.629921 
   94000    2285.5406   -110.59508    2.0680052   -108.52707    4741.4497    4.4258769    4.4258769    4.4258769    4741.4497   -11515.107     20857.83    4881.6258   -10377.678    20021.551   -4166.5938    86.695789 
   94100    774.36743   -109.25287   0.70066393    -108.5522   -5924.5938     4.429644     4.429644     4.429644   -5924.5938   -49229.978    51825.236   -20369.039    22503.911   -65233.433    8668.6168    86.917349 
   94200    1959.8755   -110.29615    1.7733366   -108.52282    9196.1707     4.426067     4.426067     4.426067    9196.1707   -10192.174    37435.877    344.80921   -2554.3924     15743.64   -5422.3137    86.706957 
   94300      774.247   -109.24804   0.70055495   -108.54749   -10605.569    4.4309436    4.4309436    4.4309436   -10605.569   -60869.037    88143.704   -59091.375   -6259.1768   -65029.726   -6232.1757    86.993872 
   94400    1439.3916   -109.83537    1.3023918   -108.53298    17301.714    4.4195997    4.4195997    4.4195997    17301.714   -19733.547    53403.483    18235.206    18199.016    9121.3155    2105.5958    86.327428 
   94500    1191.5356   -109.62292    1.0781264   -108.54479   -1085.7555    4.4236816    4.4236816    4.4236816   -1085.7555   -37685.504    39954.017   -5525.7788   -1415.3381   -38334.855    2169.9729    86.566841 
   94600    1395.4446   -109.81653    1.2626276    -108.5539   -22379.016    4.4326773    4.4326773    4.4326773   -22379.016   -50319.332    14519.627   -31337.344   -7434.9799   -37641.718   -8433.7931    87.096026 
   94700    1965.7895   -110.32211    1.7786876   -108.54342    17139.931    4.4135149    4.4135149    4.4135149    17139.931    3182.2708    18300.036    29937.486    11383.644     10533.33     622.3766    85.971356 
   94800    926.84647   -109.41031   0.83863017   -108.57168   -5795.3935    4.4168459    4.4168459    4.4168459   -5795.3935   -32503.695    38507.288   -23389.773   -389.82698   -63885.921    17075.812    86.166161 
   94900    1870.7553   -110.25017    1.6926987   -108.55747   -11487.151    4.4275991    4.4275991    4.4275991   -11487.151   -3872.1731   -11057.424   -19531.857   -10602.137    22532.542   -19564.913    86.797033 
   95000    1359.6379   -109.78747     1.230229   -108.55724     5370.896    4.4290037    4.4290037    4.4290037     5370.896    887.34908    27535.895   -12310.557    8745.5333    -48671.19    12401.761    86.879661 
   95100     1457.353   -109.86545    1.3186436   -108.54681   -14321.012    4.4364328    4.4364328    4.4364328   -14321.012     14356.55   -38790.513   -18529.074   -9157.0868   -13797.935   -3686.6628    87.317585 
   95200    1320.6046   -109.73974    1.1949108   -108.54483    2174.3445    4.4156318    4.4156318    4.4156318    2174.3445    10517.457    5883.0941   -9877.5174   -2626.4184    -16159.68   -15369.923    86.095123 
   95300    1053.7409   -109.50898   0.95344689   -108.55553    21496.213    4.4121979    4.4121979    4.4121979    21496.213    17320.292    61293.774   -14125.426   -5601.6442   -57990.058    600.20482    85.894422 
   95400    1713.1382   -110.09688    1.5500835   -108.54679   -3894.7999    4.4341687    4.4341687    4.4341687   -3894.7999     21289.29   -16531.461   -16442.228   -10339.323    12725.361   -5940.9158    87.183968 
   95500    684.91462   -109.18152   0.61972514    -108.5618    2779.3403    4.4324077    4.4324077    4.4324077    2779.3403   -29924.664    68159.877   -29897.193   -1841.9733   -66756.066   -9109.4373    87.080134 
   95600    2327.6314   -110.62991    2.1060898   -108.52382   -10161.711    4.4371492    4.4371492    4.4371492   -10161.711   -9608.0562    739.93269    -21617.01   -7506.3158     23290.36    2137.2631    87.359892 
   95700    818.50302   -109.28227   0.74059874   -108.54167   -14393.109    4.4321985    4.4321985    4.4321985   -14393.109   -41198.998    26445.715   -28426.043   -8585.8981   -65634.048   -6921.9285    87.067809 
   95800    1905.8537   -110.25908    1.7244565   -108.53462    7648.0948    4.4187673    4.4187673    4.4187673    7648.0948     -13602.6    19210.805    17336.079   -253.84122   -8111.4422   -5382.9355    86.278661 
   95900    1677.5305   -110.07214    1.5178648   -108.55427   -1804.3939    4.4172564    4.4172564    4.4172564   -1804.3939   -24407.215    20547.412   -1553.3784    5064.4246   -20729.019    8109.5262    86.190186 
   96000    849.09235   -109.34779    0.7682766   -108.57952    8965.4611    4.4215761    4.4215761    4.4215761    8965.4611   -20626.796    36480.523    11042.656   -14510.077   -56786.126   -17381.953    86.443294 
   96100    2276.6186    -110.6079    2.0599324   -108.54797   -11581.003    4.4382772    4.4382772    4.4382772   -11581.003    5320.1708   -15905.912   -24157.268    3052.7465    24551.283    9474.6154    87.426538 
   96200    571.91588   -109.07515   0.51748151   -108.55767   -7891.0944    4.4315879    4.4315879    4.4315879   -7891.0944   -31125.942    22037.754   -14585.095   -10302.293   -70875.168   -254.58989    87.031825 
   96300    1793.5038   -110.15349    1.6227999   -108.53069    20706.737    4.4216116    4.4216116    4.4216116    20706.737    63307.014    -18206.62    17019.817   -14691.608    13384.252   -8229.6524    86.445377 
   96400    1067.4142    -109.5148   0.96581882   -108.54898   -6873.2895     4.423376     4.423376     4.423376   -6873.2895   -12100.381    23240.286   -31759.774    9295.9621   -55563.333    1475.8873    86.548905 
   96500    1153.4452   -109.59898    1.0436615   -108.55532     4720.728     4.419006     4.419006     4.419006     4720.728    6545.9142   -6243.6225    13859.892   -20907.532   -23649.718    -4559.464    86.292643 
   96600    1871.7758   -110.24675    1.6936221   -108.55312   -23193.559    4.4335248    4.4335248    4.4335248   -23193.559    -22232.98   -24879.196   -22468.503    -8285.824    -10028.06    4102.4749    87.145997 
   96700    1091.2841   -109.54777   0.98741682   -108.56035   -8246.7545    4.4292148    4.4292148    4.4292148   -8246.7545   -26789.679    29734.779   -27685.364    6730.6857   -63918.825    460.17094    86.892087 
   96800    2163.9599   -110.49443    1.9579964   -108.53644    304.81707    4.4151547    4.4151547    4.4151547    304.81707    5977.9735   -14230.151     9166.629   -9923.5121    35888.988    6428.3945     86.06722 
   96900     769.0653    -109.2607   0.69586644   -108.56484   -25252.106    4.4236448    4.4236448    4.4236448   -25252.106   -59191.481    21576.928   -38141.765    5679.4057   -76499.497   -1104.4933    86.564683 
   97000    1658.2899   -110.04606    1.5004556   -108.54561    12146.639    4.4208914    4.4208914    4.4208914    12146.639    7104.6496     19654.42    9680.8475    786.70631    -797.7731   -82.420342    86.403144 
   97100    1050.6885   -109.51039   0.95068507   -108.55971   -18849.535    4.4369628    4.4369628    4.4369628   -18849.535   -67123.877    27996.248   -17420.977   -4736.9479   -18589.366   -3470.6607    87.348884 
   97200    1253.0569    -109.6873    1.1337922   -108.55351   -14072.171    4.4291302    4.4291302    4.4291302   -14072.171    -45850.28    24771.565   -21137.797    3651.5113   -47998.812   -7045.5043    86.887109 
   97300    2198.2792   -110.52005    1.9890492     -108.531    13193.614    4.4083867    4.4083867    4.4083867    13193.614    -1518.289    6589.5237    34509.608   -2018.7243    7232.6475    10855.107    85.672028 
   97400    855.93681   -109.34278   0.77446961   -108.56832   -25232.087    4.4233948    4.4233948    4.4233948   -25232.087   -75620.398    41509.513   -41585.377   -1457.2085   -64571.373   -8857.6471    86.550007 
   97500    2021.6249   -110.37537    1.8292087   -108.54616     -2753.55    4.4259372    4.4259372    4.4259372     -2753.55   -23345.895   -19737.127    34822.372    10281.665    23859.922   -1440.3429    86.699328 
   97600    828.13393   -109.31626   0.74931299   -108.56695   -27178.832    4.4341813    4.4341813    4.4341813   -27178.832   -64439.844    387.80674   -17484.459   -19482.191   -50363.697    8103.3897    87.184714 
   97700    1304.2652      -109.74    1.1801266   -108.55987   -12384.502    4.4234897    4.4234897    4.4234897   -12384.502   -37136.154    23555.196   -23572.548    1930.5164   -12161.538   -5242.7068    86.555576 
   97800    1837.2141   -110.20758    1.6623499   -108.54523    17926.124    4.4088111    4.4088111    4.4088111    17926.124    11460.265    6632.0059      35686.1    8332.4477    11120.155    10265.465    85.696773 
   97900    1003.0233   -109.47786   0.90755653    -108.5703   -31278.989    4.4312496    4.4312496    4.4312496   -31278.989   -59849.995    1132.1483    -35119.12   -24281.186   -62693.274   -4016.0869    87.011898 
   98000     1930.699   -110.29397     1.746937   -108.54704   -7045.6773    4.4301104    4.4301104    4.4301104   -7045.6773   -10663.097   -10400.907   -73.028362     16119.29     33229.58    2041.0699    86.944805 
   98100    1025.7344   -109.48459   0.92810608   -108.55648   -24345.571    4.4248724    4.4248724    4.4248724   -24345.571   -59302.733    17516.249   -31250.228   -15054.096   -46819.262    9830.4434    86.636768 
   98200    1030.7466   -109.49456   0.93264115   -108.56192   -13263.229    4.4185066    4.4185066    4.4185066   -13263.229   -42623.594     10026.24   -7192.3331   -24882.772   -24949.793   -1116.2985    86.263391 
   98300    2083.4735   -110.44035    1.8851706   -108.55518    4336.7151    4.4128695    4.4128695    4.4128695    4336.7151    4980.7234    15967.388   -7937.9663    22538.162    7555.7827    7989.7191    85.933651 
   98400    999.91586   -109.47718   0.90474488   -108.57244   -29110.385    4.4364101    4.4364101    4.4364101   -29110.385   -45893.774    15638.564   -57075.945     -19409.8   -63023.082   -3121.5886    87.316243 
   98500    1850.1547   -110.22213    1.6740588   -108.54807   -7261.3632     4.429152     4.429152     4.429152   -7261.3632     203.5405   -24969.821    2982.1913   -12738.925    19633.949    7812.6031    86.888389 
   98600    1066.5901   -109.51638   0.96507318   -108.55131    15398.174    4.4125138    4.4125138    4.4125138    15398.174   -1848.6086    61330.526   -13287.396    10197.252   -55099.526   -1573.7362    85.912872 
   98700    1295.1171   -109.72256    1.1718492   -108.55071     -9278.54    4.4266116    4.4266116    4.4266116     -9278.54   -24855.949   -554.95512   -2424.7158   -19152.884   -3634.7637    2530.2354     86.73897 
   98800     1457.315   -109.86658    1.3186092   -108.54797   -8367.6917    4.4310847    4.4310847    4.4310847   -8367.6917   -10614.135     -23805.3    9316.3606   -1561.9685   -9500.7216    10603.531    87.002183 
   98900    1465.3276   -109.87537    1.3258592   -108.54951    4615.1741    4.4313968    4.4313968    4.4313968    4615.1741    11991.061    32059.701   -30205.239   -2159.5661   -41996.286   -9274.0954    87.020567 
   99000    1829.5301   -110.19513    1.6553973   -108.53974    2603.4353     4.427464     4.427464     4.427464    2603.4353    10532.213   -842.24237   -1879.6649   -7922.7718    19412.621    18564.979    86.789083 
   99100    994.41269   -109.45276    0.8997655   -108.55299    6711.3288    4.4148573    4.4148573    4.4148573    6711.3288    9977.7592    34385.508   -24229.281    7744.2652    -52752.67    6580.3197    86.049828 
   99200    1536.3296   -109.94424    1.3901033   -108.55413    3106.6868    4.4249652    4.4249652    4.4249652    3106.6868    7646.9494    21606.703   -19933.592   -9117.1959    7135.6886   -3325.5186    86.642221 
   99300    1256.4128    -109.6926    1.1368287   -108.55577   -8692.3114     4.435788     4.435788     4.435788   -8692.3114   -6059.3031    1055.8538   -21073.485    6427.8813   -10700.964    19640.362    87.279519 
   99400     1688.799   -110.07173    1.5280608   -108.54367    7077.2045    4.4282879    4.4282879    4.4282879    7077.2045    32162.595    6136.8003   -17067.782    -1669.538   -33635.644   -5567.3387    86.837548 
   99500    1559.6948   -109.95752    1.4112446   -108.54628   -2717.6563    4.4260146    4.4260146    4.4260146   -2717.6563    11541.308   -2348.5595   -17345.718   -5976.0663    36263.187    6741.6752     86.70388 
   99600    1459.3122   -109.87042    1.3204163      -108.55   -3827.4967    4.4176314    4.4176314    4.4176314   -3827.4967   -2331.5533    13669.536   -22820.473    6488.8463   -41481.134    22793.954     86.21214 
   99700    1384.7728   -109.80291    1.2529716   -108.54994    8881.0924    4.4232487    4.4232487    4.4232487    8881.0924    14531.872    17488.205   -5376.8002   -7677.1232    9906.9976   -16821.901    86.541432 
   99800    897.86709   -109.37215   0.81240901   -108.55974   -32235.701    4.4374836    4.4374836    4.4374836   -32235.701   -39311.613   -14920.849   -42474.642    1517.5912    14451.246    14707.949    87.379648 
   99900    1852.2467   -110.21934    1.6759517   -108.54339    3563.2678     4.415375     4.415375     4.415375    3563.2678    3409.6951    18037.091   -10756.982   -3122.8472   -22971.388    9420.2038    86.080106 
  100000    948.81069   -109.42178   0.85850385   -108.56328    15023.002    4.4143311    4.4143311    4.4143311    15023.002    27800.836    10464.808    6803.3614    -942.0084    36254.359   -22783.282    86.019063 
Loop time of 21.9356 on 1 procs for 100000 steps with 8 atoms

Pair  time (%) = 6.44536 (29.3831)
Kspce time (%) = 5.53695 (25.2419)
Neigh time (%) = 0.105203 (0.479601)
Comm  time (%) = 0.814725 (3.71418)
Outpt time (%) = 0.0380845 (0.17362)
Other time (%) = 8.99525 (41.0076)

Nlocal:    8 ave 8 max 8 min
Histogram: 1 0 0 0 0 0 0 0 0 0
Nghost:    1648 ave 1648 max 1648 min
Histogram: 1 0 0 0 0 0 0 0 0 0
Neighs:    2036 ave 2036 max 2036 min
Histogram: 1 0 0 0 0 0 0 0 0 0

Total # of neighbors = 2036
Ave neighs/atom = 254.5
Neighbor list builds = 1420
Dangerous builds = 0
unfix 20
unfix 21
print "seeds:3682438"
seeds:3682438
