LAMMPS (10 Feb 2015)
# ---- initialize simulations
clear
units metal
dimension 3
boundary p p p
atom_style charge
atom_modify map array
# ---- create atoms
read_data /Users/eugeneragasa/pyflamestk_git/pypospack/tests/tests_integration/workflow/WorkflowLammpsThermalExpansion/param_5091/MgO_NaCl_unit.npt.T800/lammps.structure
  triclinic box = (0 0 0) to (4.2565 4.2565 4.2565) with tilt (0 0 0)
  1 by 1 by 1 MPI processor grid
  reading atoms ...
  8 atoms
# ---- define interatomic potential
include potential.mod
mass 1 24.305
mass 2 15.999

group Mg type 1
4 atoms in group Mg
group O type 2
4 atoms in group O

set group Mg charge 1.60395442224
  4 settings made for charge
set group O charge -1.60395442224
  4 settings made for charge

variable R_cut equal 10.0

pair_style buck/coul/long ${R_cut}
pair_style buck/coul/long 10
pair_coeff 1 1 0.0 0.5 0.0 ${R_cut}
pair_coeff 1 1 0.0 0.5 0.0 10
pair_coeff 1 2 1640.33364459 0.274285748818 0.0 ${R_cut}
pair_coeff 1 2 1640.33364459 0.274285748818 0.0 10
pair_coeff 2 2 138.503876614 0.167383398543 15.9463705464 ${R_cut}
pair_coeff 2 2 138.503876614 0.167383398543 15.9463705464 10

kspace_style pppm 1.0e-5

neighbor 1.0 bin
neigh_modify every 1 delay 0 check yes
# ---- define settings
compute eng all pe/atom
compute eatoms all reduce sum c_eng
# ---- run minimization
reset_timestep 0
fix 1 all box/relax iso 0.0 vmax 0.001
thermo 10
thermo_style custom step pe lx ly lz xy xz yz press pxx pyy pzz pxy pxz pyz c_eatoms
min_style cg
minimize 1e-25 1e-25 5000 10000
PPPM initialization ...
  G vector (1/distance) = 0.352384
  grid = 8 8 8
  stencil order = 5
  estimated absolute RMS force accuracy = 3.76636e-05
  estimated relative force accuracy = 2.6156e-06
  using double precision FFTs
  3d grid and FFT values/proc = 3375 512
Neighbor list info ...
  1 neighbor list requests
  update every 1 steps, delay 0 steps, check yes
  master list distance cutoff = 11
Memory usage per processor = 4.06549 Mbytes
Step PotEng Lx Ly Lz Xy Xz Yz Press Pxx Pyy Pzz Pxy Pxz Pyz eatoms 
       0   -105.40733       4.2565       4.2565       4.2565            0            0            0    42357.047    42357.047    42357.047    42357.047 -5.4591187e-11 1.2697943e-10 -3.1158894e-11   -105.40733 
      10   -105.43209    4.2922445    4.2922445    4.2922445            0            0            0   -4.9211524   -4.9211524   -4.9211524   -4.9211524 1.7090498e-11 -3.1779622e-11 -1.1443831e-10   -105.43209 
      12   -105.43209    4.2922402    4.2922402    4.2922402            0            0            0  -0.19512063  -0.19512063  -0.19512063  -0.19512063 3.2638439e-11 -8.1058727e-11 1.6032595e-10   -105.43209 
Loop time of 0.00859308 on 1 procs for 12 steps with 8 atoms

Minimization stats:
  Stopping criterion = linesearch alpha is zero
  Energy initial, next-to-last, final = 
        -105.407331285      -105.43208818      -105.43208818
  Force two-norm initial, final = 6.11638 6.94804e-05
  Force max component initial, final = 6.11638 2.86507e-05
  Final line search alpha, max atom move = 0.5 1.43253e-05
  Iterations, force evaluations = 12 25

Pair  time (%) = 0.0023973 (27.898)
Kspce time (%) = 0.00139213 (16.2005)
Neigh time (%) = 0 (0)
Comm  time (%) = 0.000257492 (2.9965)
Outpt time (%) = 1.19209e-05 (0.138727)
Other time (%) = 0.00453424 (52.7662)

Nlocal:    8 ave 8 max 8 min
Histogram: 1 0 0 0 0 0 0 0 0 0
Nghost:    2189 ave 2189 max 2189 min
Histogram: 1 0 0 0 0 0 0 0 0 0
Neighs:    2344 ave 2344 max 2344 min
Histogram: 1 0 0 0 0 0 0 0 0 0

Total # of neighbors = 2344
Ave neighs/atom = 293
Neighbor list builds = 0
Dangerous builds = 0
unfix 1
# ---- define output variables ----
variable natoms equal "count(all)"
variable tot_energy equal "c_eatoms"
variable length_x equal "lx"
variable length_y equal "ly"
variable length_z equal "lz"
variable tilt_xy equal "xy"
variable tilt_xz equal "xz"
variable tilt_yz equal "yz"
variable tot_press equal "press"
variable press_xx equal "pxx"
variable press_yy equal "pyy"
variable press_zz equal "pzz"
variable press_xy equal "pxy"
variable press_xz equal "pxz"
variable press_yz equal "pyz"

# ---- output ----
print "pypospack:output_section:begin"
pypospack:output_section:begin
print "tot_energy = ${tot_energy}"
tot_energy = -105.432088180201
print "num_atoms = ${natoms}"
num_atoms = 8
print "xx = ${length_x}"
xx = 4.29224022422512
print "yy = ${length_y}"
yy = 4.29224022422512
print "zz = ${length_z}"
zz = 4.29224022422512
print "xy = ${tilt_xy}"
xy = 0
print "xz = ${tilt_xz}"
xz = 0
print "yz = ${tilt_yz}"
yz = 0
print "tot_press = ${tot_press}"
tot_press = -0.195120630166908
print "pxx = ${press_xx}"
pxx = -0.195120630011552
print "pyy = ${press_yy}"
pyy = -0.195120630547228
print "pzz = ${press_zz}"
pzz = -0.195120629941943
print "pxy = ${press_xy}"
pxy = 3.26384388476247e-11
print "pxz = ${press_xz}"
pxz = -8.10587270505021e-11
print "pyz = ${press_yz}"
pyz = 1.60325951029016e-10
print "pypospack:output_section:done"
pypospack:output_section:done
print "pypospack:lammps_sim:done"
pypospack:lammps_sim:done
#------------------------------------------------------------------------------
# RUN THERMOSTAT
# running using an NPT Nose-Hoover style thermostat
#------------------------------------------------------------------------------
variable tempdamp equal 0.1
variable pressdamp equal 1.0
# set initial velocities
velocity all create 800 2918177 mom yes dist gaussian loop all
# fix for Nose-Hoover style thermostat
fix 20 all npt temp 800 800 0.1 aniso 0.0 0.0 1.0 drag 1.0 couple xyz
variable boxx equal lx
variable boxy equal ly
variable boxz equal lz
variable boxp equal press
variable boxt equal temp
# calculate averages every 10000 steps
reset_timestep 0
fix 21 all ave/time 10 10 100 v_boxx v_boxy v_boxz v_boxp v_boxt file lattice.out
thermo_style custom step temp pe ke etotal press lx ly lz press pxx pyy pzz pxy pxz pyz vol
thermo_modify flush yes
thermo 100
run 100000
PPPM initialization ...
  G vector (1/distance) = 0.352034
  grid = 8 8 8
  stencil order = 5
  estimated absolute RMS force accuracy = 3.82705e-05
  estimated relative force accuracy = 2.65774e-06
  using double precision FFTs
  3d grid and FFT values/proc = 3375 512
Memory usage per processor = 3.06549 Mbytes
Step Temp PotEng KinEng TotEng Press Lx Ly Lz Press Pxx Pyy Pzz Pxy Pxz Pyz Volume 
       0          800   -105.43209   0.72385681   -104.70824    9776.0323    4.2922402    4.2922402    4.2922402    9776.0323    15409.928     2570.163    11348.005   -447.88859    6178.7564   -3519.4459    79.077342 
     100    278.50861   -104.86928   0.25200044   -104.61728    1313.9099    4.3281803    4.3281803    4.3281803    1313.9099    8374.3533   -32233.122    27800.499    1560.4757   -7323.3583    2215.7139    81.080427 
     200    568.33857   -104.92855   0.51424468    -104.4143   -16013.856    4.3445784    4.3445784    4.3445784   -16013.856    6783.9587   -43874.962   -10950.564    613.16516   -2965.5922     4481.691     82.00549 
     300    796.44824   -104.96429    0.7206431   -104.24364    13893.426    4.3188545    4.3188545    4.3188545    13893.426    2951.6879   -8414.4768    47143.068    563.36261    -2309.115    4472.9789    80.557453 
     400    554.66203   -104.62157   0.50186986    -104.1197    4072.9502    4.3413943    4.3413943    4.3413943    4072.9502    11107.569   -32385.076    33496.358    3299.5152    10118.315    -2883.734    81.825317 
     500    736.24412   -104.69498   0.66616916   -104.02881   -6077.4819    4.3567877    4.3567877    4.3567877   -6077.4819    8221.3978   -43892.125    17438.282   -46.405278    -4503.714   -9290.7276    82.698795 
     600    807.71997   -104.71223   0.73084201   -103.98139    2579.5992     4.336864     4.336864     4.336864    2579.5992   -18802.286   -20174.435    46715.519   -2198.2575    649.79579    -783.7795    81.569425 
     700    971.64947   -104.85062   0.87916886   -103.97145   -7479.3262    4.3448239    4.3448239    4.3448239   -7479.3262    9115.3147   -31009.292   -544.00148    8284.6138   -7875.8185    2506.3413    82.019391 
     800    327.39345   -104.27394   0.29623247   -103.97771    15079.386    4.3509456    4.3509456    4.3509456    15079.386    53948.429   -45571.769    36861.497   -9104.7617    30170.344    5094.3038    82.366568 
     900    861.24157   -104.76211   0.77926947   -103.98284    9350.4249    4.3338683    4.3338683    4.3338683    9350.4249    48314.754   -20565.399    301.91966   -1491.0478   -2799.1718     10644.12    81.400511 
    1000    854.12651   -104.76273   0.77283161    -103.9899   -4802.5462    4.3468747    4.3468747    4.3468747   -4802.5462   -27213.602   -33063.369    45869.333   -5095.6915    -261.5916   -3510.6611    82.135585 
    1100    582.63945   -104.51003   0.52718441   -103.98285     8773.857    4.3461314    4.3461314    4.3461314     8773.857    58477.706   -26268.914    -5887.221   -6964.1122   -1693.9786    1155.5889    82.093461 
    1200     892.9263   -104.78339   0.80793848   -103.97545   -3863.0305    4.3427593    4.3427593    4.3427593   -3863.0305    767.34247   -23817.412    11460.978   -1839.5326    6994.6439   -5997.9265     81.90252 
    1300    1173.6815   -105.03732    1.0619717   -103.97535    -18961.39    4.3435596    4.3435596    4.3435596    -18961.39   -4193.3655   -38209.597   -14481.208    3443.8752    1204.7061    4702.7157    81.947811 
    1400    520.67656   -104.45895   0.47111909   -103.98783    9099.4412    4.3484836    4.3484836    4.3484836    9099.4412    21752.178   -36081.593    41627.738   -1722.6105   -621.35391     8105.667    82.226823 
    1500    550.13173   -104.48532   0.49777075   -103.98755     21837.25    4.3417059    4.3417059    4.3417059     21837.25    32117.922   -18400.458    51794.287    5258.5983   -13136.279    8047.7808    81.842937 
    1600    1030.4395   -104.91107   0.93236332    -103.9787    -8703.938    4.3423446    4.3423446    4.3423446    -8703.938   -3797.5402   -17214.026   -5100.2473    5366.8668    8053.6096    6403.8246    81.879063 
    1700    664.42141   -104.57646   0.60118245   -103.97528    3148.4867    4.3535214    4.3535214    4.3535214    3148.4867    1115.2102    -14684.31    23014.559   -6507.0006   -11383.414   -3428.2317    82.512937 
    1800    791.74707   -104.68492   0.71638939   -103.96853   -2174.6705    4.3490094    4.3490094    4.3490094   -2174.6705    3111.9443   -22997.018    13361.062   -9092.2144    1750.2869   -3199.5737    82.256655 
    1900    785.66647   -104.68271   0.71088753   -103.97182    15280.073    4.3354572    4.3354572    4.3354572    15280.073   -20230.457    4619.8235    61450.854   -4315.4947   -2626.5482   -6917.2401    81.490072 
    2000     570.8611   -104.50341   0.51652712   -103.98688     13376.38    4.3501653    4.3501653    4.3501653     13376.38    1667.8357   -24593.459    63054.765   -1686.7394    6493.6009     13677.03    82.322261 
    2100    575.45026   -104.50469   0.52067949   -103.98401   -1621.6473     4.353427     4.353427     4.353427   -1621.6473   -22080.296   -22185.668    39401.022   -862.57893    -6288.176    16068.726    82.507573 
    2200    736.59341   -104.64669    0.6664852   -103.98021    19519.415    4.3335123    4.3335123    4.3335123    19519.415    2559.9576    462.35607     55535.93    5708.9149    2651.0451   -8414.6177     81.38045 
    2300    862.08129   -104.76873   0.78002927    -103.9887   -744.60755    4.3491679    4.3491679    4.3491679   -744.60755   -23571.277   -21928.791    43266.245    5892.8277    4381.6808   -5109.2427    82.265648 
    2400    591.66756    -104.5166   0.53535325   -103.98124    11430.059    4.3525794    4.3525794    4.3525794    11430.059    6181.1793   -14297.372    42406.369    3529.7945    14316.722   -4766.4884    82.459389 
    2500    799.96322   -104.69721   0.72382353   -103.97339    6778.1996    4.3403262    4.3403262    4.3403262    6778.1996   -14520.166   -6472.8668    41327.631    4897.2689   -12518.744    5011.5416    81.764936 
    2600    945.05153   -104.83073   0.85510249   -103.97563    3309.5015    4.3421614    4.3421614    4.3421614    3309.5015    4561.3636   -17452.693    22819.834   -3637.5502    8703.2222    7824.1064    81.868696 
    2700    542.35785   -104.46485   0.49073678   -103.97411    4960.2483     4.360691     4.360691     4.360691    4960.2483    -6551.239   -29113.515    50545.499    -3467.514   -9566.0436    688.07079    82.921269 
    2800    855.38597   -104.74008    0.7739712   -103.96611    1200.1123    4.3412136    4.3412136    4.3412136    1200.1123    -19994.98    -28902.04    52497.357    104.24754    6490.5706    -2387.716    81.815099 
    2900     608.5319   -104.52634   0.55061245   -103.97573    31420.831     4.330704     4.330704     4.330704    31420.831    36482.598    -18000.01    75779.906   -6703.2811   -10975.943   -3822.7302    81.222344 
    3000     986.3032   -104.87268   0.89242786   -103.98025   -25594.432    4.3646557    4.3646557    4.3646557   -25594.432   -18092.783   -43652.462    -15038.05    2804.1066    8554.8936    5612.3443    83.147647 
    3100    1002.8672    -104.8821    0.9074153   -103.97468   -2054.8318    4.3396233    4.3396233    4.3396233   -2054.8318   -16117.867   -33125.042    43078.413   -530.31177   -5325.0801     2354.248    81.725221 
    3200    663.08109   -104.57657   0.59996971   -103.97661    24108.581    4.3304228    4.3304228    4.3304228    24108.581    7046.1544   -6096.2429    71375.831    625.71302      12556.8   -6913.3958    81.206521 
    3300    882.47535   -104.77417   0.79848224   -103.97569   -27548.895    4.3669805    4.3669805    4.3669805   -27548.895    -27752.86   -59349.392    4455.5659    6160.3198   -9332.9255    1012.1173    83.280586 
    3400    851.16957   -104.73833   0.77015611   -103.96817   -9961.9516    4.3429182    4.3429182    4.3429182   -9961.9516   -20918.972   -39546.143    30579.261    368.54625    6088.1108   -2992.1379    81.911514 
    3500      617.681   -104.52905   0.55889075   -103.97016      32457.7    4.3239717    4.3239717    4.3239717      32457.7    18394.977   -11035.426     90013.55    8668.5893   -16387.348    2287.4121    80.844139 
    3600    878.90396   -104.77798   0.79525077   -103.98273   -30406.714    4.3635565    4.3635565    4.3635565   -30406.714   -28182.965   -51981.299   -11055.879    -9308.631    3180.3044   -4463.5305    83.084846 
    3700    840.92857   -104.73172   0.76088985   -103.97083    -6415.568    4.3451681    4.3451681    4.3451681    -6415.568    9765.1104   -29480.007    468.19317    8011.8168    914.06972   -4108.2971    82.038887 
    3800    789.24976   -104.67443   0.71412977    -103.9603    16895.552    4.3315991    4.3315991    4.3315991    16895.552     23818.51   -7758.0351    34626.179   -4752.8079   -11125.576    8741.3419    81.272716 
    3900    573.67725   -104.48951   0.51907523   -103.97044   -5921.9449     4.357379     4.357379     4.357379   -5921.9449   -27928.845   -45821.017    55984.028    1644.7418     -2312.05    8360.1446    82.732472 
    4000    629.61356   -104.53955   0.56968758   -103.96986    7411.8576    4.3458424    4.3458424    4.3458424    7411.8576    47702.782    -17668.75   -7798.4597   -4503.6801    8340.0449    1150.5715    82.077086 
    4100    1041.2268   -104.91273   0.94212388   -103.97061   -3059.0404    4.3349387    4.3349387    4.3349387   -3059.0404   -7103.7462   -10190.586    8117.2111    3244.9195   -6143.5517    2119.7025    81.460837 
    4200    685.36915   -104.59787   0.62013641   -103.97774   -6474.4587    4.3551139    4.3551139    4.3551139   -6474.4587    -8185.579   -40609.698    29371.901     2335.478    4235.7241   -10462.896    82.603522 
    4300    758.27195   -104.65304   0.68610039   -103.96694    2296.0073    4.3472273    4.3472273    4.3472273    2296.0073    4154.8114   -34719.232    37452.443    5364.0336    14956.534   -1848.8346    82.155574 
    4400    1075.0743   -104.93904   0.97274985   -103.96629   -2461.9805    4.3318976    4.3318976    4.3318976   -2461.9805    5814.2406   -25644.335    12444.153    3563.2481    4598.2487   -9343.4235    81.289518 
    4500    606.18033   -104.53663    0.5484847   -103.98815    2559.0899     4.351065     4.351065     4.351065    2559.0899     11907.17   -42312.836    38082.936    -2373.507   -13115.383    16738.532    82.373347 
    4600    735.67121   -104.64569   0.66565078   -103.98004    7494.4608    4.3441192    4.3441192    4.3441192    7494.4608   -7611.5291   -26461.699     56556.61    4550.6253     3033.731    593.42021    81.979487 
    4700    1015.0411   -104.89142   0.91843049   -103.97299    925.99718    4.3387529    4.3387529    4.3387529    925.99718    27931.985    -30343.36    5189.3667   -2162.0994     2784.152   -2492.4983    81.676054 
    4800    640.55592   -104.55776   0.57958845   -103.97817    5137.4618    4.3479803    4.3479803    4.3479803    5137.4618   -12125.401   -47488.758    75026.544    2980.5029   -3161.6469    211.32835    82.198276 
    4900    965.82852   -104.85131   0.87390194    -103.9774   -5974.3293    4.3380879    4.3380879    4.3380879   -5974.3293   -5347.8767   -3465.1664   -9109.9447   -573.21993    822.80114   -263.38095    81.638503 
    5000    631.01079   -104.55222   0.57095182   -103.98127    20501.093    4.3413622    4.3413622    4.3413622    20501.093    25296.927   -28408.245    64614.598    2356.6437    7232.5393    6771.5217    81.823504 
    5100    990.50861   -104.86808   0.89623301   -103.97185   -28451.703    4.3537067    4.3537067    4.3537067   -28451.703   -42655.187   -58865.321      16165.4    3059.9497   -11106.644     -7051.59    82.523473 
    5200    808.65585   -104.69791   0.73168881   -103.96622    20315.815    4.3289174    4.3289174    4.3289174    20315.815    41956.318    11893.977    7097.1487   -2835.3938      694.768    7566.6971    81.121861 
    5300    799.32464   -104.70734   0.72324573    -103.9841   -4368.0749     4.341958     4.341958     4.341958   -4368.0749   -30044.517    -38653.92    55594.212    5496.1584    3548.5969    25.973168    81.857193 
    5400    851.06413   -104.75238   0.77006071   -103.98232    1995.3328    4.3439678    4.3439678    4.3439678    1995.3328    4944.2674   -33084.877    34126.608    2784.1076    -4362.331   -2237.5445    81.970916 
    5500    672.93148   -104.58443   0.60888254   -103.97554    6619.2204    4.3406185    4.3406185    4.3406185    6619.2204    18346.297   -12541.189    14052.553    1211.5466    -6979.585   -9684.8913    81.781458 
    5600    932.36629   -104.81403   0.84362462   -103.97041   -14189.545    4.3412838    4.3412838    4.3412838   -14189.545   -17045.516   -30770.725    5247.6074     3008.767    6770.4031    10411.925    81.819067 
    5700    759.36034   -104.66145   0.68708519   -103.97436    22548.693    4.3338056    4.3338056    4.3338056    22548.693    52160.941   -3741.1228     19226.26    3014.1747    3404.7835   -2332.6035    81.396979 
    5800    827.47848    -104.7249   0.74871992   -103.97618   -5288.1376    4.3440909    4.3440909    4.3440909   -5288.1376   -6348.8098   -26069.293     16553.69    5164.6246   -9862.9654    8695.3268    81.977884 
    5900    651.36195   -104.55534   0.58936598   -103.96597    3081.4119     4.345519     4.345519     4.345519    3081.4119    50766.436   -31163.036   -10359.164    3563.9002    7837.7223    -10249.67    82.058761 
    6000    833.81179   -104.71864   0.75445043   -103.96418    10039.667    4.3341055    4.3341055    4.3341055    10039.667   -26908.546   -17749.322    74776.869   -2595.6176   -6595.4392   -6537.3191    81.413875 
    6100    762.48767    -104.6702   0.68991487   -103.98029    1026.3801    4.3399661    4.3399661    4.3399661    1026.3801    25466.441    -31154.72    8767.4196   -3775.0859    5247.3168    5001.1952    81.744588 
    6200    728.20754   -104.63509   0.65889748   -103.97619    -9033.232    4.3491681    4.3491681    4.3491681    -9033.232   -7577.7477   -47284.686    27762.737   -1090.3984    8424.6926    -2283.206    82.265656 
    6300    822.19898   -104.71143   0.74394292   -103.96749   -2834.3732    4.3398026    4.3398026    4.3398026   -2834.3732   -9864.3149   -36915.527    38276.722   -3360.5258    5603.4392    4829.0399    81.735352 
    6400    1165.0791   -105.02515    1.0541881   -103.97096   -17879.209    4.3374951    4.3374951    4.3374951   -17879.209    5963.0856   -33937.707   -25663.004     593.3143   -4123.2118   -7714.4682    81.605042 
    6500    880.80422   -104.77979   0.79697017   -103.98282   -5193.2073    4.3411862    4.3411862    4.3411862   -5193.2073   -13067.301   -43392.922    40880.601     3835.618     3597.711    -1829.084    81.813553 
    6600    468.33457   -104.40937   0.42375896   -103.98561    11594.374    4.3410517    4.3410517    4.3410517    11594.374    13598.753   -20012.346    41196.716   -1378.6504   -8662.5386    5154.9823    81.805946 
    6700    1172.8031   -105.03478    1.0611769    -103.9736   -15217.931    4.3416824    4.3416824    4.3416824   -15217.931   -20143.989   -22771.763   -2738.0407   -2317.2947    7185.9808   -1550.1022    81.841611 
    6800    645.93312   -104.55432   0.58445386   -103.96987    4914.8814    4.3473464    4.3473464    4.3473464    4914.8814   -5835.0961   -25897.802    46477.542    7.6148909   -13113.039    6829.4898     82.16233 
    6900    751.17598    -104.6408   0.67967981   -103.96112    5983.1204     4.338387     4.338387     4.338387    5983.1204    -1974.667    10648.617    9275.4109    -1807.191   -5262.0621   -15218.773    81.655391 
    7000    703.75618   -104.60221   0.63677339   -103.96543      2033.05    4.3436686    4.3436686    4.3436686      2033.05    -10357.51   -23014.643    39471.303   -717.42325   -441.80423   -4996.0799    81.953983 
    7100    856.77058   -104.74636   0.77522403   -103.97114   -13018.717    4.3457448    4.3457448    4.3457448   -13018.717   -25370.923   -10694.018   -2991.2115    7680.8081    8384.9745    13884.159    82.071552 
    7200    685.95087   -104.58985   0.62066276   -103.96918    10050.343    4.3378084    4.3378084    4.3378084    10050.343    7954.1213   -10243.001    32439.909   -2104.4795    2399.1464   -2648.6759    81.622725 
    7300    1088.1561   -104.95011   0.98458652   -103.96552   -26972.728    4.3494968    4.3494968    4.3494968   -26972.728   -26378.705   -46951.056   -7588.4237     8839.155   -5471.6665   -1332.1418    82.284315 
    7400      645.251   -104.54693   0.58383666   -103.96309    13478.466    4.3397676    4.3397676    4.3397676    13478.466    39802.513   -3154.0689    3786.9525   -3479.3207    706.00977   -8270.9393    81.733373 
    7500    825.42855   -104.71601    0.7468651   -103.96914    369.36075    4.3424971    4.3424971    4.3424971    369.36075   -9458.7552   -19805.575    30372.413   -514.42086    18625.171    925.49807    81.887689 
    7600    674.39826   -104.57926   0.61020971   -103.96905    8407.8028    4.3439094    4.3439094    4.3439094    8407.8028     1412.828   -1754.1221    25564.703   -5032.1913   -1828.3872    5856.5568    81.967609 
    7700    675.28499   -104.57816   0.61101205   -103.96715    2775.1872    4.3399487    4.3399487    4.3399487    2775.1872   -6267.1247    4653.2443     9939.442    4572.5058   -1176.4618    -1031.609    81.743606 
    7800    1238.1028   -105.08457    1.1202615    -103.9643   -25223.935    4.3431648    4.3431648    4.3431648   -25223.935   -15818.692   -33823.311   -26029.801    1541.9674   -8322.5036   -5373.0891    81.925469 
    7900    479.09168   -104.40204   0.43349222   -103.96855     17772.74    4.3440317    4.3440317    4.3440317     17772.74    18218.984    3882.2199    31217.015   -6394.4085    4526.7302   -6982.2239    81.974533 
    8000    967.58876    -104.8361   0.87549464   -103.96061   -6483.0979    4.3439534    4.3439534    4.3439534   -6483.0979   -40389.595   -8730.5934    29670.894    886.19947   -1140.8399    7946.7875    81.970099 
    8100    465.63265   -104.38544    0.4213142   -103.96413    22047.311    4.3385284    4.3385284    4.3385284    22047.311    35085.245    36026.303   -4969.6158    -5530.351    -2185.622    11581.323    81.663376 
    8200    893.48657    -104.7777   0.80844543   -103.96926   -18508.243    4.3416913    4.3416913    4.3416913   -18508.243   -16100.306   -16829.216   -22595.207    246.02741   -191.15227   -15065.143     81.84211 
    8300    899.65543   -104.78056   0.81402714   -103.96653    1536.3957    4.3399659    4.3399659    4.3399659    1536.3957    13146.612   -9833.2299    1295.8047    1553.4999   -3964.5534    412.21132    81.744577 
    8400    891.35575   -104.77403   0.80651742   -103.96751   -20487.949    4.3469043    4.3469043    4.3469043   -20487.949   -24952.288   -31918.561   -4592.9972       3644.5   -80.732665   -4430.6433    82.137266 
    8500    573.24736   -104.48274   0.51868626   -103.96405    15931.051    4.3428277    4.3428277    4.3428277    15931.051   -356.54983    12629.397    35520.307    260.97445     3638.712    13083.787     81.90639 
    8600    958.84843   -104.82581   0.86758621   -103.95823   -12266.473    4.3417931    4.3417931    4.3417931   -12266.473   -24686.386    13578.887   -25691.919   -2970.0416    6965.3062   -5361.3125    81.847869 
    8700    667.26818   -104.56604   0.60375827   -103.96228   -622.30854    4.3412608    4.3412608    4.3412608   -622.30854   -2027.7341   -436.10087    596.90937    858.18318   -4496.7154   -14624.446    81.817771 
    8800    985.73116   -104.85412   0.89191027   -103.96221    -6042.851    4.3447514    4.3447514    4.3447514    -6042.851   -17520.586   -14441.847     13833.88      889.958    5416.0672    2238.8833    82.015282 
    8900    626.81688   -104.53235   0.56715708   -103.96519    -1638.528    4.3415606    4.3415606    4.3415606    -1638.528   -6539.4007    3499.0506   -1875.2339    3475.0384   -4986.9704   -3402.7386    81.834719 
    9000    906.50865   -104.78435   0.82022808   -103.96412     5504.112    4.3361638    4.3361638    4.3361638     5504.112    3481.1886    5551.5475       7479.6    209.02002     8589.531   -5014.9792    81.529925 
    9100    835.90144   -104.72328   0.75634119   -103.96694   -10376.955    4.3532092    4.3532092    4.3532092   -10376.955   -13756.318    -22002.98    4628.4321   -194.15895    3297.0829    -15241.56    82.495189 
    9200     772.9614   -104.66437   0.69939172   -103.96497    753.11161    4.3385688    4.3385688    4.3385688    753.11161    22252.489   -35147.469    15154.315   -5817.2903   -5180.0927   -6983.9434    81.665658 
    9300    962.20412    -104.8368   0.87062251   -103.96618    3414.7709    4.3369396    4.3369396    4.3369396    3414.7709   -17647.179   -7269.1096    35160.601    1440.6016    2505.4103    7834.2296    81.573692 
    9400    764.53861   -104.66223    0.6917706   -103.97046   -4909.9325    4.3462684    4.3462684    4.3462684   -4909.9325    21528.925   -34017.439   -2241.2838   -4726.2079    2799.9075   -2347.7935    82.101225 
    9500    787.12532   -104.68159   0.71220753   -103.96938   -604.50011    4.3435994    4.3435994    4.3435994   -604.50011   -27616.415    1249.0673    24553.847   -4364.8996   -4080.8711   -6662.4237    81.950066 
    9600    646.40498    -104.5508   0.58488081   -103.96592    6345.0717    4.3392763    4.3392763    4.3392763    6345.0717    20864.601    6869.4413   -8698.8276    4981.0726    12724.831   -15753.722    81.705616 
    9700    659.12696   -104.56271   0.59639192   -103.96632   -1332.7159    4.3398142    4.3398142    4.3398142   -1332.7159    19878.497   -18135.334   -5741.3109    4404.6319    1796.2061   -6009.5263    81.736007 
    9800     733.7002   -104.62923   0.66386736   -103.96536    7633.0625    4.3418795    4.3418795    4.3418795    7633.0625     63561.43   -11120.934   -29541.309   -2062.4661    18245.433    2554.3088    81.852754 
    9900    928.41448    -104.8099   0.84004893   -103.96985    -20713.02    4.3414635    4.3414635    4.3414635    -20713.02    3623.5916   -47022.409   -18740.243    2400.3502   -1878.0896   -5388.9229    81.829229 
   10000    1014.1481   -104.88592   0.91762248   -103.96829   -13192.897    4.3422987    4.3422987    4.3422987   -13192.897    12286.648   -37020.009    -14845.33   -1758.0458   -568.05004    8141.7346    81.876464 
   10100    612.40278   -104.52366    0.5541149   -103.96954    5491.7333    4.3407862    4.3407862    4.3407862    5491.7333    54712.893   -40194.463    1956.7702   -9910.1112    3838.8541   -14076.328    81.790938 
   10200    892.19783    -104.7755   0.80727935   -103.96822   -491.77859    4.3371554    4.3371554    4.3371554   -491.77859    26575.797   -20238.196    -7812.937    6854.2271    -2940.918   -4123.7157    81.585871 
   10300    833.45062   -104.72238   0.75412364   -103.96825    -7963.195    4.3404032    4.3404032    4.3404032    -7963.195    29756.455   -27414.538   -26231.502   -5886.6005    3928.5536   -12451.321    81.769288 
   10400    833.33316   -104.72306   0.75401736   -103.96904    -14735.98     4.339868     4.339868     4.339868    -14735.98   -19103.079   -7045.5258   -18059.336    2852.5893      4938.03   -3158.6765    81.739045 
   10500    704.56963   -104.60947    0.6375094   -103.97196    7035.2537    4.3378462    4.3378462    4.3378462    7035.2537     45114.26   -16137.149     -7871.35     8133.001     1451.599    6172.8211    81.624857 
   10600    418.47337   -104.35844    0.3786435    -103.9798    9001.8414    4.3445493    4.3445493    4.3445493    9001.8414    76747.819   -32614.835    -17127.46    7542.9955   -9493.8267    859.11424    82.003838 
   10700    903.61115   -104.79451   0.81760636   -103.97691    3558.6237    4.3375787    4.3375787    4.3375787    3558.6237    10841.784   -17783.008    17617.095   -3911.7762    4667.9229    10697.529     81.60976 
   10800    605.27399   -104.53111   0.54766462   -103.98345    6403.9968    4.3380888    4.3380888    4.3380888    6403.9968    54780.728   -31206.456   -4362.2818    -350.9325   -5407.0872   -5721.8653    81.638555 
   10900    1026.0788   -104.90226   0.92841766   -103.97384   -12266.185     4.342541     4.342541     4.342541   -12266.185     22076.66   -40710.185   -18165.032   -1765.9178   -1638.8401    3465.3976    81.890172 
   11000    773.89993   -104.67356   0.70024092   -103.97332   -7641.6738    4.3401308    4.3401308    4.3401308   -7641.6738    20805.887   -29137.914   -14592.994    1605.4628   -4642.4051   -12908.251    81.753893 
   11100    719.39148   -104.62549   0.65092053   -103.97457   -1733.0831    4.3356339    4.3356339    4.3356339   -1733.0831     48660.27   -39011.225   -14848.293    1689.4188    7276.0261   -3874.2108    81.500035 
   11200    931.87293   -104.82285   0.84317821   -103.97967   -6286.6499    4.3421023    4.3421023    4.3421023   -6286.6499    17150.193   -50291.686    14281.544   -4344.7576   -4453.4486    -1226.184    81.865356 
   11300    864.56155    -104.7675   0.78227346   -103.98523   -9480.2383    4.3332749    4.3332749    4.3332749   -9480.2383    8461.0656    -42429.24    5527.4595    6036.1921   -4354.7761   -10000.347    81.367079 
   11400    886.33586   -104.78969   0.80197532   -103.98772    2923.7743    4.3362443    4.3362443    4.3362443    2923.7743    46159.529   -33095.128   -4293.0777   -6168.0467    504.10517    13027.014    81.534464 
   11500    980.30686   -104.86465   0.88700225   -103.97765   -21108.273    4.3453777    4.3453777    4.3453777   -21108.273    11019.814   -45582.126   -28762.508   -614.24681   -8131.3623   -6503.0404    82.050759 
   11600    610.19934   -104.52405   0.55212118   -103.97193    22557.288    4.3294394    4.3294394    4.3294394    22557.288    85931.172   -31551.967     13292.66   -5419.4221    7670.1201    9322.8502    81.151208 
   11700    1117.2569   -104.98476    1.0109175   -103.97384   -6818.8384     4.338323     4.338323     4.338323   -6818.8384   -1101.5762    -26545.87    7190.9307    3046.5565   -216.26592   -8440.0878    81.651781 
   11800     728.4399   -104.64415   0.65910773   -103.98504   -2592.2967    4.3379641    4.3379641    4.3379641   -2592.2967    22966.048   -32574.922    1831.9842    -10229.62   -6518.4656   -6440.5667    81.631514 
   11900    650.49119   -104.57717    0.5885781   -103.98859    8822.5594    4.3305637    4.3305637    4.3305637    8822.5594    47925.309   -20804.182   -653.44941    7639.9539    4932.4129    948.02221    81.214448 
   12000    1175.7439   -105.05039    1.0638378   -103.98655   -12591.512    4.3337296    4.3337296    4.3337296   -12591.512   -6156.0386   -5061.7681   -26556.731   -2335.8431   -2182.3447   -6573.1968    81.392697 
   12100      449.226    -104.3934   0.40646913   -103.98693   -7837.7223    4.3446978    4.3446978    4.3446978   -7837.7223    47655.289   -49031.414   -22137.041   -10185.738    438.95753    11710.813    82.012247 
   12200    1032.9367   -104.90576   0.93462281   -103.97114    2140.3991    4.3289678    4.3289678    4.3289678    2140.3991    10887.529   -12126.698    7660.3665    6696.0033    8984.1617    1660.7125    81.124694 
   12300    648.00476   -104.56231   0.58632833   -103.97598   -7286.9161     4.338849     4.338849     4.338849   -7286.9161    22289.523   -44837.832    687.56017   -9022.4043   -8394.7399    8354.5924     81.68148 
   12400    862.36192   -104.75486   0.78028319   -103.97458    4220.3589    4.3369378    4.3369378    4.3369378    4220.3589    37908.052   -39458.348    14211.373   -126.78412    9141.5715    1622.1485    81.573591 
   12500    914.97031   -104.80598   0.82788437    -103.9781   -8699.4531    4.3344015    4.3344015    4.3344015   -8699.4531    25927.695    -33721.98   -18304.074    3087.2797    271.22809   -2297.1068    81.430561 
   12600    635.54594   -104.55394   0.57505532   -103.97889    16636.354    4.3241186    4.3241186    4.3241186    16636.354    73326.098   -25270.823    1853.7872   -426.90507   -10162.627    2498.1747    80.852378 
   12700    889.97449   -104.78243   0.80526762   -103.97716   -22344.307    4.3522133    4.3522133    4.3522133   -22344.307    9930.3837   -40698.278   -36265.026   -3184.9571     10509.79   -3088.1895    82.438584 
   12800     906.3569   -104.78515   0.82009077   -103.96506    5746.4927    4.3282673    4.3282673    4.3282673    5746.4927    47320.517   -18949.489    -11131.55    651.57287    1193.3304    8637.9765     81.08532 
   12900    675.32764   -104.57825   0.61105064    -103.9672    22070.863    4.3233238    4.3233238    4.3233238    22070.863    28960.498   -17523.454    54775.546   -1693.9067    9485.7591    4332.7314    80.807804 
   13000     662.5696   -104.56478    0.5995069   -103.96528   -22853.514    4.3545881    4.3545881    4.3545881   -22853.514    4684.0135   -54682.455   -18562.101    6754.7339   -15173.277    7476.2258    82.573607 
   13100    875.32921   -104.74907   0.79201627   -103.95705    9993.4914    4.3237492    4.3237492    4.3237492    9993.4914    4755.1456   -7665.3005    32890.629   -6340.5281    9434.6654    5868.7301    80.831657 
   13200    985.05239   -104.85884    0.8912961   -103.96755   -6456.2129    4.3345128    4.3345128    4.3345128   -6456.2129    13700.624   -32958.283   -110.98078    1597.6847   -3610.6352   -6326.9831    81.436832 
   13300    614.82682   -104.52698   0.55630823   -103.97067   -3883.5783    4.3517453    4.3517453    4.3517453   -3883.5783    31446.741    -56144.22    13046.744   -4101.7957   -13383.907    1696.5772    82.411993 
   13400    795.74561   -104.68291   0.72000735    -103.9629    2108.9839    4.3317677    4.3317677    4.3317677    2108.9839   -5798.2422   -16618.234    28743.428    1668.2423   -12459.565   -5038.2854    81.282207 
   13500    882.44562   -104.76273   0.79845534   -103.96428    5580.9227    4.3270598    4.3270598    4.3270598    5580.9227    27719.593   -16536.224    5559.3986    1692.4612    4263.3869    10488.432    81.017472 
   13600    867.75475   -104.75464   0.78516273   -103.96948   -32077.843    4.3478319    4.3478319    4.3478319   -32077.843   -27299.257   -55806.497   -13127.775   -2048.5586    4451.3716    2287.7648    82.189858 
   13700    752.01609   -104.64812   0.68043997   -103.96768    8912.0751    4.3273579    4.3273579    4.3273579    8912.0751   -13614.683    10779.477    29571.431    -1057.169   -6798.2747   -2086.7427    81.034219 
   13800    698.05722   -104.60486   0.63161684   -103.97324    11662.145    4.3314735    4.3314735    4.3314735    11662.145    34978.473   -18594.732    18602.693   -3135.0566    8320.8012    3958.9045    81.265646 
   13900    986.55554   -104.85814   0.89265619   -103.96549   -23732.145    4.3452041    4.3452041    4.3452041   -23732.145   -21708.865   -38159.338   -11328.231    662.97989    7190.6787   -3518.0971    82.040924 
   14000    709.07032   -104.60326   0.64158173   -103.96168    20162.485    4.3363321    4.3363321    4.3363321    20162.485    60102.515    9183.9537   -8799.0134     3926.995    7673.7903     6181.468    81.539416 
   14100    871.73374   -104.75366     0.788763    -103.9649   -19144.773    4.3361733    4.3361733    4.3361733   -19144.773   -24551.002   -39712.761    6829.4443    1653.3999   -9614.2828    5506.4717    81.530462 
   14200    856.52658   -104.73821   0.77500325   -103.96321    16084.443    4.3281969    4.3281969    4.3281969    16084.443    44542.355   -1253.2683    4964.2414   -1458.1153    2160.9376   -473.25359    81.081362 
   14300    794.99426   -104.68349   0.71932751   -103.96416   -15421.593    4.3503578    4.3503578    4.3503578   -15421.593   -17476.889   -43049.438    14261.548    3136.6932    4992.3977    2120.1602     82.33319 
   14400    643.92634   -104.54403   0.58263808   -103.96139   -2708.8991    4.3293547    4.3293547    4.3293547   -2708.8991    30010.648   -30323.926   -7813.4197    13119.684    3547.8093    -2801.052    81.146445 
   14500    907.36641   -104.78631    0.8210042    -103.9653    17858.727    4.3223487    4.3223487    4.3223487    17858.727    22551.742    2665.8269    28358.612    1704.9856   -15562.925     3868.245    80.753136 
   14600    825.95743   -104.71353   0.74734364   -103.96619    -29331.65     4.355436     4.355436     4.355436    -29331.65    -13406.22   -48602.674   -25986.057    7869.7241   -1961.2872    2426.7509    82.621849 
   14700    480.48097   -104.40015   0.43474928    -103.9654    29372.899    4.3282847    4.3282847    4.3282847    29372.899    76029.199   -26233.664    38323.162    19.037265    20351.581    7163.2045    81.086294 
   14800    567.88328    -104.4896   0.51383272   -103.97577     22182.28    4.3235314    4.3235314    4.3235314     22182.28     49364.03   -7617.3381    24800.148   -5530.1709     3114.172    10532.986    80.819446 
   14900    955.23874   -104.84411   0.86432009   -103.97979    -28319.63    4.3492625    4.3492625    4.3492625    -28319.63   -40362.962   -46334.879    1738.9515    11564.243   -3247.5937   -2480.1813    82.271016 
   15000    863.23186   -104.74881   0.78107033   -103.96774    3674.8548    4.3350669    4.3350669    4.3350669    3674.8548    50187.293   -21792.887   -17369.842    123.49704   -1399.8274    2723.6225    81.468067 
   15100     445.3774   -104.37198   0.40298683   -103.96899    25896.381    4.3190753    4.3190753    4.3190753    25896.381    89673.965   -21343.327    9358.5052    15191.777    9625.0335   -2450.0208    80.569808 
   15200     758.6378   -104.67102   0.68643143   -103.98459   -10019.791    4.3472317    4.3472317    4.3472317   -10019.791     -11670.1   -44935.158    26545.886   -4457.9123    5836.8345    -798.8873    82.155827 
   15300    997.74046   -104.87998   0.90277654    -103.9772   -17023.504    4.3380161    4.3380161    4.3380161   -17023.504   -6185.4701   -43069.454   -1815.5873    5386.9334   -469.07944    4471.3536     81.63445 
   15400    582.58087   -104.49535   0.52713141   -103.96822    25323.369    4.3186406    4.3186406    4.3186406    25323.369    45454.599   -6841.8308    37357.339    9143.7043   -2330.9615    1359.7646    80.545484 
   15500    1020.1168   -104.89158   0.92302314   -103.96856    -19612.79    4.3511226    4.3511226    4.3511226    -19612.79    3037.7534   -33061.745   -28814.379    4726.8726    3101.1353   -1397.7532    82.376621 
   15600    545.33026   -104.46036   0.49342628   -103.96693    10420.523    4.3369438    4.3369438    4.3369438    10420.523    20470.196   -37197.711    47989.084    12686.543   -1435.1633   -10082.968    81.573931 
   15700    770.83031    -104.6623   0.69746346   -103.96483    16401.251    4.3270944    4.3270944    4.3270944    16401.251    48944.149   -1220.2753    1479.8791   -8949.0898    -4259.144   -5045.4397    81.019414 
   15800    751.67005   -104.65055   0.68012686   -103.97042    13014.773    4.3374542    4.3374542    4.3374542    13014.773    47497.453   -24936.031    16482.898    2955.2461   -657.12534   -7904.7094    81.602732 
   15900    917.30199   -104.79997   0.82999411   -103.96998   -27437.352    4.3492469    4.3492469    4.3492469   -27437.352   -14084.003   -36780.168   -31447.887    5085.9331    7712.7192   -770.91017    82.270132 
   16000    783.14293   -104.67022   0.70860418   -103.96161    29820.947    4.3239203    4.3239203    4.3239203    29820.947    80254.681    -5382.593    14590.753    9617.0057   -3202.9362    3575.3272    80.841255 
   16100    700.42051    -104.6117    0.6337552   -103.97794   -6562.1202    4.3368551    4.3368551    4.3368551   -6562.1202   -22297.512    -31554.92    34166.071    768.04152    -3959.383    1116.6138    81.568922 
   16200    835.33465   -104.72029   0.75582835   -103.96446   -14366.257    4.3487883    4.3487883    4.3487883   -14366.257   -9051.6327    -45339.37    11292.231   -4277.9343    5421.2558    1056.5504     82.24411 
   16300    739.54823   -104.62402   0.66915878   -103.95486    31232.327     4.317956     4.317956     4.317956    31232.327    59896.453    11873.809    21926.719    2501.1869    7656.6659   -2013.4615    80.507183 
   16400    791.14125   -104.68942   0.71584123   -103.97358   -28287.842    4.3464399    4.3464399    4.3464399   -28287.842   -9360.3547   -42562.489   -32940.684    -4517.016   -6870.7585   -1065.9285    82.110943 
   16500    964.54491   -104.83702    0.8727405   -103.96428   -747.48986    4.3383093    4.3383093    4.3383093   -747.48986     3195.645   -28282.691    22844.576    3955.9593   -3929.6341   -5764.6205    81.651003 
   16600    557.22525   -104.47291   0.50418912   -103.96872    9209.2742    4.3264349    4.3264349    4.3264349    9209.2742   -9488.1367   -16699.822    53815.781   -704.04979    8473.8603   -4297.6206    80.982377 
   16700    989.96396     -104.866   0.89574019   -103.97026   -6597.9608    4.3405915    4.3405915    4.3405915   -6597.9608     18469.94   -38604.098    340.27591    2053.6708    3662.2973    4405.4669    81.779934 
   16800    735.80042   -104.63622   0.66576768   -103.97045   -17704.624    4.3458442    4.3458442    4.3458442   -17704.624   -13071.576   -47315.066    7272.7712    4849.4861   -7449.3416   -2335.3377    82.077186 
   16900    765.04613   -104.65439   0.69222982   -103.96216    18922.587    4.3205035    4.3205035    4.3205035    18922.587    30315.248   -13369.911    39822.423   -548.96057    1636.3333   -2153.6024    80.649759 
   17000    975.93843   -104.85478    0.8830496   -103.97173   -18882.051    4.3433984    4.3433984    4.3433984   -18882.051   -25437.071   -39187.772    7978.6901    8963.9708   -2208.1304    918.86287    81.938689 
   17100    895.00752   -104.77126   0.80982161   -103.96144   -16187.733    4.3430295    4.3430295    4.3430295   -16187.733   -3655.3448   -31022.193    -13885.66   -3755.8533    -7092.383    3519.7047    81.917813 
   17200     583.2425   -104.48864   0.52773007   -103.96091    19034.071    4.3305226    4.3305226    4.3305226    19034.071   -850.28295   -19307.344    77259.839    7988.3279   -2082.1992    8487.3466    81.212133 
   17300    848.41785   -104.73564    0.7676663   -103.96798   -12871.668    4.3426452    4.3426452    4.3426452   -12871.668   -27644.241   -25129.573     14158.81      6905.91   -2938.2157    6460.2298    81.896069 
   17400    876.00806   -104.75756    0.7926305   -103.96493   -1522.4001    4.3349968    4.3349968    4.3349968   -1522.4001     3262.061   -19560.212    11730.951   -6025.5757    12436.881    -6492.466    81.464116 
   17500     712.4733   -104.61308   0.64466081   -103.96842   -7532.5491    4.3347863    4.3347863    4.3347863   -7532.5491   -31614.344   -4517.9921    13534.689    15625.261   -897.36963    10862.782    81.452248 
   17600    710.14628   -104.61709   0.64255528   -103.97453   -5939.8987    4.3398616    4.3398616    4.3398616   -5939.8987   -49.555596   -40998.677    23228.537   -6540.4506   -2500.9974   -5793.5678    81.738685 
   17700    724.25952   -104.62911   0.65532523   -103.97379   -2899.2516    4.3377177    4.3377177    4.3377177   -2899.2516   -24614.282   -4552.7171    20469.244    2067.8563   -14190.878    1708.7454    81.617606 
   17800     978.9142   -104.85398   0.88574214   -103.96824   -12616.721    4.3320391    4.3320391    4.3320391   -12616.721    -28421.63   -22663.229    13234.697    201.78703    15508.296   -3558.2745    81.297484 
   17900    568.17525   -104.48347   0.51409691   -103.96937   -3189.7979    4.3461823    4.3461823    4.3461823   -3189.7979   -39977.064   -13313.442    43721.112    -9043.061   -14191.062    7944.4219    82.096343 
   18000    946.64339   -104.82259   0.85654283   -103.96605   -13357.177    4.3320023    4.3320023    4.3320023   -13357.177    -23680.55   -5986.6164   -10404.364    12123.719   -2662.4138    391.12359     81.29541 
   18100    788.24344   -104.68928   0.71321923   -103.97606    7602.2508    4.3335325    4.3335325    4.3335325    7602.2508   -28563.844    1759.0913    49611.505   -7414.9512   -6764.3978    222.99988    81.381588 
   18200    898.52731   -104.78965    0.8130064   -103.97665   -10495.078    4.3369284    4.3369284    4.3369284   -10495.078   -21401.376   -18458.679    8374.8209    4454.7086    5341.9574    7905.3639    81.573063 
   18300    617.65462   -104.54043   0.55886688   -103.98156    3881.0867    4.3352426    4.3352426    4.3352426    3881.0867   -15866.253    12329.335    15180.178   -2086.1178    2560.9439    618.60892     81.47797 
   18400    968.12004   -104.85211   0.87597536   -103.97614   -4926.1336    4.3397231    4.3397231    4.3397231   -4926.1336   -11992.339   -21055.677    18269.615    1717.9302    1613.2082   -1654.9846    81.730856 
   18500    687.84694   -104.60036   0.62237837   -103.97798    311.47108    4.3300739    4.3300739    4.3300739    311.47108   -20875.932    3748.1643    18062.181   -1987.9506   -8327.8252    607.32178    81.186896 
   18600    654.19566   -104.56992   0.59192998   -103.97799    4675.0651    4.3350228    4.3350228    4.3350228    4675.0651   -29710.657    8985.8949    34749.957   -2053.6374    15365.537    474.27449    81.465583 
   18700    1037.1315   -104.91126   0.93841841   -103.97284   -11891.707    4.3351764    4.3351764    4.3351764   -11891.707   -25666.427   -6997.6038   -3011.0898    4521.2435   -6045.3116    2424.6807    81.474238 
   18800    554.89401   -104.47634   0.50207976   -103.97426    7665.8577     4.338289     4.338289     4.338289    7665.8577    -35277.77     7612.936    50662.408   -7453.0904    1053.1188    2657.4479    81.649861 
   18900     1045.069   -104.91443   0.94560038   -103.96883   -6559.6821    4.3348917    4.3348917    4.3348917   -6559.6821   -10729.023   -11687.604    2737.5805   -424.17143    -10100.27    2081.3288    81.458192 
   19000    569.22535   -104.48944   0.51504706   -103.97439   -293.11368    4.3358336    4.3358336    4.3358336   -293.11368   -9246.2384   -1216.9988    9583.8961     4754.009    6009.9964    2015.6174    81.511298 
   19100    859.09693   -104.74653   0.77732895   -103.96921   -263.90997    4.3366976    4.3366976    4.3366976   -263.90997    6979.1338    -11538.82    3767.9567   -5638.7383    4206.2814   -1683.6128    81.560039 
   19200    761.47295   -104.65743   0.68899672   -103.96844   -4029.9982    4.3378891    4.3378891    4.3378891   -4029.9982   -10001.909   -7611.1277    5523.0417     11179.74   -5323.1737   -1656.3077     81.62728 
   19300    919.55808   -104.79953   0.83203547   -103.96749   -9997.7374    4.3358041    4.3358041    4.3358041   -9997.7374    -28739.15      4916.38   -6170.4425   -2593.0436    -3495.272   -648.96439    81.509636 
   19400    951.03694   -104.83055   0.86051821   -103.97003   -10976.372    4.3388769    4.3388769    4.3388769   -10976.372   -3920.4606   -22058.347   -6950.3072    2067.4893   -2693.8928    1113.3599     81.68306 
   19500     639.0967   -104.55463   0.57826813   -103.97636     10842.88    4.3313629    4.3313629    4.3313629     10842.88    27230.174    4856.7293     441.7371    3919.8322    11351.164   -454.13378     81.25942 
   19600    766.46854    -104.6688   0.69351684   -103.97528   -2776.8323    4.3408046    4.3408046    4.3408046   -2776.8323    9902.6996   -18715.804    482.60771    2946.0972    13759.555   -1476.7036    81.791978 
   19700    683.01873   -104.58698    0.6180097   -103.96897    3872.4268    4.3370464    4.3370464    4.3370464    3872.4268    16524.947   -22148.172    17240.505   -1391.5088   -155.31546  -0.58121926     81.57972 
   19800    948.67142   -104.81786   0.85837783   -103.95949   -4360.6268    4.3325467    4.3325467    4.3325467   -4360.6268   -16159.611    4526.1896    -1448.459   -10143.671   -261.93928    4609.9365    81.326065 
   19900    901.70807    -104.7761   0.81588441   -103.96022   -8786.1468    4.3436473    4.3436473    4.3436473   -8786.1468     21311.45   -23373.382   -24296.508    3027.9714    567.92085   -1679.1552    81.952773 
   20000    606.56119   -104.51051   0.54882931   -103.96168     11922.35    4.3335187    4.3335187    4.3335187     11922.35    4294.7199    1229.5862    30242.743   -3489.4531    -1026.416   -4195.6466    81.380813 
   20100    785.47744   -104.67956    0.7107165   -103.96884    1945.0311     4.335209     4.335209     4.335209    1945.0311    10109.056    12991.666    -17265.63     -7784.46    5884.1267   -2653.0026    81.476077 
   20200    929.50535   -104.81216   0.84103597   -103.97113   -5902.5406    4.3374991    4.3374991    4.3374991   -5902.5406   -14976.791    -30407.69    27676.859     9340.965   -9840.9549   -5052.1707    81.605265 
   20300    794.67548   -104.69119   0.71903907   -103.97215   -5282.1798    4.3336378    4.3336378    4.3336378   -5282.1798    14672.854   -1222.0248   -29297.368   -6478.9076   -1305.3813   -1116.2287    81.387521 
   20400    690.70953   -104.59644    0.6249685   -103.97147    4354.4116    4.3401436    4.3401436    4.3401436    4354.4116    18445.884   -21026.468     15643.82    7258.2187    1334.6273   -15144.187    81.754619 
   20500    949.95912   -104.82238   0.85954298   -103.96284   -7437.7992    4.3365788    4.3365788    4.3365788   -7437.7992   -7261.1238   -19733.578     4681.304    326.91065    9558.2778    9396.9997    81.553335 
   20600    513.56065   -104.42911   0.46468047   -103.96443    7879.0457    4.3396286    4.3396286    4.3396286    7879.0457    19318.248   -7353.1618    11672.051   -236.74514    960.04132   -21789.838    81.725517 
   20700    1157.5023   -105.00553    1.0473324    -103.9582   -9843.5783    4.3329797    4.3329797    4.3329797   -9843.5783   -12740.646   -4064.1046   -12725.984    -3018.118   -2146.1168    4251.1782    81.350453 
   20800    559.60103   -104.48151   0.50633878   -103.97517   -4574.7435    4.3389402    4.3389402    4.3389402   -4574.7435    1709.3576   -5287.5022   -10146.086   -10045.387    10418.813   -9541.0193    81.686633 
   20900    852.49516   -104.74152   0.77135554   -103.97017    373.03755    4.3356114    4.3356114    4.3356114    373.03755    4254.4679   -5975.3948    2840.0396   -2134.7306    6649.2759   -3594.4684    81.498771 
   21000    735.14561   -104.63347    0.6651752   -103.96829   -2834.9548    4.3394943    4.3394943    4.3394943   -2834.9548     1905.399   -15641.027    5230.7637   -802.73302    15.750218   -4992.6714     81.71793 
   21100    715.30142   -104.60703   0.64721976   -103.95981   -17073.989    4.3432472    4.3432472    4.3432472   -17073.989   -30796.952    3695.3218   -24120.335    577.72812   -178.05275   -17273.585    81.930132 
   21200    1241.7931   -105.07748    1.1236005   -103.95388     -4549.44    4.3251176    4.3251176    4.3251176     -4549.44   -2773.4947    3698.7591   -14573.584   -4075.4606   -7739.5039    11879.996     80.90843 
   21300    638.14462   -104.55038   0.57740666   -103.97298   -13507.884    4.3405511    4.3405511    4.3405511   -13507.884   -21157.191   -6250.1453   -13116.315   -6024.4041    3550.1724   -12431.861    81.777651 
   21400    841.06136   -104.72953   0.76100999   -103.96852   -171.99556      4.33915      4.33915      4.33915   -171.99556   -17867.637    38324.168   -20972.517    9326.0388   -3096.7458    3034.6339    81.698482 
   21500    626.64345   -104.53458   0.56700016   -103.96758    8016.8816    4.3358091    4.3358091    4.3358091    8016.8816    5395.2701    6520.2553    12135.119    2214.9476    9418.1574   -11900.993     81.50992 
   21600    839.70636    -104.7246   0.75978396   -103.96481   -7110.4509    4.3404791    4.3404791    4.3404791   -7110.4509    3099.8132    45.901527   -24477.067   -3377.2342    561.43066   -2075.7597     81.77358 
   21700    825.49103   -104.70685   0.74692163   -103.95993    2234.1441    4.3393562    4.3393562    4.3393562    2234.1441   -1543.1223    6632.7429    1612.8116   -9913.8809   -469.74595    -648.2221     81.71013 
   21800    457.57004   -104.37712   0.41401899    -103.9631    13189.817      4.33326      4.33326      4.33326    13189.817   -2319.7237    28899.948    12989.226   -10274.056   -351.38438   -17782.515    81.366241 
   21900    1094.0787    -104.9512   0.98994542   -103.96125   -6345.2848    4.3374273    4.3374273    4.3374273   -6345.2848   -17872.743   -3874.2151    2711.1041   -3071.9803   -5706.0901   -2345.1747    81.601214 
   22000    844.56456   -104.73338   0.76417976    -103.9692   -12046.253    4.3419007    4.3419007    4.3419007   -12046.253   -33295.343    16026.857   -18870.274    5064.4119    9745.3654    7885.1318    81.853955 
   22100     739.0895   -104.63899   0.66874371   -103.97024    2322.9689    4.3318384    4.3318384    4.3318384    2322.9689   -19752.771    17904.709    8816.9685   -1484.7297   -1500.9439    1573.7688    81.286188 
   22200    993.93416   -104.87006   0.89933252   -103.97073   -4922.4192     4.338359     4.338359     4.338359   -4922.4192   -27309.983    13524.677   -981.95116    1250.6941    4757.7214   -2705.7502    81.653812 
   22300    729.88405   -104.63205   0.66041443   -103.97164   -8456.8879    4.3407208    4.3407208    4.3407208   -8456.8879   -39596.648    10311.796    3914.1884   -593.21032    6083.4473    1661.7393    81.787242 
   22400    894.79303    -104.7751   0.80962754   -103.96547     8325.639    4.3344633    4.3344633    4.3344633     8325.639   -18601.315     30663.22    12915.011     2223.561   -6936.2998    7306.0989    81.434039 
   22500    834.53928    -104.7205   0.75510868    -103.9654   -17325.701    4.3433141    4.3433141    4.3433141   -17325.701   -42060.006      9039.04   -18956.136    4926.9761    17752.838   -9182.5272    81.933918 
   22600    653.42051   -104.55717   0.59122861   -103.96594    16623.845    4.3295234    4.3295234    4.3295234    16623.845   -14795.738    56282.144    8385.1298   -5528.4341   -884.41834    2395.5151    81.155934 
   22700    1072.8569   -104.94113   0.97074347   -103.97039   -17570.395    4.3416067    4.3416067    4.3416067   -17570.395   -29071.331   -6679.6278   -16960.225   -4836.9996    16056.847   -7243.6194    81.837327 
   22800    633.37531   -104.54877   0.57309129   -103.97568    7038.7971    4.3343552    4.3343552    4.3343552    7038.7971   -17303.995    38054.451    365.93484   -671.68858    6047.8534    178.97777    81.427952 
   22900    577.62748   -104.50265   0.52264948      -103.98    14836.059    4.3331805    4.3331805    4.3331805    14836.059   -2944.6667    44095.514    3357.3296    10082.642   -3209.8088   -6755.6584    81.361763 
   23000    884.33662   -104.77544   0.80016635   -103.97528   -14267.192    4.3434068    4.3434068    4.3434068   -14267.192   -19216.229   -7977.3305   -15608.016    3811.1178    7116.4972    6216.6289    81.939162 
   23100    819.62958   -104.71111   0.74161806   -103.96949    10630.062    4.3275707    4.3275707    4.3275707    10630.062     4478.875    28146.924   -735.61297   -12231.973   -4971.3384   -5130.2957    81.046173 
   23200     575.9743   -104.49457   0.52115365   -103.97342     5117.993    4.3386258    4.3386258    4.3386258     5117.993   -21462.346    63499.294   -26682.968    -9082.962    11330.747    8074.8885     81.66888 
   23300    986.02775    -104.8604   0.89217863   -103.96822   -7021.8408    4.3379419    4.3379419    4.3379419   -7021.8408   -21618.367   -6901.6113    7454.4561    -5291.216    950.56708    6968.8835    81.630262 
   23400     939.6522   -104.82221   0.85021705     -103.972     -15665.2    4.3352616    4.3352616    4.3352616     -15665.2    -26737.29    5986.2732   -26244.584    8835.1356    12834.122   -6731.6168    81.479045 
   23500    675.70688   -104.58576   0.61139379   -103.97437    17253.447    4.3313413    4.3313413    4.3313413    17253.447   -28686.466    59876.527     20570.28    1513.1774   -4133.3982   -7323.7001    81.258206 
   23600    635.62234   -104.55711   0.57512445   -103.98199    1154.7975    4.3335025    4.3335025    4.3335025    1154.7975   -17941.958    37474.927   -16068.577   -4394.4269    4541.4401    757.40712    81.379903 
   23700    1083.5189   -104.95822   0.98039066   -103.97783   -23934.344    4.3390027    4.3390027    4.3390027   -23934.344   -38867.164   -2618.4073   -30317.461    922.68113    6933.4416    805.84415    81.690162 
   23800    671.19232   -104.58102   0.60730891   -103.97371    22137.086    4.3291525    4.3291525    4.3291525    22137.086   -3941.1811    50737.735    19614.704    2513.4179   -1408.1098   -5381.5717    81.135078 
   23900    769.75785   -104.67407   0.69649308   -103.97758    -23845.21      4.33963      4.33963      4.33963    -23845.21   -22852.926   -227.71543   -48454.989    2732.4136    11758.844    3526.2442      81.7256 
   24000    727.38887   -104.62932   0.65815674   -103.97116    16321.199    4.3340512    4.3340512    4.3340512    16321.199   -10918.157    45363.028    14518.727   -9806.1548   -4049.7668    8078.6201    81.410819 
   24100    764.03253   -104.66557   0.69131269   -103.97425   -2981.5248    4.3338555    4.3338555    4.3338555   -2981.5248   -10574.207     14010.24   -12380.608   -7565.5354    9219.6812   -12934.375    81.399791 
   24200    861.35134   -104.74843   0.77936879   -103.96906   -7841.3628    4.3409608    4.3409608    4.3409608   -7841.3628   -23265.267    29564.147   -29822.968    8849.8627   -256.33074    15119.235    81.800808 
   24300    610.00121   -104.52019   0.55194192   -103.96825    27918.077    4.3238661    4.3238661    4.3238661    27918.077    151.11254    78885.526    4717.5924    3841.9545    3099.2339   -9863.0722    80.838214 
   24400     888.6858   -104.78422   0.80410159   -103.98012   -26820.235    4.3394742    4.3394742    4.3394742   -26820.235   -20179.929   -30897.757   -29383.018   -6224.4511    9103.2016   -4469.3765    81.716795 
   24500    907.46361   -104.79594   0.82109214   -103.97485    3178.5143    4.3354348    4.3354348    4.3354348    3178.5143   -24085.832    44310.917   -10689.542    2533.5028   -922.01356   -4366.2645     81.48881 
   24600     647.6479   -104.56315   0.58600543   -103.97715    3742.0077    4.3300214    4.3300214    4.3300214    3742.0077    -9768.933    30909.031   -9914.0745    1727.3984    8386.8357   -3842.1219    81.183942 
   24700     1015.189   -104.88985   0.91856434   -103.97129   -11260.026    4.3392425    4.3392425    4.3392425   -11260.026   -26081.549    6912.0799   -14610.609    6766.5782     -3956.91   -9321.8725    81.703709 
   24800    798.76382   -104.69111   0.72273829   -103.96837    5174.1556    4.3309136    4.3309136    4.3309136    5174.1556   -8354.6035    35068.301   -11191.231   -697.46132    6040.7414    -453.6948    81.234133 
   24900     659.9474   -104.57026   0.59713428   -103.97313   -1225.7555    4.3350446    4.3350446    4.3350446   -1225.7555   -17615.665    14545.042   -606.64421   -9913.2884     2294.276    2744.5605    81.466809 
   25000    872.36847   -104.76009   0.78933733   -103.97075   -1005.4489    4.3346143    4.3346143    4.3346143   -1005.4489   -8789.1326    29750.314   -23977.528   -2431.1284    9502.3365    12073.351     81.44255 
   25100    835.05109   -104.72819   0.75557178   -103.97262    -7608.282    4.3327166    4.3327166    4.3327166    -7608.282   -16833.473   -17891.025    11899.652   -4370.6998    5721.0875   -9863.5273    81.335634 
   25200    597.47402   -104.51223   0.54060705   -103.97162    12714.309    4.3320214    4.3320214    4.3320214    12714.309    -11188.99    79708.387    -30376.47    6496.7609   -667.67143    3812.5679    81.296485 
   25300    808.81672   -104.70527   0.73183437   -103.97343    624.47057    4.3330758    4.3330758    4.3330758    624.47057   -18953.789    16665.644    4161.5569   -5907.1646    7231.4837    3346.6062    81.355863 
   25400    797.73403   -104.69256   0.72180652   -103.97076    2708.5778    4.3320325    4.3320325    4.3320325    2708.5778   -12942.066    36505.767   -15437.968    2871.6799   -8760.7172   -3103.2204    81.297114 
   25500    886.74262    -104.7711   0.80234336   -103.96876   -8369.0337    4.3315755    4.3315755    4.3315755   -8369.0337   -35150.911     14643.06   -4599.2496   -1991.7066    7791.6797   -1824.4506    81.271387 
   25600    642.52058   -104.55013   0.58136612   -103.96876    11468.124    4.3350305    4.3350305    4.3350305    11468.124   -10990.322    63868.616   -18473.921    4376.5989    57.136467    5910.3077    81.466017 
   25700    1125.0609   -104.98533    1.0179788   -103.96736   -26128.126    4.3338409    4.3338409    4.3338409   -26128.126   -34999.022   -6227.5818   -37157.774    1916.6156    3654.1933   -14134.077    81.398966 
   25800    752.32005    -104.6497   0.68071499   -103.96898    20689.514    4.3268035    4.3268035    4.3268035    20689.514   -6915.5914    62113.441    6870.6923   -1661.4629    5332.2567    16881.856     81.00308 
   25900    762.64968   -104.66203   0.69006146   -103.97197   -20111.946    4.3406828    4.3406828    4.3406828   -20111.946    -20042.66   -7239.3287    -33053.85    3801.7455   -4786.7157   -18942.833    81.785095 
   26000    650.36999   -104.55617   0.58846844    -103.9677    18220.256    4.3281691    4.3281691    4.3281691    18220.256   -2000.1495    42335.368    14325.549   -5157.9429    4349.2499    8066.7621    81.079801 
   26100    1013.8502   -104.88691   0.91735294   -103.96956   -8745.3223    4.3361201    4.3361201    4.3361201   -8745.3223   -11623.524    16096.707    -30709.15    12869.207   -6928.0769   -2827.6923    81.527459 
   26200     635.9889   -104.55238   0.57545612   -103.97692    11150.146     4.333214     4.333214     4.333214    11150.146    -1907.459    24615.519    10742.377    4474.3864    11700.677   -4254.4969    81.363646 
   26300    845.92084   -104.74002   0.76540695   -103.97461   -2735.0149    4.3365684    4.3365684    4.3365684   -2735.0149   -7066.6166     22586.14   -23724.568   -3184.0327    6101.8379   -3924.4339    81.552747 
   26400    610.00091   -104.52541   0.55194165   -103.97346     12487.13    4.3257748    4.3257748    4.3257748     12487.13   -7510.7336    9899.7552    35072.368   -1219.8384    7255.1946    3054.0512    80.945317 
   26500    882.84294   -104.77292   0.79881485    -103.9741   -3855.3197    4.3407786    4.3407786    4.3407786   -3855.3197    -27989.63    36603.166   -20179.495   -3112.0645    10716.407   -5354.3478    81.790511 
   26600    930.58346   -104.80733   0.84201147   -103.96532   -5024.4719    4.3342703    4.3342703    4.3342703   -5024.4719   -25280.443    13166.931   -2959.9033    513.44964   -6035.7353    4462.8516    81.423162 
   26700    1008.8327   -104.87646   0.91281307   -103.96365   -6039.4768    4.3218259    4.3218259    4.3218259   -6039.4768   -9211.4717    6709.0499   -15616.009   -169.86443    10328.016   -13260.114    80.723838 
   26800    827.95556   -104.72592   0.74915159   -103.97677   -11944.416    4.3457735    4.3457735    4.3457735   -11944.416   -39189.282    18683.919   -15327.884    1735.4054   -9102.6218     552.2715    82.073181 
   26900    554.70922    -104.4809   0.50191256   -103.97898    14719.125     4.329165     4.329165     4.329165    14719.125    2578.2385    39535.482    2043.6533   -2796.1963    12389.138    4764.2111    81.135782 
   27000    737.96016   -104.64597   0.66772186   -103.97825    13380.712    4.3279635    4.3279635    4.3279635    13380.712    9403.8904    30495.501    242.74563    13724.748    5449.1746   -8863.2311    81.068247 
   27100    968.24583   -104.85197   0.87608918   -103.97588   -10230.719    4.3387397    4.3387397    4.3387397   -10230.719   -7604.2344   -12190.221   -10897.701   -3576.6876    1141.4442    11334.923    81.675307 
   27200    505.70428   -104.43243   0.45757186   -103.97485    82.742071    4.3380825    4.3380825    4.3380825    82.742071   -9999.4459    42227.646   -31979.974    192.41755    840.56304   -4709.6239    81.638202 
   27300    1183.4262   -105.03674    1.0707889   -103.96595   -6933.1589    4.3232873    4.3232873    4.3232873   -6933.1589   -17113.053    2038.1621   -5724.5864   -7551.8674   -10362.864    2920.0528    80.805753 
   27400    628.95918   -104.54442   0.56909548   -103.97532    27.646448    4.3379985    4.3379985    4.3379985    27.646448   -12303.635    20546.771   -8160.1965   -2772.4541    11157.885   -9298.4156    81.633456 
   27500    672.47606   -104.57215   0.60847047   -103.96368   -6127.6405     4.343117     4.343117     4.343117   -6127.6405   -9705.3778    4454.6275   -13132.171    2596.8518    -4827.896   -5076.2533    81.922765 
   27600    979.07133   -104.83891   0.88588431   -103.95302    13601.015    4.3157319    4.3157319    4.3157319    13601.015    5811.8079    28559.734     6431.504   -1674.8896    5073.6015   -6159.5518    80.382846 
   27700    655.64854   -104.56366   0.59324458   -103.97041   -5701.0524    4.3431183    4.3431183    4.3431183   -5701.0524   -1107.8233    9840.0084   -25835.342     850.2847   -61.695115   -5961.8128    81.922838 
   27800    959.27713   -104.83328    0.8679741    -103.9653   -8591.6238    4.3354224    4.3354224    4.3354224   -8591.6238   -36656.476    2669.8946    8211.7101    4155.7259   -5512.6822   -5639.5723    81.488113 
   27900     752.7498   -104.65049   0.68110384   -103.96938    16330.024    4.3188777    4.3188777    4.3188777    16330.024    38631.077    4796.3549    5562.6411     5933.516    12387.609    -1643.954    80.558752 
   28000    794.92689   -104.69644   0.71926656   -103.97717   -77.340827    4.3435105    4.3435105    4.3435105   -77.340827   -22369.273    23359.213    -1221.962    2400.1123   -4180.3439   -578.28396    81.945032 
   28100    926.82242   -104.80802    0.8386084   -103.96942   -2357.9182    4.3359448    4.3359448    4.3359448   -2357.9182    3929.2626   -5321.6699   -5681.3471    6332.1451   -5091.4062    5072.6637    81.517574 
   28200    641.68155   -104.54331   0.58060695   -103.96271    25233.081    4.3231338    4.3231338    4.3231338    25233.081    3951.1652    38490.045    33258.034    -4960.201    11151.295   -3999.6124    80.797147 
   28300    1003.4847   -104.87342   0.90797403   -103.96544   -11892.547    4.3365862    4.3365862    4.3365862   -11892.547   -17273.902   -17273.206   -1130.5344    6626.8824   -6269.1122   -3971.6078    81.553753 
   28400     649.3464   -104.56015   0.58754226   -103.97261    16039.983    4.3354867    4.3354867    4.3354867    16039.983    6768.6818    23539.204    17812.064   -339.76555    17339.807   -7733.4048     81.49174 
   28500    965.22352   -104.84546   0.87335453   -103.97211   -8728.1273    4.3322746    4.3322746    4.3322746   -8728.1273   -12401.463   -7762.6432   -6020.2756   -5298.8692   -12850.065    8120.0415    81.310744 
   28600    613.93272   -104.52712   0.55549923   -103.97162     16846.18    4.3248897    4.3248897    4.3248897     16846.18    14170.305   -5385.2245    41753.462   -2064.5321    10072.627    -8892.854    80.895636 
   28700     960.8171   -104.84035   0.86936751   -103.97098   -9359.3359    4.3425504    4.3425504    4.3425504   -9359.3359   -13213.444    4484.6379   -19349.202   -5641.9157    556.48125    2995.6345    81.890704 
   28800    742.61163   -104.63852   0.67193061   -103.96659    3608.0013    4.3345228    4.3345228    4.3345228    3608.0013    7947.1851   -10867.775    13744.594    846.54985   -6127.8006   -7565.8003    81.437393 
   28900    852.84616   -104.73277   0.77167313   -103.96109    22398.917    4.3178628    4.3178628    4.3178628    22398.917    6789.5622    58543.462    1863.7281     1492.973    10297.744    6094.2355    80.501973 
   29000    697.38449   -104.59551   0.63100814   -103.96451   -25314.418    4.3496261    4.3496261    4.3496261   -25314.418   -17928.138   -50014.596   -8000.5182   -5434.3476   -8022.1918   -13717.757    82.291649 
   29100    880.45061   -104.75525   0.79665021    -103.9586    14917.895    4.3172541    4.3172541    4.3172541    14917.895    13262.106    46413.124   -14921.543    -1672.495    9454.7204    3103.8835    80.467928 
   29200     875.2897   -104.76209   0.79198052   -103.97011   -9360.4255     4.329801     4.329801     4.329801   -9360.4255   -14557.064   -5157.7624   -8366.4498     1900.787    4223.2191    -15094.61    81.171547 
   29300     552.3938   -104.46334   0.49981752   -103.96352   -7824.8358     4.342291     4.342291     4.342291   -7824.8358     3244.472   -6250.1154   -20468.864   -7902.7152   -5564.0527   -5054.4743    81.876031 
   29400    906.11916    -104.7738   0.81987566   -103.95392    3278.9237     4.324839     4.324839     4.324839    3278.9237   -5792.1085    29971.247   -14342.367    8213.4742    10354.936     848.5936    80.892794 
   29500    807.19108   -104.69143   0.73036345   -103.96106   -5407.4395    4.3356867    4.3356867    4.3356867   -5407.4395   -2685.1004    -4419.447    -9117.771   -11903.097   -4787.0432   -20265.886    81.503015 
   29600    729.75174   -104.62312   0.66029471   -103.96283    9813.1138    4.3297394    4.3297394    4.3297394    9813.1138   -16934.191    69659.693   -23286.161    3279.6472    11832.796    6081.4923    81.168081 
   29700    858.42563   -104.74322   0.77672155    -103.9665   -13807.039    4.3342449    4.3342449    4.3342449   -13807.039   -12946.528   -22955.433   -5519.1569   -3749.9589    434.50181   -4041.7934    81.421735 
   29800    724.69094   -104.62441   0.65571559    -103.9687    2554.7539    4.3286831    4.3286831    4.3286831    2554.7539    -1461.911    23278.869   -14152.696    4622.8651   -1676.0368     -4235.86    81.108688 
   29900    811.35789   -104.70441   0.73413367   -103.97027   -926.17954    4.3294189    4.3294189    4.3294189   -926.17954   -19853.063    35559.206   -18484.681   -13627.542    10593.239   -3070.1809    81.150058 
   30000    795.52171   -104.69013   0.71980476   -103.97032   -380.74525    4.3282918    4.3282918    4.3282918   -380.74525    9948.6955   -4315.7862   -6775.1451    11108.085   -5965.1919   -12368.571    81.086697 
   30100    702.95313   -104.60908   0.63604676   -103.97304   -5765.5406     4.334997     4.334997     4.334997   -5765.5406   -34697.125     46793.83   -29393.327   -1957.1465    13535.193    3812.7859    81.464125 
   30200    978.38441   -104.85241   0.88526278   -103.96715   -2415.1315    4.3320614    4.3320614    4.3320614   -2415.1315   -7773.0407    13095.082   -12567.435    8918.3044   -4586.7725   -10222.526     81.29874 
   30300    708.87637   -104.61022   0.64140624   -103.96882   -2430.5249    4.3304146    4.3304146    4.3304146   -2430.5249   -9890.2661    8733.6311   -6134.9397   -9911.5198    6270.2877    -832.6173    81.206057 
   30400    760.75914    -104.6578   0.68835086   -103.96945   -13268.297     4.334966     4.334966     4.334966   -13268.297   -18270.761   -450.48049   -21083.649    5265.7012    4733.3756    4496.9208     81.46238 
   30500     843.2538   -104.73242   0.76299376   -103.96942     130.1999    4.3295083    4.3295083    4.3295083     130.1999    2325.8452   -12508.597    10573.352   -4140.2484    -8720.245   -7766.7693    81.155086 
   30600    698.46055   -104.60442   0.63198178   -103.97243   -8172.2747    4.3333674    4.3333674    4.3333674   -8172.2747   -28626.193    19823.647   -15714.277   -149.15796    16853.526    7929.9948    81.372289 
   30700    951.48092    -104.8298   0.86091993   -103.96888   -1907.1888    4.3322803    4.3322803    4.3322803   -1907.1888   -14166.899    7176.7391    1268.5936    -13606.24   -4535.5869   -14541.658    81.311065 
   30800    697.40917   -104.60256   0.63103047   -103.97153   -8482.6789    4.3323253    4.3323253    4.3323253   -8482.6789    5416.3374   -8522.8302   -22341.544   -3781.0385    1413.7762    684.46484    81.313597 
   30900     593.5148   -104.51154   0.53702467   -103.97451    14333.266    4.3284689    4.3284689    4.3284689    14333.266    16458.434    26553.456   -12.092405   -469.30912    5061.5303   -6897.9402    81.096649 
   31000    1023.4876    -104.8995   0.92607307   -103.97342   -13474.847     4.331671     4.331671     4.331671   -13474.847   -18121.777   -20699.852   -1602.9107    4769.0278    -9279.978   -4112.5226    81.276762 
   31100    594.34103   -104.51391   0.53777225   -103.97614    492.97594    4.3268443    4.3268443    4.3268443    492.97594   -14285.649    5057.4186    10707.158   -1606.1965    21134.543    2685.2033     81.00537 
   31200    921.63337   -104.80462   0.83391324    -103.9707   -6391.2274    4.3338628    4.3338628    4.3338628   -6391.2274   -3587.7043   -6783.8692   -8802.1085    5998.6383   -16343.213   -3257.3017    81.400198 
   31300    746.38489   -104.64504   0.67534473   -103.96969    5721.6337    4.3262533    4.3262533    4.3262533    5721.6337     13406.03    12708.118   -8949.2469   -6232.8184    364.97864    5098.5304    80.972181 
   31400    684.40727   -104.59424   0.61926608   -103.97498   -362.90973    4.3317747    4.3317747    4.3317747   -362.90973   -3019.9166   -602.86644    2534.0538    4861.7878    11129.397    2820.3115    81.282602 
   31500    1026.6725    -104.8965   0.92895488   -103.96754   -11654.639    4.3331875    4.3331875    4.3331875   -11654.639   -14675.081    1092.4191   -21381.255   -4616.5116    -12863.94    3795.0961    81.362156 
   31600    620.87071   -104.53205   0.56177686   -103.97027    8804.9478    4.3239111    4.3239111    4.3239111    8804.9478    10936.247      1999.88    13478.716   -541.73714    8806.1886   -3356.0967    80.840737 
   31700    1014.1289    -104.8887   0.91760518   -103.97109      967.745    4.3305575    4.3305575    4.3305575      967.745    14611.336   -7073.9517   -4634.1493   -9691.8922      3531.84    3895.1548    81.214096 
   31800    651.10074   -104.56274   0.58912963   -103.97361    11319.412    4.3323457    4.3323457    4.3323457    11319.412    11454.164    7568.3223    14935.751   -8696.4121   -5886.3762   -3731.1301    81.314748 
   31900    969.76317   -104.85142   0.87746209   -103.97396   -12378.531    4.3270993    4.3270993    4.3270993   -12378.531   -14561.101   -20874.353    -1700.138   -6296.8089    13814.087    5265.2518    81.019693 
   32000    929.80049    -104.8212   0.84130302    -103.9799    9035.2496    4.3284122    4.3284122    4.3284122    9035.2496   -1789.0824    18852.237    10042.594    3949.1781   -17002.339   -4231.0624    81.093461 
   32100    657.94241   -104.57858   0.59532011   -103.98326   -10439.723    4.3409358    4.3409358    4.3409358   -10439.723   -8797.6217   -11480.086   -11041.463   -2107.8375    9422.3496   -5446.7684    81.799395 
   32200    853.82794   -104.74683   0.77256147   -103.97426    11820.233    4.3222063    4.3222063    4.3222063    11820.233    28639.517   -8770.2394    15591.421    6094.1723     1416.156    11033.197    80.745155 
   32300    681.07312   -104.59369   0.61624927   -103.97744   -1005.0455    4.3298969    4.3298969    4.3298969   -1005.0455   -18438.691    7493.7022    7929.8526   -8463.0633   -8658.5178   -5324.4733    81.176938 
   32400    940.76939   -104.82572   0.85122792   -103.97449    -10805.06    4.3285115    4.3285115    4.3285115    -10805.06    -24979.87   -9988.9929    2553.6844    1472.0727    8012.3868    10420.404     81.09904 
   32500    866.44243   -104.75371   0.78397532   -103.96973   -5679.1054    4.3285535    4.3285535    4.3285535   -5679.1054   -11886.677   -1388.5398   -3762.0994   -2144.7609   -9590.3195   -1162.9372    81.101406 
   32600    745.60614   -104.64439    0.6746401   -103.96975   -2690.7245    4.3240912    4.3240912    4.3240912   -2690.7245    1353.0667    337.79009   -9763.0304   -6509.5883    10739.858     2654.222    80.850838 
   32700    655.32518   -104.56478   0.59295199   -103.97183    6445.9863    4.3288565    4.3288565    4.3288565    6445.9863    18588.279   -5511.2769    6260.9573   -4323.6092     5775.439    6005.9432    81.118434 
   32800    830.01073   -104.71963   0.75101115   -103.96862    -6199.585    4.3328985    4.3328985    4.3328985    -6199.585   -5095.8468    6400.7199   -19903.628   -13871.472   -10409.654    1520.2915    81.345877 
   32900     759.6286   -104.65497   0.68732792   -103.96764    48.452522    4.3257766    4.3257766    4.3257766    48.452522   -12591.404   -6294.0718    19030.833   -1880.9423    2471.1043   -7206.1934    80.945414 
   33000    845.97173   -104.73436     0.765453   -103.96891   -875.74701    4.3282153    4.3282153    4.3282153   -875.74701    -4424.721    17087.047   -15289.567   -6025.9311   -5903.3397    8793.9903    81.082395 
   33100     879.0928   -104.76616   0.79542164   -103.97074    2631.4804    4.3272908    4.3272908    4.3272908    2631.4804   -5573.5253   -5058.9953    18526.962   -2084.4461   -4614.6127   -10403.691    81.030449 
   33200    741.37834    -104.6438    0.6708147   -103.97299    6257.8615    4.3243728    4.3243728    4.3243728    6257.8615    23688.345    12597.051   -17511.811    7632.2627    391.43507    15043.702    80.866635 
   33300     703.4821   -104.60842   0.63652539    -103.9719    11030.803    4.3256746    4.3256746    4.3256746    11030.803    9009.0178      22282.9    1800.4902   -2137.1161   -11703.189   -3841.5658    80.939691 
   33400    856.02763   -104.74809   0.77455179   -103.97354   -8553.6335    4.3309794    4.3309794    4.3309794   -8553.6335   -3791.2469   -10114.879   -11754.775   -4239.7182    11219.603    5065.2476    81.237836 
   33500    985.43237   -104.85901   0.89163991   -103.96737   -7592.0858    4.3269336    4.3269336    4.3269336   -7592.0858   -19282.094   -2045.9594    -1448.204     3058.942    580.30297    17442.043    81.010385 
   33600    792.30102   -104.68242   0.71689061   -103.96553    15678.693    4.3212852    4.3212852    4.3212852    15678.693   -7629.6427    23629.986    31035.737   -7659.4827    996.32826   -18130.066    80.693546 
   33700    829.84943   -104.71939    0.7508652   -103.96852   -17836.415    4.3364289    4.3364289    4.3364289   -17836.415    2129.7293   -24992.045   -30646.929    1299.1634    8349.9242    19687.932    81.544876 
   33800    772.84878   -104.66477   0.69928982   -103.96548    26352.521    4.3213173    4.3213173    4.3213173    26352.521    14270.822     22375.79     42410.95   -5092.0865    274.64772   -13777.201     80.69534 
   33900    822.47115   -104.71439   0.74418918    -103.9702    1058.2658    4.3220533    4.3220533    4.3220533    1058.2658    15484.094    3443.0368   -15752.334   -47.892411    2309.6616    671.03756    80.736582 
   34000    636.06572    -104.5457   0.57552563   -103.97017   -4494.6376    4.3333969    4.3333969    4.3333969   -4494.6376   -8570.8945   -5424.7239    511.70557    2467.2037    1175.6724    11297.295    81.373951 
   34100     960.9655   -104.83526   0.86950178   -103.96576    7028.9453    4.3219913    4.3219913    4.3219913    7028.9453   -4646.5603    17505.083    8228.3131    1473.8089   -803.69284   -12897.177    80.733104 
   34200    776.77768   -104.67708   0.70284477   -103.97423   -9730.7234    4.3268788    4.3268788    4.3268788   -9730.7234   -14402.435   -24281.463    9491.7276   -4122.5914    5167.0338    16332.876    81.007309 
   34300    1005.1262   -104.88226   0.90945927    -103.9728   -107.02376    4.3272552    4.3272552    4.3272552   -107.02376   -18180.598    10412.201    7447.3255    4678.4179   -9533.3093    6806.3899    81.028448 
   34400    528.50567   -104.45951   0.47820304   -103.98131   -7401.6787    4.3320079    4.3320079    4.3320079   -7401.6787    9891.8024   -28938.316   -3158.5229   -5865.0994    4106.2402   -12217.896    81.295727 
   34500    891.37278   -104.78316   0.80653283   -103.97662   -4827.0662    4.3213021    4.3213021    4.3213021   -4827.0662    6880.6837   -3344.5066   -18017.376    1424.1028    9721.1829    18275.144    80.694489 
   34600    767.22309   -104.67083   0.69419957   -103.97663    13779.848    4.3242219    4.3242219    4.3242219    13779.848    15416.912   -1702.8047    27625.437     62.03801   -2034.6168   -15550.724    80.858169 
   34700     728.0064   -104.63371   0.65871549     -103.975   -25154.344    4.3357092    4.3357092    4.3357092   -25154.344   -20395.911   -34296.547   -20770.574   -991.79512    10615.102     8485.143    81.504286 
   34800    811.81849   -104.70046   0.73455043   -103.96591    11350.224    4.3196243    4.3196243    4.3196243    11350.224    7349.5216    21591.655    5109.4959   -1529.7032   -1990.3117    7653.1408    80.600536 
   34900    867.99743   -104.75602   0.78538231   -103.97064   -12680.958    4.3269764    4.3269764    4.3269764   -12680.958     -15197.6   -20428.283    -2416.991   -611.15182    6253.2311   -8999.6807    81.012791 
   35000    776.05815   -104.67034   0.70219373   -103.96814   -11307.612    4.3310291    4.3310291    4.3310291   -11307.612   -24007.742   -7666.4508   -2248.6429    1879.6709     9894.161    16823.068    81.240637 
   35100    708.24743   -104.60802   0.64083716   -103.96718    6787.5876    4.3234033    4.3234033    4.3234033    6787.5876    13998.601    12241.759   -5877.5978   -1954.1875    5088.5585   -13403.807     80.81226 
   35200     869.2472   -104.76174   0.78651313   -103.97523   -5915.3254    4.3244122    4.3244122    4.3244122   -5915.3254   -1669.0178   -13651.391   -2425.5677    -8834.755    4378.4735    7446.7922    80.868847 
   35300    797.89029   -104.69951    0.7219479   -103.97756    11113.654    4.3293647    4.3293647    4.3293647    11113.654    8943.1745    22039.894    2357.8931      4167.65   -4281.3937    4300.1979    81.147008 
   35400    746.17375   -104.65273   0.67515369   -103.97758    12420.011    4.3245795    4.3245795    4.3245795    12420.011    6646.3082   -12512.531    43126.255   -6925.2629   -5269.4261   -5045.0502    80.878234 
   35500    935.04679   -104.82278   0.84604999   -103.97673    -6014.493    4.3240757    4.3240757    4.3240757    -6014.493   -7632.5205    14335.997   -24746.955    4221.6754    607.67278    12946.775     80.84997 
   35600    796.81059   -104.70081   0.72097097   -103.97983   -3829.9886    4.3297779    4.3297779    4.3297779   -3829.9886   -2215.9419    5100.1515   -14374.175    1662.4235   -557.73977   -4295.6919    81.170245 
   35700    770.83881   -104.67452   0.69747115   -103.97705    8238.2887    4.3271321    4.3271321    4.3271321    8238.2887    -11426.03   -7677.5054    43818.401    1235.3058   -4912.8292   -3739.4576    81.021534 
   35800    862.29111   -104.75312   0.78021911    -103.9729    7932.9839    4.3251342    4.3251342    4.3251342    7932.9839    3144.5589    4010.9181    16643.475    4562.6952    112.66992    3720.6026    80.909357 
   35900    721.97361   -104.62529   0.65325689   -103.97203    5608.5798    4.3274716    4.3274716    4.3274716    5608.5798    4810.0857   -6557.3676    18573.021    4510.5201     1352.013   -7628.7745    81.040609 
   36000    774.84186   -104.66905    0.7010932   -103.96796    4052.4572    4.3296573    4.3296573    4.3296573    4052.4572   -198.34541   -1109.6634    13465.381   -135.94571    7226.7669    947.96151     81.16346 
   36100    868.64883   -104.75323   0.78597171   -103.96726    576.90944    4.3251226    4.3251226    4.3251226    576.90944    -16861.86   -6493.4834    25086.072    5550.1201   -1698.0019    -2726.425    80.908711 
   36200    950.85679   -104.82772   0.86035521   -103.96737   -11098.292    4.3304122    4.3304122    4.3304122   -11098.292   -12921.928   -22131.691    1758.7434   -9079.1208    3333.4469   -4831.2933    81.205926 
   36300    621.09298   -104.53195   0.56197798   -103.96997    4519.0861    4.3270317    4.3270317    4.3270317    4519.0861   -14014.832    5377.4162    22194.674    6039.7207   -1683.3472    3086.3958    81.015892 
   36400    877.44161   -104.76769   0.79392761   -103.97376     -15083.6     4.328305     4.328305     4.328305     -15083.6   -21483.136   -31489.928    7722.2637   -3622.7827    2382.3297   -6621.8613    81.087437 
   36500    840.80288   -104.73384   0.76077612   -103.97306    8462.5194    4.3268709    4.3268709    4.3268709    8462.5194   -5674.3171   -31.988179    31093.864   -1446.9985   -3079.3768   -3682.9138    81.006861 
   36600    720.66721   -104.62803   0.65207483   -103.97595   -2410.0685    4.3281038    4.3281038    4.3281038   -2410.0685   -10796.574   -8113.4143    11679.783    8296.2415   -2863.7645   -2999.5105    81.076127 
   36700    632.17537    -104.5455   0.57200556   -103.97349   -4542.4831    4.3331703    4.3331703    4.3331703   -4542.4831   -5150.8856   -19497.587    11021.023   -3121.7816   -6897.8953   -6951.7574    81.361188 
   36800    840.88554   -104.73185   0.76085091   -103.97099     15143.18    4.3164386    4.3164386    4.3164386     15143.18    10430.607    17856.678    17142.256    6038.6045   -1612.3336    2700.7725    80.422339 
   36900    747.84454   -104.65798   0.67666545   -103.98131   -5965.9637    4.3347522    4.3347522    4.3347522   -5965.9637   -28944.062   -30395.332    41441.503    606.70266    4745.2072   -3402.4351    81.450327 
   37000    970.64416   -104.85178   0.87825923   -103.97352   -5585.5019     4.329089     4.329089     4.329089   -5585.5019   -10780.557   -2725.0751    -3250.874      2159.68   -4063.1707   -4177.0326    81.131507 
   37100    523.26607   -104.44918   0.47346213   -103.97571    5407.2259    4.3260861    4.3260861    4.3260861    5407.2259   -34366.035   -1728.0998    52315.813    7412.9469   -2913.8522    1405.0536    80.962793 
   37200    1108.9894   -104.97299    1.0034369   -103.96956   -7840.2866    4.3282422    4.3282422    4.3282422   -7840.2866   -5130.1597   -8752.9262    -9637.774   -6106.2064    -1129.665   -8868.9292    81.083909 
   37300    643.84597   -104.55494   0.58256536   -103.97238    13410.854    4.3319959    4.3319959    4.3319959    13410.854   -15695.647    1397.0941    54531.114     7466.779    5956.4478    159.16377    81.295053 
   37400    870.87629   -104.75401   0.78798717   -103.96602    -3831.754    4.3263485    4.3263485    4.3263485    -3831.754    7224.4789   -15214.441   -3505.3002   -2164.9488   -3772.7463   -5682.5513    80.977524 
   37500    468.38656   -104.39394   0.42380601   -103.97013    23048.006    4.3240825    4.3240825    4.3240825    23048.006    463.48993    22709.977    45970.551    11259.533    4661.3763   -9604.3381    80.850355 
   37600    1073.5936   -104.93974   0.97141006   -103.96833   -13733.894    4.3329972    4.3329972    4.3329972   -13733.894   -22812.756    -34755.59    16366.663    10494.235    3153.2783    892.73251    81.351434 
   37700    695.37027   -104.59791   0.62918564   -103.96872    22324.466    4.3212267    4.3212267    4.3212267    22324.466    -9773.801    31271.299    45475.901   -199.74558    978.28907   -11227.367    80.690268 
   37800    827.23818   -104.72003   0.74850249   -103.97153    -16385.83    4.3311806    4.3311806    4.3311806    -16385.83   -28852.697   -19861.957   -442.83711    19307.829    442.66585    1650.2883    81.249162 
   37900    832.28955   -104.71988   0.75307308   -103.96681    6323.5754    4.3282795    4.3282795    4.3282795    6323.5754   -22307.502     9494.051    31784.178   -7007.6444   -3045.1999   -2963.8542    81.086004 
   38000    834.68937   -104.72746   0.75524448   -103.97222   -4764.3895    4.3268426    4.3268426    4.3268426   -4764.3895    -13816.29   -6048.1693    5571.2904    8604.1487   -283.15669   -8751.2674    81.005272 
   38100    889.78316   -104.77619    0.8050945   -103.97109   -33.392622    4.3267466    4.3267466    4.3267466   -33.392622     -5760.97   -12858.599    18519.391    3597.3002     7880.065    -6216.395    80.999879 
   38200    528.82839   -104.45298   0.47849504   -103.97448     462.4052    4.3336852    4.3336852    4.3336852     462.4052   -2524.4605   -9483.5133    13395.189    3770.9996   -9016.7595   -2275.3868    81.390193 
   38300    807.65314   -104.70295   0.73078154   -103.97217   -4436.1815    4.3275173    4.3275173    4.3275173   -4436.1815   -8389.0072   -18891.959    13972.422    10147.345   -5089.0985    1172.4188    81.043173 
   38400    954.44739    -104.8357   0.86360405   -103.97209   -6215.1398    4.3228848    4.3228848    4.3228848   -6215.1398   -7078.5154    -23384.12    11817.216   -4015.0576     266.7637   -3318.3946    80.783189 
   38500    761.74878   -104.66887   0.68924631   -103.97962   -21199.016    4.3302459    4.3302459    4.3302459   -21199.016   -22920.874   -18483.174   -22192.999    6538.5155   -3139.6242   -9800.7699    81.196569 
   38600    808.52628   -104.70762   0.73157157   -103.97605   -4426.7686    4.3300994    4.3300994    4.3300994   -4426.7686   -20596.206   -21637.118    28953.018     2887.266    3970.7162    5899.1872    81.188331 
   38700    755.30826   -104.65695   0.68341879   -103.97353   -14556.198    4.3335495    4.3335495    4.3335495   -14556.198   -23614.638   -2247.0199   -17806.937    1341.1041    839.24275   -17153.668    81.382548 
   38800     981.2022    -104.8562   0.88781237   -103.96839    3939.7182    4.3223579    4.3223579    4.3223579    3939.7182   -3884.6497   -15544.673    31248.477    13114.478   -1421.3309    4086.2151    80.753651 
   38900    619.21262   -104.53724   0.56027659   -103.97696   -4092.8551     4.337474     4.337474     4.337474   -4092.8551    -8675.387    1707.3885   -5310.5668    1924.7883    5924.1977   -809.29485    81.603851 
   39000    797.78378   -104.69508   0.72185153   -103.97323   -3307.4487    4.3332443    4.3332443    4.3332443   -3307.4487   -5572.8578   -12014.721     7665.233    11079.454   -3102.8054    -7281.805    81.365356 
   39100    932.66793   -104.81467   0.84389754   -103.97077    9731.5648    4.3244738    4.3244738    4.3244738    9731.5648   -10945.849    409.38563    39731.158   -8996.9715   -1982.9347    3616.4956    80.872304 
   39200    708.78437   -104.62079   0.64132299   -103.97947    3781.5122    4.3284274    4.3284274    4.3284274    3781.5122   -8966.8496    13780.198    6531.1883    5657.1843   -2240.2986   -8356.5003    81.094316 
   39300    620.67457   -104.54196    0.5615994   -103.98036     9382.559    4.3355541    4.3355541    4.3355541     9382.559   -27214.144    6364.3014     48997.52   -4244.3583    9417.4722    1364.1086    81.495539 
   39400    949.76014   -104.83746   0.85936293    -103.9781   -1925.4742    4.3260569    4.3260569    4.3260569   -1925.4742   -8256.5073     5730.502   -3250.4172    2293.6929    1392.9761    1771.2395    80.961152 
   39500     857.2344    -104.7578    0.7756437   -103.98215    7531.0764    4.3258893    4.3258893    4.3258893    7531.0764   -22622.098    8409.6423    36805.685    6093.8013    1985.2381   -3389.5705    80.951745 
   39600    845.52039   -104.74364   0.76504461   -103.97859   -543.51855    4.3332569    4.3332569    4.3332569   -543.51855   -19620.045    116.69987    17872.789   -2775.6142    2108.5495    4343.6593    81.366065 
   39700    680.67069    -104.5903   0.61588514   -103.97442    -357.2397    4.3292264    4.3292264    4.3292264    -357.2397    -11491.79    9586.9006     833.1703    2104.9644   -3364.6752    1121.2795    81.139232 
   39800    927.95368   -104.80986   0.83963199   -103.97023   -12914.493    4.3321371    4.3321371    4.3321371   -12914.493   -17341.241   -26978.184    5575.9475    2877.5862    605.28597   -3742.6787    81.302999 
   39900      717.626   -104.61894   0.64932309   -103.96961    14462.089    4.3273441    4.3273441    4.3273441    14462.089   -756.02147    36209.794    7932.4944    2542.5939    1568.4255    3537.2661    81.033444 
   40000    699.95239   -104.60678   0.63333163   -103.97345   -8906.0242    4.3367531    4.3367531    4.3367531   -8906.0242   -16249.421   -14930.641    4461.9894    10377.953    1399.6312    -17230.97    81.563168 
   40100    999.15569   -104.87677   0.90405707   -103.97271   -2436.3177    4.3244429    4.3244429    4.3244429   -2436.3177   -2850.2424    10910.091   -15368.801    3019.2725    7337.5946    6230.5012    80.870567 
   40200    668.27202   -104.59321   0.60466657   -103.98854    6066.8643    4.3305734    4.3305734    4.3305734    6066.8643   -11359.106    13009.548    16550.151   -4143.8322   -5147.7878    -12430.16    81.214992 
   40300    900.00259   -104.80023   0.81434125   -103.98589   -8657.5383    4.3338595    4.3338595    4.3338595   -8657.5383   -16093.237   -8361.3897   -1517.9878    -4236.953    11374.947    1465.7451    81.400016 
   40400     815.0414   -104.71468   0.73746659   -103.97721    4043.5804    4.3352192    4.3352192    4.3352192    4043.5804   -14600.331    28410.941   -1679.8687   -2069.6839    112.93363    1067.2547    81.476653 
   40500    820.43523   -104.71002   0.74234704   -103.96767    8105.1208    4.3275931    4.3275931    4.3275931    8105.1208   -13793.509     19757.46    18351.411    200.58789   -598.35787    5432.1973    81.047432 
   40600    851.32688   -104.74081   0.77029845   -103.97052   -244.69764    4.3335415    4.3335415    4.3335415   -244.69764    -13974.17   -4081.7379    17321.815    1524.7899    12163.655    -4820.609    81.382098 
   40700    908.58524   -104.79304   0.82210702   -103.97094    4329.5586    4.3328224    4.3328224    4.3328224    4329.5586   -4810.8871    21969.651   -4170.0881    4101.3168    -344.4749    2449.8402    81.341594 
   40800    589.54544   -104.51093    0.5334331   -103.97749    4705.3722    4.3244174    4.3244174    4.3244174    4705.3722   -3891.5098    10090.098     7917.528     513.2294    18250.308   -4021.1821    80.869138 
   40900    1004.2019   -104.88492   0.90862296    -103.9763   -4292.3039    4.3326673    4.3326673    4.3326673   -4292.3039   -14488.752    2154.7699   -542.92919     5221.327    3123.0563   -4447.9803    81.332859 
   41000    808.04233    -104.7079   0.73113368   -103.97676    5662.4797    4.3321514    4.3321514    4.3321514    5662.4797   -5052.7682    19327.794    2712.4136    2979.8605    3085.6477   -5269.0805    81.303807 
   41100    791.16764    -104.6894   0.71586511   -103.97353   -15071.201    4.3336245    4.3336245    4.3336245   -15071.201   -22046.776    -9572.018   -13594.809   -853.75305    11953.288   -4050.1093    81.386775 
   41200    816.42476   -104.70589   0.73871828   -103.96717    26368.981    4.3203246    4.3203246    4.3203246    26368.981    15540.384    45256.397    18310.162   -1123.1986   -7889.1125   -11798.316    80.639743 
   41300    735.06682   -104.64292   0.66510391   -103.97781   -25344.243    4.3369726    4.3369726    4.3369726   -25344.243   -30580.035   -21291.833    -24160.86   -3615.4171    10314.138   -3271.4173    81.575556 
   41400     922.3526   -104.80411   0.83456401   -103.96954   -812.26183     4.329662     4.329662     4.329662   -812.26183    6492.8341   -3720.4905   -5209.1291   -6217.4148   -5598.5721   -3603.6983    81.163724 
   41500     666.4207   -104.57582   0.60299145   -103.97282    10759.439     4.321585     4.321585     4.321585    10759.439   -21215.727    25562.052    27931.993    2272.0085    11665.651     1468.063    80.710341 
   41600    726.56766   -104.63973   0.65741369   -103.98231   -16523.642     4.336229     4.336229     4.336229   -16523.642   -20160.208   -4551.5369   -24859.183   -2715.2985    8492.0094   -10097.092    81.533602 
   41700    1159.4097   -105.02173    1.0490583   -103.97267   -6785.2268    4.3333868    4.3333868    4.3333868   -6785.2268   -22062.782   -6156.6558    7863.7573    6015.1009   -839.71159    2671.0916     81.37338 
   41800    358.68169   -104.30695   0.32454273   -103.98241   -1535.1428    4.3248563    4.3248563    4.3248563   -1535.1428    -15139.46    26080.815   -15546.783   -1076.6612    16794.108   -22068.853    80.893762 
   41900    1071.7945   -104.94907   0.96978218   -103.97928    1598.7692    4.3256879    4.3256879    4.3256879    1598.7692    -3460.767   -1986.3955     10243.47   -1737.1773   -9369.2126    1255.6192    80.940434 
   42000    694.91613   -104.60547   0.62877472   -103.97669   -11257.871     4.345405     4.345405     4.345405   -11257.871   -33358.286    6024.9043   -6440.2307    -648.8981     15549.25   -12643.943    82.052304 
   42100    849.77904   -104.73455   0.76889793   -103.96565    837.17013    4.3211035    4.3211035    4.3211035    837.17013    -13065.42    2779.2268    12797.704   -6049.7736     2199.025   -728.39983    80.683365 
   42200    846.92549   -104.73543   0.76631598   -103.96911    10194.183    4.3289726    4.3289726    4.3289726    10194.183   -9767.3702    31712.982    8636.9363   -6.2095936    2892.1129   -1223.3982     81.12496 
   42300    885.16585   -104.77689   0.80091667   -103.97598   -35491.613    4.3424398    4.3424398    4.3424398   -35491.613   -47288.329   -22056.596   -37129.914   -479.38512    15171.247   -6297.3465    81.884447 
   42400    558.91599   -104.48199   0.50571894   -103.97627    35266.435    4.3205196    4.3205196    4.3205196    35266.435   -6188.1908    40711.266     71276.23   -8511.7362   -4321.4868   -4611.6596     80.65066 
   42500    960.37135   -104.85349   0.86896418   -103.98453   -14000.512     4.333628     4.333628     4.333628   -14000.512   -28023.424   -11457.171     -2520.94    6542.9493    20462.118   -41.839003    81.386971 
   42600    723.70919    -104.6331   0.65482729   -103.97827   -1503.2219    4.3406212    4.3406212    4.3406212   -1503.2219   -12336.512    23666.611   -15839.765   -781.46155   -3469.9443   -6566.3339     81.78161 
   42700    869.46072   -104.75687   0.78670633   -103.97016   -3559.8311     4.331468     4.331468     4.331468   -3559.8311   -31653.648    2670.8508    18303.304    9275.3079    14439.534    931.02838    81.265335 
   42800    551.41063    -104.4731   0.49892792   -103.97417    23335.837    4.3219066    4.3219066    4.3219066    23335.837     8967.127    64683.502   -3643.1181    953.17524    9644.1833   -2952.3458     80.72836 
   42900    1052.2416   -104.92598   0.95209034   -103.97389   -26952.578    4.3463096    4.3463096    4.3463096   -26952.578   -30829.144   -29493.664   -20534.925    3095.5156    721.08802   -10823.778     82.10356 
   43000    563.91282   -104.48048   0.51024017   -103.97024    15668.507    4.3328419    4.3328419    4.3328419    15668.507   -2321.0184    20590.188    28736.351    1315.2805    17906.637    8559.9578    81.342692 
   43100    1022.9893   -104.89136   0.92562221   -103.96574    2896.9532     4.323114     4.323114     4.323114    2896.9532   -3397.9974    21121.381   -9032.5242    592.03985   -3151.3715   -22163.817     80.79604 
   43200     676.1149   -104.59009   0.61176297   -103.97833    -505.9521    4.3399017    4.3399017    4.3399017    -505.9521   -29355.514     5771.629    22066.029   -5506.5224     4666.427    9816.9125    81.740951 
   43300    774.96057   -104.68023   0.70120061   -103.97903   -820.97595    4.3335263    4.3335263    4.3335263   -820.97595   -17814.478    13082.758    2268.7923   -2056.1758    7618.3356   -8250.8905    81.381239 
   43400     1051.231   -104.92966   0.95117588   -103.97848   -13390.414    4.3306048    4.3306048    4.3306048   -13390.414   -23155.587    2861.6639   -19877.319   -5032.9233   -5559.0654    1679.0582     81.21676 
   43500    625.62785   -104.54855   0.56608123   -103.98247   -4292.4543    4.3360939    4.3360939    4.3360939   -4292.4543    -33594.93    34647.497    -13929.93   -4615.8066    23755.533    4328.4454    81.525983 
   43600    724.07509   -104.63177   0.65515836   -103.97661    2891.6092    4.3342744    4.3342744    4.3342744    2891.6092   -5817.0084    1027.0887    13464.747    3767.0389   -8143.5519   -4383.7581    81.423397 
   43700    1065.4283    -104.9418    0.9640219   -103.97778    -21370.61    4.3323082    4.3323082    4.3323082    -21370.61   -24101.201   -8268.5369   -31742.092   -2005.0751    18262.395   -1177.8028    81.312638 
   43800    764.67993   -104.67799   0.69189847   -103.98609    6007.1536    4.3291724    4.3291724    4.3291724    6007.1536   -15020.303     25777.64    7264.1228    4574.0583   -78.580942   -7009.1925    81.136195 
   43900    554.17668   -104.48957   0.50143071   -103.98814    26128.944     4.331861     4.331861     4.331861    26128.944   -2298.2859    51866.345    28818.773   -3040.6855    5364.5457   -10253.261    81.287456 
   44000    1076.3882   -104.95396   0.97393871   -103.98002   -29024.016      4.34094      4.34094      4.34094   -29024.016   -46306.822   -5681.8526   -35083.373    8027.2476    13854.349    5157.9879    81.799633 
   44100    652.79845   -104.56288   0.59066576   -103.97222    23979.635    4.3221595    4.3221595    4.3221595    23979.635    3192.3582    33645.837    35100.711    1755.8256    415.74415    -2346.178    80.742534 
   44200     842.0977   -104.74174   0.76194769   -103.97979   -19397.388    4.3326909    4.3326909    4.3326909   -19397.388   -36618.511    8735.1327   -30308.785    6684.8761    17784.612     -3193.37    81.334186 
   44300    958.02079   -104.84359   0.86683735   -103.97676   -9706.3855    4.3342273    4.3342273    4.3342273   -9706.3855   -4585.5183     3562.617   -28096.255   -7125.4109   -1463.4137    10956.665    81.420742 
   44400    565.58763   -104.49338   0.51175557   -103.98162    4286.5954    4.3296738    4.3296738    4.3296738    4286.5954   -16908.213    36096.624   -6328.6253    1406.7688    10944.432   -10967.876    81.164392 
   44500    982.40372   -104.86551   0.88889953   -103.97661   -3088.8497    4.3278597    4.3278597    4.3278597   -3088.8497    306.79761    13274.157   -22847.504   -1846.5213    10557.601    9079.3255     81.06241 
   44600    807.40289   -104.71021   0.73055511   -103.97965   -9175.9446    4.3357252    4.3357252    4.3357252   -9175.9446   -22293.385    3810.7838   -9045.2324    2493.6361   -2085.5245    -10658.32    81.505186 
   44700    598.78821   -104.52042   0.54179616   -103.97863   -6916.5947    4.3340649    4.3340649    4.3340649   -6916.5947    -18324.31    15968.641   -18394.116   -616.86983    18001.499   -6813.5196    81.411587 
   44800    1299.7753   -105.14506     1.176064     -103.969   -6220.8247    4.3223118    4.3223118    4.3223118   -6220.8247   -15883.923    5254.4988   -8033.0493         1476    -5170.446    -891.8238    80.751071 
   44900    432.23807   -104.37531   0.39109809   -103.98421   -7451.7905    4.3368222    4.3368222    4.3368222   -7451.7905   -16747.225    11908.527   -17516.673    4460.0837    12386.308   -1600.0822     81.56707 
   45000    964.58988    -104.8496   0.87278119   -103.97682    4644.7992    4.3337866    4.3337866    4.3337866    4644.7992   -26857.564    53635.045   -12843.083   -5048.9923     1911.179   -3332.3432     81.39591 
   45100    862.36446     -104.758   0.78028549   -103.97771   -8665.0091    4.3307577    4.3307577    4.3307577   -8665.0091   -10328.421   -9079.7772   -6586.8289   -5051.6882    7127.8292    2540.2784    81.225361 
   45200    576.86975   -104.50409   0.52196387   -103.98212    7223.4758    4.3283879    4.3283879    4.3283879    7223.4758   -25139.813    25601.518    21208.722   -3282.7897    10352.023   -7219.2237    81.092095 
   45300    1122.8003   -104.99228    1.0159333   -103.97635   -13264.413    4.3371583    4.3371583    4.3371583   -13264.413   -14862.348   -3228.9714   -21701.918   -3542.2182   -7035.2507   -403.99282    81.586037 
   45400    658.83167   -104.58001   0.59612474   -103.98389   -10342.392     4.328256     4.328256     4.328256   -10342.392   -36405.663    15388.191   -10009.702    10655.192    22083.207   -666.98338    81.084683 
   45500    763.99032    -104.6759    0.6912745   -103.98462    15198.059    4.3258534    4.3258534    4.3258534    15198.059   -12451.977     24876.21    33169.943   -1767.4216   -10822.334   -2973.6528     80.94973 
   45600    905.33932   -104.80527   0.81917004    -103.9861   -21435.385    4.3397375    4.3397375    4.3397375   -21435.385   -42745.335    6092.6387    -27653.46    4552.5539    12477.037   -725.58003    81.731672 
   45700    657.68786   -104.57889    0.5950898    -103.9838    7923.7098    4.3278931    4.3278931    4.3278931    7923.7098   -23734.752    28359.875    19146.006   -2707.1313    4525.2448   -2310.7187    81.064289 
   45800     974.8927   -104.86279    0.8821034   -103.98068    7136.4443     4.328856     4.328856     4.328856    7136.4443   -2952.5924    3947.7787    20414.147    4797.2579   -3498.7807    995.02099    81.118408 
   45900    806.54894   -104.71294   0.72978243   -103.98316    1868.4465    4.3291073    4.3291073    4.3291073    1868.4465   -22469.711    49448.923   -21373.873    1730.1448    16421.736   -7448.3217    81.132536 
   46000    647.11072   -104.56256   0.58551938   -103.97704   -12703.353    4.3443228    4.3443228    4.3443228   -12703.353   -14879.499   -28141.861    4911.2994   -1241.7486   -3684.0035    6368.2463    81.991014 
   46100    887.28713   -104.77379   0.80283604   -103.97095    20557.064    4.3155614    4.3155614    4.3155614    20557.064   -10632.126    43279.495    29023.822    256.23901    12072.316    -7455.375    80.373316 
   46200    957.88902   -104.84979   0.86671812   -103.98307   -16863.074    4.3315045    4.3315045    4.3315045   -16863.074   -25090.598   -4123.9125   -21374.711   -5351.0847     3458.686   -145.42941     81.26739 
   46300     462.1906   -104.39198   0.41819977   -103.97378    9717.3814    4.3406242    4.3406242    4.3406242    9717.3814   -23019.277    10160.115    42011.307    5704.1338    1047.0491   -9456.2109    81.781781 
   46400    1081.4155   -104.94662   0.97848748   -103.96813   -9024.8991    4.3210807    4.3210807    4.3210807   -9024.8991    -19157.74    3798.8665   -11715.824   -1308.5277    8706.8777    4403.2051    80.682091 
   46500     732.6511   -104.64202   0.66291811   -103.97911   -12400.137    4.3325054    4.3325054    4.3325054   -12400.137   -6661.8722   -25938.693   -4599.8454    5766.2074   -3051.4548   -14244.797    81.323738 
   46600    735.94293   -104.64049   0.66589663    -103.9746    5739.9966    4.3372826    4.3372826    4.3372826    5739.9966   -27190.096     15099.55    29310.536   -4973.7542    10112.635    8501.6983    81.593051 
   46700    931.28893    -104.8146   0.84264979   -103.97195   -27577.447    4.3391694    4.3391694    4.3391694   -27577.447   -33523.569   -19549.566   -29659.206    2707.4541    1056.6889   -16081.599    81.699578 
   46800    797.73702   -104.69442   0.72180922   -103.97261    13907.945    4.3178697    4.3178697    4.3178697    13907.945    403.39643    13081.443    28238.996   -4675.0611    1803.3316   -522.56024    80.502358 
   46900    764.14301   -104.68149   0.69141266   -103.99008   -6255.8237    4.3409927    4.3409927    4.3409927   -6255.8237   -36656.569   -2330.6277    20219.726   -1788.5285    10497.938    1816.3248     81.80261 
   47000    673.31842   -104.60049   0.60923265   -103.99125   -11146.198    4.3374834    4.3374834    4.3374834   -11146.198   -21242.398   -28154.291    15958.094    6067.1063   -2857.2228    -13258.81    81.604384 
   47100    822.18982   -104.72583   0.74393463    -103.9819    21564.853    4.3165389    4.3165389    4.3165389    21564.853   -6080.7911    44079.037    26696.313   -10515.953    9126.5942    5713.9482    80.427948 
   47200    1134.9652   -105.01119    1.0269404   -103.98425   -24991.218    4.3420573    4.3420573    4.3420573   -24991.218   -26761.859   -19655.087   -28556.707    2885.4843   -771.63447   -6867.1263    81.862811 
   47300     442.8207    -104.3862   0.40067347   -103.98553    10501.593    4.3332189    4.3332189    4.3332189    10501.593   -30821.703    29857.519    32468.962   -4112.2295    4198.8744   -2161.5626    81.363922 
   47400    942.44052   -104.83083   0.85273999   -103.97809    14323.159    4.3191131    4.3191131    4.3191131    14323.159   -11246.532    18697.689     35518.32   -313.30789    7490.7182    3221.5362    80.571925 
   47500    797.79277   -104.70764   0.72185966   -103.98578   -14223.941    4.3388674    4.3388674    4.3388674   -14223.941    -28299.98    5726.3893   -20098.232    4807.0214     8.197418   -9536.9151    81.682519 
   47600    959.24554   -104.85029   0.86794552   -103.98234   -10394.771    4.3333389    4.3333389    4.3333389   -10394.771   -35863.151    17016.669   -12337.832   -5817.8344    8472.9397    9136.8044    81.370687 
   47700     844.9733   -104.75101    0.7645496   -103.98646    16188.897    4.3220427    4.3220427    4.3220427    16188.897   -17293.939    20634.845    45225.783    4722.0531   -1997.8531   -6416.1424    80.735988 
   47800    543.20206   -104.48806   0.49150064   -103.99656    13106.167    4.3287137    4.3287137    4.3287137    13106.167   -20617.723    19302.331    40633.893   -3460.2656    2311.8056   -772.21631    81.110406 
   47900    1039.6209    -104.9258   0.94067082   -103.98513   -14575.947    4.3442355    4.3442355    4.3442355   -14575.947   -43401.153    11640.421    -11967.11    2669.1742    5352.4404    4693.7482    81.986072 
   48000    754.33691   -104.66244   0.68253989    -103.9799     22197.81    4.3183362    4.3183362    4.3183362     22197.81   -16190.871    57693.221    25091.079    6103.2872   -1018.2965   -9570.7282     80.52845 
   48100    538.11057   -104.48291   0.48689375   -103.99602    2890.8226    4.3275425    4.3275425    4.3275425    2890.8226   -22879.332   -12511.088    44062.888    1794.9142    13580.339   -1736.4456    81.044592 
   48200    962.99725   -104.85836   0.87134015   -103.98702    -12356.22    4.3419222    4.3419222    4.3419222    -12356.22   -38898.469    9229.2633   -7399.4536    3215.2186    -3185.906    12407.982    81.855172 
   48300    755.88872   -104.66511     0.683944   -103.98117    -7876.062    4.3293588    4.3293588    4.3293588    -7876.062   -24559.029    17300.131   -16369.288   -5314.6177    7886.8676   -4893.1623    81.146679 
   48400    741.08432   -104.64886   0.67054867   -103.97831    7580.4581    4.3291314    4.3291314    4.3291314    7580.4581   -26764.438    23622.997    25882.815    3292.2433   -228.96176     23387.83    81.133889 
   48500    844.96208     -104.748   0.76453945   -103.98346    7944.5452    4.3295528    4.3295528    4.3295528    7944.5452   -32865.816     7446.138    49253.314    1029.4717   -2354.4007   -7522.3623    81.157584 
   48600     761.2189   -104.68392   0.68876686   -103.99515   -27262.904    4.3434015    4.3434015    4.3434015   -27262.904   -39136.218    4266.2184   -46918.712    4652.0317    8164.6565   -8360.0547     81.93886 
   48700    930.12588   -104.82578   0.84159744   -103.98419    21567.974    4.3173665    4.3173665    4.3173665    21567.974   -21058.934    43094.542    42668.315    550.30704   -409.86149    7795.1554    80.474214 
   48800    469.43322   -104.41614   0.42475304   -103.99139   -7682.4305    4.3377847    4.3377847    4.3377847   -7682.4305   -26675.484    7308.1439   -3679.9516   -2318.8456    8992.0126   -17132.123    81.621387 
   48900    1204.6425   -105.06358    1.0899858    -103.9736   -17692.968    4.3343208    4.3343208    4.3343208   -17692.968   -39138.281   -1893.8795   -12046.744    2207.2369    285.14278    14385.884     81.42601 
   49000    516.32138   -104.44057   0.46717844   -103.97339    14168.512    4.3292031    4.3292031    4.3292031    14168.512   -24945.034     40489.01     26961.56    4393.6173    1096.7429   -12970.799    81.137922 
   49100    910.60283   -104.79777   0.82393258   -103.97384   -8493.1465    4.3317241    4.3317241    4.3317241   -8493.1465   -24474.957    3044.7691   -4049.2521     727.1512    4463.6275    4516.3687    81.279749 
   49200    699.87297   -104.60926   0.63325977     -103.976    9728.6808    4.3352756    4.3352756    4.3352756    9728.6808   -40756.214    67347.857     2594.399    724.97423   -7935.2266    -7601.152    81.479832 
   49300    878.19842   -104.77541   0.79461238    -103.9808    588.70582    4.3288499    4.3288499    4.3288499    588.70582   -21992.167    24629.889   -871.60447    -5653.858     9428.507   -4203.8851    81.118063 
   49400    960.87668   -104.85232   0.86942141    -103.9829    -1489.638    4.3296235    4.3296235    4.3296235    -1489.638   -26254.627     27569.92   -5784.2064     151.0585     -7931.84    223.29248    81.161559 
   49500    671.51324    -104.5872   0.60759929    -103.9796    7463.5203    4.3331289    4.3331289    4.3331289    7463.5203   -33171.553    34395.463    21166.651    2239.7419    7728.1035   -2780.5463    81.358856 
   49600    789.60413   -104.69112   0.71445041   -103.97667     10672.87    4.3249901    4.3249901    4.3249901     10672.87   -16834.727    43070.089    5783.2473   -1756.0422   -768.79961    4389.1391    80.901273 
   49700    1022.9624   -104.90397    0.9255979   -103.97837   -25115.421    4.3373774    4.3373774    4.3373774   -25115.421   -35914.057   -10773.868   -28658.338     7124.915   -4291.4174   -4466.1684    81.598398 
   49800    515.65551   -104.44301   0.46657594   -103.97643     25004.95    4.3254505    4.3254505    4.3254505     25004.95   -18123.765    59264.618    33873.997   -6652.3906    2954.4692    15568.461    80.927109 
   49900    869.97354   -104.76892   0.78717034   -103.98175    -23129.28    4.3314085    4.3314085    4.3314085    -23129.28    -22551.73   -21966.581   -24869.529    2427.3671   -9476.0996   -19269.858    81.261989 
   50000    873.17619   -104.76645   0.79006817   -103.97638   -3660.7278    4.3338648    4.3338648    4.3338648   -3660.7278   -27354.998    34078.624   -17705.809   -5686.2514    -3312.126    14286.353    81.400311 
   50100    788.39449    -104.6897    0.7133559   -103.97634    170.82449    4.3255982    4.3255982    4.3255982    170.82449   -14761.737    -5134.957    20409.167   -5632.1438   -845.54302   -14893.922    80.935403 
   50200    554.50675   -104.48052   0.50172936   -103.97879   -6765.2129    4.3352994    4.3352994    4.3352994   -6765.2129   -27812.256    14319.347   -6802.7299   -318.96455   -10426.003   -196.25055    81.481175 
   50300    1225.7127   -105.07704    1.1090506   -103.96799   -2228.2397    4.3255484    4.3255484    4.3255484   -2228.2397   -22829.708   -4649.8086    20794.797   -7360.4809    4957.0705    2538.4468    80.932605 
   50400    296.46184   -104.24775   0.26824491    -103.9795   -3601.5324    4.3357629    4.3357629    4.3357629   -3601.5324   -23639.083    1869.0742    10965.412   -1552.7899   -11883.736   -14529.683    81.507313 
   50500    1206.2084   -105.06078    1.0914027   -103.96938   -8101.9918    4.3248596    4.3248596    4.3248596   -8101.9918    -31397.02    4653.2751    2437.7693   -1245.7876    3153.0464    2975.8735     80.89395 
   50600    570.38645   -104.49484   0.51609765   -103.97875   -11814.453    4.3364637    4.3364637    4.3364637   -11814.453   -30491.967   -3226.0381   -1725.3547   -2602.0791   -5431.8888   -6720.1271    81.546842 
   50700    744.09461   -104.65022   0.67327244   -103.97694   -9098.6282    4.3245209    4.3245209    4.3245209   -9098.6282   -21138.963   -2174.5408   -3982.3814    2733.1198   -2762.8316   -17501.641    80.874948 
   50800    1092.2321   -104.96062   0.98827452   -103.97234    1137.4294    4.3257695    4.3257695    4.3257695    1137.4294   -24258.462    19750.453    7920.2972    1337.1913   -477.11175    8704.1382    80.945019 
   50900    457.00087   -104.39255   0.41350399   -103.97904   -23229.205    4.3396968    4.3396968    4.3396968   -23229.205   -44635.204   -15402.303   -9650.1069     929.5047   -9359.8747   -21691.041    81.729373 
   51000    902.43951   -104.79121   0.81654623   -103.97467    25130.532    4.3150466    4.3150466    4.3150466    25130.532   -4222.5784    20950.957    58663.217    3584.3479   -71.732899    3086.2848    80.344562 
   51100    1038.5521   -104.92552   0.93970375   -103.98582   -21930.082    4.3295548    4.3295548    4.3295548   -21930.082   -38470.103    3472.0762   -30792.219     857.0519   -9300.4617   -6889.4588    81.157701 
   51200    423.80427   -104.37453   0.38346701   -103.99107    25679.384    4.3316304    4.3316304    4.3316304    25679.384   -20508.239    58122.884    39423.506   -2779.3803     -4264.89   -14008.865    81.274479 
   51300    1106.9378   -104.98049    1.0015806   -103.97891   -5103.5874    4.3319159    4.3319159    4.3319159   -5103.5874   -22657.839    9883.8169   -2536.7397   -1050.7431   -2413.2813    5785.3986    81.290545 
   51400    679.23015   -104.58909   0.61458172   -103.97451    22965.615    4.3133326    4.3133326    4.3133326    22965.615   -10740.309    49004.207    30632.946    -1072.447   -6924.3517   -15785.907    80.248852 
   51500    811.65037   -104.70696   0.73439831   -103.97256   -3025.6573    4.3397584    4.3397584    4.3397584   -3025.6573   -21835.932    16702.616   -3943.6562   -84.553565    1904.9292      304.243    81.732853 
   51600    885.65877   -104.76941   0.80136267   -103.96804    2007.4491    4.3244242    4.3244242    4.3244242    2007.4491   -31483.776    28820.147    8685.9763    2714.8841   -3476.7054   -2263.4461    80.869518 
   51700     877.3705   -104.76626   0.79386327    -103.9724   -1251.8861    4.3204417    4.3204417    4.3204417   -1251.8861   -3258.8661    13319.132   -13815.924    3371.0261   -1743.7886   -14488.024    80.646301 
   51800    757.70948   -104.65861   0.68559146   -103.97302    11292.945     4.333125     4.333125     4.333125    11292.945   -34877.895    52170.729    16586.002    5320.1297   -381.09478    5176.5601    81.358634 
   51900    731.20016   -104.64137   0.66160527   -103.97976   -17019.698    4.3319499    4.3319499    4.3319499   -17019.698   -23472.907    -5443.517    -22142.67    4220.8058   -7767.2896    -13039.15    81.292461 
   52000     864.5194   -104.75842   0.78223532   -103.97619    2198.7322    4.3193487    4.3193487    4.3193487    2198.7322   -14511.792    12290.215    8817.7738    2329.7386    2148.2797   -19088.047    80.585108 
   52100    733.38258   -104.64519   0.66357997   -103.98161    532.47708    4.3277267    4.3277267    4.3277267    532.47708   -24927.921    30790.754   -4265.4021    -2827.149   -12598.086    5415.0144     81.05494 
   52200    782.82414   -104.68391   0.70831573   -103.97559   -31414.455    4.3361683    4.3361683    4.3361683   -31414.455   -27137.243   -23439.992    -43666.13   -993.70324    4376.0547   -38436.626    81.530176 
   52300    825.91488   -104.71212   0.74730514   -103.96482    16480.023    4.3104904    4.3104904    4.3104904    16480.023   -4025.0426    55502.108   -2036.9973   -2902.2923   -8684.2514    11157.504    80.090325 
   52400    673.88504   -104.58857   0.60974535   -103.97883   -18725.366    4.3348759    4.3348759    4.3348759   -18725.366   -31064.933    16896.966    -42008.13    504.11734   -3133.6228   -24407.987      81.4573 
   52500    852.52191   -104.75163   0.77137974   -103.98025    933.19743    4.3262567    4.3262567    4.3262567    933.19743    -16285.03    24563.388   -5478.7658    5175.3144    2333.1167    348.78443     80.97237 
   52600    807.24298   -104.71358   0.73041041   -103.98317    2497.4926    4.3217987    4.3217987    4.3217987    2497.4926   -26374.195     26673.31    7193.3629   -6463.9487   -11659.866   -4364.6269    80.722315 
   52700    773.80063   -104.68318   0.70015107   -103.98303    -1495.327    4.3266949    4.3266949    4.3266949    -1495.327    -15198.72     33698.26   -22985.521    2850.5508    3973.1299   -22090.121    80.996977 
   52800    715.48176   -104.62607   0.64738293   -103.97869   -4980.6992    4.3392658    4.3392658    4.3392658   -4980.6992   -41893.469    12520.059    14431.312   -7417.6815   -13761.927   -2146.6693    81.705025 
   52900    1057.7255    -104.9275   0.95705224   -103.97045    7368.5722    4.3123396    4.3123396    4.3123396    7368.5722   -6763.5116    26468.642    2400.5859    -4678.638   -4329.7747    -4649.175    80.193442 
   53000    718.99754   -104.63752   0.65056408   -103.98695   -7698.3677    4.3314294    4.3314294    4.3314294   -7698.3677   -28339.105     346.9519    4897.0503    4168.4545   -7720.6271   -11692.672    81.263162 
   53100    933.45444   -104.82023    0.8446092   -103.97562   -5056.4145    4.3344001    4.3344001    4.3344001   -5056.4145   -37626.146    3138.2394    19318.663   -9456.2299   -12752.327    5575.4415    81.430478 
   53200    758.59311   -104.65734   0.68639098   -103.97095    20180.075    4.3088205    4.3088205    4.3088205    20180.075    14275.064    29472.289    16792.871    11210.625    3905.4108   -22308.974    79.997278 
   53300    1041.0063   -104.91775   0.94192439   -103.97583   -9906.1546      4.32999      4.32999      4.32999   -9906.1546   -37906.407    1164.7058    7023.2369   -3419.5705   -11212.166    833.43441    81.182176 
   53400    575.56663   -104.49307   0.52078478   -103.97229    8594.8528    4.3327096    4.3327096    4.3327096    8594.8528   -7443.3993    21043.804    12184.153    4215.2851    1145.8661    -9075.303    81.335237 
   53500    985.37862   -104.85839   0.89159129    -103.9668   -9062.7519    4.3212334    4.3212334    4.3212334   -9062.7519   -20700.452   -9908.0733    3420.2694    2955.1931   -6526.4733   -14638.272    80.690643 
   53600     835.2887    -104.7254   0.75578677   -103.96961    14009.793    4.3233402    4.3233402    4.3233402    14009.793   -12400.264    31569.321    22860.321   -882.30111   -13786.726    5671.3723    80.808719 
   53700      658.429   -104.57177   0.59576039   -103.97601    7912.9907    4.3276628    4.3276628    4.3276628    7912.9907   -17060.677   -11672.034    52471.683    726.19269    1812.2922   -20218.539    81.051346 
   53800    906.46681   -104.79417   0.82019022   -103.97398   -15806.072      4.33096      4.33096      4.33096   -15806.072   -31840.595   -1500.7859   -14076.833   -572.16922   -17706.631    9597.1612    81.236744 
   53900    820.28734   -104.71533   0.74221322   -103.97312    10839.135    4.3137721    4.3137721    4.3137721    10839.135   -2224.9055    17740.223    17002.089    804.97158     4023.807   -11183.807     80.27339 
   54000    685.52996   -104.60197   0.62028191   -103.98169   -2278.8939    4.3319743    4.3319743    4.3319743   -2278.8939    -17385.66   -20814.176    31363.154    1870.5597   -7829.7601   -10648.728    81.293835 
   54100    925.24317   -104.80979   0.83717947   -103.97261   -19193.878    4.3344368    4.3344368    4.3344368   -19193.878   -38392.485   -3273.1461   -15916.002   -1035.8179   -6964.8559    1804.1102    81.432549 
   54200    618.58103   -104.52772   0.55970512   -103.96801    32381.024     4.308087     4.308087     4.308087    32381.024    21912.188   -4145.6907    79376.575    7966.3288    5398.5527   -18971.305     79.95643 
   54300    818.78287   -104.71301   0.74085195   -103.97216   -28193.846    4.3424289    4.3424289    4.3424289   -28193.846   -45359.273   -19897.705    -19324.56   -2073.1357   -12658.561   -5443.0402    81.883829 
   54400    944.20292   -104.82018   0.85433464   -103.96585    7954.8068    4.3207509    4.3207509    4.3207509    7954.8068   -6679.9674    3021.0078     27523.38    5730.2689   -541.79207   -3819.2876    80.663615 
   54500    646.91552   -104.55835   0.58534276     -103.973    324.72922    4.3217668    4.3217668    4.3217668    324.72922   -6754.9579   -11854.951    19584.096    2984.0326   -2432.5925    -12750.59    80.720525 
   54600    870.16652   -104.75899   0.78734495   -103.97164   -16815.395    4.3318498    4.3318498    4.3318498   -16815.395   -38928.891    -1636.161   -9881.1317   -2692.2261    -12539.33    5238.2541    81.286824 
   54700    809.55651   -104.70285   0.73250374   -103.97034    8007.8392    4.3197211    4.3197211    4.3197211    8007.8392   -566.54464   -8204.6861    32794.748     6615.946    6328.5729   -5932.5614    80.605952 
   54800     724.9746   -104.63127   0.65597225    -103.9753   -12598.107    4.3301745    4.3301745    4.3301745   -12598.107   -39510.944   -9997.0852    11713.708   -4206.2821   -16144.629   -5563.6112    81.192551 
   54900    914.84252   -104.80159   0.82776873   -103.97382    415.79676    4.3206511    4.3206511    4.3206511    415.79676   -12792.365   -4582.3284    18622.083    71.086682    3887.7704    7132.0916    80.658028 
   55000    700.30053   -104.61483   0.63364664   -103.98118   -12576.941    4.3300511    4.3300511    4.3300511   -12576.941   -20525.362   -15768.024    -1437.438    97.922561   -5995.7037   -16700.465    81.185612 
   55100    705.48934   -104.61619   0.63834158   -103.97785   -3773.2044    4.3311074    4.3311074    4.3311074   -3773.2044   -32252.001   -10129.218    31061.606   -5863.3403   -11850.242    7242.1656    81.245042 
   55200    1172.9767   -105.02957     1.061334   -103.96824    7347.6092    4.3165265    4.3165265    4.3165265    7347.6092    1974.5182   -5770.2444    25838.554    1020.0187    1023.7052   -17058.319    80.427254 
   55300    425.16633   -104.36667   0.38469943   -103.98197   -9.7480986    4.3373833    4.3373833    4.3373833   -9.7480986   -37831.238   -18498.413    56300.407   -6560.6405   -18215.958   -50.978978    81.598733 
   55400    954.36849    -104.8379   0.86353267   -103.97437   -611.81341    4.3255497    4.3255497    4.3255497   -611.81341   -16543.102   -18178.531    32886.192   -5624.2381   -1825.0967   -4816.5896    80.932678 
   55500    1050.2617   -104.92852   0.95029883   -103.97822   -13318.895    4.3195926    4.3195926    4.3195926   -13318.895   -14399.688   -9668.1971     -15888.8    362.87034   -8536.3464   -1096.6215    80.598763 
   55600    435.30591   -104.37441   0.39387394   -103.98053   -3248.4006    4.3383513    4.3383513    4.3383513   -3248.4006   -41143.278   -27742.548    59140.624   -12719.472   -14463.012   -179.52162    81.653377 
   55700    969.54203   -104.84933     0.877262   -103.97207    8090.5881    4.3231697    4.3231697    4.3231697    8090.5881   -7037.3844   -12383.555    43692.704    4762.7622    10682.026    6440.0602     80.79916 
   55800    707.90472   -104.62185   0.64052707   -103.98132   -28926.696     4.327625     4.327625     4.327625   -28926.696   -35674.218   -20395.049   -30710.823   -9514.9846    -26635.62   -5102.2276    81.049227 
   55900    908.48007    -104.8015   0.82201186   -103.97949    2157.9057    4.3264225    4.3264225    4.3264225    2157.9057   -20106.563    1908.8041    24671.476   -1367.5103    2529.8409   -162.88068    80.981678 
   56000    664.65906   -104.58508   0.60139749   -103.98368   -5197.5898     4.332007     4.332007     4.332007   -5197.5898   -29699.281   -22018.116    36124.627    2991.4838   -14163.107   -3368.8585    81.295679 
   56100    722.54321   -104.63674   0.65377228   -103.98297    594.69778    4.3267048    4.3267048    4.3267048    594.69778   -35499.788   -9163.4658    46447.347   -8777.8859    -7594.458    1815.7356    80.997536 
   56200    992.29292   -104.87441   0.89784749   -103.97657    19269.665    4.3154731    4.3154731    4.3154731    19269.665   -2279.4726    7274.9583    52813.508    8365.8408    5423.6301    607.12279    80.368384 
   56300    747.69406   -104.66598    0.6765293   -103.98945   -32355.677    4.3393585    4.3393585    4.3393585   -32355.677   -42391.293   -36414.961   -18260.776   -7525.7424   -14198.369   -3734.8314    81.710258 
   56400    759.75833   -104.66891   0.68744531   -103.98146    24988.418    4.3217068    4.3217068    4.3217068    24988.418   -12499.313   -21.833876    87486.401    3825.7942    1476.8444    1205.0654    80.717163 
   56500    899.29028   -104.79517   0.81369674   -103.98147   -1607.6155    4.3196139    4.3196139    4.3196139   -1607.6155   -11915.379    -6231.134    13323.666    325.45262   -12715.127   -6959.1469    80.599953 
   56600    672.05999   -104.58462     0.608094   -103.97653   -17344.962    4.3347983    4.3347983    4.3347983   -17344.962    -30440.37   -28913.005    7318.4901   -4387.9067    -7811.984   -14075.335    81.452923 
   56700    923.01837   -104.80076   0.83516642   -103.96559    9106.8104    4.3161891    4.3161891    4.3161891    9106.8104   -2927.9707    25544.819     4703.583    6211.6657    832.85391      3367.71    80.408392 
   56800    669.83803   -104.58066   0.60608353   -103.97458   -12743.227    4.3282469    4.3282469    4.3282469   -12743.227   -14904.705   -27383.066    4058.0892   -8023.5477   -9819.3844   -19440.168    81.084168 
   56900    950.52115   -104.83056   0.86005152   -103.97051    1755.2215    4.3221146    4.3221146    4.3221146    1755.2215   -20954.415    11625.034    14595.045    5390.8092    2547.1742    1448.8422    80.740017 
   57000    703.31182   -104.61035   0.63637132   -103.97398    5618.6653    4.3273671    4.3273671    4.3273671    5618.6653   -88.103802   -4935.8668    21879.966    54.879245   -2453.3716   -5410.9748    81.034738 
   57100    743.72355   -104.64862    0.6729367   -103.97568   -13017.257    4.3246035    4.3246035    4.3246035   -13017.257   -31163.784   -8156.6958    268.70745   -4271.0854   -11411.455   -4175.4801    80.879582 
   57200    863.35447   -104.75431   0.78118127   -103.97312    13484.564    4.3206987    4.3206987    4.3206987    13484.564    2655.0106    7594.5175    30204.163    10758.018    6160.7035    1716.3907    80.660694 
   57300    790.21942   -104.69026   0.71500714   -103.97525   -12358.382    4.3311321    4.3311321    4.3311321   -12358.382   -33863.929   -26943.031    23731.813   -8407.4654   -21072.917    352.54056    81.246428 
   57400     675.7687    -104.5905   0.61144972   -103.97905    15664.543    4.3167783    4.3167783    4.3167783    15664.543   -4374.1867    6758.6995    44609.116    15994.306    257.92445   -1760.7819    80.441328 
   57500    1079.4798   -104.95508   0.97673604   -103.97834   -11762.835    4.3271986    4.3271986    4.3271986   -11762.835   -11496.021   -18072.597   -5719.8875   -282.59673    7475.2862    17.992716     81.02527 
   57600    509.82348   -104.44482     0.461299   -103.98352    8704.8986    4.3201151    4.3201151    4.3201151    8704.8986   -17360.755    9267.8018    34207.649     10236.11   -16098.294   -6911.4536    80.628012 
   57700    1039.0185    -104.9146   0.94012581   -103.97447    404.78172    4.3239471    4.3239471    4.3239471    404.78172    1508.3448   -8466.7236    8172.7239    12390.399    9886.5412    1196.5931    80.842759 
   57800    701.05436   -104.60728   0.63432871   -103.97295   -3354.0051    4.3259883    4.3259883    4.3259883   -3354.0051     -17899.6     2758.842    5078.7429   -8435.9606   -14970.471    933.58266    80.957304 
   57900    747.04632   -104.65051   0.67594321   -103.97457    2941.2078    4.3148527    4.3148527    4.3148527    2941.2078    5705.4906   -16914.401    20032.534    23591.226   -1825.5774   -9264.7921    80.333729 
   58000    869.83918   -104.76375   0.78704877    -103.9767    13264.866    4.3281787    4.3281787    4.3281787    13264.866   -4154.5807   -10303.811    54252.989   -13539.684   -3057.4227    44.854144     81.08034 
   58100    753.24848   -104.66239   0.68155506   -103.98083   -15160.935    4.3241468    4.3241468    4.3241468   -15160.935   -26795.252   -8411.5144    -10276.04    18278.566   -5152.2434   -703.91126     80.85396 
   58200    752.49873   -104.65549   0.68087667   -103.97461    15438.374    4.3192803    4.3192803    4.3192803    15438.374    21513.806   -12872.487    37673.803   -2366.4952    369.61888   -5384.4619    80.581278 
   58300    839.93072   -104.73365   0.75998697   -103.97366   -10266.886    4.3270865    4.3270865    4.3270865   -10266.886   -21331.449   -15128.051    5658.8439   -1277.6652   -4872.9142    6773.8174     81.01897 
   58400    771.05022   -104.67295   0.69766244   -103.97529   -2425.1094    4.3205127    4.3205127    4.3205127   -2425.1094    1732.4709   -30398.866    21391.066    14669.281   -618.71074   -10018.218    80.650274 
   58500    896.85651   -104.78214   0.81149462   -103.97064    4893.5729     4.325638     4.325638     4.325638    4893.5729   -843.07687   -22064.577    37588.372   -7381.1065   -5035.5298    12827.299    80.937635 
   58600    716.16944   -104.62413   0.64800516   -103.97612   -7915.2792    4.3148884    4.3148884    4.3148884   -7915.2792    4871.5197    -19429.82   -9187.5375    19468.863   -894.94921   -3740.3378    80.335722 
   58700    890.93601   -104.78791   0.80613762   -103.98177   -6085.5314    4.3296666    4.3296666    4.3296666   -6085.5314   -5410.6218   -19523.153    6677.1808   -3168.2125   -7340.8149    1285.3722    81.163984 
   58800    829.07935   -104.73124   0.75016842   -103.98108    4780.1451    4.3237434    4.3237434    4.3237434    4780.1451    2330.1909   -19867.062    31877.306    12403.173    -1010.004    2972.3392    80.831329 
   58900     628.5484   -104.54882   0.56872381    -103.9801    6051.5707    4.3251963    4.3251963    4.3251963    6051.5707    1448.8158   -20192.798    36898.695    4473.7877   -6765.9475   -1290.7129    80.912843 
   59000    1063.4102    -104.9334   0.96219593    -103.9712   -3210.7956    4.3264477    4.3264477    4.3264477   -3210.7956   -893.52656   -28413.536    19674.676    2640.8732    9237.1525    1016.7224    80.983098 
   59100    717.99323   -104.63082   0.64965536   -103.98117   -11397.267    4.3264644    4.3264644    4.3264644   -11397.267   -14246.218   -31080.589    11135.005    18183.873   -9620.7129   -349.53804    80.984032 
   59200    805.30825   -104.70648   0.72865983   -103.97782    18743.937    4.3243179    4.3243179    4.3243179    18743.937   -4115.5815   -13706.749     74054.14   -1647.9442    4980.2398   -3080.2792    80.863558 
   59300    791.69926   -104.69963   0.71634613   -103.98328   -6204.7092    4.3299018    4.3299018    4.3299018   -6204.7092   -12338.226   -22707.184    16431.283    14385.181   -8841.9918     10680.88    81.177212 
   59400    910.65798    -104.8013   0.82398248   -103.97732   -9373.3371    4.3293319    4.3293319    4.3293319   -9373.3371   -18194.894   -21603.151    11678.033    3202.1137   -7500.4445   -898.11675    81.145165 
   59500     774.4629    -104.6796    0.7007503   -103.97885    6351.3678    4.3208804    4.3208804    4.3208804    6351.3678    6810.9005   -4849.5691    17092.772    4271.5929    3386.0443    4103.0309    80.670867 
   59600    631.32338   -104.55275   0.57123467   -103.98151   -7173.5925    4.3318599    4.3318599    4.3318599   -7173.5925   -21266.944   -36842.198    36588.365    11420.518    -8051.961    1598.2874    81.287394 
   59700    924.15446   -104.80975   0.83619438   -103.97356    3485.0129    4.3242408    4.3242408    4.3242408    3485.0129   -2211.3437   -9060.2689    21726.651   -1806.3712    5986.0475   -4723.1097    80.859231 
   59800    899.78403   -104.79358    0.8141435   -103.97943   -20784.194    4.3256236    4.3256236    4.3256236   -20784.194   -24350.116   -37081.015   -921.45196    14306.359    2066.4048    7887.2934    80.936826 
   59900    805.24143   -104.70678   0.72859937   -103.97818   -3756.2232    4.3285015    4.3285015    4.3285015   -3756.2232   -18531.485   -9961.9187    17224.734   -2664.4413   -14948.341    690.93465     81.09848 
   60000    601.73701   -104.52467   0.54446429   -103.98021    7823.3022     4.322289     4.322289     4.322289    7823.3022   -4155.4159   -22406.417     50031.74    10811.029    6001.7198   -1532.8123    80.749789 
   60100    907.51734   -104.80168   0.82114076   -103.98054   -12217.007    4.3303351    4.3303351    4.3303351   -12217.007   -19897.626   -14078.177   -2675.2176    64.606455   -5027.2237    7806.6158    81.201585 
   60200    905.27353   -104.79745   0.81911051   -103.97834    1290.4407    4.3237521    4.3237521    4.3237521    1290.4407   -1688.8547    -6879.046    12439.223    6202.2983    3279.4485   -3858.4419    80.831817 
   60300     698.9936   -104.61434    0.6324641   -103.98188   -1704.0789    4.3263801    4.3263801    4.3263801   -1704.0789   -17698.285   -14995.338    27581.386    12240.658    6525.5492   -405.16764      80.9793 
   60400    849.17435   -104.74334    0.7683508   -103.97499   -1177.1618     4.328126     4.328126     4.328126   -1177.1618      2922.24   -19250.629    12796.903   -456.46751   -4184.8184   -6830.1106    81.077377 
   60500    794.90558    -104.6929   0.71924727   -103.97365   -8550.2429    4.3278947    4.3278947    4.3278947   -8550.2429     -9118.04   -19660.488     3127.799    13676.549   -676.19804     2689.022    81.064379 
   60600    936.16696   -104.81973   0.84706354   -103.97266   -3327.2195    4.3257715    4.3257715    4.3257715   -3327.2195   -13697.598    -17016.71     20732.65   -3626.0828   -8543.9246    2394.5757     80.94513 
   60700    494.45067   -104.42893   0.44738936   -103.98154    22609.322    4.3245827    4.3245827    4.3245827    22609.322    5043.5191    3133.1774    59651.271     10129.42   -1379.7587     1751.555    80.878411 
   60800    971.53703   -104.86065   0.87906713   -103.98158   -13981.649    4.3286971    4.3286971    4.3286971   -13981.649   -6593.9629   -30023.285   -5327.6981    8682.7077    570.05952     11454.89    81.109475 
   60900     748.4022   -104.65604   0.67717004   -103.97887    5774.2051    4.3304711    4.3304711    4.3304711    5774.2051    10184.104   -5664.7471    12803.258   -4794.6221    6197.7916   -3684.6891    81.209239 
   61000    690.75012    -104.6025   0.62500523   -103.97749   -1134.7648    4.3259267    4.3259267    4.3259267   -1134.7648   -25210.836   -21081.777    42888.318      14078.7    -3290.652    4856.4404    80.953844 
   61100    941.38811   -104.82584   0.85178775   -103.97405    4625.1278    4.3233059    4.3233059    4.3233059    4625.1278    11506.981   -11580.686    13949.088   -11632.338    12341.655   -1407.4946    80.806796 
   61200    769.01411   -104.66712   0.69582013    -103.9713   -9355.1472    4.3346849    4.3346849    4.3346849   -9355.1472   -24801.385   -18908.144    15644.088    12619.411   -18836.373    17.079734     81.44653 
   61300    609.37799   -104.51911   0.55137801   -103.96773    3881.1079    4.3251905    4.3251905    4.3251905    3881.1079    4826.0379    -17565.72    24383.005     2950.328    6690.2327    2077.6175    80.912516 
   61400    828.81286   -104.72185   0.74992729   -103.97192    746.40526    4.3220002    4.3220002    4.3220002    746.40526   -13665.355   -13558.051    29462.621   -4777.4898   -16222.803    6096.2218    80.733603 
   61500    1030.1664   -104.91471   0.93211618    -103.9826   -20511.127    4.3312327    4.3312327    4.3312327   -20511.127    -26567.13    -29301.62   -5664.6315    13745.371   -2018.8913     1566.518    81.252094 
   61600    698.45652   -104.61651   0.63197814   -103.98453    164.32392     4.329391     4.329391     4.329391    164.32392    4400.9599   -24628.138     20720.15   -15706.862    2789.9737    6914.7214     81.14849 
   61700     709.0474   -104.62215   0.64156099   -103.98059    1763.1447    4.3219146    4.3219146    4.3219146    1763.1447   -16651.649   -17134.781    39075.865    21414.913   -6449.6632   -6279.3019    80.728811 
   61800    914.95743   -104.80964   0.82787271   -103.98177   -1469.8443     4.328451     4.328451     4.328451   -1469.8443     3038.331   -17833.119    10385.255   -5069.3036    1989.8361     2515.175    81.095644 
   61900    947.79822   -104.84076   0.85758775   -103.98317   -6515.8532    4.3286275    4.3286275    4.3286275   -6515.8532   -30168.009   -16797.202    27417.652    9010.2077   -7218.8405   -900.37012    81.105564 
   62000    605.50079    -104.5267   0.54786984   -103.97883    10743.957    4.3284028    4.3284028    4.3284028    10743.957   -7075.6505   -6507.2468    45814.767    8299.7262   -8127.2213    3765.0165    81.092931 
   62100    980.42162   -104.85811   0.88710609   -103.97101   -5094.9386    4.3273395    4.3273395    4.3273395   -5094.9386   -6935.2353   -16015.247    7665.6667   -8243.4426    1414.4027    16725.715    81.033182 
   62200    733.39477   -104.63833     0.663591   -103.97474   -12441.646    4.3292408    4.3292408    4.3292408   -12441.646   -24956.468   -20077.397    7708.9277     15425.43    988.82127    2587.0543    81.140041 
   62300    733.43944   -104.63655   0.66363141   -103.97292    14102.796    4.3247975    4.3247975    4.3247975    14102.796    6707.8284   -13055.147    48655.707   -4144.8639   -4568.7923    8194.8484    80.890465 
   62400    1044.6794   -104.91961   0.94524783   -103.97436   -25281.666    4.3329246    4.3329246    4.3329246   -25281.666   -31882.967   -35670.524    -8291.507    10014.625    10854.904    1308.9269    81.347348 
   62500    652.67997   -104.56251   0.59055855   -103.97195     12204.29    4.3264481    4.3264481    4.3264481     12204.29   -7439.3748   -12519.507    56571.751    6620.2823   -4273.7766    238.89622    80.983118 
   62600    762.67445   -104.66302   0.69008387   -103.97294    6464.2432    4.3245444    4.3245444    4.3245444    6464.2432   -6827.4005   -24453.846    50673.976    220.22864   -618.52465    1635.0435    80.876265 
   62700    723.56867   -104.63732   0.65470014   -103.98262    6627.0746    4.3259695    4.3259695    4.3259695    6627.0746   -18199.235   -10616.521     48696.98    11590.611    -2457.573    -12064.96    80.956247 
   62800      1046.72   -104.93084   0.94709428   -103.98374   -11065.975    4.3300541    4.3300541    4.3300541   -11065.975   -14714.344   -8680.4337   -9803.1481   -7206.6133   -10087.765     6461.725    81.185781 
   62900     608.8354   -104.53253   0.55088706   -103.98165    21122.873    4.3201593    4.3201593    4.3201593    21122.873   -6080.6914   -14252.281    83701.592    14082.817    2651.1411   -1720.4669     80.63049 
   63000    732.60429   -104.64348   0.66287576   -103.98061   -11774.481    4.3271743    4.3271743    4.3271743   -11774.481   -34995.964   -6347.0603     6019.582    397.55098    -14290.39    8306.3082    81.023905 
   63100    999.20408   -104.88119   0.90410085   -103.97709   -7712.1728    4.3224875    4.3224875    4.3224875   -7712.1728   -7914.7456   -18140.168    2918.3947    10514.569   -4077.8462   -1987.6089    80.760918 
   63200    820.72792   -104.72557   0.74261187   -103.98295   -4398.3498     4.326406     4.326406     4.326406   -4398.3498   -20101.652   -21409.092    28315.695    9260.7703    9883.1657   -4879.9914    80.980757 
   63300    640.19836   -104.55916   0.57926493    -103.9799    16773.096    4.3200499    4.3200499    4.3200499    16773.096    5651.5167    4410.3345    40257.436   -602.73285   -13329.498   -2779.5477     80.62436 
   63400    874.58851   -104.76741   0.79134606   -103.97607    -15711.96    4.3313625    4.3313625    4.3313625    -15711.96   -27554.835   -39378.473    19797.427    18688.553    5919.5752   -1745.1542    81.259396 
   63500    940.96305   -104.81984   0.85140314   -103.96843    15857.366     4.318372     4.318372     4.318372    15857.366    3654.4471    1628.9367    42288.715   -6739.2627   -14382.118    6258.1843    80.530456 
   63600    769.25197   -104.67249   0.69603535   -103.97646    -18415.08    4.3290244    4.3290244    4.3290244    -18415.08   -35179.738   -24996.086    4930.5843    23623.331   -1397.5931   -1791.9996    81.127878 
   63700    782.17737   -104.68095   0.70773052   -103.97322    21178.514    4.3164239    4.3164239    4.3164239    21178.514    -3555.202   -6141.5836    73232.328     2429.529   -9338.9489    5882.5746    80.421516 
   63800    676.34638   -104.59504   0.61197241   -103.98306   -10872.204    4.3227941    4.3227941    4.3227941   -10872.204   -24891.367   -4392.1844   -3333.0601    9605.4915    -3733.083   -70.616612    80.778104 
   63900    766.57418   -104.67196   0.69361243   -103.97835   -6066.3205    4.3253626    4.3253626    4.3253626   -6066.3205   -36318.446   -15717.368    33836.852    19597.776   -5432.0716    3973.2415    80.922176 
   64000    942.41776    -104.8224    0.8527194   -103.96968    13798.751    4.3152054    4.3152054    4.3152054    13798.751    19977.615   -1459.7074    22878.344   -6758.3135     4448.905   -5897.0883    80.353432 
   64100    602.72836   -104.52353   0.54536129   -103.97816   -29690.385    4.3261722    4.3261722    4.3261722   -29690.385   -44096.523    -30612.48   -14362.153    24829.348   -10785.044    521.78468    80.967624 
   64200    820.24935   -104.71667   0.74217885   -103.97449    29950.618     4.315763     4.315763     4.315763    29950.618    17687.164   -3226.4995     75391.19   -6934.2475    10667.989   -2064.3019    80.384585 
   64300    987.56967   -104.87295   0.89357379   -103.97937    -14836.54    4.3240681    4.3240681    4.3240681    -14836.54   -25584.073   -20024.128    1098.5818    14971.962   -10334.534    6563.8705    80.849546 
   64400    525.47991   -104.45297   0.47546527   -103.97751    18078.304    4.3188346    4.3188346    4.3188346    18078.304    -2639.335   -3423.5818     60297.83    2855.5134    3104.8594   -4274.6337    80.556336 
   64500    1019.0374   -104.89381   0.92204649   -103.97177   -8491.6909    4.3232914    4.3232914    4.3232914   -8491.6909   -6863.9505   -16145.701   -2465.4209    -1712.688   -1893.2613    3919.5108    80.805984 
   64600    679.65737   -104.59332   0.61496827   -103.97836     5210.993      4.31781      4.31781      4.31781     5210.993   -28462.078   -8866.7353    52961.792    17735.713   -1173.0181   -12746.472    80.499016 
   64700    901.12093   -104.78844   0.81535316   -103.97308    39.839416    4.3227612    4.3227612    4.3227612    39.839416    5577.4263   -7755.8511     2297.943    -10688.56   -1878.5332    1536.9557    80.776258 
   64800    836.65259   -104.72988   0.75702084   -103.97286   -16714.618     4.319211     4.319211     4.319211   -16714.618   -29992.143    -32806.46    12654.751    26336.623   -770.08581   -1781.4674    80.577403 
   64900    648.17379   -104.56329   0.58648127   -103.97681    10172.102    4.3175923    4.3175923    4.3175923    10172.102    -4941.295    2997.7638    32459.836   -6111.5611   -10515.079   -3057.4091    80.486844 
   65000    936.62164   -104.82326   0.84747495   -103.97579   -9395.0563    4.3221708    4.3221708    4.3221708   -9395.0563   -21182.348   -25788.915    18786.093    11536.883    5935.0213   -1146.0343    80.743164 
   65100     663.5546   -104.57448   0.60039815   -103.97408   -12525.056    4.3277216    4.3277216    4.3277216   -12525.056    -36356.65   -25445.373    24226.855    16224.168   -7733.2202    4814.8901    81.054652 
   65200    973.49808   -104.84724   0.88084152   -103.96639     5888.184    4.3095704    4.3095704    4.3095704     5888.184     7331.365    4768.7418    5564.4452   -7421.3225    915.04301    2488.7924    80.039052 
   65300    683.25429   -104.60109   0.61822284   -103.98287   -15145.355    4.3262399    4.3262399    4.3262399   -15145.355   -47751.944   -36129.353    38445.232    28982.604   -2876.4259    3982.3309    80.971427 
   65400    887.64773   -104.77938   0.80316232   -103.97622    11256.875    4.3211795    4.3211795    4.3211795    11256.875     708.7883   -2474.9453    35536.782   -5442.1328    -7284.322   -8768.7234    80.687624 
   65500    790.25997   -104.69319   0.71504383   -103.97815    -10597.31    4.3158972    4.3158972    4.3158972    -10597.31   -12960.409   -25604.291    6772.7687    16860.075    3692.7061    2457.6881     80.39208 
   65600    684.49337   -104.59636   0.61934398   -103.97701   -14109.012    4.3291212    4.3291212    4.3291212   -14109.012   -20759.622   -27282.285    5714.8697    9116.8677    3397.7466    -6528.143     81.13332 
   65700     1055.857   -104.92454   0.95536156   -103.96918    5825.7405    4.3178328    4.3178328    4.3178328    5825.7405   -6626.9841   -4985.1263    29089.332    2389.0008   -8866.3574    1175.3294    80.500293 
   65800    464.23369   -104.39954    0.4200484   -103.97949    -18488.58    4.3278064    4.3278064    4.3278064    -18488.58   -27423.691   -53784.577    25742.529    20470.732    15427.549    1134.0326    81.059418 
   65900     1131.169   -104.99656    1.0235055   -103.97306    2716.0895    4.3200054    4.3200054    4.3200054    2716.0895   -2583.3517   -5823.5909    16555.211   -7408.7393   -8608.2011    4713.8846    80.621871 
   66000    651.23495   -104.57145   0.58925107    -103.9822   -23749.827    4.3330932    4.3330932    4.3330932   -23749.827   -37285.307   -41637.855    7673.6814    16484.644    6784.6781    2010.1926    81.356844 
   66100    615.87463   -104.53912   0.55725631   -103.98186    21914.658    4.3157879    4.3157879    4.3157879    21914.658    3760.8524   -442.16549    62425.288   -1620.6042   -2853.4235    1244.9708    80.385977 
   66200    1139.1019   -105.01134    1.0306833   -103.98065   -11803.772    4.3286972    4.3286972    4.3286972   -11803.772   -23396.251   -16569.428    4554.3614    6357.2426   -150.13533   -2991.8135    81.109484 
   66300    427.87308    -104.3686   0.38714856   -103.98145    14524.426    4.3268969    4.3268969    4.3268969    14524.426   -6341.7544   -19579.963    69494.995    8227.3644   -1965.1042    -97.50035    81.008322 
   66400    889.85796   -104.78229   0.80516218   -103.97713    -4274.459    4.3196346    4.3196346    4.3196346    -4274.459   -14634.921    -10573.45    12384.995   -4787.5596    10130.358    3999.7929    80.601114 
   66500    893.38701   -104.78827   0.80835534   -103.97992   -7177.9301    4.3236961    4.3236961    4.3236961   -7177.9301   -20293.842   -20322.362    19082.413    13085.234   -4730.3509   -7335.2404     80.82868 
   66600    744.28007   -104.65311   0.67344025   -103.97967    -13936.35    4.3294723    4.3294723    4.3294723    -13936.35   -18472.876   -16700.924   -6635.2507   -3611.4497    11055.282    10182.459    81.153057 
   66700    857.21986   -104.74601   0.77563055   -103.97038    8656.8389    4.3189915    4.3189915    4.3189915    8656.8389   -10198.851    -6763.526    42932.893    10575.461   -4293.2752    2246.7082     80.56512 
   66800    630.87684    -104.5407   0.57083062   -103.96987   -11452.635    4.3260498    4.3260498    4.3260498   -11452.635   -17062.331   -5177.4904   -12118.085     1156.688    8366.2277    6174.4344    80.960756 
   66900    858.13733   -104.74269   0.77646069   -103.96623    -3133.498    4.3212294    4.3212294    4.3212294    -3133.498    2447.8231   -12519.149    670.83177     30.34753    3419.9902    987.37706    80.690416 
   67000    897.08261   -104.77802   0.81169919   -103.96632    -1599.078    4.3224863    4.3224863    4.3224863    -1599.078   -3867.7996   -21216.054     20286.62    6077.5204     5480.246    2753.4993    80.760848 
   67100     779.9631   -104.67657     0.705727   -103.97085   -7450.8468    4.3186837    4.3186837    4.3186837   -7450.8468    1051.8073   -3439.0794   -19965.268   -5662.4362    9124.2307    -1543.709    80.547893 
   67200    652.59548   -104.56655    0.5904821   -103.97607    10169.505    4.3291481    4.3291481    4.3291481    10169.505    2862.8172   -15197.909    42843.607    3457.5734    3492.8686    3381.6829    81.134828 
   67300    1009.2699   -104.88832    0.9132086   -103.97511   -9305.4771    4.3235475    4.3235475    4.3235475   -9305.4771   -11349.276   -4401.9124   -12165.243   -754.65695    5957.6452   -5548.2376    80.820344 
   67400    767.50289   -104.67285   0.69445274   -103.97839    13723.409    4.3179124    4.3179124    4.3179124    13723.409    22921.294   -15829.593    34078.526   -7772.5852    4302.5203    6035.9124    80.504746 
   67500    756.15192    -104.6604   0.68418215   -103.97622    -5102.078    4.3324243    4.3324243    4.3324243    -5102.078    9902.9298   -18319.251   -6889.9133    7770.7981   -4034.4316    -5265.959    81.319172 
   67600    817.83937   -104.71384   0.73999825   -103.97384     3488.574    4.3196955    4.3196955    4.3196955     3488.574    6810.2732   -10037.291     13692.74   -3822.2369    1812.3159    10009.509    80.604521 
   67700    803.31949   -104.69761   0.72686035   -103.97074    3192.5056    4.3284066    4.3284066    4.3284066    3192.5056    12136.236    -5051.898    2493.1787   -7145.5294   -122.23569   -4430.9712    81.093145 
   67800    820.70467   -104.71009   0.74259084    -103.9675    648.08965    4.3218378    4.3218378    4.3218378    648.08965   -5645.9052   -4631.6156     12221.79    9046.2315   -7327.2472    6369.4172    80.724507 
   67900    726.08182   -104.62492   0.65697409   -103.96795   -9877.6991     4.326203     4.326203     4.326203   -9877.6991   -10897.631   -14205.065   -4530.4016   -18917.357    7333.5082   -2489.8398    80.969358 
   68000    823.57265    -104.7117   0.74518585   -103.96652    5274.4408    4.3234083    4.3234083    4.3234083    5274.4408    17692.595   -18332.385    16463.113    13870.442   -11061.001   -107.83697    80.812537 
   68100     939.9839   -104.82454   0.85051719   -103.97403   -15470.612    4.3260512    4.3260512    4.3260512   -15470.612   -16558.812   -12895.258   -16957.765   -10662.334    2355.8238    717.00824    80.960834 
   68200     641.3574   -104.55556   0.58031365   -103.97525    14134.859     4.329861     4.329861     4.329861    14134.859    49900.388   -21062.698    13566.887    2044.8151    1121.7339   -8885.9172    81.174919 
   68300    846.80013   -104.74098   0.76620255   -103.97478     -8877.48    4.3263465    4.3263465    4.3263465     -8877.48   -14900.275   -5959.8323   -5772.3332    1614.3004   -8495.3131    462.72751    80.977415 
   68400    752.42161   -104.65647   0.68080689   -103.97566   -2237.0865    4.3289438    4.3289438    4.3289438   -2237.0865    10515.115   -15076.942    -2149.433   -8170.2054    10817.531    869.29243    81.123344 
   68500    857.09562   -104.74586   0.77551813   -103.97034    13836.094    4.3221171    4.3221171    4.3221171    13836.094    26378.484   -6280.5275    21410.326    854.46344   -9291.4973    611.16762    80.740155 
   68600    807.86597   -104.70424   0.73097411   -103.97326   -23067.968    4.3313029    4.3313029    4.3313029   -23067.968   -14687.534   -21462.169   -33054.202   -5431.4299    2322.4745    1314.4181    81.256041 
   68700    734.97435   -104.63102   0.66502024     -103.966    17279.045    4.3222319    4.3222319    4.3222319    17279.045    48010.194   -19529.179     23356.12    -3654.863   -1247.1593   -1858.9188     80.74659 
   68800    810.67079   -104.70806   0.73351196   -103.97454   -15266.001    4.3259471    4.3259471    4.3259471   -15266.001    9145.1715   -23621.319   -31321.856   -1073.0893   -12968.766    8746.4939     80.95499 
   68900     835.6909   -104.73046   0.75615069   -103.97431   -8631.7185    4.3282367    4.3282367    4.3282367   -8631.7185     -14535.8   -17476.984    6117.6287   -13225.686    815.20901   -10347.365    81.083596 
   69000     720.1433   -104.62867   0.65160079   -103.97707    6310.3638    4.3236804    4.3236804    4.3236804    6310.3638    17775.112   -14585.255    15741.235    2885.1973   -7785.3271    7882.1926    80.827799 
   69100    730.13305   -104.63974   0.66063972    -103.9791   -21999.783    4.3299614    4.3299614    4.3299614   -21999.783   -18039.129   -20099.452   -27860.768   -6519.4314    -9962.042   -8434.0558    81.180566 
   69200    775.19996   -104.67402   0.70141721   -103.97261     16598.63    4.3274563    4.3274563    4.3274563     16598.63    15395.277   -6553.1955     40953.81   -5480.7347    3806.1596   -1008.5325    81.039749 
   69300    871.32981   -104.76497   0.78839752   -103.97658   -12757.097    4.3253347    4.3253347    4.3253347   -12757.097   -4794.6536   -22412.376   -11064.261    2668.8337   -11954.297   -221.86288     80.92061 
   69400    809.17665   -104.71014   0.73216003   -103.97798   -8388.6979    4.3280448    4.3280448    4.3280448   -8388.6979   -2479.4841   -17232.919   -5453.6906   -14376.203     4484.164   -1613.9619    81.072812 
   69500    787.43684   -104.68252    0.7124894   -103.97003    11304.896    4.3249752    4.3249752    4.3249752    11304.896   -6989.3943   -7289.0785     48193.16    3567.9545   -1079.5851   -5072.4357    80.900439 
   69600     784.6272   -104.68313   0.70994718   -103.97318   -20859.884    4.3304546    4.3304546    4.3304546   -20859.884   -13238.842   -19542.339    -29798.47    -5889.921   -1276.4171    2340.9256    81.208312 
   69700    740.83024   -104.63511   0.67031877   -103.96479    19591.329    4.3276248    4.3276248    4.3276248    19591.329    10647.277    349.02605    47777.682   -2549.3615    5674.3186   -629.76628    81.049215 
   69800    862.05702   -104.74854   0.78000731   -103.96853     -18148.4    4.3237912    4.3237912    4.3237912     -18148.4    -17041.77   -22887.555   -14515.875    -3786.077    -6873.017    4285.1788    80.834013 
   69900    683.70395    -104.5918    0.6186297   -103.97317    8127.1069    4.3289217    4.3289217    4.3289217    8127.1069      23929.5    -9151.645    9603.4654   -5790.5695    364.64194    7581.9101    81.122099 
   70000     908.6062   -104.79386   0.82212599   -103.97174   -5252.6921    4.3323866    4.3323866    4.3323866   -5252.6921    -16079.23   -19267.418    19588.571    2458.4768   -3996.0341     3592.564     81.31705 
   70100    690.75754   -104.60079   0.62501194   -103.97578    9056.9817    4.3142641    4.3142641    4.3142641    9056.9817    14723.704   -10950.076    23397.318   -7693.5453   -5086.5991    2131.5589    80.300859 
   70200    1019.0714   -104.89921   0.92207721   -103.97714   -5188.6763    4.3317236    4.3317236    4.3317236   -5188.6763   -19812.234    845.03363    3401.1712    5772.8916   -4106.6091    2984.0616    81.279721 
   70300    618.25134   -104.53965   0.55940681   -103.98024   -6750.7466    4.3314552    4.3314552    4.3314552   -6750.7466    -19364.69   -32261.592    31374.042   -9032.0956    4429.1929    971.16693    81.264614 
   70400    768.93383   -104.67257   0.69574749   -103.97682    16256.516    4.3106665    4.3106665    4.3106665    16256.516    11257.617     12787.83    24724.101   -3144.3737   -7623.9506    4308.5327    80.100138 
   70500    967.73835   -104.85809   0.87562999   -103.98246   -14336.721    4.3303562    4.3303562    4.3303562   -14336.721   -23568.943   -17825.698   -1615.5204    1348.5859    18619.024   -2310.9053    81.202771 
   70600    607.70717   -104.52371   0.54986622   -103.97385    -8262.591    4.3356918    4.3356918    4.3356918    -8262.591    -7528.796   -27212.462    9953.4853   -10177.535   -13669.282    10477.308    81.503303 
   70700    925.73587   -104.79739   0.83762527   -103.95977    21175.331    4.3102126    4.3102126    4.3102126    21175.331    19397.138     15023.58    29105.273    5566.5622    14264.196   -1635.2089    80.074838 
   70800    765.16765   -104.66722   0.69233977   -103.97488   -9440.8562    4.3291859    4.3291859    4.3291859   -9440.8562   -9744.9803   -22547.241    3969.6529   -2253.7776   -5198.5665    6255.0177    81.136954 
   70900    973.94553   -104.85287   0.88124638   -103.97163   -12642.798    4.3312373    4.3312373    4.3312373   -12642.798   -7662.2369   -17254.348    -13011.81   -180.40774   -5287.9042   -2576.4207    81.252353 
   71000    492.00365   -104.42255   0.44517524   -103.97737     25452.18    4.3221721    4.3221721    4.3221721     25452.18    3704.0767    5784.8842    66867.579    4729.2275    8488.9001    6812.3915    80.743238 
   71100    1026.6456   -104.90849   0.92893056   -103.97956   -4449.0249     4.326275     4.326275     4.326275   -4449.0249   -10499.813    -17759.16    14911.899   -3975.4147   -10662.421   -1904.3157    80.973399 
   71200    835.18297   -104.73779    0.7556911   -103.98209    3460.8917     4.329319     4.329319     4.329319    3460.8917    7968.1828   -5407.9325    7822.4248    15963.786    9402.7434    9673.5941    81.144438 
   71300    788.02657   -104.69339     0.713023   -103.98036   -405.25114    4.3283845    4.3283845    4.3283845   -405.25114    -14287.95    -14610.07    27682.266   -5029.8547   -3022.7511   -356.69841    81.091905 
   71400       687.61   -104.60422   0.62216398   -103.98206    20709.465    4.3163187    4.3163187    4.3163187    20709.465    20538.233    -2207.816    43797.979    15985.959   -4302.9165    3192.5798    80.415637 
   71500     808.8014   -104.71738    0.7318205   -103.98556   -5790.3806    4.3347694    4.3347694    4.3347694   -5790.3806   -11176.996   -4728.8512   -1465.2942    6013.6129    4431.9462    1580.1417    81.451298 
   71600    947.06359   -104.83392   0.85692304     -103.977   -6079.3332    4.3302878    4.3302878    4.3302878   -6079.3332   -5141.6014   -19875.358      6778.96   -1013.9096    3691.6522   -2705.6412    81.198926 
   71700    475.13938   -104.40802   0.42991609    -103.9781     21637.71    4.3175518    4.3175518    4.3175518     21637.71    10276.707     12262.87    42373.552    16847.826   -347.25829    -6711.549     80.48458 
   71800    1063.5445   -104.93906   0.96231738   -103.97674   -5499.3262    4.3315851    4.3315851    4.3315851   -5499.3262   -16473.576   -20470.327    20445.925   -7926.0094    12906.317   -1398.8476    81.271925 
   71900    742.58658   -104.65316   0.67190794   -103.98126   -9397.1549    4.3332953    4.3332953    4.3332953   -9397.1549   -8174.3873   -5818.3195   -14198.758    12706.392   -7187.2399     3681.723    81.368228 
   72000    934.10292   -104.82596   0.84519595   -103.98076    4264.6751    4.3204318    4.3204318    4.3204318    4264.6751   -13222.479   -1544.0991    27560.604   -4669.6588     2470.009    5817.1455    80.645744 
   72100    637.70303   -104.56159    0.5770071   -103.98458    14879.246    4.3243482    4.3243482    4.3243482    14879.246    4123.5062    546.42793    39967.804    4917.9371   -3876.2241    -371.8736    80.865254 
   72200    732.35483   -104.64746   0.66265004   -103.98481   -18091.323    4.3386574    4.3386574    4.3386574   -18091.323   -27655.199   -5049.1489    -21569.62    11458.353   -12690.568    7223.0118     81.67066 
   72300    964.29199    -104.8439   0.87251166   -103.97139    17891.248    4.3213155    4.3213155    4.3213155    17891.248    18285.816   -4110.8493    39498.777   -4908.6458    10586.635   -3337.4903    80.695242 
   72400    607.49808   -104.52974   0.54967703   -103.98007   -3773.6583    4.3270088    4.3270088    4.3270088   -3773.6583   -17321.578   -1694.5647    7695.1681    20116.967   -11904.015    679.86124    81.014605 
   72500     901.9353   -104.78419   0.81609002    -103.9681    2512.6415    4.3354899    4.3354899    4.3354899    2512.6415   -2899.9877   -3806.2798    14244.192    152.40195    10759.905    273.37751    81.491918 
   72600    787.05099    -104.6782   0.71214028   -103.96606    5433.4702    4.3218381    4.3218381    4.3218381    5433.4702   -3946.0691   -2258.8656    22505.345    7218.9563    1248.6669   -9806.3819    80.724522 
   72700    763.29031   -104.66212   0.69064111   -103.97148   -7679.1251    4.3308913    4.3308913    4.3308913   -7679.1251   -19645.406   -3831.3253    439.35578    10898.036    3510.8461     4427.407    81.232877 
   72800    929.31011   -104.80654   0.84085932   -103.96568    8314.7158    4.3296059    4.3296059    4.3296059    8314.7158    190.13619   -10591.906    35345.917   -3505.4317    4965.4057   -11294.726    81.160572 
   72900    637.21752   -104.55227   0.57656781    -103.9757   -7666.5467     4.327036     4.327036     4.327036   -7666.5467   -28332.664   -27572.911    32905.935    15243.584    2202.0666    3534.2723    81.016137 
   73000    1132.3036   -105.00187    1.0245321   -103.97734   -5210.7356    4.3271384    4.3271384    4.3271384   -5210.7356    1271.1134     1364.113   -18267.433   -1903.4074   -13859.644    35.475594    81.021888 
   73100    651.34427   -104.57538   0.58934998   -103.98603   -3179.4975    4.3280245    4.3280245    4.3280245   -3179.4975   -24756.495   -37052.393    52270.395    17355.973    10028.824   -2843.7292    81.071675 
   73200    578.72777   -104.51254   0.52364504   -103.98889   -872.86877    4.3307089    4.3307089    4.3307089   -872.86877   -8696.8013   -13618.968    19697.163    2448.7471   -15872.708    8524.6924    81.222618 
   73300    1086.7015   -104.96459   0.98327034   -103.98132   -2492.8791     4.318714     4.318714     4.318714   -2492.8791    -8634.004   -6151.8243     7307.191     7372.625    8539.8953    -3671.774    80.549591 
   73400    566.57472   -104.49963   0.51264872   -103.98699   -10081.292    4.3356906    4.3356906    4.3356906   -10081.292   -22353.475   -31305.687    23415.287    11993.555    -4976.013     -2949.41    81.503237 
   73500    908.83747    -104.7959   0.82233524   -103.97356    7021.3388    4.3271938    4.3271938    4.3271938    7021.3388   -5569.9183   -8645.5781    35279.513   -6336.0135   -3162.3567    266.05785    81.024998 
   73600    765.43375   -104.66588   0.69258054    -103.9733    -5872.527    4.3189809    4.3189809    4.3189809    -5872.527   -7514.6373   -22427.262    12324.319    17376.076   -4820.6577   -8912.6812    80.564523 
   73700    712.65749    -104.6151   0.64482748   -103.97027      -6953.3    4.3374883    4.3374883    4.3374883      -6953.3   -14502.993   -20737.144    14380.237   -6476.6278   -8998.0749    2413.4711    81.604657 
   73800    982.25659   -104.85197   0.88876641    -103.9632    -11214.08     4.327227     4.327227     4.327227    -11214.08   -21006.453   -16053.213    3417.4268    9572.3652   -11903.498   -5239.2497    81.026864 
   73900    638.70794   -104.54475   0.57791637   -103.96684    11.594222    4.3234316    4.3234316    4.3234316    11.594222    8218.4887    -24543.07    16359.364    3681.2066   -2136.5322   -2345.4602    80.813847 
   74000    900.72282   -104.78167   0.81499294   -103.96668    4513.1646    4.3287422    4.3287422    4.3287422    4513.1646   -9318.9961   -7913.1482    30771.638   -1834.7049   -14497.757    2052.0691    81.112009 
   74100    768.26205   -104.66908   0.69513965   -103.97394   -21781.388    4.3332582    4.3332582    4.3332582   -21781.388   -8333.7833   -49077.723   -7932.6588    15164.018     4639.963   -10559.354    81.366138 
   74200    782.04208   -104.67616   0.70760811   -103.96855    21193.958    4.3162114    4.3162114    4.3162114    21193.958    12988.877     3555.458     47037.54   -7326.2843   -8023.3562    3895.9129    80.409642 
   74300    747.27453   -104.65259    0.6761497   -103.97645   -17165.984    4.3324144    4.3324144    4.3324144   -17165.984   -14537.777   -44842.972    7882.7966    12763.638      1862.66   -10658.686    81.318614 
   74400    797.96128   -104.70175   0.72201214   -103.97974   -6160.9484    4.3236957    4.3236957    4.3236957   -6160.9484     6673.603    -17928.27   -7228.1785    1215.8018    4906.4773   -3054.8004    80.828658 
   74500    1079.2959   -104.95591   0.97656963   -103.97934    6581.6583    4.3201125    4.3201125    4.3201125    6581.6583    11881.676    -11732.13    19595.429   -2693.1681   -19709.099   -3545.8473    80.627865 
   74600    488.79185   -104.42484   0.44226914   -103.98257   -2773.5694    4.3347297    4.3347297    4.3347297   -2773.5694    12283.005   -34961.897    14358.184    9622.2341    5104.4804   -4698.9197    81.449058 
   74700    931.45316   -104.81331    0.8427984   -103.97052    13264.199    4.3196412    4.3196412    4.3196412    13264.199    27240.655    -1281.196    13833.137   -7109.0595   -14717.418    4320.7649    80.601484 
   74800    805.53664   -104.70263   0.72886648   -103.97376    -1532.894    4.3245579    4.3245579    4.3245579    -1532.894    11294.859   -16406.905    513.36354     9526.955    2010.4198    857.88107    80.877022 
   74900    737.42801   -104.63924   0.66724036     -103.972   -6214.0075     4.333584     4.333584     4.333584   -6214.0075    4106.9801   -22279.071   -469.93132    4207.4991   -1483.1975   -207.63962     81.38449 
   75000    991.67418   -104.86295   0.89728763   -103.96566    3850.5075    4.3227373    4.3227373    4.3227373    3850.5075    18446.673   -7999.4521    1104.3011   -1795.2715   -2133.5013    2196.5145    80.774919 
   75100    612.62148   -104.52703   0.55431279   -103.97272   -4469.4345    4.3197208    4.3197208    4.3197208   -4469.4345    5035.5218   -22506.702     4062.877    15747.707    2469.7486   -320.76224    80.605937 
   75200    959.45262   -104.83925   0.86813289   -103.97112   -4975.6344    4.3300989    4.3300989    4.3300989   -4975.6344   -3366.7103   -21897.658    10337.465   -5311.2412    1160.7317    -2215.419    81.188302 
   75300    807.71965    -104.7023   0.73084171   -103.97146   -4467.3516    4.3260128    4.3260128    4.3260128   -4467.3516     7111.915   -13097.907   -7416.0622    6909.8535    5126.6643    6019.5667    80.958676 
   75400    695.18421   -104.60364   0.62901728   -103.97462    -2260.569     4.318805     4.318805     4.318805    -2260.569   -5423.2689   -1953.0062    594.56811     6493.457    6265.7848   -10041.382    80.554683 
   75500    974.72149   -104.85572   0.88194849   -103.97378   -7194.0349    4.3285552    4.3285552    4.3285552   -7194.0349    11072.012   -12703.235   -19950.882    -5928.076   -144.06807    7431.2769    81.101502 
   75600     699.8595   -104.61125   0.63324759     -103.978   -3311.8595    4.3264778    4.3264778    4.3264778   -3311.8595   -3899.5635    12592.313   -18628.328     11691.79   -786.25632   -8693.5602    80.984788 
   75700    876.50768   -104.76625   0.79308257   -103.97316   -218.36641     4.328152     4.328152     4.328152   -218.36641     22885.14   -8852.0024   -14688.237    -4026.585    6848.9768    974.90275    81.078835 
   75800    831.98974   -104.72359    0.7528018   -103.97079    7661.2364    4.3200249    4.3200249    4.3200249    7661.2364    21287.966    13563.557   -11867.814    4442.3368   -8448.1656    917.31533    80.622963 
   75900    622.19449   -104.54128   0.56297465   -103.97831    3306.5699    4.3267706    4.3267706    4.3267706    3306.5699    10988.859   -3489.3275    2420.1786    15225.515    8730.8412   -5229.5865    81.001227 
   76000    1002.3314   -104.87646   0.90693052   -103.96953    1490.1756    4.3305685    4.3305685    4.3305685    1490.1756      12613.7    11368.289   -19511.462     565.0498   -6155.2755    6173.3226    81.214715 
   76100    604.07552   -104.51915   0.54658023   -103.97257    11415.941    4.3191141    4.3191141    4.3191141    11415.941    11291.462    14049.704    8906.6584    15454.808    626.66223     27.56842     80.57198 
   76200    851.20659   -104.74305   0.77018961   -103.97286   -8996.8957    4.3306903    4.3306903    4.3306903   -8996.8957    15694.939   -13005.335   -29680.291    7849.0487    1184.2768    3483.9267    81.221568 
   76300    865.82399   -104.75448   0.78341574   -103.97107    -1818.053    4.3289831    4.3289831    4.3289831    -1818.053    2664.9849    833.24894   -8952.3927    3152.2279   -5433.7698   -1010.8585    81.125555 
   76400    769.14137   -104.67489   0.69593528   -103.97896   -4011.0372    4.3200617    4.3200617    4.3200617   -4011.0372    16931.873   -7540.7274   -21424.257    12121.936    8453.7298   -2836.6311    80.625021 
   76500     814.1814   -104.71719   0.73668844    -103.9805    6187.5395    4.3304117    4.3304117    4.3304117    6187.5395    29980.149    -3420.562   -7996.9688   -3034.1051    4011.5192   -4338.2067    81.205898 
   76600    712.23864   -104.62783   0.64444849   -103.98338   -15254.197    4.3293803    4.3293803    4.3293803   -15254.197   -1747.3111    -22367.51    -21647.77    8094.1594    209.99218    1171.4175    81.147886 
   76700    923.67636   -104.81064   0.83576179   -103.97488    11287.433    4.3180424    4.3180424    4.3180424    11287.433    18938.599    15806.265   -882.56287    17324.212    9964.9268   -9728.5063    80.512015 
   76800        722.7   -104.62914   0.65391415   -103.97523    6.7577486    4.3346678    4.3346678    4.3346678    6.7577486    26600.951   -12029.384   -14551.293   -5797.5671   -2284.1888    10232.376    81.445568 
   76900    875.27765   -104.76291   0.79196962   -103.97094   -15501.055    4.3263441    4.3263441    4.3263441   -15501.055   -15037.527   -6585.6931   -24879.944    22957.043    3761.4796   -5689.1207    80.977276 
   77000    774.95169   -104.66987   0.70119257   -103.96868    12829.209     4.325171     4.325171     4.325171    12829.209    33032.948     8834.645   -3379.9656   -8042.4651    2561.0713    9532.5523    80.911425 
   77100     801.0111   -104.69497   0.72477167    -103.9702   -18151.917    4.3307528    4.3307528    4.3307528   -18151.917   -17943.624   -2990.3599   -33521.767    12383.423   -5659.2738    7223.8902    81.225086 
   77200    768.41517   -104.66606   0.69527819   -103.97078    1759.5412    4.3272617    4.3272617    4.3272617    1759.5412    11858.138    6473.1463   -13052.661    7222.4583      9651.03   -954.98844    81.028812 
   77300    957.78883   -104.83728   0.86662746   -103.97065   -8817.3192    4.3250338    4.3250338    4.3250338   -8817.3192    -377.4089    1727.6665   -27802.215   -3509.2175   -10075.238    15402.961    80.903726 
   77400     507.4883   -104.43576   0.45918608   -103.97657    915.71657    4.3271051    4.3271051    4.3271051    915.71657    4990.7491    5622.5324   -7866.1318    14104.734    9700.7022   -10073.455    81.020016 
   77500    1046.6996   -104.91719    0.9470758   -103.97011   -7658.8703    4.3286365    4.3286365    4.3286365   -7658.8703    2956.4037    -11240.93   -14692.084   -7131.8768     -1215.12    13797.319    81.106071 
   77600     753.8169   -104.65364   0.68206937   -103.97157   -1237.4235    4.3226814    4.3226814    4.3226814   -1237.4235    181.34652     6097.034    -9990.651    6883.5709    1877.9213   -4876.1359    80.771788 
   77700    621.06846   -104.53592   0.56195579   -103.97396   -8500.4153    4.3333612    4.3333612    4.3333612   -8500.4153    4606.7932   -11264.007   -18844.032     11397.96    4341.1989   -4067.9451     81.37194 
   77800    1154.7116   -105.01268    1.0448073   -103.96787   -3301.2891    4.3203253    4.3203253    4.3203253   -3301.2891   -5836.9305     13712.43   -17779.367   -2794.7698    498.03653    10967.445    80.639783 
   77900    411.05024    -104.3536    0.3719269   -103.98167    3444.5845    4.3282246    4.3282246    4.3282246    3444.5845    7699.4094    10806.386   -8172.0416    24066.672    1411.1859   -9880.8694    81.082917 
   78000    1107.6493   -104.97684    1.0022243   -103.97462   -6128.1628    4.3250961    4.3250961    4.3250961   -6128.1628   -12285.067    5246.9434   -11346.364   -917.94784    4918.7776   -786.58314    80.907222 
   78100    636.36664   -104.55571   0.57579791   -103.97991    6039.7074    4.3281368    4.3281368    4.3281368    6039.7074    9878.6397    5868.9888    2371.4937    10101.678    -5137.369    5853.1596    81.077984 
   78200    803.59787   -104.70205   0.72711224   -103.97494   -6930.9297    4.3279763    4.3279763    4.3279763   -6930.9297   -13862.897    12452.856   -19382.747    11925.238    4467.7411   -19919.493    81.068965 
   78300    1022.8248   -104.89502   0.92547337   -103.96955    6364.3456    4.3240258    4.3240258    4.3240258    6364.3456    12160.453    4889.1284    2043.4555   -8169.5651   -6458.3506    16752.283    80.847169 
   78400    540.33089   -104.46339   0.48890275   -103.97448   -6288.5819    4.3315876    4.3315876    4.3315876   -6288.5819   -7172.8556    19850.854   -31543.744    14816.325    1266.1948   -17657.248    81.272065 
   78500    954.29533   -104.83328   0.86346647   -103.96981   -6658.6775    4.3252205    4.3252205    4.3252205   -6658.6775   -1096.7516   -9016.9073   -9862.3736   -9930.8254   -4422.0122    5602.1427    80.914201 
   78600     729.6038    -104.6315   0.66016085   -103.97134    6678.6574    4.3250322    4.3250322    4.3250322    6678.6574    14427.568    6441.4468   -833.04215   -92.433689    -37.23461   -1129.2775    80.903633 
   78700    788.30945   -104.68687   0.71327896    -103.9736   -19963.253    4.3292303    4.3292303    4.3292303   -19963.253   -17829.856   -17175.149   -24884.752    1332.5428   -1955.8934   -13213.382     81.13945 
   78800    824.64267   -104.71393   0.74615401   -103.96777    12244.363    4.3248876    4.3248876    4.3248876    12244.363    23900.204    6689.7863    6143.0998   -13771.077    5945.4784    8877.6809    80.895519 
   78900    696.23686   -104.60375   0.62996974   -103.97378    194.04527    4.3242712    4.3242712    4.3242712    194.04527    25878.162    -5912.719   -19383.307    15116.803   -4395.2382   -22492.169    80.860935 
   79000     918.0344   -104.80904   0.83065681   -103.97838   -11032.524    4.3308339    4.3308339    4.3308339   -11032.524   -33820.915    8731.4277    -8008.084   -2398.3024    8777.8315    6788.0609    81.229651 
   79100    821.10913    -104.7202    0.7429568   -103.97725    10888.533    4.3215309    4.3215309    4.3215309    10888.533    50381.931   -7028.8775   -10687.455    3998.3208   -6956.5432   -14508.347    80.707307 
   79200    652.06113   -104.57809   0.58999861   -103.98809    -14575.69    4.3320157    4.3320157    4.3320157    -14575.69   -7262.9038   -15723.912   -20740.253    12280.817    9162.7127    -5771.876    81.296165 
   79300    1050.9707   -104.92904   0.95094039    -103.9781    7387.4508     4.323574     4.323574     4.323574    7387.4508   -8483.4036      34902.6   -4256.8436   -13449.592   -9143.3351   -3473.3494    80.821834 
   79400    509.38234   -104.44288   0.46089984   -103.98198   -2626.6042    4.3309897    4.3309897    4.3309897   -2626.6042    26697.877   -19681.322   -14896.367    8269.5677    3638.2426   -18561.438    81.238419 
   79500    946.36306    -104.8282   0.85628918   -103.97191   -1810.8665    4.3273385    4.3273385    4.3273385   -1810.8665   -13586.466    14623.341   -6469.4744   -12918.499   -6988.9512    7088.2929    81.033129 
   79600    843.67269   -104.73433   0.76337278   -103.97096   -1234.5629    4.3279625    4.3279625    4.3279625   -1234.5629    17883.271   -6688.8504   -14898.109    1835.5537     4952.136   -16844.532    81.068188 
   79700     667.5424   -104.57559   0.60400639   -103.97159    620.72412    4.3293468    4.3293468    4.3293468    620.72412    22385.879   -5194.1354   -15329.571    5526.4849    455.42917   -1070.5259       81.146 
   79800    965.70111   -104.84286   0.87378666   -103.96907   -1087.3869    4.3271436    4.3271436    4.3271436   -1087.3869   -6735.8742    6467.2275   -2993.5139    -5931.059    3354.6534    -5904.883    81.022177 
   79900    930.73634   -104.81842    0.8421498   -103.97627   -17630.809    4.3295881    4.3295881    4.3295881   -17630.809    850.99092   -26381.125   -27362.294    9909.1783    3309.9235   -15818.878    81.159571 
   80000    539.84889   -104.46816   0.48846662   -103.97969    23346.569    4.3217783    4.3217783    4.3217783    23346.569    28889.817     27168.23    13981.659   -6033.8956    241.64189    6809.3531     80.72117 
   80100    954.48939   -104.84519   0.86364206   -103.98154   -16992.151    4.3301871    4.3301871    4.3301871   -16992.151   -3633.8013   -22205.445   -25137.208    5354.8944   -1665.3825   -12285.613     81.19326 
   80200     780.6059   -104.68667   0.70630862   -103.98036   -3659.8431    4.3306158    4.3306158    4.3306158   -3659.8431   -18847.201    18322.639   -10454.967    5115.9611   -7259.2319    6205.2653     81.21738 
   80300    663.10274   -104.57983   0.59998929   -103.97984     2694.001    4.3226842    4.3226842    4.3226842     2694.001    35942.118   -5844.4246    -22015.69   -7325.5942   -458.78707   -14843.881    80.771941 
   80400    1047.1511   -104.92303   0.94748428   -103.97555   -13624.012     4.323971     4.323971     4.323971   -13624.012   -6968.5217   -14936.063   -18967.451    1662.4634   -7968.6288   -10798.776    80.844098 
   80500    531.04775   -104.45608   0.48050317   -103.97557    2110.0867    4.3352409    4.3352409    4.3352409    2110.0867    14349.161    4067.2493    -12086.15    1928.6279    2078.8994   -1928.8486    81.477875 
   80600    997.16259   -104.86952   0.90225366   -103.96727   -3335.4239    4.3189669    4.3189669    4.3189669   -3335.4239    13015.528   -12727.129   -10294.671   -5383.6776    -6899.898   -19152.739    80.563739 
   80700    816.49518   -104.71245   0.73878199   -103.97367    6105.8578    4.3245235    4.3245235    4.3245235    6105.8578    237.49655    18148.836     -68.7588     13656.18    9058.0419    4946.8073    80.875089 
   80800    692.68032   -104.60012   0.62675171   -103.97337   -8936.7014    4.3336631    4.3336631    4.3336631   -8936.7014    12233.999   -6933.4709   -32110.632   -3763.8557   -2079.3251   -19647.802    81.388946 
   80900    1090.9978   -104.95621    0.9871577   -103.96905   -8318.8071    4.3211744    4.3211744    4.3211744   -8318.8071   -6327.3192   -3417.0592   -15212.043    13105.464    12270.533   -3202.2569    80.687339 
   81000    564.38821   -104.48563   0.51067031   -103.97496     9763.798    4.3235568    4.3235568    4.3235568     9763.798    11871.042    29489.604   -12069.253    1264.3478   -2442.1993    3396.5625     80.82087 
   81100    768.43057   -104.67217   0.69529213   -103.97688    1063.1803    4.3305991    4.3305991    4.3305991    1063.1803    39808.654   -7019.4702   -29599.643    2510.5791    172.58309   -17726.133    81.216441 
   81200    905.97568   -104.79651   0.81974584   -103.97676   -11452.489    4.3305938    4.3305938    4.3305938   -11452.489   -20490.168    3091.4002   -16958.698     722.9552   -3345.7119     12320.54    81.216144 
   81300    778.54395   -104.68212   0.70444293   -103.97768    12212.421    4.3171777    4.3171777    4.3171777    12212.421    37117.632    14229.244   -14709.614    9198.6263   -3197.6873    -24458.03    80.463657 
   81400    832.61606   -104.73385   0.75336851   -103.98048    2374.3257    4.3330163    4.3330163    4.3330163    2374.3257     31640.01   -3597.3049   -20919.728   -3194.1912    1687.6919    10530.888    81.352513 
   81500    731.02186   -104.63809   0.66144394   -103.97665    -5713.814    4.3287995    4.3287995    4.3287995    -5713.814   -9337.9814    19679.811   -27483.271    15197.943    965.79255   -4487.7732    81.115231 
   81600    936.50106    -104.8187   0.84736584   -103.97133    4757.1236    4.3202198    4.3202198    4.3202198    4757.1236     33300.02     -6503.58    -12525.07   -5174.1902     2896.818   -10995.583    80.633876 
   81700    771.93731    -104.6727    0.6984651   -103.97424   -8777.1968    4.3310799    4.3310799    4.3310799   -8777.1968   -5753.4968    1410.3703   -21988.464    11118.924    1992.8714    19283.894    81.243493 
   81800    668.37786   -104.57967   0.60476234   -103.97491   -6081.6229    4.3285415    4.3285415    4.3285415   -6081.6229    5844.4487    10175.968   -34265.285   -2067.2327    3253.5581   -24498.198    81.100732 
   81900    809.72194   -104.70801   0.73265343   -103.97536    7249.5941    4.3209289    4.3209289    4.3209289    7249.5941    29037.218    10074.635   -17363.071    4768.3007    3785.5622    16404.625    80.673588 
   82000    946.87971   -104.83475   0.85675666   -103.97799   -25243.252    4.3325096    4.3325096    4.3325096   -25243.252   -13034.669   -20779.285   -41915.802    1468.1027   -106.23961   -11088.099    81.323975 
   82100    585.60207   -104.50186   0.52986506     -103.972    18550.228    4.3235171    4.3235171    4.3235171    18550.228    36154.175    37589.117   -18092.609   -2215.9631    583.26603   -3401.2482    80.818639 
   82200     975.1904   -104.85094   0.88237277   -103.96857   -25155.132    4.3277071    4.3277071    4.3277071   -25155.132   -17391.725   -21082.004   -36991.668   -4792.0242   -3613.4972    14143.641     81.05384 
   82300    615.63125   -104.52313   0.55703609   -103.96609    13822.543    4.3245712    4.3245712    4.3245712    13822.543    30420.676    19222.349   -8175.3963    613.55992   -978.28601    -18405.05    80.877767 
   82400    948.61379   -104.82455   0.85832569   -103.96623   -17473.634    4.3306322    4.3306322    4.3306322   -17473.634    -8799.395   -8309.3551   -35312.152   -8126.3575    -2521.307    23734.946    81.218299 
   82500     735.0548   -104.63182   0.66509303   -103.96672    3096.5019     4.326714     4.326714     4.326714    3096.5019    22173.058    8337.0517   -21220.604    4620.2142   -1167.4979   -9316.2462    80.998052 
   82600    725.26533    -104.6255   0.65623531   -103.96927     9177.125    4.3218632    4.3218632    4.3218632     9177.125    34044.232    21014.487   -27527.344   -1745.8942   -3908.5888    5469.2766    80.725928 
   82700    958.94189   -104.83683   0.86767078   -103.96916   -21892.596    4.3356431    4.3356431    4.3356431   -21892.596   -9437.4594   -21397.645   -34842.683    7544.7443    -676.2692    16267.171    81.500555 
   82800    604.64391   -104.51428   0.54709452   -103.96719    15281.018    4.3218122    4.3218122    4.3218122    15281.018    33356.625    30425.953   -17939.525    3575.1142   -2295.7985   -14426.284    80.723073 
   82900    983.50171   -104.86107   0.88989302   -103.97118   -25789.579    4.3263915    4.3263915    4.3263915   -25789.579   -8475.3664   -31305.142   -37588.228    6097.5358    1191.9927    28658.143    80.979939 
   83000    641.64817    -104.5485   0.58057675   -103.96792    11262.734    4.3340881    4.3340881    4.3340881    11262.734    16519.226    34834.794   -17565.818    862.14066    9068.9238   -12079.265    81.412894 
   83100    937.21882   -104.81504   0.84801528   -103.96703   -24234.657    4.3246713    4.3246713    4.3246713   -24234.657    5031.8122   -33730.444    -44005.34    5763.7316    2346.8635    20104.589    80.883381 
   83200    670.48659   -104.57451   0.60667035   -103.96784    16770.216    4.3216908    4.3216908    4.3216908    16770.216    21254.125    41977.315   -12920.791    -5458.609    2951.3395    10040.586    80.716268 
   83300    873.36885   -104.75819   0.79024249   -103.96795   -18714.293    4.3339248    4.3339248    4.3339248   -18714.293    1239.6317   -17652.542   -39729.969    3574.3459    4934.6102    -920.8538    81.403697 
   83400    662.30898   -104.56645   0.59927108   -103.96718   -6674.0217    4.3274802    4.3274802    4.3274802   -6674.0217    13313.368   -519.65291    -32815.78   -5810.1186   -2355.4258    31192.925    81.041092 
   83500    875.45673    -104.7537   0.79213165   -103.96156    12922.987    4.3206227    4.3206227    4.3206227    12922.987    23991.206    29669.727   -14891.971   -371.89174    5623.3128   -12589.304    80.656438 
   83600    735.23813   -104.63857   0.66525891   -103.97331   -28604.399    4.3298783    4.3298783    4.3298783   -28604.399   -1854.8627   -25121.711   -58836.624   -980.74405    -3760.314    32600.103    81.175893 
   83700    811.87596   -104.70381   0.73460243   -103.96921    17838.103    4.3282358    4.3282358    4.3282358    17838.103    40486.294    33752.984   -20724.968    126.33253    3258.3149   -8015.5567    81.083549 
   83800    801.08601   -104.69792   0.72483946   -103.97308    4415.4604     4.316438     4.316438     4.316438    4415.4604     13232.64    32700.312   -32686.571    3241.1234   -7304.7239    19250.524    80.422305 
   83900    790.39323   -104.69588   0.71516441   -103.98072   -14615.276    4.3327258    4.3327258    4.3327258   -14615.276    13556.618   -12612.271   -44790.175     3929.875   -727.00754     13735.31     81.33615 
   84000    897.22287   -104.78566   0.81182611   -103.97383    16054.427    4.3210849    4.3210849    4.3210849    16054.427    16389.016    38339.328   -6565.0632   -4548.4483   -3211.6684    5484.1216    80.682325 
   84100    667.71848   -104.58855   0.60416571   -103.98439   -16757.514    4.3220233    4.3220233    4.3220233   -16757.514    15880.312   -18782.255   -47370.598    3143.3345    2174.0254    29268.717    80.734899 
   84200    862.73685   -104.75267   0.78062243   -103.97205    8984.7018    4.3297615    4.3297615    4.3297615    8984.7018    38024.958   -7478.2256   -3592.6269   -15455.466   -717.28073   -8225.0975    81.169324 
   84300    603.89369   -104.52383    0.5464157   -103.97741   -3955.6746    4.3220432    4.3220432    4.3220432   -3955.6746    38124.996   -11811.378   -38180.642   -1006.9886    1730.9817    32100.314    80.736013 
   84400    1057.9229   -104.92668   0.95723084   -103.96945   -3748.6887    4.3250337    4.3250337    4.3250337   -3748.6887    4569.2662   -2317.9099   -13497.422   -16385.858    4494.0865   -5288.7659     80.90372 
   84500    573.65079   -104.49048   0.51905129   -103.97143    13339.442    4.3236977    4.3236977    4.3236977    13339.442    46424.342   -1839.7815   -4566.2335   -3866.7629   -3284.6295    16017.294    80.828771 
   84600    866.74254   -104.75335   0.78424687   -103.96911   -19924.564    4.3313647    4.3313647    4.3313647   -19924.564   -6899.5339   -8985.6411   -43888.516   -5394.9489    8927.7105    11866.021    81.259524 
   84700    805.97618   -104.69239   0.72926418   -103.96313    21699.799    4.3180462    4.3180462    4.3180462    21699.799    44268.872   -220.65336    21051.178   -1248.3043   -3298.5421   -5638.8854    80.512228 
   84800    702.53757   -104.60765   0.63567075   -103.97198   -8290.1768    4.3263753    4.3263753    4.3263753   -8290.1768    8873.3984   -1218.7606   -32525.168   -3409.0565    3564.9592    27401.308     80.97903 
   84900     983.0678   -104.85327    0.8895004   -103.96377    4177.7118     4.330053     4.330053     4.330053    4177.7118    23866.097   -10463.334    -869.6267    7955.0364   -3897.3398    -14698.64    81.185716 
   85000    541.68286   -104.45743   0.49012603    -103.9673    15178.349      4.31643      4.31643      4.31643    15178.349    46455.022    4333.0991    -5253.074   -2351.6735   -197.94105    25597.955    80.421858 
   85100    991.25956    -104.8701   0.89691248   -103.97319   -12500.477     4.326425     4.326425     4.326425   -12500.477   -695.22541   -17570.445   -19235.761    10014.449   -2499.5938    2159.8867    80.981819 
   85200    888.21654   -104.77813   0.80367699   -103.97445     10359.58    4.3222455    4.3222455    4.3222455     10359.58    21444.135    6206.5315    3428.0751   -7746.3415    -1863.721    9713.2195    80.747351 
   85300    520.69893    -104.4526   0.47113933   -103.98146   -10580.876     4.328361     4.328361     4.328361   -10580.876     25615.38   -18029.567   -39328.442    2401.3333   -2850.9096    20135.864    81.090585 
   85400    1132.5381   -104.99625    1.0247443   -103.97151    8456.3082    4.3148776    4.3148776    4.3148776    8456.3082    10880.844    6339.2549    8148.8258   -7250.1277    4097.6593   -11211.548    80.335119 
   85500    610.00353   -104.53665   0.55194401   -103.98471    -7774.798    4.3258491    4.3258491    4.3258491    -7774.798    17078.129   -13806.463   -26596.061    1824.4999    7829.4068        33149    80.949485 
   85600    875.42334   -104.76794   0.79210143   -103.97584    6420.0457    4.3253963    4.3253963    4.3253963    6420.0457    20037.271   -443.39739   -333.73651   -6434.3914   -1197.3379   -15521.976    80.924071 
   85700    824.14344   -104.71705    0.7457023   -103.97135     3758.813    4.3177239    4.3177239    4.3177239     3758.813    12976.245    6381.8914   -8081.6972    15153.444    1549.0415    22130.754    80.494205 
   85800    732.79675    -104.6319    0.6630499   -103.96885   -1726.1509    4.3232777    4.3232777    4.3232777   -1726.1509    24636.132   -8504.3401   -21310.244   -8161.6838   -2279.6967    7398.8826    80.805215 
   85900    828.06413   -104.71412   0.74924983   -103.96487    13924.523    4.3232697    4.3232697    4.3232697    13924.523    20238.658    15284.267    6250.6434    11324.297   -3994.6724   -6793.4709    80.804768 
   86000    891.76254   -104.77383   0.80688549   -103.96695   -10136.203    4.3228055    4.3228055    4.3228055   -10136.203    10772.316    -8324.337   -32856.589   -4817.5754   -3915.8586    32990.771    80.778742 
   86100    700.16486   -104.60221   0.63352388   -103.96869    18565.477    4.3195285    4.3195285    4.3195285    18565.477     49058.31    10642.685   -4004.5633    2793.1809   -8042.1768   -18082.294    80.595172 
   86200     773.7309   -104.67659   0.70008798    -103.9765   -13058.277    4.3247737    4.3247737    4.3247737   -13058.277    12662.393   -18373.324     -33463.9   -7490.9889   -2419.8994    23293.365    80.889132 
   86300    1026.8643   -104.90132   0.92912836   -103.97219     2120.324    4.3229748    4.3229748    4.3229748     2120.324    12236.003    4197.6841   -10072.715    1858.5261    5805.1414   -4307.8883    80.788234 
   86400     473.5342   -104.40769   0.42846369   -103.97923     -1024.61    4.3254787    4.3254787    4.3254787     -1024.61    25077.181   -1580.1893   -26570.822   -10237.923    3273.0469    7378.8371    80.928696 
   86500    1012.2343   -104.89157   0.91589085   -103.97568   -4276.7228    4.3193759    4.3193759    4.3193759   -4276.7228    5337.8844   -12953.418   -5214.6347    12516.864    10180.776    19284.605    80.586633 
   86600     979.5881   -104.86307    0.8863519   -103.97672   -4580.1034    4.3219364    4.3219364    4.3219364   -4580.1034    8902.5547   -12045.265     -10597.6    905.32163   -15346.879   -11278.871    80.730033 
   86700    401.33544   -104.34345   0.36313674   -103.98031    3893.0921    4.3292057    4.3292057    4.3292057    3893.0921    47037.984   -11907.597   -23451.111    168.08109    5702.4595     22476.15     81.13807 
   86800    1179.2366   -105.03573    1.0669981   -103.96873   -5517.0044    4.3208156    4.3208156    4.3208156   -5517.0044    2443.7609   -6243.3218   -12751.452    2677.7221   -16428.724   -9909.5584     80.66724 
   86900    603.75589   -104.52077   0.54629102   -103.97448    6903.8197    4.3197315    4.3197315    4.3197315    6903.8197    44738.825   -3342.1533   -20685.213   -5047.7075    709.20998    15514.251    80.606537 
   87000    873.02525   -104.75944   0.78993159   -103.96951    -1799.125    4.3316292    4.3316292    4.3316292    -1799.125    35506.041   -24074.847   -16828.569   -528.11097   -7356.7983    5917.9292    81.274407 
   87100    799.66291   -104.69262    0.7235518   -103.96907   -3847.6102    4.3208443    4.3208443    4.3208443   -3847.6102    15385.371   -8170.0849   -18758.117   -4735.0041   -1897.9886   -3622.2093    80.668848 
   87200    821.71293   -104.71667   0.74350313   -103.97316   -1697.5696    4.3242024    4.3242024    4.3242024   -1697.5696     17367.92   -4211.6373   -18248.991    -7033.561    5192.5807    14958.927    80.857077 
   87300    710.37727   -104.61883   0.64276429   -103.97606    2823.3601    4.3261677    4.3261677    4.3261677    2823.3601    28282.279   -14587.662   -5224.5367     12940.56    2866.8629   -8602.6946    80.967371 
   87400    840.18116   -104.74076   0.76021357   -103.98054    -11132.71    4.3198121    4.3198121    4.3198121    -11132.71    15915.876   -22532.102   -26781.905   -5269.7029   -2643.7702    18395.569     80.61105 
   87500    922.15962   -104.81167    0.8343894   -103.97728   -3410.8771    4.3277199    4.3277199    4.3277199   -3410.8771     8428.126   -14005.265   -4655.4921    20386.903   -4136.3223    -2212.529    81.054557 
   87600    483.12673   -104.42015   0.43714322     -103.983    4072.6663      4.32225      4.32225      4.32225    4072.6663    60454.683   -25425.126   -22811.558   -1830.7638   -15597.932    8015.3184    80.747603 
   87700    1047.9018   -104.92563   0.94816354   -103.97746   -427.43366    4.3236785    4.3236785    4.3236785   -427.43366    12326.122   -8314.0567   -5294.3662    851.31826    535.73829    4367.4416    80.827692 
   87800     773.2239   -104.68067   0.69962924   -103.98104   -14740.139    4.3266876    4.3266876    4.3266876   -14740.139   -5521.9179   -19641.488   -19057.012    8141.3364    2334.9646   -6130.4028    80.996566 
   87900     643.7914   -104.55927   0.58251599   -103.97675     4391.201    4.3232437    4.3232437    4.3232437     4391.201    47787.309   -6797.1862    -27816.52   -5421.0414   -1518.3404    14412.847    80.803313 
   88000     918.5293   -104.80142   0.83110461   -103.97032    6637.0365    4.3216509    4.3216509    4.3216509    6637.0365    27603.569   -10063.029    2370.5703    10956.123     7554.709   -7082.1318    80.714034 
   88100    771.50436    -104.6743   0.69807336   -103.97623   -27138.329     4.328384     4.328384     4.328384   -27138.329   -1652.0479   -32054.572   -47708.367    2119.0485   -5267.9917    8958.4782    81.091877 
   88200     977.5302   -104.85524   0.88448987   -103.97075    2846.5176    4.3243364    4.3243364    4.3243364    2846.5176    3552.0863    1530.6556     3456.811    3334.8381   -5698.8977   -2097.6783    80.864594 
   88300    418.09847   -104.36322   0.37830428   -103.98492    2674.9991    4.3194294    4.3194294    4.3194294    2674.9991    60658.976   -22291.416   -30342.563    7650.5052   -2566.4223   -1783.9518    80.589627 
   88400    796.13501   -104.70994   0.72035969   -103.98958    8390.9664    4.3262587    4.3262587    4.3262587    8390.9664    29602.139    2124.3799     -6553.62   -8996.6505   -6913.1597    7964.9908    80.972484 
   88500    949.35213   -104.84257   0.85899376   -103.98357   -18876.643    4.3267189    4.3267189    4.3267189   -18876.643   -11972.187   -22764.679   -21893.063    2070.6461    8316.1214   -5611.0658    80.998326 
   88600    584.13047    -104.5085   0.52853353   -103.97996   -2446.2434    4.3189928    4.3189928    4.3189928   -2446.2434    17856.447   -5177.0838   -20018.093    577.62217   -3725.7076     10091.41    80.565192 
   88700    947.61338   -104.82995    0.8574205   -103.97253    10758.447    4.3239493    4.3239493    4.3239493    10758.447    37196.381    2042.7059   -6963.7458    2161.7308      9281.66   -857.32645    80.842881 
   88800    779.62882   -104.68121   0.70542454   -103.97579   -30800.715    4.3305526    4.3305526    4.3305526   -30800.715   -12769.758   -39087.713   -40544.674    7083.0532   -4346.0381     7444.928    81.213821 
   88900    817.09362   -104.70653   0.73932348   -103.96721    21366.167    4.3161511    4.3161511    4.3161511    21366.167    50094.178    20101.034   -6096.7099    4290.4719   -3539.6492    6057.1729    80.406272 
   89000    713.25304   -104.62145   0.64536634   -103.97608   -4540.4703    4.3218523    4.3218523    4.3218523   -4540.4703    12996.992   -23996.867   -2621.5355   -1966.2776   -765.39842   -1076.6515    80.725315 
   89100    946.77765   -104.83361   0.85666431   -103.97695   -15155.028    4.3308277    4.3308277    4.3308277   -15155.028   -13874.344   -5687.1132   -25903.625    2162.1731   -7977.3002    12298.988      81.2293 
   89200    698.81095   -104.60528   0.63229884   -103.97298    16774.732    4.3194164    4.3194164    4.3194164    16774.732    38600.994     6461.244    5261.9569   -11606.955    2487.6528   -6035.7995    80.588896 
   89300    567.81676   -104.49273   0.51377254   -103.97896   -4314.1851    4.3203952    4.3203952    4.3203952   -4314.1851    34916.151   -16560.888   -31297.819    6657.1959     5356.385    5775.6716    80.643694 
   89400    1147.0761   -105.01305    1.0378986   -103.97515   -5176.6118    4.3262811    4.3262811    4.3262811   -5176.6118   -19633.043    10560.776   -6457.5689    835.75402     1067.298   -3011.5186    80.973742 
   89500    754.92021   -104.66921   0.68306767   -103.98614   -11668.051    4.3199813    4.3199813    4.3199813   -11668.051    15177.567   -26982.733   -23198.987   -8695.8374    5498.3951   -8508.1481    80.620522 
   89600      738.593   -104.65252   0.66829447   -103.98422    13057.203    4.3202934    4.3202934    4.3202934    13057.203    41256.889    8283.0718   -10368.351    9495.4101   -2564.2522     8849.601    80.637997 
   89700    859.56285   -104.75835   0.77775053    -103.9806   -5379.8371    4.3258649    4.3258649    4.3258649   -5379.8371     9727.245   -9039.7368    -16827.02    -10092.31   -3946.3445   -13167.103    80.950371 
   89800    663.68365   -104.57889   0.60051491   -103.97838    931.11156    4.3224521    4.3224521    4.3224521    931.11156    23830.487   -6550.3726   -14486.779   -1526.3099    1914.7041    4872.2231    80.758933 
   89900    1049.1434   -104.91757   0.94928695   -103.96828    8791.7851    4.3185779    4.3185779    4.3185779    8791.7851    14231.987    9776.0028    2367.3654    1304.0985   -9351.4052   -1878.7522    80.541976 
   90000    578.45084   -104.50032   0.52339447   -103.97692   -14461.663    4.3220517    4.3220517    4.3220517   -14461.663    2267.9657   -19349.852   -26303.102   -11044.218    6918.2945   -7557.4165    80.736494 
   90100    845.27837   -104.73599   0.76482563   -103.97117    2956.6176    4.3255496    4.3255496    4.3255496    2956.6176    25825.941   -3881.8726   -13074.216    5015.6224   -5625.2838    13895.872    80.932675 
   90200    1019.1621   -104.89237   0.92215929   -103.97021   -10906.164    4.3165381    4.3165381    4.3165381   -10906.164   -9630.7933   -9231.2676   -13856.431   -7752.5092    8956.5014    -16966.47    80.427899 
   90300    426.92754   -104.36534   0.38629301   -103.97905   -3888.6167    4.3263789    4.3263789    4.3263789   -3888.6167    38597.003   -24561.866   -25700.987   -5637.5109    3580.1251    14881.222    80.979235 
   90400    1104.3399   -104.96591   0.99922998   -103.96668    510.37341    4.3241615    4.3241615    4.3241615    510.37341     11765.27    9526.1519   -19760.302    3569.7094    10837.189   -5715.7259    80.854785 
   90500    684.86911    -104.5953   0.61968396   -103.97562   -13485.448    4.3215359    4.3215359    4.3215359   -13485.448    8819.6534   -22620.362   -26655.636    -6677.613    5703.6494    1713.6022    80.707592 
   90600    802.90308   -104.69928   0.72648358   -103.97279     9435.919    4.3218517    4.3218517    4.3218517     9435.919    30633.876    11559.926   -13886.045    1129.1844   -749.46476    13258.118    80.725286 
   90700    719.48519   -104.63042   0.65100532   -103.97941   -10941.742    4.3246951    4.3246951    4.3246951   -10941.742    9955.6031   -16802.653   -25978.175    1310.9567   -1532.1899   -11538.915    80.884718 
   90800    950.64573   -104.83919   0.86016423   -103.97902   -12057.751    4.3234697    4.3234697    4.3234697   -12057.751   -4321.2321   -5771.9787   -26080.043   -5415.8473   -1519.1245      17381.2    80.815986 
   90900    773.63896   -104.68093   0.70000479   -103.98092    11155.871     4.320363     4.320363     4.320363    11155.871    41162.148    1087.9994   -8782.5327     5706.417    -585.8102   -14052.468    80.641893 
   91000    549.84766   -104.48674   0.49751372   -103.98923   -11959.241    4.3287097    4.3287097    4.3287097   -11959.241    20263.775   -22047.772   -34093.725   -10198.244    4131.5236    6878.4126    81.110183 
   91100    1036.7479   -104.91543   0.93807125   -103.97736    7553.9449    4.3180472    4.3180472    4.3180472    7553.9449    7825.6666     13255.53    1580.6379    3460.2932    5476.2558   -896.06897    80.512287 
   91200    729.68579   -104.64045   0.66023504   -103.98022   -6892.2659    4.3260127    4.3260127    4.3260127   -6892.2659    29725.253    -12187.06   -38214.991    3304.4155   -5431.5432   -10921.938     80.95867 
   91300    815.91578   -104.70831   0.73825775   -103.97005     10429.71    4.3258678    4.3258678    4.3258678     10429.71    37006.281    1555.0891    -7272.239    1633.5636    8387.5586    11709.171    80.950534 
   91400    925.11551   -104.80588   0.83706395   -103.96882   -8561.3558    4.3201082    4.3201082    4.3201082   -8561.3558    846.47133    443.32451   -26973.863    3542.6398   -15281.321   -19942.652    80.627625 
   91500    608.92284   -104.52579   0.55096619   -103.97482    3375.9267    4.3263206    4.3263206    4.3263206    3375.9267    40881.043   -14531.841   -16221.422   -1866.4241    2225.8415    8542.4799    80.975956 
   91600    1024.1026   -104.89579    0.9266296   -103.96916    104.58898    4.3235136    4.3235136    4.3235136    104.58898   -6322.2821    22547.565   -15911.516    1192.5793   -13883.857   -9209.8611    80.818443 
   91700    614.24627   -104.52977   0.55578294   -103.97398   -15174.122    4.3273497    4.3273497    4.3273497   -15174.122    8165.0487   -26868.656   -26818.759   -2244.2077   -545.36625   -9519.9801    81.033758 
   91800    870.99318   -104.75392   0.78809293   -103.96583    22215.252    4.3203152    4.3203152    4.3203152    22215.252    44260.871    25701.775   -3316.8886    689.00863   -3797.2332    7775.5771    80.639215 
   91900    810.04333   -104.70573   0.73294423   -103.97278   -23360.894    4.3312528    4.3312528    4.3312528   -23360.894    3715.5031   -37133.571   -36664.613   -5533.9503   -2330.0513    -21245.45    81.253223 
   92000    845.70179   -104.73376   0.76520875   -103.96855    14892.165    4.3209631    4.3209631    4.3209631    14892.165    52755.506    7961.7761   -16040.787    7567.4171     4021.765    10345.224      80.6755 
   92100    589.19884   -104.50953    0.5331195   -103.97641    12757.502    4.3206394    4.3206394    4.3206394    12757.502    60324.864   -7694.6299    -14357.73   -10905.222    2598.1859   -16527.979    80.657369 
   92200    885.30851   -104.78423   0.80104574   -103.98318   -29176.459    4.3302701    4.3302701    4.3302701   -29176.459    -12845.92   -30689.215   -43994.241    6567.4254   -2226.7323   -1485.8126     81.19793 
   92300    834.75492   -104.73108    0.7553038   -103.97577    23559.284    4.3149673    4.3149673    4.3149673    23559.284    45380.284    29607.281    -4309.712   -6066.9658   -5489.0102   -3741.5416    80.340132 
   92400    616.25016    -104.5433   0.55759609    -103.9857   -14133.004    4.3279304    4.3279304    4.3279304   -14133.004    30838.892     -25559.7   -47678.203    2734.7607   -9873.9581   -19375.494    81.066387 
   92500     908.2466     -104.799   0.82180061    -103.9772     565.2193    4.3255107    4.3255107    4.3255107     565.2193     1872.955    13647.928   -13825.225   -4353.3429   -7567.4883    11574.593     80.93049 
   92600    795.83027   -104.70105   0.72008395   -103.98097   -15732.017    4.3200573    4.3200573    4.3200573   -15732.017    14371.097   -26080.231   -35486.917   -4467.9657    1411.4949   -30077.197    80.624777 
   92700     719.7035   -104.62879   0.65120285   -103.97758    15687.123    4.3249508    4.3249508    4.3249508    15687.123    42948.723    14428.162   -10315.515    5887.0698   -3367.0079    9698.0334    80.899068 
   92800    980.34729   -104.86244   0.88703883   -103.97541   -15521.938    4.3290367    4.3290367    4.3290367   -15521.938   -1477.0805   -12390.418   -32698.315    3082.7742    8825.4505   -23876.121    81.128568 
   92900    650.04105   -104.56201   0.58817081   -103.97384    4942.2789     4.321282     4.321282     4.321282    4942.2789    17923.757    14708.631   -17805.551    3943.5031    -2503.843   -12765.955    80.693364 
   93000    827.44624    -104.7191   0.74869075   -103.97041    561.27871    4.3212315    4.3212315    4.3212315    561.27871    18472.111    3173.6347   -19961.909   -3490.7015   -224.53663   -980.94173    80.690537 
   93100    796.49459   -104.69964   0.72068505   -103.97895    -13599.44    4.3246109    4.3246109    4.3246109    -13599.44    3132.2711   -7486.1323   -36444.459    3832.6619   -1948.2433   -30967.928    80.879993 
   93200    865.28762   -104.75562   0.78293043   -103.97269    2718.5634    4.3243773    4.3243773    4.3243773    2718.5634    10977.086    17992.036   -20813.431   -12208.384   -10260.015    9623.7676    80.866889 
   93300    619.54205     -104.534   0.56057467   -103.97343    8303.2817     4.310354     4.310354     4.310354    8303.2817    43307.396    10142.252   -28539.803    5050.9777    918.33817   -26619.841    80.082723 
   93400    870.78312   -104.76123   0.78790287   -103.97333    -12650.56    4.3282189    4.3282189    4.3282189    -12650.56   -14666.715   -10.757713   -23274.206   -11512.193   -9909.9643   -3015.9764    81.082597 
   93500    808.27042   -104.70129   0.73134007   -103.96995     15654.74    4.3156113    4.3156113    4.3156113     15654.74    24367.604    41664.106   -19067.489    3008.5229    -988.5202   -4750.5322    80.376108 
   93600    800.42679   -104.69931   0.72424298   -103.97507   -11788.204    4.3211656    4.3211656    4.3211656   -11788.204    7750.3361   -13221.362   -29893.585   -8212.2808   -3392.2373   -24623.757    80.686846 
   93700    899.38749   -104.78298   0.81378471    -103.9692    14468.139    4.3169783    4.3169783    4.3169783    14468.139    10563.596    46016.453   -13175.632    5574.7696   -3796.1615    7309.1951    80.452511 
   93800    469.96334   -104.40707   0.42523271   -103.98183   -7755.7266     4.326649     4.326649     4.326649   -7755.7266    36987.327   -22690.545   -37563.962   -5138.2318    3345.9456   -32374.919    80.994398 
   93900    1229.6349   -105.08171    1.1125995   -103.96911   -2927.9226    4.3197189    4.3197189    4.3197189   -2927.9226   -9314.6718    20222.936   -19692.032    13828.214   -5141.1397    1154.0974    80.605834 
   94000    539.05287   -104.46448   0.48774636   -103.97674    5772.5802    4.3139632    4.3139632    4.3139632    5772.5802    44784.206   -1920.3628   -25546.102   -5438.3189   -2269.5902   -26351.548    80.284054 
   94100    753.76108   -104.65806   0.68201886   -103.97604   -6919.3026    4.3277493    4.3277493    4.3277493   -6919.3026   -5816.6276    24674.638   -39615.919    7730.4673    2759.6686   -12053.862    81.056209 
   94200    842.94883   -104.73807   0.76271782   -103.97535   -3755.5372    4.3225059    4.3225059    4.3225059   -3755.5372    8749.6749   -2061.9635   -17954.323   -7419.7263   -12554.427   -2987.4147    80.761949 
   94300    676.88867   -104.59097   0.61246309   -103.97851     3963.651    4.3092256    4.3092256    4.3092256     3963.651    51536.908   -9354.5897   -30291.365    1112.9167     3787.343   -31881.644    80.019845 
   94400    1027.6677   -104.90335    0.9298553    -103.9735   -4700.6722    4.3279286    4.3279286    4.3279286   -4700.6722   -13941.701    15796.455    -15956.77   -9465.3058   -12115.102    11724.491    81.066281 
   94500    539.93191   -104.46621   0.48854174   -103.97767   -1956.9143    4.3241895    4.3241895    4.3241895   -1956.9143    47844.444   -21424.078   -32291.109    638.56134    -358.6846   -31974.269    80.856356 
   94600    823.54517    -104.7186   0.74516098   -103.97343    16242.276    4.3143971    4.3143971    4.3143971    16242.276    36336.016     15774.64   -3383.8284   -245.46302   -1253.6453    4934.0418    80.308285 
   94700    903.15255   -104.79773   0.81719141   -103.98054   -12185.649    4.3228563    4.3228563    4.3228563   -12185.649    4601.1339   -11747.991   -29410.091    2367.7231   -3719.5445    -20105.16     80.78159 
   94800     780.4565   -104.68787   0.70617344    -103.9817   -280.60558    4.3261101    4.3261101    4.3261101   -280.60558    9631.6741    21012.261   -31485.752    7461.0832    8616.2163   -11879.159    80.964141 
   94900    679.17993   -104.59338   0.61453627   -103.97884    13358.466    4.3213803    4.3213803    4.3213803    13358.466    53803.699   -899.17751   -12829.125   -6858.8675   -4308.8332    1699.1287    80.698875 
   95000    842.92283   -104.74349   0.76269429    -103.9808   -4770.1239    4.3173894    4.3173894    4.3173894   -4770.1239    14813.156     4306.865   -33430.393    3645.7799    6930.3176   -29566.142    80.475494 
   95100    971.18183   -104.85453   0.87874573   -103.97578     -9955.42    4.3330309    4.3330309    4.3330309     -9955.42   -5290.0374    4184.8619   -28761.085   -10678.951    -7831.996    13704.875    81.353334 
   95200    472.99121    -104.4049   0.42797239   -103.97692     13428.17    4.3181664    4.3181664    4.3181664     13428.17    54308.158    9046.1042   -23069.751   -776.35341   -385.40114   -30477.649    80.518951 
   95300    1245.2324   -105.09778    1.1267125   -103.97107   -5601.7417    4.3184023    4.3184023    4.3184023   -5601.7417    5038.3213   -5887.9798   -15955.567   -7837.0917   -12295.821     3392.522    80.532153 
   95400    552.60382   -104.47941   0.50000755    -103.9794    5041.8057    4.3250172    4.3250172    4.3250172    5041.8057    34880.802    201.55885   -19956.944    2656.9618    1071.0268    -11045.82    80.902793 
   95500    746.69105   -104.65332   0.67562176    -103.9777   -5752.7762     4.324467     4.324467     4.324467   -5752.7762    14166.163   -16486.636   -14937.856   -2173.4876   -12807.594   -18764.198    80.871924 
   95600     1032.069   -104.90397   0.93383775   -103.97013    3618.6405    4.3156335    4.3156335    4.3156335    3618.6405   -4254.4446     18972.79   -3862.4239    7051.4839    12282.244    8326.7645    80.377348 
   95700     465.9247    -104.4035   0.42157846   -103.98192    1835.5685    4.3185299    4.3185299    4.3185299    1835.5685    48985.377   -21453.217   -22025.454   -3120.1194   -1370.3396   -34409.665     80.53929 
   95800    1101.6359   -104.97063   0.99678332   -103.97385   -1112.9789    4.3282411    4.3282411    4.3282411   -1112.9789    20782.454   -9492.9875   -14628.403    2160.9659    5764.9154    10527.936    81.083847 
   95900    739.45132   -104.64852   0.66907109   -103.97945   -2170.9002    4.3086154    4.3086154    4.3086154   -2170.9002    8607.5948   -7002.8896   -8117.4059   -5448.4154   -8134.7586   -31107.322    79.985856 
   96000    689.45872   -104.60359   0.62383674   -103.97976    1924.6509    4.3233842    4.3233842    4.3233842    1924.6509     13746.14    7707.4078   -15679.595   -182.71445   -3149.2215    150.30043    80.811187 
   96100    937.22166   -104.82156   0.84801785   -103.97354   -6766.5239    4.3211169    4.3211169    4.3211169   -6766.5239    11844.525   -9684.9018   -22459.195    -1275.437   -8459.6435     -16458.6    80.684114 
   96200    810.77924   -104.70856   0.73361009   -103.97495   -5550.2598    4.3141042    4.3141042    4.3141042   -5550.2598    6318.0869   -24731.202    1762.3352   -5275.7012   -5264.5218   -20788.686    80.291926 
   96300    896.87249   -104.78154   0.81150907   -103.97004    16774.757    4.3180141    4.3180141    4.3180141    16774.757    39668.353    13880.559   -3224.6417   -2724.1846   -362.08278    3364.4062    80.510432 
   96400    561.28836   -104.48293    0.5078655   -103.97507   -11467.579    4.3237382    4.3237382    4.3237382   -11467.579   -1226.3892   -26236.352    -6939.996   -255.03359   -816.80362    -28804.57    80.831039 
   96500    923.38669   -104.80108   0.83549968   -103.96558    10439.111    4.3204275    4.3204275    4.3204275    10439.111    26522.921    10712.127   -5917.7142    3149.0036    386.48579    9082.8974    80.645503 
   96600    815.65787   -104.70716   0.73802438   -103.96913    2543.8664    4.3118697    4.3118697    4.3118697    2543.8664     19144.73   -17240.702    5727.5715    3191.3856    6854.9514   -26054.408    80.167229 
   96700    759.29178   -104.65727   0.68702316   -103.97024   -19177.323    4.3282526    4.3282526    4.3282526   -19177.323    -10348.11   -19586.916   -27596.945   -1266.4238   -3944.9317   -6673.7663    81.084492 
   96800    798.87652   -104.68994   0.72284027    -103.9671    5450.4167    4.3187499    4.3187499    4.3187499    5450.4167    33673.022    232.84008   -17554.612    8992.4638    5569.0123   -7877.4449    80.551597 
   96900    762.89387   -104.65961   0.69028241   -103.96933    6590.5755    4.3123126    4.3123126    4.3123126    6590.5755      22792.7   -6808.1383     3787.165      2528.81   -5930.9753   -24559.176    80.191937 
   97000    888.32056   -104.77019   0.80377111   -103.96642    455.32519    4.3250167    4.3250167    4.3250167    455.32519     19508.18    2727.2808   -20869.485    6836.5269   -6528.4742    11521.684    80.902765 
   97100    636.26138   -104.54472   0.57570267   -103.96902   -2821.6081    4.3161994    4.3161994    4.3161994   -2821.6081    11241.934   -23694.104     3987.346    767.59862   -3008.8629    -33807.25    80.408969 
   97200    980.58667   -104.85393   0.88725542   -103.96667   -6339.6602    4.3183546    4.3183546    4.3183546   -6339.6602    2946.7868   -7062.1721   -14903.595   -5269.4357   -6736.1534    9130.3462    80.529482 
   97300     730.8287   -104.63361   0.66126916   -103.97234    10399.448    4.3134484    4.3134484    4.3134484    10399.448    29721.424   -6501.7102    7978.6298   -2198.7766    -5592.032   -18907.692    80.255316 
   97400    799.58155   -104.69892   0.72347819   -103.97544   -11229.356    4.3217088    4.3217088    4.3217088   -11229.356    13120.618   -13108.963   -33699.723   -3088.9514   -835.70844    -8476.303    80.717276 
   97500    778.65196    -104.6763   0.70454066   -103.97176    7449.8787    4.3154952    4.3154952    4.3154952    7449.8787    31823.227   -749.36047   -8724.2306   -4327.6589   -3296.0574    5480.4416    80.369618 
   97600    772.07627   -104.67315   0.69859084   -103.97456   -5233.8722    4.3160928    4.3160928    4.3160928   -5233.8722    24008.434   -26149.406   -13560.644    1710.4943    2881.0549   -30111.468    80.403011 
   97700    993.97566    -104.8672   0.89937006   -103.96783   -3646.1794      4.32104      4.32104      4.32104   -3646.1794    14302.218   -686.75407   -24554.002    1976.6972    3047.6403    17611.913    80.679806 
   97800    501.23538   -104.42614    0.4535283   -103.97262    8149.0995     4.312491     4.312491     4.312491    8149.0995    47590.365   -7085.0734   -16057.993    3521.8295   -2716.6185   -30152.287     80.20189 
   97900    985.68612   -104.86001   0.89186952   -103.96814    4228.7472    4.3210172    4.3210172    4.3210172    4228.7472    23466.949      2153.74   -12934.448   -486.86671    3278.3064    6676.1601    80.678531 
   98000    807.62514   -104.70127    0.7307562   -103.97051    1871.0232    4.3154002    4.3154002    4.3154002    1871.0232    33120.002   -18105.624   -9401.3089    1054.5101   -7746.7165   -10508.732     80.36431 
   98100    693.28747   -104.60147   0.62730107   -103.97417    1501.1568    4.3186568    4.3186568    4.3186568    1501.1568    31545.323     924.3119   -27966.165   -7401.4487   -2137.8713   -21112.075     80.54639 
   98200     893.0542   -104.77758   0.80805421   -103.96953    4906.0698    4.3194825    4.3194825    4.3194825    4906.0698    37285.615    -4113.924   -18453.482   -7956.0236   -4977.0395    13087.262    80.592599 
   98300    704.26588   -104.61427   0.63723457   -103.97704    -4067.984    4.3127692    4.3127692    4.3127692    -4067.984    6664.1006    5827.3695   -24695.422   -4114.8498    -715.8824    -36903.87    80.217414 
   98400    985.84485   -104.86179   0.89201314   -103.96978    3036.7545    4.3225637    4.3225637    4.3225637    3036.7545    28272.675    2917.2391   -22079.651    5914.9382   -248.12025    12192.297    80.765189 
   98500    541.50482   -104.46861   0.48996494   -103.97864   -10876.565    4.3209671    4.3209671    4.3209671   -10876.565    28182.839   -19764.612   -41047.923    253.45009    1754.2098   -29644.646    80.675725 
   98600    1011.4201   -104.88526   0.91515419    -103.9701    2411.4362    4.3186598    4.3186598    4.3186598    2411.4362    7936.3313    14264.491   -14966.513    8165.3184     -183.775   -4900.1061    80.546559 
   98700    669.06457   -104.58008   0.60538369   -103.97469   -2216.4632    4.3191283    4.3191283    4.3191283   -2216.4632    31757.211    -15867.75    -22538.85    258.13226    2566.8876   -10903.714    80.572774 
   98800    604.38948   -104.52655   0.54686431   -103.97969    1853.3593    4.3202412    4.3202412    4.3202412    1853.3593    38940.524   -7994.0547   -25386.392    5951.5123    -2631.655    -23445.86    80.635073 
   98900     1214.269   -105.06907    1.0986961   -103.97038   -5662.8567    4.3230875    4.3230875    4.3230875   -5662.8567    6639.7042   -3509.3759   -20118.899    -9005.395   -8739.5508    4591.2942    80.794551 
   99000    401.31672   -104.34142    0.3631198    -103.9783    9809.5639    4.3196911    4.3196911    4.3196911    9809.5639    73524.879   -9018.1994   -35077.988   -5626.7105   -4941.1072   -33975.932    80.604277 
   99100    1131.4954   -104.98792    1.0238008   -103.96412   -909.96665    4.3209869    4.3209869    4.3209869   -909.96665   -1876.8421    17340.357   -18193.415   -15395.408   -9964.0074    8883.3724    80.676833 
   99200     411.2044   -104.34395   0.37206639   -103.97189   -11501.689    4.3231773    4.3231773    4.3231773   -11501.689    23905.041   -15118.052   -43292.057    1204.6397   -1075.6754   -33397.225    80.799588 
   99300    1006.8974   -104.87807   0.91106189   -103.96701    992.52816    4.3198606    4.3198606    4.3198606    992.52816    25103.936   -5683.6531   -16442.699   -8737.2593   -10178.929    311.77451    80.613764 
   99400    1014.5463   -104.88746   0.91798281   -103.96948   -4992.8187    4.3183021    4.3183021    4.3183021   -4992.8187    18904.958   -9822.9276   -24060.487    9774.8998    4220.0067   -18208.293    80.526543 
   99500    378.83763   -104.32072   0.34278025   -103.97794    12851.593    4.3219516    4.3219516    4.3219516    12851.593    71260.411   -8792.5325     -23913.1    -3458.808   -1929.5755   -20034.136    80.730883 
   99600    1138.5178   -104.99711    1.0301549   -103.96696   -7185.1457    4.3198229    4.3198229    4.3198229   -7185.1457   -14596.601    6615.2143    -13574.05    14280.112     1605.064      448.531    80.611654 
   99700    429.41174   -104.36549   0.38854076   -103.97695     -3720.01    4.3240141    4.3240141    4.3240141     -3720.01    41669.011   -21086.233   -31742.808    1027.4867    4938.0332   -34062.439    80.846517 
   99800    1235.1888   -105.08025    1.1176248   -103.96263   -4964.2645    4.3221788    4.3221788    4.3221788   -4964.2645    8116.9336   -11757.568   -11252.159    13522.637    6929.1988    13292.855    80.743616 
   99900    555.71226   -104.47223   0.50282013   -103.96941   -8310.1292    4.3215936    4.3215936    4.3215936   -8310.1292    24118.882   -8406.7972   -40642.473   -10176.516   -1021.7364   -30041.761    80.710819 
  100000    736.56233   -104.63548   0.66645708   -103.96902    9956.7937    4.3208126    4.3208126    4.3208126    9956.7937     49100.94   -3708.0253   -15522.534    8001.5586    6551.9386    880.63797    80.667074 
Loop time of 22.2695 on 1 procs for 100000 steps with 8 atoms

Pair  time (%) = 7.25013 (32.5563)
Kspce time (%) = 5.30381 (23.8165)
Neigh time (%) = 0 (0)
Comm  time (%) = 1.06466 (4.78081)
Outpt time (%) = 0.0251667 (0.11301)
Other time (%) = 8.62572 (38.7333)

Nlocal:    8 ave 8 max 8 min
Histogram: 1 0 0 0 0 0 0 0 0 0
Nghost:    2189 ave 2189 max 2189 min
Histogram: 1 0 0 0 0 0 0 0 0 0
Neighs:    2344 ave 2344 max 2344 min
Histogram: 1 0 0 0 0 0 0 0 0 0

Total # of neighbors = 2344
Ave neighs/atom = 293
Neighbor list builds = 0
Dangerous builds = 0
unfix 20
unfix 21
print "seeds:2918177"
seeds:2918177
