LAMMPS (10 Feb 2015)
# ---- initialize simulations
clear
units metal
dimension 3
boundary p p p
atom_style charge
atom_modify map array
# ---- create atoms
read_data /Users/eugeneragasa/pyflamestk_git/pypospack/tests/tests_integration/workflow/WorkflowLammpsThermalExpansion/MgO_NaCl_unit.npt.T800/lammps.structure
  triclinic box = (0 0 0) to (4.2565 4.2565 4.2565) with tilt (0 0 0)
  1 by 1 by 1 MPI processor grid
  reading atoms ...
  8 atoms
# ---- define interatomic potential
include potential.mod
mass 1 24.305
mass 2 15.999

group Mg type 1
4 atoms in group Mg
group O type 2
4 atoms in group O

set group Mg charge 2.0
  4 settings made for charge
set group O charge -2.0
  4 settings made for charge

variable R_cut equal 10.0

pair_style buck/coul/long ${R_cut}
pair_style buck/coul/long 10
pair_coeff 1 1 0.0 0.5 0.0 ${R_cut}
pair_coeff 1 1 0.0 0.5 0.0 10
pair_coeff 1 2 821.6 0.3242 0.0 ${R_cut}
pair_coeff 1 2 821.6 0.3242 0.0 10
pair_coeff 2 2 2274.0 0.149 27.88 ${R_cut}
pair_coeff 2 2 2274.0 0.149 27.88 10

kspace_style pppm 1.0e-5

neighbor 1.0 bin
neigh_modify every 1 delay 0 check yes
# ---- define settings
compute eng all pe/atom
compute eatoms all reduce sum c_eng
# ---- run minimization
reset_timestep 0
fix 1 all box/relax iso 0.0 vmax 0.001
thermo 10
thermo_style custom step pe lx ly lz xy xz yz press pxx pyy pzz pxy pxz pyz c_eatoms
min_style cg
minimize 1e-25 1e-25 5000 10000
PPPM initialization ...
  G vector (1/distance) = 0.354854
  grid = 8 8 8
  stencil order = 5
  estimated absolute RMS force accuracy = 5.34408e-05
  estimated relative force accuracy = 3.71126e-06
  using double precision FFTs
  3d grid and FFT values/proc = 3375 512
Neighbor list info ...
  1 neighbor list requests
  update every 1 steps, delay 0 steps, check yes
  master list distance cutoff = 11
Memory usage per processor = 4.06549 Mbytes
Step PotEng Lx Ly Lz Xy Xz Yz Press Pxx Pyy Pzz Pxy Pxz Pyz eatoms 
       0   -162.12848       4.2565       4.2565       4.2565            0            0            0    -64012.53    -64012.53    -64012.53    -64012.53 -3.8759874e-11 -1.4292379e-10 -3.6687737e-10   -162.12848 
      10   -162.17871     4.213935     4.213935     4.213935            0            0            0   -4821.7526   -4821.7526   -4821.7526   -4821.7526 8.9106085e-11 8.5332225e-11 -4.2335946e-10   -162.17871 
      14   -162.17896    4.2106915    4.2106915    4.2106915            0            0            0    -1.347652    -1.347652    -1.347652    -1.347652 2.5597609e-11 1.0162971e-11 2.8091283e-10   -162.17896 
Loop time of 0.0266681 on 1 procs for 14 steps with 8 atoms

Minimization stats:
  Stopping criterion = linesearch alpha is zero
  Energy initial, next-to-last, final = 
        -162.128476026     -162.178964554     -162.178964554
  Force two-norm initial, final = 9.24344 0.000276677
  Force max component initial, final = 9.24344 0.000190436
  Final line search alpha, max atom move = 0.125 2.38044e-05
  Iterations, force evaluations = 14 33

Pair  time (%) = 0.0063107 (23.6639)
Kspce time (%) = 0.00520253 (19.5085)
Neigh time (%) = 0 (0)
Comm  time (%) = 0.000984192 (3.69053)
Outpt time (%) = 2.00272e-05 (0.0750979)
Other time (%) = 0.0141506 (53.062)

Nlocal:    8 ave 8 max 8 min
Histogram: 1 0 0 0 0 0 0 0 0 0
Nghost:    2189 ave 2189 max 2189 min
Histogram: 1 0 0 0 0 0 0 0 0 0
Neighs:    2344 ave 2344 max 2344 min
Histogram: 1 0 0 0 0 0 0 0 0 0

Total # of neighbors = 2344
Ave neighs/atom = 293
Neighbor list builds = 0
Dangerous builds = 0
unfix 1
# ---- define output variables ----
variable natoms equal "count(all)"
variable tot_energy equal "c_eatoms"
variable length_x equal "lx"
variable length_y equal "ly"
variable length_z equal "lz"
variable tilt_xy equal "xy"
variable tilt_xz equal "xz"
variable tilt_yz equal "yz"
variable tot_press equal "press"
variable press_xx equal "pxx"
variable press_yy equal "pyy"
variable press_zz equal "pzz"
variable press_xy equal "pxy"
variable press_xz equal "pxz"
variable press_yz equal "pyz"

# ---- output ----
print "pypospack:output_section:begin"
pypospack:output_section:begin
print "tot_energy = ${tot_energy}"
tot_energy = -162.17896455406
print "num_atoms = ${natoms}"
num_atoms = 8
print "xx = ${length_x}"
xx = 4.21069146013408
print "yy = ${length_y}"
yy = 4.21069146013408
print "zz = ${length_z}"
zz = 4.21069146013408
print "xy = ${tilt_xy}"
xy = 0
print "xz = ${tilt_xz}"
xz = 0
print "yz = ${tilt_yz}"
yz = 0
print "tot_press = ${tot_press}"
tot_press = -1.34765197939399
print "pxx = ${press_xx}"
pxx = -1.34765197919426
print "pyy = ${press_yy}"
pyy = -1.3476519793348
print "pzz = ${press_zz}"
pzz = -1.34765197965291
print "pxy = ${press_xy}"
pxy = 2.55976090046832e-11
print "pxz = ${press_xz}"
pxz = 1.01629705561986e-11
print "pyz = ${press_yz}"
pyz = 2.80912827691917e-10
print "pypospack:output_section:done"
pypospack:output_section:done
print "pypospack:lammps_sim:done"
pypospack:lammps_sim:done
#------------------------------------------------------------------------------
# RUN THERMOSTAT
# running using an NPT Nose-Hoover style thermostat
#------------------------------------------------------------------------------
variable tempdamp equal 0.1
variable pressdamp equal 1.0
# set initial velocities
velocity all create 800 8044533 mom yes dist gaussian loop all
# fix for Nose-Hoover style thermostat
fix 20 all npt temp 800 800 0.1 aniso 0.0 0.0 1.0 drag 1.0 couple xyz
variable boxx equal lx
variable boxy equal ly
variable boxz equal lz
variable boxp equal press
variable boxt equal temp
# calculate averages every 10000 steps
reset_timestep 0
fix 21 all ave/time 10 10 100 v_boxx v_boxy v_boxz v_boxp v_boxt file lattice.out
thermo_style custom step temp pe ke etotal press lx ly lz press pxx pyy pzz pxy pxz pyz vol
thermo_modify flush yes
thermo 100
run 100000
PPPM initialization ...
  G vector (1/distance) = 0.355384
  grid = 8 8 8
  stencil order = 5
  estimated absolute RMS force accuracy = 5.2136e-05
  estimated relative force accuracy = 3.62065e-06
  using double precision FFTs
  3d grid and FFT values/proc = 3375 512
Memory usage per processor = 3.06549 Mbytes
Step Temp PotEng KinEng TotEng Press Lx Ly Lz Press Pxx Pyy Pzz Pxy Pxz Pyz Volume 
       0          800   -162.17896   0.72385681    -161.4551    10355.971    4.2106915    4.2106915    4.2106915    10355.971    9357.5677    15586.714    6123.6303   -1907.2458    1223.8107    4764.9326    74.655234 
     100    729.41278   -162.01364   0.65998801   -161.35365   -23692.679    4.2384809    4.2384809    4.2384809   -23692.679   -28160.861   -17474.737   -25442.439    4224.0719    1991.1881    2946.2058    76.143125 
     200    740.54889    -161.8386    0.6700642   -161.16854   -6037.4326    4.2341016    4.2341016    4.2341016   -6037.4326   -8154.7011   -9662.4516   -295.14518    1150.6811   -1965.9724    1176.7499    75.907347 
     300    895.77037    -161.8029   0.81051186   -160.99239    19960.359    4.2245253    4.2245253    4.2245253    19960.359    19145.821    2508.0101    38227.246   -5819.6927   -7899.2789    2070.6978    75.393472 
     400    911.74576   -161.68169   0.82496672   -160.85673   -8199.6962    4.2529423    4.2529423    4.2529423   -8199.6962   -12655.148   -33428.946    21485.006   -319.58899   -4696.1588   -758.41701    76.925173 
     500    994.37388   -161.66102   0.89973038   -160.76129   -11524.765    4.2440662    4.2440662    4.2440662   -11524.765   -25381.406   -18456.554    9263.6656   -8705.5336    4818.0633   -4571.1888    76.444534 
     600    975.94403   -161.59904   0.88305466   -160.71599   -9733.9504    4.2397383    4.2397383    4.2397383   -9733.9504   -14399.303   -7827.5081   -6975.0403   -12959.592    11612.641   -4313.9921    76.210912 
     700     1088.119   -161.68959   0.98455296   -160.70504   -20071.801    4.2485445    4.2485445    4.2485445   -20071.801   -964.06358   -21165.717   -38085.624   -8165.4079    11253.999     -2943.98    76.686782 
     800     827.5505   -161.45562   0.74878508   -160.70684    15141.094    4.2379841    4.2379841    4.2379841    15141.094    26867.258    9185.7638    9370.2588   -4270.7294    8518.9223    3199.0851    76.116354 
     900    509.05875   -161.17474   0.46060706   -160.71413     7331.314    4.2453295    4.2453295    4.2453295     7331.314   -3340.5622   -2696.9583    28031.462    4684.0847   -901.47957    8878.8231    76.512822 
    1000    489.55633   -161.15996   0.44296085     -160.717    2903.2387     4.248363     4.248363     4.248363    2903.2387    18586.195   -7117.2475   -2759.2311    886.00692   -2212.4473    8301.6659    76.676952 
    1100    737.71101     -161.383   0.66749643   -160.71551    3472.6914    4.2408884    4.2408884    4.2408884    3472.6914    45872.737   -16306.617   -19148.045    1667.5174    10336.201    4297.9581    76.272948 
    1200    687.56018   -161.34066    0.6221189   -160.71854   -18731.663    4.2489912    4.2489912    4.2489912   -18731.663    17731.405   -38610.255   -35316.141     844.3006     6090.936    1232.3155    76.710975 
    1300    322.31527    -161.0106   0.29163763   -160.71897    9214.3389    4.2441578    4.2441578    4.2441578    9214.3389    23719.419   -6293.5193    10217.117   -8431.8018    3289.6485    8116.1272    76.449486 
    1400    415.23917   -161.09471   0.37571713   -160.71899    26552.803    4.2432972    4.2432972    4.2432972    26552.803    23634.092     13508.83    42515.488   -11617.597    13155.237    14716.019    76.402991 
    1500    497.38539   -161.17099   0.45004476   -160.72094    10975.798    4.2554652    4.2554652    4.2554652    10975.798     17308.58   -2817.4084    18436.221   -5403.3748    5300.5938     9230.402    77.062153 
    1600    588.76025   -161.24772   0.53272265     -160.715   -3059.2825    4.2424606    4.2424606    4.2424606   -3059.2825    9668.4431   -16158.979   -2687.3115     3599.574    2145.8745    7862.0299    76.357805 
    1700    659.39105   -161.30743   0.59663088    -160.7108   -8533.3469    4.2332453    4.2332453    4.2332453   -8533.3469   -4378.2135   -23397.192    2175.3651    12053.998    3247.5883     2493.487    75.861307 
    1800    851.44292   -161.48583   0.77040345   -160.71543   -14575.741    4.2435717    4.2435717    4.2435717   -14575.741   -12896.932   -22846.592    -7983.699   -481.27759   -4233.1205    6090.0589    76.417819 
    1900    826.78384   -161.46052   0.74809139   -160.71242   -6157.3933    4.2493972    4.2493972    4.2493972   -6157.3933    -7042.962   -9031.7616   -2397.4564   -4315.3387    3223.9092    6679.5712    76.732967 
    2000    696.95268   -161.34053   0.63061743   -160.70992    6361.7594     4.248642     4.248642     4.248642    6361.7594    2302.3469    11164.178    5618.7537   -5277.6647    3298.2098    948.04848    76.692064 
    2100    1123.9548   -161.72665    1.0169779   -160.70967    3083.5536    4.2404728    4.2404728    4.2404728    3083.5536    4396.2071    11537.209   -6682.7551   -2917.4113   -811.79738   -2315.0392    76.250525 
    2200     1304.329     -161.887    1.1801843   -160.70681   -160.84769    4.2344622    4.2344622    4.2344622   -160.84769   -8584.2114    13143.903   -5042.2347    8522.3085    2432.2599    3456.5493    75.926742 
    2300    1193.8845   -161.79079    1.0802518   -160.71054   -26414.702    4.2499378    4.2499378    4.2499378   -26414.702   -41391.654   -18439.797   -19412.655    2531.3047    2294.6289   -2384.6278    76.762257 
    2400     1060.681    -161.6687   0.95972644   -160.70897   -21324.106    4.2502771    4.2502771    4.2502771   -21324.106   -22760.322   -35013.812   -6198.1821     5645.476    3302.3064   -673.89989    76.780642 
    2500    937.64201   -161.55751    0.8483982   -160.70911    7601.1523     4.238089     4.238089     4.238089    7601.1523    28115.271   -11688.714    6376.8992    7729.7983    6219.5086    585.07245    76.122003 
    2600    746.37883   -161.38808   0.67533925   -160.71274    1276.9543    4.2457806    4.2457806    4.2457806    1276.9543    29650.613    -5331.062   -20488.688   -2387.6918   -1754.5347   -2915.3367    76.537212 
    2700    571.71374   -161.22918   0.51729861   -160.71188    8213.5992    4.2465591    4.2465591    4.2465591    8213.5992     8494.897    15380.716    765.18508    151.24255   -5585.6383      -6076.4    76.579321 
    2800      679.128   -161.32802   0.61448929   -160.71353    883.66045    4.2497514    4.2497514    4.2497514    883.66045   -7564.5214    3321.2906    6894.2121   -532.77711   -2992.8949   -4266.3839    76.752157 
    2900     788.4432   -161.42581   0.71339997   -160.71241    -12953.35    4.2482315    4.2482315    4.2482315    -12953.35   -17509.171   -18900.843   -2450.0366    2576.1647   -5708.0475   -7745.4535    76.669836 
    3000    524.07558   -161.18691    0.4741946   -160.71271    4522.8122    4.2366869    4.2366869    4.2366869    4522.8122     874.8654   -11666.755    24360.326    9307.9301   -4267.7854    -1086.644    76.046478 
    3100    342.06407   -161.03011   0.30950675   -160.72061    8965.8459    4.2467238    4.2467238    4.2467238    8965.8459    12761.643    -21897.68    36033.575   -1619.1241    2605.7061    1664.7115    76.588234 
    3200    568.18966   -161.23142   0.51410995   -160.71731     13162.35    4.2494379    4.2494379    4.2494379     13162.35    9576.7075   -24096.295    54006.638   -7474.5891    8708.8098   -114.91004    76.735171 
    3300    661.46369   -161.31477   0.59850625   -160.71626     7257.132    4.2439368    4.2439368    4.2439368     7257.132    1491.9939   -2966.4041    23245.806   -12462.819    13169.163   -3103.2729    76.437541 
    3400    643.43618   -161.29861   0.58219458   -160.71642   -7917.7002    4.2434234    4.2434234    4.2434234   -7917.7002   -1676.9151   -7236.2347   -14839.951   -10743.258    13099.519   -6626.8618    76.409806 
    3500    872.49633   -161.50309   0.78945301   -160.71363   -4342.5248    4.2399022    4.2399022    4.2399022   -4342.5248    33232.742   -16969.427    -29290.89    2231.3072    5517.8497   -15917.029    76.219751 
    3600    879.30887   -161.51294   0.79561714   -160.71732    5321.1201    4.2462345    4.2462345    4.2462345    5321.1201    33105.271   -11410.573   -5731.3369    1481.8635    6164.3146   -6336.5763    76.561764 
    3700     645.3405   -161.29701   0.58391764   -160.71309   -2511.6515    4.2525453    4.2525453    4.2525453   -2511.6515   -18673.042    115.15971    11022.927    1403.6494    -98.94877    2543.5246    76.903629 
    3800    670.22632   -161.31707   0.60643486   -160.71064   -3792.3415    4.2449594    4.2449594    4.2449594   -3792.3415   -27052.299    9381.4959    6293.7782   -2326.2207   -147.02574    5173.5322    76.492811 
    3900    859.68519   -161.49187   0.77786123     -160.714   -8980.1467    4.2428731    4.2428731    4.2428731   -8980.1467   -9819.3604   -4466.7228   -12654.357    -7602.385    11172.209    7955.0329    76.380083 
    4000    943.43729   -161.56522   0.85364189   -160.71158   -7304.5064    4.2391956    4.2391956    4.2391956   -7304.5064    14210.714   -16501.705   -19622.528   -9849.8158    16457.379    -3597.504    76.181648 
    4100    742.17271   -161.38437   0.67153346   -160.71284    1480.9837    4.2412939    4.2412939    4.2412939    1480.9837    11087.632    4174.2969   -10818.978   -11591.242    13548.835   -4011.2204    76.294832 
    4200    614.70735   -161.27172   0.55620013   -160.71552    1750.2306    4.2528296    4.2528296    4.2528296    1750.2306   -8430.7891   -3009.4943    16690.975   -3105.0626     1529.422    2160.4509    76.919057 
    4300    624.80769   -161.28002   0.56533913   -160.71468    15308.314    4.2464269    4.2464269    4.2464269    15308.314    13784.891    9241.2693    22898.783    9282.1174    5699.1933    11678.354    76.572172 
    4400    566.77801   -161.22654   0.51283266   -160.71371     11077.16    4.2391774    4.2391774    4.2391774     11077.16    15310.426    17610.384    310.67004    1486.3821   -1073.3097    16940.528    76.180667 
    4500    501.54375    -161.1715   0.45380733   -160.71769   -3021.3338    4.2444736    4.2444736    4.2444736   -3021.3338    13829.929    -12671.73     -10222.2     1437.596   -1234.4294    13823.655    76.466551 
    4600    983.51982   -161.60755    0.8899094   -160.71764   -14294.309    4.2440634    4.2440634    4.2440634   -14294.309   -366.47672   -25208.913   -17307.537   -6373.7101    13854.696    6425.7401    76.444386 
    4700    1085.9606   -161.69944   0.98259996   -160.71684   -14584.782    4.2461464    4.2461464    4.2461464   -14584.782   -24596.815   -15069.584   -4087.9468   -7073.3622    7895.4357   -4111.8952    76.556995 
    4800    856.38139   -161.49131   0.77487187   -160.71644   -9559.2228    4.2486358    4.2486358    4.2486358   -9559.2228   -24671.177    314.15489   -4320.6464    1205.5112    1797.6886   -3266.3826    76.691728 
    4900    1036.3213   -161.65183    0.9376853   -160.71414   -9036.2915     4.245106     4.245106     4.245106   -9036.2915   -9724.4971      7006.79   -24391.168    7074.3095     3743.086    4762.9893    76.500736 
    5000     1064.441   -161.67706   0.96312854   -160.71393    11475.042    4.2398876    4.2398876    4.2398876    11475.042    27443.116    18771.161   -11789.152    7007.5469    -8384.083    4387.0023    76.218964 
    5100    985.74278   -161.60766   0.89192079   -160.71574    11807.815    4.2427128    4.2427128    4.2427128    11807.815     19778.27     31638.49   -15993.315    10540.768   -356.36432    4512.0995    76.371425 
    5200    878.57729   -161.50787   0.79495519   -160.71292   -6237.4187    4.2501453    4.2501453    4.2501453   -6237.4187   -14787.952    23671.786    -27596.09    3930.2026   -4423.0921    8220.7703      76.7735 
    5300    1053.4268   -161.66297    0.9531627   -160.70981   -15486.741    4.2485331    4.2485331    4.2485331   -15486.741   -27545.104    16465.142   -35380.261   -935.73309   -1431.6511    9785.2393    76.686166 
    5400    1078.1499   -161.69098   0.97553272   -160.71545   -8365.9197     4.242793     4.242793     4.242793   -8365.9197   -13150.834    15629.637   -27576.562   -79.477002    6270.4391    8501.2711    76.375759 
    5500    918.71052   -161.55085   0.83126859   -160.71958   -1697.5642    4.2403486    4.2403486    4.2403486   -1697.5642   -3416.1561   -2245.4883    568.95172    -5804.263   -3854.1125    4774.8265    76.243828 
    5600    973.46399   -161.60002   0.88081067   -160.71921    -15315.86     4.247012     4.247012     4.247012    -15315.86   -4312.1493    -34044.68    -7590.752   -6454.2972   -2407.3361    8677.3295    76.603827 
    5700      931.904   -161.56244   0.84320633   -160.71923   -2954.0976      4.24985      4.24985      4.24985   -2954.0976    28257.486   -29565.948   -7553.8313    2198.3728   -10911.526    12645.555    76.757499 
    5800    848.61515    -161.4815   0.76784482   -160.71366    3854.5168    4.2482192    4.2482192    4.2482192    3854.5168    27826.634   -12621.345   -3641.7386    1295.5107   -19288.256    12418.589     76.66917 
    5900    637.92758   -161.28879   0.57721028   -160.71158    10629.135    4.2463949    4.2463949    4.2463949    10629.135    30822.049    8299.3201   -7233.9635    8481.2032   -9378.2107    8909.9445    76.570442 
    6000    925.86515    -161.5489   0.83774224   -160.71115    5283.5309    4.2447639    4.2447639    4.2447639    5283.5309    28773.168   -9698.5571   -3224.0184    6843.7648   -4925.6835     4337.434    76.482244 
    6100    1327.1605   -161.91118    1.2008427   -160.71034   -14159.072     4.242444     4.242444     4.242444   -14159.072    2054.6471   -23412.569   -21119.294   -8594.1633   -477.29657   -3069.7393    76.356914 
    6200    1164.0598   -161.76941    1.0532658   -160.71615   -25073.839     4.246847     4.246847     4.246847   -25073.839   -28889.065   -25468.544   -20863.909   -5097.1706   -3880.7133   -5440.1623    76.594899 
    6300    923.49242   -161.55302   0.83559535   -160.71742   -8381.8872    4.2447036    4.2447036    4.2447036   -8381.8872   -26548.808   -8877.4604    10280.606   -1533.7534   -4614.1523   -1929.7935    76.478986 
    6400    1012.1621   -161.63131   0.91582554   -160.71548    11722.582    4.2417517    4.2417517    4.2417517    11722.582    17630.384   -1572.2892    19109.652   -3452.5593   -12840.249    1513.8402    76.319536 
    6500    908.97125   -161.53523   0.82245629   -160.71278     12116.07    4.2482648    4.2482648    4.2482648     12116.07    33014.216   -6032.1077    9366.1016    5483.1832   -17603.681    2425.3356    76.671635 
    6600    907.35542   -161.53012   0.82099425   -160.70913     3733.296    4.2449464    4.2449464    4.2449464     3733.296    26808.757   -8015.6951    -7593.174   -2075.1643   -4687.8412   -1291.5883    76.492108 
    6700    1067.2464   -161.67679   0.96566696   -160.71112   -16387.314    4.2450153    4.2450153    4.2450153   -16387.314   -2230.9246   -20941.732   -25989.287   -7903.6575   -3262.0134   -9762.3123    76.495834 
    6800    1149.1095   -161.75451    1.0397384   -160.71477   -18180.839    4.2399197    4.2399197    4.2399197   -18180.839   -16580.091   -12426.808   -25535.616   -9770.0405   -9088.2908   -6266.3505    76.220693 
    6900    951.81222   -161.57991    0.8612197   -160.71869   -925.49948    4.2364011    4.2364011    4.2364011   -925.49948   -14610.894   -3599.6181    15434.013   -14843.063   -3568.1085   -2648.8861    76.031089 
    7000    765.04111   -161.41452   0.69222527    -160.7223    1125.8798    4.2481071    4.2481071    4.2481071    1125.8798   -19827.206    3677.3512    19527.494   -1607.7404   -11743.729    2773.9788      76.6631 
    7100    787.47168   -161.42996   0.71252092   -160.71744    3936.0266    4.2499817    4.2499817    4.2499817    3936.0266   -1446.1574    2561.1872     10693.05    5800.3202   -13312.156    11393.549    76.764631 
    7200    851.30567    -161.4825   0.77027926   -160.71223     13215.06    4.2381356    4.2381356    4.2381356     13215.06     23705.61    5185.8924    10753.676    3354.5185   -12095.026    7930.3811    76.124514 
    7300    852.34117   -161.48209    0.7712162   -160.71087   -15040.488    4.2438457    4.2438457    4.2438457   -15040.488    -3515.726   -25114.447    -16491.29    7124.1642   -17991.454    1870.0717    76.432623 
    7400    773.96159   -161.41208   0.70029671   -160.71178   -9864.1186    4.2429291    4.2429291    4.2429291   -9864.1186   -261.19618   -29828.909    497.74899   -3133.1005   -5601.8692   -1919.5778    76.383105 
    7500    971.82815    -161.5954   0.87933054   -160.71607   -7100.2329    4.2452673    4.2452673    4.2452673   -7100.2329    13161.683   -26837.281   -7625.1003   -5858.0274    6435.3107    1142.5772    76.509455 
    7600    688.63589    -161.3422   0.62309223    -160.7191    7835.4185    4.2521347    4.2521347    4.2521347    7835.4185    13425.317    -1365.823    11446.761   -8644.0103    8950.5712    7220.8685    76.881358 
    7700    569.60474   -161.23177   0.51539033   -160.71638     11858.27    4.2493363    4.2493363    4.2493363     11858.27    12958.796    1913.3428    20702.671   -4676.7921    7630.2832    6419.6762    76.729666 
    7800    843.95207   -161.47701   0.76362557   -160.71338   -1097.1496    4.2404236    4.2404236    4.2404236   -1097.1496    1426.6728   -14868.238    10150.116    11944.719    -417.5881    5571.0524    76.247871 
    7900    1082.9893   -161.69026   0.97991145   -160.71035   -19949.327    4.2358774    4.2358774    4.2358774   -19949.327    -17363.71   -27934.146   -14550.126     20576.58   -2437.1541    5260.2362    76.002895 
    8000     940.3714    -161.5641    0.8508678   -160.71323   -24382.693    4.2446265    4.2446265    4.2446265   -24382.693   -28837.854   -32952.247   -11357.978    25602.493   -4892.0072   -3052.3203    76.474815 
    8100     716.0479   -161.36145   0.64789519   -160.71355   -9169.2772     4.254715     4.254715     4.254715   -9169.2772   -10424.562   -20937.587    3854.3174    21869.068   -13.346444    7069.0078    77.021403 
    8200    853.22108   -161.48354   0.77201237   -160.71153    1743.4689    4.2503148    4.2503148    4.2503148    1743.4689     13181.18   -14465.744    6514.9708    7713.0646    11260.411    9231.1621    76.782686 
    8300    812.86614   -161.44793   0.73549836   -160.71243    18009.146    4.2380522    4.2380522    4.2380522    18009.146     29920.21    5370.6919    18736.535    11145.061    9529.2221    1100.9862    76.120024 
    8400     788.2945   -161.42492   0.71326543   -160.71165   -7709.3977    4.2442333    4.2442333    4.2442333   -7709.3977   -6532.9036    343.53649   -16938.826     5379.467   -3672.6173    940.39218    76.453568 
    8500    979.90281   -161.59592   0.88663666   -160.70929   -19218.782    4.2442243    4.2442243    4.2442243   -19218.782   -25067.351   -2623.4172   -29965.578    2191.2486   -11383.546   -8875.6621    76.453081 
    8600    1102.9921   -161.71094    0.9980104   -160.71293   -25363.133     4.251397     4.251397     4.251397   -25363.133   -33979.153   -22172.542   -19937.704    9626.6134   -14406.715   -12175.835    76.841351 
    8700    813.87868   -161.44955   0.73641454   -160.71313   -10952.082    4.2521352    4.2521352    4.2521352   -10952.082   -22423.592   -24921.784    14489.129    -4473.128   -2466.5712   -176.75476    76.881382 
    8800    498.70589   -161.16599   0.45123957   -160.71475    22979.273    4.2397801    4.2397801    4.2397801    22979.273    7720.3676     3965.708    57251.742   -3299.5766    6660.8766   -2588.5988    76.213164 
    8900    523.59303   -161.19631   0.47375798   -160.72255    25909.431    4.2420091    4.2420091    4.2420091    25909.431    13687.373    21749.184    42291.735   -5333.6277    1533.4554    2298.0829     76.33343 
    9000    591.61116    -161.2562   0.53530221    -160.7209    6876.5952    4.2517508    4.2517508    4.2517508    6876.5952   -17275.571    8615.9049    29289.452   -5058.8895    -4153.854    4166.3669    76.860537 
    9100    561.13064   -161.22278    0.5077228   -160.71506    3366.6955    4.2516736    4.2516736    4.2516736    3366.6955   -31602.936   -2536.7819    44239.804    447.43852   -6281.2532   -6396.2815     76.85635 
    9200    409.38491    -161.0919   0.37042007   -160.72148    14823.501    4.2530924    4.2530924    4.2530924    14823.501   -15327.566   -3486.5275    63284.597   -7532.3609   -15741.581   -8212.5278    76.933314 
    9300    679.36792   -161.33512   0.61470637   -160.72042    11261.824    4.2474725    4.2474725    4.2474725    11261.824   -5345.1958    456.49051    38674.176   -2089.9166   -11521.854   -6511.5578    76.628745 
    9400    724.80702    -161.3699   0.65582063   -160.71408    11489.854    4.2392589    4.2392589    4.2392589    11489.854   -23992.621    15148.175    43314.007   -1523.3681   -8001.3695    356.63066    76.185063 
    9500    754.08674   -161.40151   0.68231353    -160.7192   -10805.249    4.2536243    4.2536243    4.2536243   -10805.249   -56620.738   -27804.288    52009.279    699.66472    720.47478    5932.4967    76.962186 
    9600    1036.9033   -161.65723   0.93821191   -160.71901   -13931.018    4.2507266    4.2507266    4.2507266   -13931.018    -38837.33    -26656.18    23700.455    10132.925    3038.4736    7124.2526    76.805005 
    9700    1189.2488   -161.78898    1.0760573   -160.71292   -6441.1639     4.237468     4.237468     4.237468   -6441.1639   -11341.261   -4542.9928   -3439.2378   -5217.4763    8286.9697    11457.545     76.08855 
    9800    961.52144   -161.58159    0.8700048   -160.71159   -16826.901    4.2471936    4.2471936    4.2471936   -16826.901   -5925.0497   -9333.3433   -35222.311    166.77435    9374.1213   -941.55642    76.613655 
    9900    1022.5421   -161.63664   0.92521757   -160.71142   -2189.5659    4.2423079    4.2423079    4.2423079   -2189.5659    18247.908    -4926.408   -19890.198   -3439.1724    781.81533   -5873.5172    76.349562 
   10000     1096.031   -161.70866   0.99171192   -160.71694    581.04233    4.2429487    4.2429487    4.2429487    581.04233    15679.528   -16710.092    2773.6908   -6643.1812    692.91966   -3744.8793    76.384166 
   10100    914.07453   -161.54452   0.82707384   -160.71745   -13458.267    4.2520374    4.2520374    4.2520374   -13458.267   -24594.355   -32007.178    16226.734    2394.8531   -5815.4053   -5555.9768    76.876079 
   10200    850.54059   -161.48561     0.769587   -160.71602   -3654.1305    4.2430317    4.2430317    4.2430317   -3654.1305   -28745.709   -16348.419    34131.736    2650.5255   -1176.8079    4168.5194     76.38865 
   10300    1116.7644   -161.72818    1.0104719   -160.71771   -8352.3101    4.2450929    4.2450929    4.2450929   -8352.3101   -7822.2953   -22218.219    4983.5841    1081.1481     3768.395    11059.106    76.500026 
   10400    1004.3669    -161.6246    0.9087723   -160.71582   -9989.6236    4.2475928    4.2475928    4.2475928   -9989.6236    4992.2769   -4513.7292   -30447.418    509.18795    8787.7882    18607.048    76.635261 
   10500    765.07661   -161.40754    0.6922574   -160.71529    8864.5851    4.2397447    4.2397447    4.2397447    8864.5851    26568.823    18585.228   -18560.295   -3709.2501    733.34185    10029.894    76.211254 
   10600    780.10605   -161.42181   0.70585635   -160.71595    5434.3776    4.2503231    4.2503231    4.2503231    5434.3776     16885.98    10613.294   -11196.141   -13342.478    1020.1533    147.47843    76.783135 
   10700    856.65374   -161.49025   0.77511831   -160.71513    17097.069    4.2441652    4.2441652    4.2441652    17097.069    11606.589    18344.064    21340.555   -8775.9819   -3333.9584   -8927.8585    76.449885 
   10800    1014.3977   -161.63164   0.91784838   -160.71379    4802.0869    4.2392887    4.2392887    4.2392887    4802.0869   -8409.5656     11298.32    11517.507    3092.5185    177.39947   -8132.3761    76.186668 
   10900    1098.8415   -161.70485    0.9942549    -160.7106    -27696.36    4.2509761    4.2509761    4.2509761    -27696.36    -33356.29   -17044.951   -32687.839    10450.679    9239.3986    1279.3906    76.818529 
   11000    1062.1229    -161.6697   0.96103111   -160.70867   -16582.505    4.2463533    4.2463533    4.2463533   -16582.505    5978.9335   -27348.048     -28378.4    9025.8916      11491.8   -2498.3269     76.56819 
   11100    1012.9649   -161.63277    0.9165519   -160.71622   -10895.101    4.2460398    4.2460398    4.2460398   -10895.101   -2795.5285   -7345.8127   -22543.962   -763.73896    13915.658   -2267.6161    76.551232 
   11200    871.92517   -161.50772   0.78893621   -160.71878   -4832.7604    4.2461582    4.2461582    4.2461582   -4832.7604   -3015.1741    311.71464   -11794.822   -9303.5401    4786.1987   -10740.198    76.557634 
   11300     651.7848   -161.30719   0.58974858   -160.71744    17826.889    4.2375321    4.2375321    4.2375321    17826.889     27974.57    8853.4172    16652.679   -10177.194   -1799.4442    -12019.55    76.091999 
   11400    730.45148   -161.37984   0.66092785   -160.71891    6344.9179    4.2468043    4.2468043    4.2468043    6344.9179     35129.52   -20266.966    4172.2002    -11196.34    2246.3321    -3564.307    76.592589 
   11500    817.69103   -161.45715   0.73986402   -160.71729    -3338.513    4.2518463    4.2518463    4.2518463    -3338.513    24815.969   -13512.428   -21319.081   -5661.9995    2467.3616    4491.0614    76.865714 
   11600    686.71185   -161.33999   0.62135132   -160.71864    6930.9067    4.2451469    4.2451469    4.2451469    6930.9067     37676.44    6581.8397   -23465.559   -1379.0828    8454.7577     9935.113    76.502947 
   11700    785.75924   -161.43079   0.71097147   -160.71982      184.231    4.2447368    4.2447368    4.2447368      184.231    41001.474   -25246.656   -15202.125    -482.3319    14431.195    5919.8296     76.48078 
   11800    853.21902   -161.49254    0.7720105   -160.72053    3309.3433    4.2425716    4.2425716    4.2425716    3309.3433    26604.393   -18714.589    2038.2256     5077.955    9600.8542   -3280.0772      76.3638 
   11900    869.50753   -161.50658   0.78674869   -160.71983   -1349.5829    4.2467481    4.2467481    4.2467481   -1349.5829    6549.8831   -4522.0678    -6076.564    2811.6632    4335.0259   -37.694078    76.589549 
   12000    1004.7829   -161.62379   0.90914867   -160.71464   -17785.199    4.2536083    4.2536083    4.2536083   -17785.199    -6394.127   -15689.386   -31272.085   -3365.9835    1660.7355    401.30472    76.961313 
   12100    1117.2023   -161.72267    1.0108681    -160.7118   -8091.2029    4.2444741    4.2444741    4.2444741   -8091.2029    1415.4132   -4600.4748   -21088.547    201.41626   -7770.3739    8342.6628    76.466578 
   12200    1131.6002   -161.73323    1.0238957   -160.70934   -3989.0691    4.2394923    4.2394923    4.2394923   -3989.0691   -9998.7549     10639.31   -12607.763   -5084.2017   -6825.2632    8767.2633    76.197647 
   12300      965.233   -161.58644   0.87336311   -160.71308   -11234.108     4.248303     4.248303     4.248303   -11234.108   -20454.063    11882.287   -25130.549   -5239.1851   -9376.6236    366.07745    76.673704 
   12400    709.55311   -161.35426   0.64201856   -160.71224   -7898.9159    4.2495498    4.2495498    4.2495498   -7898.9159   -9384.4222    2411.2891   -16723.615   -3538.9137   -3604.1191   -291.91759    76.741231 
   12500    609.92275    -161.2656   0.55187093   -160.71373     316.2847    4.2406115    4.2406115    4.2406115     316.2847    10603.478    13651.927   -23306.551    -3686.676    3902.2698    -8758.123    76.258009 
   12600    517.90039   -161.18412   0.46860716   -160.71551   -1793.6855    4.2438348    4.2438348    4.2438348   -1793.6855    14108.749    16421.019   -35910.824    5526.9318   -2115.2272    4201.6482    76.432034 
   12700    364.74845    -161.0468   0.33003206   -160.71677    15688.437    4.2446597    4.2446597    4.2446597    15688.437    21828.374    32757.265   -7520.3291    12775.436   -4760.9729   -1078.9126    76.476613 
   12800      619.967   -161.27765   0.56095917   -160.71669    15120.991    4.2411636    4.2411636    4.2411636    15120.991    7244.0213    22504.743    15614.208    5060.9867   -6259.5669   -2096.1962    76.287798 
   12900     780.2628   -161.42169   0.70599817   -160.71569    756.26598    4.2423684    4.2423684    4.2423684    756.26598   -416.46673    7821.7942   -5136.5295   -1651.0982   -5686.4042    5155.2248    76.352831 
   13000     912.0149    -161.5406   0.82521025   -160.71539    -9576.604    4.2424217    4.2424217    4.2424217    -9576.604    -4575.413    5656.7921   -29811.191    1561.7932    1879.1387   -2803.5638    76.355708 
   13100    1181.0229    -161.7807    1.0686144   -160.71208   -27519.635    4.2472701    4.2472701    4.2472701   -27519.635   -28167.259   -25053.354   -29338.291   -3041.3776    1682.1137    7534.3429    76.617796 
   13200    1109.2758   -161.71065    1.0036961   -160.70696   -26222.824    4.2541877    4.2541877    4.2541877   -26222.824   -3628.6853   -44078.703   -30961.085    1691.9939     7649.405    4804.8374    76.992768 
   13300     1077.232   -161.68046   0.97470212   -160.70576   -10348.384    4.2488048    4.2488048    4.2488048   -10348.384    30829.655   -27946.703   -33928.104    742.72477    5885.1236   -1342.6491    76.700877 
   13400     1020.046   -161.63571   0.92295905   -160.71275    1412.8611     4.242711     4.242711     4.242711    1412.8611    37430.774   -15807.563   -17384.628    3944.0357     -143.546    9637.2914    76.371331 
   13500    757.41432   -161.40962    0.6853244    -160.7243     7077.906    4.2482077    4.2482077    4.2482077     7077.906     29709.78   -16092.239     7616.177    459.27345   -6866.2211   -1378.1551    76.668547 
   13600     529.9627   -161.20439   0.47952139   -160.72487    5252.6926    4.2577699    4.2577699    4.2577699    5252.6926    14872.152   -11785.424     12671.35    2619.8515   -15031.461   -6468.7765    77.187424 
   13700     381.0788   -161.06328    0.3448081   -160.71847    16404.119    4.2483701    4.2483701    4.2483701    16404.119    46320.938   -6710.3695    9601.7885    1427.2611   -18579.148   -7046.3006    76.677336 
   13800    384.66829   -161.06248   0.34805595   -160.71442    17554.106    4.2362274    4.2362274    4.2362274    17554.106    58981.133   -6425.6344    106.81786   -86.492421   -17465.308   -7779.2594    76.021739 
   13900    469.82972   -161.14381    0.4251118    -160.7187    6918.8857    4.2434563    4.2434563    4.2434563    6918.8857    44521.403   -18920.887   -4843.8584    4464.8105   -7134.7907   -3253.9135    76.411582 
   14000    733.67077   -161.38006   0.66384073   -160.71622    2523.3832    4.2533167    4.2533167    4.2533167    2523.3832    13956.199   -16136.678    9750.6282    -495.3425     3178.507   -12573.577    76.945487 
   14100    982.48226   -161.59697    0.8889706     -160.708   -6439.0215    4.2489386    4.2489386    4.2489386   -6439.0215   -11323.966   -19695.952    11702.853    3489.8484    9492.4552    -3550.177    76.708125 
   14200    1062.0476   -161.66345   0.96096302   -160.70249   -6052.6798    4.2368887    4.2368887    4.2368887   -6052.6798   -8113.5856    -24115.15    14070.696    2866.6204    11417.314    3138.9549    76.057344 
   14300     1019.105   -161.63248    0.9221076   -160.71038   -5381.8467    4.2406272    4.2406272    4.2406272   -5381.8467   -11034.429   -13494.027     8382.916   -3105.6582    9025.0674    3976.7209    76.258858 
   14400    873.57275   -161.50411   0.79042698   -160.71368    107.26451     4.251055     4.251055     4.251055    107.26451   -12618.107    2518.6202     10421.28    4098.2003   -2373.9594    18692.657    76.822808 
   14500    705.43849   -161.34866   0.63829557   -160.71037    4819.6788    4.2529465    4.2529465    4.2529465    4819.6788    2530.7153   -15258.763    27187.085    1098.8257   -5108.7852    10417.637    76.925397 
   14600    581.00555   -161.23537   0.52570603   -160.70966    13133.732    4.2456944    4.2456944    4.2456944    13133.732    21979.335   -23371.923    40793.783   -7568.0235   -6404.4057     6548.351     76.53255 
   14700    701.21928   -161.34518   0.63447794    -160.7107    4770.6087    4.2395611    4.2395611    4.2395611    4770.6087     5287.403   -1187.1173     10211.54    106.39531    1737.1167    11398.829    76.201355 
   14800    843.49717   -161.47524   0.76321397   -160.71202   -13885.903    4.2471863    4.2471863    4.2471863   -13885.903   -30318.604   -674.30582   -10664.799    4083.0405     6492.842    9892.8722     76.61326 
   14900     735.7736   -161.38083   0.66574341   -160.71509   -1852.2308    4.2535764    4.2535764    4.2535764   -1852.2308    2740.6508     13469.85   -21767.193    1215.2025    11801.834    11093.777    76.959585 
   15000    664.52162   -161.31814   0.60127313   -160.71687    6101.3156    4.2530939    4.2530939    4.2530939    6101.3156    14700.885    29919.165   -26316.103    12785.296    4361.6738    19443.839    76.933399 
   15100    596.55532   -161.25807   0.53977579    -160.7183     11015.45    4.2455552    4.2455552    4.2455552     11015.45     16220.62     21262.03   -4436.2998    4896.9689   -5065.1329    26067.548    76.525024 
   15200    564.06133   -161.22619   0.51037454   -160.71582     3324.905    4.2424589    4.2424589    4.2424589     3324.905    15714.094   -1250.6221   -4488.7573   -2319.4737    -1216.736    23033.636    76.357718 
   15300    864.26559   -161.49266   0.78200567   -160.71066   -13687.356     4.246753     4.246753     4.246753   -13687.356   -16124.104    5933.9394   -30871.904   -4007.2462   -7700.3236    13363.111    76.589815 
   15400    922.26031   -161.54429   0.83448051   -160.70981   -16570.572    4.2513624    4.2513624    4.2513624   -16570.572   -2556.8823    7891.7937   -55046.628   -4484.8191     635.8463    -1887.188    76.839474 
   15500    915.66357   -161.53767   0.82851164   -160.70916   -21223.563    4.2518307    4.2518307    4.2518307   -21223.563   -260.26046   -18119.325   -45291.102   -4480.7878   -2166.4629    -12303.21    76.864869 
   15600    675.52141   -161.32215   0.61122597   -160.71093   -615.51162     4.242388     4.242388     4.242388   -615.51162     18914.89    4442.4872   -25203.912    7763.2829   -12161.678   -15831.562    76.353886 
   15700    495.03496   -161.16155   0.44791804   -160.71364    25746.464    4.2396703    4.2396703    4.2396703    25746.464    49854.576    38576.239   -11191.422    11123.445   -7655.0003   -9752.0682    76.207243 
   15800    452.82165   -161.12367   0.40972255   -160.71395    24923.903    4.2524869    4.2524869    4.2524869    24923.903    44388.827    41218.208   -10835.326    7992.7398   -11205.087   -15259.926    76.900463 
   15900    649.04252   -161.29683   0.58726731   -160.70956    8835.3913    4.2545456    4.2545456    4.2545456    8835.3913    28343.817    3556.0169     -5393.66   -1678.8342   -253.97687   -17689.319    77.012206 
   16000    882.05738   -161.50343   0.79810406   -160.70533   -16237.245    4.2468094    4.2468094    4.2468094   -16237.245   -8126.8457   -26831.069   -13753.821   -7206.4742   -3235.9045       -14963    76.592863 
   16100    761.19565   -161.39552   0.68874582   -160.70677   -19031.437    4.2419815    4.2419815    4.2419815   -19031.437   -28303.036   -14596.395   -14194.878   -9581.6291   -5382.3273   -18477.487    76.331941 
   16200    640.85608   -161.29162   0.57986004   -160.71176   -1055.6407    4.2454383    4.2454383    4.2454383   -1055.6407     7854.976   -6127.0775   -4894.8204    2734.2745   -5860.3073   -6087.8407    76.518704 
   16300    594.10505   -161.24847   0.53755874   -160.71091      12476.8    4.2530016    4.2530016    4.2530016      12476.8    37232.976    6080.8476    -5883.423    7079.3717   -5020.9105   -2648.6926     76.92839 
   16400    549.09741   -161.21055   0.49683488   -160.71372    19536.413     4.250574     4.250574     4.250574    19536.413     28475.27     10025.01     20108.96    7525.9371   -6251.4005   -5662.8601    76.796734 
   16500    854.69023   -161.48487   0.77334168   -160.71152   -4360.3813    4.2422199    4.2422199    4.2422199   -4360.3813   -9099.7987   -19404.796    15423.451   -2946.9692    10690.276   -15162.063     76.34481 
   16600    1021.9591   -161.63255   0.92469003   -160.70786   -21943.166    4.2398818    4.2398818    4.2398818   -21943.166    -9790.107   -40139.248   -15900.142   -7984.9221    9024.1848   -22560.445    76.218647 
   16700    803.31668   -161.43869   0.72685781   -160.71183   -6522.7666    4.2430437    4.2430437    4.2430437   -6522.7666    33326.856   -34121.153   -18774.003    5641.1858    4208.5053   -7232.3719    76.389299 
   16800     680.6987   -161.32731   0.61591049    -160.7114   -7162.3744    4.2531781    4.2531781    4.2531781   -7162.3744    35901.287   -36806.197   -20582.213    7402.6561    168.49362    8426.3753    76.937966 
   16900    642.56693   -161.28959   0.58140806   -160.70818    7816.5597    4.2506242    4.2506242    4.2506242    7816.5597    39280.803   -40709.362    24878.238    716.13701   -11385.201    14754.642    76.799456 
   17000    852.01513   -161.47945   0.77092119   -160.70853    8387.5395    4.2460452    4.2460452    4.2460452    8387.5395    27963.259   -34476.088    31675.448   -3379.5679     -9150.91    15336.387    76.551523 
   17100     844.4118   -161.47672   0.76404154   -160.71268    1935.4841    4.2429244    4.2429244    4.2429244    1935.4841   -446.91218   -10865.459    17118.824   -5147.6811   -4821.9548     8997.026    76.382856 
   17200    594.80112    -161.2554   0.53818856   -160.71721    5840.7053    4.2431427    4.2431427    4.2431427    5840.7053   -3905.3832    2047.2486     19380.25    1951.8865    1874.8522    7246.9307    76.394643 
   17300    745.20232   -161.38992   0.67427472   -160.71565   -9652.8679    4.2545904    4.2545904    4.2545904   -9652.8679     -27645.5   -14639.656    13326.552    9732.0193    8065.6572    6055.9349    77.014634 
   17400    675.98593   -161.32751   0.61164628   -160.71587   -441.98602    4.2506442    4.2506442    4.2506442   -441.98602    2070.9985   -23770.976    20374.019    8699.7982    7503.0934    11150.588    76.800538 
   17500    590.50016    -161.2505   0.53429695   -160.71621    7744.9273    4.2412563    4.2412563    4.2412563    7744.9273    21050.892    -11536.84     13720.73    3474.1921    7484.7568    18870.937    76.292802 
   17600    614.74532   -161.27458   0.55623449   -160.71835   -4993.6477     4.245385     4.245385     4.245385   -4993.6477    20509.114   -18356.199   -17133.858   -3161.2558    11575.154    23967.368    76.515821 
   17700    796.94924   -161.43748   0.72109642   -160.71638   -3299.7185     4.245938     4.245938     4.245938   -3299.7185    30702.617   -13407.038   -27194.734   -1642.6728    4878.7506    14680.195    76.545727 
   17800    950.85316   -161.57902   0.86035192   -160.71867   -10896.029    4.2542598    4.2542598    4.2542598   -10896.029    5895.9446   -39694.243    1110.2115   -5396.0496    848.59828    205.30399    76.996686 
   17900    1128.0439   -161.73205    1.0206778   -160.71137   -36928.621    4.2572695    4.2572695    4.2572695   -36928.621    -44559.63   -41266.083    -24960.15    9227.7689   -5535.2211   -8502.8512    77.160214 
   18000    1054.0862   -161.65709   0.95375933   -160.70333   -14340.359    4.2428426    4.2428426    4.2428426   -14340.359    -2147.434   -29186.087   -11687.555    2483.9416   -5512.2796    -17837.32    76.378435 
   18100    981.22513   -161.59693   0.88783312    -160.7091    6597.3076     4.242325     4.242325     4.242325    6597.3076    39133.464    -13260.42   -6081.1204   -11261.036    12652.341    -12600.52    76.350485 
   18200    641.42955   -161.29553   0.58037893   -160.71515    10290.102    4.2572645    4.2572645    4.2572645    10290.102    35073.129    4280.2029   -8483.0276   -1407.5809    7082.4169   -9874.8164    77.159941 
   18300    584.04626   -161.24052   0.52845733   -160.71207    8638.5257    4.2551731    4.2551731    4.2551731    8638.5257    14227.088    1948.6301    9739.8588   -13261.605    8254.3688   -7102.9914    77.046284 
   18400    823.66984   -161.45425   0.74527378   -160.70898   -812.64612    4.2422329    4.2422329    4.2422329   -812.64612    22152.041     -20609.9   -3980.0796   -671.94727    2550.3486   -9256.0195    76.345511 
   18500    851.34184   -161.48101   0.77031198    -160.7107   -22233.341    4.2456128    4.2456128    4.2456128   -22233.341    24573.771   -42130.834    -49142.96    7614.0731   -11372.258   -11837.856     76.52814 
   18600    720.04723   -161.36548   0.65151386   -160.71397   -20242.561    4.2458113    4.2458113    4.2458113   -20242.561    1150.1165   -20212.446   -41665.352   -6470.4864   -8423.8673   -629.48586    76.538873 
   18700    622.54981   -161.28083   0.56329615   -160.71754   -2361.4232    4.2455305    4.2455305    4.2455305   -2361.4232    -8481.103    8762.0567   -7365.2231   -4145.6544   -2669.7516    1949.8343    76.523689 
   18800    553.11488   -161.21686   0.50046997   -160.71639    13647.296    4.2495504    4.2495504    4.2495504    13647.296    2422.3258    28322.751    10196.812   -22035.186   -1921.9181    7238.5013    76.741263 
   18900    576.81133   -161.23489   0.52191101   -160.71298    19988.175    4.2407981    4.2407981    4.2407981    19988.175    22360.898    16563.517    21040.111   -22653.623    2662.3147    7157.7494    76.268077 
   19000    688.55856   -161.33425   0.62302226   -160.71123     3267.606    4.2383607    4.2383607    4.2383607     3267.606    18194.906   -16303.746    7911.6574   -7156.5261    6343.9684   -3896.0307    76.136647 
   19100    1020.2192   -161.63365   0.92311581   -160.71053   -16610.556    4.2443296    4.2443296    4.2443296   -16610.556   -1597.3312   -24606.385   -23627.951   -3969.9587   -9082.6192   -4085.2923    76.458773 
   19200    1236.8542   -161.82761    1.1191317   -160.70847   -15146.146    4.2461602    4.2461602    4.2461602   -15146.146   -8125.4116   -17696.686   -19616.339     11390.19     -4262.75   -4607.9879    76.557741 
   19300    1245.7336   -161.83424    1.1271659   -160.70707   -26376.244    4.2505624    4.2505624    4.2505624   -26376.244   -31748.631   -28448.628   -18931.473    3245.4283   -4733.5533   -4393.4646    76.796103 
   19400    1026.1643   -161.63783   0.92849503   -160.70934   -18362.412    4.2449914    4.2449914    4.2449914   -18362.412   -37756.637   -25150.011    7819.4125    2224.6545   -8414.8397     7142.475     76.49454 
   19500    1006.4605   -161.62611   0.91066662   -160.71544    1704.7572    4.2410048    4.2410048    4.2410048    1704.7572   -8350.0779    -10935.82     24400.17    4165.1057    4791.2702     16223.14    76.279229 
   19600    732.35654   -161.38246   0.66265159   -160.71981    9999.8299    4.2525549    4.2525549    4.2525549    9999.8299    1941.9453   -15336.745    43394.289    -2806.124     4055.338    16255.827    76.904149 
   19700    512.65014   -161.17979   0.46385662   -160.71593    7597.8217    4.2539056    4.2539056    4.2539056    7597.8217   -6429.2945    -11143.62    40366.379    3256.6701     7467.682    5278.2601    76.977456 
   19800     357.2317   -161.03878   0.32323075   -160.71555    23694.326    4.2451431    4.2451431    4.2451431    23694.326    16463.291   -12258.813    66878.499   -6173.7737    154.26032   -126.46295    76.502745 
   19900    475.18567   -161.14662   0.42995798   -160.71666    19896.942    4.2467322    4.2467322    4.2467322    19896.942    4312.4709   -325.07101    55703.425   -6522.0153   -5017.4097   -2537.3948    76.588686 
   20000    472.40593   -161.14307   0.42744281   -160.71563    19032.073    4.2443187    4.2443187    4.2443187    19032.073   -13089.275    15364.278    54821.215   -7539.1645     1234.609    -3389.446    76.458178 
   20100    726.21718   -161.37104   0.65709657   -160.71394   -2379.1688    4.2469997    4.2469997    4.2469997   -2379.1688   -23890.769    -4600.083    21353.345    330.78307   -6055.4215    1485.2203    76.603162 
   20200     1098.354   -161.70394   0.99381381   -160.71013   -29904.871    4.2518412    4.2518412    4.2518412   -29904.871   -22637.121   -39097.786   -27979.707    3706.9574     6475.522    20532.324    76.865437 
   20300    1329.2628   -161.90481    1.2027449   -160.70207   -20014.547    4.2413426    4.2413426    4.2413426   -20014.547   -8080.5471   -17294.268   -34668.827    243.92869    2214.9894    16167.754    76.297454 
   20400    1059.9634   -161.66457   0.95907712   -160.70549   -5774.4287    4.2430405    4.2430405    4.2430405   -5774.4287   -17864.307    1301.1463   -760.12512    10362.964    5047.2275    6270.7467    76.389125 
   20500    820.84404   -161.45309   0.74271694   -160.71038    2399.5374    4.2506977    4.2506977    4.2506977    2399.5374   -13211.313   -3394.8857    23804.811    4686.1677    7693.5144    807.30152    76.803438 
   20600     864.5469   -161.49251   0.78226021   -160.71025    11028.057    4.2460933    4.2460933    4.2460933    11028.057    1157.9415    2729.8644    29196.365   -3945.4198    -6018.095   -5827.5025    76.554123 
   20700    727.89852   -161.37052   0.65861787    -160.7119    4579.0671    4.2452002    4.2452002    4.2452002    4579.0671    -13745.28    926.61289    26555.868    -3805.636    6069.9359   -2218.1574    76.505829 
   20800    721.17199   -161.36413   0.65253157    -160.7116   -6358.8737    4.2443345    4.2443345    4.2443345   -6358.8737   -23252.392   -5084.0367    9259.8072   -10104.249    4120.1232    3048.8797    76.459033 
   20900    863.28935   -161.49572   0.78112234    -160.7146   -10115.379    4.2473325    4.2473325    4.2473325   -10115.379   -6282.2394   -24691.339    627.44017   -11966.345    92.888642    10298.247    76.621168 
   21000    992.53744   -161.61324   0.89806873   -160.71517   -21102.484    4.2547812    4.2547812    4.2547812   -21102.484   -6420.4775   -37843.936   -19043.039   -17035.731      2122.34    8233.0862    77.024998 
   21100    605.71342   -161.26214   0.54806224   -160.71408    416.87846    4.2485576    4.2485576    4.2485576    416.87846    10986.861   -16703.177     6966.951   -15373.378    1382.5806     1900.917    76.687491 
   21200    432.83376   -161.10685   0.39163708   -160.71521    15977.719    4.2421894    4.2421894    4.2421894    15977.719    26849.264   -19523.062    40606.953   -9234.5673    5501.4126   -14358.562    76.343167 
   21300    560.43404   -161.22561   0.50709249   -160.71852    15890.552      4.24097      4.24097      4.24097    15890.552    23606.442   -2959.3022    27024.516   -5059.9573    6260.6766   -16844.665    76.277352 
   21400    650.38741   -161.30524    0.5884842   -160.71676    5003.4978    4.2435336    4.2435336    4.2435336    5003.4978   -3216.0621    11091.515      7135.04    3466.6283   -1410.0662   -9075.1791     76.41576 
   21500    751.41533   -161.39326   0.67989638   -160.71336   -16390.716     4.252345     4.252345     4.252345   -16390.716    -30871.07    1021.5951   -19322.675   -10999.541   -8794.2252     1550.079    76.892764 
   21600     1097.852   -161.70204    0.9933596   -160.70868   -28178.876    4.2557395    4.2557395    4.2557395   -28178.876   -25629.137   -39172.202   -19735.289   -11825.612   -11408.849    6512.3574    77.077056 
   21700    1091.3677   -161.69521   0.98749243   -160.70772     -14274.6    4.2495183    4.2495183    4.2495183     -14274.6    -14457.95   -3885.0129   -24480.837    955.83171   -5782.3769     3843.784    76.739524 
   21800    785.16752   -161.42282   0.71043607   -160.71238   -7539.4475    4.2485168    4.2485168    4.2485168   -7539.4475   -23817.112    24545.494   -23346.725      2682.87   -3799.8894   -5556.5558    76.685285 
   21900    822.42808   -161.45769   0.74415021   -160.71354   -784.68028    4.2470434    4.2470434    4.2470434   -784.68028    -29024.62    32840.115   -6169.5362    412.65138    5421.4142   -10174.551    76.605525 
   22000    1025.0691   -161.64343   0.92750403   -160.71593    3112.4605    4.2484528    4.2484528    4.2484528    3112.4605   -17066.957    16705.679    9698.6603    -1500.196     1825.962   -16513.669    76.681819 
   22100    892.20297   -161.52405   0.80728399   -160.71676   -8373.3506    4.2525602    4.2525602    4.2525602   -8373.3506   -29181.058   -15654.953    19715.959   -11160.537    4140.3782   -14456.303    76.904441 
   22200    770.68048   -161.41034   0.69732789   -160.71301   -2217.5412    4.2477452    4.2477452    4.2477452   -2217.5412   -21800.298   -20649.336    35797.011   -2308.6708    904.01791   -7335.5223    76.643506 
   22300    995.21763   -161.61208   0.90049382   -160.71158    11964.678    4.2405927    4.2405927    4.2405927    11964.678   -773.64963    -10157.58    46825.265    8809.6095   -9919.7077    2228.5004    76.256997 
   22400    928.77025   -161.55277   0.84037084    -160.7124    15915.348    4.2424805    4.2424805    4.2424805    15915.348   -4474.1062    10700.476    41519.674     6700.213    1192.7867    7277.3994    76.358883 
   22500    908.12436   -161.53205   0.82169001   -160.71036     -12856.2     4.254932     4.254932     4.254932     -12856.2    -35405.01   -32.066268   -3131.5256   -316.05326    1470.5411    5009.9389    77.033186 
   22600    1187.1992   -161.78232    1.0742028   -160.70812    -22325.15    4.2471015    4.2471015    4.2471015    -22325.15   -27660.535   -16617.525    -22697.39   -3134.9632    5137.9969    1344.0798    76.608672 
   22700    1270.1697   -161.85612    1.1492762   -160.70685   -10307.601    4.2368721    4.2368721    4.2368721   -10307.601     4762.548    -17306.23   -18379.122   -6271.2777    14343.713    2695.1654    76.056454 
   22800    936.19968   -161.55846   0.84709314   -160.71136   -7946.1433    4.2443033    4.2443033    4.2443033   -7946.1433   -7096.2087   -7379.8473   -9362.3738    1084.5047    408.24389    12241.222    76.457349 
   22900    594.99742   -161.24783   0.53836617   -160.70946    14543.965    4.2446561    4.2446561    4.2446561    14543.965    13620.543    9010.8229    21000.529    6537.9388   -5902.4304    19517.076    76.476416 
   23000    674.89579   -161.32304    0.6106599   -160.71238    19525.508    4.2522374    4.2522374    4.2522374    19525.508    27825.293     13963.79    16787.442    10860.318   -7952.7379    16416.613    76.886926 
   23100    932.78423   -161.55235   0.84400277   -160.70835   -10534.902    4.2531136    4.2531136    4.2531136   -10534.902   -10494.423    7913.7678   -29024.052    4326.0685   -10191.718     7943.364    76.934468 
   23200    836.91688   -161.45815   0.75725998   -160.70089    -11429.58      4.23626      4.23626      4.23626    -11429.58   -19913.025    3438.2079   -17813.922   -5870.3677   -4774.9607     8580.931    76.023491 
   23300    748.29315   -161.38739   0.67707137   -160.71032   -10538.082    4.2446535    4.2446535    4.2446535   -10538.082   -4732.9901   -8735.6931   -18145.564   -4254.7887   -6006.2943    8133.4464    76.476277 
   23400    737.97536   -161.37735   0.66773561   -160.70961    4054.3002    4.2525832    4.2525832    4.2525832    4054.3002    23561.806   -8699.5874   -2699.3177    3775.8073   -13121.146    16715.346    76.905687 
   23500    592.97694   -161.24447     0.536538   -160.70793    25060.793    4.2475621    4.2475621    4.2475621    25060.793    17759.072    28048.863    29374.443    11633.679   -17277.956    13417.007    76.633595 
   23600    653.42879    -161.3023    0.5912361   -160.71107   -5380.5136    4.2562365    4.2562365    4.2562365   -5380.5136   -38648.393    7901.7341    14605.118    4614.7759   -6025.3187    3370.6196    77.104062 
   23700    1184.1434   -161.77829    1.0714378   -160.70685   -15409.237    4.2392614    4.2392614    4.2392614   -15409.237   -21097.914   -7701.1949   -17428.602    -1446.782    3478.7046   -8298.2868    76.185195 
   23800    1126.1228   -161.72473    1.0189396   -160.70579    1580.8823    4.2292057    4.2292057    4.2292057    1580.8823    14023.475    1525.4536   -10806.281    4998.7535    -2577.626   -9765.0765     75.64434 
   23900    620.84038   -161.27193   0.56174942   -160.71018    -5252.739    4.2537289    4.2537289    4.2537289    -5252.739    221.32117   -6809.7267   -9169.8116    11204.614   -5315.3063    925.66572    76.967864 
   24000    710.12339   -161.34512   0.64253457   -160.70258    8019.3626    4.2510612    4.2510612    4.2510612    8019.3626    8059.5733    11766.379     4232.136    20203.784   -6600.2801    5128.1406    76.823144 
   24100    1027.6575   -161.62898   0.92984613   -160.69913   -3641.5002    4.2511847    4.2511847    4.2511847   -3641.5002   -11966.622    5060.4013   -4018.2796    20127.375    1459.1712   -4796.7356    76.829838 
   24200    1104.6333   -161.69539   0.99949544    -160.6959   -31679.715    4.2502784    4.2502784    4.2502784   -31679.715   -45397.798   -23036.352   -26604.996    6064.8511    9417.5432   -4413.9969    76.780709 
   24300    964.80906   -161.57115   0.87297951   -160.69817   -3641.1713    4.2305134    4.2305134    4.2305134   -3641.1713   -8342.3361   -18827.824    16246.646    9930.1513    4660.5778   -6117.9432    75.714529 
   24400    809.52577   -161.45013   0.73247593   -160.71766    6878.8322    4.2469719    4.2469719    4.2469719    6878.8322    30084.712   -27777.491    18329.276    7086.3006   -3805.9304   -2774.2886    76.601656 
   24500    697.26793   -161.33906   0.63090268   -160.70816    12748.866    4.2610253    4.2610253    4.2610253    12748.866    47270.407   -34429.573    25405.764    3605.5249   -14712.784    10716.332    77.364609 
   24600    716.82772   -161.34803   0.64860079   -160.69943   -636.68967    4.2543563    4.2543563    4.2543563   -636.68967    4736.9341   -13892.745    7245.7422    9087.0775   -10778.625    5966.6769    77.001923 
   24700    930.64972   -161.54196   0.84207142   -160.69989   -27770.816    4.2484315    4.2484315    4.2484315   -27770.816   -34507.572   -23061.848   -25743.028   -6963.8761   -696.12852    2963.8822    76.680665 
   24800      1167.03   -161.75828    1.0559532   -160.70232    -14943.59    4.2325969    4.2325969    4.2325969    -14943.59   -9885.3801   -9090.4759   -25854.915   -7347.8636    4485.0221    2139.4196    75.826448 
   24900    881.19017   -161.51174   0.79731938   -160.71442    5912.9682    4.2387905    4.2387905    4.2387905    5912.9682    5290.6675    14681.177   -2232.9402    1045.3122    2261.5843    4711.1021     76.15981 
   25000    397.04884    -161.0781   0.35925813   -160.71884      11202.9    4.2608639    4.2608639    4.2608639      11202.9    20557.312   -1696.4562    14747.844    4713.3543   -9290.2062    10746.433    77.355816 
   25100     367.4636   -161.04458   0.33248879   -160.71209    24928.829    4.2545995    4.2545995    4.2545995    24928.829    40858.648   -5051.4029    38979.242   -1286.2834    -21415.25    2553.0509    77.015132 
   25200    551.43499   -161.20803   0.49894996   -160.70908    14339.786    4.2439191    4.2439191    4.2439191    14339.786    25125.221   -14267.132    32161.268   -11374.911   -17189.611   -904.74317     76.43659 
   25300    591.84452   -161.24704   0.53551336   -160.71152   -12223.841    4.2455445    4.2455445    4.2455445   -12223.841   -29053.545   -27576.644    19958.668   -15661.045   -6161.2139   -8469.5258    76.524445 
   25400    840.95102   -161.47304   0.76091015   -160.71213   -14935.889    4.2475666    4.2475666    4.2475666   -14935.889   -31380.422   -28384.019    14956.775   -10493.424    3897.9808    893.68925    76.633843 
   25500    962.53507   -161.58583   0.87092196   -160.71491   -23856.932    4.2605105    4.2605105    4.2605105   -23856.932     3005.174   -50967.936   -23608.034    -395.8291    9145.1068    5032.4368    77.336571 
   25600    935.04265    -161.5541   0.84604624   -160.70805    -24181.29     4.255449     4.255449     4.255449    -24181.29    29233.959   -56248.312   -45529.519    4708.4197    9673.5644    12176.032    77.061273 
   25700     652.5106   -161.29881   0.59040531   -160.70841    10365.435    4.2368049    4.2368049    4.2368049    10365.435    50556.569     -29205.2    9744.9353    5254.9899   -6431.8766    11780.915    76.052834 
   25800    503.57278   -161.17794   0.45564324    -160.7223    12728.174    4.2528947    4.2528947    4.2528947    12728.174    32253.382   -24940.099    30871.238   -786.69952   -9946.4444   -4279.1808     76.92259 
   25900    449.25471   -161.12367    0.4064951   -160.71718    24163.177    4.2623892    4.2623892    4.2623892    24163.177    32213.165   -20154.921    60431.286    471.43397   -16902.469    2856.2509    77.438925 
   26000    556.45172    -161.2133   0.50348921   -160.70981    23196.028    4.2484183    4.2484183    4.2484183    23196.028    33051.257   -13283.817    49820.645     9068.577   -9942.2593    2632.0204     76.67995 
   26100    824.87225   -161.45363   0.74636175   -160.70727   -13795.269     4.248777     4.248777     4.248777   -13795.269    -16324.31   -31923.022    6861.5246    7541.0395      9309.05    9629.4995    76.699371 
   26200    1170.7492   -161.76539    1.0593185   -160.70607   -30006.029    4.2497178    4.2497178    4.2497178   -30006.029   -25030.844    -41599.84   -23387.403    4074.1345    12231.877    5290.8324    76.750332 
   26300    1089.3947   -161.69674   0.98570718   -160.71103     -16610.4     4.247726     4.247726     4.247726     -16610.4   -17334.267   -36895.102    4398.1696   -2727.6409    10074.549   -1050.8395     76.64247 
   26400      837.266   -161.47219   0.75757587   -160.71462   -20588.266    4.2564455    4.2564455    4.2564455   -20588.266   -11088.076   -39088.806   -11587.916   -243.90662    7832.7953    1571.0528    77.115421 
   26500     594.6256   -161.24841   0.53802974   -160.71038    9629.4028     4.249324     4.249324     4.249324    9629.4028    31860.062   -28794.183    25822.329    5027.5204    -5406.513   -1826.8392    76.728999 
   26600    533.22063   -161.19312   0.48246923   -160.71065     26531.87    4.2446364    4.2446364    4.2446364     26531.87    44267.079   -30708.803    66037.336    168.92131   -12791.592    -1705.031    76.475349 
   26700    546.80075   -161.20966   0.49475681    -160.7149    16592.735    4.2483332    4.2483332    4.2483332    16592.735    21613.708   -42292.634    70457.131   -3198.4906    -6599.269   -8283.7766    76.675343 
   26800     625.4403    -161.2824   0.56591153   -160.71649    4551.8863    4.2471312    4.2471312    4.2471312    4551.8863   -3702.5593    -26083.01    43441.228   -5362.9418    2252.2601    -12669.59    76.610276 
   26900    987.69305    -161.6069   0.89368543   -160.71322   -19072.344    4.2481743    4.2481743    4.2481743   -19072.344   -18704.681   -31652.083   -6860.2667    170.20641    14105.894   -5051.1757    76.666737 
   27000    1128.1461   -161.73157    1.0207703    -160.7108   -27678.114    4.2515225    4.2515225    4.2515225   -27678.114   -32837.784   -41665.009   -8531.5487    644.13459    17303.068    3804.2532    76.848153 
   27100    953.08418   -161.57525   0.86237059   -160.71288   -23147.749    4.2498819    4.2498819    4.2498819   -23147.749   -27423.278   -27316.554   -14703.414   -2025.0015    10063.032    8239.3651    76.759226 
   27200    797.90923   -161.43847   0.72196504   -160.71651   -1026.3435    4.2404035    4.2404035    4.2404035   -1026.3435    11231.188    -6834.241   -7475.9777    -7273.196    6832.6636    2017.3776    76.246786 
   27300    718.45773   -161.37113   0.65007565   -160.72106    23769.792    4.2416011    4.2416011    4.2416011    23769.792    42364.387   -7259.3935    36204.383   -6393.9759   -6581.5596   -2681.6442    76.311406 
   27400    629.03348   -161.28855   0.56916271   -160.71939    13365.916    4.2544165    4.2544165    4.2544165    13365.916     38011.61   -27678.963    29765.102    3015.0189   -15429.363    3534.9094    77.005195 
   27500    560.28676   -161.22042   0.50695923   -160.71346     13900.05    4.2492731    4.2492731    4.2492731     13900.05    45129.145   -18624.706     15195.71    5354.3258   -11918.853    3740.2551    76.726243 
   27600     705.4559   -161.34985   0.63831132   -160.71154    3939.2647    4.2466233    4.2466233    4.2466233    3939.2647    40748.549   -29080.425    149.67061    6822.7865   -15553.639    1738.8035    76.582794 
   27700    896.77232   -161.52633   0.81141844   -160.71491   -4191.7181    4.2456821    4.2456821    4.2456821   -4191.7181    23042.819    -27756.92    -7861.054   -1326.9962   -8542.4442   -10273.646    76.531889 
   27800    877.71592   -161.50901   0.79417581   -160.71484   -1061.9496    4.2401862    4.2401862    4.2401862   -1061.9496    7953.2771   -6683.6382   -4455.4877    1202.3936   -4736.8691   -5994.9614    76.235067 
   27900    748.82583   -161.39375   0.67755334   -160.71619   -6583.1205    4.2473016    4.2473016    4.2473016   -6583.1205   -14488.871   -3307.3371   -1953.1531    807.32637   -3775.7098     54.08697    76.619501 
   28000    966.10024   -161.58841    0.8741478   -160.71426   -22480.478    4.2551146    4.2551146    4.2551146   -22480.478   -31735.307   -19419.243   -16286.885   -570.24545    2008.6453   -3839.7962    77.043108 
   28100     880.1838    -161.5113    0.7964088    -160.7149   -4354.2554    4.2442748    4.2442748    4.2442748   -4354.2554   -7251.2457   -4602.7329   -1208.7877     7732.943   -5114.7271    462.43597    76.455808 
   28200    606.15041   -161.26385   0.54845763    -160.7154    11308.663    4.2379516    4.2379516    4.2379516    11308.663    18471.081   -6820.7868    22275.696    4281.6434   -12509.704    4634.4105    76.114599 
   28300    531.44193   -161.19679   0.48085983   -160.71593    16832.455    4.2406987    4.2406987    4.2406987    16832.455    31377.045   -15652.806    34773.126   -691.81208   -18400.621    1822.0705    76.262715 
   28400    682.94219   -161.33495   0.61794044   -160.71701    15479.361    4.2456386    4.2456386    4.2456386    15479.361    28212.111   -12493.881    30719.853   -10356.547   -19591.129    1657.7168    76.529536 
   28500    799.95314   -161.43797   0.72381442   -160.71415   -9037.2643    4.2536398    4.2536398    4.2536398   -9037.2643    4525.3679   -17300.804   -14336.357    -14635.35    -2372.599   -1389.3513    76.963026 
   28600    857.16162   -161.48599   0.77557784   -160.71041   -14574.652    4.2434599    4.2434599    4.2434599   -14574.652   -6330.3691   -3425.0553    -33968.53   -13490.372    4318.6605    7258.7793    76.411778 
   28700    1009.2547   -161.62345   0.91319482   -160.71025   -7714.5747    4.2344723    4.2344723    4.2344723   -7714.5747   -12334.591   -2448.5271   -8360.6061   -23447.025   -148.32397    3787.1541    75.927286 
   28800    914.08888    -161.5427   0.82708683   -160.71562   -4622.0954    4.2437232    4.2437232    4.2437232   -4622.0954   -25358.723    1903.4864    9588.9508   -13916.597    4173.9282    4452.2675    76.426001 
   28900    626.71323   -161.28123    0.5670633   -160.71417    7953.1331    4.2465573    4.2465573    4.2465573    7953.1331   -6863.7841    11390.079    19333.105   -7400.2802   -12162.862    14447.546    76.579224 
   29000    623.52266   -161.27967    0.5641764   -160.71549    10383.777    4.2469305    4.2469305    4.2469305    10383.777    16188.266    15199.173    -236.1086    -12453.37   -11683.289     7246.321    76.599414 
   29100    1026.3747   -161.64319    0.9286854   -160.71451   -7602.6442    4.2468869    4.2468869    4.2468869   -7602.6442    -10441.81    12904.624   -25270.746   -8147.4694    5926.8837    -1666.809    76.597059 
   29200    1078.6093   -161.68575   0.97594835    -160.7098   -2790.3147    4.2341567    4.2341567    4.2341567   -2790.3147   -20627.638    19665.923   -7409.2292   -11572.732    6191.9988     4508.431    75.910314 
   29300    816.39709   -161.45502   0.73869324   -160.71632   -11242.253     4.242544     4.242544     4.242544   -11242.253   -13239.965   -2038.3247   -18448.469     -13755.6    -502.3293   -7976.7945    76.362312 
   29400    729.30971   -161.37393   0.65989475   -160.71403   -4353.2995    4.2518175    4.2518175    4.2518175   -4353.2995    7858.6773   -23872.401    2953.8254   -5279.7839   -9018.7949   -4798.5044    76.864152 
   29500     767.2966   -161.40838   0.69426609   -160.71411    17192.916    4.2442078    4.2442078    4.2442078    17192.916    23628.493    2026.9851    25923.272    -4109.237    -13964.07    4170.6397    76.452185 
   29600    772.36356   -161.41254   0.69885078   -160.71369   -3743.1813    4.2480687    4.2480687    4.2480687   -3743.1813   -1879.2153    1898.0222   -11248.351    4272.1073    637.75503    786.90816    76.661018 
   29700    862.37097   -161.49256   0.78029137   -160.71227   -15363.279    4.2458318    4.2458318    4.2458318   -15363.279   -18934.555    5683.4868    -32838.77     6631.954    10044.249    8117.4726     76.53998 
   29800    967.22002    -161.5893     0.875161   -160.71414    618.61709     4.240331     4.240331     4.240331    618.61709   -18321.787    34210.395   -14032.757    4691.5605    9255.1829    7336.9878    76.242878 
   29900    757.60337   -161.40262   0.68549545   -160.71712     3333.101    4.2499575    4.2499575    4.2499575     3333.101   -18886.875    38820.808   -9934.6299   -906.85082    3997.4047   -7871.1671    76.763321 
   30000    466.14013   -161.13582   0.42177338   -160.71404    19853.535    4.2481835    4.2481835    4.2481835    19853.535   -11114.644    55211.865    15463.385    -6099.498   -1441.8637   -14927.519    76.667236 
   30100    734.95569   -161.37832   0.66500336   -160.71332    12690.449    4.2463103    4.2463103    4.2463103    12690.449   -3886.8159    41903.515    54.649158    2596.1658    4404.7833    -6496.283    76.565861 
   30200    1067.0072   -161.67525   0.96545051    -160.7098   -20044.659    4.2468549    4.2468549    4.2468549   -20044.659   -39192.508   -2241.9782   -18699.491    12371.474    14807.633    801.38138    76.595324 
   30300     1028.474   -161.63671   0.93058492   -160.70612   -14712.508     4.235935     4.235935     4.235935   -14712.508   -26895.968   -9770.3076    -7471.249    13285.218    18515.904    6051.2351    76.005997 
   30400    833.14635   -161.46662   0.75384833   -160.71277   -10894.602    4.2464109    4.2464109    4.2464109   -10894.602   -23351.523   -9021.2029   -311.07969    9270.2301    9431.4114    4621.0299    76.571306 
   30500    719.34117   -161.36353   0.65087501   -160.71266    8490.3037    4.2518038    4.2518038    4.2518038    8490.3037   -881.39438    8040.3077    18311.998     4278.221   -7983.5536   -4783.1407    76.863411 
   30600    696.72181    -161.3436   0.63040853   -160.71319     18088.56    4.2416469    4.2416469    4.2416469     18088.56    8707.9383    26837.118    18720.623   -2055.9599   -8465.2576   -8879.0199    76.313881 
   30700    577.68766   -161.23868   0.52270393   -160.71597    793.27843    4.2421515    4.2421515    4.2421515    793.27843   -19451.821    18005.257    3826.3987    9358.4901   -8883.3555   -7467.4689     76.34112 
   30800    835.31925   -161.46801   0.75581441    -160.7122   -16360.323    4.2415942    4.2415942    4.2415942   -16360.323   -33661.658   -9888.9059   -5530.4053    18695.617   -10797.434    2324.4872    76.311039 
   30900     988.5528   -161.60835   0.89446335   -160.71388   -7803.9689    4.2448373    4.2448373    4.2448373   -7803.9689    -29464.08   -13761.179    19813.352    12206.524    1957.8628   -4152.1643    76.486213 
   31000    723.67812   -161.37032   0.65479917   -160.71552   -7542.5571    4.2558665    4.2558665    4.2558665   -7542.5571   -15616.147   -10312.706     3301.181    10592.161   -6492.8039   -1765.4788    77.083954 
   31100    471.44995   -161.14036   0.42657782   -160.71379    10524.327    4.2475159    4.2475159    4.2475159    10524.327    22699.336     9970.545    -1096.899     5253.893   -11711.902    1133.4689    76.631097 
   31200    585.06159   -161.24402   0.52937602   -160.71464    21585.114    4.2393459    4.2393459    4.2393459    21585.114    28603.726    21811.044    14340.571   -709.50562   -13458.234   -2495.2377    76.189754 
   31300    649.32907   -161.30187   0.58752659   -160.71434    15426.713    4.2406582    4.2406582    4.2406582    15426.713    23967.787    15227.551    7084.8021    1281.3007   -20770.115   -4183.3415    76.260528 
   31400    679.51691    -161.3274   0.61484118   -160.71256    1011.0154    4.2422286    4.2422286    4.2422286    1011.0154    9635.5106    4146.1362   -10748.601    3844.5246   -11851.725   -365.75853    76.345282 
   31500    1019.7044   -161.63379   0.92264993   -160.71114   -26094.141    4.2517714    4.2517714    4.2517714   -26094.141   -17278.255   -30332.148   -30672.021    9373.7421   -3297.2345     5881.726    76.861651 
   31600    1261.1563   -161.84801    1.1411207   -160.70689   -28141.163    4.2506654    4.2506654    4.2506654   -28141.163   -30643.144   -34942.721   -18837.625    14739.106    386.24328    3176.4713    76.801689 
   31700     1017.875   -161.62676   0.92099473   -160.70577     1772.364    4.2371386    4.2371386    4.2371386     1772.364    11390.574    8633.4997   -14706.982    556.12168    4271.1241    3508.8637    76.070807 
   31800    798.27764   -161.43584   0.72229838   -160.71354    15000.647    4.2408116    4.2408116    4.2408116    15000.647    47254.152    21061.333   -23313.544   -6969.8139   -2503.6111    4953.8579    76.268804 
   31900    823.30726   -161.46131   0.74494571   -160.71636    22288.797    4.2483197    4.2483197    4.2483197    22288.797    67593.857    19309.612   -20037.079   -10360.218    -1425.425   -2696.6965    76.674609 
   32000    782.58517   -161.42216   0.70809951   -160.71406    16829.475    4.2523586    4.2523586    4.2523586    16829.475     50524.68    14766.974   -14803.228   -11875.248    1665.4068    5195.9669    76.893502 
   32100    905.89041   -161.52857   0.81966868    -160.7089    -21020.29    4.2565345    4.2565345    4.2565345    -21020.29   -4196.4981   -13851.371   -45013.002    5985.0292    888.63024    6705.8421    77.120257 
   32200    1122.5151   -161.72082    1.0156753   -160.70514   -34476.494    4.2505414    4.2505414    4.2505414   -34476.494   -36923.731    -16714.55   -49791.202    14587.458    7639.2314    3747.1594    76.794964 
   32300    1072.7375   -161.67937   0.97063541   -160.70873   -13970.931    4.2404332    4.2404332    4.2404332   -13970.931   -24413.498   -5277.6966   -12221.597    12522.446    3856.6373    12623.697     76.24839 
   32400    676.98658   -161.32667   0.61255168   -160.71412    4257.0475    4.2411563    4.2411563    4.2411563    4257.0475   -7002.5828    15806.773    3966.9523    8473.6577   -9222.5636   -3929.1855    76.287401 
   32500    488.64883   -161.15765   0.44213973   -160.71551    14859.153    4.2466174    4.2466174    4.2466174    14859.153    13188.031    29522.546    1866.8815   -1974.7329   -5395.6694   -7484.2405    76.582474 
   32600     614.4417   -161.27382   0.55595976   -160.71786    16636.417    4.2519518    4.2519518    4.2519518    16636.417    19339.777    15242.743    15326.733   -5596.1245    1092.8148    3617.4835    76.871437 
   32700    721.07089   -161.36663   0.65244009   -160.71419    2788.1117    4.2485113    4.2485113    4.2485113    2788.1117    -6426.337    9302.3883    5488.2838    4588.7269    9961.3482   -1706.1059    76.684983 
   32800    745.14939   -161.38154   0.67422683   -160.70731    -11624.09    4.2411319    4.2411319    4.2411319    -11624.09   -33463.044    5110.0939   -6519.3207    12052.261    18024.349     7799.139    76.286089 
   32900    714.06914    -161.3595   0.64610476    -160.7134   -9955.1319     4.245829     4.245829     4.245829   -9955.1319   -29285.274    -2762.719    2182.5973    16610.357    7772.1082    6133.2205     76.53983 
   33000    794.88693   -161.43424    0.7192304   -160.71501   -4901.8151    4.2509896    4.2509896    4.2509896   -4901.8151   -24666.819   -18641.469    28602.843    16139.588    2409.6979   -7480.2271    76.819264 
   33100    503.67243   -161.17307   0.45573339   -160.71734    16670.853    4.2452119    4.2452119    4.2452119    16670.853   -13319.705     496.0843    62836.178    3687.0434   -4254.1106   -11258.513     76.50646 
   33200    387.23289   -161.07081   0.35037646   -160.72043     7444.507    4.2483833    4.2483833    4.2483833     7444.507   -1410.1727   -11170.136     34913.83   -3557.2876   -6145.2012   -122.24918    76.678054 
   33300    819.28161   -161.45811   0.74130322   -160.71681   -5962.0792    4.2473676    4.2473676    4.2473676   -5962.0792   -1357.3531   -12577.964   -3950.9207   -2341.2763    9731.8148    3140.9637    76.623071 
   33400    1001.1863   -161.61681   0.90589439   -160.71091   -7800.8011    4.2426542    4.2426542    4.2426542   -7800.8011   -23814.311    14634.846   -14222.939    6815.8287    11719.058    6964.8765    76.368264 
   33500    761.72679   -161.40039   0.68922641   -160.71117   -21323.803    4.2521451    4.2521451    4.2521451   -21323.803   -37884.268    3434.5909   -29521.733     9724.794    14652.859    8788.4536    76.881921 
   33600    455.71035   -161.12119    0.4123363   -160.70885    9038.2679    4.2500014    4.2500014    4.2500014    9038.2679   -26394.798    45723.325    7786.2768   -2939.5527    9870.6219   -2410.5713    76.765701 
   33700    535.41604   -161.19318   0.48445568   -160.70872    26044.517    4.2443452    4.2443452    4.2443452    26044.517    -22701.32    65635.133    35199.737   -13686.887      3515.79   -9226.8316    76.459615 
   33800    418.74037   -161.09234   0.37888509   -160.71345     10646.93    4.2503482    4.2503482    4.2503482     10646.93   -39509.087    68210.462    3239.4147   -10680.202    13036.237   -5753.2312    76.784493 
   33900    677.88965   -161.32441    0.6133688   -160.71104   -13812.047    4.2460366    4.2460366    4.2460366   -13812.047   -44029.654    22240.387   -19646.875   -1350.5434    18040.644    4370.9818    76.551059 
   34000    872.06519   -161.49841   0.78906291   -160.70935   -15256.205    4.2459279    4.2459279    4.2459279   -15256.205   -13602.808    -27529.21   -4636.5975   -325.82422    12501.133    11267.472    76.545181 
   34100    671.64171   -161.32022   0.60771553    -160.7125   -163.34256    4.2498439    4.2498439    4.2498439   -163.34256   -4398.6895   -8831.3428    12740.005   -11728.932    5097.2338    3215.6594    76.757165 
   34200    289.82807   -160.97417   0.26224253   -160.71193    14890.412    4.2480743    4.2480743    4.2480743    14890.412   -7473.8997    37177.778    14967.358    -18181.85   -4111.5621    -7810.253    76.661326 
   34300    450.46632   -161.12226   0.40759139   -160.71467    16559.734     4.246901     4.246901     4.246901    16559.734   -5355.3799    27190.285    27844.297   -17314.281   -7162.3897   -6567.2176    76.597822 
   34400    838.93167   -161.47431   0.75908301   -160.71523   -4129.3089    4.2510573    4.2510573    4.2510573   -4129.3089   -12564.145   -24502.878    24679.096   -6609.3266    702.43901    577.47113    76.822931 
   34500    858.84534     -161.487   0.77710132    -160.7099   -16019.263    4.2490295    4.2490295    4.2490295   -16019.263   -39817.017   -20428.245    12187.473   -592.52031    4339.0023    7191.0157    76.713046 
   34600    887.33259   -161.51439   0.80287717   -160.71152   -18350.404     4.250629     4.250629     4.250629   -18350.404     -43374.8    6038.4291   -17714.842    1503.9621    7908.4112    6468.8597    76.799712 
   34700    948.03261   -161.57106   0.85779983   -160.71326   -7438.1788    4.2543898    4.2543898    4.2543898   -7438.1788   -28029.733    34929.456    -29214.26   -75.948976    6824.4568   -4898.7145    77.003743 
   34800    686.81803   -161.33581   0.62144739   -160.71437    19920.952    4.2464452    4.2464452    4.2464452    19920.952   -10148.717    75089.112    -5177.539   -6497.0396    1250.0083   -9640.6624     76.57316 
   34900     657.1271   -161.30762   0.59458241   -160.71304     9320.328    4.2449108    4.2449108    4.2449108     9320.328   -10922.715    68427.428   -29543.729   -84.626314   -1317.8104   -3756.7974    76.490186 
   35000    1008.3477   -161.62517   0.91237419    -160.7128    1110.4324    4.2459605    4.2459605    4.2459605    1110.4324   -10540.902    44160.822   -30288.623    2130.9292    2046.9843    2522.0706    76.546941 
   35100    1065.2561   -161.67723   0.96386611   -160.71336    27.232309    4.2454828    4.2454828    4.2454828    27.232309   -10072.764    19935.559   -9781.0979    2791.8555    7131.5924    10061.598    76.521107 
   35200    962.45078   -161.58208   0.87084569   -160.71124   -13463.773    4.2462681    4.2462681    4.2462681   -13463.773   -29624.243   -9704.7673   -1062.3095    11849.197    323.25519     8673.932    76.563583 
   35300    980.62937   -161.59856   0.88729406   -160.71127   -19939.063    4.2471282    4.2471282    4.2471282   -19939.063   -38387.684   -27541.121    6111.6157    14320.321     642.6187    1327.8378    76.610115 
   35400    977.39515   -161.59654   0.88436767   -160.71217   -3274.2023    4.2450784    4.2450784    4.2450784   -3274.2023    -8139.976    -18687.53    17004.899    9669.2883   -9204.7655   -3794.3994    76.499242 
   35500     668.8293   -161.31682    0.6051708   -160.71165    9120.2456    4.2489662    4.2489662    4.2489662    9120.2456    18122.104   -4329.5254    13568.158    2672.3979   -14170.902   -8007.1579     76.70962 
   35600    525.61348   -161.18539   0.47558612   -160.70981    9514.6152    4.2483602    4.2483602    4.2483602    9514.6152    29022.941    14511.169   -14990.264   -6071.3218   -3390.4993   -2632.8046    76.676803 
   35700    773.32091   -161.40956   0.69971701   -160.70984   -3756.1942    4.2468373    4.2468373    4.2468373   -3756.1942    12027.811   -3611.1564   -19685.237   -2880.5584   -3265.4534    8810.0988    76.594372 
   35800    893.53541   -161.51928   0.80848962   -160.71079   -20427.165    4.2481675    4.2481675    4.2481675   -20427.165   -17466.882   -34692.725   -9121.8873    2676.2402    1789.7551     15066.04    76.666371 
   35900    698.21279   -161.34363    0.6317576   -160.71187   -16508.072    4.2472388    4.2472388    4.2472388   -16508.072   -17182.445   -22628.786   -9712.9849    199.31063    6458.9692    12100.797    76.616102 
   36000    633.74737   -161.28681   0.57342794   -160.71338   -4165.8838    4.2480922    4.2480922    4.2480922   -4165.8838    15070.118   -13345.498   -14222.271   -6290.2438   -1594.6578    3286.6364    76.662291 
   36100    617.70807   -161.27449   0.55891524   -160.71557    7818.5327    4.2492379    4.2492379    4.2492379    7818.5327    28848.183   -7227.8185    1835.2339   -14404.615    3073.8554   -1064.5747    76.724337 
   36200    628.11346   -161.28301   0.56833025   -160.71468    13923.325    4.2427123    4.2427123    4.2427123    13923.325    21113.234   -12953.552    33610.293   -11987.906   -6892.6791   -3921.2005    76.371401 
   36300    606.00235   -161.26417   0.54832366   -160.71585    9017.5368    4.2399421    4.2399421    4.2399421    9017.5368   -1350.7633    11652.413     16750.96    359.19934   -4610.7257   -515.80563    76.221901 
   36400    929.72283   -161.55696   0.84123276   -160.71573   -16277.062    4.2498106    4.2498106    4.2498106   -16277.062    296.17337   -14489.285   -34638.074    3116.7532    4343.6055    11200.245    76.755361 
   36500    1044.3297   -161.65438   0.94493146   -160.70945   -16716.064    4.2524966    4.2524966    4.2524966   -16716.064    17550.901    -36259.96   -31439.132     10456.73    6137.1868    11917.268     76.90099 
   36600    677.11666   -161.32114   0.61266938   -160.70847    5990.1215    4.2453244    4.2453244    4.2453244    5990.1215    13224.596   -3618.3048    8364.0734    7327.5052    11034.989    8056.7156    76.512546 
   36700    584.36059   -161.24008   0.52874174   -160.71133      4528.37     4.243266     4.243266     4.243266      4528.37   -15832.093    13474.236    15942.967      2644.34    7108.9821   -2801.1018    76.401302 
   36800    614.85992    -161.2692   0.55633817   -160.71286    8128.0627    4.2406214    4.2406214    4.2406214    8128.0627     -11330.6    28055.999    7658.7901    5347.6357   -2265.7056   -5110.3993    76.258543 
   36900    774.73628    -161.4156   0.70099767   -160.71461   -1732.9698    4.2451583    4.2451583    4.2451583   -1732.9698    15968.105   -8090.0792   -13076.935   -5336.4023    2258.2527    4476.4778    76.503563 
   37000    644.22172   -161.29629   0.58290535   -160.71338   -12383.941    4.2518935    4.2518935    4.2518935   -12383.941    29267.413   -34748.596    -31670.64   -2352.5369    3635.5422    9239.7739    76.868277 
   37100    485.32033   -161.15264   0.43912803   -160.71351    6939.3192    4.2410097    4.2410097    4.2410097    6939.3192    22318.161   -2185.8639    685.66019    2551.3551    8788.1372    413.46644    76.279493 
   37200    420.24597   -161.09726   0.38024738   -160.71701     20440.92    4.2368927    4.2368927    4.2368927     20440.92    32018.077    6065.3632    23239.319    6471.5007    14124.154   -7160.1401     76.05756 
   37300    485.47676   -161.15498   0.43926958   -160.71571    2417.4161    4.2509375    4.2509375    4.2509375    2417.4161    48973.442   -35450.732   -6270.4619     6167.683    8302.5479   -3124.0031    76.816437 
   37400    637.25617   -161.28605   0.57660277   -160.70945   -12499.777     4.251023     4.251023     4.251023   -12499.777     47434.92   -40733.717   -44200.534   -1417.2732   -1372.3056    4501.5487     76.82107 
   37500    961.77263   -161.57884   0.87023209   -160.70861   -11729.439      4.24683      4.24683      4.24683   -11729.439    20792.191   -20512.898   -35467.612   -6548.6247   -4366.3438     7526.748    76.593976 
   37600    886.62749   -161.51155   0.80223918   -160.70931   -5948.9731    4.2524253    4.2524253    4.2524253   -5948.9731   -26719.176    2512.0969    6360.1598   -7199.4391   -17022.594    1943.5143    76.897122 
   37700    555.75264   -161.21092   0.50285667   -160.70807    22182.669     4.244246     4.244246     4.244246    22182.669   -34655.626    44856.621    56347.012   -1612.3279   -7148.1002   -10633.121    76.454253 
   37800     543.2933   -161.20701   0.49158319   -160.71543    17351.352    4.2476556    4.2476556    4.2476556    17351.352   -25503.302    48517.235    29040.123    5863.9437   -3896.4555   -13236.391    76.638655 
   37900    857.79005   -161.48848   0.77614646   -160.71234    -7724.031    4.2544826    4.2544826    4.2544826    -7724.031   -41397.646    13394.868    4830.6853   -4337.5606   -10524.515   -1050.4291    77.008781 
   38000    1101.8217   -161.69656   0.99695146    -160.6996   -26329.268    4.2500171    4.2500171    4.2500171   -26329.268   -42191.597   -12322.987   -24473.219   -7909.7219   -1232.1449    9384.0545    76.766551 
   38100     923.2138   -161.53405   0.83534325   -160.69871   -23580.774    4.2507822    4.2507822    4.2507822   -23580.774   -16496.739   -23432.989   -30812.594   -4193.5081    7870.0165    14427.785     76.80802 
   38200    894.29285   -161.51281   0.80917497   -160.70363    2833.3346    4.2467727    4.2467727    4.2467727    2833.3346    18470.067   -2063.6735   -7906.3893    2738.5303    10726.547     4034.923    76.590876 
   38300    704.94497   -161.34777   0.63784902   -160.70992    25967.851    4.2444451    4.2444451    4.2444451    25967.851    31050.991     22743.31    24109.251    7619.8881    15095.465   -6185.4609    76.465015 
   38400    642.34932   -161.29053   0.58121117   -160.70932    5360.6832    4.2524759    4.2524759    4.2524759    5360.6832   -4182.7815    8069.0713     12195.76   -1500.2739     14646.96   -1179.8098    76.899868 
   38500    914.74641   -161.53035   0.82768178   -160.70267   -20471.671    4.2508431    4.2508431    4.2508431   -20471.671   -31366.803   -6971.5304    -23076.68   -10775.397    6517.7131    2705.8944    76.811321 
   38600    1096.0731   -161.69416      0.99175   -160.70241   -19124.169    4.2460455    4.2460455    4.2460455   -19124.169   -38367.146   -4648.5069   -14356.854   -8298.5559    15188.108   -402.49973    76.551539 
   38700    746.95852   -161.38365   0.67586377   -160.70778   -9814.4582    4.2500356    4.2500356    4.2500356   -9814.4582   -5365.1236   -8925.1981   -15153.053    -5283.726    16727.664    1625.6842    76.767551 
   38800    460.53598    -161.1242   0.41670263   -160.70749    14457.987    4.2450665    4.2450665    4.2450665    14457.987    32240.849    24029.811   -12896.699    6346.2899    18181.296   -11267.396      76.4986 
   38900    583.35957   -161.24063     0.527836   -160.71279    26161.801    4.2407325    4.2407325    4.2407325    26161.801     21775.47    26569.286    30140.646    7919.8641    16354.076   -9627.4643    76.264537 
   39000    997.14221   -161.61483   0.90223523    -160.7126    -9000.978    4.2467639    4.2467639    4.2467639    -9000.978   -29461.538   -5719.4339    8178.0384   -1893.5468    8550.0625    5834.4162    76.590401 
   39100    940.97562   -161.55748   0.85141451   -160.70606   -23295.545    4.2441895    4.2441895    4.2441895   -23295.545   -38059.777   -13879.082   -17947.776   -7803.7457   -2987.8754    6170.5325    76.451198 
   39200     804.1125   -161.43196   0.72757789   -160.70438   -11456.377    4.2493683    4.2493683    4.2493683   -11456.377   -25609.278    6421.7852   -15181.638    2362.5464   -9475.8147    -4245.361      76.7314 
   39300    865.17948    -161.4861   0.78283258   -160.70327      13251.7    4.2511929    4.2511929    4.2511929      13251.7    1589.9316    30549.424    7615.7455    11993.541   -4446.7117    -12151.56    76.830283 
   39400    688.43403   -161.32289   0.62290958   -160.69998    12645.505     4.247811     4.247811     4.247811    12645.505   -1785.5023    32597.897    7124.1201    11028.158    -3833.575   -15230.282     76.64707 
   39500    781.93639   -161.40927   0.70751247   -160.70175   -10570.751    4.2423838    4.2423838    4.2423838   -10570.751   -9097.4095    6738.7261    -29353.57    4644.9991   -6881.3793   -5677.4987    76.353659 
   39600    1154.6039   -161.74898    1.0447099   -160.70427   -24913.369    4.2447215    4.2447215    4.2447215   -24913.369    -24224.27   -24272.787   -26243.049   -2124.0372   -12185.427    5448.6495    76.479954 
   39700    932.25323   -161.54962   0.84352232   -160.70609    1157.4354    4.2488698    4.2488698    4.2488698    1157.4354   -885.88716   -3462.4912    7820.6846    7670.0445   -4107.3483   -255.23407    76.704397 
   39800    473.62006   -161.13475   0.42854139   -160.70621    14308.903    4.2516045    4.2516045    4.2516045    14308.903    19521.749    15708.781    7696.1797    20278.113    7380.4562   -8497.5843    76.852603 
   39900    662.26819   -161.30702   0.59923417   -160.70779    1526.6804    4.2519185    4.2519185    4.2519185    1526.6804   -4501.7034    6613.5618    2468.1828    15244.967     11092.55   -2113.8713    76.869631 
   40000    1078.3221   -161.68195   0.97568847   -160.70626   -18881.543    4.2462722    4.2462722    4.2462722   -18881.543   -10025.828   -20600.312   -26018.487    7080.9282    8363.5995     7978.322    76.563801 
   40100    993.50452   -161.60251   0.89894377   -160.70356   -19290.343    4.2445362    4.2445362    4.2445362   -19290.343   -13625.238   -9064.1307   -35181.661   -3352.4238    7695.5252    9252.6065    76.469938 
   40200    708.76589   -161.34887   0.64130627   -160.70757   -5260.8346     4.248202     4.248202     4.248202   -5260.8346   -18823.179    23977.075   -20936.399   -11947.271    329.40828    4379.6798     76.66824 
   40300    620.46777   -161.27437   0.56141227   -160.71296    23269.665    4.2494488    4.2494488    4.2494488    23269.665    8877.6295    38739.782    22191.584   -1416.6185    6251.1885   -4999.4503    76.735761 
   40400    627.18431   -161.27815   0.56748955   -160.71066    22156.473    4.2526075    4.2526075    4.2526075    22156.473    9729.4766    39199.361    17540.581    1319.0808    12594.442   -11016.613    76.907008 
   40500    656.02011   -161.29748   0.59358078    -160.7039     7282.253    4.2455914    4.2455914    4.2455914     7282.253   -13852.111    35038.107    660.76335   -5020.5382    924.79654   -257.34996    76.526984 
   40600    778.13241   -161.40916   0.70407055   -160.70509   -6968.6933    4.2424293    4.2424293    4.2424293   -6968.6933   -22218.006    34072.828   -32760.902   -6442.8689     491.3654    7525.1003    76.356116 
   40700    1033.3873   -161.64577   0.93503057   -160.71074   -18334.858    4.2445722    4.2445722    4.2445722   -18334.858   -12221.952   -13541.876   -29240.746   -7406.5646   -3588.0257     15748.18    76.471882 
   40800    912.03513   -161.53559   0.82522855   -160.71036   -19133.854    4.2472471    4.2472471    4.2472471   -19133.854   -426.76636   -39974.381   -17000.415   -1262.3437    -1113.443    11014.997    76.616548 
   40900    440.78364   -161.10774    0.3988303   -160.70891    3743.2312    4.2490848    4.2490848    4.2490848    3743.2312     18896.31    1485.8586   -9152.4756    1661.8494    2993.9184   -8496.4146    76.716045 
   41000    499.43568   -161.16067    0.4518999   -160.70877    18007.066    4.2481067    4.2481067    4.2481067    18007.066    22027.613    30361.203    1632.3807   -1942.4784   -2543.2317   -15585.822    76.663078 
   41100    854.05929   -161.48284   0.77277079   -160.71007    17513.195    4.2373317    4.2373317    4.2373317    17513.195    10340.239    37736.187    4463.1592    5655.5102    3637.0583   -13771.681    76.081207 
   41200    714.41986   -161.35985    0.6464221   -160.71343    5328.4968     4.236663     4.236663     4.236663    5328.4968    6461.7939    19730.488   -10206.791   -469.49532   -5674.1914   -474.63524    76.045194 
   41300    931.29245   -161.55328   0.84265298   -160.71063   -31474.596    4.2533861    4.2533861    4.2533861   -31474.596   -15139.711   -22047.744   -57236.334   -2915.5467   -5013.1286    5115.9244    76.949256 
   41400     1292.901   -161.87526     1.169844   -160.70541   -29935.258    4.2554429    4.2554429    4.2554429   -29935.258   -26800.416   -39562.537   -23442.821    2615.2751    6779.7611    5487.3914    77.060938 
   41500    1140.6852   -161.73683     1.032116   -160.70472   -17287.958    4.2496034    4.2496034    4.2496034   -17287.958   -31174.045   -23503.952    2814.1244    1717.3417   -6273.1189    566.67378    76.744138 
   41600    701.27147   -161.34375   0.63452516   -160.70923    3825.9905    4.2441003    4.2441003    4.2441003    3825.9905   -19899.051    19005.407    12371.616    4274.7786    9186.7112   -8846.9496    76.446378 
   41700    806.33648   -161.44334   0.72959019   -160.71375    13123.079    4.2444208    4.2444208    4.2444208    13123.079    814.72029    21751.566    16802.951   -165.09954    -912.0404    -11557.93    76.463698 
   41800    823.77185   -161.46155   0.74536608   -160.71618    8169.5413    4.2557964    4.2557964    4.2557964    8169.5413     5192.829   -21199.679    40515.474   -6449.5805   -880.63057   -14817.089    77.080144 
   41900    666.82471   -161.31416   0.60335701   -160.71081   -312.42432    4.2564181    4.2564181    4.2564181   -312.42432   -4973.2015   -27256.959    31292.888   -4932.2085   -1480.4797   -6088.5228    77.113931 
   42000    798.45778   -161.43197   0.72246138   -160.70951   -16015.361    4.2510923    4.2510923    4.2510923   -16015.361   -5712.3744    -30422.92    -11910.79   -3433.3922   -8329.7728    5692.2877    76.824827 
   42100    1017.8996   -161.63417   0.92101696   -160.71315    -20356.16     4.248822     4.248822     4.248822    -20356.16   -1681.0258   -32020.341   -27367.112    3412.7724   -1183.5314    8781.0439    76.701812 
   42200    1027.9594   -161.64385   0.93011928   -160.71373   -15173.347    4.2461685    4.2461685    4.2461685   -15173.347   -9196.4579   -36978.061    654.47842    11362.332    2387.8964     12211.06    76.558194 
   42300    607.01119   -161.26461   0.54923648   -160.71537    4014.7531    4.2488588    4.2488588    4.2488588    4014.7531    1306.5491   -22301.066    33038.776    11193.514     2157.889    4660.6739    76.703802 
   42400     575.3258   -161.23756   0.52056688   -160.71699    13487.696    4.2555145    4.2555145    4.2555145    13487.696   -7861.6389    -14470.31    62795.036    10971.857     6088.895   -7499.0374    77.064832 
   42500    810.13291   -161.44627   0.73302528   -160.71324    11371.551    4.2512016    4.2512016    4.2512016    11371.551   -22976.089   -6389.9787    63480.721    3213.2448   -8003.1167   -1239.5718    76.830753 
   42600    699.22431   -161.34205   0.63267285   -160.70937    8018.1403    4.2438611    4.2438611    4.2438611    8018.1403   -12012.524   -1004.4704    37071.415   -4133.5089   -6721.0519   -6069.6257    76.433455 
   42700    920.49477   -161.53989   0.83288301   -160.70701   -12373.534     4.242373     4.242373     4.242373   -12373.534   -13341.318   -16782.429    -6996.854     787.0263    412.18645    827.00885    76.353076 
   42800    1309.3838   -161.89054     1.184758   -160.70578   -20689.105    4.2461213    4.2461213    4.2461213   -20689.105   -15784.999   -27311.631   -18970.685    1780.6064   -2827.5581    12189.832    76.555638 
   42900    1093.4141   -161.69686   0.98934404   -160.70752    -14190.21    4.2527855    4.2527855    4.2527855    -14190.21   -37837.512    8150.0429   -12883.159    1920.2686     9485.578    429.24825    76.916662 
   43000     647.2356   -161.29784   0.58563238   -160.71221    764.80024    4.2541169    4.2541169    4.2541169    764.80024   -40206.531    26505.723    15995.209     -817.703     877.0991   -8640.4943    76.988926 
   43100    596.18534   -161.25386   0.53944102   -160.71442    13153.829    4.2525797    4.2525797    4.2525797    13153.829   -26302.204    31417.796    34345.895   -8357.0025   -1525.6261   -18745.884    76.905496 
   43200     572.7138   -161.23079   0.51820348   -160.71258    17636.812    4.2466568    4.2466568    4.2466568    17636.812   -19679.444    34318.201    38271.679   -8518.9056   -3876.0453   -33917.202    76.584608 
   43300    607.67397   -161.25804   0.54983618    -160.7082    12039.129    4.2416187    4.2416187    4.2416187    12039.129   -12560.536    28440.704    20237.218    2874.3912    806.10206   -15602.982    76.312359 
   43400    812.84967    -161.4433   0.73548346   -160.70782   -14750.565     4.256257     4.256257     4.256257   -14750.565   -13813.222   -11677.088   -18761.384    3340.9422    6260.0025   -3440.2536    77.105178 
   43500    975.99737   -161.58718   0.88310293   -160.70408   -9332.2907    4.2545066    4.2545066    4.2545066   -9332.2907   -12182.222   -7597.0937   -8217.5564     -5830.44   -6250.7757   -5839.8053    77.010084 
   43600    752.92596   -161.38271   0.68126323   -160.70145   -260.63034    4.2458365    4.2458365    4.2458365   -260.63034   -7034.5468    20582.964   -14330.308   -6328.1971    -8852.091   -4759.7128    76.540236 
   43700    440.02268   -161.10461   0.39814177   -160.70647    3293.8283    4.2471836    4.2471836    4.2471836    3293.8283   -3357.6232    27061.171   -13822.062   -167.23792   -6260.3871   -21539.327    76.613115 
   43800    661.78902   -161.30604   0.59880061   -160.70724    8773.5241    4.2457457    4.2457457    4.2457457    8773.5241     -2074.74    20998.737    7396.5756    6786.7863   -9779.5704   -26435.689    76.535328 
   43900    808.77636   -161.43766   0.73179784   -160.70586    1189.5631    4.2497602    4.2497602    4.2497602    1189.5631   -13852.094    19661.464   -2240.6805    4277.7078    5018.6305   -5049.2002    76.752634 
   44000    936.87378   -161.55022   0.84770308   -160.70251   -13669.209     4.248215     4.248215     4.248215   -13669.209    -1839.208    -2745.354   -36423.065     7504.757    841.70866    3734.1295     76.66894 
   44100    1064.4994   -161.66433   0.96318145   -160.70115    70.934544    4.2412463    4.2412463    4.2412463    70.934544    29525.758   -2174.1957   -27138.759    3058.1634   -3784.5969    7911.6755    76.292261 
   44200    966.32264   -161.58181   0.87434903   -160.70746    8643.1759    4.2487334    4.2487334    4.2487334    8643.1759    34289.725    -19851.38    11491.182   -6663.3713    -4636.575    5222.2019    76.697011 
   44300    744.13575    -161.3795   0.67330967   -160.70619    9351.7976    4.2468007    4.2468007    4.2468007    9351.7976    9897.7499   -6792.3113    24949.954   -9446.6917   -9099.6404   -6449.4486    76.592391 
   44400    819.43533   -161.44488   0.74144231   -160.70344    -3307.932     4.245465     4.245465     4.245465    -3307.932    5506.9862   -10894.441    -4536.341   -6166.1122    526.56153    2990.7938    76.520147 
   44500     1267.738   -161.84893     1.147076   -160.70185   -32983.468    4.2534139    4.2534139    4.2534139   -32983.468   -28688.868   -37258.386    -33003.15   -2887.3382    6978.9208    10235.997    76.950766 
   44600    988.63645   -161.59505   0.89453904   -160.70051   -17057.142    4.2451541    4.2451541    4.2451541   -17057.142   -10419.723   -25410.004     -15341.7    -474.8664    10579.378   -3983.6743    76.503337 
   44700     576.1504   -161.22575   0.52131299   -160.70444    9295.2216    4.2387525    4.2387525    4.2387525    9295.2216    17514.154    18157.043   -7785.5318     -12130.6    4557.3014   -20214.638    76.157763 
   44800    601.05498   -161.25422   0.54384718   -160.71038    9917.3093    4.2494835    4.2494835    4.2494835    9917.3093    13341.891    37370.575   -20960.539   -6187.2607    2711.2887   -15358.224     76.73764 
   44900    867.38372   -161.49444   0.78482702   -160.70961    9829.8244    4.2432297    4.2432297    4.2432297    9829.8244    7598.7485    28014.018   -6123.2929   -3941.3459    4568.0414   -8572.4642    76.399346 
   45000    775.79724   -161.40921   0.70195764   -160.70726   -6100.3681    4.2427224    4.2427224    4.2427224   -6100.3681    -19233.77   -1084.6809    2017.3464   -4110.2971    5721.0443   -2809.1644    76.371943 
   45100    687.55004   -161.32803   0.62210972   -160.70592    -15175.38    4.2492237    4.2492237    4.2492237    -15175.38   -8102.0225    6691.2833     -44115.4    2696.2781    3632.5359   -8881.3418    76.723566 
   45200    600.22682   -161.25255   0.54309784   -160.70945    12146.663    4.2430246    4.2430246    4.2430246    12146.663    20578.022    24456.311   -8594.3441   -7616.4375   -3175.8806   -15324.496    76.388267 
   45300    533.02614   -161.19589   0.48229325    -160.7136     5663.236     4.244812     4.244812     4.244812     5663.236     555.5515    11718.083    4716.0731   -6116.6242   -6660.0428   -22720.169    76.484846 
   45400    503.68626   -161.16678   0.45574591   -160.71104   -5416.2767    4.2417939    4.2417939    4.2417939   -5416.2767   -23652.907    8246.8249   -842.74808    932.82002   -7533.5381   -4373.2947    76.321816 
   45500    777.21995   -161.41449   0.70324495   -160.71124   -5554.2174    4.2456764    4.2456764    4.2456764   -5554.2174   -19256.398    30015.652   -27421.906   -435.74805   -434.72378    3067.6086     76.53158 
   45600    1054.1103   -161.66463   0.95378115   -160.71085   -9407.0986    4.2500701    4.2500701    4.2500701   -9407.0986   -5793.1639    15512.766   -37940.898     8483.112    5663.5459    9815.1841    76.769422 
   45700    895.86031    -161.5185   0.81059323   -160.70791    2146.9021    4.2404872    4.2404872    4.2404872    2146.9021     21651.43    -4335.681   -10875.042    11311.079   -528.43143    18548.788    76.251301 
   45800     690.5395   -161.33623   0.62481465   -160.71141     2994.723    4.2427416    4.2427416    4.2427416     2994.723    42685.286   -30058.479   -3642.6379    3694.9219   -4125.7366    13647.862     76.37298 
   45900    862.67655   -161.49378   0.78056787   -160.71321   -3072.0481    4.2474516    4.2474516    4.2474516   -3072.0481    52396.617   -46281.967   -15330.794    4671.8422   -4330.2291    14116.007    76.627616 
   46000    845.08259   -161.47651   0.76464849   -160.71186     6391.395    4.2436506    4.2436506    4.2436506     6391.395    54070.482   -29110.804   -5785.4931    -8168.698   -6997.4927      9265.73     76.42208 
   46100    596.12919   -161.24872   0.53939022   -160.70933    161.83412    4.2475344    4.2475344    4.2475344    161.83412    42238.187    -9079.564    -32673.12   -6948.9444   -1457.8965   -4363.7438    76.632095 
   46200    755.37923   -161.39249     0.683483   -160.70901    6873.7627    4.2436342    4.2436342    4.2436342    6873.7627    43298.845   -6442.2906   -16235.266   -5119.1504     2914.243   -523.71954    76.421192 
   46300    1063.7329   -161.67277   0.96248787   -160.71028     2245.121    4.2429738    4.2429738    4.2429738     2245.121    20528.486   -26237.878    12444.755   -1262.1016    12848.148     -1036.91    76.385524 
   46400      813.498   -161.44895   0.73607009   -160.71288   -6596.8804    4.2482561    4.2482561    4.2482561   -6596.8804   -24631.505     -6074.61    10915.474    3142.9109      7315.31   -3719.1097    76.671164 
   46500    610.46985   -161.26392   0.55236595   -160.71155    1937.0771    4.2454039    4.2454039    4.2454039    1937.0771   -35756.492    9725.3888    31842.335   -4941.7396    1429.0494   -9706.4675    76.516842 
   46600    720.55968   -161.36535   0.65197754   -160.71337    7568.4125    4.2497337    4.2497337    4.2497337    7568.4125   -20832.407   -24629.099    68166.743   -6785.1218   -5261.1148   -19402.131    76.751197 
   46700    585.79709   -161.24652   0.53004152   -160.71648    16500.065    4.2481815    4.2481815    4.2481815    16500.065     13789.76     -35882.7    71593.136   -2576.2559   -15901.751   -13549.394    76.667128 
   46800    437.12092   -161.11216   0.39551619   -160.71665    20938.568    4.2419369    4.2419369    4.2419369    20938.568    19634.325   -22864.999    66046.379    1720.5979   -10494.884   -8808.3896    76.329534 
   46900    683.90699   -161.33516   0.61881342   -160.71634    2016.0867    4.2489199    4.2489199    4.2489199    2016.0867   -19295.574   -9393.0365    34736.871    7956.5266   -10802.227   -776.34032    76.707109 
   47000    954.13007   -161.57452   0.86331694    -160.7112    -7186.062    4.2500321    4.2500321    4.2500321    -7186.062   -37541.933   -512.95089    16496.698   -2676.2624   -3356.4969    4432.1519    76.767364 
   47100    813.18239   -161.44407   0.73578451   -160.70829   -6407.3672    4.2476323    4.2476323    4.2476323   -6407.3672   -29967.006    13517.388   -2772.4834   -4016.5838   -3957.6176    4274.2759    76.637395 
   47200    681.85794    -161.3258    0.6169594   -160.70884   -4608.7623    4.2429851    4.2429851    4.2429851   -4608.7623    5136.4025    10787.531   -29750.221   -11583.573   -5378.6998    207.21304    76.386135 
   47300    754.22028   -161.39634   0.68243436   -160.71391    2190.7866    4.2443041    4.2443041    4.2443041    2190.7866    24038.706   -6181.9753    -11284.37   -7638.9552   -15700.333   -4198.5144    76.457394 
   47400    634.28805   -161.29065   0.57391715   -160.71674    10539.325    4.2492046    4.2492046    4.2492046    10539.325     31836.54   -27779.264    27560.699    5016.9534   -20202.539    3449.8057    76.722533 
   47500     481.2939    -161.1505   0.43548483   -160.71502    11321.535      4.24839      4.24839      4.24839    11321.535     43528.78   -25027.435    15463.259   -1105.3161   -21003.272    6866.0456    76.678417 
   47600    465.27985   -161.13934   0.42099499   -160.71835    19562.214    4.2478356    4.2478356    4.2478356    19562.214    77460.443   -10709.068   -8064.7321    6892.5157   -14924.129    4619.0627    76.648399 
   47700    863.12309   -161.49866   0.78097191   -160.71769    12039.419    4.2440355    4.2440355    4.2440355    12039.419    50356.868    -24902.26    10663.648    1598.0554    -2948.323    3658.0901    76.442875 
   47800    945.30334   -161.56697   0.85533032   -160.71164   -4909.1319    4.2413819    4.2413819    4.2413819   -4909.1319    14746.924   -19780.116   -9694.2034   -6220.5659    4645.5447   -598.77776     76.29958 
   47900    915.39058   -161.54002   0.82826463   -160.71176   -15139.852    4.2490124    4.2490124    4.2490124   -15139.852   -11883.227   -5408.2586   -28128.071   -2454.0477    14266.609    2123.8093    76.712123 
   48000    1140.2352   -161.74281    1.0317088    -160.7111   -13764.205    4.2496674    4.2496674    4.2496674   -13764.205   -20129.316   -16315.121    -4848.178   -1455.0768    14324.295    2592.3476    76.747606 
   48100    1221.1126   -161.81181    1.1048884   -160.70692   -11115.816    4.2432148    4.2432148    4.2432148   -11115.816    -19952.63    -38179.12    24784.302    2933.0958    9096.0589    2340.9425    76.398541 
   48200    871.00686   -161.49688   0.78810531   -160.70877   -8986.8399    4.2486703    4.2486703    4.2486703   -8986.8399   -22956.113   -31217.379    27212.972    1743.9071    4096.4774    1857.3845    76.693594 
   48300    849.10695   -161.47911   0.76828981   -160.71082    2493.8142    4.2504227    4.2504227    4.2504227    2493.8142   -21880.145   -29310.054    58671.642   -5996.1761   -2696.0071   -3042.5039    76.788534 
   48400    819.31766   -161.45971   0.74133583   -160.71837    18913.105    4.2483087    4.2483087    4.2483087    18913.105    6563.4374   -45947.077    96122.955   -1825.9606   -11259.298    948.38767    76.674013 
   48500    476.97278   -161.15554     0.431575   -160.72396    22840.492     4.250708     4.250708     4.250708    22840.492    6093.4205   -36563.242    98991.298    3380.8394   -16237.575    6212.9765    76.803998 
   48600    538.81969   -161.21003   0.48753538    -160.7225    19762.252    4.2467245    4.2467245    4.2467245    19762.252   -4987.8858   -21765.173    86039.816   -4391.4554   -10705.724    1860.1206     76.58827 
   48700    969.27276   -161.59722   0.87701836    -160.7202    -2604.541    4.2522139    4.2522139    4.2522139    -2604.541   -17638.442   -43770.957    53595.776   -4378.8154   -7749.3095   -2801.9062    76.885655 
   48800    986.47052   -161.61059   0.89257926   -160.71801    -16978.78    4.2550462    4.2550462    4.2550462    -16978.78    -32256.76   -28257.848     9578.268    -2990.006   -1269.8016   -5219.9954     77.03939 
   48900    941.22942    -161.5645   0.85164416   -160.71285   -27714.071    4.2482618    4.2482618    4.2482618   -27714.071   -39991.066   -13767.986    -29383.16    5524.6552   -1530.1684   -5722.3367    76.671477 
   49000    1006.1117   -161.62403   0.91035102   -160.71368     -30052.3    4.2473916    4.2473916    4.2473916     -30052.3   -27790.736   -22122.024    -40244.14    10146.432    -1728.875    1264.5867    76.624369 
   49100    976.10089   -161.60237   0.88319659   -160.71918   -11543.729    4.2477563    4.2477563    4.2477563   -11543.729   -22506.057   -17903.585    5778.4547     2368.009    374.16481   -4267.0252    76.644111 
   49200    678.59582   -161.33655   0.61400776   -160.72254    -5048.451    4.2509648    4.2509648    4.2509648    -5048.451   -25021.451   -17987.972     27864.07    2219.5719   -7293.4636    -4430.385    76.817917 
   49300    534.98833   -161.20511   0.48406869   -160.72104   -3218.5486    4.2484451    4.2484451    4.2484451   -3218.5486   -12569.999   -17243.529    20157.882   -6637.7504   -18357.509    4632.9362      76.6814 
   49400    582.88398    -161.2473   0.52740568    -160.7199    18558.856     4.239724     4.239724     4.239724    18558.856    16016.261   -1328.9336    40989.241   -2500.8091   -27107.744    5412.5964    76.210137 
   49500    611.31453   -161.27388   0.55313023   -160.72075    16111.466    4.2440312    4.2440312    4.2440312    16111.466    7785.7798   -5281.9005     45830.52    3572.8987   -37369.244    3865.8711    76.442647 
   49600    450.05666    -161.1259   0.40722072   -160.71868     4258.807    4.2479468    4.2479468    4.2479468     4258.807   -2546.8309    -6509.757    21833.009    -4486.516   -28291.452    4429.0069    76.654419 
   49700    696.72311    -161.3453   0.63040971   -160.71489   -9104.4515     4.247607     4.247607     4.247607   -9104.4515    6309.9688   -12268.989   -21354.334    4978.2998   -13063.693    855.76397    76.636026 
   49800    1029.0866   -161.64471   0.93113918   -160.71357    -2114.174    4.2408435    4.2408435    4.2408435    -2114.174    11372.464   -10610.728   -7104.2577    383.28024   -5606.7834    1342.3779    76.270527 
   49900    1018.8357   -161.63641   0.92186393   -160.71455   -5170.8626    4.2393568    4.2393568    4.2393568   -5170.8626   -22776.867    3062.9556    4201.3234    1567.8356   -2079.6308    1698.5326     76.19034 
   50000     841.5242    -161.4781   0.76142878   -160.71667   -20813.372    4.2472879    4.2472879    4.2472879   -20813.372   -48781.117    10693.296   -24352.295    2334.8843   -5269.0227    1338.0213    76.618755 
   50100    947.97397    -161.5731   0.85774677   -160.71535    -17094.21    4.2501618    4.2501618    4.2501618    -17094.21   -26335.584   -8428.3486   -16518.697   -707.03429   -9696.8073    8375.6699    76.774392 
   50200    963.37216   -161.58431   0.87167937   -160.71263    -3164.076    4.2491363    4.2491363    4.2491363    -3164.076     7103.333   -33601.302    17005.741   -422.08984   -5807.2245     7724.499    76.718834 
   50300    708.13807   -161.35142    0.6407382   -160.71068     13284.38    4.2412065    4.2412065    4.2412065     13284.38    16165.358   -18024.849    41712.631    -7403.893   -13643.238    2405.9238    76.290114 
   50400    646.28927   -161.29794   0.58477611   -160.71317    12167.812    4.2426309    4.2426309    4.2426309    12167.812    12952.874   -8624.9693    32175.531   -5831.8348   -9942.8913    2515.1664    76.367006 
   50500    1051.4178   -161.66472   0.95134493   -160.71338   -5945.8289    4.2505144    4.2505144    4.2505144   -5945.8289   -2646.7701   -12217.026   -2973.6911    1249.0968    1787.6516    -6371.864      76.7935 
   50600      1048.62   -161.65775   0.94881339   -160.70893      -9563.5     4.247919     4.247919     4.247919      -9563.5   -9542.6312   -6475.5572   -12672.312   -850.25129   -2142.0112   -3937.6996    76.652917 
   50700    813.60865   -161.44244    0.7361702   -160.70627   -13005.002     4.244601     4.244601     4.244601   -13005.002   -23057.694    4259.5498   -20216.863    5744.6659    6768.7694   -14148.756    76.473438 
   50800    760.51236   -161.39681   0.68812757   -160.70868   -9299.9585    4.2452269    4.2452269    4.2452269   -9299.9585   -11670.883   -12636.957   -3592.0356    3627.0758    1555.2723   -25335.156     76.50727 
   50900    699.51176   -161.34563   0.63293294    -160.7127     8645.078    4.2384898    4.2384898    4.2384898     8645.078    19207.642   -14127.865    20855.457   -4594.2676     -4659.25   -29714.701    76.143606 
   51000    615.05479   -161.27191    0.5565145    -160.7154    9884.3724    4.2391018    4.2391018    4.2391018    9884.3724    11080.251    757.31009    17815.556   -6056.8183   -4595.8631   -28735.528    76.176591 
   51100    517.70791   -161.18162     0.468433   -160.71318   -4573.7499    4.2531944    4.2531944    4.2531944   -4573.7499   -24300.369    12080.809   -1501.6901   -2654.8991   -2298.6779   -14829.881    76.938849 
   51200     917.0595   -161.53982   0.82977471   -160.71005   -2316.9011    4.2457425    4.2457425    4.2457425   -2316.9011   -23416.481    2204.2894    14261.489    8275.0077    6628.5731   -5091.6109    76.535155 
   51300    1196.8742   -161.78961     1.082957   -160.70665    1508.7644    4.2357209    4.2357209    4.2357209    1508.7644    829.82516   -385.40562    4081.8735   -717.02135    5028.6571    2262.7665    75.994472 
   51400    854.33782    -161.4814   0.77302282   -160.70837   -7115.4742    4.2399978    4.2399978    4.2399978   -7115.4742    3057.2317    2846.9265   -27250.581   -2938.2467    1812.6972    5649.5023    76.224904 
   51500    737.59893   -161.37953   0.66739501   -160.71214    1389.4943    4.2397993    4.2397993    4.2397993    1389.4943    16445.217   -1501.1724   -10775.562   -8270.9285   -7630.9264    3751.2972    76.214201 
   51600    1016.5348   -161.63531   0.91978204   -160.71553    1645.1326     4.247659     4.247659     4.247659    1645.1326    25150.595   -18556.893   -1658.3043   -15254.571   -11516.428    6298.9799    76.638841 
   51700    1004.6594    -161.6218   0.90903693   -160.71277    1498.8126     4.248347     4.248347     4.248347    1498.8126    9746.0172   -14281.872    9032.2929    1331.4154   -3571.0824    4574.8321    76.676089 
   51800    943.26653   -161.55944   0.85348738   -160.70595   -16244.021    4.2437342    4.2437342    4.2437342   -16244.021   -22324.121   -3683.5301    -22724.41   -710.62868    3249.9158    333.06603    76.426597 
   51900    1066.8975   -161.67129   0.96535132   -160.70594   -23415.652    4.2408037    4.2408037    4.2408037   -23415.652   -25505.493   -21434.021   -23307.443   -2644.4954     7009.173   -526.02127    76.268377 
   52000    1077.1439   -161.68697   0.97462245   -160.71235    2428.5849    4.2358303    4.2358303    4.2358303    2428.5849    9302.1304   -6328.7565    4312.3807    333.81942    3664.4136   -10350.409    76.000363 
   52100    715.23474    -161.3655   0.64715942   -160.71834    13299.736     4.242961     4.242961     4.242961    13299.736    7832.8937    27377.102    4689.2119   -5757.1194     -1399.65   -17168.839    76.384831 
   52200    425.92523   -161.10052   0.38538609   -160.71513    3101.9427    4.2502467    4.2502467    4.2502467    3101.9427    712.57946    8724.1652   -130.91669    718.16063   -4706.5188   -22622.145    76.778995 
   52300    515.27356   -161.18073   0.46623035    -160.7145    12942.077    4.2396587    4.2396587    4.2396587    12942.077     22480.73   -9623.7856    25969.286   -2856.4439   -12147.733    -32597.28    76.206617 
   52400    778.06691   -161.42044   0.70401129   -160.71643     4941.586     4.233475     4.233475     4.233475     4941.586    37052.147     -22647.9    420.51076    2032.7759    2388.4587   -33155.839    75.873653 
   52500    695.20559   -161.34383   0.62903663   -160.71479   -20556.299    4.2423181    4.2423181    4.2423181   -20556.299    11743.315   -23855.209   -49557.002    5069.4069    3091.0675   -24312.433    76.350114 
   52600    696.89253    -161.3453   0.63056301   -160.71474   -13569.531    4.2444652    4.2444652    4.2444652   -13569.531   -12392.327    -84.52052   -28231.744    405.47884    4580.1645   -11248.582    76.466098 
   52700    939.69855   -161.56588   0.85025899   -160.71562   -7420.5652    4.2508494    4.2508494    4.2508494   -7420.5652    -25822.29    8825.2274   -5264.6326    3249.3617    19181.253   -3690.0807    76.811661 
   52800    1007.5099   -161.62413   0.91161612   -160.71251    3837.3515    4.2427945    4.2427945    4.2427945    3837.3515   -1756.7564    17713.051   -4444.2402   -7739.3626    1302.3173   -3642.4931     76.37584 
   52900    871.08701   -161.49886   0.78817783   -160.71068    3252.4564    4.2342664    4.2342664    4.2342664    3252.4564    7681.0456    13124.191   -11047.867   -5394.7586    2100.7675    4575.6334    75.916212 
   53000    850.57124   -161.48342   0.76961474   -160.71381   -10834.544    4.2441455    4.2441455    4.2441455   -10834.544    7551.3938   -27511.929   -12543.096    2029.6443    73.007647    4204.4291    76.448822 
   53100    1024.5958   -161.64058    0.9270758    -160.7135    2378.0175    4.2442221    4.2442221    4.2442221    2378.0175    50152.963   -34194.025   -8824.8856    4817.8895   -6491.7232    5511.7041    76.452958 
   53200    808.99464   -161.44675   0.73199535   -160.71475    2966.4007    4.2480209    4.2480209    4.2480209    2966.4007    56959.565   -17833.565   -30226.798    16857.617    12569.194    7200.0548    76.658431 
   53300    438.49881   -161.10897   0.39676293   -160.71221    2280.7685    4.2484653    4.2484653    4.2484653    2280.7685    40013.385   -589.80112   -32581.278    13197.342   -1758.3293   -3289.2243    76.682494 
   53400    702.21045   -161.34663   0.63537477   -160.71125    13754.242    4.2371386    4.2371386    4.2371386    13754.242    67725.862   -14258.694   -12204.442    10213.206   -837.72487   -5912.4311    76.070805 
   53500    847.80788   -161.48502   0.76711438    -160.7179    13843.912    4.2416894    4.2416894    4.2416894    13843.912    76394.008   -36567.854    1705.5836    2805.7808   -3563.9831   -6510.3497    76.316176 
   53600    664.04646   -161.31915   0.60084319    -160.7183   -2571.1814    4.2515403    4.2515403    4.2515403   -2571.1814    26262.363   -31447.579    -2528.328   -4115.5863   -5610.4621   -4397.8083     76.84912 
   53700    716.75674   -161.36303   0.64853656   -160.71449   -4161.4419     4.250039     4.250039     4.250039   -4161.4419   -5280.4844   -11496.078    4292.2364   -1628.7908    4405.0809   -3111.0737     76.76774 
   53800    1116.3934    -161.7233    1.0101362   -160.71316   -15002.424    4.2495729    4.2495729    4.2495729   -15002.424   -14883.913   -12589.781   -17533.579   -3193.6522    -958.0103   -14797.348    76.742484 
   53900    1094.1833   -161.70219   0.99004005   -160.71215   -14714.928    4.2396442    4.2396442    4.2396442   -14714.928   -7129.6259    2005.4692   -39020.627   -1324.6137    3386.1781   -7189.3513    76.205835 
   54000    1020.6826   -161.63577   0.92353505   -160.71223   -16000.626    4.2360392    4.2360392    4.2360392   -16000.626   -24268.797    8812.0737   -32545.153    5251.8195    4404.8267   -2190.5229    76.011604 
   54100    1097.0379   -161.70857   0.99262294   -160.71595       -22160    4.2493466    4.2493466    4.2493466       -22160   -41532.698    12.634007   -24959.936    6047.0657   -3076.4127   -2535.2956    76.730222 
   54200    1160.1269   -161.76191    1.0497072    -160.7122   -17798.421    4.2524026    4.2524026    4.2524026   -17798.421   -25177.055   -2597.5562   -25620.651    9521.4479    3373.9679    7141.0212    76.895889 
   54300    710.74055   -161.35326   0.64309298   -160.71017   -7831.6875    4.2428651    4.2428651    4.2428651   -7831.6875    10417.013    -10968.97   -22943.105    13514.613   -5073.0368    2493.3618    76.379653 
   54400    480.93948   -161.14865   0.43516414   -160.71349    2247.0148    4.2352076    4.2352076    4.2352076    2247.0148    15484.312    84.110558   -8827.3784    4781.3936   -494.54595    10227.986    75.966847 
   54500    500.59373   -161.17402   0.45294773   -160.72108    20822.813    4.2390576    4.2390576    4.2390576    20822.813    31929.079    25333.553     5205.806   -2089.1167     1460.088    4463.1551    76.174206 
   54600    522.72919   -161.19583   0.47297635   -160.72285    17765.123    4.2488157    4.2488157    4.2488157    17765.123    40115.534    15557.971   -2378.1373   -8726.8662    5283.5724    2244.6534    76.701467 
   54700    417.35384   -161.09488   0.37763052   -160.71725    10979.578    4.2459572    4.2459572    4.2459572    10979.578    29893.005    13469.188   -10423.459   -18036.774    558.06405    9713.5617    76.546765 
   54800    571.55999   -161.23254   0.51715949   -160.71538    10934.844    4.2403867    4.2403867    4.2403867    10934.844    16231.514     21308.58   -4735.5615   -19250.961   -1665.2287    3433.8618     76.24588 
   54900    823.41054   -161.46427   0.74503916   -160.71923    5010.0317    4.2443543    4.2443543    4.2443543    5010.0317     24307.57    4633.7807   -13911.256   -17041.709   -1012.7356   -8.7528009    76.460105 
   55000    845.68181   -161.48549   0.76519067    -160.7203    3392.3927    4.2460769    4.2460769    4.2460769    3392.3927    32885.784   -3460.2894   -19248.317   -7409.6756   -7810.5346   -2539.9063    76.553239 
   55100    886.84424   -161.51966   0.80243531   -160.71722   -15956.454    4.2520578    4.2520578    4.2520578   -15956.454   -8496.7907   -14084.112   -25288.459    4282.0119    2099.8256   -3706.4806    76.877187 
   55200    1042.2889   -161.65334    0.9430849   -160.71026   -23015.364    4.2523127    4.2523127    4.2523127   -23015.364   -32203.892   -11857.003   -24985.197      6134.27   -393.99937    -4525.034    76.891015 
   55300    1057.2117   -161.66328   0.95658734    -160.7067   -8782.6158    4.2403984    4.2403984    4.2403984   -8782.6158   -2329.5408   -17392.478   -6625.8283    4343.0133   -606.12027    -16560.44    76.246512 
   55400    852.66083   -161.48473   0.77150544   -160.71322   -10834.724    4.2413797    4.2413797    4.2413797   -10834.724    95.610235   -8293.6511   -24306.132   -2219.0335    6890.7771   -18767.488    76.299461 
   55500    762.30401   -161.40456   0.68974869   -160.71481   -11440.938    4.2460136    4.2460136    4.2460136   -11440.938   -17910.429   -16805.909    393.52386   -5936.4131   -3697.9497    -20308.03    76.549813 
   55600    733.05599   -161.37697   0.66328446   -160.71368     6831.834    4.2432406    4.2432406    4.2432406     6831.834    16981.523   -25023.384    28537.363   -3599.7252   -1340.9411   -18232.118    76.399934 
   55700    691.35034   -161.34055   0.62554831     -160.715   -1895.8862    4.2517575    4.2517575    4.2517575   -1895.8862    34327.296   -34234.324   -5780.6312   -5710.4754   -9060.4261   -8081.8346    76.860897 
   55800    743.08269   -161.38638   0.67235684   -160.71402    3783.8302    4.2431045    4.2431045    4.2431045    3783.8302    35767.626   -10317.717   -14098.418    3105.5044   -6523.4571   -8561.8369    76.392579 
   55900    929.23306   -161.55115    0.8407896   -160.71036    8620.8371    4.2314729    4.2314729    4.2314729    8620.8371    26767.013    647.47828   -1551.9801    9260.5217    3525.6545    -4681.975    75.766056 
   56000    1034.0704   -161.64887   0.93564864   -160.71322   -14380.928    4.2426264    4.2426264    4.2426264   -14380.928   -4303.3383   -21483.055   -17356.391     6470.646   -3953.0403   -1253.6687     76.36676 
   56100    1098.6882   -161.70583   0.99411616   -160.71172   -21766.413    4.2488463    4.2488463    4.2488463   -21766.413   -31275.267   -19816.088   -14207.884    13045.192    3670.3156    5957.2317    76.703127 
   56200    1092.9897   -161.70146   0.98896002    -160.7125   -4718.5768    4.2432394    4.2432394    4.2432394   -4718.5768   -24953.192   -111.52337    10908.985    2341.7053   -6760.1146    6994.0784    76.399867 
   56300    958.75525   -161.57953    0.8675019   -160.71203    2700.7644    4.2386853    4.2386853    4.2386853    2700.7644    6838.1373   -7237.7143    8501.8701   -3567.9992   -11402.106    1256.3596    76.154143 
   56400    834.50703   -161.46724   0.75507949   -160.71216    10299.779    4.2348922    4.2348922    4.2348922    10299.779    41107.829   -5669.2236   -4539.2688    -689.6239   -11334.212    4516.0688    75.949876 
   56500    974.02202   -161.59657   0.88131559   -160.71525   -3229.7604    4.2468775    4.2468775    4.2468775   -3229.7604     17412.38   -13317.895   -13783.767   -6995.7378   -5573.1268   -130.30911    76.596548 
   56600     1065.095   -161.67429   0.96372037   -160.71057   -22599.604    4.2546126    4.2546126    4.2546126   -22599.604   -27545.014   -29757.295   -10496.503    6354.8978    4939.2945    971.68116    77.015842 
   56700    957.31291   -161.57439   0.86619684    -160.7082   -15801.008    4.2424839    4.2424839    4.2424839   -15801.008   -14802.307   -17753.192   -14847.523    3583.2399     5695.106   -8770.7216    76.359069 
   56800       656.34   -161.30751   0.59387023   -160.71364    -5840.765    4.2409804    4.2409804    4.2409804    -5840.765    8136.7801   -12054.605    -13604.47   -1450.4618    2890.2994   -21045.313    76.277911 
   56900    663.77835   -161.31738    0.6006006   -160.71678    12750.725    4.2395128    4.2395128    4.2395128    12750.725    15653.661    3782.1465    18816.368    2248.9704   -4821.3348   -25888.179     76.19875 
   57000    626.56658   -161.28426   0.56693061   -160.71733    20934.967    4.2419139    4.2419139    4.2419139    20934.967    4192.3422    12544.054    46068.503   -4863.6985   -6972.6147   -25914.955    76.328293 
   57100    596.92403   -161.25763   0.54010941   -160.71753    4982.1998    4.2496222    4.2496222    4.2496222    4982.1998   -12443.331    6321.7649    21068.166    9776.3946   -2547.3677   -18266.749    76.745155 
   57200    801.58962   -161.43945   0.72529513   -160.71416   -11195.392    4.2436064    4.2436064    4.2436064   -11195.392   -10060.551   -11750.144   -11775.481    14003.761    3064.3581   -14980.333    76.419694 
   57300    1010.5058   -161.62673   0.91432691   -160.71241   -13444.234    4.2366747    4.2366747    4.2366747   -13444.234   -10282.785    -15296.04   -14753.878    8408.3913    8738.1934   -9260.4046    76.045823 
   57400     930.8508   -161.55449   0.84225336   -160.71224    -12833.31     4.243536     4.243536     4.243536    -12833.31   -14360.843   -6395.5759   -17743.512     4757.362    7760.3755    -651.1127    76.415889 
   57500    809.07828   -161.44493   0.73207103   -160.71286    10018.609    4.2385816    4.2385816    4.2385816    10018.609    22206.797    22465.444   -14616.413   -9849.2545   -2178.3496   -7468.3992    76.148549 
   57600    741.99453   -161.38918   0.67137224   -160.71781    8267.4855    4.2448362    4.2448362    4.2448362    8267.4855    14324.595     27570.45   -17092.588   -9153.9099   -3252.1411   -861.33139    76.486152 
   57700    813.77288   -161.45035   0.73631881   -160.71403   -2050.6615    4.2488895    4.2488895    4.2488895   -2050.6615    -7863.265     21643.35   -19932.069   -2429.3102   -3975.9299    604.50937    76.705465 
   57800     862.5089    -161.4914   0.78041617   -160.71098    641.45616    4.2374369    4.2374369    4.2374369    641.45616   -10385.947    16718.193   -4407.8771   -6793.2974    420.98634   -8598.2893    76.086871 
   57900    748.42072   -161.39259    0.6771868   -160.71541   -10657.419    4.2426676    4.2426676    4.2426676   -10657.419   -13908.952    2950.4212   -21013.726   -1281.7928    2988.4435    11281.647    76.368988 
   58000     582.7821   -161.24396   0.52731349   -160.71665   -446.43982    4.2451559    4.2451559    4.2451559   -446.43982   -22206.968    13467.452    7400.1972   -3660.9574   -5364.3688    3777.2942    76.503436 
   58100    454.36051   -161.12716   0.41111494   -160.71605    15661.733    4.2404365    4.2404365    4.2404365    15661.733   -36797.058    36678.991    47103.265   -4341.9495   -9642.0211   -1489.2387    76.248565 
   58200    412.27123   -161.09111   0.37303167   -160.71808   -335.94525    4.2436319    4.2436319    4.2436319   -335.94525   -29871.313    9003.5083    19859.969    1405.3633   -10928.387    7949.6337    76.421069 
   58300    523.17705   -161.19039   0.47338159   -160.71701   -4297.3992    4.2352636    4.2352636    4.2352636   -4297.3992   -18132.194    1607.3702    3632.6264   -4258.1994   -9684.7907   -1522.3887    75.969864 
   58400    700.47657   -161.35167   0.63380592   -160.71787   -7147.5872    4.2418895    4.2418895    4.2418895   -7147.5872   -32257.067    15347.183   -4532.8782   -5998.1681    286.08107   -4617.2724    76.326973 
   58500    772.21476     -161.413   0.69871615   -160.71428    -14862.43    4.2557086    4.2557086    4.2557086    -14862.43   -50703.116    21091.571   -14975.744   -3052.9653    1665.8728    1486.0514    77.075376 
   58600    587.76806   -161.24592   0.53182489   -160.71409    13339.981    4.2437462    4.2437462    4.2437462    13339.981   -16188.918    50108.395    6100.4657    2646.8597   -4619.2198    5352.7377    76.427244 
   58700    418.21307   -161.09731   0.37840797   -160.71891    21341.859    4.2427588    4.2427588    4.2427588    21341.859    -19337.01    54998.502    28364.086    10709.222   -7852.7408    7542.6653    76.373912 
   58800     673.5238   -161.32416   0.60941849   -160.71474    3302.8334    4.2466605    4.2466605    4.2466605    3302.8334     -50680.2    39948.533    20640.167    2806.7444   -1779.7741    13399.291    76.584806 
   58900    859.17363   -161.48928   0.77739836   -160.71188    2214.1959    4.2440277    4.2440277    4.2440277    2214.1959   -31959.482    27070.659     11531.41   -2683.7653     4095.929    11470.144    76.442458 
   59000    836.99027    -161.4728   0.75732639   -160.71548   -5753.4058    4.2512691    4.2512691    4.2512691   -5753.4058   -16272.598    26094.582   -27082.202   -2453.2752    6217.2357   -780.61356    76.834417 
   59100    811.34194   -161.44836   0.73411924   -160.71424   -7659.7734    4.2501967    4.2501967    4.2501967   -7659.7734   -6580.2777    8253.3454   -24652.388   -6655.5863   -3548.7363   -4107.0744    76.776282 
   59200    808.46771   -161.44332   0.73151858    -160.7118    6721.0412    4.2355697    4.2355697    4.2355697    6721.0412    9050.9132   -17656.993    28769.204    4131.6726   -11312.117    321.77771    75.986337 
   59300    765.85292   -161.40739   0.69295981   -160.71443    597.58919    4.2384811    4.2384811    4.2384811    597.58919     9527.343   -30294.036     22559.46    6645.0348    -12696.94   -3578.0295    76.143133 
   59400    785.50645   -161.42458   0.71074274   -160.71384    1797.4648     4.243221     4.243221     4.243221    1797.4648   -1202.1111    2356.2255    4238.2801    6523.5044    -6785.004    4273.7249    76.398872 
   59500    943.27274   -161.56383   0.85349299   -160.71033    274.98224    4.2440971    4.2440971    4.2440971    274.98224   -24851.381    30476.675   -4800.3475    6558.7984   -3574.9101    13489.084    76.446204 
   59600    1091.4015   -161.69753   0.98752303   -160.71001   -12259.134     4.245533     4.245533     4.245533   -12259.134   -32811.922    16998.458   -20963.939    2185.6851    3039.4152   -1157.8799    76.523826 
   59700      924.118   -161.54929   0.83616139   -160.71313   -8625.6476    4.2461175    4.2461175    4.2461175   -8625.6476   -24788.805    22932.659   -24020.797   -1782.6398    2448.5734   -4038.6807    76.555432 
   59800    880.06804   -161.51176   0.79630405   -160.71545   -5783.5736    4.2459424    4.2459424    4.2459424   -5783.5736   -16629.946    18153.853   -18874.627   -7928.6361   -7295.5903   -7680.7673    76.545966 
   59900    876.26231   -161.50872   0.79286055   -160.71585    2681.7705    4.2427372    4.2427372    4.2427372    2681.7705   -11.780119     15675.01   -7617.9185   -9687.9019   -8572.9669    -10260.08    76.372745 
   60000    871.13002    -161.5064   0.78821675   -160.71818    5491.1513    4.2412453    4.2412453    4.2412453    5491.1513    18469.008    21116.237   -23111.791   -11193.405   -9679.2368    1787.8472    76.292208 
   60100    800.31384   -161.44381   0.72414078   -160.71967    2933.1141    4.2433183    4.2433183    4.2433183    2933.1141    20322.225    9933.6111   -21456.494   -2368.9558   -511.33662     6357.338    76.404127 
   60200    734.15705   -161.38152   0.66428073   -160.71724   -524.33351     4.243498     4.243498     4.243498   -524.33351   -263.68011   -12377.152    11067.832    6370.4746    6919.9738    1450.4366    76.413835 
   60300    786.50072   -161.42489   0.71164238   -160.71324   -4919.7458    4.2397595    4.2397595    4.2397595   -4919.7458   -5607.8593   -16802.732    7651.3541    12903.431    7766.1984   -767.63354    76.212053 
   60400    823.77376   -161.45892   0.74536781   -160.71355    -9438.364    4.2435617    4.2435617    4.2435617    -9438.364    -565.3445    1998.8997   -29748.647    9908.5888    3709.0586   -6047.4597    76.417279 
   60500    868.06442   -161.49665   0.78544293    -160.7112   -17445.361    4.2476281    4.2476281    4.2476281   -17445.361   -15101.287    437.25454   -37672.052    8042.1933    2532.5112   -8991.3046    76.637169 
   60600    891.96472   -161.51747   0.80706843   -160.71041   -4880.3587    4.2386794    4.2386794    4.2386794   -4880.3587   -27965.821    5044.2222    8280.5222    2553.4639    6097.6312    1623.2512    76.153823 
   60700    819.06811   -161.45897   0.74111004   -160.71786   -1433.4404     4.243321     4.243321     4.243321   -1433.4404    -19948.02   -12110.929    27758.628    588.63164    8972.4381    2356.3314    76.404274 
   60800    658.21307   -161.31456   0.59556501     -160.719     601.9016    4.2517557    4.2517557    4.2517557     601.9016   -227.98837   -10992.159    13025.852   -4929.9249    17252.294    2325.2912    76.860802 
   60900    689.58291    -161.3355   0.62394911   -160.71155   -1284.4084    4.2456208    4.2456208    4.2456208   -1284.4084   -3567.8719   -4613.2208    4327.8675   -6236.6248    20587.243   -3858.3146    76.528572 
   61000    670.34314   -161.31839   0.60654056   -160.71185    3509.3413    4.2398169    4.2398169    4.2398169    3509.3413    2359.9674   -9243.7277    17411.784   -2867.1107    22867.872   -6750.7149    76.215147 
   61100    752.03341   -161.39564   0.68045563   -160.71518    1484.5421    4.2421248    4.2421248    4.2421248    1484.5421     1092.274   -15088.832    18450.184   -6163.8858    13565.507   -7891.0241    76.339679 
   61200    937.72821   -161.56099   0.84847619   -160.71251   -9956.3555    4.2426966    4.2426966    4.2426966   -9956.3555   -18337.455   -3954.6219   -7576.9895    3165.6093    9870.6387   -2161.9176    76.370554 
   61300    877.36864   -161.50348   0.79386158   -160.70962   -16137.388    4.2433661    4.2433661    4.2433661   -16137.388   -38421.713    541.62591   -10532.078   -5032.3343    2412.5562    4475.4413    76.406712 
   61400    886.34033   -161.50995   0.80197936   -160.70797   -12369.482    4.2414303    4.2414303    4.2414303   -12369.482   -30755.776   -12685.646    6332.9753    -3298.397    5979.9677    3743.2672    76.302191 
   61500    801.51858   -161.43545   0.72523085   -160.71022    7306.2329    4.2381304    4.2381304    4.2381304    7306.2329     6015.116   -5728.2694    21631.852    2740.5796    12789.469    6670.7387    76.124237 
   61600    703.07474    -161.3512    0.6361568   -160.71504    8869.7302    4.2434776    4.2434776    4.2434776    8869.7302   -2431.9642    3178.8354    25862.319    1386.1707    10617.522     3423.338    76.412733 
   61700    617.41874   -161.27314   0.55865345   -160.71449    7082.9614     4.247067     4.247067     4.247067    7082.9614    -12355.46   -3953.6499    37557.994    9004.9799    7883.0736   -2360.7375    76.606801 
   61800    856.60728   -161.48926   0.77507627   -160.71418   -1722.7795    4.2467223    4.2467223    4.2467223   -1722.7795   -6403.0615   -15721.713    16956.435    8659.4219   -2331.3689   -5005.4401    76.588149 
   61900    1012.0805   -161.62968    0.9157517   -160.71393   -17960.311    4.2496769    4.2496769    4.2496769   -17960.311   -18237.654   -24456.653   -11186.625   -1188.4206     -7162.11   -2006.6445    76.748119 
   62000    1078.7004   -161.68823   0.97603076   -160.71219   -16008.331    4.2388716    4.2388716    4.2388716   -16008.331   -15027.562   -17884.333   -15113.098   -7984.4049   -10986.436    6944.1684    76.164182 
   62100    1103.8721   -161.71207   0.99880672   -160.71326   -15619.244    4.2383349    4.2383349    4.2383349   -15619.244   -9400.8057    -25396.73   -12060.197   -7375.4067   -13456.452    4163.8248    76.135254 
   62200    1037.0354   -161.65428   0.93833143   -160.71595   -5795.8492    4.2454886    4.2454886    4.2454886   -5795.8492   -3810.3768   -7357.8098   -6219.3611    4112.2271   -9730.2003    -3004.343    76.521421 
   62300    891.49732   -161.52203   0.80664551   -160.71539    6980.6455    4.2478591    4.2478591    4.2478591    6980.6455    292.45963    13044.915    7604.5616    3516.4627   -9714.1379    4226.2355    76.649674 
   62400    776.86398   -161.41305   0.70292285   -160.71012   -8764.5862    4.2514918    4.2514918    4.2514918   -8764.5862   -13014.552   -23023.276    9744.0694    3675.4292   -3920.5002    1526.9549    76.846492 
   62500    830.72888   -161.45645   0.75166094   -160.70479   -7921.0745    4.2407937    4.2407937    4.2407937   -7921.0745    -1845.758   -33483.138    11565.672   -1031.4578    3921.0013    6117.3259     76.26784 
   62600    957.21748    -161.5707    0.8661105   -160.70459    645.84272    4.2330581    4.2330581    4.2330581    645.84272   -6081.6632   -3241.9027    11261.094   -8698.6433    8775.5076     9333.954    75.851242 
   62700    867.34123   -161.49607   0.78478857   -160.71128   -7670.2975    4.2431066    4.2431066    4.2431066   -7670.2975   -26176.454    17860.324   -14694.762   -4280.7011    12076.752    5716.0896    76.392694 
   62800    591.72879   -161.24708   0.53540865   -160.71168    5401.8347    4.2443372    4.2443372    4.2443372    5401.8347   -4886.6718    36651.698   -15559.522    2696.5795    13517.039     2848.604    76.459181 
   62900    533.38959   -161.19708   0.48262211   -160.71446    16450.662     4.243618     4.243618     4.243618    16450.662    7578.8522    27641.758    14131.376    9329.7775    18937.065   -4757.1434    76.420318 
   63000    588.46309   -161.24687   0.53245377   -160.71442     6862.089    4.2485584    4.2485584    4.2485584     6862.089    5011.3175    9420.0465    6154.9029    405.87446    24466.609    583.67528    76.687534 
   63100    592.44417   -161.24837   0.53605594   -160.71232    4078.2489    4.2377641    4.2377641    4.2377641    4078.2489    6183.4145   -500.22131    6551.5535   -7070.8839     24736.62    2597.0952      76.1045 
   63200    651.13756   -161.30364   0.58916294   -160.71447   -3314.8724    4.2380833    4.2380833    4.2380833   -3314.8724    7775.4483   -8851.1819   -8868.8837   -9439.8074     19290.89    7768.8743    76.121698 
   63300    894.18072    -161.5227   0.80907351   -160.71363   -22720.185    4.2507421    4.2507421    4.2507421   -22720.185   -15460.123    -16664.95   -36035.482   -10193.843    8155.4545    15614.434    76.805843 
   63400     831.5054   -161.45986   0.75236356    -160.7075   -10932.395    4.2442572    4.2442572    4.2442572   -10932.395   -12404.399    5202.9968   -25595.783    2610.9545   -6240.7186    9919.1747    76.454857 
   63500    638.61169   -161.28689   0.57782928   -160.70906    3927.8459    4.2403693    4.2403693    4.2403693    3927.8459    14735.544    7267.8611   -10219.867    1744.7134   -2298.6418    13513.188    76.244944 
   63600    597.58648   -161.25259   0.54070881   -160.71188    13241.525    4.2453889    4.2453889    4.2453889    13241.525    35608.937    21439.765   -17324.127    9943.3349   -5406.5208    4050.4379    76.516032 
   63700    717.60069   -161.36228   0.64930018   -160.71298    24235.299    4.2411517    4.2411517    4.2411517    24235.299     50901.02    28261.834   -6456.9569    10127.751   -2824.7663     2861.517    76.287153 
   63800    901.57524   -161.52787   0.81576423    -160.7121   -4994.7288    4.2458782    4.2458782    4.2458782   -4994.7288   -1553.8946   -5728.4104   -7701.8814   -5185.1939   -5461.6649    14334.633    76.542493 
   63900    998.53326   -161.61057   0.90349388   -160.70707   -31725.025    4.2480067    4.2480067    4.2480067   -31725.025   -35723.125   -44921.555   -14530.394   -3149.4072   -15219.671    6552.2114    76.657664 
   64000    887.72164   -161.51063    0.8032292    -160.7074   -13708.987    4.2394048    4.2394048    4.2394048   -13708.987   -14521.972    -27056.08    451.09274    -3410.243   -2552.9753    7296.0685    76.192927 
   64100    669.38785   -161.31832    0.6056762   -160.71265    2666.3122    4.2418244    4.2418244    4.2418244    2666.3122   -7183.7972    3926.7626    11255.971    780.81344    11023.576    4661.5222    76.323459 
   64200    527.68478    -161.1902   0.47746028   -160.71274    17345.603    4.2415716    4.2415716    4.2415716    17345.603    16065.259    10240.989    25730.563    8389.9808    16131.131   -8643.6253    76.309817 
   64300    684.55329   -161.33366    0.6193982   -160.71426    15701.325    4.2400099    4.2400099    4.2400099    15701.325    25863.474    1690.9115    19549.589    1341.3333    12780.774    6826.8135    76.225556 
   64400    895.69894   -161.52411   0.81044722   -160.71367   -17175.803    4.2481537    4.2481537    4.2481537   -17175.803   -17202.214   -18403.905   -15921.291   -2791.4407    3622.6712    11717.202    76.665622 
   64500    901.54895   -161.52517   0.81574044   -160.70943   -11572.799    4.2382193    4.2382193    4.2382193   -11572.799   -24262.697   -11243.719    788.01986   -4558.9619    5506.8963    8261.3357    76.129028 
   64600    796.38779   -161.43434   0.72058841   -160.71375   -2269.2119     4.239812     4.239812     4.239812   -2269.2119    47.184829   -12003.931    5149.1102   -2322.2719    11941.814    9895.0354    76.214883 
   64700    557.51547   -161.21962   0.50445171   -160.71517     10259.28    4.2470122    4.2470122    4.2470122     10259.28    30524.796   -6811.7605    7064.8041    5901.8325      24141.1   -3054.9925    76.603836 
   64800    665.07754   -161.31594   0.60177613   -160.71416    18326.322    4.2417771    4.2417771    4.2417771    18326.322    33053.871    11911.407    10013.688    2884.7664    19045.024   -3568.8322    76.320909 
   64900    852.80422   -161.48719   0.77163518   -160.71556   -2976.2666    4.2471191    4.2471191    4.2471191   -2976.2666     16033.43   -17089.939   -7872.2901   -2197.6741    10280.307    11248.054    76.609623 
   65000    955.54572   -161.57397   0.86459784   -160.70937   -17280.102    4.2488647    4.2488647    4.2488647   -17280.102   -6378.1322   -31928.161   -13534.013   -4979.0021   -256.00491    6615.5439    76.704124 
   65100    936.99532    -161.5538   0.84781305   -160.70599   -10625.659    4.2420946    4.2420946    4.2420946   -10625.659   -19612.597   -7518.7327   -4745.6484   -8209.1169    3378.9175    3393.9598     76.33805 
   65200    699.24657   -161.34434   0.63269299   -160.71165     7212.314    4.2413646    4.2413646    4.2413646     7212.314   -20972.179    21369.982    21239.139    3348.2489    13049.285   -2716.2534    76.298642 
   65300    623.24055   -161.27804   0.56392115   -160.71412    12280.831    4.2487182    4.2487182    4.2487182    12280.831   -10525.471    10445.067    36922.895    4603.0338    9509.8107   -4845.7056    76.696191 
   65400    849.39066   -161.47556   0.76854652   -160.70701   -6904.0834    4.2521171    4.2521171    4.2521171   -6904.0834   -7094.5612   -30912.308    17294.619    -1290.392     1944.891    4038.5055    76.880402 
   65500    1019.1828   -161.62501   0.92217804   -160.70284   -19252.567    4.2488156    4.2488156    4.2488156   -19252.567   -21144.405   -30252.048   -6361.2487   -4402.7118   -2520.3489    6153.6207    76.701464 
   65600    1096.9195   -161.69498    0.9925158   -160.70246   -16414.205    4.2433808    4.2433808    4.2433808   -16414.205   -19722.099    -9280.219   -20240.297      -7462.6   -10075.938    10020.235    76.407503 
   65700    865.76116   -161.49038   0.78335889   -160.70702    13950.704    4.2371554    4.2371554    4.2371554    13950.704    8927.2831    26206.131    6718.6975    7867.9364   -4876.1965    976.12467    76.071711 
   65800    637.14562   -161.28944   0.57650275   -160.71294    12286.276    4.2473796    4.2473796    4.2473796    12286.276    9745.8538     22532.38    4580.5939    12586.498    6346.9696   -2916.9367    76.623721 
   65900    728.90128   -161.37126    0.6595252   -160.71174    4224.1176    4.2510049    4.2510049    4.2510049    4224.1176   -14976.654    28474.881   -825.87337    13265.568    2953.2213   -6803.1416     76.82009 
   66000    797.89626   -161.43149   0.72195331   -160.70953   -3162.2331    4.2475047    4.2475047    4.2475047   -3162.2331   -24872.012    29577.998   -14192.685    12127.066    1808.3116   -4093.4063    76.630489 
   66100    901.16959   -161.52574   0.81539718   -160.71035   -11297.166    4.2435087    4.2435087    4.2435087   -11297.166   -6054.6526    -5685.637   -22151.208    3064.9808    952.58994    7275.6353    76.414414 
   66200    1014.6413    -161.6265   0.91806876   -160.70843   -9481.2534    4.2415358    4.2415358    4.2415358   -9481.2534   -18035.459   -5933.8125   -4474.4883   -5383.0092    4026.8031     4489.429    76.307885 
   66300    886.08883   -161.51088   0.80175179   -160.70912   -1261.3478    4.2470678    4.2470678    4.2470678   -1261.3478   -13782.003   -10121.846    20119.805    -2230.301    6155.4509   -544.22596    76.606844 
   66400    748.71782   -161.38468   0.67745562   -160.70722   -267.37182    4.2532226    4.2532226    4.2532226   -267.37182    4663.7183   -29235.194     23769.36    7806.8626     9676.523   -11654.285    76.940382 
   66500     798.6206   -161.43058    0.7226087   -160.70797      8930.82    4.2464902    4.2464902    4.2464902      8930.82    24165.275   -7192.3505    9819.5358     3442.289    12103.245   -9189.3367    76.575593 
   66600     1097.117   -161.70022   0.99269447   -160.70752   -1715.0744    4.2409153    4.2409153    4.2409153   -1715.0744    14253.016   -588.32801   -18809.911    6069.3629    6390.0313    3000.8562      76.2744 
   66700    1144.3426   -161.74085    1.0354252   -160.70543   -23442.582    4.2447929    4.2447929    4.2447929   -23442.582   -20644.265   -26350.666   -23332.816   -8775.2636   -4732.2774    6248.6173    76.483811 
   66800    1009.9096   -161.62063   0.91378744   -160.70684    -19998.49    4.2511192    4.2511192    4.2511192    -19998.49   -26811.174   -26808.325   -6375.9699   -8020.3625   -4304.0464   -1498.8546    76.826288 
   66900    857.75307    -161.4844   0.77611301   -160.70829   -2657.3559    4.2530051    4.2530051    4.2530051   -2657.3559     -42546.2    5447.7492    29126.383    6190.8149   -4204.3374   -8359.7139    76.928579 
   67000    532.07931   -161.19271   0.48143654   -160.71127    21772.422    4.2437713    4.2437713    4.2437713    21772.422    -29306.84    27586.222    67037.885    3113.0022    1725.3685   -19477.087    76.428604 
   67100    522.52447   -161.18411   0.47279112   -160.71132     14172.31    4.2428242    4.2428242    4.2428242     14172.31   -22034.101    3490.5347    61060.496    5694.8595    5540.3583    -20155.24    76.377444 
   67200    796.47123   -161.43286   0.72066391    -160.7122   -7709.5494    4.2545994    4.2545994    4.2545994   -7709.5494    -22155.75   -30220.263    29247.365    2847.5436   -1219.9624    -4472.407    77.015123 
   67300    939.06756   -161.55577   0.84968807   -160.70608   -15559.147    4.2570634    4.2570634    4.2570634   -15559.147   -23597.097   -26809.754      3729.41   -6451.5482   -4617.5713    4083.2967     77.14901 
   67400    923.28396    -161.5397   0.83540673    -160.7043   -9645.5972    4.2498175    4.2498175    4.2498175   -9645.5972    6131.6502   -23212.619   -11855.822    6341.9964    1304.4725    10265.923    76.755737 
   67500     1016.735   -161.62888   0.91996317   -160.70892    -18397.23    4.2510302    4.2510302    4.2510302    -18397.23    2203.7425   -34660.201   -22735.232    8282.5013    9606.2133    10346.888    76.821463 
   67600    931.97746   -161.55547   0.84327279    -160.7122   -7740.5376    4.2479401    4.2479401    4.2479401   -7740.5376   -22708.747   -18639.916     18127.05    13919.756    4324.2409   -2231.1018    76.654059 
   67700    844.67711   -161.47997    0.7642816   -160.71569   -2581.1595    4.2496015    4.2496015    4.2496015   -2581.1595   -32459.051   -10562.866    35278.438    8623.7277   -6882.2913   -4557.3508    76.744032 
   67800    724.49598   -161.36763   0.65553919   -160.71209   -9428.8583    4.2607684    4.2607684    4.2607684   -9428.8583   -31246.859   -8361.7615    11322.045        -7776   -9504.9754    -14039.97    77.350617 
   67900    823.58166   -161.45429     0.745194   -160.70909    1841.0989     4.247276     4.247276     4.247276    1841.0989   -36360.671    30418.766    11465.202   -5748.7421   -3097.2143   -18633.173    76.618114 
   68000    910.42426   -161.53747     0.823771    -160.7137    1007.4254    4.2464327    4.2464327    4.2464327    1007.4254   -45844.162    49812.127   -945.68908   -11589.759    6855.1373   -15370.054    76.572482 
   68100    796.52677   -161.43629   0.72071416   -160.71558   -10473.018     4.259616     4.259616     4.259616   -10473.018    -33624.09    34884.735   -32679.699    5947.7899    4114.1207   -8156.5112    77.287873 
   68200    680.35166   -161.32592   0.61559648   -160.71032    8694.0874    4.2517583    4.2517583    4.2517583    8694.0874   -1522.0606    61273.897   -33669.575    9228.2896     -5973.59    2400.4625    76.860944 
   68300    617.28474   -161.27126   0.55853221   -160.71273    15979.957    4.2509685    4.2509685    4.2509685    15979.957   -26871.783    89774.147   -14962.494   -1741.3834   -4400.7862    16014.546     76.81812 
   68400    502.02084   -161.16983   0.45423901   -160.71559    17468.329    4.2543989    4.2543989    4.2543989    17468.329   -30147.778    78002.213    4550.5511   -4135.0413   -978.77056    17492.628    77.004235 
   68500    619.12521   -161.27118    0.5601975   -160.71098    15850.853    4.2468557    4.2468557    4.2468557    15850.853    2.4845718    60517.743   -12967.668   -13530.468    2549.3353    6761.9211    76.595368 
   68600    839.41345   -161.46892   0.75951893    -160.7094    219.65573    4.2476628    4.2476628    4.2476628    219.65573   -18551.939    44640.591   -25429.684   -6501.1568    3707.9264   -977.99228    76.639046 
   68700    1107.7519   -161.71076    1.0023172   -160.70845   -27048.092     4.254289     4.254289     4.254289   -27048.092   -48453.476   -5400.9456   -27289.853    531.59823   -6927.4175   -6153.2983    76.998267 
   68800     1063.828   -161.66998   0.96257392   -160.70741   -23735.815    4.2499417    4.2499417    4.2499417   -23735.815   -17367.191    -40729.32   -13110.934    4988.6818   -540.37312    -7703.685    76.762467 
   68900    752.86926   -161.39313   0.68121192   -160.71191   -10132.708    4.2475771    4.2475771    4.2475771   -10132.708   -15293.597   -20575.638     5471.113    13496.639   -4722.8065    7160.7758    76.634407 
   69000    517.14013   -161.18131   0.46791926   -160.71339    11440.162    4.2437948    4.2437948    4.2437948    11440.162   -19782.002    21550.256    32552.231    2659.3974    6882.2929    13644.994    76.429871 
   69100    538.09566   -161.20146   0.48688026   -160.71458    23761.844     4.241635     4.241635     4.241635    23761.844   -2210.0192     31002.27    42493.281    4301.1085     5776.429    18314.232    76.313238 
   69200    710.08803   -161.35786   0.64250257   -160.71536   -1804.3179     4.250737     4.250737     4.250737   -1804.3179   -4400.4161   -20553.224    19540.687    14880.283    3991.8358    12685.221    76.805568 
   69300    786.37692    -161.4216   0.71153037   -160.71007    -10339.22    4.2460318    4.2460318    4.2460318    -10339.22   -9529.6582   -32447.726    10959.724    11995.752    2727.3498   -4240.1306    76.550799 
   69400    974.21665   -161.58651    0.8814917   -160.70502   -16297.944    4.2441021    4.2441021    4.2441021   -16297.944   -18389.356   -19342.344   -11162.134    17542.478   -1458.6297   -9988.5731    76.446476 
   69500    1063.4675   -161.66896   0.96224773   -160.70672   -12947.207    4.2465618    4.2465618    4.2465618   -12947.207   -8444.1098    -14362.95    -16034.56    5686.1603    8906.4609   -4804.1225    76.579467 
   69600    834.36019   -161.46482   0.75494663   -160.70987    -109.5504     4.246944     4.246944     4.246944    -109.5504   -12440.652    12665.324   -553.32252    2773.2798    5199.9283   -837.08014    76.600145 
   69700    594.43764   -161.25046   0.53785967    -160.7126   -286.52109    4.2494032    4.2494032    4.2494032   -286.52109   -34652.687    20781.093     13012.03    2092.9967    3966.4058    9859.7582    76.733292 
   69800    719.46276   -161.36565   0.65098503   -160.71466    12714.602    4.2433124    4.2433124    4.2433124    12714.602   -21211.936    31120.594    28235.147   -3479.2213    2094.6586    10868.672    76.403813 
   69900    1014.4812   -161.63107    0.9179239   -160.71315    2639.2977    4.2458411    4.2458411    4.2458411    2639.2977   -2627.7982    7431.6168    3114.0745    2937.3397   -6612.7746    2473.3923    76.540484 
   70000    1010.7523    -161.6231   0.91454994   -160.70855   -15800.728    4.2493417    4.2493417    4.2493417   -15800.728   -27857.485   -11933.849   -7610.8494   -1655.6686    -4111.415    -5150.962    76.729961 
   70100    1034.6635   -161.64287   0.93618526   -160.70669   -18482.311    4.2467176    4.2467176    4.2467176   -18482.311   -39404.104   -5021.1785   -11021.651    1393.0869   -3349.8326   -10390.271    76.587896 
   70200    1194.7195   -161.79173    1.0810073   -160.71072   -16133.373    4.2487967    4.2487967    4.2487967   -16133.373   -6224.9856   -19419.699   -22755.435   -4267.1618    -2983.666   -9516.7196     76.70044 
   70300    881.19793   -161.50853   0.79732641    -160.7112   -12493.869    4.2500353    4.2500353    4.2500353   -12493.869   -9933.5541    625.41097   -28173.463   -11807.132    5748.7727     4367.866    76.767539 
   70400     647.7431   -161.29632   0.58609157   -160.71023    2842.9441    4.2382792    4.2382792    4.2382792    2842.9441   -18882.243    35617.454   -8206.3793   -1619.4793   -3778.5545    17132.854    76.132256 
   70500    664.29481   -161.31623   0.60106791   -160.71516    8768.6773    4.2431858    4.2431858    4.2431858    8768.6773   -15537.028    41087.214    755.84587    2266.5333   -3604.7166    18498.787    76.396971 
   70600    637.09986   -161.29293   0.57646134   -160.71647    13101.056    4.2513562    4.2513562    4.2513562    13101.056    1078.1496    27131.713    11093.305     2591.481   -11435.148    13463.417    76.839137 
   70700    737.94606   -161.37936    0.6677091   -160.71165    514.42164    4.2479526    4.2479526    4.2479526    514.42164   -9507.4147    10796.382     254.2977    4300.1729   -8513.2783    4499.1491    76.654737 
   70800    956.37628   -161.57229   0.86534936   -160.70694   -16599.015    4.2464966    4.2464966    4.2464966   -16599.015   -19860.368      2531.84   -32468.518   -1376.5455    684.97116   -2077.2556    76.575942 
   70900    986.05671   -161.59746   0.89220484   -160.70525   -16446.806    4.2447931    4.2447931    4.2447931   -16446.806   -10448.772   -16473.145   -22418.501   -1916.1303     2925.786    4326.8049    76.483824 
   71000    751.23269   -161.38864   0.67973113   -160.70891   -1706.2575    4.2419455    4.2419455    4.2419455   -1706.2575   -5528.3608   -10442.119    10851.707   -2474.2916    2469.7748    12662.778    76.329997 
   71100    570.67938   -161.23156   0.51636269   -160.71519    11363.218    4.2447003    4.2447003    4.2447003    11363.218   -9922.5981    9370.4238    34641.827    5302.1814   -2816.3097     19536.17    76.478803 
   71200    586.76285   -161.24504   0.53091535   -160.71413    18382.664    4.2472876    4.2472876    4.2472876    18382.664   -5410.0677    8836.6952    51721.365    8196.5323   -2430.9425    18621.621    76.618741 
   71300     649.6942   -161.29965   0.58785696    -160.7118    17264.371    4.2409367    4.2409367    4.2409367    17264.371    2022.7853   -8256.3544    58026.682   -971.94036    5825.7878    12816.281    76.275555 
   71400    889.50216   -161.51561   0.80484024   -160.71077   -2396.9521    4.2431853    4.2431853    4.2431853   -2396.9521   -21312.472   -21878.601    36000.216   -445.50025    8709.0484    412.84689    76.396947 
   71500    1084.8548   -161.68953   0.98159939   -160.70793   -9663.1658    4.2434358    4.2434358    4.2434358   -9663.1658   -22508.842   -16362.001    9881.3461   -3738.5804    5962.9352   -9803.5931    76.410477 
   71600    1100.8362   -161.70419   0.99605971   -160.70813   -4314.5051    4.2414878    4.2414878    4.2414878   -4314.5051   -9832.4601   -3211.4685    100.41344     3109.679    4912.1819   -10902.108    76.305291 
   71700    1070.4992    -161.6779   0.96861019   -160.70929   -18920.903    4.2482962    4.2482962    4.2482962   -18920.903   -29967.527   -3394.5156   -23400.668    8219.8295    -3464.716    -11300.05    76.673336 
   71800    931.84241   -161.55218   0.84315059   -160.70903     3219.359    4.2420954    4.2420954    4.2420954     3219.359   -36536.402    56420.674   -10226.196   -26.095654   -3841.2391   -5117.8404    76.338089 
   71900    847.00217    -161.4824   0.76638537   -160.71602    14693.413    4.2443831    4.2443831    4.2443831    14693.413   -20585.094    88568.001   -23902.667   -7423.7809    1185.4636    5337.3941    76.461662 
   72000    645.10778   -161.30242   0.58370707   -160.71871    11789.092    4.2502368    4.2502368    4.2502368    11789.092   -12327.084    61180.974   -13486.612   -8053.5795   -2708.6386    5953.7011    76.778457 
   72100    745.82768    -161.3881   0.67484056   -160.71326    5656.0986    4.2433022    4.2433022    4.2433022    5656.0986   -12446.007    40341.374   -10927.071   -974.86255   -5644.0575    5285.4368    76.403261 
   72200    904.94646   -161.53042   0.81881457    -160.7116    1395.5588    4.2423229    4.2423229    4.2423229    1395.5588   -18964.588    46913.073   -23761.808    4577.0573   -8650.5491    1498.6528    76.350372 
   72300    870.87691   -161.49976   0.78798773   -160.71177   -3882.3691    4.2456706    4.2456706    4.2456706   -3882.3691   -6469.3703    19478.008   -24655.745     7464.305   -4925.0179   -3261.7886    76.531266 
   72400      802.594   -161.43835   0.72620392   -160.71215   -7582.3107    4.2436305    4.2436305    4.2436305   -7582.3107   -9492.4528    2252.2616   -15506.741   -1557.6041    1077.1127   -557.02391    76.420994 
   72500    874.88401   -161.50718   0.79161344   -160.71557   -18469.173    4.2502439    4.2502439    4.2502439   -18469.173    -36405.54   -7994.4891   -11007.489   -3786.5508   -1132.0039    3051.7436    76.778841 
   72600    842.96006   -161.47766   0.76272798   -160.71493   -8931.1631    4.2510288    4.2510288    4.2510288   -8931.1631   -17652.137    1160.6127   -10301.965    1640.2359   -2907.8487    14264.138    76.821387 
   72700     481.5872   -161.15094   0.43575022   -160.71519    10764.311    4.2452386    4.2452386    4.2452386    10764.311    14444.856    2098.7968    15749.282    6257.5881   -9850.2344    24034.037    76.507906 
   72800    440.14158   -161.11601   0.39824935   -160.71776    6190.2805    4.2478731    4.2478731    4.2478731    6190.2805   -5273.5868    1667.1492    22177.279    130.41837   -6359.5972    27805.702    76.650429 
   72900    661.30964   -161.31367   0.59836686    -160.7153    8814.2662    4.2444524    4.2444524    4.2444524    8814.2662   -25724.221    25604.584    26562.436   -6294.9901   -1840.6431    22627.788    76.465405 
   73000    578.22567   -161.24011   0.52319073   -160.71692    19188.141    4.2423474    4.2423474    4.2423474    19188.141   -24.436511     27806.32    29782.538   -3641.8132     1156.855    13818.123    76.351699 
   73100    460.48686   -161.13426   0.41665819    -160.7176    4342.1449    4.2493571    4.2493571    4.2493571    4342.1449    527.96862   -13591.505    26089.972    1529.2586    8203.7824     4944.259    76.730794 
   73200    880.54656   -161.51082   0.79673703   -160.71409   -4764.5222    4.2428727    4.2428727    4.2428727   -4764.5222    -21145.04   -5744.8235    12596.297    2088.6925   -1778.1146   -6792.6587    76.380063 
   73300    1149.3599   -161.75049     1.039965   -160.71053   -13776.511    4.2454328    4.2454328    4.2454328   -13776.511   -26970.856    6777.9004   -21136.578    3124.3109   -9257.7135   -12743.103    76.518406 
   73400    796.48166   -161.42737   0.72067334   -160.70669   -15527.082    4.2540753    4.2540753    4.2540753   -15527.082    1982.2017   -9497.6249   -39065.823   -4447.4551   -1366.6121   -10553.255    76.986666 
   73500    739.40358   -161.37361    0.6690279   -160.70458    6490.8378    4.2449606    4.2449606    4.2449606    6490.8378    2603.7084     36529.46   -19660.655    -11735.75    6453.2105   -2884.8234    76.492879 
   73600    945.29016   -161.56608    0.8553184   -160.71076    12881.665    4.2469614    4.2469614    4.2469614    12881.665   -28299.191    84587.541   -17643.356   -4634.8103    6613.1382   -2325.2311    76.601088 
   73700    681.43402   -161.33111   0.61657582   -160.71453    11739.413    4.2555049    4.2555049    4.2555049    11739.413   -35672.705    78721.818   -7830.8733    10280.848    727.40929    7058.0025    77.064309 
   73800     479.2189   -161.14758   0.43360733   -160.71397    17826.923      4.24806      4.24806      4.24806    17826.923   -7968.9646    65951.895   -4502.1626    12664.454   -2650.8952    3827.5322    76.660548 
   73900    719.92464   -161.36878   0.65140294   -160.71738    11398.136    4.2489039    4.2489039    4.2489039    11398.136   -18785.693    78853.786   -25873.684    9600.1249    4056.1171   -1174.6399    76.706244 
   74000    1017.9949   -161.63511   0.92110314   -160.71401   -6849.8372    4.2504167    4.2504167    4.2504167   -6849.8372   -41298.547    58590.604   -37841.569   -2426.7584    6357.7007   -6211.1903    76.788208 
   74100    742.08954    -161.3862   0.67145821   -160.71474   -1908.8622    4.2500855    4.2500855    4.2500855   -1908.8622   -4983.4271    12835.219   -13578.378   -8305.9344    6974.9362   -10615.336    76.770256 
   74200     803.8791   -161.44391   0.72736671   -160.71654   -11098.305    4.2559367    4.2559367    4.2559367   -11098.305   -6827.7751    -15061.14   -11405.999   -5750.3016   -3638.2944   -12490.661    77.087771 
   74300     1045.828   -161.66087   0.94628716   -160.71459   -4142.2204    4.2469391    4.2469391    4.2469391   -4142.2204   -26917.073   -4172.8609    18663.273   -812.99682   -6282.6177   -14402.882    76.599882 
   74400    916.42281   -161.54492   0.82919862   -160.71572    -8422.332    4.2455011    4.2455011    4.2455011    -8422.332   -31647.597   -36308.802    42689.403    3988.6449   -3536.5024   -14989.169      76.5221 
   74500    515.05129   -161.18347   0.46602923   -160.71744   -1223.8808    4.2556991    4.2556991    4.2556991   -1223.8808   -13966.357   -38971.973    49266.688   -8036.5618    8322.9861    1699.2586    77.074861 
   74600    778.98315   -161.41599   0.70484032   -160.71115    19956.241    4.2503956    4.2503956    4.2503956    19956.241   -18103.866    23772.031    54200.558   -12492.914    12517.585    14712.126    76.787064 
   74700    896.34179    -161.5215   0.81102889   -160.71047     6897.774    4.2514013    4.2514013    4.2514013     6897.774   -14296.044    407.69762    34581.668    3109.3901    2300.6769    10181.653    76.841582 
   74800      798.043   -161.42655   0.72208608   -160.70447   -23149.876    4.2543847    4.2543847    4.2543847   -23149.876   -20521.808   -70137.325    21209.504    8892.5138    -2425.817    3524.3229    77.003468 
   74900     894.3602   -161.51124   0.80923591     -160.702    5661.6993    4.2389688    4.2389688    4.2389688    5661.6993    16303.867   -21513.462    22194.693   -1559.2321   -12735.491   -674.95979    76.169422 
   75000    936.74433   -161.55937   0.84758596   -160.71179    7965.4953    4.2476834    4.2476834    4.2476834    7965.4953    21062.026    4061.9025   -1227.4428    191.55158   -13267.161   -5127.8798    76.640161 
   75100     778.1483   -161.41178   0.70408493    -160.7077   -17729.869    4.2585467    4.2585467    4.2585467   -17729.869    14605.054   -38893.744   -28900.918   -6493.1278    178.27776   -421.52554     77.22968 
   75200    902.93824   -161.51702   0.81699749   -160.70002   -16345.863    4.2458859    4.2458859    4.2458859   -16345.863    4561.2152   -40882.329   -12716.475    777.85557    1649.9396    3035.6989     76.54291 
   75300    1282.3013   -161.86372    1.1602531   -160.70347   -27171.263    4.2463828    4.2463828    4.2463828   -27171.263   -35053.666   -22496.342   -23963.779    9295.6124    5555.0652    8048.5873    76.569785 
   75400    909.67445   -161.53433   0.82309256   -160.71124   -3479.2691    4.2464277    4.2464277    4.2464277   -3479.2691   -19131.771    12550.165   -3856.2015   -3595.4832    -994.0145    2394.6454    76.572211 
   75500    434.84613   -161.10765   0.39345791   -160.71419    19790.635    4.2444299    4.2444299    4.2444299    19790.635    21658.155    20973.477    16740.274   -8860.4958   -7824.5304   -6484.3483     76.46419 
   75600    591.95523   -161.24936   0.53561353   -160.71375     5396.097    4.2550579    4.2550579    4.2550579     5396.097    -13589.18    11565.776    18211.695   -2056.5629   -10121.682    -8412.898    77.040026 
   75700     874.9173   -161.49935   0.79164356    -160.7077   -8148.5784    4.2479311    4.2479311    4.2479311   -8148.5784   -44955.276    4010.3396    16499.201   -765.89037   -4776.5774   -2541.0958    76.653569 
   75800    608.96941   -161.25516   0.55100832   -160.70416   -10182.572    4.2411717    4.2411717    4.2411717   -10182.572   -25667.968   -18406.684    13526.938    2732.1812    6263.4576    4866.4926    76.288233 
   75900    600.54284   -161.25085   0.54338379   -160.70747    -13148.59    4.2471206    4.2471206    4.2471206    -13148.59   -379.94503   -20717.938   -18347.886   -5212.0064    2723.9036     5923.377    76.609703 
   76000    667.40855   -161.31403   0.60388528   -160.71015    13399.624    4.2468664    4.2468664    4.2468664    13399.624    37285.052    14781.217   -11867.398   -11247.377   -5234.4621    223.85528    76.595949 
   76100    472.54661   -161.14107    0.4275701    -160.7135     25851.81    4.2479697    4.2479697    4.2479697     25851.81    44345.591    21220.417    11989.423   -11754.496   -8034.6604   -5598.7929    76.655663 
   76200    401.68349   -161.07426   0.36345166   -160.71081    9615.5168     4.250274     4.250274     4.250274    9615.5168    13819.262    9921.5233    5105.7649   -6441.4596    -4474.554   -6513.0708    76.780471 
   76300    1099.2077   -161.69789   0.99458624    -160.7033   -8002.9803    4.2387836    4.2387836    4.2387836   -8002.9803   -6057.7239   -2653.9161   -15297.301     7789.201    5179.8455    5831.9919     76.15944 
   76400    1356.0578   -161.93158    1.2269896   -160.70459   -17765.752    4.2418111    4.2418111    4.2418111   -17765.752   -19336.573   -16662.855   -17297.827    8184.2649    7682.0041    2656.3725    76.322741 
   76500     875.0201   -161.49702   0.79173658   -160.70528   -17529.683    4.2514842    4.2514842    4.2514842   -17529.683   -19109.435   -20404.398   -13075.215    3498.2016     401.0859     2249.565    76.846079 
   76600     622.7973   -161.26718   0.56352009   -160.70366    17562.232     4.243024     4.243024     4.243024    17562.232    12072.957    35310.891    5302.8482   -6877.6918   -1119.0545   -11192.226    76.388233 
   76700    857.57661   -161.48353   0.77595334   -160.70758    8727.6393    4.2497697    4.2497697    4.2497697    8727.6393   -935.51664    43166.132   -16047.697   -4600.9148   -2871.3251   -8065.8881    76.753148 
   76800    936.19259   -161.55041   0.84708673   -160.70332   -13667.342    4.2494112    4.2494112    4.2494112   -13667.342   -21191.784   -2783.2969   -17026.945    6109.9671    4904.5726    125.63299    76.733725 
   76900    914.60228    -161.5252   0.82755136   -160.69765   -22916.052    4.2387889    4.2387889    4.2387889   -22916.052   -8220.0873   -48239.549   -12288.521    10110.711     12560.37   -1232.3552    76.159725 
   77000     766.6147   -161.40021   0.69364909   -160.70656   -820.93873    4.2455011    4.2455011    4.2455011   -820.93873     21402.19    -14322.69   -9542.3157   -6707.3344   -308.35259   -5339.4697    76.522099 
   77100    614.13133   -161.26276   0.55567894   -160.70708    30077.736    4.2497603    4.2497603    4.2497603    30077.736    44108.846    35116.716    11007.647   -10640.442    -13531.45   -12777.005    76.752638 
   77200    564.03202   -161.21588   0.51034802   -160.70553    13839.188    4.2476403    4.2476403    4.2476403    13839.188    22715.935    13379.686     5421.943   -7057.6977   -2099.6705   -12196.856    76.637829 
   77300    795.55735   -161.42191   0.71983701   -160.70208   -23230.264    4.2454554    4.2454554    4.2454554   -23230.264   -11216.126   -37039.306   -21435.362    1192.1147    7872.1909    1812.4112    76.519629 
   77400    1086.8924   -161.68457   0.98344305   -160.70113   -17809.125    4.2397434    4.2397434    4.2397434   -17809.125   -11940.767    -19027.69   -22458.918    1310.4746    4710.7314   -3258.1284    76.211185 
   77500    829.16482   -161.45678   0.75024575   -160.70654   -2210.3116    4.2455949    4.2455949    4.2455949   -2210.3116    19359.194   -18963.672   -7026.4571   -12777.562    1364.3112   -8241.3839    76.527168 
   77600    398.68379   -161.06782   0.36073748   -160.70709    6609.8152    4.2550039    4.2550039    4.2550039    6609.8152     32342.81    -16248.67    3735.3062    -14685.97   -10693.966   -7363.0374    77.037094 
   77700    671.91754   -161.31756   0.60796511    -160.7096    9663.2837    4.2489026    4.2489026    4.2489026    9663.2837    3282.3138    38866.637     -13159.1   -15876.886   -6014.2691   -4840.1669    76.706176 
   77800    1240.7694   -161.82548    1.1226742   -160.70281    -9691.447    4.2407003    4.2407003    4.2407003    -9691.447   -19766.054    18536.571   -27844.857    2487.2547    8839.9733     10913.03    76.262799 
   77900    893.26314   -161.50898   0.80824326   -160.70073   -25353.515    4.2495512    4.2495512    4.2495512   -25353.515   -8646.1025   -60960.001   -6454.4415    6113.1907    2482.1107    11513.429    76.741306 
   78000    609.07489   -161.25198   0.55110376   -160.70087    8601.4712      4.24896      4.24896      4.24896    8601.4712    35894.312   -36266.712    26176.814   -6468.9966   -11591.101   -3606.8256    76.709286 
   78100    793.03287   -161.42217   0.71755281   -160.70462    24483.545    4.2508578    4.2508578    4.2508578    24483.545    45414.374    301.56464    27734.695   -7407.9058   -14817.111   -8491.9263    76.812115 
   78200     897.1291   -161.51333   0.81174126   -160.70159   -14377.552    4.2574816    4.2574816    4.2574816   -14377.552    1937.6023   -37801.242    -7269.015    5602.0227   -4166.4585    788.62582    77.171747 
   78300    1002.8179   -161.59686   0.90737071   -160.68949   -27106.515    4.2460103    4.2460103    4.2460103   -27106.515   -16672.071   -32118.144   -32529.332    11697.324    5624.2841    2675.2284    76.549634 
   78400     1039.787   -161.63654   0.94082115   -160.69572   -4599.2436    4.2431165    4.2431165    4.2431165   -4599.2436   -17195.586    6228.6314    -2830.776    7872.6019    1552.3808   -1027.5794    76.393228 
   78500    736.29118   -161.36732   0.66621173   -160.70111    20662.811    4.2477432    4.2477432    4.2477432    20662.811    2338.2172    28348.542    31301.674   -7796.4464   -11374.686   -6826.3873    76.643402 
   78600     452.2509    -161.1098   0.40920612    -160.7006    22237.237    4.2475098    4.2475098    4.2475098    22237.237     15778.51   -8099.5692     59032.77   -3775.3137    -11655.06   -13750.989    76.630769 
   78700    971.07422   -161.57928   0.87864836   -160.70063   -16017.059    4.2527955    4.2527955    4.2527955   -16017.059   -26409.459   -30657.469    9015.7522    9369.9753    741.03757    580.91626    76.917205 
   78800    1261.0974   -161.84187    1.1410674   -160.70081   -26304.534    4.2501707    4.2501707    4.2501707   -26304.534   -21054.314   -23265.452   -34593.837    5825.1802    2920.2365    9957.8012    76.774874 
   78900     739.6739   -161.37229   0.66927249   -160.70302   -2946.3337    4.2379498    4.2379498    4.2379498   -2946.3337    34443.916     -34168.7   -9114.2174   -829.17637   -2955.4867    2027.5453    76.114505 
   79000    486.13257   -161.14902   0.43986297   -160.70915    9817.8881    4.2400225    4.2400225    4.2400225    9817.8881    48947.403   -31699.893    12206.154   -10100.706   -6680.5113    97.184768    76.226235 
   79100    788.43352   -161.42426   0.71339122   -160.71087    5639.6111    4.2537309    4.2537309    4.2537309    5639.6111    10025.359   -2837.9125    9731.3871   -15509.119    -4978.392   -6260.0072    76.967973 
   79200    871.71677   -161.49934   0.78874765   -160.71059    2653.4871    4.2505996    4.2505996    4.2505996    2653.4871    4399.7583    -27988.37    31549.073    193.44336   -925.53486   -3842.9499    76.798118 
   79300    901.81368   -161.52184   0.81597997   -160.70586   -22270.605    4.2451406    4.2451406    4.2451406   -22270.605   -1595.4815   -60129.344   -5086.9898     6202.024    9086.7639    7932.0773    76.502605 
   79400    890.38838   -161.51161   0.80564212   -160.70597   -13272.646    4.2432276    4.2432276    4.2432276   -13272.646   -11623.476   -6482.2585   -21712.204    4477.9854    1412.0768    2563.6069    76.399229 
   79500     891.6352   -161.51766   0.80677027   -160.71089      9356.32    4.2446431    4.2446431    4.2446431      9356.32   -19216.581    49129.472   -1843.9314    357.75164   -562.10944    -13477.34    76.475711 
   79600    724.71834   -161.36755   0.65574039   -160.71181   -2478.7122    4.2546251    4.2546251    4.2546251   -2478.7122   -18340.712    5707.4603    5197.1145   -11057.701   -7844.6961   -4106.6427    77.016521 
   79700    836.99503   -161.46542    0.7573307   -160.70809   -15573.165    4.2530494    4.2530494    4.2530494   -15573.165    1109.9369   -39702.895   -8126.5362   -11127.783   -10276.733    4051.7011    76.930982 
   79800    1225.0514   -161.81179    1.1084523   -160.70333   -9561.1428      4.24178      4.24178      4.24178   -9561.1428    10276.267   -10269.764   -28689.932    3369.4819   -131.14671    7863.2017    76.321066 
   79900    1102.0636   -161.70166   0.99717029   -160.70449   -2351.6639    4.2410157    4.2410157    4.2410157   -2351.6639    19186.097   -21423.242   -4817.8467   -2874.0683    6528.9691    9842.6615    76.279817 
   80000    585.47972   -161.23685   0.52975436   -160.70709    6767.6644    4.2474507    4.2474507    4.2474507    6767.6644    13359.715   -11836.219    18779.498    10319.414    5987.2575   -5052.8765    76.627568 
   80100    673.87739   -161.31692   0.60973842   -160.70718    7865.6659    4.2501373    4.2501373    4.2501373    7865.6659   -12067.467    19819.786    15844.679    5690.5188    1412.6913   -10122.289    76.773068 
   80200    1035.3805   -161.64251   0.93683404   -160.70568   -5784.8415    4.2478292    4.2478292    4.2478292   -5784.8415   -30884.989    10733.732    2796.7324   -6205.9855   -8552.2523   -3195.2522    76.648055 
   80300    889.11732   -161.50963   0.80449204   -160.70514   -24534.989    4.2462007    4.2462007    4.2462007   -24534.989   -734.74921    -49847.99   -23022.227   -1279.3868    -6915.055   -2943.4618    76.559936 
   80400    730.72672    -161.3702   0.66117689   -160.70902   -19196.331    4.2453859    4.2453859    4.2453859   -19196.331    26691.838   -42448.183   -41832.648   -672.67628   -3140.3632   -4476.1176    76.515871 
   80500    812.54595   -161.45082   0.73520865   -160.71561    10866.156    4.2429364    4.2429364    4.2429364    10866.156     23227.56    29572.995   -20202.089    3978.4318    7850.3332   -14555.102    76.383503 
   80600    648.47417   -161.30159   0.58675306   -160.71484    17992.943    4.2481063    4.2481063    4.2481063    17992.943    30318.518    20590.618    3069.6925    12947.458    11169.091   -8735.1264    76.663053 
   80700    622.94162   -161.27289   0.56365067   -160.70924    6168.3737     4.248253     4.248253     4.248253    6168.3737    30935.645   -7599.2364   -4831.2872    3349.8691    7727.1199    153.49419    76.670996 
   80800    1001.0752   -161.60856   0.90579387   -160.70277   -8328.9169    4.2448072    4.2448072    4.2448072   -8328.9169     10003.36   -11252.613   -23737.498   -4158.6695    1434.3521    4025.1209    76.484581 
   80900    1082.5264   -161.68296   0.97949268   -160.70347   -11260.686      4.24153      4.24153      4.24153   -11260.686   -13566.225   -8859.7465   -11356.087     2088.712    -1580.077   -2376.9555    76.307571 
   81000    701.76311   -161.34273   0.63497001   -160.70776    3509.5514    4.2395966    4.2395966    4.2395966    3509.5514   -19043.902    2738.0581    26834.498   -4494.7128     3935.511   -15797.894    76.203269 
   81100    549.01856   -161.20734   0.49676353   -160.71058    7167.9036    4.2514492    4.2514492    4.2514492    7167.9036   -18465.632    17822.301    22147.042    721.64385    3992.6159   -11723.331    76.844178 
   81200    799.13479   -161.43476   0.72307396   -160.71169      8841.83    4.2505548    4.2505548    4.2505548      8841.83   -29828.823    31760.292    24594.021   -1029.2722    9295.2303   -4973.8287    76.795692 
   81300    1021.2826   -161.63081   0.92407795   -160.70673   -1422.8737    4.2446622    4.2446622    4.2446622   -1422.8737   -18527.584    409.38892    13849.574   -4886.8972   -1405.4836    3513.7679    76.476744 
   81400    1083.4741   -161.68364   0.98035011   -160.70329   -28746.178    4.2490246    4.2490246    4.2490246   -28746.178    -11927.92   -53709.711   -20600.904   -5634.4762   -8733.0151    10912.877     76.71278 
   81500    874.05193   -161.49535   0.79086055   -160.70449   -1237.1785    4.2450253    4.2450253    4.2450253   -1237.1785    25653.694   -11405.015   -17960.215    3761.7242    2902.5402    7327.1555    76.496373 
   81600    835.13651   -161.46442   0.75564907   -160.70877    14023.884    4.2480278    4.2480278    4.2480278    14023.884    19490.985     30871.46    -8290.794    9520.5286    9183.5233   -5251.9227    76.658808 
   81700    771.32323   -161.40478   0.69790947   -160.70687   -4493.6294    4.2561168    4.2561168    4.2561168   -4493.6294   -2599.4825    6494.8495   -17376.255    1919.6952     -1910.26   -1855.9905    77.097555 
   81800     902.5879   -161.51872    0.8166805   -160.70204   -23106.277    4.2475913    4.2475913    4.2475913   -23106.277   -8390.2486   -35757.782   -25170.801   -3821.9733   -1707.1151   -1202.2339    76.635177 
   81900    1193.0747   -161.77983    1.0795191   -160.70031   -19758.055    4.2383608    4.2383608    4.2383608   -19758.055   -9656.2297   -25487.979   -24129.957   -11169.206   -10843.888   -6437.7235    76.136653 
   82000    968.09756   -161.58398   0.87595501   -160.70802   -10551.908    4.2455413    4.2455413    4.2455413   -10551.908   -9724.1537   -13098.628   -8832.9425   -3386.6438   -6850.8007    -5115.147    76.524275 
   82100    575.13634   -161.22827   0.52039545   -160.70787    18052.166    4.2429238    4.2429238    4.2429238    18052.166    13310.731    15760.447     25085.32    8239.5858    6268.6874   -16554.679    76.382822 
   82200    504.52325   -161.17028   0.45650324   -160.71377    21004.764    4.2469357    4.2469357    4.2469357    21004.764    14926.389    32619.318    15468.584     7007.544     3827.702   -15421.221    76.599698 
   82300     843.0697   -161.47046   0.76282718   -160.70763   -13761.558    4.2510816    4.2510816    4.2510816   -13761.558   -17042.093   -1583.2843   -22659.297   -950.18472    701.93997   -2746.0914     76.82425 
   82400    897.33421   -161.51211   0.81192685   -160.70018   -13015.823    4.2344358    4.2344358    4.2344358   -13015.823    5871.5925   -26416.367   -18502.696   -6457.2877   -3806.8086   -6790.5319    75.925327 
   82500    795.03231   -161.42745   0.71936194   -160.70809   -16065.388    4.2450699    4.2450699    4.2450699   -16065.388    9098.2825   -34633.209   -22661.236   -1342.3121   -1863.3823   -7303.3257    76.498785 
   82600    661.09965   -161.30405   0.59817686   -160.70588    8902.9208    4.2531696    4.2531696    4.2531696    8902.9208   -3449.4211    34805.177   -4646.9937    7557.9993    2124.8876   -13017.132    76.937504 
   82700    542.48084    -161.1957   0.49084807   -160.70485    33800.183    4.2411401    4.2411401    4.2411401    33800.183    2334.5373    78603.382    20462.629    5027.3946    3410.3065   -17933.343    76.286529 
   82800    672.92284   -161.31626   0.60887472   -160.70739    865.87272    4.2480019    4.2480019    4.2480019    865.87272   -20646.057    15897.508    7346.1671   -5136.0398   -1043.8084    556.07652    76.657406 
   82900    1026.6071    -161.6313   0.92889571    -160.7024   -24143.903    4.2467912    4.2467912    4.2467912   -24143.903   -22710.132    -21668.67   -28052.908   -14682.497   -2552.6925    8143.1498    76.591877 
   83000    1033.8644   -161.63896   0.93546222    -160.7035   -2685.3749    4.2385248    4.2385248    4.2385248   -2685.3749    6637.1953    -14.57948   -14678.741   -11902.062    5796.3121    2715.8483    76.145487 
   83100     614.9181   -161.26522   0.55639081   -160.70883   -4852.5189    4.2516182    4.2516182    4.2516182   -4852.5189    23057.026   -38483.333    868.74987     1431.426    16459.683    689.07425    76.853343 
   83200    437.82573   -161.10471   0.39615392   -160.70856    25679.449    4.2418479    4.2418479    4.2418479    25679.449    66085.393   -26597.477    37550.429     4374.979    17558.872   -3626.8213    76.324727 
   83300    710.75769   -161.35379    0.6431085   -160.71068    12895.941    4.2466521    4.2466521    4.2466521    12895.941    36441.901   -17333.167     19579.09   -453.30194    15041.597    3483.3112    76.584355 
   83400    960.62917   -161.57452   0.86919746   -160.70532   -21207.422    4.2539203    4.2539203    4.2539203   -21207.422   -11148.403   -23023.232    -29450.63   -9185.7918    1191.1738    10818.195    76.978252 
   83500    758.40744    -161.3872   0.68622299   -160.70098   -2933.7383    4.2402845    4.2402845    4.2402845   -2933.7383   -13043.645    460.27464    3782.1558   -8099.0764    91.715771    1680.8749    76.240371 
   83600    697.56983   -161.34169   0.63117584   -160.71052     5216.965    4.2430951    4.2430951    4.2430951     5216.965   -31288.785    25534.733    21404.947   -5431.3253    8714.9672   -8109.5215    76.392076 
   83700    660.63067   -161.31197   0.59775252   -160.71422    14409.127     4.247131     4.247131     4.247131    14409.127   -32202.572    53225.758    22204.197    3716.6443    7850.3356   -15307.641    76.610266 
   83800    630.70107   -161.28119   0.57067158   -160.71052    11400.107    4.2452793    4.2452793    4.2452793    11400.107   -18397.812    21818.049    30780.085    83.090959    6233.8247   -11297.917    76.510106 
   83900    736.08036   -161.37441   0.66602098   -160.70839    -17820.32    4.2539452    4.2539452    4.2539452    -17820.32   -20075.431   -12217.875   -21167.654   -4930.7517   -3307.8763   -2018.3614    76.979604 
   84000    1199.1563    -161.7885    1.0850218   -160.70347   -21648.195    4.2435571    4.2435571    4.2435571   -21648.195   -24981.584   -13525.996   -26437.004   -3100.2378   -8744.6004    1357.6057    76.417028 
   84100    1039.0326   -161.64442   0.94013853   -160.70428   -1626.0407    4.2366429    4.2366429    4.2366429   -1626.0407   -4442.1104    -187.6957   -248.31605   -713.57556   -853.23321    2482.8346    76.044109 
   84200     581.2039   -161.23703    0.5258855   -160.71114    4269.7578    4.2476163    4.2476163    4.2476163    4269.7578    3678.6019   -9074.5683     18205.24    13202.237    3812.5944   -7632.1438    76.636529 
   84300    689.16886   -161.33219   0.62357446   -160.70862    10699.398    4.2509838    4.2509838    4.2509838    10699.398    3013.4235   -2567.5878    31652.359    6520.2606    5811.7299   -14410.762    76.818948 
   84400    1025.4857   -161.63629   0.92788098   -160.70841   -1730.2686    4.2485657    4.2485657    4.2485657   -1730.2686   -23243.477    21115.676   -3063.0052   -6470.5586     231.9079   -6120.8314    76.687931 
   84500     1022.162    -161.6292   0.92487369   -160.70432   -25520.403    4.2435813    4.2435813    4.2435813   -25520.403   -17469.034    -31564.59   -27527.584   -9582.1867   -10619.768   -1114.3422    76.418336 
   84600    850.05143   -161.47423    0.7691444   -160.70509   -13698.599    4.2414996    4.2414996    4.2414996   -13698.599    -8158.808    -32129.28   -807.70968   -9717.1475   -4052.6071    -6297.638     76.30593 
   84700    880.53015   -161.50662   0.79672218    -160.7099     6824.434    4.2491905    4.2491905    4.2491905     6824.434   -10911.213    10882.065     20502.45    -2440.591    1416.1031   -8714.8002    76.721769 
   84800    977.38956   -161.59184   0.88436262   -160.70748   -5289.7423    4.2510413    4.2510413    4.2510413   -5289.7423   -25243.609    41.547175    9332.8348     14497.08    7614.4536   -5098.5771    76.822064 
   84900    881.79196   -161.50133    0.7978639   -160.70347    -20558.92    4.2465909    4.2465909    4.2465909    -20558.92    8628.0387   -50689.096   -19615.702    9986.3036    9785.4116    2230.7802    76.581044 
   85000    1002.9722   -161.61323   0.90751032   -160.70572    -3576.557    4.2411942    4.2411942    4.2411942    -3576.557    46947.648   -40571.965   -17105.354    5580.8813    966.57818    6228.0367    76.289451 
   85100    1013.4418   -161.62923   0.91698344   -160.71224    18124.688    4.2432297    4.2432297    4.2432297    18124.688    44527.405     7522.485    2324.1733    5048.6225   -11408.533   -7137.8682    76.399344 
   85200    672.17696   -161.31901   0.60819984   -160.71081    9293.8304    4.2486899    4.2486899    4.2486899    9293.8304     37262.05   -19112.007    9731.4484    -8274.604   -12739.321   -5862.8668    76.694657 
   85300    829.64869   -161.45669   0.75068357   -160.70601   -1038.5059    4.2416401    4.2416401    4.2416401   -1038.5059    38196.334   -38923.666   -2388.1863   -496.40514   -5040.1305    7781.6041    76.313516 
   85400    1194.7048   -161.78812     1.080994   -160.70713   -14914.749     4.246138     4.246138     4.246138   -14914.749   -753.11106   -18621.873   -25369.264    16176.667    1555.6183    7757.9837    76.556541 
   85500    1018.0729   -161.62899   0.92117378   -160.70781   -14222.987    4.2489303    4.2489303    4.2489303   -14222.987   -33611.266    7281.2451    -16338.94    4589.9286     930.1726   -1836.8084    76.707673 
   85600    487.22264   -161.14926   0.44084928   -160.70842    9477.9512    4.2428921    4.2428921    4.2428921    9477.9512   -29739.568    27910.197    30263.224     3007.167   -2678.1044   -8609.7841    76.381112 
   85700    547.71131   -161.20703    0.4955807   -160.71145    18225.893    4.2449796    4.2449796    4.2449796    18225.893    -25798.58    40407.084    40069.176   -5716.3672    -7246.537   -16620.324    76.493901 
   85800    858.80471   -161.49079   0.77706455   -160.71373     13942.57    4.2466591    4.2466591    4.2466591     13942.57    -24022.48    52739.552    13110.637   -8688.2396   -11699.874   -7651.1294     76.58473 
   85900    861.79524    -161.4909   0.77977044   -160.71113   -11603.835     4.245128     4.245128     4.245128   -11603.835    -18044.21    -5067.583   -11699.711   -846.20094   -6838.5801    6222.1086    76.501927 
   86000    715.35338   -161.35748   0.64726678   -160.71021   -20697.951    4.2462544    4.2462544    4.2462544   -20697.951   -9807.9559   -32008.947    -20276.95   -3146.2418   -3543.8648    9394.8388    76.562839 
   86100     982.4042   -161.59992   0.88889996   -160.71102   -14100.883    4.2460538    4.2460538    4.2460538   -14100.883   -28497.839   -4097.7563    -9707.052   -6987.7525   -2313.1374    10259.702    76.551989 
   86200    790.69348   -161.42854   0.71543608    -160.7131    10572.944     4.241426     4.241426     4.241426    10572.944   -13286.998    41383.232    3622.5963    -19539.76   -10840.427    2572.7805    76.301956 
   86300    338.10568   -161.01996   0.30592513   -160.71403     5451.714     4.244008     4.244008     4.244008     5451.714   -9224.8375    307.97813    25272.001   -23105.878   -10345.164   -9219.5456    76.441393 
   86400    485.61832   -161.15365   0.43939766   -160.71425    9610.4042    4.2399813    4.2399813    4.2399813    9610.4042    -10125.16    1519.5735    37436.799   -12561.056   -4941.4757   -2940.4353    76.224017 
   86500    1004.8732    -161.6195    0.9092304   -160.71027   -1177.5385    4.2417454    4.2417454    4.2417454   -1177.5385   -23428.695    11751.223    8144.8568   -9233.6001    3711.4591   -9112.8588    76.319195 
   86600    961.46155   -161.57826   0.86995061   -160.70831   -10525.774    4.2455664    4.2455664    4.2455664   -10525.774    2883.0878   -24750.902   -9709.5064    2800.9483    12008.272    4934.2689    76.525628 
   86700    817.39781   -161.44468   0.73959872   -160.70508   -10192.896    4.2461419    4.2461419    4.2461419   -10192.896    31078.982   -49089.485   -12568.183    2263.6277    3395.3801    2513.5224    76.556754 
   86800    952.03512   -161.56759   0.86142139   -160.70617    10738.139    4.2392846    4.2392846    4.2392846    10738.139    52201.034   -6983.6092   -13003.008   -5971.3435   -4112.6806   -4180.3735    76.186449 
   86900      906.462   -161.53138   0.82018587   -160.71119    14010.733     4.240978     4.240978     4.240978    14010.733    52272.007    693.84507   -10933.654    1524.9609   -3566.2583   -2692.3929     76.27778 
   87000    798.81508      -161.43   0.72278467   -160.70722   -16052.708    4.2507872    4.2507872    4.2507872   -16052.708    30932.887   -56506.438   -22584.572    2842.8738   -558.73626   -4305.5369    76.808289 
   87100    1056.5224   -161.65994   0.95596364   -160.70398   -16456.585     4.242308     4.242308     4.242308   -16456.585    14688.024    -40685.98   -23371.799     7790.809    8267.5409    5354.0368    76.349569 
   87200    1227.6565   -161.81853    1.1108094   -160.70772   -9112.9472    4.2401412    4.2401412    4.2401412   -9112.9472   -15281.773    665.22912   -12722.298    12674.171    6198.8982     2652.257    76.232637 
   87300    865.94137   -161.49393   0.78352195   -160.71041   -2648.3582    4.2427325    4.2427325    4.2427325   -2648.3582   -26496.393    3188.9932    15362.325    3843.4122     3867.379   -6254.1609    76.372491 
   87400    559.87969   -161.21738   0.50659091   -160.71079    14269.253    4.2412335    4.2412335    4.2412335    14269.253   -10026.684    5702.4115    47132.031   -1768.2742   -7083.7848   -5166.4809    76.291569 
   87500    615.02412   -161.27057   0.55648675   -160.71408    15528.559    4.2483855    4.2483855    4.2483855    15528.559   -6741.8773    4329.4772    48998.076   -7997.5244   -10132.915   -13179.338    76.678174 
   87600    893.82099   -161.51923   0.80874802   -160.71049   -66.228114    4.2443373    4.2443373    4.2443373   -66.228114   -22258.671     11853.14    10206.846   -6023.7462   -1516.8084   -2777.6981    76.459185 
   87700     851.1359   -161.47519   0.77012565   -160.70506   -16879.057    4.2388546    4.2388546    4.2388546   -16879.057    -15210.21   -28897.237   -6529.7249   -907.13642   -2151.8051    12774.502    76.163267 
   87800    826.29948   -161.45575   0.74765314    -160.7081    -14418.29    4.2427731    4.2427731    4.2427731    -14418.29    1966.0457   -41213.777   -4007.1381    -7189.175   -4112.4138   -1018.6595    76.374682 
   87900    848.96114   -161.47818   0.76815788   -160.71002    6533.5099    4.2460697    4.2460697    4.2460697    6533.5099     22712.39    5386.4646   -8498.3248   -10007.469    -15272.15    2422.9994    76.552849 
   88000    525.42374   -161.18861   0.47541444    -160.7132    22090.869    4.2472849    4.2472849    4.2472849    22090.869    54700.922    3167.9536    8403.7303   -15213.026   -17816.889   -3883.7375    76.618594 
   88100    465.59691   -161.13564   0.42128187   -160.71435    9345.4911    4.2460585    4.2460585    4.2460585    9345.4911    45554.322   -20982.785    3464.9361   -11841.823   -8680.4088    -6203.175    76.552242 
   88200    913.27831   -161.53356   0.82635341    -160.7072   -13186.562    4.2406586    4.2406586    4.2406586   -13186.562   -285.93895   -26779.448   -12494.297   -1943.8353    1208.8919    10127.123    76.260549 
   88300    1026.6753   -161.63564    0.9289574   -160.70668   -22252.881    4.2446862    4.2446862    4.2446862   -22252.881   -30157.595   -21555.186   -15045.862   -8268.8045    3372.7264    2769.1304    76.478045 
   88400    551.19563   -161.20686   0.49873339   -160.70812   -3694.3111     4.249493     4.249493     4.249493   -3694.3111    -17802.15   -16287.896    23007.112    -6447.724    5936.3572   -4791.7256    76.738156 
   88500    518.04662    -161.1771   0.46873947   -160.70837    18869.131    4.2457157    4.2457157    4.2457157    18869.131    7265.1028   -3718.8998    53061.189   -4521.7479    -8392.346   -13971.939    76.533701 
   88600    970.83615   -161.58529   0.87843295   -160.70686    9249.2796    4.2459165    4.2459165    4.2459165    9249.2796   -8808.4209    6853.6808    29702.579   -5377.8789   -1482.2039   -7491.6823    76.544562 
   88700    1070.3442   -161.67125   0.96846991   -160.70278   -18293.052    4.2426873    4.2426873    4.2426873   -18293.052   -18637.414   -18885.624   -17356.118    2631.4941    1646.3611    8278.3649    76.370051 
   88800    1039.4327   -161.64191   0.94050054   -160.70141   -26124.321    4.2407397    4.2407397    4.2407397   -26124.321   -15203.993   -39118.493   -24050.477    6039.2504    236.57872    6065.1031    76.264924 
   88900    1126.3679   -161.72624    1.0191613   -160.70708   -17010.743    4.2503486    4.2503486    4.2503486   -17010.743   -25564.625   -9969.2334   -15498.371   -2076.6606    7338.1725    2975.5463    76.784517 
   89000    850.85455    -161.4792   0.76987108   -160.70933    8109.8029    4.2514778    4.2514778    4.2514778    8109.8029   -12636.147    30063.484     6902.072    2848.3524   -3603.2444   -4897.7271     76.84573 
   89100    413.00378     -161.082    0.3736945   -160.70831     12539.94    4.2473551    4.2473551    4.2473551     12539.94   -10290.314    13481.837    34428.298   -3229.0846   -1313.0632   -12557.903    76.622393 
   89200    650.55043   -161.29619    0.5886317   -160.70756    10854.107    4.2401162    4.2401162    4.2401162    10854.107   -11298.622    12127.364    31733.579   -253.83972    3864.0604   -10277.701     76.23129 
   89300    956.01548    -161.5744    0.8650229   -160.70937   -1602.3147    4.2441266    4.2441266    4.2441266   -1602.3147   -11818.923   -1152.3752     8164.354    7157.9734    8081.2414   -1337.4024    76.447802 
   89400    827.41703   -161.45806   0.74866431    -160.7094   -16324.847    4.2498619    4.2498619    4.2498619   -16324.847    12625.011   -37666.149   -23933.404    83.037361    6317.5361    5116.1328    76.758141 
   89500     497.1379   -161.16017   0.44982082   -160.71035      493.157    4.2476832    4.2476832    4.2476832      493.157     34346.13   -36855.946    3989.2871   -6127.6755    -4866.513    12420.108    76.640153 
   89600    620.18706   -161.27391   0.56115828   -160.71276    11834.499    4.2471003    4.2471003    4.2471003    11834.499     23431.64    10474.274    1597.5833   -7210.3239   -15247.449   -3678.6472    76.608603 
   89700    652.23607   -161.30182   0.59015691   -160.71166    8986.1188    4.2414787    4.2414787    4.2414787    8986.1188    8797.2013    26214.109   -8052.9538   -3730.2816   -20739.338   -4995.1786    76.304801 
   89800    653.96124   -161.29914   0.59171787   -160.70742   -4461.5017    4.2376792    4.2376792    4.2376792   -4461.5017     10418.73   -18961.663   -4841.5727     7258.018   -13949.243    -7001.455    76.099924 
   89900    909.61087   -161.52958   0.82303503   -160.70655   -24631.163    4.2497525    4.2497525    4.2497525   -24631.163   -101.01445   -54625.144    -19167.33    6885.7042   -277.12768   -2769.1015    76.752213 
   90000    1116.3864   -161.71464    1.0101299   -160.70451   -20394.899    4.2503224    4.2503224    4.2503224   -20394.899    -22492.93   -4162.7615   -34529.005   -2124.4025    3996.0058    9005.7207    76.783097 
   90100    702.15141   -161.34368   0.63532135   -160.70836    13774.452    4.2419935    4.2419935    4.2419935    13774.452    15632.216    49227.454   -23536.314   -6897.0813    666.28052   -5550.6373    76.332588 
   90200     406.4445   -161.08009   0.36775953   -160.71233    25087.362    4.2478553    4.2478553    4.2478553    25087.362    46803.808    42126.305   -13668.028   -15402.266   -1847.1811   -7402.3394     76.64947 
   90300    654.62709   -161.30219   0.59232034   -160.70987    24497.142    4.2461986    4.2461986    4.2461986    24497.142    42228.653    44641.913   -13379.139    -13610.67   -1405.4605    -919.7871    76.559818 
   90400    923.20479   -161.54345    0.8353351   -160.70812    5320.8481    4.2457048    4.2457048    4.2457048    5320.8481    8029.0919    42703.242    -34769.79    1237.2817    6468.0927   -646.47569    76.533112 
   90500    943.14108   -161.55932   0.85337387   -160.70594   -32420.055    4.2543216    4.2543216    4.2543216   -32420.055   -37850.844   -23825.274   -35584.048    8444.9085    9914.9463    10944.786     77.00004 
   90600    952.04758   -161.56528   0.86143266   -160.70384   -19254.977    4.2468938    4.2468938    4.2468938   -19254.977   -25136.172    -34708.05    2079.2897    7575.1966    5457.5915    2615.9268    76.597432 
   90700    859.17881   -161.48476   0.77740304   -160.70736   -1169.7986    4.2451332    4.2451332    4.2451332   -1169.7986    3186.5036    188.30596   -6884.2054    653.62884   -1223.2396   -4454.9775    76.502206 
   90800    496.49324   -161.15893   0.44923752   -160.70969    13740.687    4.2459406    4.2459406    4.2459406    13740.687    30896.753    22806.734   -12481.426    -9679.119   -8169.1719   -1294.5017    76.545865 
   90900    506.54796   -161.16892   0.45833524   -160.71059    16866.647    4.2438004    4.2438004    4.2438004    16866.647    21673.403    3520.2184    25406.319   -6271.1793    312.20205   -4597.2629    76.430175 
   91000     847.5689   -161.47521   0.76689815   -160.70831   -12956.171    4.2512909    4.2512909    4.2512909   -12956.171   -19158.411   -22773.103    3063.0013    5884.7846    13664.288    7522.9711    76.835597 
   91100     985.1643   -161.59497   0.89139736   -160.70357   -17508.529    4.2439308    4.2439308    4.2439308   -17508.529   -38653.632    5912.8228   -19784.778     9976.235    19546.286    7362.8985    76.437217 
   91200    710.40472   -161.35087   0.64278912   -160.70808   -4581.7063    4.2417014    4.2417014    4.2417014   -4581.7063   -13514.545    1070.0452   -1300.6193   -450.83985    11578.801    2117.6599    76.316822 
   91300    332.80783   -161.01435   0.30113152   -160.71322    20590.459    4.2469824    4.2469824    4.2469824    20590.459    21488.544    1841.2714    38441.561   -11281.495   -3007.5855   -1405.3917    76.602227 
   91400    597.52605   -161.25179   0.54065412   -160.71114    16133.572    4.2448728    4.2448728    4.2448728    16133.572    3413.0514    15927.306    29060.358   -11071.922    2536.2852   -9868.8829     76.48813 
   91500    726.81326     -161.367   0.65763592   -160.70937   -6369.6799    4.2442138    4.2442138    4.2442138   -6369.6799   -28895.807    8410.2034     1376.564    5741.5825    16539.543    2572.2675     76.45251 
   91600    842.31136   -161.46969   0.76214102   -160.70755   -25800.756    4.2468277    4.2468277    4.2468277   -25800.756   -35719.849   -33384.989   -8297.4312    5620.6458     21543.84    8382.6513    76.593856 
   91700    716.86883     -161.358   0.64863798   -160.70936   -2509.5218    4.2415387    4.2415387    4.2415387   -2509.5218    8670.8303   -2724.9998   -13474.396    -560.1932    16680.373    1079.7324    76.308041 
   91800    507.54363   -161.17234   0.45923614    -160.7131    18545.316     4.243982     4.243982     4.243982    18545.316    43027.755     32945.54   -20337.346   -11457.152    6830.3843   -333.90539    76.439987 
   91900    542.91609    -161.2039   0.49124189   -160.71266    5611.4992    4.2512018    4.2512018    4.2512018    5611.4992     15384.32    7948.0191   -6497.8412   -11700.295    1050.2521   -10958.398    76.830768 
   92000    719.84881   -161.36008   0.65133433   -160.70874   -2614.6338    4.2442358    4.2442358    4.2442358   -2614.6338    -16041.55   -25209.396    33407.045    2144.5155    9463.7112   -11299.353    76.453699 
   92100    765.06615    -161.4017   0.69224793   -160.70945   -8723.3782    4.2442916    4.2442916    4.2442916   -8723.3782   -34445.427   -21799.668     30074.96    7823.3996     7243.792   -5367.2694    76.456717 
   92200    518.64775    -161.1843   0.46928338   -160.71502    8901.3196    4.2489025    4.2489025    4.2489025    8901.3196   -24020.722    6987.9188    43736.762    4613.2891    12129.019    3626.6002    76.706168 
   92300    439.79298   -161.11181   0.39793393   -160.71388    30403.563    4.2454247    4.2454247    4.2454247    30403.563    17.977394    13677.429    77515.282   -3119.8079      13506.2    18649.827    76.517967 
   92400    645.49469   -161.29594   0.58405716   -160.71189    13054.546    4.2508747    4.2508747    4.2508747    13054.546   -2060.0588   -17006.502    58230.198    -1271.905    5260.6231    5704.9155    76.813032 
   92500    953.75594   -161.56826   0.86297842   -160.70528   -23600.791    4.2505901    4.2505901    4.2505901   -23600.791   -24468.289   -31429.328   -14904.754    8971.8236   -842.00241   -9326.7887    76.797608 
   92600    1001.0931   -161.60787   0.90581009   -160.70206   -4247.5452    4.2363119    4.2363119    4.2363119   -4247.5452    6886.9725   -2656.8123   -16972.796    3722.8918   -2472.9931   -12400.652    76.026286 
   92700     911.9137   -161.53817   0.82511868   -160.71305   -7277.0507    4.2503576    4.2503576    4.2503576   -7277.0507    11734.016    -21192.96   -12372.208   -878.52734   -3524.1807   -8375.8621    76.785004 
   92800    590.47851   -161.24501   0.53427737   -160.71073    6277.6428     4.253342     4.253342     4.253342    6277.6428    16787.076     15650.42   -13604.567   -7100.2683    3053.3566    1275.1768    76.946863 
   92900    602.07486   -161.25252   0.54476999   -160.70775    22100.015    4.2393027    4.2393027    4.2393027    22100.015     39207.93    37043.572   -9951.4586   -10124.697     1610.634    6812.1834    76.187425 
   93000    949.96695    -161.5686   0.85955006   -160.70905    -5072.778    4.2447141    4.2447141    4.2447141    -5072.778    20555.564   -6661.6964   -29112.201   -625.05202   -3162.8286   -7333.0094     76.47955 
   93100    1111.4455   -161.70962    1.0056593   -160.70396   -21913.753    4.2488595    4.2488595    4.2488595   -21913.753    3126.7085   -46683.667   -22184.301    6968.8036   -5188.2149   -5722.0181     76.70384 
   93200    847.90413   -161.47102   0.76720148   -160.70382   -14455.212    4.2483144    4.2483144    4.2483144   -14455.212   -20541.216   -2187.8004   -20636.621    1035.1736   -7366.1396    1500.4214    76.674323 
   93300     730.5793   -161.36984    0.6610435    -160.7088    4875.2488    4.2470559    4.2470559    4.2470559    4875.2488   -29549.664    33535.419    10639.991   -3364.0159    6818.9118    9809.6658      76.6062 
   93400    947.46849   -161.56836    0.8572894   -160.71107   -181.33548    4.2469994    4.2469994    4.2469994   -181.33548   -16799.495    9812.3795    6443.1093    -7598.815    6612.5566    4831.5281    76.603143 
   93500    823.51357    -161.4558   0.74513239   -160.71066   -12814.394    4.2489485    4.2489485    4.2489485   -12814.394    1195.4952   -1416.8648   -38221.813    -13985.06    6105.3153   -7559.0319     76.70866 
   93600    802.59448   -161.43665   0.72620435   -160.71045   -12087.782     4.248063     4.248063     4.248063   -12087.782    24102.229   -12618.862   -47746.713   -9123.6788    3833.0381    1193.8964    76.660711 
   93700    744.27589   -161.38656   0.67343647   -160.71312    10586.999    4.2446736    4.2446736    4.2446736    10586.999    36442.787   -18972.284    14290.495   -8026.7759   -7168.8201    2317.9877    76.477361 
   93800     544.2756   -161.20662     0.492472   -160.71414    22025.119    4.2432283    4.2432283    4.2432283    22025.119    55384.507   -7457.1159    18147.965   -3835.0233   -9493.0476    5929.4764    76.399268 
   93900    579.86204   -161.23675   0.52467136   -160.71208    13569.674    4.2433486    4.2433486    4.2433486    13569.674    48524.496    3627.8073   -11443.281    4799.5984    -6506.927    8871.4897    76.405765 
   94000    933.07423   -161.55564   0.84426517   -160.71137   -13157.046    4.2488673    4.2488673    4.2488673   -13157.046    9129.3228   -29339.908   -19260.553   -8410.2634    2107.2495   -1247.8604    76.704262 
   94100    1201.4834   -161.79552    1.0871274    -160.7084   -36351.331    4.2504041    4.2504041    4.2504041   -36351.331   -34557.108   -50309.513   -24187.372   -8724.3847    7518.7228    6767.9009    76.787523 
   94200    997.78263   -161.60909   0.90281469   -160.70627   -20644.119    4.2431834    4.2431834    4.2431834   -20644.119   -18202.323   -21198.837   -22531.196    4615.3455    7250.4806    3721.6927    76.396842 
   94300    798.18561   -161.43324   0.72221511   -160.71103    6462.6735    4.2429385    4.2429385    4.2429385    6462.6735    22479.301    10763.052   -13854.332     7456.307   -827.62929    3913.3278    76.383617 
   94400    760.08725   -161.40098   0.68774292   -160.71323    9032.9569    4.2510964    4.2510964    4.2510964    9032.9569    21885.128   -8261.6881     13475.43    10661.886   -7597.9568    6805.9463    76.825053 
   94500    821.50724   -161.45527   0.74331702   -160.71195    4336.0046    4.2484688    4.2484688    4.2484688    4336.0046   -1360.4966   -6653.0228    21021.533    811.15596   -6879.0626    1704.9255    76.682686 
   94600     986.3856   -161.59886   0.89250242   -160.70636   -16297.087    4.2448598    4.2448598    4.2448598   -16297.087   -15814.227   -15808.534     -17268.5   -7629.8426   -1709.3016   -592.32831    76.487429 
   94700     1070.047    -161.6734   0.96820101    -160.7052   -15937.405    4.2422403    4.2422403    4.2422403   -15937.405   -4286.5776   -17774.578   -25751.058   -5213.7233    3487.3879   -283.92571    76.345915 
   94800    917.23427   -161.53998   0.82993285   -160.71005    -5950.665    4.2471391    4.2471391    4.2471391    -5950.665    23257.728   -31246.025   -9863.6987   -1018.2423    1108.3697   -1375.9191    76.610705 
   94900    515.11106   -161.17636   0.46608332   -160.71028    15035.405    4.2503218    4.2503218    4.2503218    15035.405    59440.831    -4175.827   -10158.789     3692.382   -4384.9997   -652.10188    76.783067 
   95000    568.46041   -161.22213   0.51435493   -160.70778    17066.813    4.2453917    4.2453917    4.2453917    17066.813    75778.925    8934.1786   -33512.664    12978.163   -6805.2614     -1784.09    76.516182 
   95100    885.33576   -161.50893    0.8010704   -160.70786    460.14725    4.2423777    4.2423777    4.2423777    460.14725     52344.71   -27169.144   -23795.125   -1396.8295    2205.2666   -7761.9311    76.353333 
   95200    939.53924   -161.55825   0.85011485   -160.70814    -13110.39    4.2447418    4.2447418    4.2447418    -13110.39    3081.5062    -44343.02    1930.3433    -8320.642    7436.9205   -8076.8323     76.48105 
   95300    792.36288   -161.42602   0.71694659   -160.70907   -7671.5803    4.2459473    4.2459473    4.2459473   -7671.5803   -25015.911   -4584.3087    6585.4785   -3122.0152    8893.0868    1165.7401    76.546227 
   95400    763.78555   -161.40563   0.69108922   -160.71454    6235.1096    4.2485047    4.2485047    4.2485047    6235.1096    -21403.42    15780.257    24328.493   -3084.6432     -404.488    6824.0194    76.684624 
   95500    536.15212    -161.1995   0.48512171   -160.71437    16336.077    4.2506685    4.2506685    4.2506685    16336.077   -7770.9265    5358.9529    51420.205    7539.3224   -4149.0082    11324.965    76.801854 
   95600    622.17588   -161.27158   0.56295782   -160.70862    2416.5936    4.2472556    4.2472556    4.2472556    2416.5936   -12305.726    14960.794    4594.7134    2129.0754    262.97314    6620.2701    76.617011 
   95700    1035.1658   -161.63848    0.9366398   -160.70184   -20675.218    4.2470274    4.2470274    4.2470274   -20675.218   -18798.035   -5892.2681   -37335.351   -9673.4041    2584.0741   -8185.0967    76.604659 
   95800    996.45682    -161.6028   0.90161507   -160.70118   -8545.1578    4.2484576    4.2484576    4.2484576   -8545.1578    4035.5418   -24238.865   -5432.1505   -4912.7137   -120.63882   -8376.6952    76.682076 
   95900    639.94327   -161.28388   0.57903412   -160.70484    6833.2914    4.2489455    4.2489455    4.2489455    6833.2914    29620.368   -38620.854     29500.36   -739.67899   -11134.563    1655.2218    76.708496 
   96000    526.65266   -161.18598   0.47652639   -160.70945    8212.7802    4.2507782    4.2507782    4.2507782    8212.7802    25034.446   -7615.2634    7219.1583    1719.6196   -10991.759    10913.394    76.807803 
   96100    707.15055   -161.35148   0.63984468   -160.71163      3311.71    4.2461431    4.2461431    4.2461431      3311.71    18508.262   -17718.602    9145.4704    2519.3407   -3562.1182    12149.138    76.556818 
   96200    987.62859   -161.60061    0.8936271   -160.70699   -15032.726    4.2444515    4.2444515    4.2444515   -15032.726    11004.998   -45103.068   -11000.108   -11694.921    7613.0594   -327.90269    76.465361 
   96300    899.39971    -161.5184   0.81379576   -160.70461   -24703.664     4.249248     4.249248     4.249248   -24703.664   -24783.839   -9639.8233    -39687.33   -10637.082    8091.0784   -2479.9601    76.724882 
   96400    640.87615   -161.28556   0.57987821   -160.70569    5249.4054    4.2495497    4.2495497    4.2495497    5249.4054    -27476.34     48442.03   -5217.4735   -4063.7238    3396.1178    9262.0163    76.741228 
   96500    596.68675   -161.24872   0.53989471   -160.70882    23415.174    4.2501555    4.2501555    4.2501555    23415.174   -16338.538     60990.87    25593.189    3925.6531   -8882.5749    18706.237    76.774052 
   96600    654.33058    -161.2992   0.59205206   -160.70715    7440.8037    4.2503774    4.2503774    4.2503774    7440.8037   -7419.8071     27585.37    2156.8476    9274.9696    1038.1345    1417.0042    76.786078 
   96700    900.61964   -161.51559   0.81489958   -160.70069   -23705.967    4.2468394    4.2468394    4.2468394   -23705.967   -21025.922   -3122.3095    -46969.67    -551.1624    8576.5705   -4816.4014    76.594487 
   96800    1190.5281   -161.77709    1.0772148   -160.69988   -25621.369    4.2460157    4.2460157    4.2460157   -25621.369    -17167.23   -29979.448   -29717.428   -2180.8515     6571.169   -12325.388    76.549928 
   96900    904.04848   -161.52298   0.81800206   -160.70498   -7005.3448    4.2526382    4.2526382    4.2526382   -7005.3448     9119.282   -24130.075   -6005.2408    7292.6608   -1890.2733   -6958.9673    76.908671 
   97000    502.08638   -161.15866   0.45429831   -160.70437    12107.354    4.2529561    4.2529561    4.2529561    12107.354    14289.486     28503.85   -6471.2733    11143.825   -9484.1792     6669.972     76.92592 
   97100    789.82673   -161.41672   0.71465182   -160.70207    1828.3872    4.2510126    4.2510126    4.2510126    1828.3872   -15284.622    26825.006   -6055.2228    1705.4631    -2219.732     10563.17    76.820506 
   97200    1148.7215   -161.73907    1.0393874   -160.69969   -15399.549    4.2442863    4.2442863    4.2442863   -15399.549   -29649.114     -19730.5    3180.9683   -6074.1078    8165.8241   -5018.7331    76.456432 
   97300    1004.3862   -161.61069   0.90878974    -160.7019   -17686.425    4.2406201    4.2406201    4.2406201   -17686.425   -16562.038   -21849.772   -14647.464   -4711.9178    12716.533   -3582.4311    76.258475 
   97400    616.91219   -161.26765   0.55819511   -160.70945   -6852.7848    4.2520238    4.2520238    4.2520238   -6852.7848   -7692.5327    9511.6854   -22377.507    3278.0264       8476.8    2227.6243     76.87534 
   97500    576.14094    -161.2293   0.52130443     -160.708    19988.108    4.2508422    4.2508422    4.2508422    19988.108    19504.454    42205.069   -1745.1987    12210.867    1533.5463    12649.162    76.811273 
   97600     538.3104   -161.19399   0.48707456   -160.70692    19536.324    4.2457046    4.2457046    4.2457046    19536.324    23537.875    47033.088   -11961.991    13095.626    5350.2115    15251.199    76.533105 
   97700    581.16637   -161.23191   0.52585154   -160.70606   -8361.4226    4.2430046    4.2430046    4.2430046   -8361.4226     14154.61    7610.8876   -46849.765    819.88221    11557.092    818.03974    76.387184 
   97800    938.36276   -161.55317   0.84905034   -160.70412   -18435.592    4.2453941    4.2453941    4.2453941   -18435.592   -15500.419   -18866.319    -20940.04   -8770.3077    9815.2829    1385.8128    76.516316 
   97900     1093.817   -161.69234    0.9897086   -160.70263   -15422.401     4.252953     4.252953     4.252953   -15422.401   -23193.217   -36452.645     13378.66   -7418.5283    689.50961   -328.35984    76.925751 
   98000    554.50542   -161.20611   0.50172816   -160.70438    22112.111    4.2468527    4.2468527    4.2468527    22112.111    13384.982    8610.1645    44341.186     4019.756   -12526.115    11769.997    76.595209 
   98100    516.01584   -161.17418   0.46690198   -160.70728     13144.65    4.2497678    4.2497678    4.2497678     13144.65    6186.2901    19998.918    13248.743    6707.5014   -8276.1987    10859.259    76.753043 
   98200    1030.9313   -161.63839   0.93280829   -160.70559   -12379.555    4.2493092    4.2493092    4.2493092   -12379.555   -15340.825   -26295.972    4498.1309   -5028.9233     5901.858   -6969.1293    76.728196 
   98300    1258.5123   -161.83948    1.1387283   -160.70075   -18894.703    4.2418631    4.2418631    4.2418631   -18894.703   -28573.225   -28515.353    404.46869   -6180.4031    9351.5911   -6745.7792     76.32555 
   98400    764.39922   -161.39833   0.69164448   -160.70668   -8467.9059    4.2492325    4.2492325    4.2492325   -8467.9059    1279.8092    10071.028   -36754.555   -1030.2789    6028.5459   -6735.3282    76.724043 
   98500    672.36899   -161.31764   0.60837359   -160.70927    11792.185    4.2491397    4.2491397    4.2491397    11792.185    22583.202     38929.78   -26136.426    9815.9263   -4292.9563    3758.0263    76.719017 
   98600    709.77366   -161.35271   0.64221813   -160.71049    23290.978    4.2459024    4.2459024    4.2459024    23290.978    4148.5769    55386.441    10337.915    12113.835   -10388.542     9274.781    76.543803 
   98700    730.29619   -161.36841   0.66078734   -160.70762    3368.1188    4.2457439    4.2457439    4.2457439    3368.1188   -18436.301    27377.176    1163.4811    4092.5928    1899.0763    1755.8965    76.535227 
   98800    854.49885   -161.47656   0.77316851    -160.7034   -20730.324     4.245159     4.245159     4.245159   -20730.324   -18852.952   -6293.7377   -37044.281   -936.82595    4217.4194   -4787.9733    76.503601 
   98900    1083.1216    -161.6852   0.98003116   -160.70517   -20621.019    4.2478534    4.2478534    4.2478534   -20621.019    -10185.31   -30548.446     -21129.3   -2617.0921     7243.708   -5285.7655    76.649363 
   99000     886.1616   -161.50915   0.80181764   -160.70733    2634.5412    4.2475539    4.2475539    4.2475539    2634.5412    17834.707   -24096.383      14165.3    2544.8053   -6847.6751    5883.7648    76.633153 
   99100    453.67356   -161.11685   0.41049337   -160.70635    11711.087    4.2441093    4.2441093    4.2441093    11711.087    47545.523    3746.5891    -16158.85    11126.554   -14213.742    11752.914    76.446864 
   99200    626.70251   -161.27537    0.5670536   -160.70832    316.15584     4.247602     4.247602     4.247602    316.15584    51075.851   -10133.018   -39994.365    7857.4752   -8626.6933    2252.0131    76.635759 
   99300    1054.0873   -161.66139   0.95376033   -160.70763   -11084.204    4.2504666    4.2504666    4.2504666   -11084.204    40918.163   -46973.028   -27197.748    3596.4404    882.51157   -7894.2117    76.790913 
   99400    636.53638   -161.28624   0.57595149   -160.71029     11153.94     4.245669     4.245669     4.245669     11153.94    52143.532   -7922.4121   -10759.298   -5253.9477    3805.2257   -741.80933     76.53118 
   99500    387.19951    -161.0605   0.35034626   -160.71015    14532.206    4.2481395    4.2481395    4.2481395    14532.206    52250.025    10072.553    -18725.96   -9965.4333    10480.638    7206.1565    76.664852 
   99600    842.25775   -161.47066   0.76209251   -160.70857    5497.5925    4.2444345    4.2444345    4.2444345    5497.5925    40446.925   -21133.701   -2820.4469   -5013.8888    3807.4752   -967.60381    76.464438 
   99700    1087.2084   -161.68884     0.983729   -160.70511   -12560.572    4.2412731    4.2412731    4.2412731   -12560.572    6566.6971   -44171.874   -76.540988   -6158.6155   -9007.3124   -8037.1742    76.293706 
   99800    748.55859   -161.38453   0.67731154   -160.70722   -15895.223    4.2401675    4.2401675    4.2401675   -15895.223   -15868.403   -11616.588   -20200.679   -4907.4571   -3440.8772   -3844.0796    76.234059 
   99900    612.61369   -161.26543   0.55430574   -160.71112    3119.5331    4.2405701    4.2405701    4.2405701    3119.5331   -16882.536    23022.029    3219.1065   -7422.0699   -1854.1971    1021.3975    76.255775 
  100000    686.03997   -161.33422   0.62074338   -160.71348    15989.505     4.247588     4.247588     4.247588    15989.505      6517.35    20009.923    21441.242   -15583.083    10656.425    8516.4109    76.634999 
Loop time of 46.5815 on 1 procs for 100000 steps with 8 atoms

Pair  time (%) = 16.0722 (34.5035)
Kspce time (%) = 11.5182 (24.7269)
Neigh time (%) = 0 (0)
Comm  time (%) = 2.39615 (5.14398)
Outpt time (%) = 0.0751119 (0.161248)
Other time (%) = 16.5199 (35.4644)

Nlocal:    8 ave 8 max 8 min
Histogram: 1 0 0 0 0 0 0 0 0 0
Nghost:    2189 ave 2189 max 2189 min
Histogram: 1 0 0 0 0 0 0 0 0 0
Neighs:    2472 ave 2472 max 2472 min
Histogram: 1 0 0 0 0 0 0 0 0 0

Total # of neighbors = 2472
Ave neighs/atom = 309
Neighbor list builds = 0
Dangerous builds = 0
unfix 20
unfix 21
print "seeds:8044533"
seeds:8044533
