LAMMPS (10 Feb 2015)
# ---- initialize simulations
clear
units metal
dimension 3
boundary p p p
atom_style charge
atom_modify map array
# ---- create atoms
read_data /Users/eugeneragasa/pyflamestk_git/pypospack/tests/tests_integration/workflow/WorkflowLammpsThermalExpansion/param_5091/MgO_NaCl_unit.npt.T1600/lammps.structure
  triclinic box = (0 0 0) to (4.2565 4.2565 4.2565) with tilt (0 0 0)
  1 by 1 by 1 MPI processor grid
  reading atoms ...
  8 atoms
# ---- define interatomic potential
include potential.mod
mass 1 24.305
mass 2 15.999

group Mg type 1
4 atoms in group Mg
group O type 2
4 atoms in group O

set group Mg charge 1.60395442224
  4 settings made for charge
set group O charge -1.60395442224
  4 settings made for charge

variable R_cut equal 10.0

pair_style buck/coul/long ${R_cut}
pair_style buck/coul/long 10
pair_coeff 1 1 0.0 0.5 0.0 ${R_cut}
pair_coeff 1 1 0.0 0.5 0.0 10
pair_coeff 1 2 1640.33364459 0.274285748818 0.0 ${R_cut}
pair_coeff 1 2 1640.33364459 0.274285748818 0.0 10
pair_coeff 2 2 138.503876614 0.167383398543 15.9463705464 ${R_cut}
pair_coeff 2 2 138.503876614 0.167383398543 15.9463705464 10

kspace_style pppm 1.0e-5

neighbor 1.0 bin
neigh_modify every 1 delay 0 check yes
# ---- define settings
compute eng all pe/atom
compute eatoms all reduce sum c_eng
# ---- run minimization
reset_timestep 0
fix 1 all box/relax iso 0.0 vmax 0.001
thermo 10
thermo_style custom step pe lx ly lz xy xz yz press pxx pyy pzz pxy pxz pyz c_eatoms
min_style cg
minimize 1e-25 1e-25 5000 10000
PPPM initialization ...
  G vector (1/distance) = 0.352384
  grid = 8 8 8
  stencil order = 5
  estimated absolute RMS force accuracy = 3.76636e-05
  estimated relative force accuracy = 2.6156e-06
  using double precision FFTs
  3d grid and FFT values/proc = 3375 512
Neighbor list info ...
  1 neighbor list requests
  update every 1 steps, delay 0 steps, check yes
  master list distance cutoff = 11
Memory usage per processor = 4.06549 Mbytes
Step PotEng Lx Ly Lz Xy Xz Yz Press Pxx Pyy Pzz Pxy Pxz Pyz eatoms 
       0   -105.40733       4.2565       4.2565       4.2565            0            0            0    42357.047    42357.047    42357.047    42357.047 -5.4591187e-11 1.2697943e-10 -3.1158894e-11   -105.40733 
      10   -105.43209    4.2922445    4.2922445    4.2922445            0            0            0   -4.9211524   -4.9211524   -4.9211524   -4.9211524 1.7090498e-11 -3.1779622e-11 -1.1443831e-10   -105.43209 
      12   -105.43209    4.2922402    4.2922402    4.2922402            0            0            0  -0.19512063  -0.19512063  -0.19512063  -0.19512063 3.2638439e-11 -8.1058727e-11 1.6032595e-10   -105.43209 
Loop time of 0.0108731 on 1 procs for 12 steps with 8 atoms

Minimization stats:
  Stopping criterion = linesearch alpha is zero
  Energy initial, next-to-last, final = 
        -105.407331285      -105.43208818      -105.43208818
  Force two-norm initial, final = 6.11638 6.94804e-05
  Force max component initial, final = 6.11638 2.86507e-05
  Final line search alpha, max atom move = 0.5 1.43253e-05
  Iterations, force evaluations = 12 25

Pair  time (%) = 0.00310087 (28.5188)
Kspce time (%) = 0.00183725 (16.8973)
Neigh time (%) = 0 (0)
Comm  time (%) = 0.000380039 (3.49523)
Outpt time (%) = 2.19345e-05 (0.201732)
Other time (%) = 0.00553298 (50.887)

Nlocal:    8 ave 8 max 8 min
Histogram: 1 0 0 0 0 0 0 0 0 0
Nghost:    2189 ave 2189 max 2189 min
Histogram: 1 0 0 0 0 0 0 0 0 0
Neighs:    2344 ave 2344 max 2344 min
Histogram: 1 0 0 0 0 0 0 0 0 0

Total # of neighbors = 2344
Ave neighs/atom = 293
Neighbor list builds = 0
Dangerous builds = 0
unfix 1
# ---- define output variables ----
variable natoms equal "count(all)"
variable tot_energy equal "c_eatoms"
variable length_x equal "lx"
variable length_y equal "ly"
variable length_z equal "lz"
variable tilt_xy equal "xy"
variable tilt_xz equal "xz"
variable tilt_yz equal "yz"
variable tot_press equal "press"
variable press_xx equal "pxx"
variable press_yy equal "pyy"
variable press_zz equal "pzz"
variable press_xy equal "pxy"
variable press_xz equal "pxz"
variable press_yz equal "pyz"

# ---- output ----
print "pypospack:output_section:begin"
pypospack:output_section:begin
print "tot_energy = ${tot_energy}"
tot_energy = -105.432088180201
print "num_atoms = ${natoms}"
num_atoms = 8
print "xx = ${length_x}"
xx = 4.29224022422512
print "yy = ${length_y}"
yy = 4.29224022422512
print "zz = ${length_z}"
zz = 4.29224022422512
print "xy = ${tilt_xy}"
xy = 0
print "xz = ${tilt_xz}"
xz = 0
print "yz = ${tilt_yz}"
yz = 0
print "tot_press = ${tot_press}"
tot_press = -0.195120630166908
print "pxx = ${press_xx}"
pxx = -0.195120630011552
print "pyy = ${press_yy}"
pyy = -0.195120630547228
print "pzz = ${press_zz}"
pzz = -0.195120629941943
print "pxy = ${press_xy}"
pxy = 3.26384388476247e-11
print "pxz = ${press_xz}"
pxz = -8.10587270505021e-11
print "pyz = ${press_yz}"
pyz = 1.60325951029016e-10
print "pypospack:output_section:done"
pypospack:output_section:done
print "pypospack:lammps_sim:done"
pypospack:lammps_sim:done
#------------------------------------------------------------------------------
# RUN THERMOSTAT
# running using an NPT Nose-Hoover style thermostat
#------------------------------------------------------------------------------
variable tempdamp equal 0.1
variable pressdamp equal 1.0
# set initial velocities
velocity all create 1600 2242655 mom yes dist gaussian loop all
# fix for Nose-Hoover style thermostat
fix 20 all npt temp 1600 1600 0.1 aniso 0.0 0.0 1.0 drag 1.0 couple xyz
variable boxx equal lx
variable boxy equal ly
variable boxz equal lz
variable boxp equal press
variable boxt equal temp
# calculate averages every 10000 steps
reset_timestep 0
fix 21 all ave/time 10 10 100 v_boxx v_boxy v_boxz v_boxp v_boxt file lattice.out
thermo_style custom step temp pe ke etotal press lx ly lz press pxx pyy pzz pxy pxz pyz vol
thermo_modify flush yes
thermo 100
run 100000
PPPM initialization ...
  G vector (1/distance) = 0.352034
  grid = 8 8 8
  stencil order = 5
  estimated absolute RMS force accuracy = 3.82705e-05
  estimated relative force accuracy = 2.65774e-06
  using double precision FFTs
  3d grid and FFT values/proc = 3375 512
Memory usage per processor = 3.06549 Mbytes
Step Temp PotEng KinEng TotEng Press Lx Ly Lz Press Pxx Pyy Pzz Pxy Pxz Pyz Volume 
       0         1600   -105.43209    1.4477136   -103.98438     19553.35    4.2922402    4.2922402    4.2922402     19553.35    13134.641    31120.806    14404.602   -6934.2426   -495.34014    8391.6355    79.077342 
     100    804.75525   -104.55466   0.72815947    -103.8265    17294.422    4.3334252    4.3334252    4.3334252    17294.422    23191.926    4520.5247    24170.815    8067.1347    5181.7005   -753.63446    81.375547 
     200    830.37269   -104.17573   0.75133866   -103.42439   -9833.2255    4.3925629    4.3925629    4.3925629   -9833.2255   -41085.478    37655.888   -26070.086   -6012.2875   -261.72504   -10142.352    84.752781 
     300    1326.1298   -104.26608    1.1999101   -103.06617   -14735.103    4.3923034    4.3923034    4.3923034   -14735.103   -57597.007    48838.414   -35446.717   -7666.1566    -4496.059    16433.146    84.737763 
     400     1442.565   -104.07233    1.3052631   -102.76707    26145.261    4.3589457    4.3589457    4.3589457    26145.261    68901.115    15661.553   -6126.8847    21051.639    2122.4778   -4393.6091    82.821744 
     500    1779.9516   -104.23143    1.6105376   -102.62089   -5255.7027    4.3745313    4.3745313    4.3745313   -5255.7027    3046.9353   -15766.115   -3047.9283   -14606.158   -5439.0805    5014.9236    83.713322 
     600    1403.6208   -103.78113    1.2700256    -102.5111     5397.151    4.4065347    4.4065347    4.4065347     5397.151   -40284.575    108596.78   -52120.756    5294.8751    6502.1833    3905.5852      85.5641 
     700    2173.4587   -104.40556    1.9665911   -102.43897   -39490.863    4.4215172    4.4215172    4.4215172   -39490.863   -30694.017   -46553.704   -41224.867   -6878.8958     5650.696     1417.038    86.439839 
     800    1218.8778   -103.50643    1.1028662   -102.40357    1090.2932    4.3997938    4.3997938    4.3997938    1090.2932   -66756.431    106057.89   -36030.579     25319.81     532.6857     4848.633    85.172025 
     900    1646.2959   -103.92914    1.4896031   -102.43954    2680.2464     4.375058     4.375058     4.375058    2680.2464   -24081.191    42404.956   -10283.026    -23518.18   -8647.4395    11464.033    83.743567 
    1000    2055.5363   -104.36113    1.8598925   -102.50124   -9574.2069    4.3822289    4.3822289    4.3822289   -9574.2069   -40072.811     62740.15    -51389.96     6499.293     5625.991   -14302.452    84.156019 
    1100    1473.3755   -103.86079    1.3331411   -102.52765   -34260.996    4.4076841    4.4076841    4.4076841   -34260.996   -40725.012    9936.9654   -71994.941    10552.432    1978.8808   -13627.606    85.631072 
    1200    1812.6637   -104.13629    1.6401362   -102.49615   -2475.6365    4.3953812    4.3953812    4.3953812   -2475.6365   -29022.443    69259.181   -47663.647     8652.454    7384.2058   -7037.8168    84.916022 
    1300    1782.3577     -104.105    1.6127147   -102.49229    13477.921    4.3753128    4.3753128    4.3753128    13477.921    10542.111    37377.032   -7485.3796    5434.0524   -13159.771    1786.0334    83.758196 
    1400     1121.959   -103.52434    1.0151721   -102.50916    34009.673    4.3881062    4.3881062    4.3881062    34009.673    14344.388    117030.01   -29345.376   -4371.4225   -4327.6843   -8470.6242    84.495076 
    1500    1967.3214   -104.27874    1.7800737   -102.49867   -30767.141    4.4017362    4.4017362    4.4017362   -30767.141   -28335.872   -3256.5405   -60709.012   -15168.659    4332.3864   -8178.0762    85.284881 
    1600    1557.3251   -103.88532    1.4091005   -102.47622    1368.7146    4.3939502    4.3939502    4.3939502    1368.7146    33215.159    3277.2763   -32386.292    5128.9598   -12424.722    23861.783    84.833113 
    1700     1565.687   -103.88723    1.4166665   -102.47057    11368.564    4.3796887    4.3796887    4.3796887    11368.564    2522.8295     53141.19   -21558.327   -536.34658   -2067.4788   -1592.5768    84.009757 
    1800    2159.3762   -104.43453     1.953849   -102.48068   -32340.251    4.3835843    4.3835843    4.3835843   -32340.251   -34634.974    997.81178    -63383.59    12905.468   -532.01592    15215.078    84.234128 
    1900    1651.5059    -104.0026    1.4943173   -102.50829   -43340.522    4.3985427    4.3985427    4.3985427   -43340.522   -34023.152   -38671.437   -57326.976    4261.5112   -5024.8152    10026.585    85.099387 
    2000    1521.2614   -103.86642    1.3764693   -102.48995    14886.394    4.3859398    4.3859398    4.3859398    14886.394    65762.831    410.05175     -21513.7    -17584.34   -10675.024    14057.637    84.369989 
    2100    1209.5376   -103.59014    1.0944151   -102.49573    34492.865    4.3776193    4.3776193    4.3776193    34492.865    60825.676    103695.07   -61042.151    43264.929    2474.7899   -13072.561    83.890732 
    2200    1886.0501   -104.20848    1.7065377   -102.50194   -26931.399    4.3905927    4.3905927    4.3905927   -26931.399   -8358.1883   -9882.5526   -62553.455     -4686.92    859.00638   -2611.9482    84.638791 
    2300    1591.3425   -103.91819    1.4398801   -102.47831   -25901.099    4.4122896    4.4122896    4.4122896   -25901.099   -33763.716   -5015.8001   -38923.779    2061.9054    -7053.214   -12468.229    85.899773 
    2400    1939.8288   -104.18355    1.7551978   -102.42835   -33404.539    4.4013055    4.4013055    4.4013055   -33404.539   -36442.975   -11220.754   -52549.888    8227.4816   -16321.477   -10811.805    85.259847 
    2500    1438.0634   -103.74193      1.30119   -102.44074     4550.786    4.3838115    4.3838115    4.3838115     4550.786    37949.753   -17003.417   -7293.9783    10683.762    15463.013   -4610.3141    84.247228 
    2600    1452.6994   -103.78333    1.3144329    -102.4689    15966.948    4.3779612    4.3779612    4.3779612    15966.948   -48191.572    3318.2675     92774.15    -5688.884   -8574.7304   -17930.009    83.910385 
    2700    1658.0834   -104.00052    1.5002687   -102.50025    1941.0242    4.3922767    4.3922767    4.3922767    1941.0242    66361.018   -36841.992   -23695.953    676.48382    6283.1135   -4943.3049    84.736217 
    2800     1241.279   -103.59805    1.1231354   -102.47491   -2013.6124    4.4068837    4.4068837    4.4068837   -2013.6124   -50010.547   -9652.1179    53621.827    2183.1326    1035.6804     1939.006    85.584433 
    2900    1929.7406   -104.19003    1.7460698   -102.44396   -26654.951    4.4023882    4.4023882    4.4023882   -26654.951   -39146.566   -17249.566   -23568.721    12855.379   -2044.8023    499.03986    85.322782 
    3000    1185.5603   -103.51838    1.0727199   -102.44566    33288.053    4.3872839    4.3872839    4.3872839    33288.053    63367.275   -32259.427    68756.311   -4130.3952   -28574.826    16655.624    84.447583 
    3100    1810.2707   -104.10493     1.637971   -102.46696   -8511.1924    4.3787936    4.3787936    4.3787936   -8511.1924   -6172.8325   -37099.431    17738.686     -2700.89   -1593.0415   -1322.4444    83.958261 
    3200      1520.79   -103.86395    1.3760428   -102.48791    6865.7708    4.3868749    4.3868749    4.3868749    6865.7708   -13195.917   -39581.911     73375.14    1350.4386    11584.605   -1336.8784    84.423968 
    3300     1546.512   -103.89033    1.3993166   -102.49102   -14022.403    4.3946098    4.3946098    4.3946098   -14022.403   -14344.963   -3250.1123   -24472.133   -10558.351   -28105.576   -8330.1464    84.871318 
    3400     1358.335   -103.71202      1.22905   -102.48297    6285.5789    4.3910909    4.3910909    4.3910909    6285.5789    13366.674   -15804.292    21294.354   -16307.592   -554.62389   -13044.192    84.667604 
    3500    2237.2358   -104.49486     2.024298   -102.47056    -28422.67    4.3911647    4.3911647    4.3911647    -28422.67    -59309.47   -28386.361    2427.8204    9410.6847    4035.4683    6541.4303    84.671875 
    3600    1100.8209   -103.46158    0.9960459   -102.46554     16785.93    4.3849168    4.3849168    4.3849168     16785.93   -6019.7246   -26485.421    82862.935   -1707.6664    -19180.98    7907.3464    84.310969 
    3700    1533.0218   -103.85803    1.3871103   -102.47092    17243.822    4.3758646    4.3758646    4.3758646    17243.822    15100.545    22180.573    14450.348    9310.6547   -2147.6155    10664.483    83.789889 
    3800    1989.3341   -104.27943    1.7999913   -102.47944   -12045.021     4.380416     4.380416     4.380416   -12045.021   -43946.701   -44855.125    52666.762    301.83537    2116.0213     19282.02    84.051614 
    3900    1291.2573   -103.64215    1.1683567   -102.47379   -9163.2884    4.3825717    4.3825717    4.3825717   -9163.2884    5636.2046   -17794.106   -15331.964   -319.91702    2160.4515   -840.53833    84.175769 
    4000     1644.738   -103.96315    1.4881935   -102.47496    4909.2899    4.3764221    4.3764221    4.3764221    4909.2899   -16662.457    18434.682    12955.646   -8741.7744    731.52988    14373.652    83.821919 
    4100    1496.2236   -103.83498    1.3538145   -102.48117    14874.607    4.3801422    4.3801422    4.3801422    14874.607    12743.333    6309.8272     25570.66    5142.5947   -2308.6663    35103.212    84.035857 
    4200    1403.0175   -103.73861    1.2694797   -102.46913    2060.2113    4.3775683    4.3775683    4.3775683    2060.2113   -32845.619    23830.856    15195.396     13952.01    4949.9467   -8630.5829      83.8878 
    4300    1544.4379   -103.86896    1.3974399   -102.47152    2228.2238    4.3740546    4.3740546    4.3740546    2228.2238   -21425.244    70398.007   -42288.092   -10666.625    -7424.711    4451.3534    83.685959 
    4400    1967.9973   -104.26498    1.7806853    -102.4843   -2806.2923    4.3690981    4.3690981    4.3690981   -2806.2923   -22154.178   -1835.2596    15570.561    8748.5756   -1265.1361   -12809.756    83.401793 
    4500    1428.4258    -103.7846    1.2924697   -102.49213   -2206.0402    4.3796885    4.3796885    4.3796885   -2206.0402   -41360.289     24427.22    10314.949    -7318.195    4742.0099    4809.4768    84.009747 
    4600    1584.6217   -103.91289     1.433799    -102.4791    1891.2436    4.3799311    4.3799311    4.3799311    1891.2436   -11585.409    43703.407   -26444.267   -13830.241   -2152.3682   -4439.9961    84.023707 
    4700    1854.4566   -104.14529    1.6779513   -102.46734    -15240.03     4.380228     4.380228     4.380228    -15240.03   -73892.134    7111.3414    21060.702   -8108.6292    621.06482    1857.3149    84.040794 
    4800    826.71392   -103.21926   0.74802813   -102.47124    29693.431    4.3766028    4.3766028    4.3766028    29693.431   -27501.591    118835.12   -2253.2359   -12528.975    28355.092   -776.54253    83.832304 
    4900    2174.1083   -104.42896    1.9671789   -102.46178   -30026.542    4.3737624    4.3737624    4.3737624   -30026.542   -17942.355   -1171.4035   -70965.867   -6791.5786   -5804.7319     3258.371    83.669191 
    5000    1639.6223   -103.95953    1.4835647   -102.47596   -6847.4094    4.3734767    4.3734767    4.3734767   -6847.4094   -57622.075     28887.08    8192.7662   -5470.8847    15277.711    15440.585    83.652793 
    5100    1791.3487   -104.10057      1.62085   -102.47972    -11570.91    4.3721266    4.3721266    4.3721266    -11570.91   -25169.226    27331.252   -36874.757    17916.748   -5209.3012   -12669.224    83.575345 
    5200    1220.9212   -103.59637    1.1047152   -102.49166    26829.889    4.3802842    4.3802842    4.3802842    26829.889    34093.824    80818.627   -34422.783   -76.291988    10288.667    13579.964    84.044032 
    5300    1767.0525   -104.08016    1.5988662   -102.48129   -19941.524    4.3929137    4.3929137    4.3929137   -19941.524   -60426.661    17240.341   -16638.251    3790.3771    -13910.95   -11987.794    84.773089 
    5400    1866.3007   -104.16099    1.6886681   -102.47232   -32843.336    4.3730437    4.3730437    4.3730437   -32843.336   -27447.823   -3587.0925   -67495.092   -1356.8449    3133.1377    17645.286    83.627948 
    5500     1782.824   -104.09121    1.6131366   -102.47808    28372.777    4.3593381    4.3593381    4.3593381    28372.777    27581.906    42977.311    14559.114    4844.2558    3237.5719    604.07428    82.844114 
    5600    1421.7152   -103.78017    1.2863978   -102.49378   -16075.786    4.3798082    4.3798082    4.3798082   -16075.786    -25953.49    46602.019   -68875.887    1824.0675   -3292.9573    19091.992    84.016634 
    5700    1576.7865   -103.91547    1.4267095   -102.48876   -26052.909    4.3809999    4.3809999    4.3809999   -26052.909   -19752.727    8496.3547   -66902.355   -18000.696    4455.1474    1667.6944    84.085233 
    5800    2110.7355    -104.3947    1.9098379   -102.48486    -1907.536    4.3645396    4.3645396    4.3645396    -1907.536    19599.201   -9681.7481   -15640.061    8488.1879    3975.5893   -22606.218    83.141012 
    5900     1566.424   -103.91856    1.4173334   -102.50122    6410.3535    4.3721465    4.3721465    4.3721465    6410.3535    11014.497    47136.058   -38919.495     1714.651    4212.1208    18676.092    83.576488 
    6000    1373.5519   -103.74491    1.2428186   -102.50209   -19186.565     4.388077     4.388077     4.388077   -19186.565   -10705.758    20931.768   -67785.706   -7500.2834    1106.1199    16105.272    84.493389 
    6100    1441.6743   -103.79598    1.3044572   -102.49152    8031.4707     4.378601     4.378601     4.378601    8031.4707   -1378.7889     26990.63   -1517.4289   -3899.5254     20612.48    16518.462     83.94718 
    6200    1650.6291   -103.97359    1.4935239   -102.48007   -3543.6836    4.3624528    4.3624528    4.3624528   -3543.6836   -64447.111    17863.757    35952.303   -5863.7283    -16076.32    5359.4317    83.021817 
    6300    1197.1551   -103.57711    1.0832111    -102.4939    25477.514    4.3526865    4.3526865    4.3526865    25477.514   -12239.117    50467.408    38204.252   -10711.621    17791.968    14270.337    82.465473 
    6400    1488.3971   -103.86272     1.346733   -102.51599    20626.051    4.3714171    4.3714171    4.3714171    20626.051   -14262.437    65837.058    10303.534    14639.042   -9396.1088   -10941.346    83.534668 
    6500    1357.1532   -103.73036    1.2279808   -102.50238   -14467.384    4.3905197    4.3905197    4.3905197   -14467.384   -83546.157    56523.225    -16379.22   -761.34228   -2953.5311    16397.952    84.634568 
    6600    1641.1868   -103.97142    1.4849803   -102.48644   -12854.386    4.3807042    4.3807042    4.3807042   -12854.386   -3875.6285    7663.3016   -42350.832    15317.413    -6407.776    7172.9894     84.06821 
    6700    1887.7707   -104.17641    1.7080946   -102.46832    7307.0889     4.362165     4.362165     4.362165    7307.0889     5389.362   -4369.3064    20901.211   -6337.1219    3689.9691   -3970.4982    83.005383 
    6800     1625.983   -103.95206    1.4712236   -102.48083   -294.24863    4.3697095    4.3697095    4.3697095   -294.24863   -53895.658    43686.891    9326.0211    3978.6965   -10535.154   -8084.2499     83.43681 
    6900       1634.3   -103.95848     1.478749   -102.47973   -28296.068    4.3816682    4.3816682    4.3816682   -28296.068   -14718.059   -32627.563   -37542.582   -2022.7601   -21804.529   -11562.535    84.123719 
    7000    1634.6987   -103.93794    1.4791097   -102.45883    4299.9901    4.3816494    4.3816494    4.3816494    4299.9901    8604.6557   -17072.007    21367.321    4225.8658     27211.42   -1305.8437    84.122636 
    7100    1290.8887   -103.61873    1.1680232   -102.45071   -22891.633    4.3767533    4.3767533    4.3767533   -22891.633   -63092.269    6105.8336   -11688.463   -7935.1326   -22296.502    7489.5383    83.840953 
    7200    2125.2081   -104.36392    1.9229329   -102.44099   -805.12355     4.360859     4.360859     4.360859   -805.12355    26478.473   -12930.267   -15963.576   -11321.932    11935.774   -5808.2327    82.930854 
    7300    1351.1791    -103.6954    1.2225753   -102.47282    23779.273    4.3618479    4.3618479    4.3618479    23779.273    17373.512     23600.11    30364.198    366.13069   -15659.166    -1687.488    82.987281 
    7400    1484.7382   -103.83194    1.3434223   -102.48852   -2120.6259    4.3737727    4.3737727    4.3737727   -2120.6259   -10198.476    15502.902   -11666.304   -8358.0617    1045.6853   -1352.7376    83.669779 
    7500    1574.2692   -103.91074    1.4244319   -102.48631     5691.238     4.394241     4.394241     4.394241     5691.238    41963.884   -26735.378    1845.2078    4693.9556    -6960.742   -6080.8944    84.849954 
    7600    1900.7097   -104.18096    1.7198021   -102.46116    -56677.71    4.3802045    4.3802045    4.3802045    -56677.71   -63464.198   -38577.795   -67991.138   -1852.8946   -8988.9002    7832.5253     84.03944 
    7700    977.23345   -103.33673   0.88422137   -102.45251    40088.814    4.3519322    4.3519322    4.3519322    40088.814   -15147.283    49897.592    85516.132    19473.223    -11072.25     512.4431    82.422609 
    7800    1799.5475   -104.12064    1.6282684   -102.49237    28257.861    4.3631448    4.3631448    4.3631448    28257.861    41410.199    21007.323     22356.06    3993.5976    69.124669    16421.017    83.061327 
    7900     1854.937   -104.17702     1.678386   -102.49863   -20973.134    4.3989755    4.3989755    4.3989755   -20973.134    -70485.56   -4331.1995    11897.357   -8195.2566    833.88225    9259.3294    85.124512 
    8000    751.83317   -103.14408   0.68027445    -102.4638    21031.018    4.3960026    4.3960026    4.3960026    21031.018    12986.937      2296.68    47809.438    20658.272    7036.2173    2674.9048    84.952041 
    8100    2356.5421    -104.5685    2.1322488   -102.43625   -11859.668    4.3686847    4.3686847    4.3686847   -11859.668   -5069.4416   -39875.421    9365.8598    -5425.177   -19043.275    13459.624    83.378123 
    8200    1554.7981   -103.88439     1.406814   -102.47758    28038.837    4.3651528    4.3651528    4.3651528    28038.837    58023.668   -21261.009    47353.852   -1741.4697    17272.755   -17922.662     83.17606 
    8300    1244.0524   -103.62203    1.1256447   -102.49638   -6567.9735    4.3906731    4.3906731    4.3906731   -6567.9735    -34201.83   -39994.418    54492.328    13825.819   -8394.9501    9117.7178    84.643441 
    8400    1919.5371   -104.19931    1.7368375   -102.46247   -25255.722      4.39797      4.39797      4.39797   -25255.722    30862.583   -71561.604   -35068.144   -19244.636    16419.613   -4471.0602    85.066153 
    8500    1513.3316   -103.81397    1.3692942   -102.44468    867.52368    4.3682136    4.3682136    4.3682136    867.52368   -482.66029    2753.7321    331.49917   -5066.8469     1913.677    10134.244    83.351149 
    8600    1031.7826    -103.3895   0.93357856   -102.45593    29170.512    4.3523908    4.3523908    4.3523908    29170.512    16736.811    1948.5962     68826.13    -885.4479    5321.0658    6132.1947     82.44867 
    8700    2367.9312   -104.63633     2.142554   -102.49378   -40635.856    4.3741674    4.3741674    4.3741674   -40635.856   -3813.9958   -56456.991   -61636.582    3745.3268   -15915.255    3642.7585    83.692432 
    8800    1663.2743   -104.00116    1.5049656   -102.49619   -5089.6461    4.3767764    4.3767764    4.3767764   -5089.6461     32688.66   -64730.203    16772.604   -4416.3685   -9629.2095    -2673.256    83.842279 
    8900    1250.9976   -103.61668    1.1319289   -102.48475   -26479.911    4.3703096    4.3703096    4.3703096   -26479.911   -55649.873   -25988.035    2198.1764    1791.9594    8666.7781    2924.3326    83.471194 
    9000    1765.7564   -104.08008    1.5976935   -102.48239   -15153.696    4.3706186    4.3706186    4.3706186   -15153.696    6803.1075   -32251.369   -20012.828   -6409.9005   -3989.3379    20941.839    83.488897 
    9100    1579.7696   -103.89697    1.4294088   -102.46756    12360.767    4.3696856    4.3696856    4.3696856    12360.767    29802.936   -21219.542    28498.908    -14517.91   -5441.1459    435.70575    83.435443 
    9200    1328.1634   -103.67873    1.2017502   -102.47698   -14049.301    4.3673006    4.3673006    4.3673006   -14049.301     64903.51   -57627.735   -49423.678    303.94512    10304.294    14589.473    83.298895 
    9300    1466.5501   -103.82057    1.3269654    -102.4936    16206.047     4.364202     4.364202     4.364202    16206.047    -12214.37   -5027.6309    65860.143   -8929.6282    7303.6058    4353.8186    83.121723 
    9400    1707.0511    -104.0423    1.5445757   -102.49772   -3887.1331    4.3644279    4.3644279    4.3644279   -3887.1331    11217.962    3060.2041   -25939.565    10853.962    3763.5891    8222.6562    83.134628 
    9500    1536.8164   -103.87781    1.3905438   -102.48726   -16343.824    4.3761763    4.3761763    4.3761763   -16343.824   -48889.721   -11376.055    11234.304   -12698.183    15258.225    107.06176    83.807798 
    9600    1502.8508   -103.82834     1.359811   -102.46853   -27531.714    4.3711755    4.3711755    4.3711755   -27531.714   -38563.843    7930.8677   -51962.166   -2864.2518   -11028.184   -12946.085    83.520814 
    9700    1653.5305   -103.95477    1.4961492   -102.45863    15427.787     4.352977     4.352977     4.352977    15427.787     80893.39    4073.5184   -38683.547    -708.7487    14449.611    6952.0781     82.48199 
    9800    1979.1578   -104.26344    1.7907836   -102.47266    2477.4741    4.3603726    4.3603726    4.3603726    2477.4741   -4375.9444    12597.785   -789.41833    -4099.809   -10617.306   -2247.9238    82.903109 
    9900    1515.1035    -103.8537    1.3708975    -102.4828   -10875.838    4.3805953    4.3805953    4.3805953   -10875.838    39188.964   -8977.8568   -62838.623    7144.5068   -5977.7084    2599.7786    84.061937 
   10000    1462.2092   -103.79993    1.3230377   -102.47689    4047.5398    4.3840541    4.3840541    4.3840541    4047.5398    48616.936   -44454.818    7980.5014   -9601.9681   -17469.926    4317.6005    84.261213 
   10100     1751.589   -104.04476    1.5848745   -102.45988   -9541.8252    4.3747254    4.3747254    4.3747254   -9541.8252     -18559.9   -6965.3639   -3100.2116   -5981.0461   -1858.5009     18627.58    83.724468 
   10200    2283.8192   -104.54935    2.0664476    -102.4829   -19490.877    4.3707163    4.3707163    4.3707163   -19490.877   -8764.8998   -28542.709   -21165.022    4271.4541    14259.412   -9209.5408    83.494495 
   10300    1408.2377   -103.79498     1.274203   -102.52078    33140.837    4.3643716    4.3643716    4.3643716    33140.837     6875.725    29297.716     63249.07   -9037.6875   -8228.0846    19739.481    83.131414 
   10400     1946.093    -104.2897    1.7608658   -102.52883   -18494.727    4.3726737    4.3726737    4.3726737   -18494.727     4753.339    -67577.13    7339.6091     4932.296   -12642.175    4932.4461    83.606726 
   10500     1342.901   -103.74735    1.2150851   -102.53227   -15749.064     4.369637     4.369637     4.369637   -15749.064   -3061.0256   -8095.9382   -36090.227    11710.005    4442.2244    13506.713    83.432658 
   10600    1342.4579    -103.7386    1.2146841   -102.52391    25581.574    4.3587777    4.3587777    4.3587777    25581.574     60084.73    13092.469    3567.5217   -3848.0336   -8322.3309   -1325.4792    82.812171 
   10700    1461.7696   -103.85541    1.3226399   -102.53277    7677.2035    4.3716861    4.3716861    4.3716861    7677.2035   -29550.489   -27575.162    80157.261    6590.6012     5257.579   -17312.304    83.550087 
   10800    1616.7702   -103.99671    1.4628877   -102.53382    7648.5813    4.3808806    4.3808806    4.3808806    7648.5813    25474.191   -17496.822    14968.375   -1784.5489    9077.3375     6789.252    84.078363 
   10900    1619.6935   -103.98514    1.4655327   -102.51961   -31051.682    4.3849648    4.3849648    4.3849648   -31051.682   -15688.325   -49219.258   -28247.464   -10611.202   -145.46603     2990.951    84.313738 
   11000    1979.1217   -104.30248    1.7907509   -102.51173   -32599.015    4.3618113    4.3618113    4.3618113   -32599.015   -1276.8899   -70430.144    -26090.01   -3442.5583   -566.24122    24423.141    82.985197 
   11100    1630.8182   -104.00051    1.4755986   -102.52491     10552.99    4.3557724    4.3557724    4.3557724     10552.99   -37186.624    22852.211    45993.383    14077.349   -6634.0384   -4439.5947    82.640998 
   11200    815.35958   -103.28654   0.73775448   -102.54879    39313.203    4.3615875    4.3615875    4.3615875    39313.203    73061.819   -30161.744    75039.533   -4576.4617   -20831.791   -6862.5337    82.972422 
   11300    1525.5231   -103.92818    1.3803253   -102.54786   -2292.4603    4.3839231    4.3839231    4.3839231   -2292.4603    14928.207   -20500.041   -1305.5468    9528.4352   -1807.4207   -8403.7272     84.25366 
   11400    2142.9639   -104.45457    1.9389988   -102.51557   -60118.976      4.39391      4.39391      4.39391   -60118.976   -44450.178   -85000.678   -50906.072   -3472.4817   -1595.9083    11766.126    84.830784 
   11500    1475.9095    -103.8446     1.335434   -102.50916   -12008.959    4.3685881    4.3685881    4.3685881   -12008.959   -2332.6243   -26863.262    -6830.991   -15713.148    5054.9756    14761.392    83.372589 
   11600    1650.0463    -103.9955    1.4929966    -102.5025    50672.875    4.3413568    4.3413568    4.3413568    50672.875    47267.444    -9756.227    114507.41   -2803.0311   -3342.7877    -11986.85    81.823194 
   11700    1282.3872   -103.71936    1.1603309   -102.55903   -15718.129    4.3705262    4.3705262    4.3705262   -15718.129   -10018.203   -38586.131    1449.9479   -4043.5605   -6198.9035    18951.093    83.483602 
   11800    1352.7612   -103.74545    1.2240068   -102.52144    21117.759    4.3851833    4.3851833    4.3851833    21117.759    15547.957   -17137.778    64943.099   -4147.0676    7984.2843   -16191.127     84.32634 
   11900    1727.7878   -104.06974    1.5633387   -102.50641   -29679.809    4.3805244    4.3805244    4.3805244   -29679.809   -20911.706   -51422.936   -16704.783   -10554.036   -4581.5982    23237.454    84.057858 
   12000    2181.4875    -104.4651    1.9738558   -102.49125    7947.3858     4.356814     4.356814     4.356814    7947.3858    40450.234    1602.0441   -18210.121    14219.454   -12979.336   -12244.971    82.700296 
   12100    1496.3009   -103.88249    1.3538845   -102.52861   -22037.999    4.3542098    4.3542098    4.3542098   -22037.999   -29575.552   -19362.789   -17175.657     -4104.09    2576.2209    13811.079    82.552087 
   12200    1522.7477   -103.92722    1.3778141    -102.5494   -3717.0517    4.3688348    4.3688348    4.3688348   -3717.0517   -11785.797   -52302.208     52936.85    7381.3803   -4450.2314    16420.829    83.386716 
   12300    1428.7318   -103.83323    1.2927466   -102.54048    18251.703    4.3850631    4.3850631    4.3850631    18251.703    4796.0292   -14062.141    64021.221    2257.9838   -5157.6461   -27728.252    84.319405 
   12400    1062.6917   -103.49514   0.96154582    -102.5336   -14369.865    4.3806908    4.3806908    4.3806908   -14369.865   -42884.886   -38967.699     38742.99   -6300.6926    5418.4706    30396.777    84.067438 
   12500    1503.1411   -103.86851    1.3600737   -102.50844    39904.172    4.3636959    4.3636959    4.3636959    39904.172     42871.45    11296.343    65544.724    5274.7931   -11576.924    558.88476    83.092805 
   12600    2062.4859   -104.38643    1.8661806   -102.52025   -37327.364    4.3819412    4.3819412    4.3819412   -37327.364   -36323.959   -42476.979   -33181.154   -4887.2892    7602.4469    8714.4376    84.139444 
   12700    1797.6728   -104.12401    1.6265722   -102.49743    3494.9205    4.3870874    4.3870874    4.3870874    3494.9205    35363.952   -19162.171   -5717.0199   -23509.903     1144.433   -7860.1768    84.436236 
   12800    1215.6355   -103.59465    1.0999326   -102.49472    12370.199    4.3782394    4.3782394    4.3782394    12370.199   -56480.813    44923.709      48667.7   -7632.5592   -1418.0942    2986.0432    83.926383 
   12900     1709.317   -104.04336     1.546626   -102.49673    1131.7197    4.3734436    4.3734436    4.3734436    1131.7197   -11374.118     4274.559    10494.718    8746.8435   -6026.6406    8985.2484    83.650895 
   13000    1704.3471   -104.03436    1.5421291   -102.49223    21560.063    4.3789311    4.3789311    4.3789311    21560.063   -6908.7202    58162.842    13426.067   -23214.849    17710.045    1819.3636     83.96617 
   13100    1470.2307   -103.81861    1.3302957   -102.48831   -8898.6024    4.3877201    4.3877201    4.3877201   -8898.6024   -44241.408    17075.384    470.21675   -1210.3897   -6335.4776    15599.548    84.472769 
   13200    1858.6618   -104.14885    1.6817562   -102.46709    850.45272      4.38409      4.38409      4.38409    850.45272     3878.802   -46157.083    44829.639    16291.887    15225.391   -10711.796    84.263283 
   13300    1802.8186   -104.09698    1.6312281   -102.46575   -1467.5023    4.3761944    4.3761944    4.3761944   -1467.5023    2322.3414    41373.198   -48098.046   -8884.1226   -2101.8551    21743.443    83.808841 
   13400    1213.0417   -103.57676    1.0975856   -102.47917    30006.647    4.3812163    4.3812163    4.3812163    30006.647    100341.82   -20639.661    10317.788   -1017.0649    2514.4939    7287.0803    84.097695 
   13500    1691.0875   -104.01062    1.5301315   -102.48049   -26384.413    4.3900488    4.3900488    4.3900488   -26384.413   -35260.893   -5087.1419   -38805.204    9188.8363   -3929.0166     5539.189    84.607339 
   13600    1853.5626    -104.1475    1.6771424   -102.47035   -6216.4301     4.382352     4.382352     4.382352   -6216.4301    55010.264   -33792.382   -39867.172    11015.936    3215.3765    14609.691    84.163111 
   13700    1422.5536   -103.76107    1.2871564   -102.47392    3713.6216    4.3798581    4.3798581    4.3798581    3713.6216   -14820.345   -22971.628    48932.838    9054.3227   -20982.257   -1677.2627    84.019504 
   13800    2010.0694   -104.29468    1.8187531   -102.47593   -43186.313    4.3813614    4.3813614    4.3813614   -43186.313   -36741.944   -17675.151   -75141.843   -2191.6065    12889.529    16194.583    84.106049 
   13900    1651.9694   -103.97948    1.4947366   -102.48474    20977.707    4.3834489    4.3834489    4.3834489    20977.707    32335.599   -15361.245    45958.767   -8513.9179   -22398.612   -1555.6753    84.226324 
   14000    1516.8602   -103.85629     1.372487    -102.4838    7617.2021    4.3745682    4.3745682    4.3745682    7617.2021    65311.541   -51268.733    8808.7983   -10384.187    2827.3741    22841.038    83.715441 
   14100    1731.0121    -104.0439    1.5662561   -102.47765    11070.792    4.3776414    4.3776414    4.3776414    11070.792   -12406.556    558.39876    45060.532   -17969.606    25720.695   -9725.8347    83.892001 
   14200    1397.1252   -103.74815    1.2641482     -102.484   -12322.796    4.3837701    4.3837701    4.3837701   -12322.796    37558.148   -71771.437    -2755.098    5205.1108    2177.9579    22446.682    84.244839 
   14300    1291.8793    -103.6501    1.1689195   -102.48118    23343.978    4.3670421    4.3670421    4.3670421    23343.978    79720.377    3084.0751   -12772.518   -1335.7109    13652.875    1134.9037    83.284106 
   14400    1924.2545   -104.25193    1.7411059   -102.51082   -5168.4151     4.363181     4.363181     4.363181   -5168.4151    17165.832   -9406.7575    -23264.32    11464.518   -8954.9248   -3050.8734    83.063397 
   14500    1293.3471   -103.70981    1.1702476   -102.53957    16136.228    4.3867268    4.3867268    4.3867268    16136.228   -15658.118   -2546.7308    66613.531   -297.25488     9005.558    11867.069    84.415414 
   14600    1256.6924    -103.6527    1.1370817   -102.51562    23321.365    4.3974144    4.3974144    4.3974144    23321.365    31273.749    -48150.92    86841.265    9445.5577   -13567.228    1152.2484    85.033915 
   14700    1532.9078   -103.87628    1.3870072   -102.48927   -14836.461    4.3777671    4.3777671    4.3777671   -14836.461    18832.187   -57849.916   -5491.6553    4275.1792    7770.5766    22067.397    83.899227 
   14800    1855.3171   -104.15821    1.6787299   -102.47948    6140.0531    4.3695613    4.3695613    4.3695613    6140.0531    37438.512   -853.29199   -18165.061    6787.5919   -3246.7377   -14479.055    83.428323 
   14900     1505.849   -103.85469    1.3625238   -102.49217   -15876.717    4.3889441    4.3889441    4.3889441   -15876.717   -33882.369   -74690.977    60943.195   -9783.2254   -1295.1623    10181.218    84.543484 
   15000    1299.5124   -103.64433    1.1758261   -102.46851    10691.146    4.3946471    4.3946471    4.3946471    10691.146    13503.568   -57806.337    76376.206   -16212.663      19885.2   -355.60554    84.873481 
   15100    1430.3294   -103.75443    1.2941921   -102.46024    17318.791    4.3820109    4.3820109    4.3820109    17318.791    34906.497    22270.551   -5220.6737    2670.7139   -22052.062    10637.383    84.143458 
   15200    1796.2215   -104.09694    1.6252589   -102.47168    -250.6835    4.3808474    4.3808474    4.3808474    -250.6835    -10628.52   -60131.995    70008.465   -21668.101    1562.3584   -8514.2846    84.076453 
   15300    1322.0551   -103.67266    1.1962232   -102.47644    9574.6511     4.380328     4.380328     4.380328    9574.6511    34673.183   -2717.0784    -3232.151    11121.621   -4257.4757    -2917.663    84.046552 
   15400    1948.1098   -104.25613    1.7626907   -102.49344   -32815.912    4.3833579    4.3833579    4.3833579   -32815.912   -26582.178   -65031.684   -6833.8752   -27672.404   -3397.2475   -5009.2016    84.221079 
   15500     1761.848   -104.09317    1.5941571   -102.49901    27595.293    4.3773188    4.3773188    4.3773188    27595.293    35599.888    12297.326    34888.664    3702.9759    19293.468    7402.4261    83.873455 
   15600    1312.2958   -103.69321    1.1873928   -102.50581   -2793.2532    4.3749196    4.3749196    4.3749196   -2793.2532   -14123.434   -68571.513    74315.188   -26507.086    18068.386     8908.045    83.735619 
   15700     1786.004   -104.11768    1.6160139   -102.50167   -11592.654    4.3689882    4.3689882    4.3689882   -11592.654   -6160.7053    29815.298   -58432.554     3262.293   -2450.5168    7342.6704    83.395499 
   15800    1220.2992   -103.62329    1.1041523   -102.51914   -190.05361    4.3710175    4.3710175    4.3710175   -190.05361    12544.106    711.70526   -13825.972    -23611.98    18385.787    5762.3492    83.511762 
   15900    2042.6523   -104.34714    1.8482347   -102.49891   -15866.122    4.3721275    4.3721275    4.3721275   -15866.122    2197.6965   -33492.677   -16303.385    11877.659    -3241.569   -5191.2981    83.575399 
   16000    1083.6212   -103.47639   0.98048326   -102.49591   -6675.0643    4.3666067    4.3666067    4.3666067   -6675.0643    11459.257    15703.039   -47187.489   -19798.084   -3282.5166    9260.5362    83.259201 
   16100    1627.7536   -103.96734    1.4728257   -102.49451     38471.74    4.3659863    4.3659863    4.3659863     38471.74      21761.2    24531.693    69122.327    4148.5167   -16174.371    8165.5511    83.223715 
   16200    1793.4723   -104.11311    1.6227714   -102.49034    -37557.11    4.3791995    4.3791995    4.3791995    -37557.11   -11597.515   -59590.353   -41483.463   -12573.486   -9220.1042    16317.165     83.98161 
   16300    1000.7506   -103.38828    0.9055002   -102.48278   -4477.7599    4.3779864    4.3779864    4.3779864   -4477.7599    13059.846   -2734.1868   -23758.939   -14512.076   -447.86868    1830.6673    83.911836 
   16400    2000.6585    -104.2882    1.8102379   -102.47796    7444.0193    4.3744186    4.3744186    4.3744186    7444.0193    41414.272   -48387.654    29305.441    2915.9996   -8248.1444    7026.5219    83.706854 
   16500    1388.2716   -103.73972    1.2561374   -102.48358   -2944.7729    4.3721293    4.3721293    4.3721293   -2944.7729   -21678.947    9804.3313    3040.2966   -29291.116    11393.698   -3163.7184    83.575499 
   16600    2066.5861   -104.35186    1.8698905   -102.48197   -22552.307    4.3781153    4.3781153    4.3781153   -22552.307    19718.286   -30183.837   -57191.369    12197.285   -1885.4368    4582.4686     83.91925 
   16700    1278.9405   -103.64398    1.1572123   -102.48677    14352.368    4.3794374    4.3794374    4.3794374    14352.368    38065.519   -38502.243    43493.827   -29456.897   -2111.4702    16281.176    83.995297 
   16800     1961.229   -104.24129    1.7745613   -102.46673   -2581.1861    4.3672632    4.3672632    4.3672632   -2581.1861    16908.414   -10493.761    -14158.21     8661.875   -6930.0946    7314.0895    83.296759 
   16900    1003.0016   -103.38914   0.90753694    -102.4816    20455.535    4.3668522    4.3668522    4.3668522    20455.535   -40730.906    36371.379     65726.13   -21208.035   -4210.5701   -378.53065    83.273241 
   17000    2193.7425   -104.48309    1.9849443   -102.49815   -26620.261    4.3854641    4.3854641    4.3854641   -26620.261   -6341.3059   -52641.468   -20878.009    -5746.214    20001.351   -3560.8974    84.342544 
   17100    1451.0191   -103.79293    1.3129126   -102.48002   -5677.3528    4.3928046    4.3928046    4.3928046   -5677.3528   -54036.964   -17431.009    54435.914   -9538.1619   -16054.463   -19525.444    84.766772 
   17200    1996.3786   -104.27726    1.8063653    -102.4709   -39821.965    4.3809902    4.3809902    4.3809902   -39821.965   -53158.931   -34816.622   -31490.341   -19869.308   -3033.8424   -5.1987948    84.084675 
   17300    1568.7306   -103.90834    1.4194204   -102.48892    42746.091    4.3626154    4.3626154    4.3626154    42746.091   -19236.664    50019.359    97455.578   -15784.036   -4140.7818   -8043.7705    83.031101 
   17400     1917.507   -104.27718    1.7350006   -102.54218   -6010.3483    4.3772006    4.3772006    4.3772006   -6010.3483   -20630.812   -59170.237    61770.004   -6230.9484    15411.623    23808.987     83.86666 
   17500    1182.4663   -103.61083    1.0699204   -102.54091   -12879.334    4.4008447    4.4008447    4.4008447   -12879.334   -47912.948    25554.734   -16279.789    18530.091   -7081.4679    663.65383     85.23307 
   17600    1461.5511   -103.81264    1.3224422    -102.4902     2657.729    4.3838968    4.3838968    4.3838968     2657.729    -22251.65   -39686.654     69911.49   -16888.646   -18945.042     3581.252    84.252144 
   17700    1760.5122   -104.06888    1.5929485   -102.47593    2341.8704    4.3698726    4.3698726    4.3698726    2341.8704   -3123.4613   -4953.7404    15102.813    11748.406    1302.2387    8226.1325    83.446154 
   17800    1836.5641   -104.15233    1.6617618   -102.49056   -14382.577    4.3627692    4.3627692    4.3627692   -14382.577   -2779.5446   -34281.903   -6086.2846    -25416.68   -3347.5781   -6574.5556     83.03988 
   17900     1709.072    -104.0775    1.5464043   -102.53109    -27473.09    4.3827818    4.3827818    4.3827818    -27473.09   -4513.3379      -3148.2   -74757.733    3525.8837    9879.5757     19118.51    84.187878 
   18000    1121.8907   -103.52233    1.0151103   -102.50722    1905.3804     4.400162     4.400162     4.400162    1905.3804   -43547.315    -7554.928    56818.384   -23164.896    5750.2274   -2471.6623    85.193412 
   18100    2339.0771   -104.57556    2.1164462   -102.45911   -24076.337    4.3839748    4.3839748    4.3839748   -24076.337   -8242.4734   -36969.822   -27016.715   -5268.0724    2453.2022    33578.024    84.256642 
   18200     1478.598   -103.80693    1.3378665   -102.46906    40721.503    4.3603744    4.3603744    4.3603744    40721.503   -7521.4272    29788.522    99897.414   -4922.7339    13222.543    5820.7426    82.903207 
   18300    1238.4909   -103.65967    1.1206126   -102.53906    8546.5896    4.3855564    4.3855564    4.3855564    8546.5896    10653.854     8276.778    6709.1367    -3443.891   -1801.0872   -7735.4554    84.347865 
   18400    1690.0596   -104.05319    1.5292015   -102.52399   -40234.886    4.3979965    4.3979965    4.3979965   -40234.886   -31928.968    -64290.47   -24485.221   -10090.707    6299.2382    21332.135    85.067689 
   18500     1408.057   -103.76405    1.2740395   -102.49001     23303.25    4.3802795    4.3802795    4.3802795     23303.25    38960.695    35935.364   -4986.3097    -16429.89    -3321.791    -8572.698    84.043759 
   18600    1043.8502   -103.42006   0.94449758   -102.47557    42640.219    4.3627712    4.3627712    4.3627712    42640.219    -12833.72    106265.06    34489.315    2769.0359   -2392.0905    27616.529    83.039994 
   18700    1477.0818    -103.8445    1.3364946   -102.50801   -5055.8341    4.3805947    4.3805947    4.3805947   -5055.8341    20974.526   -24949.789   -11192.239   -19830.387   -14672.162    16651.122    84.061906 
   18800    1904.6838   -104.20919     1.723398   -102.48579    -13623.37    4.3945721    4.3945721    4.3945721    -13623.37   -6777.6775   -32614.111   -1478.3207    8783.1845    12154.645    12076.922    84.869137 
   18900      1143.34   -103.51098     1.034518   -102.47647   -32867.639    4.3948645    4.3948645    4.3948645   -32867.639   -30182.826   -78355.448    9935.3574   -12515.848    4078.7943    -2596.317    84.886078 
   19000    1549.7888   -103.85689    1.4022815   -102.45461     48134.64    4.3701766    4.3701766    4.3701766     48134.64    58225.591     69604.85    16573.479    2016.8769   -1723.1745    713.98142    83.463573 
   19100     2135.696   -104.41519    1.9324226   -102.48277    -27280.16    4.3756309    4.3756309    4.3756309    -27280.16   -10608.156   -45203.043   -26029.282    2410.2991    11753.487    13608.982    83.776468 
   19200    1748.6887   -104.08091    1.5822503   -102.49866   -5759.5186    4.3886229    4.3886229    4.3886229   -5759.5186    12832.751    18939.273   -49050.579   -10760.821   -2563.4006    1245.6511    84.524924 
   19300    1290.7509   -103.67544    1.1678985   -102.50754    18371.797    4.3916487    4.3916487    4.3916487    18371.797    43271.958    4864.2065    6979.2274     11002.98   -7599.2628    19558.477    84.699875 
   19400    2080.2738   -104.38213    1.8822754   -102.49986   -29562.234    4.3819902    4.3819902    4.3819902   -29562.234   -34423.816   -49768.797     -4494.09   -15380.415    6032.5117   -2914.7727    84.142265 
   19500    1227.2889   -103.60737    1.1104768    -102.4969    33382.005    4.3841693    4.3841693    4.3841693    33382.005    92966.824   -3396.1288    10575.319    9284.8718    3700.0159   -5561.7869     84.26786 
   19600    2013.8613   -104.31044     1.822184   -102.48826    -26144.59    4.3918733    4.3918733    4.3918733    -26144.59   -4266.8685   -46985.693   -27181.208   -8666.6576    9785.8726     6117.484    84.712872 
   19700    965.99518   -103.36306   0.87405274   -102.48901     26156.18    4.3965042    4.3965042    4.3965042     26156.18    38345.177    17939.515    22183.847   -1986.2197    1212.2826   -16576.114    84.981125 
   19800    2078.3404   -104.35353     1.880526     -102.473   -28212.811    4.3891128    4.3891128    4.3891128   -28212.811   -5035.6367   -46895.656   -32707.141    8179.4937    2765.0454    6103.4265    84.553237 
   19900    1419.8555   -103.76662    1.2847151   -102.48191    13480.663     4.382222     4.382222     4.382222    13480.663     11370.46    29375.948   -304.41944    1469.6786   -16563.787   -14524.745    84.155622 
   20000     1755.124   -104.07955     1.588073   -102.49148   -10984.376    4.3970424    4.3970424    4.3970424   -10984.376   -7309.3429   -38183.556    12539.772    5113.2562    -16392.02    7665.2743    85.012339 
   20100    1497.3662   -103.83271    1.3548484   -102.47786    -24346.17    4.4049105    4.4049105    4.4049105    -24346.17   -18614.625   -20706.982   -33716.904   -4319.0859    8098.3787   -12164.292    85.469522 
   20200    1538.9461   -103.85496    1.3924708   -102.46249    14761.592    4.3914471    4.3914471    4.3914471    14761.592    12952.874   -29188.243    60520.146    5405.2656    2824.5313   -3648.7149    84.688212 
   20300    1501.6158   -103.82157    1.3586935   -102.46287    25124.622    4.3785758    4.3785758    4.3785758    25124.622   -17335.013    9831.8695    82877.008    -6187.928    5238.5724   -289.28936    83.945732 
   20400    1500.1739   -103.84371    1.3573888   -102.48632   -2264.2579    4.3899025    4.3899025    4.3899025   -2264.2579     14996.42   -46091.143    24301.948    15993.272    11381.888    3537.0393    84.598881 
   20500    1699.1309      -104.03    1.5374093   -102.49259   -3584.8121    4.3924421    4.3924421    4.3924421   -3584.8121    36438.303   -35079.718   -12113.022   -15198.748   -10740.385   -12149.491    84.745792 
   20600    1495.5882     -103.841    1.3532396   -102.48776    6146.6944    4.3866908    4.3866908    4.3866908    6146.6944    26219.766   -67988.445    60208.762     10910.02   -4116.5661   -14832.996    84.413337 
   20700     1789.649    -104.1031     1.619312   -102.48379   -6109.0558    4.3879893    4.3879893    4.3879893   -6109.0558    10243.939   -21545.884    -7025.222   -18109.951    5977.9538    4592.5778    84.488323 
   20800    1421.2485   -103.76773    1.2859755   -102.48176    24684.877    4.3952103    4.3952103    4.3952103    24684.877    76333.891   -73671.242    71391.982    2020.1628   -4370.0436    2627.1047    84.906118 
   20900    1633.8068   -103.95863    1.4783027   -102.48033   -37898.615    4.3921739    4.3921739    4.3921739   -37898.615    5627.0788   -84278.644    -35044.28    4277.9059   -17633.224   -7046.8492     84.73027 
   21000    1418.6006   -103.76105    1.2835797   -102.47747    41860.506    4.3711184    4.3711184    4.3711184    41860.506    86487.556   -13903.907    52997.871    266.35026    576.81933    3992.1196    83.517543 
   21100    1670.3071   -104.01547     1.511329   -102.50414    -1706.713    4.3799316    4.3799316    4.3799316    -1706.713    27964.901   -16155.082   -16929.957   -4477.3181     4255.448   -9187.4586    84.023738 
   21200    1818.2418   -104.14693    1.6451834   -102.50175   -52339.295    4.3980357    4.3980357    4.3980357   -52339.295   -43007.336   -75586.626   -38423.923    8691.6214   -2884.7387   -11888.763    85.069962 
   21300    1172.2459   -103.54006    1.0606728   -102.47939    23003.512    4.3889812    4.3889812    4.3889812    23003.512    62005.462       -28250    35255.072    1503.4139   -12886.641     8370.052    84.545632 
   21400    1544.4156   -103.87132    1.3974197    -102.4739    4320.2777    4.3860633    4.3860633    4.3860633    4320.2777     1071.783   -29703.096    41592.146    14783.583    4335.2224    -13108.79     84.37712 
   21500    1468.4963   -103.81707    1.3287263   -102.48834   -23926.708    4.3866062    4.3866062    4.3866062   -23926.708   -47389.559   -77180.508    52789.944    24411.641     14408.01    2096.3175    84.408451 
   21600    2121.1955   -104.40787    1.9193023   -102.48857   -7396.2922    4.3854899    4.3854899    4.3854899   -7396.2922    2119.3236   -40172.133    15863.933   -8770.9751    626.50868    2418.9807    84.344027 
   21700    1498.0179   -103.84674    1.3554381    -102.4913    -44309.44    4.3983388    4.3983388    4.3983388    -44309.44   -45017.706   -77787.347   -10123.266    14003.307   -2420.2705   -5287.4762    85.087552 
   21800    1829.1165   -104.11816     1.655023   -102.46314    1588.1247    4.3992653    4.3992653    4.3992653    1588.1247    6788.4183   -28759.078    26735.034   -8226.0249    1480.3382   -4557.4969    85.141337 
   21900    1086.8289   -103.43775   0.98338558   -102.45436    14397.297    4.4028229    4.4028229    4.4028229    14397.297   -7365.6414   -40467.414    91024.947   -4061.6903   -17633.517    946.54056    85.348058 
   22000    1305.5406   -103.61595    1.1812806   -102.43467   -3184.6272    4.3989638    4.3989638    4.3989638   -3184.6272    47631.053   -99810.443    42625.509    2245.5063    -29169.83   -453.78161    85.123834 
   22100    877.77408   -103.23213   0.79422843    -102.4379    69101.583    4.3943792    4.3943792    4.3943792    69101.583    108775.61    89879.786     8649.353   -22871.413   -24756.621   -15534.062    84.857963 
   22200    1204.6065   -103.54388    1.0899533   -102.45393    27052.372    4.4061582    4.4061582    4.4061582    27052.372    42910.979    21460.105    16786.031    12838.115    -23964.29    6049.6214    85.542171 
   22300    1449.1781   -103.74291    1.3112468   -102.43166    20092.435    4.4085237    4.4085237    4.4085237    20092.435    41861.629   -41544.762    59960.436    10170.731   -41132.845    10566.113    85.680016 
   22400    977.18944   -103.32635   0.88418154   -102.44217    28914.962    4.3917473    4.3917473    4.3917473    28914.962   -16924.015    50013.008    53655.894   -8305.4048   -11750.555   -20999.952    84.705583 
   22500    1601.6899   -103.89267    1.4492427   -102.44343    9662.3627    4.3821864    4.3821864    4.3821864    9662.3627    21398.745   -20003.447     27591.79   -5670.2093   -28971.859    1019.2634     84.15357 
   22600     1678.162   -103.98295    1.5184362   -102.46451   -4352.3354    4.3881584    4.3881584    4.3881584   -4352.3354    12342.891   -43473.763    18073.865     9567.132   -19325.033   -5947.5922    84.498086 
   22700    1644.9788   -103.97444    1.4884114   -102.48603   -15708.705    4.3989043    4.3989043    4.3989043   -15708.705   -38396.635    37417.134   -46146.614   -28439.866   -7036.8747   -9816.5046     85.12038 
   22800     1458.224   -103.77757    1.3194317   -102.45814    33417.922    4.3763472    4.3763472    4.3763472    33417.922    89170.722    45586.333   -34503.289   -12127.883   -23330.326   -15120.845    83.817619 
   22900    1304.7877   -103.65352    1.1805993   -102.47292    16339.722    4.3701045    4.3701045    4.3701045    16339.722    14486.346    6210.2522    28322.568    5402.2207    5755.1379    141.86543    83.459442 
   23000    1895.5757   -104.19219    1.7151567   -102.47703   -11311.676    4.3873203    4.3873203    4.3873203   -11311.676   -22210.712    18689.299   -30413.614    14228.921    5402.0227   -15346.197    84.449685 
   23100    1479.3417   -103.78879    1.3385395   -102.45025   -26342.716     4.389943     4.389943     4.389943   -26342.716    23762.852   -52922.225   -49868.776    10533.009   -210.41187    7760.9752    84.601224 
   23200    2067.7489   -104.30631    1.8709427   -102.43537   -9759.5209     4.387255     4.387255     4.387255   -9759.5209   -12456.428    -27439.61    10617.475   -2248.3992   -14158.099    15193.255    84.445915 
   23300    1692.6837   -103.98152    1.5315758   -102.44995   -7013.6427    4.3868837    4.3868837    4.3868837   -7013.6427   -16989.271   -7207.6979    3156.0411   -1225.4884    6429.7961    13930.329    84.424472 
   23400    1748.5088   -104.04038    1.5820875   -102.45829   -9661.7949    4.3761962    4.3761962    4.3761962   -9661.7949    18759.722   -48001.285    256.17833   -4497.6251   -20985.758    15495.643     83.80894 
   23500    1689.5353   -103.99142    1.5287271   -102.46269    15303.237    4.3770567    4.3770567    4.3770567    15303.237   -907.39205    10519.994    36297.109   -7779.8181   -2579.5699   -12621.546    83.858391 
   23600    1574.6576   -103.89139    1.4247833   -102.46661   -5751.2319    4.3792649    4.3792649    4.3792649   -5751.2319   -22772.945   -4473.2563     9992.505    2266.7554    9683.4281   -7839.9904    83.985373 
   23700    2057.5469   -104.32731    1.8617117    -102.4656   -19275.674    4.3850412    4.3850412    4.3850412   -19275.674    3344.8774   -64441.635    3269.7369    694.15799    11306.762   -23050.002    84.318141 
   23800     1542.483   -103.85863    1.3956711   -102.46296    12949.555    4.3722893    4.3722893    4.3722893    12949.555    1619.0175    48292.155   -11062.509    4497.5476    22832.573    17417.528    83.584676 
   23900    1574.5545   -103.89104      1.42469   -102.46635    11850.457    4.3751111    4.3751111    4.3751111    11850.457   -4809.1863   -5275.7616    45636.318   -978.16314    -8555.813     7214.455    83.746614 
   24000    1684.2226   -103.97695      1.52392   -102.45303   -4127.3157    4.3773069    4.3773069    4.3773069   -4127.3157   -23672.301    37571.152   -26280.798   -15905.875    15184.726    -5568.375    83.872768 
   24100    1390.9407   -103.71433    1.2585524   -102.45578    7087.1468     4.366878     4.366878     4.366878    7087.1468    12410.053    23023.509   -14172.122    10388.892    10010.891    13853.143    83.274716 
   24200    1678.4794   -103.99509    1.5187234   -102.47637    8873.9673    4.3666248    4.3666248    4.3666248    8873.9673   -47518.555    96912.456   -22771.999    724.36623    6557.7383   -5810.1328    83.260235 
   24300    1847.4429   -104.16479    1.6716052   -102.49318   -18638.129    4.3697602    4.3697602    4.3697602   -18638.129   -18981.284   -26551.499   -10381.603    7271.3132     2579.628    3660.3099    83.439714 
   24400    1086.2562   -103.47533   0.98286741   -102.49246    1682.5587     4.378807     4.378807     4.378807    1682.5587   -9824.9746    37235.994   -22363.344   -15713.091   -7739.8924   -15941.357    83.959031 
   24500      1923.95   -104.20566    1.7408304   -102.46483    -14411.56    4.3814088    4.3814088    4.3814088    -14411.56    7920.5348   -24523.042   -26632.172    8761.0602    17198.237    11488.272    84.108781 
   24600    1356.2812   -103.68058    1.2271917   -102.45339    7090.1926    4.3663693    4.3663693    4.3663693    7090.1926    1268.5667    44959.667   -24957.656    22379.622    9357.8502    12650.414     83.24562 
   24700    1859.9197   -104.12747    1.6828944   -102.44458   -9108.3993    4.3605308    4.3605308    4.3605308   -9108.3993    15140.561   -10310.544   -32155.215   -14938.314      6969.54   -702.27927    82.912132 
   24800     1246.732   -103.61167    1.1280693    -102.4836    17110.999    4.3770544    4.3770544    4.3770544    17110.999    53443.126    10185.364   -12295.494   -42.553063   -3500.7202    21959.687     83.85826 
   24900    1728.5929   -104.02783    1.5640672   -102.46376   -22973.489    4.3839741    4.3839741    4.3839741   -22973.489    5207.9278    -43313.88   -30814.513   -9974.8628    18617.868   -20148.658    84.256601 
   25000    1514.9672   -103.82451    1.3707742   -102.45374     -34574.3    4.3823454    4.3823454    4.3823454     -34574.3    34728.129    -73174.49   -65276.539   -224.89449    5170.5883    25139.952     84.16273 
   25100    1594.3918   -103.88808    1.4426392   -102.44544    8714.6316    4.3742586    4.3742586    4.3742586    8714.6316     19118.85   -35281.003    42306.047   -5632.7537    18158.972   -19695.065    83.697671 
   25200    1171.0752   -103.52213    1.0596135   -102.46251    29160.587    4.3707055    4.3707055    4.3707055    29160.587     21837.33   -14805.369    80449.801    19151.925   -8673.5787    15721.599    83.493876 
   25300     1672.032   -103.99825    1.5128897   -102.48536   -26375.786    4.3786477    4.3786477    4.3786477   -26375.786   -20393.829   -35886.705   -22846.825   -4154.3158    546.99455   -16703.037    83.949865 
   25400    1869.6201    -104.1733    1.6916715   -102.48163   -5850.0777    4.3802362    4.3802362    4.3802362   -5850.0777   -21065.381   -22066.156    25581.304   -6865.9238   -6218.3773    -10269.01     84.04127 
   25500     1264.296   -103.61121    1.1439616   -102.46724    23362.735    4.3798691    4.3798691    4.3798691    23362.735    52982.667    -17083.25    34188.788    7818.8171   -18248.644    3467.5581     84.02014 
   25600    1932.0204   -104.20865    1.7481327   -102.46051   -42685.685    4.3802223    4.3802223    4.3802223   -42685.685   -34793.274   -35800.509   -57463.273   -11839.355    7157.3859   -23117.271    84.040465 
   25700    1307.3023   -103.64223    1.1828746   -102.45936    50849.535    4.3695774    4.3695774    4.3695774    50849.535    34569.799   -3474.2058    121453.01   -10194.938    5664.0579    6983.1479    83.429245 
   25800    1817.1299   -104.12234    1.6441773   -102.47817   -14111.357     4.379411     4.379411     4.379411   -14111.357     383.2351   -33526.632   -9190.6746    8209.5867   -8216.4736   -37002.588    83.993779 
   25900     1252.207   -103.59733    1.1330232   -102.46431    14666.096    4.3883885    4.3883885    4.3883885    14666.096   -11997.139   -21105.535     77100.96   -8971.5137   -7797.8514    6676.4692    84.511382 
   26000    1793.7397   -104.07943    1.6230134   -102.45642   -16391.353    4.3811347    4.3811347    4.3811347   -16391.353   -34952.161   -20803.192    6581.2939    5721.5079   -660.70843   -32968.321    84.092994 
   26100    1974.5545   -104.24599    1.7866184   -102.45937   -112.46147    4.3715699    4.3715699    4.3715699   -112.46147    15690.327   -11445.637   -4582.0747   -1313.6506   -16080.929    13852.689    83.543426 
   26200    1366.1108   -103.72297    1.2360858   -102.48688    -13146.47    4.3772111    4.3772111    4.3772111    -13146.47    20074.165   -16170.252   -43343.322   -6037.2888    3276.0281    2422.2233    83.867261 
   26300    2065.7524    -104.3502    1.8691362   -102.48106   -20418.344    4.3918458    4.3918458    4.3918458   -20418.344    20464.041   -45067.254   -36651.821    4263.0421    -14119.18   -6228.5673    84.711281 
   26400    1422.9634   -103.74935    1.2875272   -102.46182   -2704.3636    4.3964428    4.3964428    4.3964428   -2704.3636    61434.319   -65870.338   -3677.0721   -2890.0374   -4985.4507    10856.162    84.977567 
   26500    1539.9813   -103.83338    1.3934075   -102.43997   -4213.3479    4.3685645    4.3685645    4.3685645   -4213.3479    -19008.88     26529.33   -20160.493    777.69075   -14881.266   -12810.223    83.371239 
   26600    1457.7618   -103.78082    1.3190135   -102.46181    51641.637     4.362852     4.362852     4.362852    51641.637    92955.637   -20012.978    81982.252    4377.4968    31565.234     16457.31    83.044611 
   26700    1395.5921   -103.75587    1.2627611   -102.49311    4852.0201    4.3791928    4.3791928    4.3791928    4852.0201   -18444.719    26159.324    6841.4554   -5263.0517    5950.3995    1548.2831    83.981222 
   26800    1400.9306   -103.74027    1.2675915   -102.47268    5507.1516    4.3909458    4.3909458    4.3909458    5507.1516   -6796.6117    15248.365    8069.7019    8554.8824    6977.2235    10147.389    84.659211 
   26900     1472.881    -103.7815    1.3326937   -102.44881   -18160.868    4.4010195    4.4010195    4.4010195   -18160.868   -13355.556    -14819.18   -26307.867   -10965.927    4706.8094   -34376.782    85.243229 
   27000    1799.8766   -104.05467    1.6285661    -102.4261   -14684.573    4.3813081    4.3813081    4.3813081   -14684.573   -26467.811    6579.6702    -24165.58    4312.5577    6788.5214   -7232.1979    84.102981 
   27100    1515.8259   -103.80524    1.3715511   -102.43369    15384.329    4.3653136    4.3653136    4.3653136    15384.329     10281.94   -11912.338    47783.385    2604.2006    9368.8612   -12384.991    83.185251 
   27200    1669.5149   -103.99193    1.5106122   -102.48132   -28562.963    4.3854758    4.3854758    4.3854758   -28562.963   -57126.655   -14157.185   -14405.051    12806.833   -12509.999   -1783.8934    84.343215 
   27300    2032.1134   -104.30392    1.8386989   -102.46522   -22782.971    4.3904888    4.3904888    4.3904888   -22782.971   -43932.705   -36265.733    11849.523    -7792.305    11569.501    6507.3744    84.632783 
   27400    880.41018   -103.26306   0.79661363   -102.46644    20829.822    4.3859166    4.3859166    4.3859166    20829.822    10450.981    40503.001    11535.484    1736.0794    -4358.747   -21032.103    84.368649 
   27500    1995.3018   -104.26526     1.805391   -102.45987   -4262.6454    4.3879588    4.3879588    4.3879588   -4262.6454    13738.908   -26536.478    9.6340084   -245.41837   -15963.166    5071.7413    84.486559 
   27600    1267.8864   -103.60683    1.1472103   -102.45962    7877.7552    4.3824289    4.3824289    4.3824289    7877.7552    215.26302   -229.40428    23647.407    3950.4368    18723.063   -17181.188    84.167538 
   27700    1985.1125    -104.2476    1.7961715   -102.45143   -30846.763    4.3881928    4.3881928    4.3881928   -30846.763   -5709.8366   -41715.761   -45114.692    -2329.939   -20885.573     2089.958    84.500076 
   27800    1279.4504   -103.61104    1.1576736   -102.45337   -5479.9438    4.3972634    4.3972634    4.3972634   -5479.9438    42287.126   -14875.124   -43851.833   -3306.2799      26726.4    -28261.11     85.02516 
   27900    1911.6305   -104.15944    1.7296835   -102.42975   -15049.304    4.3878805    4.3878805    4.3878805   -15049.304    25790.729   -23426.097   -47512.545    2108.3556    924.64941    5878.5345    84.482034 
   28000    1125.0437   -103.46645    1.0179632   -102.44849   -509.60151    4.3800945    4.3800945    4.3800945   -509.60151    14831.797    31310.348    -47670.95   -4024.5646    7345.0971   -18131.494    84.033113 
   28100    2003.8863   -104.28021    1.8131584   -102.46705   -150.74601    4.3859048    4.3859048    4.3859048   -150.74601   -6741.5132    29684.464   -23395.188    2210.4286    10585.455    12111.532     84.36797 
   28200    1176.6634   -103.53395    1.0646698   -102.46928    605.20615    4.3913611    4.3913611    4.3913611    605.20615    9460.3563   -17246.682    9601.9446   -5302.9612    -5253.117   -10309.115    84.683236 
   28300     1687.131   -103.98872    1.5265516   -102.46217   -6891.1224    4.3880151    4.3880151    4.3880151   -6891.1224   -1887.4925    12835.667   -31621.541   -4546.6129    3905.0473    2424.4099    84.489813 
   28400    1701.0309   -104.00113    1.5391285     -102.462    16332.194    4.3820812    4.3820812    4.3820812    16332.194   -42353.147    56704.967     34644.76   -25217.569   -5423.8488   -8219.3353    84.147508 
   28500    1538.7484   -103.87314    1.3922919   -102.48085   -2224.8931    4.3845094    4.3845094    4.3845094   -2224.8931    10518.865   -38558.364    21364.819   -5806.5071    16067.058    -21246.98    84.287471 
   28600    2051.9964   -104.32533    1.8566895   -102.46864   -5430.7218    4.3927207    4.3927207    4.3927207   -5430.7218   -52806.868    48928.046   -12413.344   -18484.376   -14423.452    4100.8607    84.761918 
   28700    1340.6653   -103.68304    1.2130621   -102.46998    5369.0783    4.3952027    4.3952027    4.3952027    5369.0783    32725.211   -14748.575   -1869.4011    2975.5065   -12839.756   -36715.426    84.905675 
   28800    1629.1401   -103.93594    1.4740802   -102.46186   -13521.415    4.3889527    4.3889527    4.3889527   -13521.415   -46859.922     7642.443   -1346.7644   -11439.641   -3541.0037    5613.5179    84.543984 
   28900     1312.153   -103.63965    1.1872636   -102.45238    23568.499    4.3695678    4.3695678    4.3695678    23568.499    73681.478    48943.658    -51919.64    3198.0282    3258.4545   -27860.132    83.428693 
   29000    1608.1131    -103.9308    1.4550545   -102.47575    21481.879    4.3791529    4.3791529    4.3791529    21481.879   -24302.731    24330.917    64417.452   -2043.1247   -8013.8382   -4811.2774     83.97893 
   29100    1805.9607   -104.11652    1.6340712   -102.48245   -27169.739    4.3977375    4.3977375    4.3977375   -27169.739   -43561.146   -32864.335   -5083.7347   -3418.6414    2159.4862   -4273.1781    85.052664 
   29200    1634.3083   -103.95621    1.4787565   -102.47746    441.31111     4.387328     4.387328     4.387328    441.31111   -16782.957    19970.974   -1864.0841    6091.7965   -3933.3229   -13772.375    84.450127 
   29300    1949.9161   -104.21961    1.7643251   -102.45528     3210.012    4.3689715    4.3689715    4.3689715     3210.012     -32143.9   -18917.001    60690.937      4130.48    1145.3244    21073.576    83.394543 
   29400     896.7182   -103.29299   0.81136948   -102.48162   -5320.4989    4.3739751    4.3739751    4.3739751   -5320.4989   -22490.921     39962.91   -33433.485   -926.61507   -9160.7097   -36637.823    83.681395 
   29500    2126.0453   -104.40229    1.9236905    -102.4786    847.37306    4.3686473    4.3686473    4.3686473    847.37306   -37221.206    24789.283    14974.043    331.32482    1682.6575    1308.8652    83.375977 
   29600    1459.6272   -103.82229    1.3207014   -102.50159   -11760.076    4.3799916    4.3799916    4.3799916   -11760.076   -20055.822    -6680.963   -8543.4444   -3709.1601   -90.281457   -15863.946    84.027189 
   29700     1520.119   -103.84486    1.3754356   -102.46943   -7876.0659    4.3758163    4.3758163    4.3758163   -7876.0659   -56974.763    45105.392   -11758.826    -5822.078   -12551.015   -14306.116    83.787117 
   29800    1634.9641   -103.93772    1.4793499   -102.45837    25015.839    4.3614525    4.3614525    4.3614525    25015.839   -4975.7197    21793.378    58229.857    1396.4267    13219.228   -19328.299    82.964716 
   29900    1702.3363   -104.02157    1.5403097   -102.48126   -3204.9592    4.3789509    4.3789509    4.3789509   -3204.9592   -46305.253    14783.435    21906.941   -1294.4184    1149.7752   -12544.447    83.967305 
   30000    1858.8531   -104.15124    1.6819294   -102.46931    -20010.69    4.3810774    4.3810774    4.3810774    -20010.69   -36533.505   -15508.045   -7990.5181    4579.9672    4019.2604   -6385.2097    84.089697 
   30100    1648.1337   -103.97363     1.491266   -102.48236   -9461.8534     4.377516     4.377516     4.377516   -9461.8534   -19422.953    24224.784   -33187.392    4478.7432   -14950.788   -12547.667    83.884788 
   30200    1421.3733   -103.77798    1.2860884    -102.4919    18638.736    4.3751548    4.3751548    4.3751548    18638.736   -6294.6911    19456.519    42754.381    3329.0907    9154.5324   -237.40023    83.749121 
   30300    1631.6798   -103.97184    1.4763781   -102.49546   -2496.1503    4.3644166    4.3644166    4.3644166   -2496.1503   -13937.483   -14241.689     20690.72    5668.0858   -1095.5577   -31117.457    83.133987 
   30400    2040.9031   -104.35601     1.846652   -102.50936   -6457.1932    4.3594896    4.3594896    4.3594896   -6457.1932   -31879.548    35059.885   -22551.917    -4569.949    8011.5769    12593.085    82.852752 
   30500    1281.6026    -103.6864    1.1596209   -102.52678    16062.522    4.3746289    4.3746289    4.3746289    16062.522   -23675.709    42994.833    28868.442    5921.9147   -7285.2675   -23652.991    83.718925 
   30600    1672.9659   -104.01015    1.5137347   -102.49641   -38171.976    4.3847155    4.3847155    4.3847155   -38171.976   -46978.723    -14380.72   -53156.485   -13448.179    23729.769    3626.6888    84.299357 
   30700    1837.4924   -104.15255    1.6626017   -102.48995   -15394.368    4.3561971    4.3561971    4.3561971   -15394.368    18369.943    -17969.69   -46583.357   -4066.7704    7401.7149   -16326.518     82.66517 
   30800     1418.963   -103.77668    1.2839075   -102.49278    46916.641    4.3410198    4.3410198    4.3410198    46916.641    5992.5851    63954.918    70802.419    17891.444    18862.384   -8371.6127    81.804143 
   30900    1412.7063   -103.79613    1.2782464   -102.51789     3217.899    4.3676458    4.3676458    4.3676458     3217.899   -12126.305   -12806.189    34586.191   -9076.6014   -17120.667   -940.62062    83.318654 
   31000    1587.7943   -103.92614    1.4366697   -102.48948   -14950.793    4.3873384    4.3873384    4.3873384   -14950.793   -20480.157    375.85792   -24748.079    5078.4735    8513.8553   -21509.199    84.450726 
   31100    1839.0409   -104.11811    1.6640029    -102.4541    12950.828    4.3753602    4.3753602    4.3753602    12950.828    10835.172   -9951.2695    37968.581    7411.6676    3381.3354   -1056.9239    83.760918 
   31200    1302.6814   -103.63724    1.1786935   -102.45854    25842.951    4.3595703    4.3595703    4.3595703    25842.951    -2406.025    12195.345    67739.534    21132.668   -4068.2678   -12168.964    82.857356 
   31300    1734.2179   -104.05897    1.5691568   -102.48981    12086.023    4.3685853    4.3685853    4.3685853    12086.023    21710.707    43770.435   -29223.072   -8453.0101    1292.5062   -13270.684    83.372428 
   31400    1882.7977   -104.20619    1.7035949   -102.50259   -32617.002    4.3691705    4.3691705    4.3691705   -32617.002   -32142.725   -43061.636   -22646.645    12392.589    -16131.09   -10532.311    83.405942 
   31500    1678.3005   -104.00441    1.5185616   -102.48585     3122.663    4.3540344    4.3540344    4.3540344     3122.663   -25980.124    30585.316    4762.7969   -17509.045    18081.981   -2120.2596    82.542108 
   31600    1133.8644    -103.5258    1.0259444   -102.49985    28074.783    4.3687152    4.3687152    4.3687152    28074.783    10228.791    64603.117     9392.442    21964.403   -2314.9078   -15399.122     83.37987 
   31700    2121.0578   -104.41117    1.9191777     -102.492    -44142.63    4.3754426    4.3754426    4.3754426    -44142.63   -55328.984   -34929.497   -42169.409   -7915.0291   -4296.6856   -17772.168    83.765654 
   31800    1434.9694   -103.78113    1.2983904   -102.48274    19364.323    4.3671351    4.3671351    4.3671351    19364.323    22437.756    11307.476    24347.737    143.46064     992.4583    6502.9537    83.289429 
   31900    1227.7453   -103.59816    1.1108898   -102.48727    4381.6933    4.3723506    4.3723506    4.3723506    4381.6933   -1843.0299    57147.265   -42159.155   -11596.051    1372.9271   -25650.165    83.588196 
   32000    1668.8953   -103.98786    1.5100516    -102.4778    2103.9441    4.3704112    4.3704112    4.3704112    2103.9441   -20341.271    71521.099   -44867.996    -6822.584    10032.631    18259.429    83.477015 
   32100    1548.3744   -103.88134    1.4010017   -102.48034    -29173.02    4.3729935    4.3729935    4.3729935    -29173.02   -6773.7615   -54299.922   -26445.378     15596.87   -7835.2617    -39785.74    83.625068 
   32200    1768.0922   -104.07438     1.599807   -102.47457   -4226.6147    4.3723551    4.3723551    4.3723551   -4226.6147   -5637.3339    47446.901   -54489.412   -2212.5967     23092.95     2657.445    83.588453 
   32300    1702.8737   -104.00982    1.5407959   -102.46902   -8151.0177    4.3645732    4.3645732    4.3645732   -8151.0177   -30638.422     14059.28   -7873.9107    3933.6179   -3417.7767   -16823.354    83.142936 
   32400    1350.2789   -103.71009    1.2217607   -102.48833   -24165.452    4.3665628    4.3665628    4.3665628   -24165.452   -10173.152   -2639.2264   -59683.978    4457.9154    22390.307   -14376.035    83.256689 
   32500    2022.6168   -104.31793    1.8301062   -102.48782   -1743.2412    4.3623425    4.3623425    4.3623425   -1743.2412   -29234.728    39434.809   -15429.804   -10523.254    6367.4758    5910.6521    83.015516 
   32600    1627.7123   -103.95879    1.4727883     -102.486   -34236.793    4.3736213    4.3736213    4.3736213   -34236.793   -22881.638   -20265.084   -59563.655   -5349.5456    3889.8118   -18841.765    83.661095 
   32700    1125.8328    -103.4811    1.0186772   -102.46243   -3020.9904    4.3717177    4.3717177    4.3717177   -3020.9904   -64223.124    44649.289    10510.864   -10005.184    21116.009    11071.024    83.551898 
   32800    1643.4699   -103.93954    1.4870461   -102.45249    9892.3251    4.3542641    4.3542641    4.3542641    9892.3251    2506.4798   -3324.8077    30495.303    -13686.32   -20579.355   -14808.013    82.555176 
   32900    1629.7816   -103.95643    1.4746606   -102.48177   -9149.5544    4.3614008    4.3614008    4.3614008   -9149.5544   -24692.322    8349.9812   -11106.323    10837.817    13157.358    5594.0812     82.96177 
   33000    1161.7002    -103.5441    1.0511308   -102.49297   -3426.0065    4.3735299    4.3735299    4.3735299   -3426.0065   -23977.311    6033.7454    7665.5463    1969.4414   -17181.437   -2278.2911    83.655847 
   33100    1972.1268   -104.26232    1.7844218    -102.4779   -42581.961    4.3666981    4.3666981    4.3666981   -42581.961   -5429.3167   -63009.946   -59306.619    16079.475    11445.284   -19914.224    83.264425 
   33200    1523.2206    -103.8427     1.378242   -102.46446     33994.34    4.3585435    4.3585435    4.3585435     33994.34    5146.9379    54109.911     42726.17   -1264.1798     16069.94    15508.464     82.79882 
   33300    1299.2839   -103.65469    1.1756194   -102.47907   -21744.308    4.3635398    4.3635398    4.3635398   -21744.308    -11031.09   -47284.643   -6917.1903    6646.6083    17263.968   -36930.036    83.083888 
   33400    1614.0115   -103.94423    1.4603915   -102.48384     33815.27    4.3617825    4.3617825    4.3617825     33815.27   -31680.016    64168.353    68957.473    5206.8974    18089.668    15651.131    82.983549 
   33500    2099.6455   -104.38119    1.8998033   -102.48139   -22843.358    4.3706437    4.3706437    4.3706437   -22843.358   -23382.019   -5046.3448   -40101.709   -13262.093   -3307.4344   -28208.197    83.490335 
   33600    992.11653   -103.38655   0.89768789   -102.48886    15662.622    4.3573299    4.3573299    4.3573299    15662.622   -34031.515    58273.655    22745.727     2745.703    2878.8518   -3909.9602    82.729675 
   33700    1950.6906   -104.26689    1.7650258   -102.50186    13739.356    4.3579561    4.3579561    4.3579561    13739.356   -8902.8306    11536.348     38584.55   -9523.6787    -14783.73    3131.3369     82.76535 
   33800     1667.803   -103.99733    1.5090632   -102.48827    7404.4986     4.372903     4.372903     4.372903    7404.4986   -37531.715    11646.565    48098.646    6515.5557   -595.19723     8339.102    83.619876 
   33900    944.50716   -103.33597   0.85460993   -102.48136   -5711.5924    4.3776085    4.3776085    4.3776085   -5711.5924    -64860.27    34789.296    12936.197   -11243.443   -2923.7699    8176.0941    83.890108 
   34000    2327.2465    -104.5594    2.1057416   -102.45366   -4578.3849    4.3680464    4.3680464    4.3680464   -4578.3849   -11280.127   -10789.709    8334.6815   -7858.6096    7883.0975    19458.762    83.341583 
   34100    1309.1982   -103.64275    1.1845901   -102.45816    30226.702    4.3555416    4.3555416    4.3555416    30226.702    30433.601    42903.234    17343.272   -14484.679    17406.952    14287.185    82.627857 
   34200    1492.0949   -103.82509    1.3500788   -102.47501   -24205.129    4.3663111    4.3663111    4.3663111   -24205.129   -6761.9132   -36494.267   -29359.208    10709.174   -2067.6494    9654.2767    83.242294 
   34300    1657.3247   -103.97876    1.4995823   -102.47918    23040.614    4.3640278    4.3640278    4.3640278    23040.614    35345.492    37258.146   -3481.7955    6274.3853    8001.4131    6554.4584    83.111769 
   34400    1897.8091   -104.21164    1.7171776   -102.49446   -19642.765    4.3566424    4.3566424    4.3566424   -19642.765   -2020.3577   -49003.734   -7904.2037    -22283.42   -6104.8084    11158.076    82.690526 
   34500    1166.4409   -103.56946    1.0554203   -102.51404   -19750.544     4.364448     4.364448     4.364448   -19750.544   -34823.534   -20514.211   -3913.8887    25601.252   -12815.817    3698.4263    83.135778 
   34600    1663.1517   -104.00738    1.5048546   -102.50252    15123.111    4.3530013    4.3530013    4.3530013    15123.111    61508.866    15903.125   -32042.657   -934.07572    5836.3078    -6013.067    82.483371 
   34700     1202.015   -103.60945    1.0876084   -102.52184    6903.6423    4.3638157    4.3638157    4.3638157    6903.6423    35634.483   -11753.319   -3170.2365    5859.5096    7309.7331    8598.6136    83.099651 
   34800    2213.8465   -104.49365    2.0031348   -102.49052     -22807.9    4.3711374    4.3711374    4.3711374     -22807.9   -36972.367   -3391.2971   -28060.035       3929.4    17613.599   -11007.832    83.518634 
   34900    1426.0684    -103.7688    1.2903367   -102.47846    1185.4907    4.3590811    4.3590811    4.3590811    1185.4907    8802.8925    13516.604   -18763.025   -698.68661    3298.7049   -10971.697    82.829465 
   35000    1450.4071   -103.79615    1.3123589   -102.48379    377.15036    4.3574026    4.3574026    4.3574026    377.15036     57041.26   -45743.693   -10166.116    7817.4331   -10928.938   -9371.2623    82.733817 
   35100    2197.5491   -104.45639    1.9883886     -102.468    3830.1848     4.360411     4.360411     4.360411    3830.1848    10648.262   -2796.8684     3639.161    18384.905   -12263.575    258.60335    82.905296 
   35200    1056.3168   -103.44053   0.95577768   -102.48475   -26059.052    4.3698581    4.3698581    4.3698581   -26059.052   -43169.501    3966.0665   -38973.721    22624.759   -7097.4513    -14171.66    83.445323 
   35300     2041.436   -104.31422    1.8471342   -102.46709   -13377.204    4.3690217    4.3690217    4.3690217   -13377.204     4909.894   -34532.968   -10508.537   -1316.8076   -13974.365    1092.4261    83.397418 
   35400    1861.1765    -104.1443    1.6840316   -102.46027    15392.634    4.3499742    4.3499742    4.3499742    15392.634   -16408.188    16807.672    45778.419   -3780.9787   -7232.1428    1184.5104    82.311412 
   35500    838.47919   -103.24903   0.75867359   -102.49036    20240.293    4.3474557    4.3474557    4.3474557    20240.293    45017.641   -1147.4611    16850.699   -9691.3492    18952.298   -4234.1668    82.168529 
   35600    1788.1487   -104.10911    1.6179546   -102.49116    2430.3101    4.3654051    4.3654051    4.3654051    2430.3101    34859.388   -40632.673    13064.215   -9619.3629    7962.6213    3915.3658    83.190484 
   35700    2063.8189   -104.35847    1.8673867   -102.49108   -15991.862    4.3657899    4.3657899    4.3657899   -15991.862   -12412.696   -13321.986   -22240.904    1575.8725     7233.756   -4202.3803    83.212488 
   35800    1159.6175   -103.53801    1.0492463   -102.48876   -11160.559    4.3632692    4.3632692    4.3632692   -11160.559    4176.9258   -19883.484   -17775.118    -4326.878   -20541.259    1924.5834    83.068432 
   35900      1663.24   -103.97994    1.5049345   -102.47501    6855.4117    4.3479171    4.3479171    4.3479171    6855.4117    17350.248    15157.613   -11941.625    3598.3476    3646.5321    9945.8969     82.19469 
   36000     1347.458    -103.7125    1.2192083    -102.4933    28027.886    4.3401297    4.3401297    4.3401297    28027.886    44550.476    14868.169    24665.014   -23310.765   -12475.123   -8601.5203    81.753831 
   36100    1752.2956   -104.10168    1.5855139   -102.51616    1799.1929     4.360802     4.360802     4.360802    1799.1929   -19983.004    56185.366   -30804.784   -12858.449   -6203.5727    10095.783    82.927603 
   36200    1464.8204   -103.81665    1.3254003   -102.49125    6202.7942    4.3689356    4.3689356    4.3689356    6202.7942   -17536.338    25139.023    11005.698   -14878.012    -7355.411    -6977.321    83.392488 
   36300    987.29262   -103.37827   0.89332311   -102.48495   -1795.5829    4.3608263    4.3608263    4.3608263   -1795.5829    31259.659   -40061.318    3414.9102   -4206.2553   -3281.7646    10682.438    82.928987 
   36400    2680.7583   -104.88436    2.4256064   -102.45875   -15137.666    4.3527844    4.3527844    4.3527844   -15137.666    -12810.33   -11895.106   -20707.563    18165.566    6571.6643    7346.9619    82.471041 
   36500    1218.6019   -103.58137    1.1026166   -102.47876   -11855.615    4.3600205    4.3600205    4.3600205   -11855.615   -8012.2515   -30254.847    2700.2534   -4476.9665   -16398.957    4051.6196    82.883026 
   36600    1457.3583   -103.79376    1.3186485   -102.47511   -26297.649    4.3575703    4.3575703    4.3575703   -26297.649    1405.3428    -46105.83    -34192.46     15660.21    7322.3945    9331.0593     82.74337 
   36700    2033.1239   -104.31993    1.8396133   -102.48032    32004.342    4.3443368    4.3443368    4.3443368    32004.342    70449.546    25407.477    156.00333   -27093.116    11964.744     4097.465    81.991808 
   36800    1386.2154   -103.76135    1.2542768   -102.50707    25100.436    4.3374168    4.3374168    4.3374168    25100.436    31839.525    49730.615   -6268.8311   -16371.992   -11351.945    4858.5242    81.600625 
   36900    1327.7611   -103.71976    1.2013862   -102.51837   -14027.261    4.3551686    4.3551686    4.3551686   -14027.261   -45741.264    29461.769   -25802.287    26588.308     276.8766   -4423.7618    82.606631 
   37000    2095.5358    -104.3903    1.8960848   -102.49421    -7654.631    4.3635499    4.3635499    4.3635499    -7654.631   -140.02763    21255.508   -44079.373   -1362.8304    2969.8044    179.68927    83.084469 
   37100    1807.3273   -104.12226    1.6353077   -102.48695   -13914.504    4.3585852    4.3585852    4.3585852   -13914.504   -27877.536   -5976.7564   -7889.2213    30131.284   -2050.7118   -9889.1655      82.8012 
   37200    1273.6836   -103.63009    1.1524556   -102.47764    14695.557    4.3498207    4.3498207    4.3498207    14695.557    16091.206    46003.218   -18007.752   -8923.2186    1173.9668   -11046.661    82.302699 
   37300     1522.182   -103.86307    1.3773022   -102.48577    11127.697    4.3464302    4.3464302    4.3464302    11127.697    39891.965     35803.32   -42312.194    968.98549   -2124.1874    3763.4797     82.11039 
   37400    1446.4979   -103.81778    1.3088217   -102.50895   -19326.166    4.3539766    4.3539766    4.3539766   -19326.166   -2780.9507   -35960.555   -19236.992    19398.742    6722.5603   -19825.207    82.538822 
   37500    1934.3591   -104.24172    1.7502488   -102.49147    2568.3549     4.349157     4.349157     4.349157    2568.3549    20674.422    8750.5969   -21719.954   -16746.445   -1214.0116    96.964325    82.265031 
   37600    1126.2272   -103.52334     1.019034    -102.5043    -5549.692    4.3510851    4.3510851    4.3510851    -5549.692   -14641.966   -7824.3522    5817.2426    31081.492   -447.93447   -11523.385    82.374488 
   37700    1751.9602   -104.08892    1.5852104   -102.50371   -13767.196    4.3476613    4.3476613    4.3476613   -13767.196   -4869.6228   -23096.324    -13335.64   -15649.493    13281.271    -7012.195    82.180182 
   37800    2183.8689   -104.47442    1.9760105   -102.49841    8404.5957    4.3469356    4.3469356    4.3469356    8404.5957   -1731.7006    37941.721   -10996.233   -15850.349   -9471.4761   -5122.5983    82.139037 
   37900    1166.0328   -103.56111    1.0550509   -102.50605    2236.3539    4.3494057    4.3494057    4.3494057    2236.3539   -8879.8996   -11282.474    26871.435    9494.3417    2808.3499    5416.4531    82.279142 
   38000    1195.7821   -103.59964    1.0819688   -102.51767   -591.26605     4.359054     4.359054     4.359054   -591.26605    6082.4085    35759.859   -43616.066   -12834.355    4894.7745    1771.9134    82.827918 
   38100    2469.4445   -104.72303    2.2344053   -102.48863   -1436.9941    4.3647636    4.3647636    4.3647636   -1436.9941     -728.402   -4892.4274    1309.8471      21420.6   -13381.859   -6362.2167    83.153813 
   38200    961.92046    -103.3541   0.87036585   -102.48374    27783.543    4.3499497    4.3499497    4.3499497    27783.543    14221.394    79047.915   -9918.6782   -9325.0233    4707.0121    15114.733    82.310018 
   38300    1353.1432   -103.71682    1.2243524   -102.49246   -29245.117    4.3543869    4.3543869    4.3543869   -29245.117   -53942.245   -8461.1252    -25331.98   -33859.997   -2717.4798   -1632.3178    82.562157 
   38400    2685.0634   -104.90951    2.4295018   -102.48001    1589.3315    4.3478005    4.3478005    4.3478005    1589.3315    -17837.83    20367.931    2237.8945    16562.589   -6854.5805     -7022.68    82.188077 
   38500    1129.5476   -103.53554    1.0220384   -102.51351   -21531.295    4.3558014    4.3558014    4.3558014   -21531.295    -29431.19    7391.3195   -42554.015   -37687.491   -3728.7656    11838.795    82.642643 
   38600    1160.8392   -103.54368    1.0503517   -102.49333    5293.6483    4.3483259    4.3483259    4.3483259    5293.6483    11676.415   -3611.7849    7816.3151    -2130.696   -3114.3324   -13552.228     82.21788 
   38700    2170.9494    -104.4517    1.9643206   -102.48738   -23375.379     4.351632     4.351632     4.351632   -23375.379   -38679.933   -3580.8004   -27865.404   -8413.6976   -9980.9732    15545.882    82.405554 
   38800     1365.169   -103.72661    1.2352336   -102.49137   -16665.431    4.3558864    4.3558864    4.3558864   -16665.431    33452.004   -47751.788   -35696.508   -13365.961   -8701.6314   -11870.998    82.647481 
   38900    1520.2499   -103.85062     1.375554   -102.47506    18492.944    4.3417324    4.3417324    4.3417324    18492.944    25518.142    38211.383   -8250.6942     16025.59    5086.2923    9079.3773    81.844434 
   39000    1786.4458   -104.10553    1.6164137   -102.48911   -34242.005    4.3505216    4.3505216    4.3505216   -34242.005   -50515.558    -31836.86   -20373.598   -12517.378   -6331.3937   -3006.6517     82.34249 
   39100    1431.2412   -103.79263    1.2950171   -102.49761   -555.97389    4.3435218    4.3435218    4.3435218   -555.97389    30530.905   -12381.857    -19816.97    26501.328    6576.7044   -6798.6448    81.945671 
   39200    1908.2777   -104.21801    1.7266498   -102.49136    13594.038    4.3401113    4.3401113    4.3401113    13594.038   -20520.274    60895.791    406.59632   -15711.646   -7043.8145    8732.0009    81.752793 
   39300    1035.8132   -103.44031   0.93722556   -102.50309   -5354.2126     4.358138     4.358138     4.358138   -5354.2126   -54853.638    18837.429    19953.571    6816.3412    -739.1954   -14827.986    82.775715 
   39400    2205.3662   -104.47661    1.9954617   -102.48115    -16690.09     4.358736     4.358736     4.358736    -16690.09    10737.976   -34613.045   -26195.202    13983.517   -1498.0521     13580.43    82.809794 
   39500    1446.8526   -103.78915    1.3091427      -102.48    11118.721    4.3524482    4.3524482    4.3524482    11118.721   -49904.739    53653.589    29607.312    20396.881    685.73488    7129.0193    82.451931 
   39600    1008.3146   -103.40479   0.91234427   -102.49244    1982.6333    4.3418224    4.3418224    4.3418224    1982.6333   -54910.877    71834.877     -10976.1    27046.161   -3534.7108   -5850.4559    81.849525 
   39700    2609.5314   -104.85981    2.3611589   -102.49865   -5319.1328    4.3492232    4.3492232    4.3492232   -5319.1328    -11654.55    -1128.804   -3174.0445   -2915.7397    -5261.126    12415.671    82.268786 
   39800    1270.3407   -103.66325     1.149431   -102.51382   -5927.0899    4.3650752    4.3650752    4.3650752   -5927.0899   -51401.438     66727.53   -33107.361    12246.867    5817.1265   -6563.7255    83.171626 
   39900    1277.0074    -103.6585    1.1554631   -102.50304   -8639.3986    4.3442743    4.3442743    4.3442743   -8639.3986   -12732.484    28181.623   -41367.335    4636.9741    -7815.256    1754.5911    81.988267 
   40000    2291.1599   -104.56524    2.0730896   -102.49215    24346.235    4.3228538    4.3228538    4.3228538    24346.235    35031.063    41167.366   -3159.7247   -1098.5238   -11048.048    16624.235    80.781448 
   40100    1305.4448   -103.72479    1.1811939    -102.5436    14894.995    4.3563715    4.3563715    4.3563715    14894.995   -6091.6556    96746.705   -45970.063    13720.099   -7717.1786   -7531.5346    82.675101 
   40200    987.56269   -103.41369   0.89356747   -102.52013   -23449.354    4.3779901    4.3779901    4.3779901   -23449.354     9710.172    3723.2433   -83781.478   -24863.182   -8200.1363    41306.896    83.912049 
   40300    1924.7813    -104.2304    1.7415826   -102.48881   -12713.335    4.3619399    4.3619399    4.3619399   -12713.335   -43611.148    30101.165   -24630.022    31859.508   -6632.8211   -9865.7411    82.992533 
   40400    1407.3035   -103.75513    1.2733578   -102.48177     29703.69    4.3259849    4.3259849    4.3259849     29703.69    25507.991    106763.67   -43160.595    1923.2348   -10168.194    10207.743    80.957108 
   40500    1264.3542   -103.67393    1.1440143   -102.52992    21310.851    4.3299093    4.3299093    4.3299093    21310.851   -14647.865    97983.664   -19403.245   -539.37372    304.18369    2437.1797    81.177633 
   40600     1759.836   -104.13689    1.5923366   -102.54456    -9812.541    4.3691259    4.3691259    4.3691259    -9812.541   -31681.249    36484.996    -34241.37    2490.1709   -3023.8031    5906.5431    83.403385 
   40700    1630.2889   -103.98549    1.4751197   -102.51037    -52941.34    4.3732016    4.3732016    4.3732016    -52941.34   -28711.952   -48270.225   -81841.843   -24040.754   -3733.0064     26857.98    83.637012 
   40800    1548.9201   -103.87717    1.4014954   -102.47568   -1607.5169    4.3384652    4.3384652    4.3384652   -1607.5169   -39627.219    63537.467   -28732.798   -136.13006    9356.8843    -13212.98     81.65981 
   40900    1356.3122   -103.71641    1.2272198   -102.48919    50703.429    4.3321592    4.3321592    4.3321592    50703.429    46010.306    117192.11   -11092.133   -17895.797   -10586.325    27506.357    81.304245 
   41000    1305.0686   -103.68893    1.1808535   -102.50808   -11808.216    4.3625649    4.3625649    4.3625649   -11808.216    7327.3712    8424.8087   -51176.827   -28693.117    2961.9771   -18049.568    83.028213 
   41100    2132.5073   -104.41949    1.9295374   -102.48995   -36612.877    4.3741098    4.3741098    4.3741098   -36612.877   -34137.241    -1086.252   -74615.138    3438.8026    1950.0766   -15552.198     83.68913 
   41200    1692.8203   -104.02205    1.5316994   -102.49035   -10522.982    4.3681673    4.3681673    4.3681673   -10522.982    12456.853    6711.3263   -50737.126   -4297.5563    3814.2086    16214.627      83.3485 
   41300    1086.8424   -103.47297   0.98339784   -102.48957    14571.397     4.364011     4.364011     4.364011    14571.397    28263.981    60428.707   -44978.497    3869.9332    639.43696   -27328.905     83.11081 
   41400     1913.041    -104.2028    1.7309597   -102.47184    14873.726    4.3604527    4.3604527    4.3604527    14873.726    3903.9092    68613.684   -27896.415   -5291.9889   -9090.8268    15656.468    82.907678 
   41500    1624.6221   -103.96101    1.4699922   -102.49102   -16838.189    4.3676073    4.3676073    4.3676073   -16838.189   -1485.6966    11068.147   -60097.017    5051.6184   -25.689515    2485.4869    83.316449 
   41600    1730.6944   -104.06126    1.5659686   -102.49529    -24264.31    4.3796876    4.3796876    4.3796876    -24264.31   -6367.8861     -29969.3   -36455.744   -7840.4965   -7598.9016    6363.3601    84.009693 
   41700    1647.7179   -103.96123    1.4908898   -102.47034   -10197.459    4.3726019    4.3726019    4.3726019   -10197.459   -47908.179    47585.524   -30269.721    1362.1269    -9464.599    571.82452    83.602604 
   41800     1786.778   -104.06685    1.6167143   -102.45014    20589.887    4.3571033    4.3571033    4.3571033    20589.887    4233.1593    100335.95   -42799.453   -15524.417   -11569.655   -17170.044    82.716771 
   41900    1156.9817   -103.51124    1.0468614   -102.46438    24835.645    4.3649895    4.3649895    4.3649895    24835.645    26866.119   -7863.2511    55504.066   -2515.7615   -4122.1107   -16538.258    83.166725 
   42000    1172.8516   -103.52881    1.0612208   -102.46759   -7138.2815    4.3781697    4.3781697    4.3781697   -7138.2815   -45978.663   -26368.136    50931.955   -7763.4411   -21370.263   -25534.404    83.922376 
   42100    2373.1222   -104.59433    2.1472509   -102.44708   -6949.2133    4.3732595    4.3732595    4.3732595   -6949.2133    -42767.99    6245.1354    15675.214    9422.3709     -8550.59   -4521.7918     83.64033 
   42200    1188.7262     -103.531    1.0755845   -102.45542   -16780.146     4.368981     4.368981     4.368981   -16780.146   -26851.512    959.95875   -24448.883   -13830.769   -3520.4997    6408.6629    83.395087 
   42300    2171.7558   -104.42157    1.9650503   -102.45652   -15784.649    4.3656657    4.3656657    4.3656657   -15784.649   -7853.6365     -17151.3   -22349.009     14398.27    15028.232    10555.121    83.205385 
   42400    1754.4848   -104.05249    1.5874947   -102.46499     9627.925    4.3503031    4.3503031    4.3503031     9627.925    -36423.46   -2147.5085    67454.744   -7749.7888    5495.5619    4950.7466    82.330085 
   42500    1299.8485   -103.67496    1.1761302   -102.49883   -28153.526    4.3537015    4.3537015    4.3537015   -28153.526   -13657.391   -39997.003   -30806.182    5350.6946    9005.0207   -22906.705     82.52318 
   42600    1783.0696   -104.11855    1.6133588   -102.50519    32836.198    4.3548554    4.3548554    4.3548554    32836.198   -1515.6502    50380.984    49643.261    3382.2666   -12361.597    11963.866     82.58881 
   42700    1215.7991   -103.60772    1.1000805   -102.50764    2703.7234    4.3734735    4.3734735    4.3734735    2703.7234   -49911.115    12296.663    45725.622    5274.9604   -9095.9908    9845.3895    83.652609 
   42800    1103.2745   -103.47498   0.99826596   -102.47672    750.68545    4.3717863    4.3717863    4.3717863    750.68545   -17898.006   -45647.851    65797.913   -1393.5084   -12952.962    11615.323    83.555832 
   42900    2201.0958   -104.44691    1.9915978   -102.45531   -199.48995    4.3516799    4.3516799    4.3516799   -199.48995   -24170.157    46547.205   -22975.518    6802.0924   -11508.919   -9015.3568    82.408274 
   43000    1368.9439   -103.73035    1.2386492    -102.4917   -7586.1619    4.3542379    4.3542379    4.3542379   -7586.1619   -28231.889   -33331.283    38804.686   -1270.2742   -556.51552   -20008.987    82.553682 
   43100    1755.3422   -104.09735    1.5882705   -102.50908    -6854.161      4.36976      4.36976      4.36976    -6854.161    -43613.45   -163.16098    23214.128   -6398.3406    2808.5321    34883.425    83.439707 
   43200    1551.4724   -103.91329    1.4038048   -102.50948    18289.265     4.369777     4.369777     4.369777    18289.265   -37944.653    28547.328    64265.119    7596.0627    2453.3685   -28315.563    83.440679 
   43300    953.23541   -103.36983   0.86250743   -102.50732    8981.1316    4.3568894    4.3568894    4.3568894    8981.1316   -13340.826   -10933.671    51217.892    -7733.194    -4003.601   -2170.1561    82.704587 
   43400    1962.1417   -104.28547     1.775387   -102.51008    9581.8729    4.3501966    4.3501966    4.3501966    9581.8729   -21632.312   -27730.278    78108.209    7048.2148    179.67978    2610.6569    82.324036 
   43500     2005.994   -104.34843    1.8150656   -102.53336   -26787.816    4.3636444    4.3636444    4.3636444   -26787.816   -46216.877   -40441.647    6295.0761   -4329.2727   -4.8564601   -1655.4598    83.089864 
   43600    1319.1401   -103.70755    1.1935857   -102.51396    3336.7857    4.3678567    4.3678567    4.3678567    3336.7857   -52536.777   -19907.101    82454.235   -2570.7701    1385.2862    5388.4492    83.330725 
   43700    1885.9411   -104.20305    1.7064391   -102.49661   -33532.165    4.3735026    4.3735026    4.3735026   -33532.165   -49835.981   -37620.636   -13139.878   -8376.2758     8127.858   -21868.113    83.654279 
   43800    1421.0957   -103.77549    1.2858373   -102.48966    5845.4936    4.3631622    4.3631622    4.3631622    5845.4936    -13383.52    11921.146    18998.854    3451.1475    4539.9721    20136.823    83.062321 
   43900    1802.6601   -104.11762    1.6310848   -102.48653    1599.6826    4.3545316    4.3545316    4.3545316    1599.6826    -24154.27    -32769.86    61723.178   -7366.4498    15048.647   -2325.4137    82.570391 
   44000    1196.0862   -103.58431    1.0822439   -102.50206    2544.7285    4.3603697    4.3603697    4.3603697    2544.7285   -16137.016    25630.862   -1859.6612   -8312.1707   -13093.133     -1621.25    82.902942 
   44100    1959.9033   -104.26872    1.7733617   -102.49536   -6775.7031    4.3619004    4.3619004    4.3619004   -6775.7031   -33976.933   -21405.752    35055.575    5452.6087    -5368.876    -11355.68    82.990283 
   44200    1435.3957   -103.79746    1.2987762   -102.49869    24893.399    4.3648823    4.3648823    4.3648823    24893.399    -24406.42    2122.3495    96964.268    -13492.45   -6845.5877   -16625.365    83.160598 
   44300     1398.648   -103.76098    1.2655261   -102.49545   -15654.854    4.3648151    4.3648151    4.3648151   -15654.854    -29474.83   -38552.468    21062.735    17719.117    -10870.76    20732.897    83.156756 
   44400    2230.0018   -104.49078    2.0177524   -102.47302   -20846.956    4.3599951    4.3599951    4.3599951   -20846.956   -26971.712   -11367.665   -24201.492   -346.71793   -8273.6518     4540.445    82.881576 
   44500    1142.4812   -103.52152     1.033741   -102.48778    7032.9097     4.368831     4.368831     4.368831    7032.9097   -26527.485   -27207.499    74833.713    9158.5344   -9769.9662   -8859.9884    83.386496 
   44600     1822.962   -104.12151    1.6494544   -102.47206    2571.2006    4.3648947    4.3648947    4.3648947    2571.2006    5178.8773   -12040.105    14574.829    -6249.057   -4155.7576     29794.71    83.161308 
   44700    1583.6677   -103.90602    1.4329358   -102.47308   -22822.442    4.3549302    4.3549302    4.3549302   -22822.442   -8613.5517    -13214.39   -46639.384    11038.652    5995.6796     -13065.5     82.59307 
   44800    1738.8492   -104.05945    1.5733473    -102.4861   -4730.7142    4.3530441    4.3530441    4.3530441   -4730.7142   -10692.706    -16198.33    12698.893    7043.2315    998.20613    10645.399    82.485801 
   44900    2076.5232    -104.3553    1.8788818   -102.47642   -11825.326    4.3637328    4.3637328    4.3637328   -11825.326   -31137.717   -20995.783    16657.524   -4930.8759    1714.5727    3047.7137    83.094917 
   45000    920.86886    -103.3037    0.8332215   -102.47048    11618.098    4.3625747    4.3625747    4.3625747    11618.098   -19776.602    6357.9705    48272.924    10039.141   -20513.269   -15483.519    83.028773 
   45100    1755.4272   -104.04713    1.5883474   -102.45878    9161.4539    4.3603905    4.3603905    4.3603905    9161.4539    41617.543    4576.2513   -18709.433   -13603.974    -4118.285    2264.5609    82.904126 
   45200    1949.0051   -104.22639    1.7635007   -102.46289    -22999.87    4.3583738    4.3583738    4.3583738    -22999.87   -27072.351   -29126.635   -12800.623      8163.53   -2757.4108   -11013.334    82.789149 
   45300    866.19871   -103.25566   0.78375479   -102.47191    21332.492    4.3459632    4.3459632    4.3459632    21332.492      58202.6    30886.644   -25091.767   -17236.573   -14589.101   -7953.9241    82.083929 
   45400    1699.8223   -104.01732     1.538035   -102.47928    23819.459    4.3459355    4.3459355    4.3459355    23819.459    36552.224    37506.409   -2600.2554   -24141.664   -1920.9129    622.61457    82.082358 
   45500    1993.9795   -104.28729    1.8041945    -102.4831   -14224.872    4.3587187    4.3587187    4.3587187   -14224.872    6817.6572   -10648.971   -38843.301    19362.875    15819.361   -5603.7422    82.808809 
   45600    1259.4077   -103.61578    1.1395385   -102.47624    7228.4571    4.3489846    4.3489846    4.3489846    7228.4571   -2196.6813    20170.161    3711.8919   -16113.551    337.76593    5514.4521    82.255248 
   45700    1871.0014   -104.17394    1.6929214   -102.48102   -22910.526    4.3510014    4.3510014    4.3510014   -22910.526    9655.3479    -14946.63   -63440.296      3528.09    8852.2583   -11751.223    82.369733 
   45800     1843.859   -104.15666    1.6683624    -102.4883   -6798.5345    4.3506526    4.3506526    4.3506526   -6798.5345    6257.5189    -9646.499   -17006.623   -10353.875    15039.543    5286.9914    82.349927 
   45900    1226.4596   -103.60589    1.1097264   -102.49617    20277.002    4.3492738    4.3492738    4.3492738    20277.002    -33198.82    80967.936    13061.891   -34314.823   -4830.2002    -4481.093    82.271655 
   46000    1516.2252   -103.86485    1.3719124   -102.49294    5934.1071    4.3489276    4.3489276    4.3489276    5934.1071    13667.412    55537.041   -51402.132   -4247.5319    6455.2724    2515.3713     82.25201 
   46100    1819.5913   -104.14554    1.6464045   -102.49914   -7232.8037    4.3436203    4.3436203    4.3436203   -7232.8037     22503.82   -38671.725   -5530.5056   -9309.6944    2465.0049    7089.7052    81.951245 
   46200    1943.3035   -104.25591    1.7583418   -102.49757   -2678.0873    4.3495727    4.3495727    4.3495727   -2678.0873   -34704.649     43677.09   -17006.703    9689.1294   -1590.0974    6056.8074    82.288618 
   46300    1081.6021   -103.47079   0.97865634   -102.49213    7642.2492    4.3510175    4.3510175    4.3510175    7642.2492    12767.246    65071.815   -54912.313   -2010.8617    10372.995     6774.942    82.370651 
   46400    1445.0113   -103.80354    1.3074766   -102.49606    -8469.415    4.3480809    4.3480809    4.3480809    -8469.415   -48795.602    5044.3371     18343.02   -19704.948   -15482.769    4416.2282    82.203983 
   46500     2462.399    -104.7112    2.2280304   -102.48317    2246.3771    4.3472364    4.3472364    4.3472364    2246.3771   -6425.9083    20091.386   -6926.3465    1807.6506    9663.8294    5348.5487    82.156089 
   46600    1073.7024   -103.46442   0.97150846   -102.49291   -18296.573    4.3490103    4.3490103    4.3490103   -18296.573   -14445.947   -12693.665   -27750.107   -13291.872   -3014.3028    6033.6169    82.256707 
   46700    1191.8958   -103.57488    1.0784524   -102.49643    21659.356    4.3460889    4.3460889    4.3460889    21659.356   -15740.823    46093.692    34625.198    13430.287   -8586.7698     6014.963    82.091049 
   46800    2367.4827   -104.63233    2.1421481   -102.49018     14930.12    4.3438527    4.3438527    4.3438527     14930.12   -18496.899    65578.531   -2291.2719    6843.0069    2827.3839   -7518.4465    81.964402 
   46900    1273.0929   -103.65103    1.1519212   -102.49911   -35969.532     4.350636     4.350636     4.350636   -35969.532   -43936.663   -7980.2386   -55991.696   -24279.071   -4042.8666    1904.4836    82.348985 
   47000    1713.6711   -104.04545    1.5505656   -102.49488   -7212.6101    4.3545259    4.3545259    4.3545259   -7212.6101   -21009.913    8000.8019   -8628.7196    10204.687    991.51344   -18092.361    82.570067 
   47100    1937.6413   -104.24703    1.7532186   -102.49381    19856.972    4.3509019    4.3509019    4.3509019    19856.972   -16551.063    78386.206   -2264.2268   -21566.404   -6187.9543    7818.1352    82.364086 
   47200    1338.9635   -103.71026    1.2115223   -102.49874   -9943.4298    4.3465902    4.3465902    4.3465902   -9943.4298    8212.0735    4962.4762   -43004.839    16983.817    664.33251    -179.7532    82.119461 
   47300    1530.8023   -103.88867    1.3851021   -102.50356   -123.27735    4.3388276    4.3388276    4.3388276   -123.27735    13453.647   -7403.2122   -6420.2666    1403.5549   -17140.823   -8958.5265    81.680271 
   47400    1795.6779   -104.13589    1.6247671   -102.51113   -447.72247    4.3507463    4.3507463    4.3507463   -447.72247   -8789.2467    26577.597   -19131.518   -20609.743   -14187.594    1091.8769     82.35525 
   47500    1201.2424   -103.58827    1.0869094   -102.50136    10676.689    4.3627475    4.3627475    4.3627475    10676.689    15837.467    50004.237   -33811.636    5906.6842     18253.64   -15992.354    83.038639 
   47600    1218.0958   -103.57679    1.1021587   -102.47463   -4696.9197    4.3611263    4.3611263    4.3611263   -4696.9197   -47291.715     69490.72   -36289.765   -13897.755   -13891.765    11060.325    82.946102 
   47700    2062.4927   -104.32849    1.8661867   -102.46231   -10485.975    4.3411163    4.3411163    4.3411163   -10485.975    6424.8158   -28094.908   -9787.8338   -7661.4039   -3316.9529   -10320.376    81.809599 
   47800    1484.9436   -103.83838    1.3436082   -102.49477    36.149486    4.3357845    4.3357845    4.3357845    36.149486    8873.7642     11650.28   -20415.596    13225.806    2100.3166    5262.2769     81.50853 
   47900      1463.46     -103.828    1.3241694   -102.50383    9913.6748    4.3534633    4.3534633    4.3534633    9913.6748   -34856.251    65673.634   -1076.3583    6576.1451   -6666.1711   -12686.773    82.509632 
   48000    1309.2754   -103.68396    1.1846599    -102.4993   -20572.885    4.3674653    4.3674653    4.3674653   -20572.885   -45542.588     10424.66   -26600.727    17453.142   -10575.193   -16165.323     83.30832 
   48100     1795.442   -104.09613    1.6245536   -102.47158    12318.797     4.354354     4.354354     4.354354    12318.797    12592.076    22180.265    2184.0502   -7248.8154   -3243.1529    6535.6751     82.56029 
   48200    1566.0156     -103.878    1.4169638   -102.46104    -2003.122    4.3509228    4.3509228    4.3509228    -2003.122   -17010.895    12515.912   -1514.3831    2199.1094   -8035.2307   -10604.965     82.36527 
   48300    1515.7658    -103.8492    1.3714967   -102.47771   -29471.607    4.3535021    4.3535021    4.3535021   -29471.607    8011.9621   -37153.486   -59273.297    13018.158   -13462.633    18746.383    82.511843 
   48400     2185.704   -104.45762    1.9776709   -102.47995    20232.411    4.3520924    4.3520924    4.3520924    20232.411    18646.331    51109.746   -9058.8457    11696.047    1021.0324    13062.344    82.431714 
   48500    1330.7422   -103.69163    1.2040835   -102.48755    11684.778    4.3459034    4.3459034    4.3459034    11684.778    82930.626   -5031.1069   -42845.185    13517.667   -10920.266   -4629.1332    82.080542 
   48600    1375.6545   -103.74476    1.2447211   -102.50004   -10938.015    4.3510352    4.3510352    4.3510352   -10938.015      1204.59    25094.344   -59112.981     4775.332    9245.8489    17860.714    82.371654 
   48700     2131.239   -104.41379    1.9283899    -102.4854    11939.846     4.360397     4.360397     4.360397    11939.846    61539.674    2279.9379   -28000.074   -9046.9173   -44.445725   -8467.7321    82.904501 
   48800    758.66226   -103.17244   0.68645355   -102.48599    13945.963    4.3549827    4.3549827    4.3549827    13945.963    34925.465   -11906.363    18818.787   -3357.3826   -23864.467    8857.9877    82.596054 
   48900    1841.7356   -104.14875    1.6664411   -102.48231   -13141.468    4.3566903    4.3566903    4.3566903   -13141.468   -26287.477   -9930.3291   -3206.5987    494.38414    30784.342   -1454.3851    82.693249 
   49000    1797.6678   -104.11116    1.6265676   -102.48459    33036.544    4.3512243    4.3512243    4.3512243    33036.544    40771.934   -2165.9942    60503.692    12732.014   -19916.956    5365.3159    82.382395 
   49100    1442.7825   -103.80676    1.3054599    -102.5013   -20533.682     4.360261     4.360261     4.360261   -20533.682   -16862.381   -23776.824   -20961.842   -8494.8527    653.09074    4981.6357    82.896739 
   49200    1185.9356   -103.57208    1.0730594   -102.49902    17007.049    4.3569688    4.3569688    4.3569688    17007.049   -33937.611   -27171.458    112130.22    12843.275    3231.8395   -372.20894    82.709111 
   49300    1703.5697   -104.04927    1.5414257   -102.50785    27297.517    4.3402226    4.3402226    4.3402226    27297.517    466.67101    14501.799     66924.08    -3879.358    4174.3191    18414.396    81.759084 
   49400    1771.2864   -104.13404    1.6026971   -102.53134   -11668.662    4.3545589    4.3545589    4.3545589   -11668.662   -26852.977   -31664.768    23511.758    -2093.172   -9251.0328   -17995.524    82.571943 
   49500    1579.8964   -103.94534    1.4295235   -102.51581   -13360.699    4.3708498    4.3708498    4.3708498   -13360.699   -55629.747   -16237.861    31785.511     7067.728    20173.207    389.63462     83.50215 
   49600    1443.3048   -103.81954    1.3059325   -102.51361    8673.3687     4.358087     4.358087     4.358087    8673.3687   -5362.4011   -20374.377    51756.885   -13210.614   -5417.7564    4661.5354    82.772805 
   49700    2048.1351   -104.37402    1.8531957   -102.52082   -1730.7049    4.3527077    4.3527077    4.3527077   -1730.7049   -31009.143   -15135.832     40952.86     9751.026    3417.7979   -841.56089     82.46668 
   49800    1821.5478   -104.17271    1.6481747   -102.52454   -8700.0745    4.3602208    4.3602208    4.3602208   -8700.0745   -37078.096   -50903.176    61881.049   -13451.637   -6093.0041     10252.29    82.894447 
   49900    1213.5625    -103.6105    1.0980569   -102.51244   -13610.559    4.3591813    4.3591813    4.3591813   -13610.559   -38000.797   -38790.826    35959.945    5858.4401   -5539.6709   -2856.0145    82.835175 
   50000    1956.9245   -104.26997    1.7706664   -102.49931   -12382.328    4.3522585    4.3522585    4.3522585   -12382.328   -12842.031   -15396.909    -8908.043   -5706.4818    17056.461    5128.0396    82.441152 
   50100    1822.9729   -104.15883    1.6494641   -102.50937   -8677.0477    4.3604364    4.3604364    4.3604364   -8677.0477   -46960.694   -53488.469     74418.02     8813.831   -735.54171     1027.386    82.906744 
   50200    1657.7711   -104.00109    1.4999861    -102.5011    -9873.163    4.3564223    4.3564223    4.3564223    -9873.163    -33892.74   -15418.116    19691.367    2888.3609    12195.801   -7610.3107    82.677993 
   50300    1515.8019   -103.86138    1.3715294   -102.48986   -15664.653    4.3504497    4.3504497    4.3504497   -15664.653   -10297.771    -24269.64   -12426.547    9407.8391   -17171.238    947.06476    82.338406 
   50400    1725.0208    -104.0521     1.560835   -102.49127    13604.988    4.3555081    4.3555081    4.3555081    13604.988   -44251.526   -35563.575    120630.07    4188.9464     4678.743   -9452.6966    82.625951 
   50500    1951.0351   -104.27239    1.7653376   -102.50705    -20700.75    4.3620619    4.3620619    4.3620619    -20700.75   -34653.712   -32164.518    4715.9812    10142.715    7890.6627     9596.085    82.999501 
   50600    1560.3765   -103.91933    1.4118614   -102.50747    786.41224    4.3668086    4.3668086    4.3668086    786.41224    -37778.95   -31461.465    71599.651   -1781.7389    16557.128   -2495.0345    83.270751 
   50700    1239.9025   -103.62506    1.1218898   -102.50317   -4103.2936    4.3590084    4.3590084    4.3590084   -4103.2936   -58633.995   -3856.1452    50180.259    557.48964   -8383.1902    8703.5036    82.825321 
   50800    1825.5497   -104.15908    1.6517958   -102.50729   -4845.9144    4.3502115    4.3502115    4.3502115   -4845.9144   -31024.853   -33371.402    49858.512    7333.3646   -4281.5815   -1436.0053    82.324881 
   50900    1714.2086   -104.07442    1.5510519   -102.52337    11903.022    4.3503304    4.3503304    4.3503304    11903.022   -46819.069   -29221.861    111749.99   -9497.6105   -6093.5522   -23344.119    82.331633 
   51000    1121.9934    -103.5679    1.0152032   -102.55269   -2894.4255    4.3598432    4.3598432    4.3598432   -2894.4255    -64240.63   -25958.234    81515.587    17095.762    13234.157    11644.285    82.872913 
   51100    1129.8655   -103.57885    1.0223261   -102.55652   -2126.4526    4.3710667    4.3710667    4.3710667   -2126.4526   -19078.272   -53984.201    66683.115   -8705.9085   -2709.5477   -12719.365    83.514582 
   51200    1763.3464   -104.12963    1.5955129   -102.53412    15528.081    4.3562642    4.3562642    4.3562642    15528.081   -43650.986   -26118.174     116353.4    12753.991    5911.5245    16053.732    82.668988 
   51300    1466.0634   -103.87163     1.326525    -102.5451    28108.091    4.3548222    4.3548222    4.3548222    28108.091   -16080.789   -11610.398    112015.46    -3145.479   -9439.6516   -6551.6927    82.586922 
   51400    1272.4932   -103.69071    1.1513786   -102.53933   -13823.547    4.3688761    4.3688761    4.3688761   -13823.547   -35544.587   -27835.885    21909.832    882.80623    -3475.568   -18865.804    83.389082 
   51500     1485.876   -103.86357    1.3444519   -102.51912    -2241.495     4.363885     4.363885     4.363885    -2241.495   -39111.171   -12150.984     44537.67    2482.3247    2869.2659   -10851.316    83.103608 
   51600     2162.282   -104.46853    1.9564782   -102.51205   -24007.495    4.3564128    4.3564128    4.3564128   -24007.495   -30123.772   -23588.635   -18310.077    11247.277   -3275.1045   -9062.7858    82.677449 
   51700    1550.9938    -103.9067    1.4033718   -102.50333    13455.854    4.3572659    4.3572659    4.3572659    13455.854   -32680.644   -15861.697    88909.903    -5412.166    282.80842    1599.5799     82.72603 
   51800    1266.1869   -103.65033    1.1456725   -102.50466   -27456.812    4.3575938    4.3575938    4.3575938   -27456.812    -46565.19   -12988.816   -22816.431     12304.81    777.30734     359.9667     82.74471 
   51900    1589.8213   -103.93853    1.4385037   -102.50002    21088.742    4.3468441    4.3468441    4.3468441    21088.742   -19182.145    24468.362     57980.01   -6012.1341   -583.02908   -3966.9979     82.13385 
   52000    1462.1022   -103.85486    1.3229408   -102.53192      26306.3    4.3564168    4.3564168    4.3564168      26306.3   -34932.697   -10310.158    124161.76     6227.708    13443.689   -22471.932    82.677677 
   52100    1462.2991   -103.85137    1.3231189   -102.52825   -31688.109    4.3576879    4.3576879    4.3576879   -31688.109     -14740.9   -46296.543   -34026.884    1193.2916    -1829.069   -4884.3182    82.750072 
   52200    1228.4952   -103.61961    1.1115683   -102.50805    25034.649    4.3460118    4.3460118    4.3460118    25034.649    -29801.19     71778.15    33126.988    2472.3441   -110.17275    -12198.37    82.086685 
   52300    1992.4854   -104.30138    1.8028427   -102.49854   -4797.3696    4.3477989    4.3477989    4.3477989   -4797.3696    -37851.41     24125.81   -666.50779    7285.5024   -501.74145   -5503.7792    82.187986 
   52400    1277.5134   -103.66212     1.155921   -102.50619    28747.294    4.3503654    4.3503654    4.3503654    28747.294   -15775.988    23691.131     78326.74   -5008.4043    1462.4214   -32541.057    82.333618 
   52500    1577.1017   -103.92198    1.4269948   -102.49499    -21385.17    4.3688761    4.3688761    4.3688761    -21385.17   -32359.958    55736.806   -87532.358    3577.7642   -8866.7989    17797.859    83.389081 
   52600    2161.3594   -104.44217    1.9556434   -102.48653   -29022.907    4.3505307    4.3505307    4.3505307   -29022.907   -22176.441   -49626.541   -15265.737   -6574.0285   -1151.0411   -17977.593    82.343004 
   52700    1094.8483   -103.48013   0.99064179   -102.48949    50490.784      4.32586      4.32586      4.32586    50490.784    17896.467    104831.96     28743.92   -4169.4572   -955.38495    6066.6057    80.950097 
   52800     2038.094   -104.35875    1.8441103   -102.51464     -1263.54    4.3469348    4.3469348    4.3469348     -1263.54   -19472.104    13586.287    2095.1965     55.71568     -3403.78   -10545.011    82.138992 
   52900    1477.0031   -103.84393    1.3364235   -102.50751    1805.5148    4.3625388    4.3625388    4.3625388    1805.5148   -26445.428    26917.805    4944.1668   -2036.0028    3497.7228   -2920.6209    83.026724 
   53000    1557.3976   -103.91409    1.4091661   -102.50493    2845.5455    4.3557065    4.3557065    4.3557065    2845.5455    350.62644    15603.894   -7417.8844    5229.7691   -13288.741    8035.7472    82.637246 
   53100    2143.7172   -104.42411    1.9396804   -102.48443   -1105.3308    4.3472668    4.3472668    4.3472668   -1105.3308   -10327.061    8245.9175    -1234.849   -11804.513    412.10046    7955.1398    82.157814 
   53200    1299.9567   -103.67668    1.1762282   -102.50045   -5143.0694     4.341455     4.341455     4.341455   -5143.0694   -31374.528    75442.186   -59496.866    11849.465   -11603.587   -1329.1626    81.828747 
   53300    1542.7835   -103.91086    1.3959429   -102.51492    11132.382    4.3529278    4.3529278    4.3529278    11132.382   -14415.461   -10959.237    58771.844   -19110.729    -4083.709    8253.8742    82.479192 
   53400     1798.813     -104.131    1.6276038    -102.5034   -12651.456    4.3607223    4.3607223    4.3607223   -12651.456   -39660.714     1120.838      585.508   -696.49163   -18570.571    1732.0413    82.923055 
   53500    1294.6214   -103.66714    1.1714006   -102.49574   -12935.512    4.3426197    4.3426197    4.3426197   -12935.512   -28508.455    46393.777   -56691.858    7295.4869    13264.392     11206.04    81.894626 
   53600    1920.7536   -104.25081    1.7379382   -102.51287   -5908.9568    4.3393265    4.3393265    4.3393265   -5908.9568    12256.546   -8908.1096   -21075.307   -12255.092    -2052.607    13043.449    81.708452 
   53700    1473.2063   -103.85362     1.332988   -102.52064   -4135.3217    4.3595163    4.3595163    4.3595163   -4135.3217   -47954.397    34133.391    1415.0416    14759.985   -19593.874   -843.66773    82.854276 
   53800    1641.9819   -103.98461    1.4856998   -102.49891   -29206.576    4.3701311    4.3701311    4.3701311   -29206.576   -21663.053   -37210.636   -28746.037   -6566.8951    16215.827   -675.21407    83.460965 
   53900    1357.5969   -103.71427    1.2283822   -102.48589   -8801.3062    4.3665547    4.3665547    4.3665547   -8801.3062   -48242.862    27383.313   -5544.3698    -413.7977     -26759.2    3341.1441    83.256227 
   54000     1799.868    -104.1126    1.6285584   -102.48404    27049.697    4.3514653    4.3514653    4.3514653    27049.697   -35387.645     17201.07    99335.666   -398.33363    18443.818   -22706.303    82.396086 
   54100    1330.7383   -103.71435      1.20408   -102.51027    -9960.781    4.3577981    4.3577981    4.3577981    -9960.781   -21888.685    34475.784   -42469.442   -985.23813   -14603.274   -2073.4969     82.75635 
   54200    1510.2973   -103.87196    1.3665487   -102.50541    1302.1556    4.3672255    4.3672255    4.3672255    1302.1556   -28965.428    8474.5256    24397.369    7098.7619    21040.906   -2320.0044    83.294601 
   54300     2059.911   -104.35687    1.8638508   -102.49302   -33748.803     4.371075     4.371075     4.371075   -33748.803   -67528.779   -31434.093   -2283.5376   -13836.207   -10881.906    -12440.49    83.515058 
   54400    1289.2797   -103.65843    1.1665673   -102.49187    13189.187    4.3493336    4.3493336    4.3493336    13189.187   -10928.049   -7026.7559    57522.367    3098.4521    333.17783   -9355.8659    82.275053 
   54500    1487.9573   -103.84677     1.346335   -102.50043    6937.2375    4.3401887    4.3401887    4.3401887    6937.2375   -15234.075    35950.115    95.672921   -2338.3982    6374.8268    9482.5609    81.757167 
   54600    1355.3513   -103.73779    1.2263503   -102.51144   -4784.9847    4.3460746    4.3460746    4.3460746   -4784.9847   -54370.307    33671.867    6343.4867    5637.9411   -15194.305   -25431.297    82.090244 
   54700    2002.6436   -104.32521     1.812034   -102.51318   -9743.9616    4.3602934    4.3602934    4.3602934   -9743.9616   -45726.104    10071.543    6422.6763     2291.741    9189.7185    14239.913    82.898589 
   54800    1584.4823   -103.92474    1.4336729   -102.49107   -45730.284    4.3718767    4.3718767    4.3718767   -45730.284   -63216.166   -1624.2004   -72350.487    10366.485   -9994.3271    1609.7841    83.561019 
   54900    1396.7743   -103.74031    1.2638307   -102.47648   -13469.253    4.3588662    4.3588662    4.3588662   -13469.253   -46454.985    5848.5092    198.71813     2709.873    17780.255   -12949.799    82.817216 
   55000    2108.4996   -104.38089    1.9078147   -102.47308    15235.313    4.3314461    4.3314461    4.3314461    15235.313   -10708.443    9471.9896    46942.391   -9344.2159   -2741.4937    7437.6314    81.264101 
   55100    1445.4753    -103.8251    1.3078964   -102.51721    24926.566       4.3456       4.3456       4.3456    24926.566   -36720.854    71414.356    40086.197    14099.529   -2543.5997   -13375.197    82.063353 
   55200    1572.8389   -103.92402    1.4231377   -102.50088    648.70106    4.3729042    4.3729042    4.3729042    648.70106   -20875.613     41481.77   -18660.054    -6758.356    497.06641    13121.305    83.619948 
   55300    1467.5683   -103.81607    1.3278866   -102.48818    6579.5056    4.3742709    4.3742709    4.3742709    6579.5056    -68797.17    15615.783    72919.904    16810.195   -12413.346    18083.286    83.698374 
   55400    2110.6797   -104.36901    1.9097874   -102.45922   -7214.4734     4.355073     4.355073     4.355073   -7214.4734     4973.408   -4824.9217   -21791.907   -5579.9881   -4669.2309    2142.0424    82.601192 
   55500    679.21922   -103.09016   0.61457182   -102.47559    41530.087     4.335703     4.335703     4.335703    41530.087    8709.9643    111242.61    4637.6838    22204.325   -7190.2656     22384.02    81.503932 
   55600     2234.967   -104.51953    2.0222451   -102.49729   -11759.429    4.3538345    4.3538345    4.3538345   -11759.429   -23643.302   -17649.968    6014.9843    21965.108    2729.4515   -10770.458    82.530744 
   55700    1855.2084   -104.17272    1.6786316   -102.49409    3003.0666      4.35998      4.35998      4.35998    3003.0666   -15642.253    6367.9453    18283.507   -5922.4011    7576.2753      25797.4    82.880714 
   55800    966.02373   -103.35899   0.87407857   -102.48492    6919.6404    4.3515794    4.3515794    4.3515794    6919.6404    -7877.778    43112.828   -14476.128     15615.31   -12474.767    -3572.668    82.402568 
   55900    2171.0137   -104.43548    1.9643788    -102.4711   -6316.8647    4.3431584    4.3431584    4.3431584   -6316.8647   -17039.149   -1946.4939    35.048602   -2991.7001    18066.444    3570.1341    81.925106 
   56000    1335.4601   -103.70437    1.2083524   -102.49601    28535.843     4.342793     4.342793     4.342793    28535.843   -32149.859    50389.427     67367.96    12508.416   -2630.2117     5254.152     81.90443 
   56100    1705.7043    -104.0285    1.5433571   -102.48514   -15694.506    4.3503157    4.3503157    4.3503157   -15694.506    -6498.242   -3195.2622   -37390.014    14522.068    1605.6678   -17771.881    82.330797 
   56200    1500.2712   -103.83553    1.3574769   -102.47806    12117.786    4.3387914    4.3387914    4.3387914    12117.786    -20082.85    71100.369    -14664.16    7386.2556    7870.1882    105.67738     81.67823 
   56300    1788.1939    -104.1099    1.6179954    -102.4919   -13165.332    4.3458255    4.3458255    4.3458255   -13165.332   -26426.742   -33178.283    20109.028    16154.335   -6841.2405   -16378.733    82.076129 
   56400    1468.5808   -103.81976    1.3288028   -102.49095   -657.70891    4.3484976    4.3484976    4.3484976   -657.70891    3751.1686    56683.131   -62407.427    4709.4665    12033.639   -10075.738    82.227616 
   56500    2000.0581   -104.29722    1.8096946   -102.48752   -28792.137    4.3521234    4.3521234    4.3521234   -28792.137   -51292.002   -16188.922   -18895.488    23562.049   -7490.3141    4095.5064    82.433473 
   56600    1203.7083   -103.59012    1.0891405   -102.50098    1773.2038    4.3579891    4.3579891    4.3579891    1773.2038    15233.491    23531.287   -33445.166   -4743.3895    16464.124   -549.83191    82.767231 
   56700    1590.9722   -103.92588     1.439545   -102.48633    11200.952    4.3515496    4.3515496    4.3515496    11200.952    37230.612        30081   -33708.755    7017.4869   -5667.9238    17175.078    82.400872 
   56800    1277.8862   -103.65266    1.1562583    -102.4964    11005.753    4.3554384    4.3554384    4.3554384    11005.753    33888.797    24766.666   -25638.204    20842.431    2747.5146    1850.3451    82.621986 
   56900    1874.2574    -104.2014    1.6958675   -102.50553   -38779.439    4.3558022    4.3558022    4.3558022   -38779.439   -27552.851   -39787.859   -48997.608   -18334.171    9385.1228    2523.0897    82.642693 
   57000    1414.4418   -103.78917    1.2798167   -102.50935   -9781.1088    4.3552677    4.3552677    4.3552677   -9781.1088    12685.376   -22766.137   -19262.565    41430.856   -8226.1596   -2404.7023    82.612269 
   57100    1446.9256    -103.8187    1.3092087   -102.50949   -1196.0824    4.3616587    4.3616587    4.3616587   -1196.0824   -6280.2538    42046.309   -39354.303   -26711.953    16885.644   -967.76998    82.976488 
   57200    1663.9613   -104.00911    1.5055872   -102.50352    -21760.29    4.3693857    4.3693857    4.3693857    -21760.29   -56552.759    8998.1252   -17726.235    41401.416   -1300.5937   -4979.4691    83.418263 
   57300    1536.2883   -103.88181     1.390066   -102.49174    20492.417    4.3587264    4.3587264    4.3587264    20492.417    39095.344    29342.679   -6960.7732    10977.201    19692.648   -12188.902    82.809246 
   57400    2089.8356   -104.39773    1.8909272   -102.50681   -23395.209    4.3710805    4.3710805    4.3710805   -23395.209   -19818.563   -8262.8836   -42104.181   -7627.4688   -10831.119   -61.007477    83.515372 
   57500    1346.3966   -103.72487    1.2182479   -102.50662    7444.5793    4.3802686    4.3802686    4.3802686    7444.5793     11011.81    76646.881   -65324.953    28059.422   -1751.8777    1676.0929    84.043134 
   57600     1255.695   -103.64578    1.1361792    -102.5096    39146.474     4.368535     4.368535     4.368535    39146.474    79140.764    82209.222   -43910.564   -2700.8851   -1025.2764   -8365.4601    83.369552 
   57700    1753.2727   -104.10509     1.586398   -102.51869   -21768.368    4.3640599    4.3640599    4.3640599   -21768.368   -35631.255   -19262.516   -10411.332    19724.056   -3486.5055   -4347.1074    83.113601 
   57800    1530.4403   -103.89835    1.3847746   -102.51358   -7394.5503     4.367577     4.367577     4.367577   -7394.5503   -3973.9485    26952.704   -45162.406    25359.692    22881.055   -8558.7775    83.314717 
   57900    1500.7247   -103.85474    1.3578872   -102.49685    1137.0145     4.368811     4.368811     4.368811    1137.0145   -5736.4439    56292.664   -47145.176    12593.095   -15819.961   -9619.5209    83.385354 
   58000    1064.5369   -103.47565   0.96321534   -102.51244    13572.002    4.3689523    4.3689523    4.3689523    13572.002    42670.479    36212.503   -38166.976     2610.038    18451.908    -3981.609    83.393446 
   58100    2388.0613   -104.67189     2.160768   -102.51112   -35912.383    4.3729268    4.3729268    4.3729268   -35912.383   -14555.104   -21972.534   -71209.511     2170.861    1812.5633   -10577.187    83.621244 
   58200    1439.6428   -103.81292    1.3026191    -102.5103    10117.851    4.3635479    4.3635479    4.3635479    10117.851    19665.897    37652.105    -26964.45    4938.0608   -466.56823    2542.9705    83.084355 
   58300    1538.4724   -103.91242    1.3920421   -102.52037   -17089.442    4.3616634    4.3616634    4.3616634   -17089.442   -21111.499   -1798.5569   -28358.271    8961.5868    10672.944   -22596.574    82.976752 
   58400    1655.3838   -104.00666    1.4978261   -102.50883    9311.8911    4.3662648    4.3662648    4.3662648    9311.8911    43251.805    42185.037   -57501.168   -2094.4074   -432.13767   -1625.2535    83.239644 
   58500    1393.3647   -103.75513    1.2607457   -102.49439   -30612.168    4.3685877    4.3685877    4.3685877   -30612.168   -55155.011   -4624.4754   -32057.019    58503.095    12476.071   -11072.926    83.372567 
   58600    1722.8722   -104.02874     1.558891   -102.46984    22787.938     4.358883     4.358883     4.358883    22787.938    14765.984    46470.288    7127.5423    325.29961    2639.2159   -3786.2851    82.818172 
   58700    1125.1217   -103.49519    1.0180338   -102.47716    1864.5578    4.3627562    4.3627562    4.3627562    1864.5578    54421.171    1654.4559   -50481.953    884.89193    22777.892   -5635.7654    83.039139 
   58800    1847.8015   -104.14292    1.6719297   -102.47099   -242.00404    4.3614199    4.3614199    4.3614199   -242.00404    24665.111    9463.4921   -34854.615   -15854.817    141.55119   -3858.0148    82.962857 
   58900    1300.9679   -103.66447    1.1771431   -102.48733    14929.147    4.3688753    4.3688753    4.3688753    14929.147    32832.672    57970.803   -46016.032    8708.6431    22574.605   -2031.8777    83.389035 
   59000    1869.2881   -104.16504    1.6913711   -102.47367   -40395.974    4.3656908    4.3656908    4.3656908   -40395.974   -22822.264   -51866.406   -46499.253    18179.224   -10563.714   -10317.462    83.206821 
   59100    1560.8809   -103.88488    1.4123178   -102.47256    31974.825     4.347325     4.347325     4.347325    31974.825    8830.7217    115801.56   -28707.805   -4389.6222     21062.15    8394.5056    82.161113 
   59200    1873.5189   -104.18503    1.6951993   -102.48983   -503.06749    4.3560834    4.3560834    4.3560834   -503.06749     1334.255    9323.3157   -12166.773    9032.0891   -8777.1652   -9226.4468      82.6587 
   59300    1598.2609   -103.93695      1.44614   -102.49081   -7711.9875    4.3640343    4.3640343    4.3640343   -7711.9875   -16396.665    70237.161   -76976.458    3164.3456    4083.1889   -2540.6673    83.112138 
   59400    1518.0751   -103.86126    1.3735862   -102.48768   -2980.2635     4.369224     4.369224     4.369224   -2980.2635   -1296.3866    32319.774   -39964.177    11548.509    14533.396   -6339.6425    83.409001 
   59500    1750.3094   -104.06082    1.5837168    -102.4771    -9946.837    4.3566176    4.3566176    4.3566176    -9946.837   -20285.887   -12815.433    3260.8091    21092.898    18185.229    14941.039    82.689114 
   59600    1170.4412   -103.53915    1.0590398   -102.48011    22427.943    4.3486943    4.3486943    4.3486943    22427.943    12481.051    92365.832   -37563.055   -565.37581    10115.398    1904.0628    82.238776 
   59700    1802.7721   -104.12049    1.6311861    -102.4893   -6811.0499    4.3688639    4.3688639    4.3688639   -6811.0499   -46651.265    19227.826    6990.2887    2723.1607    17951.167    10934.206    83.388384 
   59800    1570.2684   -103.91372    1.4208118   -102.49291   -34066.303    4.3730688    4.3730688    4.3730688   -34066.303   -60829.088   -30919.425   -10450.395    9825.2498    12096.439    3172.5995    83.629389 
   59900    1618.3175   -103.93899    1.4642877    -102.4747    17676.162    4.3559805    4.3559805    4.3559805    17676.162   -13944.095    77605.518   -10632.937   -8714.6979   -11467.307    -9819.935    82.652838 
   60000    1720.7464   -104.03414    1.5569675   -102.47717   -35311.467    4.3616211    4.3616211    4.3616211   -35311.467   -76275.574   -21828.958   -7829.8689    3191.9663    33806.641    3967.3114    82.974338 
   60100    1941.9444   -104.22155    1.7571121   -102.46444   -1749.6081    4.3701014    4.3701014    4.3701014   -1749.6081   -21761.816    21423.938   -4910.9464   -5146.7571   -17102.155    8223.6665    83.459265 
   60200    1324.2162   -103.66101    1.1981786   -102.46283   -33865.268    4.3842107    4.3842107    4.3842107   -33865.268   -62384.312   -50063.002    10851.511   -3463.3718    19701.528    7389.4231    84.270245 
   60300    1655.9917   -103.94075    1.4983761   -102.44237    195.58165    4.3695231    4.3695231    4.3695231    195.58165   -5236.7422    4347.5267    1475.9605    5686.2071    12653.986     5547.658    83.426134 
   60400    1855.3403   -104.12688    1.6787509   -102.44812    4586.3539    4.3603589    4.3603589    4.3603589    4586.3539    24735.465   -25942.312    14965.909     1764.231    18133.366    5726.7084    82.902328 
   60500    841.37279      -103.23   0.76129178   -102.46871    8783.2964    4.3772635    4.3772635    4.3772635    8783.2964    46019.464    2609.8523   -22279.427   -2765.1333    34327.244    25529.372    83.870276 
   60600    1630.5508   -103.91639    1.4753567   -102.44103    19230.749    4.3818088    4.3818088    4.3818088    19230.749    60143.183   -14329.999    11879.064   -19099.656    12212.043   -738.52592    84.131819 
   60700    958.80132   -103.30469   0.86754358   -102.43714    15731.837    4.3856078    4.3856078    4.3856078    15731.837     21120.29    65479.744   -39404.522    -10355.32    11703.299    17912.395    84.350832 
   60800    1530.8594   -103.79957    1.3851538   -102.41442    13322.942     4.371879     4.371879     4.371879    13322.942    42475.947    20132.375   -22639.497   -27350.761   -6183.4435    17394.859    83.561146 
   60900    1432.6594   -103.73197    1.2963003   -102.43567    26487.354    4.3575918    4.3575918    4.3575918    26487.354    7065.3034    71531.155    865.60183   -9153.4434    23785.358    4702.7218    82.744592 
   61000    1459.6388   -103.78991    1.3207119    -102.4692   -18.862603    4.3675306    4.3675306    4.3675306   -18.862603    26849.796   -6899.4783   -20006.906   -21493.275    -13145.15   -12917.277    83.312061 
   61100     1181.704   -103.56249    1.0692307   -102.49326    -2859.414    4.3755385    4.3755385    4.3755385    -2859.414   -34792.775    8653.6598    17560.873    1157.7553    17773.057     -12710.1    83.771158 
   61200    1931.0034   -104.22287    1.7472124   -102.47566   -9189.8211    4.3709161    4.3709161    4.3709161   -9189.8211     7710.543   -19038.584   -16241.423    2253.1821     11934.36    15593.186    83.505947 
   61300     1909.598   -104.19264    1.7278444    -102.4648   -2179.8927    4.3584901    4.3584901    4.3584901   -2179.8927   -13634.767   -19333.386    26428.476   -18448.439    834.63261   -1634.1649    82.795777 
   61400    1017.2189   -103.42047     0.920401   -102.50007    -257.9558    4.3729581    4.3729581    4.3729581    -257.9558   -22552.688    33491.205   -11712.385    2980.7724   -1492.5808    4063.8391    83.623038 
   61500    1858.3927   -104.16024    1.6815128   -102.47872   -877.35994    4.3790845    4.3790845    4.3790845   -877.35994   -32629.219    7831.2459    22165.893     -17948.9   -5650.2366     -15017.3    83.974996 
   61600    1531.9268   -103.85958    1.3861195   -102.47346   -19001.833    4.3754844    4.3754844    4.3754844   -19001.833   -34954.724   -3557.5995   -18493.175    8989.1799    27997.042     25147.03    83.768054 
   61700    1379.6213   -103.69847    1.2483103   -102.45016    23458.815    4.3609269    4.3609269    4.3609269    23458.815     23561.24   -8405.3755    55220.581   -14437.354   -4779.5202    12864.265    82.934726 
   61800    1989.5983   -104.26151    1.8002303   -102.46128   -33297.394    4.3729089    4.3729089    4.3729089   -33297.394   -55209.955   -27029.062   -17653.166    15409.264    18723.603   -17341.802    83.620215 
   61900    1358.9869   -103.68828    1.2296399   -102.45864   -11803.096    4.3684883    4.3684883    4.3684883   -11803.096     1251.725   -22371.729   -14289.286     164.2253   -3519.3806     26562.21    83.366874 
   62000    2075.9062   -104.32805    1.8783235   -102.44973   -17106.211    4.3574815    4.3574815    4.3574815   -17106.211   -23548.391    9976.1741   -37746.417   -5079.6049    1912.9005   -11026.508     82.73831 
   62100    1557.3339    -103.8811    1.4091084   -102.47199   -33117.663    4.3739853    4.3739853    4.3739853   -33117.663   -44288.354   -49981.692   -5082.9423   -777.45326    10163.983    25006.751     83.68198 
   62200    1594.4093   -103.89703    1.4426551   -102.45437    10181.588    4.3641737    4.3641737    4.3641737    10181.588    31445.943    6960.2471   -7861.4255   -2608.6564   -6310.0382    10397.664    83.120106 
   62300    1567.7205   -103.88377    1.4185064   -102.46527    4512.6696    4.3629791    4.3629791    4.3629791    4512.6696    34080.567    -21612.44    1069.8808   -3762.8483   -1959.9079    4971.3415    83.051866 
   62400    1565.1345   -103.88175    1.4161666   -102.46558   -11870.266    4.3784559    4.3784559    4.3784559   -11870.266    21375.923    -26374.93   -30611.791   -16210.102   -6242.6745    10550.746    83.938836 
   62500    1396.6316   -103.71062    1.2637016   -102.44692    41057.482    4.3615255    4.3615255    4.3615255    41057.482    35987.142    34956.056    52229.247    2191.4496   -2019.4469    28360.667    82.968882 
   62600    1756.6348   -104.04528    1.5894401   -102.45584   -22745.073    4.3643468    4.3643468    4.3643468   -22745.073   -20649.789   -12740.269   -34845.162   -2406.2145    8052.1482    16502.632    83.129998 
   62700    1683.7948   -103.97685    1.5235329   -102.45332    47772.125    4.3559111    4.3559111    4.3559111    47772.125     54182.58      49130.3    40003.495    4500.1907    5317.3582    8709.6394    82.648888 
   62800    1591.3689   -103.91663    1.4399041   -102.47672   -13089.834    4.3618792    4.3618792    4.3618792   -13089.834   -28661.424     19603.79   -30211.868   -5396.3135     11707.23    19873.376     82.98907 
   62900    1488.7813   -103.82874    1.3470806   -102.48165   -475.09145    4.3704976    4.3704976    4.3704976   -475.09145    4783.9526    17460.357   -23669.584   -18470.883    789.01058   -14981.347    83.481966 
   63000      1860.83   -104.16304    1.6837181   -102.47932   -18913.773     4.365337     4.365337     4.365337   -18913.773   -29135.021   -4498.3872   -23107.909    12234.365   -7527.2095    18420.973    83.186591 
   63100    1469.4149   -103.81607    1.3295575   -102.48652   -11498.871    4.3793582    4.3793582    4.3793582   -11498.871   -18386.468   -8767.8704   -7342.2742   -38303.259   -6653.9366   -8426.1428     83.99074 
   63200    1787.6694   -104.08718    1.6175208   -102.46966   -12549.301     4.369955     4.369955     4.369955   -12549.301     28927.54   -57494.296   -9081.1474   -1897.2706    -2325.315    25755.546    83.450875 
   63300    1479.5675   -103.82129    1.3387437   -102.48255   -5732.8601     4.366684     4.366684     4.366684   -5732.8601    27492.831   -16575.203   -28116.208   -5104.5471    13229.346    4501.4733    83.263621 
   63400    1811.3049   -104.12088    1.6389067   -102.48198   -17170.682    4.3618446    4.3618446    4.3618446   -17170.682   -27576.461   -7609.7061   -16325.881   -12346.295   -8630.8299    16691.052    82.987094 
   63500    1768.3676   -104.08707    1.6000562   -102.48701   -40040.273    4.3818511    4.3818511    4.3818511   -40040.273    8963.2756   -50958.391   -78125.703    3260.8467    4712.6893   -9.5213262    84.134254 
   63600    1065.2197   -103.43514   0.96383318    -102.4713    10054.669     4.380193     4.380193     4.380193    10054.669   -86004.184    41157.899    75010.294   -21487.412    12902.153   -3031.8244     84.03878 
   63700    2069.2488   -104.32652    1.8722998   -102.45422   -16571.829    4.3650812    4.3650812    4.3650812   -16571.829   -38291.917    6660.0002   -18083.572    15704.591     446.3706    34397.788     83.17197 
   63800    1530.4742   -103.85382    1.3848052   -102.46901   -7022.0904    4.3703038    4.3703038    4.3703038   -7022.0904   -64150.146    13980.562    29103.312   -17107.258    851.98963   -20994.507     83.47086 
   63900    1410.9584   -103.76244    1.2766648   -102.48578    18585.703    4.3709087    4.3709087    4.3709087    18585.703   -28063.258    78730.985    5089.3826     4833.342   -8719.8548    20421.449    83.505525 
   64000    1840.7246   -104.16664    1.6655263   -102.50112   -5075.5265    4.3713376    4.3713376    4.3713376   -5075.5265   -26401.846   -17605.004    28780.271   -19228.053    5294.2861   -11264.036    83.530109 
   64100    1573.8344   -103.92192    1.4240384   -102.49788    13340.056    4.3739725    4.3739725    4.3739725    13340.056   -30457.977    58711.156    11766.989   -2623.8258    -9176.818    2477.8618    83.681244 
   64200    969.13381   -103.37617   0.87689264   -102.49927   -3627.2771    4.3789096    4.3789096    4.3789096   -3627.2771   -45279.225    12030.413    22366.981    -32022.17    10338.006     28318.88    83.964933 
   64300     2040.215   -104.31664    1.8460294   -102.47061   -13657.677    4.3654741    4.3654741    4.3654741   -13657.677   -20828.469     -872.058   -19272.504   -1254.0105    2366.4607   -23116.872    83.194429 
   64400    1296.4262   -103.64925    1.1730337   -102.47621     33466.09    4.3644106    4.3644106    4.3644106     33466.09   -13037.755    76833.156    36602.869    16820.459    246.79009    15020.949    83.133643 
   64500    1458.9622   -103.81551    1.3200996   -102.49541    3859.7423    4.3687217    4.3687217    4.3687217    3859.7423    -29914.69     70382.31   -28888.393   -24846.459    4185.6312   -371.75402     83.38024 
   64600    2070.1761    -104.3698    1.8731388   -102.49666   -14226.441    4.3774407    4.3774407    4.3774407   -14226.441   -20555.124   -16318.726   -5805.4714    20251.716    8567.8565   -6860.8246    83.880461 
   64700    1136.9376   -103.52393    1.0287251    -102.4952    30254.731     4.371226     4.371226     4.371226    30254.731    60010.909   -488.32156    31241.605   -8217.2842   -31620.761    16475.227     83.52371 
   64800    1743.7827   -104.06425    1.5778112   -102.48644   -21290.875    4.3647725    4.3647725    4.3647725   -21290.875   -34084.346   -8921.9064   -20866.373    10076.279    12285.982    1036.7463    83.154327 
   64900    1786.7538   -104.09774    1.6166924   -102.48104    25173.327    4.3554991    4.3554991    4.3554991    25173.327    35150.763   -7984.7213     48353.94   -23940.842   -3301.4112    11562.374    82.625438 
   65000    1131.3081   -103.52166    1.0236313   -102.49803    39986.917    4.3745753    4.3745753    4.3745753    39986.917    29791.475     87107.57    3061.7071   -34307.507   -9932.9398   -2545.0099    83.715847 
   65100    1844.3292   -104.12428    1.6687878   -102.45549   -14650.858    4.3893154    4.3893154    4.3893154   -14650.858   -28058.252    19127.342   -35021.664    11811.408    10884.461    615.74662    84.564947 
   65200    1671.0737    -103.9623    1.5120226   -102.45028   -1737.9926    4.3650706    4.3650706    4.3650706   -1737.9926    -10980.38   -32741.531    38507.933   -22116.128   -13379.141    599.38354    83.171362 
   65300    2041.4684   -104.32015    1.8471635   -102.47298   -10439.842     4.363573     4.363573     4.363573   -10439.842   -4059.9653    -17695.61   -9563.9504    18885.844   -5002.2104   -21685.699    83.085789 
   65400    1113.0012   -103.49904    1.0070669   -102.49197   -21846.691    4.3700201    4.3700201    4.3700201   -21846.691    -70592.91    17768.758   -12715.919   -25040.547    -12175.58     6887.318    83.454607 
   65500    1935.8597   -104.23213    1.7516065   -102.48053    3316.5525    4.3617712    4.3617712    4.3617712    3316.5525   -20578.517    2980.1598    27548.015    7020.9594    1184.4304    13758.674    82.982907 
   65600    1953.2631   -104.26203    1.7673535   -102.49467   -32439.208     4.375269     4.375269     4.375269   -32439.208   -46653.692   -38825.921   -11838.011    -19442.95   -8213.5116   -3750.2292    83.755681 
   65700       1438.4   -103.78925    1.3014945   -102.48775    10210.316     4.366254     4.366254     4.366254    10210.316   -24175.358    65308.714   -10502.408   -10270.842   -735.45999    8879.4868    83.239023 
   65800    1650.5773   -103.97586     1.493477   -102.48239    7666.8155    4.3487044    4.3487044    4.3487044    7666.8155   -12460.123   -26149.309    61609.878   -6590.9904   -3756.5546   -38006.618    82.239347 
   65900    1749.0858   -104.08192    1.5826096   -102.49931     12050.85    4.3564134    4.3564134    4.3564134     12050.85   -48398.447    53840.931    30710.065   -12904.097   -1035.0385    5770.8525    82.677486 
   66000    1837.0319   -104.13895    1.6621851   -102.47676   -17849.205    4.3702646    4.3702646    4.3702646   -17849.205    -9130.377   -14045.021   -30372.219   -7464.1879    15007.818   -27237.595    83.468613 
   66100     1386.448   -103.72499    1.2544873   -102.47051   -18772.665    4.3685509    4.3685509    4.3685509   -18772.665   -39630.465   -3087.9991   -13599.531   -22374.861   -12635.769   -6068.3251    83.370459 
   66200    2159.1199   -104.42574     1.953617   -102.47213    -6566.129    4.3633126    4.3633126    4.3633126    -6566.129   -29950.438   -11666.292    21918.343   -2430.3535    1312.0856      9653.91    83.070913 
   66300    1114.2555    -103.4974    1.0082018    -102.4892    6045.9437    4.3508134    4.3508134    4.3508134    6045.9437   -2116.9319   -32068.568    52323.331    -9786.959   -1327.2475   -27738.202    82.359057 
   66400    1463.1401   -103.81488    1.3238799     -102.491    19742.724    4.3529999    4.3529999    4.3529999    19742.724    16070.363   -10073.628    53231.436   -7244.1579   -13100.065   -1451.2386    82.483291 
   66500    1735.6821    -104.0719    1.5704817   -102.50142   -26151.168    4.3748118    4.3748118    4.3748118   -26151.168   -38743.119   -54215.295    14504.909   -9182.3409    1320.5788    -13337.84    83.729428 
   66600    1838.4163   -104.14276    1.6634377   -102.47932   -36361.277    4.3720051    4.3720051    4.3720051   -36361.277   -60694.888   -67435.788    19046.846   -2512.0136   -4331.3646   -5969.6622    83.568377 
   66700    1501.1612   -103.82674    1.3582822   -102.46846    18156.739    4.3488415    4.3488415    4.3488415    18156.739   -2761.3121    7475.5163    49756.013   -5979.4223   -3420.5213   -12306.251    82.247128 
   66800    1623.7063   -103.95507    1.4691636   -102.48591   -3836.0328    4.3475022    4.3475022    4.3475022   -3836.0328    14947.502   -34775.776    8320.1761   -23392.818    13236.036   -22798.617    82.171165 
   66900    1804.0535   -104.13723    1.6323455   -102.50488    2504.0072    4.3647173    4.3647173    4.3647173    2504.0072   -19604.827   -13497.523    40614.371    3688.9839   -8480.2758    19482.846    83.151169 
   67000    1148.5483   -103.54671    1.0392307   -102.50748   -6295.8605    4.3681951    4.3681951    4.3681951   -6295.8605   -9420.7404    8724.5215   -18191.363   -13181.104    -11490.38   -20686.668    83.350092 
   67100    1853.5737   -104.16174    1.6771525   -102.48458    10039.021    4.3593902    4.3593902    4.3593902    10039.021   -6835.3109    27980.311    8972.0622        16982    6260.9418    4813.6733    82.847085 
   67200    1487.6573   -103.82796    1.3460636    -102.4819    4205.4907    4.3594151    4.3594151    4.3594151    4205.4907   -1302.5857    12630.105    1288.9525   -13552.144   -4078.1918     1297.272    82.848505 
   67300    1262.3939   -103.63033    1.1422405   -102.48808     20961.53    4.3639632    4.3639632    4.3639632     20961.53    6210.6513    16801.195    39872.744    2731.2167    11867.244    -14084.78    83.108076 
   67400    2047.2548   -104.32489    1.8523991   -102.47249   -24731.484    4.3774451    4.3774451    4.3774451   -24731.484   -37807.556    660.72944   -37047.624    10418.674   -11584.021    13413.916    83.880715 
   67500    1360.5298   -103.68797    1.2310359   -102.45694    11897.069    4.3621626    4.3621626    4.3621626    11897.069    2907.5847   -36052.159     68835.78   -15884.122   -24590.913   -13216.956    83.005247 
   67600    1787.5215   -104.08995     1.617387   -102.47257    2616.5376    4.3621719    4.3621719    4.3621719    2616.5376   -7355.4493    3524.8453    11680.217    28489.614    1271.0157   -1084.6936    83.005776 
   67700    1420.4547   -103.77492    1.2852573   -102.48967    22.959657    4.3732908    4.3732908    4.3732908    22.959657   -5596.6013   -28711.811    34377.292   -9841.0206   -3764.3572    -6372.934    83.642125 
   67800    1803.8734   -104.12862    1.6321826   -102.49643   -28663.234    4.3749309    4.3749309    4.3749309   -28663.234    1764.8489   -67411.326   -20343.226    4684.5637    13493.319   -3914.6797    83.736264 
   67900    1359.4061   -103.71684    1.2300192   -102.48682   -4415.4516    4.3739351    4.3739351    4.3739351   -4415.4516   -9141.6319   -2758.3975   -1346.3255   -5690.3922   -15824.793     5945.955    83.679102 
   68000    2080.5154   -104.34869     1.882494   -102.46619      2052.94    4.3592796    4.3592796    4.3592796      2052.94    -18675.63   -7193.8281    32028.278   -7618.4459    9394.4599   -33523.125    82.840777 
   68100     1273.131   -103.63725    1.1519557   -102.48529    11338.923    4.3651134    4.3651134    4.3651134    11338.923   -22888.092    45460.338    11444.523    2400.2473   -3624.0372    13074.947    83.173809 
   68200    1852.8085   -104.15394    1.6764601   -102.47748   -20678.301     4.374551     4.374551     4.374551   -20678.301   -29584.637   -31957.361   -492.90546   -9372.3487   -5380.1982   -22226.431    83.714452 
   68300    1600.2694   -103.92448    1.4479574   -102.47653    27677.821    4.3712711    4.3712711    4.3712711    27677.821    15097.107    50277.315    17659.041   -1351.5864   -12804.831   -13458.752    83.526299 
   68400     1915.472   -104.20268    1.7331593   -102.46952   -23049.024     4.360518     4.360518     4.360518   -23049.024    -911.7257   -46186.173   -22049.173   -14689.289    4449.7178   -3272.4016    82.911402 
   68500    1103.5599   -103.47124   0.99852418   -102.47271    41610.782    4.3579535    4.3579535    4.3579535    41610.782    62543.188    7183.6957    55105.462   -7910.2183   -11817.539   -14121.671    82.765201 
   68600     2069.266   -104.34706    1.8723154   -102.47474   -13732.569    4.3708957    4.3708957    4.3708957   -13732.569    21817.587    -13117.95   -49897.344    -14148.01    6196.6438   -798.76675    83.504778 
   68700    1476.9881   -103.82098    1.3364098   -102.48457    504.00978    4.3696153    4.3696153    4.3696153    504.00978    8689.8299   -16614.318    9436.5178   -15215.539   -1327.3428    4792.1508    83.431418 
   68800    1311.0544   -103.66449    1.1862696   -102.47822    22141.909    4.3656234    4.3656234    4.3656234    22141.909    79605.317    20994.441    -34174.03     3077.885   -1433.2244    6053.0145    83.202964 
   68900    1919.6456    -104.2092    1.7369357   -102.47226   -4067.9871    4.3613453    4.3613453    4.3613453   -4067.9871    22896.375   -7427.0971    -27673.24   -10616.123    4709.9699   -7282.9173    82.958601 
   69000    1655.7787    -103.9696    1.4981833   -102.47142    29843.895    4.3571022    4.3571022    4.3571022    29843.895    35005.804    3291.6797      51234.2    10016.279   -40201.231    5394.5778    82.716707 
   69100    1436.4554   -103.77717    1.2997351   -102.47743   -17385.174    4.3745572    4.3745572    4.3745572   -17385.174    5520.3024   -53657.105   -4018.7192    1075.8421    9518.6242    12508.438     83.71481 
   69200    1514.1717   -103.83368    1.3700543   -102.46362    12586.165     4.373133     4.373133     4.373133    12586.165    -8298.689    15427.718    30629.467   -17086.242    977.68951    7557.3986    83.633075 
   69300    1860.1925   -104.13968    1.6831413   -102.45654   -3482.9328    4.3603191    4.3603191    4.3603191   -3482.9328   -12161.248   -19763.993    21476.442    15505.524   -1768.7213    3537.6198    82.900054 
   69400    1281.2972   -103.62576    1.1593446   -102.46641        22698     4.349734     4.349734     4.349734        22698    102977.27   -43095.725    8212.4515    10181.777   -8614.0231    -8550.287    82.297776 
   69500    1546.2831   -103.89158    1.3991095   -102.49247    30939.738    4.3624704    4.3624704    4.3624704    30939.738    132.08017   -5519.5507    98206.686    2170.9856   -13302.313   -1737.7721    83.022821 
   69600    1882.9092    -104.1803    1.7036958    -102.4766   -17836.774    4.3814973    4.3814973    4.3814973   -17836.774    22796.743   -59691.298   -16615.765    7197.3413    3892.7924   -4011.3833    84.113875 
   69700    1238.7947   -103.59353    1.1208875   -102.47264   -37880.436    4.3659927    4.3659927    4.3659927   -37880.436   -21998.194   -81585.876   -10057.239   -6055.4528   -6810.0733   -3643.3156    83.224085 
   69800    2085.0818   -104.33737    1.8866258   -102.45074    38655.728     4.338152     4.338152     4.338152    38655.728    34795.303     13410.49     67761.39   -10762.269   -17966.058    9092.2505    81.642121 
   69900     1371.157   -103.73315    1.2406517    -102.4925   -2002.5705    4.3548198    4.3548198    4.3548198   -2002.5705    19732.508    474.15898   -26214.378   -1321.4371    -2429.374    15805.818    82.586788 
   70000    1407.2095   -103.76646    1.2732727   -102.49319   -20121.415    4.3691786    4.3691786    4.3691786   -20121.415    17054.415   -63256.953   -14161.707    2035.4049   -23631.068    3581.7026    83.406403 
   70100    1874.3657   -104.17512    1.6959655   -102.47915    7479.9316    4.3739733    4.3739733    4.3739733    7479.9316    25811.412   -20441.232    17069.615    21637.232    -1799.483   -2798.9193    83.681295 
   70200     1332.422   -103.68665    1.2056035   -102.48105   -6119.7951    4.3509213    4.3509213    4.3509213   -6119.7951    15135.419   -4772.2794   -28722.525    8383.5218   -33041.877    16453.496    82.365184 
   70300    1649.3414   -103.97173    1.4923588   -102.47937    6709.2918     4.348664     4.348664     4.348664    6709.2918   -2599.4114   -46632.397    69359.684     6238.934    14810.981    7809.4879    82.237056 
   70400    1678.3579   -104.01243    1.5186135   -102.49382   -13846.314    4.3626141    4.3626141    4.3626141   -13846.314   -58005.648   -718.01457    17184.722   -4610.8435    -11882.74    7668.9705    83.031027 
   70500    1512.9285   -103.85655    1.3689295   -102.48762   -1617.3158    4.3616978    4.3616978    4.3616978   -1617.3158   -52209.109     24816.28    22540.882   -4743.0863   -22523.602    14105.353    82.978717 
   70600    2169.2128   -104.42832    1.9627493   -102.46557   -12221.671    4.3573228    4.3573228    4.3573228   -12221.671   -45469.868   -21937.292    30742.147     5016.647    1257.1491    2680.3784    82.729274 
   70700    1192.8014   -103.55815    1.0792718   -102.47887    4349.7048    4.3588654    4.3588654    4.3588654    4349.7048   -42267.804    43584.438     11732.48    -2967.555   -38943.122    21069.264    82.817169 
   70800    2096.2464   -104.36152    1.8967278   -102.46479    -5709.596    4.3668798    4.3668798    4.3668798    -5709.596   -52204.707     46985.83    -11909.91    3729.9244    16963.268   -4665.3776    83.274823 
   70900    1517.7501   -103.83899    1.3732922    -102.4657   -32031.962    4.3681995    4.3681995    4.3681995   -32031.962   -54335.332    2346.4073    -44106.96    12175.973   -29808.152   -5570.9878    83.350342 
   71000    1565.1433   -103.88074    1.4161746   -102.46457    3005.4283    4.3589311    4.3589311    4.3589311    3005.4283   -13282.084   -27204.656    49503.024   -8437.3028    4160.6034   -5969.6593    82.820912 
   71100    1763.7683    -104.0655    1.5958946   -102.46961      25004.7    4.3550789    4.3550789    4.3550789      25004.7   -7119.9093    61745.073    20388.938    -11718.74    6584.8794   -2356.4826    82.601529 
   71200    1534.1117   -103.86817    1.3880965   -102.48007   -171.01004    4.3654195    4.3654195    4.3654195   -171.01004   -7608.5728   -27542.686    34638.229    -305.9986   -11552.032   -15255.931    83.191307 
   71300    1482.9705    -103.8106    1.3418228   -102.46878    24534.068    4.3733783    4.3733783    4.3733783    24534.068   -2264.9849    60334.101    15533.089   -9701.0943    5764.6404   -16149.179    83.647147 
   71400    1708.8165   -104.00373    1.5461731   -102.45756    7448.3461    4.3728887    4.3728887    4.3728887    7448.3461     4414.244   -32877.871    50808.665    1122.3299   -29691.025    603.93224    83.619056 
   71500    1614.8761   -103.90829    1.4611738   -102.44712      25472.2    4.3669328    4.3669328    4.3669328      25472.2    27580.667    25721.642    23114.291    -4001.961    18289.364   -13281.417    83.277856 
   71600    1361.0616   -103.68054    1.2315172   -102.44902    13839.844    4.3603401    4.3603401    4.3603401    13839.844    89250.313   -40193.075   -7537.7065   -5996.1377   -19542.682    6064.7039    82.901255 
   71700    1924.2465   -104.21431    1.7410987   -102.47321    -19578.05    4.3612749    4.3612749    4.3612749    -19578.05    11892.955   -34225.245   -36401.859    22348.096   -3545.1011   -26713.242    82.954584 
   71800    2131.7029   -104.40988    1.9288096   -102.48107   -6130.3205    4.3745682    4.3745682    4.3745682   -6130.3205     12493.59   -22921.409   -7963.1425    12750.917   -14353.557    4764.3249    83.715442 
   71900    1202.9823   -103.56371    1.0884837   -102.47522   -50332.523    4.3917714    4.3917714    4.3917714   -50332.523   -10407.484   -64314.848   -76275.238    5060.0528   -14944.347   -23669.841    84.706974 
   72000    2073.0845   -104.32486    1.8757704   -102.44909    8.5985878     4.374536     4.374536     4.374536    8.5985878    43941.924   -24594.848   -19321.279    5204.3921     -2428.22    8448.7139    83.713596 
   72100    1505.2148   -103.81384    1.3619499   -102.45189    14002.963    4.3507512    4.3507512    4.3507512    14002.963    53589.787    22952.669   -34533.567   -6070.4631   -6915.0775   -17154.972    82.355528 
   72200    1300.6755   -103.66349    1.1768785   -102.48661    17824.263    4.3569834    4.3569834    4.3569834    17824.263   -16775.974    60464.515    9784.2479   -10857.848    7360.7065    6643.7618    82.709942 
   72300    1672.6723   -104.01027     1.513469    -102.4968   -5639.7232     4.382449     4.382449     4.382449   -5639.7232    -2764.618   -20390.271    6235.7194   -10054.079   -1967.2363   -2760.0693    84.168696 
   72400    1009.0633   -103.38838   0.91302172   -102.47536    6859.0694    4.3773475    4.3773475    4.3773475    6859.0694     42388.13   -9972.4046   -11838.518    10438.991    5265.5073   -31914.251    83.875106 
   72500    2254.7718    -104.4821    2.0401649   -102.44193   -11299.373    4.3584761    4.3584761    4.3584761   -11299.373   -18820.869    1595.5314   -16672.781     2498.017    3136.2457    5348.2624    82.794981 
   72600    1192.5919   -103.55741    1.0790822   -102.47833    6001.5938    4.3647379    4.3647379    4.3647379    6001.5938    57964.198   -36032.131   -3927.2856   -3636.1349    -9711.772   -21586.438    83.152347 
   72700    1766.7966   -104.06625    1.5986347   -102.46762    2286.5147    4.3767239    4.3767239    4.3767239    2286.5147    -8451.676    24632.157   -9320.9367   -3482.5501    15189.277   -7551.5611    83.839262 
   72800    1384.8997   -103.72339    1.2530864   -102.47031    -14297.45    4.3846625    4.3846625    4.3846625    -14297.45    38304.915   -46911.813   -34285.453    6211.2737   -15476.097    -13652.96    84.296298 
   72900    2006.3926   -104.26789    1.8154262   -102.45246   -15788.606    4.3799677    4.3799677    4.3799677   -15788.606   -51056.151    54519.302   -50828.969    13015.045    10667.548    9079.1689     84.02581 
   73000    1345.6558   -103.67097    1.2175776   -102.45339      49360.4    4.3503519    4.3503519    4.3503519      49360.4    37867.385    102232.99    7980.8287    2398.6695   -9557.3948   -23078.948    82.332856 
   73100    1576.2711   -103.91329    1.4262432   -102.48704    14368.352     4.353198     4.353198     4.353198    14368.352      9440.64    -28161.88    61826.295    29726.095   -897.85577   -428.73793    82.494552 
   73200    1748.3666   -104.06506    1.5819589    -102.4831   -6268.8071    4.3823356    4.3823356    4.3823356   -6268.8071   -19953.585    30951.392   -29804.228   -10726.357    466.48437    4067.3511    84.162168 
   73300    1648.1981   -103.95483    1.4913243   -102.46351   -22115.926    4.3759945    4.3759945    4.3759945   -22115.926   -38424.239    3518.2289   -31441.769    13751.087   -15388.178   -29802.555    83.797356 
   73400    1494.7398    -103.8058    1.3524719   -102.45333    22053.478    4.3663077    4.3663077    4.3663077    22053.478   -7192.2366   -2625.0168    75977.687    2206.1897    1522.0476    19788.573      83.2421 
   73500    1782.7642   -104.09313    1.6130825   -102.48005   -33216.987    4.3647305    4.3647305    4.3647305   -33216.987   -36201.921   -3856.7777   -59592.261    -956.8171   -11033.635   -34764.767    83.151926 
   73600    1837.4144   -104.15411    1.6625312   -102.49158    14110.106    4.3652256    4.3652256    4.3652256    14110.106   -34834.327   -10695.952    87860.597   -100.60802    12350.877    483.77377    83.180223 
   73700    1408.3976   -103.77604    1.2743478   -102.50169    1572.4544    4.3798055    4.3798055    4.3798055    1572.4544   -44442.116    45366.475    3793.0038    -3684.926   -8338.6454   -12294.735    84.016477 
   73800    1449.6121   -103.80379    1.3116395   -102.49215   -7993.9986    4.3833164    4.3833164    4.3833164   -7993.9986   -35869.092    36624.781   -24737.685    24341.246     2088.329   -22538.408    84.218684 
   73900    1441.2735   -103.78001    1.3040945   -102.47591        10813    4.3721071    4.3721071    4.3721071        10813     -46867.8    34400.078    44906.723    7176.0642   -10307.464    28376.935    83.574227 
   74000    1704.9119   -103.99738    1.5426401   -102.45474   -24129.508    4.3570172    4.3570172    4.3570172   -24129.508   -29719.289   -27362.884    -15306.35    20168.818   -1443.8653   -35132.857    82.711869 
   74100    1805.4681   -104.10846    1.6336254   -102.47484    11005.316    4.3693977    4.3693977    4.3693977    11005.316   -49977.255    29936.309    53056.893    4185.8003   -14068.164    5632.1987    83.418952 
   74200    1565.5216   -103.89046    1.4165168   -102.47394   -29815.495    4.3996004    4.3996004    4.3996004   -29815.495   -30143.184   -16015.991   -43287.309    25560.843   -2758.2869   -863.04759    85.160795 
   74300    1364.6406   -103.68604    1.2347555   -102.45128    10712.089    4.3936532    4.3936532    4.3936532    10712.089   -19145.066   -26454.664    77735.995    6474.5758    3975.4318   -2022.4034    84.815909 
   74400    2069.5002   -104.32136    1.8725273   -102.44883   -18244.595    4.3720692    4.3720692    4.3720692   -18244.595   -44112.386    18095.612    -28717.01   -5815.5687    1856.8739   -27305.393    83.572053 
   74500    978.22313   -103.36884   0.88511685   -102.48372    53374.842    4.3523218    4.3523218    4.3523218    53374.842    8737.3163    6526.9163    144860.29    9321.6844    5028.0033   -5983.3258    82.444748 
   74600    1934.5528    -104.2509    1.7504241   -102.50048    8738.5378    4.3654904    4.3654904    4.3654904    8738.5378   -32523.543    61060.309   -2321.1529   -14034.633   -15506.732    4969.0202    83.195364 
   74700    1069.9931   -103.48775   0.96815226    -102.5196    18256.832    4.3832658    4.3832658    4.3832658    18256.832    -23854.24   -7674.2933    86299.031    9749.9972    2281.4166   -36439.003    84.215771 
   74800    1708.6779   -104.02361    1.5460477   -102.47756    14176.005    4.3825683    4.3825683    4.3825683    14176.005   -27346.952    19237.672    50637.295   -6664.4218    3883.5123    30541.783    84.175572 
   74900    1155.1069   -103.52144     1.045165   -102.47628    21418.504    4.3528464    4.3528464    4.3528464    21418.504   -7921.7352    19186.088    52991.158    6339.6211   -10520.245   -27825.763    82.474566 
   75000    2156.1804   -104.45326    1.9509573   -102.50231   -22045.966    4.3489741    4.3489741    4.3489741   -22045.966    -25409.46   -28945.602   -11782.836    3206.8158    25642.762    -28830.75    82.254653 
   75100     1766.114   -104.12642    1.5980171   -102.52841   -7030.2186    4.3757126    4.3757126    4.3757126   -7030.2186   -11400.269   -38676.224    28985.837   -10037.545   -9912.6473   -59.207603    83.781157 
   75200    1233.0451   -103.61424    1.1156851   -102.49856   -75778.603    4.3926544    4.3926544    4.3926544   -75778.603   -66010.505   -87556.683   -73768.622    16532.618    10833.613   -25670.773     84.75808 
   75300    2118.1881   -104.37647    1.9165811   -102.45989    23868.879    4.3543981    4.3543981    4.3543981    23868.879    17583.535    35340.094    18683.009   -22882.067    -5181.929    83.968231    82.562796 
   75400    1434.5135   -103.77858     1.297978    -102.4806     6617.509    4.3472701    4.3472701    4.3472701     6617.509   -23219.901    60031.508    -16959.08    2262.5516    2607.3572    -43999.73    82.158002 
   75500     1317.928   -103.69669    1.1924889    -102.5042    23731.394    4.3649053    4.3649053    4.3649053    23731.394    25600.375    35088.884    10504.923    177.99164    7189.5737    15313.991    83.161917 
   75600    1933.6179    -104.2426    1.7495781   -102.49302   -32622.501    4.3863453    4.3863453    4.3863453   -32622.501   -52543.053   -11607.811    -33716.64    4398.2101    -6537.367   -17664.195    84.393394 
   75700    1353.8776   -103.70757    1.2250169   -102.48255   -1816.8966    4.3701171    4.3701171    4.3701171   -1816.8966   -1792.8973   -8065.3532    4407.5608    7719.5504    16476.583   -19060.499     83.46016 
   75800    1827.6651   -104.12206    1.6537098   -102.46835    21041.706    4.3498829    4.3498829    4.3498829    21041.706   -31553.163    77443.103    17235.177    3123.4194   -11018.808    20245.979     82.30623 
   75900    1649.7783   -103.99235    1.4927541    -102.4996   -21479.825    4.3560741    4.3560741    4.3560741   -21479.825   -37239.065   -12649.909   -14550.501   -1150.3015    13390.416   -28761.091    82.658169 
   76000     1597.282   -103.94624    1.4452543   -102.50099    30798.884    4.3650044    4.3650044    4.3650044    30798.884   -35763.402     98911.29    29248.765     679.3975   -18218.434    16654.244    83.167579 
   76100    1126.5757   -103.51834    1.0193494   -102.49899   -10929.852    4.3833359    4.3833359    4.3833359   -10929.852   -73773.481    111505.13   -70521.201    818.33095    20590.644   -29608.808     84.21981 
   76200    1873.0729   -104.18041    1.6947957   -102.48561   -9785.9861    4.3673843    4.3673843    4.3673843   -9785.9861   -52090.372    53320.937   -30588.524    4875.1768   -10528.405   -29886.143    83.303687 
   76300    1879.6702   -104.18782    1.7007651   -102.48706     6484.834    4.3481858    4.3481858    4.3481858     6484.834    7526.1446   -9304.3968    21232.754    4205.8836    4742.6161    23662.042    82.209929 
   76400    1401.0962   -103.79217    1.2677413   -102.52443    11768.413     4.365142     4.365142     4.365142    11768.413   -26420.056    76472.736   -14747.442   -4185.0425   -2479.8881   -14646.095    83.175444 
   76500    1440.6815   -103.80805    1.3035589    -102.5045    10095.711    4.3847317    4.3847317    4.3847317    10095.711   -72883.384    148161.03    -44990.51   -8038.9524   -1330.5487    36879.834    84.300291 
   76600    1005.8802   -103.41516   0.91014152   -102.50502   -21167.699    4.3841496    4.3841496    4.3841496   -21167.699   -43722.338    4442.7955   -24223.555    985.99744   -5072.2827   -39674.993    84.266721 
   76700    1924.1907   -104.22662    1.7410482   -102.48557   -12599.803    4.3584807    4.3584807    4.3584807   -12599.803   -37468.953    48897.964    -49228.42   -3079.3287    9714.3669   -23278.178    82.795243 
   76800    1960.2642   -104.27013    1.7736883   -102.49644   -6327.8321    4.3492647    4.3492647    4.3492647   -6327.8321    -19588.24     34049.18   -33444.436    8062.1984   -623.98089    4893.8877     82.27114 
   76900    1078.0227   -103.50194   0.97541755   -102.52652    18700.396    4.3675305    4.3675305    4.3675305    18700.396   -25544.626    142130.68    -60484.87    2800.1525    5068.7174   -21131.845    83.312054 
   77000    1525.5896   -103.89346    1.3803856   -102.51307    -9771.188    4.3834334    4.3834334    4.3834334    -9771.188    -69893.79     114833.4    -74253.17    9516.8868    7832.8476    5353.2919    84.225433 
   77100    1665.4768   -104.01862    1.5069584   -102.51166   -448.59489    4.3554836    4.3554836    4.3554836   -448.59489   -379.15088    19512.322   -20478.956   -8033.3363    12983.779    1656.9672    82.624557 
   77200    1645.4323   -104.01984    1.4888217   -102.53102    12768.087    4.3576612    4.3576612    4.3576612    12768.087    -31973.67    111111.19   -40833.253   -16696.517   -953.55522   -4188.7399     82.74855 
   77300    1508.9796   -103.88761    1.3653565   -102.52226   -22200.679    4.3869725    4.3869725    4.3869725   -22200.679   -14362.505   -27467.991   -24771.539   -15689.994    2042.0621    19421.315    84.429599 
   77400     1572.407   -103.91179    1.4227469   -102.48905   -5099.2589    4.3810978    4.3810978    4.3810978   -5099.2589    40586.451   -10905.631   -44978.596    18246.492    16002.429   -9550.2148    84.090872 
   77500    1368.4189    -103.7121    1.2381741   -102.47393    15520.685    4.3698625    4.3698625    4.3698625    15520.685   -9665.2465    101668.56   -45441.255   -27589.749    -1673.297   -2004.3142    83.445574 
   77600      1169.07   -103.54602    1.0577991   -102.48822    20090.634    4.3696264    4.3696264    4.3696264    20090.634    72811.406    25904.236   -38443.739   -17567.779    2842.1117   -14876.123    83.432051 
   77700    1647.4143   -103.97045     1.490615   -102.47983   -26232.579    4.3847911    4.3847911    4.3847911   -26232.579   -27918.139   -15667.689   -35111.911    4723.9118   -4954.5186    15291.209    84.303719 
   77800    1556.9595   -103.86867    1.4087697    -102.4599   -43587.869    4.3817092    4.3817092    4.3817092   -43587.869   -16870.985    -76290.92   -37601.701    3893.8494      10345.7   -2104.7554    84.126082 
   77900    2138.9345   -104.37174    1.9353529   -102.43638   -12573.596    4.3711776    4.3711776    4.3711776   -12573.596    29559.722   -54425.146   -12855.363    2853.3851   -16940.583   -4100.4958    83.520934 
   78000    1596.0815   -103.89804     1.444168   -102.45387   -29667.676    4.3739849    4.3739849    4.3739849   -29667.676   -25929.814   -88584.115      25510.9    8274.9135    10844.614    23216.324    83.681958 
   78100    2036.6224   -104.29815    1.8427787   -102.45537   -3200.3634    4.3679267    4.3679267    4.3679267   -3200.3634    21253.136   -37258.792     6404.565    7874.1016   -20799.408    1251.3397    83.334727 
   78200    1294.6322   -103.67809    1.1714104   -102.50668   -16648.583    4.3571425    4.3571425    4.3571425   -16648.583    8431.2015   -68910.921    10533.969    9350.9109     6759.062    19538.839    82.719005 
   78300    2238.1281   -104.53208    2.0251053   -102.50697    12822.095    4.3506034    4.3506034    4.3506034    12822.095    7102.9767   -27817.393    59180.702    7210.7321   -6253.9671   -20224.332    82.347132 
   78400     957.9255   -103.39206   0.86675112   -102.52531   -9237.4006    4.3728229    4.3728229    4.3728229   -9237.4006    32462.706    -74571.01    14396.102    9733.0403   -3821.6251    28924.751    83.615284 
   78500    2092.5634   -104.35271    1.8933954   -102.45931    -23563.66     4.382883     4.382883     4.382883    -23563.66   -22359.532   -9216.0603   -39115.388   -7382.7458    11592.584    3219.5623    84.193708 
   78600    1662.5364   -103.93666    1.5042979   -102.43236    8813.3968    4.3632513    4.3632513    4.3632513    8813.3968   -2718.5373    -6124.115    35282.843    12043.896   -16874.204   -10553.162    83.067409 
   78700    1627.7275   -103.91468    1.4728021   -102.44187    6235.1849    4.3634583    4.3634583    4.3634583    6235.1849   -20253.172    11556.406     27402.32    7.9079185    -6314.476    1935.2265    83.079233 
   78800    1923.3313   -104.19384    1.7402706   -102.45357   -23537.919    4.3753949    4.3753949    4.3753949   -23537.919   -3424.2917   -9422.8375   -57766.628    1802.1574    1382.3984   -691.82304     83.76291 
   78900    1600.2167   -103.91022    1.4479097   -102.46231   -6203.5969    4.3780383    4.3780383    4.3780383   -6203.5969   -13382.956    -48728.81    43500.975   -2174.1382   -14262.187    165.77917     83.91482 
   79000    1653.6218   -103.94001    1.4962318   -102.44378    8504.6655    4.3670459    4.3670459    4.3670459    8504.6655     70645.43   -33896.177   -11235.256    10591.881     33318.45    19324.095    83.284328 
   79100    1474.5983   -103.78318    1.3342475   -102.44893    14770.356    4.3522746    4.3522746    4.3522746    14770.356    18414.897    4166.2094     21729.96    3337.5844   -4852.6449   -4868.7669    82.442066 
   79200    1893.4322   -104.18221    1.7132173     -102.469    1345.4995    4.3629489    4.3629489    4.3629489    1345.4995    8918.2199   -7268.4614    2386.7399   -4553.2537    10099.554   -19598.135    83.050145 
   79300    1453.2241   -103.80186    1.3149077   -102.48695   -33244.844     4.379414     4.379414     4.379414   -33244.844     16359.63    -81036.19   -35057.974    1240.9799    14019.879    34930.166    83.993951 
   79400    1570.1568    -103.8996    1.4207109   -102.47889    13740.648    4.3851917    4.3851917    4.3851917    13740.648    35663.615    -7824.044    13382.372   -14563.919    1521.3882   -12041.476    84.326825 
   79500    1316.1441   -103.66537    1.1908748   -102.47449   -7796.5622    4.3762907    4.3762907    4.3762907   -7796.5622    15768.081    9135.6405   -48293.408   -12926.292    11394.899    11046.793    83.814369 
   79600    1903.3621   -104.18144     1.722202   -102.45924    3231.7739    4.3648469    4.3648469    4.3648469    3231.7739   -2472.1179    4684.5616    7482.8779   -5088.5082   -10837.666    3096.7692    83.158574 
   79700    1176.1746   -103.53321    1.0642275   -102.46899    5133.3368      4.37334      4.37334      4.37334    5133.3368   -15914.372   -13891.034    45205.416     6967.476    19235.174   -30895.078    83.644949 
   79800    1874.4273   -104.15404    1.6960212   -102.45802   -15968.824    4.3712237    4.3712237    4.3712237   -15968.824    13425.732   -28354.605   -32977.599    705.09273   -5382.2475    19459.075    83.523578 
   79900    1214.3428   -103.57104    1.0987629   -102.47228   -2696.7206    4.3743371    4.3743371    4.3743371   -2696.7206    16176.942   -19307.152    -4959.951   -15167.116    14892.218   -7303.1308    83.702177 
   80000    1450.5083   -103.78174    1.3124504   -102.46929   -2338.3614    4.3649061    4.3649061    4.3649061   -2338.3614    28696.596   -12502.686   -23208.994   -10094.849    16054.216   -84.454979    83.161958 
   80100    1773.2965   -104.06655     1.604516   -102.46203   -1430.0091    4.3650095    4.3650095    4.3650095   -1430.0091    42369.774   -12719.152   -33940.649   -28494.969   -12996.855    8597.7409    83.167868 
   80200     1239.513    -103.5896    1.1215374   -102.46806   -5974.9498    4.3713029    4.3713029    4.3713029   -5974.9498    18134.328   -3343.3906   -32715.787   -282.20662   -5461.7558    959.24294    83.528117 
   80300    1477.1088   -103.80615    1.3365191   -102.46963    24388.629    4.3644462    4.3644462    4.3644462    24388.629    12615.354    45832.733    14717.799   -14622.157    -12399.59    4941.4866    83.135676 
   80400    2136.9064   -104.40458    1.9335178   -102.47106   -24117.359    4.3762036    4.3762036    4.3762036   -24117.359    -30310.86    15649.045   -57690.262    2892.4068    2629.7492    4590.2481    83.809368 
   80500    1720.4013   -104.02033    1.5566552   -102.46367   -13638.585    4.3657172    4.3657172    4.3657172   -13638.585    10000.891   -44580.996   -6335.6504    750.40519   -4036.8513    13434.468    83.208327 
   80600     1483.943   -103.81996    1.3427028   -102.47725    29145.031     4.357185     4.357185     4.357185    29145.031   -26353.578    48623.247    65165.425    1921.2349   -12196.912    -253.7167    82.721424 
   80700    2117.7194   -104.40388     1.916157   -102.48773    -9076.041    4.3809667    4.3809667    4.3809667    -9076.041    1831.9646    12710.687   -41770.774    18330.389   -8875.8168    21770.555    84.083319 
   80800    1280.1564   -103.61824    1.1583124   -102.45993   -10095.029    4.3922054    4.3922054    4.3922054   -10095.029   -33254.674   -7322.6973    10292.285   -14663.616   -18384.786    1148.1462    84.732089 
   80900    1912.0168   -104.15531     1.730033   -102.42528   -354.76067    4.3749532    4.3749532    4.3749532   -354.76067    -16632.43    31268.638    -15700.49    25792.296   -327.26556    6793.8571     83.73755 
   81000    1701.6505   -103.97808    1.5396891   -102.43839    24679.037    4.3655637    4.3655637    4.3655637    24679.037    34653.154    34781.974    4601.9838   -737.47439   -21706.552    11460.925     83.19955 
   81100    1947.3386   -104.22027    1.7619929   -102.45828   -32168.226    4.3886314    4.3886314    4.3886314   -32168.226   -54180.308   -27102.681   -15221.691    1023.7268   -8783.3855    -17561.32    84.525418 
   81200    2073.2259   -104.29823    1.8758984   -102.42233   -50620.943    4.3924293    4.3924293    4.3924293   -50620.943   -69746.953   -34252.241   -47863.634    28431.913   -20964.373   -1745.3027    84.745052 
   81300    2056.1607   -104.27353    1.8604574   -102.41307    4548.7993    4.3719587    4.3719587    4.3719587    4548.7993    7196.4165   -17930.094    24380.076    -4668.566   -4350.4031   -13372.879    83.565721 
   81400    1288.4754   -103.60723    1.1658396   -102.44139    -20657.75    4.3679198    4.3679198    4.3679198    -20657.75   -12142.059   -13251.406   -36579.785    11872.883   -24415.687   -10880.294    83.334333 
   81500    1903.3301   -104.17274    1.7221731   -102.45057    14325.803    4.3609332    4.3609332    4.3609332    14325.803    -19513.35    21367.122    41123.637   -8850.6118   -327.40346   -5691.1174    82.935088 
   81600    1409.6431   -103.74983    1.2754747   -102.47436    2767.4447    4.3861696    4.3861696    4.3861696    2767.4447    21773.079    14783.867   -28254.611     21420.55    1043.1917    8266.6968    84.383251 
   81700    1473.4861   -103.77893    1.3332412   -102.44569   -37750.219    4.3950318    4.3950318    4.3950318   -37750.219   -58988.345    35458.218    -89720.53    -1938.336   -24185.367    11308.631    84.895774 
   81800    2058.4631   -104.27837    1.8625407   -102.41583   -7936.3435    4.3695569    4.3695569    4.3695569   -7936.3435   -28198.951     -31623.7     36013.62    7517.5269    18324.596     7956.921    83.428072 
   81900    1600.4657   -103.89447     1.448135   -102.44634   -20497.252    4.3704195    4.3704195    4.3704195   -20497.252    -51716.88    50931.492   -60706.367     18591.45   -36085.473    15115.292    83.477487 
   82000    1514.1314   -103.82798    1.3700179   -102.45796    41632.954    4.3762378    4.3762378    4.3762378    41632.954   -19795.865    84448.478    60246.249   -831.53734   -2704.0556    4244.4134    83.811332 
   82100    1105.4615    -103.4733    1.0002448   -102.47306   -5921.1677    4.3827876    4.3827876    4.3827876   -5921.1677   -28466.664   -29111.125    39814.285    11305.226   -41834.751   -9401.6576    84.188207 
   82200    2017.1951   -104.27666    1.8252005   -102.45146   -6543.4378    4.3804565    4.3804565    4.3804565   -6543.4378   -2142.8979    22717.842   -40205.257    4152.7007     13939.48    14955.579    84.053949 
   82300    1926.6908   -104.19029    1.7433103   -102.44698   -10906.602    4.3583226    4.3583226    4.3583226   -10906.602   -37903.655    40918.419   -35734.569    8724.3072   -25075.174   -7974.7482    82.786233 
   82400    1229.6302   -103.60335    1.1125953   -102.49076    40234.442    4.3598333    4.3598333    4.3598333    40234.442    4534.0291    116590.03   -420.73416    29652.986   -514.09382    6942.2302    82.872348 
   82500    1278.4427   -103.67663    1.1567618   -102.51986   -14295.741    4.3868201    4.3868201    4.3868201   -14295.741   -26010.234    6515.9067   -23392.895   -7449.7447   -34773.369    6900.1715    84.420801 
   82600    1907.8545   -104.20218    1.7262668   -102.47591   -29694.469     4.391127     4.391127     4.391127   -29694.469   -69296.377    6383.8355   -26170.865    7480.1865    16721.782    3168.4593    84.669693 
   82700    1437.9351   -103.74623    1.3010739   -102.44516   -20113.279    4.3908738    4.3908738    4.3908738   -20113.279    -80065.43   -12450.901    32176.492   -7705.1451   -13316.925    1707.6934    84.655046 
   82800    1089.3943   -103.41932   0.98570687   -102.43361    48374.547    4.3734209    4.3734209    4.3734209    48374.547    24625.252    114090.16    6408.2249    8446.7121   -14899.167   -20204.743    83.649593 
   82900    1381.5734   -103.71654    1.2500766   -102.46646    28459.048    4.3638769    4.3638769    4.3638769    28459.048   -1756.7939    73716.602    13417.335   -13723.603   -6784.4969    18898.503    83.103147 
   83000    1614.2059   -103.94949    1.4605674   -102.48892   -3475.5764    4.3861635    4.3861635    4.3861635   -3475.5764    53228.102   -29310.022   -34344.809    6321.4016    -11828.58    10360.813    84.382899 
   83100    1530.9888   -103.85007    1.3852709    -102.4648    -3050.793    4.3877548    4.3877548    4.3877548    -3050.793     -17168.1    14509.698   -6493.9768    6178.9412   -2424.4435   -3093.1978    84.474778 
   83200    1693.1154   -103.97637    1.5319664    -102.4444   -13804.674    4.3765279    4.3765279    4.3765279   -13804.674   -36445.864    24291.513   -29259.671   -17875.403   -9680.9113    15006.245    83.827998 
   83300     1714.015   -103.99578    1.5508768   -102.44491    26420.595    4.3539494    4.3539494    4.3539494    26420.595    38948.034    30870.331      9443.42    8378.2393    20453.157    -11060.84    82.537274 
   83400    1527.4922   -103.86288    1.3821071   -102.48077   -1574.8893    4.3589813    4.3589813    4.3589813   -1574.8893   -33518.526    21611.813    7182.0459   -23563.312   -10320.265    8974.0211    82.823775 
   83500    1900.2775   -104.19712     1.719411    -102.4777   -13598.279    4.3853924    4.3853924    4.3853924   -13598.279   -12433.314   -16540.161   -11821.363   -7288.4815    22874.905   -6117.1978    84.338403 
   83600    1415.8337   -103.73102    1.2810761   -102.44994   -1883.3881    4.3905944    4.3905944    4.3905944   -1883.3881   -23738.205    22991.106   -4903.0663    18268.335   -16337.295    16875.803    84.638889 
   83700    1483.8284   -103.79589    1.3425991   -102.45329    1059.3344    4.3677447    4.3677447    4.3677447    1059.3344    27682.236   -25787.631    1283.3986   -14596.351    8163.6295   -22983.177     83.32431 
   83800    1919.3726   -104.18711    1.7366887   -102.45043    30362.079    4.3389033    4.3389033    4.3389033    30362.079      24703.7    40922.611    25459.924    3636.0958    3199.3062    29308.101    81.684549 
   83900    1194.2092   -103.58096    1.0805456   -102.50041     41282.57     4.358919     4.358919     4.358919     41282.57    33337.869   -1008.0177    91517.858   -12612.213   -9371.8238     6137.637    82.820225 
   84000    1839.6947   -104.14074    1.6645944   -102.47614   -40833.594    4.3899644    4.3899644    4.3899644   -40833.594    -44841.54   -37432.733   -40226.508    9000.1468    19312.758    788.23525     84.60246 
   84100    1088.2354    -103.4318   0.98465829   -102.44714    53778.594    4.3741229    4.3741229    4.3741229    53778.594    65813.402     47175.41     48346.97   -5133.0126   -7282.6598    40610.541    83.689882 
   84200    1525.4938   -103.82338    1.3802988   -102.44308   -3633.4928    4.3548809    4.3548809    4.3548809   -3633.4928    -22346.34    21010.557   -9564.6953   -5989.0488    18792.764    -591.3788    82.590262 
   84300    1900.7196   -104.17756     1.719811   -102.45775    27891.143    4.3491452    4.3491452    4.3491452    27891.143    44958.995    22085.903    16628.529    347.22862   -7402.3806    9826.0059    82.264359 
   84400    1447.2948   -103.79109    1.3095427   -102.48154   -32289.545    4.3737524    4.3737524    4.3737524   -32289.545   -19629.601   -9205.9725    -68033.06   -10416.591    17785.619   -6415.9895    83.668614 
   84500    1476.1149   -103.80211    1.3356198   -102.46649   -29764.446    4.3727271    4.3727271    4.3727271   -29764.446    -23206.59     -36803.4   -29283.347   -14501.662    -3594.929    1533.9004     83.60979 
   84600     2157.352   -104.39628    1.9520174   -102.44427    28198.518    4.3462481    4.3462481    4.3462481    28198.518    34538.468    26741.106    23315.979    4991.4555    13211.217   -3038.0053     82.10007 
   84700     1244.948   -103.61658    1.1264551   -102.49012   -32500.402    4.3661732    4.3661732    4.3661732   -32500.402    15536.213   -59186.327   -53851.091   -8233.4502    3831.5708    15740.502    83.234406 
   84800     1793.672   -104.09664    1.6229521   -102.47369    4637.3861    4.3787833    4.3787833    4.3787833    4637.3861   -31640.396    24886.448    20666.107    4458.9866    4513.9136   -3508.2706    83.957668 
   84900    1394.9451   -103.73328    1.2621757    -102.4711   -6967.7919    4.3876063    4.3876063    4.3876063   -6967.7919    -46179.33    70183.664    -44907.71    -2605.735    23846.965     15088.65    84.466198 
   85000    1555.0762   -103.86362    1.4070656   -102.45656    8183.7425    4.3667523    4.3667523    4.3667523    8183.7425    5524.4679    -13863.43    32890.189    12707.111   -7110.0453    18681.665    83.267528 
   85100    1024.1092   -103.39576    0.9266355   -102.46912    23346.547    4.3526356    4.3526356    4.3526356    23346.547   -17518.492    23550.201    64007.932   -4961.8689    28202.021     8905.647    82.462583 
   85200    1991.8634   -104.28474    1.8022798   -102.48246   -4766.0716    4.3540823    4.3540823    4.3540823   -4766.0716    28234.955   -30618.439   -11914.731    4123.3982   -841.12332    4374.9538    82.544837 
   85300    1376.9003   -103.74366    1.2458483   -102.49781    1822.0126    4.3645602    4.3645602    4.3645602    1822.0126    36265.282   -2618.5631   -28180.681   -16982.411    24649.659    3707.8816    83.142192 
   85400     1268.446   -103.63247    1.1477166   -102.48475    23803.459    4.3723476    4.3723476    4.3723476    23803.459     36517.62   -23032.073    57924.828    11811.739    7263.3557   -5777.8927    83.588022 
   85500     1980.508   -104.25998    1.7920052   -102.46798   -28091.919     4.374936     4.374936     4.374936   -28091.919   -21358.206   -36291.284   -26626.266   -8052.9898   -2983.4627    15195.055    83.736561 
   85600    1592.1744   -103.88831    1.4406329   -102.44768    24846.424    4.3616608    4.3616608    4.3616608    24846.424    3598.7522    3540.8102     67399.71    11399.957    2559.4753    5008.0785    82.976605 
   85700    1598.9474   -103.90233    1.4467612   -102.45557    -29225.92    4.3678484    4.3678484    4.3678484    -29225.92   -7263.6434   -43132.686   -37281.431    9827.9396    -29808.59    2838.8491    83.330249 
   85800    1510.2654   -103.82136    1.3665199   -102.45484     25821.94     4.364169     4.364169     4.364169     25821.94       112627   -50200.161    15038.981   -3274.8163   -17840.681    10488.863    83.119838 
   85900    1709.7252   -104.01352    1.5469953   -102.46652     2326.961    4.3629821    4.3629821    4.3629821     2326.961    50545.149   -49613.395    6049.1281    11613.697    10863.068     10255.35    83.052035 
   86000    1923.0218   -104.20645    1.7399905   -102.46646   -47937.437    4.3774055    4.3774055    4.3774055   -47937.437   -32038.805   -56672.442   -55101.064   -10537.497    1154.2128    826.61063    83.878442 
   86100    1962.2502    -104.2382    1.7754852   -102.46271   -6658.6627    4.3611695    4.3611695    4.3611695   -6658.6627    57654.291   -64172.988   -13457.291     5456.322    8603.1978    17824.534     82.94857 
   86200    1631.4433   -103.93459    1.4761642   -102.45843    33359.958    4.3432721    4.3432721    4.3432721    33359.958    65014.737   -15552.713    50617.851    7094.2781   -22256.685    -3257.122    81.931539 
   86300    1223.1229   -103.58831    1.1067073    -102.4816    14058.851    4.3498893    4.3498893    4.3498893    14058.851    93638.576   -20355.883   -31106.141   -18269.162   -13012.313    36975.733    82.306591 
   86400    1626.9455   -103.96676    1.4720945   -102.49467   -11164.423     4.363784     4.363784     4.363784   -11164.423   -16359.342   -55497.175    38363.249    20649.808    13670.973   -12754.014     83.09784 
   86500    1674.0062   -104.00437     1.514676   -102.48969   -9232.4802    4.3659079    4.3659079    4.3659079   -9232.4802    45519.732   -46237.147   -26980.026   -17797.405    -4818.734    27853.486    83.219234 
   86600    1801.7602    -104.1069    1.6302705   -102.47662   -17700.754    4.3706206    4.3706206    4.3706206   -17700.754    32143.768   -56706.983   -28539.046    13374.803    6581.8472   -7829.8961    83.489013 
   86700    1511.9412   -103.84201    1.3680362   -102.47397   -36474.826     4.365197     4.365197     4.365197   -36474.826   -8368.4943   -49024.771   -52031.213    20457.924   -14559.401    23603.666    83.178586 
   86800      1369.06   -103.70404    1.2387543   -102.46528     49404.08    4.3489599    4.3489599    4.3489599     49404.08     152393.6   -5272.0256    1090.6675   -2584.5382   -10032.342   -12514.401    82.253846 
   86900    1727.7018   -104.05355    1.5632609   -102.49029   -28431.583     4.349779     4.349779     4.349779   -28431.583   -3178.2597   -42688.253   -39428.236    22047.845   -12178.055    25868.797    82.300329 
   87000    1756.9512    -104.0885    1.5897264   -102.49877    7438.3934    4.3646617    4.3646617    4.3646617    7438.3934    89046.619   -17040.042   -49691.396   -10023.843   -17972.786   -824.20517    83.147994 
   87100    1167.5649   -103.55103    1.0564372   -102.49459    22908.605    4.3655593    4.3655593    4.3655593    22908.605    101786.54   -72832.336    39771.615    26768.225    423.38784    4527.5713    83.199302 
   87200    1631.3269   -103.96534    1.4760589   -102.48928    4836.6042    4.3561758    4.3561758    4.3561758    4836.6042    51883.284   -34218.669   -3154.8028     10522.64   -12334.034    11488.496    82.663958 
   87300    1883.8626   -104.19502    1.7045585   -102.49046   -18163.289    4.3600261    4.3600261    4.3600261   -18163.289    28858.483   -58473.266   -24875.083   -6875.9122    16739.052    788.89282    82.883342 
   87400    1521.8467   -103.87772    1.3769988   -102.50072    2765.8095    4.3672173    4.3672173    4.3672173    2765.8095    58169.119   -77447.957    27576.266    25233.574    15042.881    17857.507    83.294132 
   87500    1784.5744   -104.10385    1.6147204   -102.48913   -27632.607    4.3757732    4.3757732    4.3757732   -27632.607    -20090.85   -14025.488   -48781.483   -17744.541   -8454.2099   -3260.9345    83.784642 
   87600    1643.2783   -103.96574    1.4868727   -102.47887   -20547.004    4.3703598    4.3703598    4.3703598   -20547.004    44439.927   -80292.152   -25788.789    20284.508   -6796.3681    10993.134    83.474069 
   87700    1851.9732   -104.14845    1.6757043   -102.47275    4296.8965    4.3530909    4.3530909    4.3530909    4296.8965    16046.068    5819.6952   -8975.0738   -13101.902   -5691.2578   -26040.876     82.48846 
   87800    1396.0599   -103.77067    1.2631843   -102.50749    9568.3711    4.3569162    4.3569162    4.3569162    9568.3711    55624.143   -15693.323   -11225.707     1393.938   -1418.5728    18608.151    82.706116 
   87900    2106.7957   -104.39969     1.906273   -102.49342    -14150.16    4.3754867    4.3754867    4.3754867    -14150.16     11558.55   -37356.532   -16652.497    2059.2087   -1121.6751    -21648.41    83.768182 
   88000    1301.5287   -103.65263    1.1776505   -102.47498   -16486.785    4.3758023    4.3758023    4.3758023   -16486.785   -3063.3659   -13640.296   -32756.693    597.69875   -239.68116    7673.7802    83.786315 
   88100    1572.3281   -103.86897    1.4226755   -102.44629    34862.307    4.3666189    4.3666189    4.3666189    34862.307    130071.45   -27343.953    1859.4274    11412.984    3409.5429   -8986.8088    83.259899 
   88200     1164.366   -103.51874    1.0535428    -102.4652   -30158.208    4.3742544    4.3742544    4.3742544   -30158.208   -16885.553   -9221.2135   -64367.856   -1221.5337    27596.087    7924.1521     83.69743 
   88300    2413.7307   -104.62528    2.1839943   -102.44129   -8798.5232     4.364797     4.364797     4.364797   -8798.5232    13417.182   -4752.0066   -35060.745     6798.632   -8100.4704   -17261.523    83.155723 
   88400    905.98646   -103.29908   0.81975559   -102.47932   -38019.109    4.3621119    4.3621119    4.3621119   -38019.109   -25507.045   -33614.865   -54935.418   -20267.592    6512.4907    676.50265    83.002356 
   88500    1940.9213   -104.21122    1.7561863   -102.45504    29173.812    4.3484755    4.3484755    4.3484755    29173.812    38820.483    30333.897    18367.055    10233.849   -18709.059    7367.6189    82.226364 
   88600    1008.4632   -103.40924   0.91247866   -102.49676   -1466.5858    4.3730191    4.3730191    4.3730191   -1466.5858    71407.352     -4122.71   -71684.399    17350.741    12089.153   -5223.8039    83.626539 
   88700    1866.7373   -104.13451    1.6890631   -102.44545    -8381.156     4.379181     4.379181     4.379181    -8381.156   -12407.821   -4995.3499   -7740.2972    8643.3909    4422.7468    13390.489    83.980544 
   88800    1254.7586   -103.57915    1.1353319   -102.44381   -6865.8292    4.3529275    4.3529275    4.3529275   -6865.8292    -4570.013    7631.7488   -23659.223    20355.859   -1886.7738   -18145.793    82.479176 
   88900    1747.2835    -104.0251    1.5809789   -102.44412    30485.262    4.3422201    4.3422201    4.3422201    30485.262     42331.44    62833.853   -13709.505   -3250.3606    27416.899   -4524.8062    81.872018 
   89000    1492.4485   -103.83751    1.3503988   -102.48711   -5193.3679    4.3570441    4.3570441    4.3570441   -5193.3679    16537.599   -3497.8036   -28619.899    13426.232   -2594.7739   -26986.019    82.713397 
   89100    1849.1634   -104.13807    1.6731619   -102.46491   -26641.656    4.3839339    4.3839339    4.3839339   -26641.656   -21818.201   -22954.092   -35152.674     6624.655   -14190.856    2451.7735    84.254285 
   89200      1263.09   -103.60042    1.1428703   -102.45755   -2865.3496    4.3618477    4.3618477    4.3618477   -2865.3496    58503.191     -12848.4    -54250.84     13851.92    6799.8309   -31355.498    82.987274 
   89300    1697.3029   -103.98657    1.5357554   -102.45081    23664.833    4.3365262    4.3365262    4.3365262    23664.833   -12809.315      71722.9    12080.914    9115.3811   -12442.214    3753.7204    81.550366 
   89400    1701.2343   -104.01855    1.5393125   -102.47924    3527.1817    4.3443393    4.3443393    4.3443393    3527.1817    51394.056   -2622.5451   -38189.965   -11194.976    1127.9547   -31850.034    81.991949 
   89500    1432.9294    -103.7995    1.2965446   -102.50296   -17931.117    4.3669315    4.3669315    4.3669315   -17931.117   -44413.728    23439.054   -32818.675   -9149.5127   -457.77421   -2989.6328    83.277778 
   89600     2008.205   -104.28858    1.8170661   -102.47151   -16737.939    4.3773511    4.3773511    4.3773511   -16737.939   -31911.559     15043.16   -33345.418   -221.55179   -10809.861   -6664.7788    83.875312 
   89700    944.23193   -103.31922   0.85436089   -102.46486    15674.821    4.3481934    4.3481934    4.3481934    15674.821    70253.786    25453.183   -48682.505   -3469.3574   -6106.6795   -22661.236     82.21036 
   89800    2297.4296   -104.52019    2.0787626   -102.44143    13658.822     4.330502     4.330502     4.330502    13658.822    28331.313     12633.46    11.692661   -5175.6717    2065.8782   -2730.9211    81.210978 
   89900    1002.4929   -103.40867   0.90707662   -102.50159    14813.674    4.3523696    4.3523696    4.3523696    14813.674    99925.599    3231.5633   -58716.141   -5404.2602   -6077.8086   -30391.779    82.447467 
   90000    1903.3445   -104.19177    1.7221861   -102.46959     -2031.74    4.3722081    4.3722081    4.3722081     -2031.74   -382.08579    22167.857   -27880.992    -27640.44    2788.6803   -2334.7622     83.58002 
   90100    1168.8123   -103.52439    1.0575659   -102.46683   -15679.782    4.3602449    4.3602449    4.3602449   -15679.782     23923.45   -54430.121   -16532.676    6309.8625     -13266.6   -37228.713    82.895825 
   90200    2289.8593   -104.52082    2.0719128    -102.4489    18698.667    4.3380307    4.3380307    4.3380307    18698.667    27720.492   -10650.087    39025.595   -5814.4407    6332.1167    15854.787    81.635275 
   90300    1477.8035   -103.80495    1.3371477    -102.4678    -2006.611    4.3402427    4.3402427    4.3402427    -2006.611    39377.182   -61145.608    15748.593    7915.0037    3479.0318   -38296.888    81.760219 
   90400    1450.4629   -103.78708    1.3124093   -102.47467    17008.109    4.3585879    4.3585879    4.3585879    17008.109    34499.063    18526.863   -2001.5987   -4062.2346   -7547.8363    31363.715    82.801351 
   90500    1923.8889   -104.20627    1.7407752    -102.4655   -39050.458    4.3725973    4.3725973    4.3725973   -39050.458    3066.2777   -64483.898   -55733.754   -15522.575    10819.206   -38873.706    83.602342 
   90600    1253.2354   -103.59506    1.1339537    -102.4611    30325.144    4.3399505    4.3399505    4.3399505    30325.144    71059.703    57578.003   -37662.274   -11128.333    172.92574    11766.994    81.743705 
   90700    1524.9025   -103.83576    1.3797639     -102.456    32279.892    4.3314781    4.3314781    4.3314781    32279.892    100451.72    4764.7005   -8376.7454   -9653.6487   -4555.6951   -23780.657    81.265905 
   90800    1417.1519   -103.75448    1.2822688   -102.47221    580.59413    4.3560431    4.3560431    4.3560431    580.59413    52088.112    12038.919   -62385.249   -9588.2188    8661.1835   -19102.696    82.656404 
   90900    1611.2177   -103.92407    1.4578636   -102.46621   -15056.267    4.3645281    4.3645281    4.3645281   -15056.267    20175.634   -2693.9704   -62650.465    15415.448   -12942.429    10344.287    83.140358 
   91000     1527.172   -103.84429    1.3818174   -102.46247   -31394.272     4.367243     4.367243     4.367243   -31394.272    19254.654   -46323.846   -67113.625   -5403.5131    5876.3277   -35529.348    83.295603 
   91100     2129.419   -104.37618    1.9267431   -102.44944    113.67215    4.3476227    4.3476227    4.3476227    113.67215   -14536.871    36931.278    -22053.39   -1372.2503    2137.6347    725.79588    82.177994 
   91200    1325.4032    -103.6774    1.1992526   -102.47815    12004.035    4.3452142    4.3452142    4.3452142    12004.035    78773.351   -13133.119   -29628.125   -8604.9418    1858.2525   -22333.464    82.041497 
   91300    1329.9212   -103.69363    1.2033406   -102.49029    38670.679    4.3589873    4.3589873    4.3589873    38670.679    94891.923    53389.116   -32269.002   -21752.254     2483.657    16548.918    82.824117 
   91400    1679.6775   -103.99937    1.5198075   -102.47957   -28233.526     4.371755     4.371755     4.371755   -28233.526    40347.261   -47547.116   -77500.722    3904.8647     4100.826   -47546.967    83.554037 
   91500    1697.6606   -103.99028     1.536079    -102.4542    15844.091    4.3526244    4.3526244    4.3526244    15844.091    52074.131    37664.595   -42206.455    -15509.84    -647.5785    14674.738    82.461944 
   91600    1742.2632    -104.0437    1.5764363   -102.46727   -29435.066    4.3481132    4.3481132    4.3481132   -29435.066     11007.05   -41932.777   -57379.473    12951.061    365.33075    -48262.97    82.205811 
   91700    1637.8658      -103.95    1.4819754   -102.46802     40326.96    4.3531352    4.3531352    4.3531352     40326.96    134667.63    17204.118    -30890.87   -15910.503   -287.25428    10451.296    82.490979 
   91800    1123.6236   -103.51001    1.0166782   -102.49333   -1002.0101    4.3799602    4.3799602    4.3799602   -1002.0101    50289.844    22220.648   -75516.522   -20704.581   -1263.1135   -27022.649    84.025384 
   91900    2211.5881   -104.44448    2.0010914   -102.44339   -10961.395    4.3861834    4.3861834    4.3861834   -10961.395    28464.978   -4459.8402   -56889.321   -10267.927    2204.3327    16590.058    84.384047 
   92000    749.55867   -103.13235   0.67821644   -102.45414   -1140.5302    4.3497279    4.3497279    4.3497279   -1140.5302    33693.086     27094.64   -64209.317   -15296.158   -974.39252   -53725.542    82.297427 
   92100    2453.2597   -104.66507     2.219761   -102.44531      18354.3    4.3275699    4.3275699    4.3275699      18354.3    99.036003    32757.705    22206.159    13267.282   -9778.9129    15475.037    81.046127 
   92200    916.21041   -103.35035   0.82900643   -102.52135    1038.1174    4.3597154    4.3597154    4.3597154    1038.1174    67651.148   -12445.082   -52091.714    -6461.386    13774.303   -39804.777    82.865627 
   92300    1871.5249   -104.17538    1.6933951   -102.48198   -33750.826     4.385508     4.385508     4.385508   -33750.826   -51050.384    431.08496   -50633.179   -20080.666    8861.8788    15923.456    84.345074 
   92400    1339.8869   -103.67217    1.2123578   -102.45981   -8404.1582    4.3710999    4.3710999    4.3710999   -8404.1582    65600.174   -29357.483   -61455.166   -8934.4527   -16608.733   -32573.769    83.516481 
   92500    1713.9321   -103.99162    1.5508018   -102.44082    23125.242    4.3526849    4.3526849    4.3526849    23125.242    37575.069    341.04355    31459.612   -2391.0593    9980.8571    14920.081    82.465382 
   92600    1323.5512   -103.65784     1.197577   -102.46026    16885.689     4.351044     4.351044     4.351044    16885.689    77704.895   -3763.5913   -23284.236    3484.7047   -15224.999   -23255.105    82.372153 
   92700    1919.5776   -104.22143    1.7368741   -102.48456    -37936.34    4.3722799    4.3722799    4.3722799    -37936.34   -42318.399   -45288.542   -26202.078    19726.547    6499.2469   -7229.7388    83.584138 
   92800    1804.6959   -104.09302    1.6329267   -102.46009   -5394.8812    4.3734092    4.3734092    4.3734092   -5394.8812     23379.58   -5404.5204   -34159.703   -8411.9609   -17221.093   -8484.9908    83.648923 
   92900    909.79852   -103.27413   0.82320482   -102.45092    52801.836    4.3599505    4.3599505    4.3599505    52801.836    76479.339    6619.7034    75306.465    5882.6186   -12847.536   -20935.579    82.879032 
   93000     2238.011   -104.47623    2.0249994   -102.45123   -12967.776    4.3622018    4.3622018    4.3622018   -12967.776    48658.587   -55908.112   -31653.802   -9792.4013   -1047.8488    18664.361    83.007483 
   93100    1396.3801   -103.72881     1.263474   -102.46533    2268.0409    4.3540043    4.3540043    4.3540043    2268.0409     7732.161   -23150.081    22222.043    -657.2886   -21300.975    -15288.55    82.540401 
   93200     1838.505   -104.14124    1.6635179   -102.47772   -19156.731    4.3646852    4.3646852    4.3646852   -19156.731    3708.6074   -27650.194   -33528.606    7971.0806     1219.355    9155.4777    83.149333 
   93300    1676.8139   -103.99349    1.5172165   -102.47627   -18270.859    4.3679975    4.3679975    4.3679975   -18270.859    8416.6458   -38101.204    -25128.02    -6338.301   -3449.9018    4462.0333     83.33878 
   93400    1157.2943   -103.51281    1.0471442   -102.46567    28625.042    4.3648965    4.3648965    4.3648965    28625.042    79310.368   -28772.311    35337.071   -1903.2949   -5238.2373    2489.4157    83.161411 
   93500    1882.5292   -104.15836     1.703352     -102.455   -18336.043    4.3684173    4.3684173    4.3684173   -18336.043    21003.181   -50390.488   -25620.823   -2274.7705    12820.901   -2718.9931    83.362809 
   93600    1352.6207   -103.68271    1.2238796   -102.45883    16124.905    4.3585776    4.3585776    4.3585776    16124.905   -24024.681    13066.565    59332.831   -4306.4814   -7808.7176    66.493635    82.800765 
   93700    2014.5242   -104.29136    1.8227839   -102.46857   -19528.379    4.3565757    4.3565757    4.3565757   -19528.379   -1276.1758   -46289.402   -11019.558    8825.2141   -11127.443     19635.62    82.686726 
   93800    2076.6915   -104.35728    1.8790341   -102.47825    23665.521    4.3505696    4.3505696    4.3505696    23665.521    16493.172   -5359.2966    59862.687   -3811.5552    3795.9075   -17139.445    82.345217 
   93900    959.27882   -103.37176   0.86797563   -102.50378     27794.58    4.3520415    4.3520415    4.3520415     27794.58    96215.319   -23756.124    10924.545    11841.074   -26105.137    42769.591    82.428821 
   94000    2115.0544   -104.38873    1.9137457   -102.47498    12887.509    4.3690665    4.3690665    4.3690665    12887.509    33599.503   -28959.632    34022.658    4380.1018    32782.649   -11263.252    83.399985 
   94100    1152.2402   -103.52063    1.0425711   -102.47806   -12408.629    4.3614568    4.3614568    4.3614568   -12408.629   -3292.4409   -41673.264    7739.8168    7795.4216   -19626.256    29152.454    82.964965 
   94200    1768.2522   -104.05737    1.5999518   -102.45742    10184.759    4.3431069    4.3431069    4.3431069    10184.759    33718.287    -36323.39    33159.381    168.66747   -15021.524    10782.154     81.92219 
   94300    1842.6908   -104.14416    1.6673053   -102.47685   -4502.9647     4.342595     4.342595     4.342595   -4502.9647    4397.9805   -6699.8242    -11207.05    8265.1597    -2554.799    12548.129    81.893227 
   94400    1340.8359   -103.71752    1.2132165    -102.5043   -28561.874    4.3717114    4.3717114    4.3717114   -28561.874   -12247.613   -40689.477   -32748.532    5225.3995   -21483.988    6349.7829    83.551539 
   94500    1771.0429   -104.06793    1.6024768   -102.46546   -20403.492    4.3783792    4.3783792    4.3783792   -20403.492   -45208.907   -48970.756    32969.186    2037.3021    14075.757   -14486.499    83.934425 
   94600    1489.3121   -103.79986    1.3475609    -102.4523   -25075.326    4.3610694    4.3610694    4.3610694   -25075.326   -7825.4433   -40621.789   -26778.744    20165.906   -1734.9975    21549.959     82.94286 
   94700    1675.4016   -103.97168    1.5159386   -102.45574    16129.819    4.3400965    4.3400965    4.3400965    16129.819    34216.826   -5127.2831    19299.914   -6160.7512    -7341.501   -15698.435    81.751957 
   94800    1733.9019   -104.05766    1.5688709   -102.48879    -4727.233    4.3507754    4.3507754    4.3507754    -4727.233   -22810.725   -40156.174      48785.2    23330.489   -1248.3741    18316.524      82.3569 
   94900    1404.5777   -103.75966    1.2708914   -102.48876   -11831.446     4.372784     4.372784     4.372784   -11831.446   -18691.749   -38380.105    21577.516   -16358.889    -24636.43   -17257.665    83.613049 
   95000    1421.0494   -103.74224    1.2857953   -102.45645   -2.6793657    4.3750484    4.3750484    4.3750484   -2.6793657   -33102.321   -2783.7425    35878.025    4012.7481    10845.698   -19809.605    83.743014 
   95100      1794.07   -104.07154    1.6233122   -102.44823   -7926.6849    4.3439581    4.3439581    4.3439581   -7926.6849   -13712.048    19315.377   -29383.383    7660.0565   -30169.009    2520.8853    81.970366 
   95200    1476.4177   -103.79518    1.3358938   -102.45929    54901.435    4.3321418    4.3321418    4.3321418    54901.435    19984.797    56445.411    88274.096   -5355.1294    1757.1351   -29904.732    81.303264 
   95300    1996.1516   -104.28538      1.80616   -102.47922   -16891.182    4.3638445    4.3638445    4.3638445   -16891.182   -22422.964   -2299.7843   -25950.796    6389.5943   -15437.828    7009.9079    83.101298 
   95400    1415.6574   -103.76439    1.2809166   -102.48347     9905.547    4.3731276    4.3731276    4.3731276     9905.547   -36565.212    50271.357    16010.495    -9148.785   -6767.9969    -37265.02    83.632762 
   95500    1638.0043   -103.96068    1.4821007   -102.47858   -13533.658    4.3648382    4.3648382    4.3648382   -13533.658   -24332.779   -34490.026     18221.83    17964.351    4038.0035   -2922.0782    83.158082 
   95600    1678.4437   -103.99172    1.5186912   -102.47303    29711.999    4.3335488    4.3335488    4.3335488    29711.999    14521.375    39574.323      35040.3   -2429.3655   -25385.651   -28772.904    81.382508 
   95700    1877.8712   -104.19602    1.6991373   -102.49688    11139.069    4.3459557    4.3459557    4.3459557    11139.069    33756.713    1194.1422   -1533.6498   -2368.7258    9115.5087   -15585.717    82.083505 
   95800    1284.7063   -103.64821    1.1624292   -102.48578   -18667.511    4.3749496    4.3749496    4.3749496   -18667.511   -2553.7937    -22304.71   -31144.029    18674.317   -17808.426     4785.057    83.737343 
   95900    1842.7084   -104.12985    1.6673213   -102.46253    4420.3629     4.365098     4.365098     4.365098    4420.3629    6416.4978   -28287.787    35132.378   -21085.449   -4574.1292   -24166.256    83.172927 
   96000    1754.6444   -104.04164    1.5876391     -102.454   -1789.5404    4.3556781    4.3556781    4.3556781   -1789.5404    32895.707   -30255.255   -8009.0728     12840.36   -10119.964     3895.363    82.635627 
   96100    1290.6484   -103.63355    1.1678058   -102.46574   -7969.2583    4.3524202    4.3524202    4.3524202   -7969.2583    5743.0466   -38655.507    9004.6858   -10858.563    -9110.676   -45316.643    82.450339 
   96200    2278.3723   -104.52485    2.0615192   -102.46333   -3065.2232    4.3508136    4.3508136    4.3508136   -3065.2232   -28688.329    16919.719    2572.9401    159.31588   -370.71278   -3871.9873    82.359067 
   96300    1252.4264    -103.6207    1.1332217   -102.48748   -21257.301    4.3629297    4.3629297    4.3629297   -21257.301   -20864.013   -31957.312   -10950.577    7772.4561    -11550.16   -23606.111    83.049045 
   96400    1800.9637   -104.10517    1.6295498   -102.47562    -13745.92    4.3680351    4.3680351    4.3680351    -13745.92    492.67229   -13502.591   -28227.843   -10981.469   -2549.0961   -17797.028    83.340932 
   96500    1778.9778   -104.08089    1.6096565   -102.47123    8685.0094    4.3593478    4.3593478    4.3593478    8685.0094   -21748.228    39615.642    8187.6148    17605.785   -10523.493    -11998.87    82.844669 
   96600    1261.2523   -103.61925    1.1412076   -102.47804    2027.1866     4.356948     4.356948     4.356948    2027.1866   -29099.663    21893.353    13287.869   -9138.3282     -10149.5   -17351.842    82.707926 
   96700    2068.9034   -104.35295    1.8719873   -102.48096    -2955.629    4.3591424    4.3591424    4.3591424    -2955.629    11932.873   -4616.7819   -16182.978    20248.612    9680.4355    8088.0148    82.832955 
   96800    1720.4287   -104.05562      1.55668   -102.49894   -8214.3115    4.3624645    4.3624645    4.3624645   -8214.3115    13497.944   -31415.913   -6724.9657   -5782.7321   -5483.9456   -13303.655    83.022484 
   96900    1437.6909    -103.7941     1.300853   -102.49325    28929.259    4.3601777    4.3601777    4.3601777    28929.259    -12734.43    100071.93   -549.72366    2860.2197    4134.2836   -3091.9887    82.891991 
   97000     1232.204   -103.61275    1.1149241   -102.49783    8375.0445    4.3604809    4.3604809    4.3604809    8375.0445    47211.001    7078.1013   -29163.969     3232.805     862.4231   -8985.6659    82.909287 
   97100    2102.7383   -104.40259    1.9026018   -102.49999   -15044.789    4.3583868    4.3583868    4.3583868   -15044.789   -22474.236   -17618.014   -5042.1157   -13490.311    4211.4149   -13179.056    82.789893 
   97200    1653.9427   -103.99427    1.4965221   -102.49775   -15975.723    4.3662985    4.3662985    4.3662985   -15975.723    12268.413    -16770.44   -43425.144    11674.095    7711.8034    22516.848     83.24157 
   97300    1333.9601   -103.68887    1.2069952   -102.48187    3860.1068    4.3725663    4.3725663    4.3725663    3860.1068    21808.896   -20302.474    10073.899   -7927.3208    10323.365   -18122.245    83.600564 
   97400    2116.3645   -104.38834     1.914931   -102.47341   -10793.594    4.3545662    4.3545662    4.3545662   -10793.594   -11793.955   -21595.689    1008.8632    2144.6389    7366.7648    19484.135    82.572358 
   97500    1538.3216   -103.88505    1.3919057   -102.49314    25826.347    4.3442205    4.3442205    4.3442205    25826.347    14395.964    21558.413    41524.663    8698.8534    8421.9939   -3647.1157    81.985222 
   97600     1447.059   -103.81402    1.3093294   -102.50469    13895.036    4.3567329    4.3567329    4.3567329    13895.036   -2911.3484     2931.453    41665.003   -26655.971    6237.3363    5147.0709    82.695677 
   97700     1836.704     -104.168    1.6618884   -102.50611   -21204.876    4.3703261    4.3703261    4.3703261   -21204.876   -28890.438    6303.8584   -41028.047    11912.249   -24285.868    8061.0628     83.47214 
   97800    1504.8848   -103.85195    1.3616514    -102.4903    12768.497    4.3562895    4.3562895    4.3562895    12768.497   -33932.038    33250.573    38986.955   -35785.118     2553.916   -5553.4996    82.670433 
   97900    1423.0978   -103.77265    1.2876488     -102.485    26520.168    4.3386146    4.3386146    4.3386146    26520.168    39026.916   -16223.571    56757.159    5309.9706   -5858.5229     34308.08    81.668242 
   98000    1881.5056   -104.19995    1.7024258   -102.49753    5782.8121     4.345014     4.345014     4.345014    5782.8121   -27963.733    16648.241    28663.929   -24638.499     4592.903    5572.5598    82.030157 
   98100     1660.837   -104.00835    1.5027602   -102.50559   -11785.243    4.3676493    4.3676493    4.3676493   -11785.243    23700.464   -45713.354   -13342.838    -18172.09    11964.019     14470.98    83.318852 
   98200     1672.188   -104.00685    1.5130308   -102.49382   -25172.762    4.3670707    4.3670707    4.3670707   -25172.762   -19685.868   -43914.305   -11918.115   -3941.6694    7607.8437    27798.031    83.285746 
   98300     1916.908   -104.20847    1.7344586   -102.47401     17109.42    4.3422475    4.3422475    4.3422475     17109.42    16936.104   -9159.4182    43551.574    -30079.46    2891.4754   -4622.0615    81.873571 
   98400    1264.2072   -103.63177    1.1438812   -102.48789   -3880.0625    4.3520305    4.3520305    4.3520305   -3880.0625    975.73628   -32117.057    19501.133   -2910.4477    7659.3319    33760.579    82.428192 
   98500    1859.2992   -104.16628     1.682333   -102.48395     -10882.5    4.3556371    4.3556371    4.3556371     -10882.5   -54954.543    13709.364    8597.6789   -21951.309   -1008.5105   -6832.6084    82.633291 
   98600    1645.7378   -103.97899    1.4890982   -102.48989    6414.7286    4.3602929    4.3602929    4.3602929    6414.7286    7356.8315    2731.7826    9155.5718    7874.3031    10343.798    22149.446    82.898563 
   98700    1605.1903   -103.93483    1.4524099   -102.48242   -9167.0442    4.3626884    4.3626884    4.3626884   -9167.0442   -38969.228    13204.219   -1736.1238   -26085.221   -7573.3585    10155.856    83.035266 
   98800     2192.969   -104.45721    1.9842444   -102.47297   -17232.392    4.3537127    4.3537127    4.3537127   -17232.392   -21394.476   -31959.338    1656.6382   -1053.0195    1491.5122    10314.425    82.523818 
   98900    1146.4139   -103.53882    1.0372994   -102.50152    21607.122    4.3319261    4.3319261    4.3319261    21607.122    5609.7383    18677.757    40533.871   -14036.439    956.35321    28802.102    81.291121 
   99000    1721.4052   -104.07075    1.5575636   -102.51318    36189.141      4.34681      4.34681      4.34681    36189.141   -1250.0426    39492.068    70325.397   -8599.5937    998.18335   -10905.791    82.131921 
   99100    1649.8715   -103.99877    1.4928384   -102.50593   -36576.496     4.363185     4.363185     4.363185   -36576.496   -28761.796   -22002.992   -58964.699    7806.6484    17257.071    35080.507    83.063627 
   99200    1637.5973   -103.96766    1.4817324   -102.48593    29240.234    4.3544902    4.3544902    4.3544902    29240.234   -758.70148    55392.918    33086.484   -25967.147     9719.885     1287.851    82.568033 
   99300    1484.1541   -103.83241    1.3428938   -102.48951    17823.088    4.3434958    4.3434958    4.3434958    17823.088   -10530.758    -15963.48    79963.501    16026.063   -3233.3353    13273.973    81.944201 
   99400    1576.3795   -103.92457    1.4263413   -102.49823    20225.954      4.34495      4.34495      4.34495    20225.954   -113.19293    25310.797    35480.257   -21658.249    16808.845    11938.579    82.026533 
   99500    1803.3907    -104.1328    1.6317458   -102.50106   -19886.868    4.3662422    4.3662422    4.3662422   -19886.868   -42143.331   -10427.789   -7089.4835    19803.428   -24523.913   -6140.3192    83.238351 
   99600    1335.3601   -103.70367    1.2082619   -102.49541   -75.769077     4.355136     4.355136     4.355136   -75.769077   -20398.245   -64517.784    84688.722   -16738.778    8587.4281    7081.3832    82.604779 
   99700    1499.1658   -103.83801    1.3564767   -102.48153    50109.114    4.3343642    4.3343642    4.3343642    50109.114    18802.796    47592.742    83931.802    13572.661   -23878.521   -2115.0258    81.428454 
   99800    1541.8745   -103.89698    1.3951204   -102.50186   -31499.391    4.3517141    4.3517141    4.3517141   -31499.391   -51499.356   -54397.005    11398.188   -18357.887   -92.617025    28550.367    82.410219 
   99900    1903.0277   -104.21112    1.7218994   -102.48922   -78.547657    4.3475949    4.3475949    4.3475949   -78.547657    884.64269   -9368.5739    8248.2882    -1636.771     5794.735   -5715.1127    82.176418 
  100000    1312.3731   -103.68155    1.1874627   -102.49409    5710.9844     4.350144     4.350144     4.350144    5710.9844   -36001.374   -6686.6737    59821.001   -1642.1643   -19010.549    10694.597    82.321049 
Loop time of 24.9039 on 1 procs for 100000 steps with 8 atoms

Pair  time (%) = 7.96373 (31.9778)
Kspce time (%) = 6.13654 (24.6409)
Neigh time (%) = 0.156807 (0.62965)
Comm  time (%) = 1.23456 (4.9573)
Outpt time (%) = 0.0284002 (0.114039)
Other time (%) = 9.38386 (37.6803)

Nlocal:    8 ave 8 max 8 min
Histogram: 1 0 0 0 0 0 0 0 0 0
Nghost:    2033 ave 2033 max 2033 min
Histogram: 1 0 0 0 0 0 0 0 0 0
Neighs:    2142 ave 2142 max 2142 min
Histogram: 1 0 0 0 0 0 0 0 0 0

Total # of neighbors = 2142
Ave neighs/atom = 267.75
Neighbor list builds = 1727
Dangerous builds = 0
unfix 20
unfix 21
print "seeds:2242655"
seeds:2242655
