LAMMPS (10 Feb 2015)
# ---- initialize simulations
clear
units metal
dimension 3
boundary p p p
atom_style charge
atom_modify map array
# ---- create atoms
read_data /Users/eugeneragasa/pyflamestk_git/pypospack/tests/tests_integration/workflow/WorkflowLammpsThermalExpansion/param_7495/MgO_NaCl_unit.npt.T2000/lammps.structure
  triclinic box = (0 0 0) to (4.2565 4.2565 4.2565) with tilt (0 0 0)
  1 by 1 by 1 MPI processor grid
  reading atoms ...
  8 atoms
# ---- define interatomic potential
include potential.mod
mass 1 24.305
mass 2 15.999

group Mg type 1
4 atoms in group Mg
group O type 2
4 atoms in group O

set group Mg charge 1.61805343549
  4 settings made for charge
set group O charge -1.61805343549
  4 settings made for charge

variable R_cut equal 10.0

pair_style buck/coul/long ${R_cut}
pair_style buck/coul/long 10
pair_coeff 1 1 0.0 0.5 0.0 ${R_cut}
pair_coeff 1 1 0.0 0.5 0.0 10
pair_coeff 1 2 1411.7842896 0.281421547192 0.0 ${R_cut}
pair_coeff 1 2 1411.7842896 0.281421547192 0.0 10
pair_coeff 2 2 12275.1016291 0.0833185517679 22.1397903537 ${R_cut}
pair_coeff 2 2 12275.1016291 0.0833185517679 22.1397903537 10

kspace_style pppm 1.0e-5

neighbor 1.0 bin
neigh_modify every 1 delay 0 check yes
# ---- define settings
compute eng all pe/atom
compute eatoms all reduce sum c_eng
# ---- run minimization
reset_timestep 0
fix 1 all box/relax iso 0.0 vmax 0.001
thermo 10
thermo_style custom step pe lx ly lz xy xz yz press pxx pyy pzz pxy pxz pyz c_eatoms
min_style cg
minimize 1e-25 1e-25 5000 10000
PPPM initialization ...
  G vector (1/distance) = 0.352505
  grid = 8 8 8
  stencil order = 5
  estimated absolute RMS force accuracy = 3.81397e-05
  estimated relative force accuracy = 2.64865e-06
  using double precision FFTs
  3d grid and FFT values/proc = 3375 512
Neighbor list info ...
  1 neighbor list requests
  update every 1 steps, delay 0 steps, check yes
  master list distance cutoff = 11
Memory usage per processor = 4.06549 Mbytes
Step PotEng Lx Ly Lz Xy Xz Yz Press Pxx Pyy Pzz Pxy Pxz Pyz eatoms 
       0   -106.97328       4.2565       4.2565       4.2565            0            0            0    38192.574    38192.574    38192.574    38192.574 8.7875882e-11 -6.3416216e-11 -7.5192229e-11   -106.97328 
       9   -106.99342    4.2893301    4.2893301    4.2893301            0            0            0     -3.54441     -3.54441     -3.54441     -3.54441 -1.7895043e-11 -1.1181496e-10 -2.9549514e-11   -106.99342 
Loop time of 0.00897098 on 1 procs for 9 steps with 8 atoms

Minimization stats:
  Stopping criterion = linesearch alpha is zero
  Energy initial, next-to-last, final = 
        -106.973281584     -106.993416645     -106.993416645
  Force two-norm initial, final = 5.51503 0.00172663
  Force max component initial, final = 5.51503 0.00051974
  Final line search alpha, max atom move = 0.00390625 2.03024e-06
  Iterations, force evaluations = 9 26

Pair  time (%) = 0.00239015 (26.6431)
Kspce time (%) = 0.00141835 (15.8105)
Neigh time (%) = 0 (0)
Comm  time (%) = 0.000273466 (3.04834)
Outpt time (%) = 0 (0)
Other time (%) = 0.00488901 (54.4981)

Nlocal:    8 ave 8 max 8 min
Histogram: 1 0 0 0 0 0 0 0 0 0
Nghost:    2189 ave 2189 max 2189 min
Histogram: 1 0 0 0 0 0 0 0 0 0
Neighs:    2344 ave 2344 max 2344 min
Histogram: 1 0 0 0 0 0 0 0 0 0

Total # of neighbors = 2344
Ave neighs/atom = 293
Neighbor list builds = 0
Dangerous builds = 0
unfix 1
# ---- define output variables ----
variable natoms equal "count(all)"
variable tot_energy equal "c_eatoms"
variable length_x equal "lx"
variable length_y equal "ly"
variable length_z equal "lz"
variable tilt_xy equal "xy"
variable tilt_xz equal "xz"
variable tilt_yz equal "yz"
variable tot_press equal "press"
variable press_xx equal "pxx"
variable press_yy equal "pyy"
variable press_zz equal "pzz"
variable press_xy equal "pxy"
variable press_xz equal "pxz"
variable press_yz equal "pyz"

# ---- output ----
print "pypospack:output_section:begin"
pypospack:output_section:begin
print "tot_energy = ${tot_energy}"
tot_energy = -106.993416644887
print "num_atoms = ${natoms}"
num_atoms = 8
print "xx = ${length_x}"
xx = 4.28933011317114
print "yy = ${length_y}"
yy = 4.28933011317114
print "zz = ${length_z}"
zz = 4.28933011317114
print "xy = ${tilt_xy}"
xy = 0
print "xz = ${tilt_xz}"
xz = 0
print "yz = ${tilt_yz}"
yz = 0
print "tot_press = ${tot_press}"
tot_press = -3.54441004469774
print "pxx = ${press_xx}"
pxx = -3.5444100447524
print "pyy = ${press_yy}"
pyy = -3.54441004470836
print "pzz = ${press_zz}"
pzz = -3.54441004463246
print "pxy = ${press_xy}"
pxy = -1.78950429729069e-11
print "pxz = ${press_xz}"
pxz = -1.1181495634962e-10
print "pyz = ${press_yz}"
pyz = -2.95495135207349e-11
print "pypospack:output_section:done"
pypospack:output_section:done
print "pypospack:lammps_sim:done"
pypospack:lammps_sim:done
#------------------------------------------------------------------------------
# RUN THERMOSTAT
# running using an NPT Nose-Hoover style thermostat
#------------------------------------------------------------------------------
variable tempdamp equal 0.1
variable pressdamp equal 1.0
# set initial velocities
velocity all create 2000 6360281 mom yes dist gaussian loop all
# fix for Nose-Hoover style thermostat
fix 20 all npt temp 2000 2000 0.1 aniso 0.0 0.0 1.0 drag 1.0 couple xyz
variable boxx equal lx
variable boxy equal ly
variable boxz equal lz
variable boxp equal press
variable boxt equal temp
# calculate averages every 10000 steps
reset_timestep 0
fix 21 all ave/time 10 10 100 v_boxx v_boxy v_boxz v_boxp v_boxt file lattice.out
thermo_style custom step temp pe ke etotal press lx ly lz press pxx pyy pzz pxy pxz pyz vol
thermo_modify flush yes
thermo 100
run 100000
PPPM initialization ...
  G vector (1/distance) = 0.352181
  grid = 8 8 8
  stencil order = 5
  estimated absolute RMS force accuracy = 3.87093e-05
  estimated relative force accuracy = 2.68821e-06
  using double precision FFTs
  3d grid and FFT values/proc = 3375 512
Memory usage per processor = 3.06549 Mbytes
Step Temp PotEng KinEng TotEng Press Lx Ly Lz Press Pxx Pyy Pzz Pxy Pxz Pyz Volume 
       0         2000   -106.99342     1.809642   -105.18378    24488.496    4.2893301    4.2893301    4.2893301    24488.496    26423.553    17606.165    29435.771    6571.1482    1897.6374   -3908.6761    78.916609 
     100    965.51829   -105.84219   0.87362124   -104.96857    21951.738    4.3239414    4.3239414    4.3239414    21951.738    54193.652   -13765.035    25426.597    2991.1653    3264.8495    4172.1522    80.842438 
     200    767.07891    -105.1837   0.69406912   -104.48963   -6057.9617    4.3825995    4.3825995    4.3825995   -6057.9617    37173.505   -71744.942    16397.551    742.72976   -6716.0583   -2068.0193    84.177369 
     300     2169.383    -105.9826    1.9629033   -104.01969   -36533.855    4.4065798    4.4065798    4.4065798   -36533.855   -5745.3631    -65404.01   -38452.193    432.54064    4925.0325    376.03755    85.566728 
     400    1570.1582   -105.08876    1.4207122   -103.66805    13547.986     4.390892     4.390892     4.390892    13547.986      82118.7   -46108.597    4633.8551   -1882.5393    24478.188    55.632455    84.656104 
     500    2589.8844   -105.78662    2.3433818   -103.44324   -22189.207     4.376116     4.376116     4.376116   -22189.207   -21311.223   -48834.946    3578.5488    5660.2022   -8769.1091   -11607.016    83.804336 
     600    2756.2145   -105.87958    2.4938808    -103.3857    6322.0898    4.3826647    4.3826647    4.3826647    6322.0898    17788.046   -11846.906    13025.129    5418.5866    3182.8281    14339.914    84.181126 
     700    1138.0229    -104.4091     1.029707   -103.37939     4538.399    4.4119984    4.4119984    4.4119984     4538.399    27710.448   -66350.324    52255.073    3958.2187   -25753.249   -5818.5298    85.882771 
     800    1879.7232   -105.02453     1.700813   -103.32372   -38601.157    4.4276309    4.4276309    4.4276309   -38601.157   -27828.315   -89445.254    1470.0978    10550.539    28040.801    5701.4029    86.798901 
     900    2322.5374   -105.40686    2.1014807   -103.30538   -5218.2327      4.40358      4.40358      4.40358   -5218.2327    60986.996   -47254.937   -29386.757    2305.0444    27527.982   -8711.4419    85.392095 
    1000    1817.0208   -104.95662    1.6440786   -103.31254    35122.292    4.3693522    4.3693522    4.3693522    35122.292    156112.73   -43889.023   -6856.8284    -8873.751    -10474.82    -4251.134    83.416348 
    1100    1977.0363   -105.19932     1.788864   -103.41046    5519.3583    4.3812822    4.3812822    4.3812822    5519.3583    50764.347   -11587.688   -22618.584     11943.22    3575.4691    11587.209    84.101486 
    1200    1877.4236    -105.1145    1.6987323   -103.41577    3032.2333    4.4047622    4.4047622    4.4047622    3032.2333    47706.769   -39420.297    810.22804    13835.983   -11527.354   -6853.3766     85.46089 
    1300    2304.1718   -105.43206    2.0848631    -103.3472   -36019.321    4.4216365    4.4216365    4.4216365   -36019.321     4022.498   -52561.922   -59518.537    4275.1637    19375.893    19041.601    86.446835 
    1400    1545.1103   -104.69203    1.3980482   -103.29398   -11225.392    4.4178423    4.4178423    4.4178423   -11225.392    69154.549   -65861.221   -36969.504    369.52674    20219.931    -7320.354     86.22449 
    1500    1991.1682   -105.06966    1.8016508   -103.26801    39447.341    4.3905683    4.3905683    4.3905683    39447.341    129854.88    29467.492   -40980.346   -7752.8305    5480.8445    5896.1837    84.637382 
    1600    2279.2042   -105.35203    2.0622718   -103.28975    -16872.16    4.3800052    4.3800052    4.3800052    -16872.16   -41580.603   -6637.2799   -2398.5968   -1372.1234   -1336.0235   -10586.626     84.02797 
    1700    1618.3003   -104.81853    1.4642721   -103.35426   -31355.314    4.4021122    4.4021122    4.4021122   -31355.314   -60945.192    3412.1715    -36532.92    1943.8482   -3517.1348    4713.9124    85.306735 
    1800    2323.2259   -105.42744    2.1021036   -103.32534   -19166.785    4.4132753    4.4132753    4.4132753   -19166.785    1214.7619    -31288.86   -27426.258   -18797.063    5878.0253     12795.19    85.957359 
    1900    1877.0784   -105.01434      1.69842   -103.31592   -22970.013     4.406597     4.406597     4.406597   -22970.013   -20264.606    11571.932   -60217.364   -968.83565   -24704.534   -20035.474    85.567729 
    2000    1695.1782   -104.82198    1.5338329   -103.28815    30273.145    4.3905308    4.3905308    4.3905308    30273.145     76928.19    9905.6136    3985.6323   -15340.055    5649.8139    11498.008    84.635214 
    2100    1948.5537   -105.06421    1.7630923   -103.30112    26800.058    4.3937642    4.3937642    4.3937642    26800.058    66761.668    65474.954   -51836.448    14585.344    -11335.99     -6663.39    84.822338 
    2200    2313.8646   -105.38826    2.0936333   -103.29463   -3034.2647    4.4039885    4.4039885    4.4039885   -3034.2647    25744.632   -37704.765    2857.3391    9452.6548   -25666.227    2968.5094    85.415865 
    2300    1745.1507   -104.85827    1.5790491   -103.27922   -35017.282    4.4103379    4.4103379    4.4103379   -35017.282   -83122.012    -5976.368   -15953.465   -6063.2939    2185.7018   -3148.7456    85.785838 
    2400    2359.7396   -105.39159    2.1351419   -103.25644    9299.6586    4.4067597    4.4067597    4.4067597    9299.6586    70890.044    -54203.51    11212.442   -18870.768   -8307.7727    18436.993    85.577204 
    2500     1847.169    -104.9315    1.6713573   -103.26014    -18912.88    4.4005172    4.4005172    4.4005172    -18912.88    -47323.91    18229.157   -27643.887   -1515.4762    16993.436   -257.52935    85.214042 
    2600    1825.5629   -104.93057    1.6518076   -103.27876   -5638.0208    4.3992853    4.3992853    4.3992853   -5638.0208    18256.826   -33492.749   -1678.1393   -3668.0019   -33790.847    15376.408    85.142496 
    2700     2240.501   -105.31872    2.0272524   -103.29147    2300.2734    4.4022111    4.4022111    4.4022111    2300.2734    4275.2086    57780.971    -55155.36   -5496.5373    7851.8569    -17559.44    85.312486 
    2800    2035.4111   -105.11934    1.8416828   -103.27766   -22985.587    4.4014888    4.4014888    4.4014888   -22985.587   -22543.708   -4159.9973   -42253.056   -12577.425     3767.785   -1500.5507    85.270499 
    2900    1824.7011   -104.92816    1.6510279   -103.27713    20287.182    4.3954159    4.3954159    4.3954159    20287.182    17836.913    56043.986   -13019.355    28221.674    5394.0766   -2361.5436    84.918033 
    3000    2519.4636    -105.5712    2.2796637   -103.29153   -7711.3926    4.3925363    4.3925363    4.3925363   -7711.3926   -22406.244    36214.724   -36942.657    -25604.38   -9122.3678    241.11913    84.751246 
    3100    1761.5465   -104.91252    1.5938843   -103.31863   -26187.476    4.4061019    4.4061019    4.4061019   -26187.476   -57405.687    7545.9177    -28702.66    20637.999   -5236.7039    3758.6167    85.538893 
    3200    2065.7288   -105.17308    1.8691148   -103.30397     10225.82    4.4033747    4.4033747    4.4033747     10225.82     89286.06   -39150.764   -19457.836   -11146.385    21191.644   -6850.7511    85.380152 
    3300    2697.0295   -105.73048     2.440329   -103.29016   -22900.953    4.4008553    4.4008553    4.4008553   -22900.953   -50171.104    18002.218   -36533.972    14463.422    7919.1808   -3712.5197    85.233685 
    3400    1202.7719   -104.37868    1.0882933   -103.29039    47185.262    4.3939672    4.3939672    4.3939672    47185.262    116083.55   -11775.571    37247.812    15081.177    18845.146   -10778.037    84.834098 
    3500    2333.4993   -105.40736    2.1113992   -103.29596    6935.9614    4.4049696    4.4049696    4.4049696    6935.9614    8710.3923    23755.919   -11658.427    5448.1905     2815.587    5187.6602    85.472958 
    3600    2824.4294   -105.83153     2.555603   -103.27593   -47065.066     4.409202     4.409202     4.409202   -47065.066   -55576.981   -46175.378   -39442.841   -4706.7462     11121.85   -11337.396    85.719572 
    3700    2181.6536   -105.29459     1.974006   -103.32059   -18528.073    4.4071505    4.4071505    4.4071505   -18528.073   -53838.631    7812.8314   -9558.4184   -18616.797   -2802.8677   -9816.6897    85.599975 
    3800    2349.9418    -105.4503    2.1262767   -103.32402    7024.8564    4.4029098    4.4029098    4.4029098    7024.8564    32491.745    4533.1799   -15950.355    5981.9468   -27606.305   -7532.2931    85.353114 
    3900    2159.8865   -105.26858    1.9543107   -103.31427    7467.3463    4.3933443    4.3933443    4.3933443    7467.3463    73855.055    4310.2514   -55763.267    9241.5123    7718.0273    25914.812    84.798021 
    4000    1643.1556   -104.83843    1.4867617   -103.35167   -11160.542    4.3924381    4.3924381    4.3924381   -11160.542   -26691.576    33833.476   -40623.525   -28833.957      5786.76   -4570.2241    84.745558 
    4100    1837.4839   -104.99949    1.6625941    -103.3369     35421.02    4.3933572    4.3933572    4.3933572     35421.02    166062.59   -12122.957   -47676.576    18231.437   -2389.3871   -4446.7834     84.79877 
    4200    2314.3284   -105.42494     2.094053   -103.33088    3925.0074    4.3996947    4.3996947    4.3996947    3925.0074    102036.23   -15957.521   -74303.686   -1841.3207   -13510.273   -15183.631    85.166268 
    4300    2376.1725   -105.45503    2.1500108   -103.30502   -22083.903    4.3956946    4.3956946    4.3956946   -22083.903    10220.626   -23104.661   -53367.675   -5902.4153   -10646.464    10244.008    84.934188 
    4400    2203.9052   -105.30791    1.9941397   -103.31377   -55083.721    4.4095918    4.4095918    4.4095918   -55083.721   -80683.298   -46596.995   -37970.872    6896.1375    7227.5505    11214.031    85.742305 
    4500    1318.2925   -104.48705    1.1928188   -103.29423    19930.523    4.4107622    4.4107622    4.4107622    19930.523    159349.47   -83924.398   -15633.507    19715.213   -5449.4818    40145.568    85.810601 
    4600    2167.2868   -105.21556    1.9610067   -103.25455    23737.577    4.3890422    4.3890422    4.3890422    23737.577     58078.03   -3621.8524    16756.555    20289.488   -455.94057    16219.395    84.549156 
    4700    2269.3051   -105.32112     2.053315    -103.2678   -30322.412    4.3845568    4.3845568    4.3845568   -30322.412      8054.33   -54084.643   -44936.923    -5197.926    7061.1408    4836.9653    84.290202 
    4800    2810.4473   -105.84452    2.5429517   -103.30157   -21139.105    4.4016252    4.4016252    4.4016252   -21139.105    23305.086   -47221.012   -39501.391   -9094.7587     9578.877   -6166.4183    85.278427 
    4900    1680.6128   -104.80419    1.5206538   -103.28353   -10017.011    4.4086395    4.4086395    4.4086395   -10017.011   -21021.327   -25707.266     16677.56   -21302.427   -1703.8613    1773.8026    85.686768 
    5000    1762.3547   -104.83748    1.5946156   -103.24286   -20124.991    4.3946768    4.3946768    4.3946768   -20124.991   -26317.441   -2335.7808   -31721.753    -22326.88   -8805.6538    6386.0937    84.875205 
    5100      2331.33   -105.36309    2.1094364   -103.25366    22195.407    4.3795096    4.3795096    4.3795096    22195.407    100926.11   -6811.4354   -27528.455    -31433.64    10182.317    1973.8002     83.99945 
    5200    1857.8742   -104.96939    1.6810436   -103.28834    32550.083     4.380875     4.380875     4.380875    32550.083    85024.667    11560.581    1065.0019    7729.7937   -11049.377   -2794.2695    84.078041 
    5300    1948.6089    -105.0581    1.7631423   -103.29495   -32802.595     4.390541     4.390541     4.390541   -32802.595   -46611.924   -9038.6712   -42757.188    4724.5477     7266.764    4698.3104    84.635803 
    5400    2737.0899   -105.78208    2.4765765    -103.3055   -16094.411    4.3888219    4.3888219    4.3888219   -16094.411   -11886.405   -23968.033   -12428.795   -14492.658   -3404.8254   -6448.1271    84.536422 
    5500    1897.2318    -105.0311    1.7166552   -103.31445    7578.0724     4.388229     4.388229     4.388229    7578.0724    6009.0543    28365.824   -11640.661   -10827.785    10661.476     1178.502    84.502167 
    5600    1352.9108   -104.53485    1.2241421   -103.31071    3272.5987     4.380023     4.380023     4.380023    3272.5987    60061.245   -7673.2784   -42570.171   -22601.566    -2067.317    5600.8791    84.028996 
    5700    1986.7121   -105.13755    1.7976188   -103.33993    36695.367    4.3892267    4.3892267    4.3892267    36695.367    35371.849    45671.834    29042.416    15082.974    10323.496   -28946.597    84.559818 
    5800    1891.7949   -105.03502    1.7117358   -103.32328   -36599.063    4.4009504    4.4009504    4.4009504   -36599.063   -70577.278   -47682.441    8462.5291   -32195.749   -1522.7166    906.89822    85.239209 
    5900    1495.4745   -104.62902    1.3531368   -103.27588   -15357.462    4.3914404    4.3914404    4.3914404   -15357.462   -73922.482    41393.492   -13543.394    14759.019    2938.0617    4217.1048    84.687826 
    6000    2825.2225   -105.81186    2.5563207   -103.25554   -3910.3642    4.3748542    4.3748542    4.3748542   -3910.3642    5351.4442    9112.7847   -26195.321    2277.0277    15788.139    3238.2237    83.731862 
    6100    1360.4814   -104.52357    1.2309922   -103.29258    8774.9269    4.3843626    4.3843626    4.3843626    8774.9269   -11055.746   -7422.7384    44803.265   -5084.6063    -3889.722   -3288.8915    84.279001 
    6200    1920.2079   -105.02503    1.7374445   -103.28758   -14287.451    4.3965014    4.3965014    4.3965014   -14287.451   -69581.772    38694.948   -11975.528    450.77802   -2335.8674    302.54386    84.980961 
    6300    2415.7448   -105.46624    2.1858166   -103.28042   -779.15526    4.3997661    4.3997661    4.3997661   -779.15526    55652.942   -17598.784   -40391.624   -335.18881   -70.605857     15091.14    85.170414 
    6400    1815.9911   -104.90531     1.643147   -103.26216    21414.656    4.3785851    4.3785851    4.3785851    21414.656    83143.732    20694.609   -39594.372   -8845.6319    1106.8205    5419.9052    83.946268 
    6500    1279.9197    -104.4523    1.1580983   -103.29421   -10311.663    4.3581803    4.3581803    4.3581803   -10311.663   -90096.577    15330.599     43830.99   -12710.045    4270.7675    802.92575    82.778122 
    6600    2729.1834   -105.79372    2.4694225    -103.3243    35602.982    4.3578755    4.3578755    4.3578755    35602.982    48045.858    71665.493   -12902.406    9514.4104    609.28519    -12406.64    82.760757 
    6700    1604.9001   -104.80108    1.4521473   -103.34893   -14240.441       4.3863       4.3863       4.3863   -14240.441   -15551.277     -25912.2   -1257.8462   -23517.914    2187.3865    6287.4072    84.390778 
    6800    1792.4732   -104.91567    1.6218674   -103.29381   -36245.501    4.4057937    4.4057937    4.4057937   -36245.501   -95921.294    28010.526   -40825.735   -7238.0032    5499.0958    2851.2453    85.520941 
    6900     2191.458   -105.24247    1.9828773   -103.25959    15601.171    4.3939066    4.3939066    4.3939066    15601.171    72413.313   -13234.317   -12375.483    -12626.72    9763.6792   -21458.542    84.830585 
    7000    2114.3775   -105.17089    1.9131332   -103.25775    -12484.34    4.3904922    4.3904922    4.3904922    -12484.34   -32141.158    5619.3875    -10931.25    17301.873    3874.5368   -5912.1082    84.632979 
    7100    1180.0144    -104.3484    1.0677018   -103.28069    29300.128     4.396548     4.396548     4.396548    29300.128    68912.884     59428.11   -40440.609   -13802.532    20482.703     6584.444    84.983664 
    7200    2555.6596   -105.62618    2.3124146   -103.31377   -25904.453    4.4019933    4.4019933    4.4019933   -25904.453   -6581.2363     3067.185   -74199.307    811.64787    2532.4783    15985.581    85.299821 
    7300    2582.4887   -105.63973      2.33669   -103.30304   -29040.825    4.3935758    4.3935758    4.3935758   -29040.825   -30241.855   -48112.967    -8767.655   -2618.8892    14564.393   -8435.2464    84.811427 
    7400    1606.3305   -104.76677    1.4534416   -103.31333   -12771.993    4.3918437    4.3918437    4.3918437   -12771.993   -6546.6253    8982.9554    -40752.31   -14305.618   -12968.779   -12598.314    84.711159 
    7500    2349.3025   -105.42654    2.1256982   -103.30084    9934.6717    4.3900897    4.3900897    4.3900897    9934.6717    31329.349   -45224.552    43699.218   -4748.7163    1354.1345   -4197.7462    84.609703 
    7600    1823.6002   -104.94669    1.6500318   -103.29666   -30581.698    4.3950422    4.3950422    4.3950422   -30581.698   -76199.945   -22265.924    6720.7751   -11628.443    8027.0441     2621.331    84.896377 
    7700    2148.4598    -105.2283    1.9439716   -103.28433     5666.148    4.4010674    4.4010674    4.4010674     5666.148    96852.945   -42260.054   -37594.447   -7717.5922   -18488.857    -4989.742    85.246009 
    7800    2046.0814   -105.14336    1.8513374   -103.29203   -28320.872    4.4091688    4.4091688    4.4091688   -28320.872   -21700.336   -23822.725   -39439.555   -15570.646    6151.3145   -5480.7658    85.717637 
    7900     1850.271   -104.93889    1.6741641   -103.26473   -2937.6219    4.3956686    4.3956686    4.3956686   -2937.6219    17933.395   -52217.208    25470.947    6411.4937    7060.2456    11043.511    84.932682 
    8000    2056.7924   -105.14088     1.861029   -103.27985    30816.085    4.3847185    4.3847185    4.3847185    30816.085    66860.339    11864.162    13723.754   -10862.483   -10842.509   -8058.0508    84.299528 
    8100    2399.1137    -105.4696    2.1707685   -103.29883   -15326.942      4.39723      4.39723      4.39723   -15326.942    12144.628   -30937.349   -27188.106     4230.121   -3904.0895   -746.54495    85.023219 
    8200    1895.9008   -105.02546    1.7154509      -103.31   -34518.465    4.4066953    4.4066953    4.4066953   -34518.465   -25644.849   -70521.701   -7388.8457   -16467.697   -10066.677     5348.888    85.573454 
    8300    2005.2827   -105.11262     1.814422    -103.2982     24556.25    4.3969018    4.3969018    4.3969018     24556.25    72464.198    17875.718   -16671.167   -5609.8395    3531.5787    955.20543    85.004185 
    8400    2420.9262   -105.48014    2.1905049   -103.28964   -325.73981    4.3879442    4.3879442    4.3879442   -325.73981    78909.611   -88853.984    8967.1537    12940.135   -19786.151   -7285.4289    84.485719 
    8500     1008.324   -104.21384   0.91235271   -103.30149    49984.778     4.379506     4.379506     4.379506    49984.778    87825.226    -3634.377    65763.485   -11605.164    13678.512    7897.7457    83.999243 
    8600    2178.5215   -105.31534     1.971172   -103.34416    693.81812    4.3988281    4.3988281    4.3988281    693.81812    43669.171   -29128.036   -12459.681    21086.325    1595.8964    3238.0725    85.115956 
    8700    2681.3935   -105.76131    2.4261812   -103.33513   -29960.585    4.4146334    4.4146334    4.4146334   -29960.585    49127.116   -78886.889   -60121.982     11074.56   -11052.623    5910.9867    86.036739 
    8800    1431.2585   -104.59902    1.2950327   -103.30399    32018.491    4.4028353    4.4028353    4.4028353    32018.491    54398.857      11243.3    30413.314   -8902.7026    18449.167    6587.1739     85.34878 
    8900    1593.9039   -104.75305    1.4421978   -103.31085    13720.554     4.401507     4.401507     4.401507    13720.554    12932.222   -11369.667    39599.106    9281.4619     4725.693   -1221.2721    85.271556 
    9000    2370.8596   -105.44991    2.1452036    -103.3047   -20661.708    4.4033688    4.4033688    4.4033688   -20661.708    16576.163   -4417.5297   -74143.757    18444.255   -8476.3599   -971.97778    85.379812 
    9100    2316.4071   -105.41801    2.0959339   -103.32208   -28768.521    4.4076166    4.4076166    4.4076166   -28768.521   -10666.421   -30931.923   -44707.218   -7384.9745   -34107.416    5712.7075     85.62714 
    9200     1414.234   -104.59005    1.2796286   -103.31042    11298.691     4.407831     4.407831     4.407831    11298.691   -20775.222    44236.558    10434.739    8283.9864   -8276.4019    -13695.99    85.639634 
    9300    2537.7751   -105.57557    2.2962323   -103.27933    -6979.401    4.3974326    4.3974326    4.3974326    -6979.401    16665.746   -3632.1915   -33971.757   -12191.457   -23914.187    13057.065    85.034974 
    9400    1639.8592    -104.7668    1.4837791   -103.28303     15684.58    4.3933279    4.3933279    4.3933279     15684.58    14878.233    18918.729    13256.777   -366.96297    13636.383   -3043.0025     84.79707 
    9500    2253.9351   -105.31813    2.0394078   -103.27872   -10908.907    4.3931729    4.3931729    4.3931729   -10908.907   -69118.985   -19665.321    56057.586    13085.336   -20759.156   -12150.387    84.788098 
    9600    2221.6597   -105.30773    2.0102044   -103.29752   -5720.3525    4.3971966    4.3971966    4.3971966   -5720.3525    52652.121   -21451.033   -48362.146    8491.2422   -19892.801    12254.496    85.021281 
    9700     2134.294   -105.20667     1.931154   -103.27552   -20423.744    4.4015818    4.4015818    4.4015818   -20423.744   -68379.093   -3352.4632    10460.323    1482.5314   -3882.2006    15802.038    85.275902 
    9800    1428.7157   -104.56364     1.292732   -103.27091    42422.526    4.3978097    4.3978097    4.3978097    42422.526    4380.9154    66234.546    56652.115    5501.3249   -8846.9508    40604.783    85.056853 
    9900    2774.0528   -105.77555    2.5100213   -103.26553   -15235.317    4.4105027    4.4105027    4.4105027   -15235.317   -2804.2461   -6687.3454   -36214.361     17685.34   -16350.704   -5275.5613    85.795454 
   10000     1810.192   -104.88343    1.6378997   -103.24553   -35525.935    4.4134707    4.4134707    4.4134707   -35525.935   -112050.15    32201.946     -26729.6    9088.3977    1631.4382   -1109.8382    85.968774 
   10100    2051.6335   -105.10807    1.8563611   -103.25171    14381.377    4.4000488    4.4000488    4.4000488    14381.377   -28667.053   -32875.832    104687.02   -16906.849   -851.69078    -2309.589    85.186832 
   10200    2404.9628   -105.45736    2.1760609    -103.2813   -799.97637    4.3983876    4.3983876    4.3983876   -799.97637    -46713.92    57032.195   -12718.204   -3183.4764   -30041.879    9603.3178    85.090385 
   10300    956.46342   -104.17683    0.8654282    -103.3114    12892.875    4.4064831    4.4064831    4.4064831    12892.875   -33700.619    26579.746    45799.499    4953.5037    12453.125   -10176.258    85.561096 
   10400    2734.5203    -105.7666    2.4742514   -103.29235   -17737.569    4.4144485    4.4144485    4.4144485   -17737.569   -41252.221    6419.2601   -18379.746   -4379.2401   -2558.4844   -16464.225    86.025929 
   10500    1976.6489   -105.08258    1.7885134   -103.29406   -41433.547    4.4249094    4.4249094    4.4249094   -41433.547   -84223.206    -400.0055   -39677.429   -6923.5738    5492.1345    26764.649    86.638944 
   10600    1223.6319   -104.40235    1.1071679   -103.29518    41921.897    4.4171453    4.4171453    4.4171453    41921.897   -84463.802    123785.96    86443.534    26728.141    6843.6023   -4859.0982    86.183685 
   10700    2722.4676   -105.75097    2.4633459   -103.28763   -19918.669    4.4036594    4.4036594    4.4036594   -19918.669   -50065.838     14059.44   -23749.611    5724.5496   -1171.2366    15068.687    85.396712 
   10800    795.09725   -104.04823    0.7194207   -103.32881    34576.999    4.4021668    4.4021668    4.4021668    34576.999   -79527.843    8315.5585    174943.28    4801.8946    17467.751   -17307.528    85.309909 
   10900    2724.9327   -105.80406    2.4655764   -103.33849   -13320.857    4.4064675    4.4064675    4.4064675   -13320.857   -46038.254    12335.313    -6259.631   -117.38419   -1033.6709    1034.1248    85.560186 
   11000    1678.1027   -104.86855    1.5183825   -103.35017   -41544.365    4.4032298    4.4032298    4.4032298   -41544.365   -95407.676    -58516.89    29291.472   -2248.7248    17567.688    14523.944    85.371724 
   11100      1091.93   -104.34335   0.98800121   -103.35535    41415.463    4.3808367    4.3808367    4.3808367    41415.463   -66262.936    23879.684    166629.64    7948.0494   -23093.338    12287.473    84.075835 
   11200    2426.6781   -105.55236    2.1957093   -103.35665    8028.0987    4.3657724    4.3657724    4.3657724    8028.0987   -24255.726    1043.3616    47296.661   -15271.494    7134.3092   -12335.778    83.211484 
   11300    1142.5599    -104.4161    1.0338122   -103.38228   -1745.3921    4.3828961    4.3828961    4.3828961   -1745.3921   -101249.82    38095.609     57918.03   -3697.2759   -12442.167    19955.391    84.194459 
   11400    2709.6458   -105.80935    2.4517444   -103.35761   -19081.305    4.4086248    4.4086248    4.4086248   -19081.305    -65695.62   -12814.599    21266.304    14256.001   -8188.5048   -18837.848     85.68591 
   11500    2104.8806    -105.2148    1.9045402   -103.31026   -45433.494     4.415182     4.415182     4.415182   -45433.494    -101994.1    -16220.93   -18085.448   -19199.788    3316.2042    2181.7724    86.068819 
   11600    1113.6394   -104.29273    1.0076443   -103.28508    20358.937    4.3910935    4.3910935    4.3910935    20358.937   -95077.542     63293.07    92861.283   -2337.1275   -1019.9595    12959.821    84.667758 
   11700    2623.0945   -105.65131     2.373431   -103.27788    11776.685    4.3665246    4.3665246    4.3665246    11776.685    17376.464    5610.6969    12342.894    -264.0917    13697.876    -8175.078    83.254504 
   11800    2161.6944   -105.30873    1.9559465   -103.35278    -4013.422    4.3797943    4.3797943    4.3797943    -4013.422   -74388.852   -4773.7184    67122.305      8013.93    10484.807    16384.512    84.015835 
   11900    2541.4034   -105.66889    2.2995152   -103.36938   -38634.252    4.4089672    4.4089672    4.4089672   -38634.252   -62745.435   -30007.248   -23150.074    171.42851    7786.9275   -7776.4064    85.705874 
   12000     1341.667   -104.54062    1.2139685   -103.32665    37928.782    4.4101642    4.4101642    4.4101642    37928.782    40675.875    43302.378    29808.094   -16733.887   -5795.5461    22151.649    85.775701 
   12100    2036.3414   -105.10873    1.8425245   -103.26621   -12241.293    4.3944484    4.3944484    4.3944484   -12241.293   -36319.769   -32629.911    32225.802   -11355.125    24882.904   -4594.0477    84.861968 
   12200    1868.5703   -104.95224    1.6907217   -103.26152    42349.195      4.37997      4.37997      4.37997    42349.195    25000.655    36585.396    65461.534   -615.04618   -10725.073    6888.2899    84.025948 
   12300    2489.2136   -105.56006    2.2522928   -103.30777   -14544.618    4.3900299    4.3900299    4.3900299   -14544.618    26773.599    -42106.49   -28300.962   -10060.133    23273.903   -6702.6161    84.606247 
   12400    1053.7628   -104.25165   0.95346675   -103.29818    26679.496    4.3933886    4.3933886    4.3933886    26679.496   -17589.042    33370.495    64257.035    13814.694     21902.91    3493.8779    84.800584 
   12500    2135.0043   -105.21724    1.9317968   -103.28544    21686.469    4.3947637    4.3947637    4.3947637    21686.469    43089.947    9166.1989    12803.263   -2094.8443    1229.7922    4210.0083    84.880236 
   12600    2297.7881   -105.35877     2.079087   -103.27968   -10879.925    4.4043323    4.4043323    4.4043323   -10879.925   -33074.962   -4297.9516    4733.1385   -13423.591    11273.588    20056.627    85.435865 
   12700    1779.5645    -104.8946    1.6101873   -103.28442   -26195.683    4.3994082    4.3994082    4.3994082   -26195.683   -98551.173   -24463.298    44427.422   -4720.2097    -13589.32    8818.9502    85.149631 
   12800    2456.7718   -105.50841    2.2229388   -103.28547    15886.771    4.3858228    4.3858228    4.3858228    15886.771    13003.238    52530.087   -17873.011   -14359.582    13014.524    17301.916    84.363236 
   12900    2086.2391   -105.18794     1.887673   -103.30027    14751.779    4.3823919    4.3823919    4.3823919    14751.779    59153.448   -31754.459    16856.348    15081.124   -6439.6129    3051.8272    84.165411 
   13000     1337.717    -104.5477    1.2103944    -103.3373    2818.9234    4.3977119    4.3977119    4.3977119    2818.9234   -401.63019   -1142.7488    10001.149   -20352.055   -8312.0787    5559.5119    85.051173 
   13100    2095.1379   -105.22303    1.8957248    -103.3273    20295.918    4.4058507    4.4058507    4.4058507    20295.918    27603.267   -3336.0184    36620.505   -3493.2221    24592.217    16660.279     85.52426 
   13200    2628.4792   -105.67995    2.3783032   -103.30165   -58205.747    4.4043738    4.4043738    4.4043738   -58205.747   -49567.938   -51826.295   -73223.007    14669.637    -31458.41   -6499.6773    85.438283 
   13300    1367.8736   -104.52851    1.2376808   -103.29083    54442.364    4.3842444    4.3842444    4.3842444    54442.364    52203.354    55757.183    55366.556   -33943.083    11710.127    12473.951    84.272186 
   13400    2336.6497    -105.4175    2.1142497   -103.30325   -22183.286    4.3849896    4.3849896    4.3849896   -22183.286    7894.2189   -48700.828   -25743.248   -7774.8227   -24964.599    15163.895    84.315165 
   13500    2280.4044   -105.35645    2.0633578   -103.29309   -28717.564    4.3872768    4.3872768    4.3872768   -28717.564    -20177.74   -8531.4655   -57443.486    9632.3559    3504.1225   -7321.6649    84.447173 
   13600    1964.7243   -105.07847    1.7777238   -103.30074    25627.927     4.385552     4.385552     4.385552    25627.927    8368.5747    17174.836     51340.37    4449.5858   -606.38218    16046.137    84.347615 
   13700    1957.3623   -105.07745    1.7710626   -103.30639     12907.39    4.3987263    4.3987263    4.3987263     12907.39    78988.393   -38520.547   -1745.6769   -5448.1473    425.00862    -13929.85    85.110045 
   13800    1841.6644   -104.96854    1.6663767   -103.30217   -25357.411    4.4125794    4.4125794    4.4125794   -25357.411   -26272.451   -66255.922    16456.139   -17182.781   -13889.166    11646.889    85.916702 
   13900    2382.8665   -105.43452    2.1560677   -103.27845    -31063.63    4.4076212    4.4076212    4.4076212    -31063.63    -12916.86   -36528.507   -43745.522    2510.9841   -15962.267   -2409.4192    85.627405 
   14000    2155.1109    -105.2113    1.9499896   -103.26131   -13142.697    4.3851751    4.3851751    4.3851751   -13142.697    54155.039   -79847.089   -13736.042   -371.45093    -19970.93    5005.3349    84.325869 
   14100    1718.0293   -104.83162     1.554509   -103.27712   -5504.0907    4.3707346    4.3707346    4.3707346   -5504.0907    24169.569   -3488.6813   -37193.159    3762.8604   -28935.492   -5581.5059    83.495548 
   14200    2206.0388   -105.30617    1.9960702    -103.3101    12167.614    4.3790823    4.3790823    4.3790823    12167.614    48851.783    23305.183   -35654.124   -648.38841    -2040.072    10585.569    83.974867 
   14300    1411.6449   -104.59818     1.277286   -103.32089    8953.1666    4.4110101    4.4110101    4.4110101    8953.1666    23524.179   -2066.9351    5402.2562    -9573.322    9511.8959    4991.3649    85.825065 
   14400    1935.6526   -105.01127    1.7514191   -103.25985   -27812.653    4.4281101    4.4281101    4.4281101   -27812.653     39632.95   -52503.872   -70567.038   -4663.9349    6990.1396   -846.77309    86.827086 
   14500    1837.1426   -104.87324    1.6622852   -103.21096   -13889.957    4.4126002    4.4126002    4.4126002   -13889.957    46433.407   -82054.787   -6048.4923   -9858.1797   -3661.4914   -2388.7445    85.917916 
   14600    2312.1036   -105.31496      2.09204   -103.22292   -20379.124    4.3839878    4.3839878    4.3839878   -20379.124    47543.988   -48323.057   -60358.302   -4302.1009   -6892.7891   -11099.881    84.257389 
   14700     2071.327   -105.15001    1.8741802   -103.27583    40749.286    4.3658916    4.3658916    4.3658916    40749.286    52755.954   -25571.819    95063.723   -11454.974    34389.804     7601.892    83.218299 
   14800    1404.5629   -104.63094     1.270878   -103.36006     13577.66    4.3836488    4.3836488    4.3836488     13577.66    1424.2696   -22195.469     61504.18   -10306.259   -1205.1331    4800.2024    84.237845 
   14900    1837.8102   -105.02896    1.6628893   -103.36607   -8408.0335    4.4034851    4.4034851    4.4034851   -8408.0335   -7918.6371   -40032.554    22727.091   -2250.1722   -7863.3816   -9245.8078    85.386572 
   15000    1813.4792   -104.99114    1.6408741   -103.35026    1582.6714    4.4066648    4.4066648    4.4066648    1582.6714   -30092.574   -66011.294    100851.88   -8721.3176    8070.2046   -8023.5263    85.571681 
   15100    1228.8819   -104.46358    1.1119181   -103.35166   -24281.536    4.3935037    4.3935037    4.3935037   -24281.536   -17220.182   -36117.512   -19506.915   -25991.112   -12564.604   -4943.1721    84.807254 
   15200    2761.5723   -105.81462    2.4987287   -103.31589    23376.856    4.3693875    4.3693875    4.3693875    23376.856    82665.742   -26203.468    13668.294    3512.7439    5416.5384    12692.836    83.418369 
   15300    2733.6854   -105.83974     2.473496   -103.36625   -29458.251    4.3806194    4.3806194    4.3806194   -29458.251   -13289.512    -50748.34   -24336.902   -11744.359   -10386.485   -7441.3873    84.063326 
   15400    1831.6112   -105.01869    1.6572803   -103.36141   -12767.561    4.3827931    4.3827931    4.3827931   -12767.561    12960.108   -52797.803    1535.0115   -5880.0757   -2780.1742   -9310.6773    84.188529 
   15500    2299.3542   -105.44064     2.080504   -103.36013   -8767.8868    4.3848298    4.3848298    4.3848298   -8767.8868     8043.245   -43985.763    9638.8575   -10383.229   -19938.421    10050.418    84.305952 
   15600    2417.5172   -105.52278    2.1874204   -103.33536   -26581.345    4.3821596    4.3821596    4.3821596   -26581.345    15720.195   -69460.766   -26003.463     28447.03   -1404.8265    1890.9334    84.152023 
   15700    1513.2216   -104.67809    1.3691947    -103.3089    5847.1452    4.3661461    4.3661461    4.3661461    5847.1452     61675.43    5388.2792   -49522.273   -20792.758    16424.505     12659.12    83.232854 
   15800    1657.3746   -104.81579    1.4996274   -103.31616   -5204.3541    4.3624811    4.3624811    4.3624811   -5204.3541    13969.544   -354.87289   -29227.734    11023.058   -20412.283   -8445.4166    83.023432 
   15900    2771.2064   -105.82912    2.5074458   -103.32167   -12053.475    4.3729891    4.3729891    4.3729891   -12053.475    6040.7025    -53139.95    10938.823    2622.8999    5863.4044   -3006.7196    83.624816 
   16000    1843.7412    -105.0214    1.6682558   -103.35314   -7000.0474    4.3934691    4.3934691    4.3934691   -7000.0474    41637.238    -56207.19   -6430.1901   -2708.7681    6094.7541    -9584.177    84.805245 
   16100     1459.101   -104.65529    1.3202252   -103.33507    35755.858    4.3970993    4.3970993    4.3970993    35755.858    98236.779    15167.608   -6136.8122    427.05263    5638.7172   -17357.996    85.015638 
   16200    2370.6018   -105.45931    2.1449704   -103.31434   -1984.2369    4.3953906    4.3953906    4.3953906   -1984.2369   -3190.8554   -51339.776    48577.921    8104.6422    25738.744    7302.7542    84.916566 
   16300    1753.5274   -104.89503    1.5866284    -103.3084    17594.339    4.3751311    4.3751311    4.3751311    17594.339    92053.282   -2201.5615   -37068.704    6212.0798   -16045.174   -15598.891     83.74776 
   16400    1916.1622   -105.06429    1.7337838   -103.33051   -18041.964     4.373439     4.373439     4.373439   -18041.964   -36426.415    6926.4067   -24625.884    7196.6952    27695.359    12419.615     83.65063 
   16500    2006.3868   -105.14504    1.8154209   -103.32962    13331.248    4.3765782    4.3765782    4.3765782    13331.248    43698.198   -66060.481    62356.027   -4394.7222   -398.59173   -14758.322    83.830888 
   16600    1849.7573   -105.01243    1.6736992   -103.33873    37154.102    4.3767125    4.3767125    4.3767125    37154.102    46289.631   -20312.578    85485.252   -4252.4375   -662.61956    15975.536    83.838607 
   16700     1534.036    -104.7472     1.388028   -103.35917   -29315.156    4.3911296    4.3911296    4.3911296   -29315.156   -11795.914   -19188.373   -56961.182    2796.1358    -3893.297   -16998.494    84.669846 
   16800    3009.3464   -106.04547    2.7229199   -103.32255   -31695.246     4.387098     4.387098     4.387098   -31695.246   -30262.518   -25852.792   -38970.428    9991.9923   -29168.418   -5246.4076    84.436846 
   16900    2193.5513   -105.30898    1.9847713   -103.32421   -1365.9115    4.3857237    4.3857237    4.3857237   -1365.9115    53727.195   -12047.335   -45777.594    408.24485    897.74441   -9367.3936    84.357522 
   17000    1270.5711   -104.46568    1.1496394   -103.31604    17571.223    4.3864478    4.3864478    4.3864478    17571.223   -23099.699   -9429.7649    85243.133    6888.7347   -8769.6385    14889.937    84.399308 
   17100     2082.804   -105.20903    1.8845648   -103.32447    6273.4302     4.384789     4.384789     4.384789    6273.4302   -15064.104   -25696.005      59580.4   -9723.7977    4521.6117   -23828.179    84.303597 
   17200    1511.0878   -104.70601     1.367264   -103.33875    23142.754    4.3828123    4.3828123    4.3828123    23142.754   -6352.5213    14878.538    60902.245    13097.226   -21095.392   -3312.8384     84.18963 
   17300    1115.5023   -104.36082    1.0093299   -103.35149    19476.307    4.3921262    4.3921262    4.3921262    19476.307   -52452.695   -29206.642    140088.26   -9460.9629    20282.044   -16575.816    84.727505 
   17400    1748.3214   -104.93685     1.581918   -103.35494   -6754.4445    4.3848274    4.3848274    4.3848274   -6754.4445    10547.841   -1463.3022   -29347.872    11000.045   -4104.2801    -2020.562    84.305808 
   17500    2526.7137    -105.6032    2.2862236   -103.31698    10412.402     4.372808     4.372808     4.372808    10412.402   -16856.226    25206.899    22886.532   -2191.9456   -3308.3165   -18892.603    83.614428 
   17600    2395.3632   -105.52353     2.167375   -103.35615    -18731.16    4.3969546    4.3969546    4.3969546    -18731.16   -52174.858    -17080.33    13061.708    7990.2419    -11667.69   -23652.812    85.007243 
   17700    1891.0351    -105.0304    1.7110483   -103.31935   -15965.666    4.4072798    4.4072798    4.4072798   -15965.666   -41684.284    -12392.32    6179.6054    12842.798    27253.106     4485.552    85.607512 
   17800    1898.1928   -105.00928    1.7175247   -103.29175   -9219.4329    4.4000778    4.4000778    4.4000778   -9219.4329   -74534.409   -5830.7629    52706.873   -6024.6809    9945.7191   -24218.475     85.18852 
   17900      2205.49   -105.29032    1.9955737   -103.29475   -970.51095     4.385946     4.385946     4.385946   -970.51095    -21637.75    6572.5799    12153.638    8720.3209    -6011.025   -8701.5785    84.370347 
   18000     1462.825   -104.60945    1.3235948   -103.28586    14572.026    4.3766886    4.3766886    4.3766886    14572.026    -68972.24    50313.709     62374.61   -8032.8682   -5019.3865    5392.3457    83.837235 
   18100    1981.3303   -105.10722    1.7927492   -103.31447   -18750.439    4.3887242    4.3887242    4.3887242   -18750.439   -80182.489    17521.272    6409.9004   -9225.7809   -5964.7156   -14011.385     84.53078 
   18200     2335.372   -105.41296    2.1130937   -103.29986    4288.1488    4.4055454    4.4055454    4.4055454    4288.1488    26337.775   -53734.426    40261.097   -12415.157    26800.389   -15249.467    85.506483 
   18300    1519.0366   -104.64519    1.3744562   -103.27073   -18418.237    4.4108622    4.4108622    4.4108622   -18418.237   -21037.558    11410.516   -45627.669    9429.2784    13579.337   -17338.817    85.816434 
   18400    1990.2993   -105.02866    1.8008646   -103.22779    30817.605    4.3986446    4.3986446    4.3986446    30817.605    80432.241    39685.796   -27665.223   -7275.0739    518.57865   -5298.8175    85.105305 
   18500    2614.3557   -105.59308     2.365524   -103.22755   -4032.6796    4.3997761    4.3997761    4.3997761   -4032.6796    3869.9339    15607.847   -31575.819   -14549.696   -11965.928   -2654.4742    85.170995 
   18600    1666.7526   -104.73833    1.5081127   -103.23022     781.4805    4.3965944    4.3965944    4.3965944     781.4805    65960.825    20881.019   -84497.402    9037.4628   -4823.4273    6343.5011    84.986355 
   18700    2427.0296   -105.44521    2.1960274   -103.24918    1464.2897    4.3953291    4.3953291    4.3953291    1464.2897   -159.11776    10961.635   -6409.6477   -7017.9629    194.23098   -11385.838       84.913 
   18800    2266.6371   -105.32155    2.0509009   -103.27065   -7593.6396    4.3882588    4.3882588    4.3882588   -7593.6396   -18332.167   -16549.998    12101.247    19276.066    3852.8795   -6479.2574    84.503892 
   18900    1097.7663   -104.28502   0.99328203   -103.29174    19574.345     4.378267     4.378267     4.378267    19574.345    42863.021    28265.266   -12405.251   -19405.952   -14293.181    8546.0528    83.927974 
   19000    2502.6061   -105.56931    2.2644106    -103.3049    11138.282    4.3867287    4.3867287    4.3867287    11138.282    42141.047   -48901.265    40175.063   -28121.336   -6857.8683    7136.7218    84.415523 
   19100    2041.7059    -105.1556    1.8473784   -103.30822   -8549.6685    4.4119253    4.4119253    4.4119253   -8549.6685    19841.659   -10570.774   -34919.891   -13235.039   -2134.2211   -10258.092    85.878498 
   19200    1171.0429   -104.33328    1.0595842   -103.27369    253.76656    4.4193731    4.4193731    4.4193731    253.76656    74002.103    3116.2014   -76357.005    -6946.506     15218.58   -1072.9243    86.314149 
   19300    2489.0974   -105.50027    2.2521876   -103.24808   -13945.974      4.39627      4.39627      4.39627   -13945.974    34101.982   -39126.894   -36813.012   -5074.3062   -13094.015    11950.703    84.967546 
   19400    2608.5534   -105.61189    2.3602739   -103.25161   -5887.6187    4.3753576    4.3753576    4.3753576   -5887.6187   -11732.498    16780.627   -22710.984     2171.879    24435.963   -5260.0305    83.760769 
   19500    2122.0806   -105.25325    1.9201031   -103.33315   -39445.407    4.3995712    4.3995712    4.3995712   -39445.407   -38562.429   -35889.124   -43884.667    6701.9822     1412.658    10252.707      85.1591 
   19600    2016.0923   -105.12385    1.8242027   -103.29965    13648.493    4.4251008    4.4251008    4.4251008    13648.493    35323.924   -42059.752    47681.308    14168.214    6827.4569    2072.0976    86.650186 
   19700    2046.4413   -105.08332    1.8516631   -103.23166   -24883.839     4.428711     4.428711     4.428711   -24883.839   -14193.193    9274.9679   -69733.292    10109.558    29916.715    20585.699    86.862439 
   19800    1715.8302   -104.73421    1.5525192   -103.18169   -1992.4865    4.4170411    4.4170411    4.4170411   -1992.4865    4732.9559   -6549.2294    -4161.186   -8744.9953    6335.0869    7955.1977    86.177584 
   19900    2108.3525   -105.07486    1.9076816   -103.16718    23772.403    4.4019752    4.4019752    4.4019752    23772.403   -13962.549    26526.277     58753.48    3194.2226    9832.3619    2724.5316    85.298772 
   20000    2410.0942   -105.37819    2.1807039   -103.19749   -46386.963    4.4037222    4.4037222    4.4037222   -46386.963   -57125.976   -29510.698   -52524.215    9400.3416   -918.43184    9985.3073    85.400367 
   20100     2849.742   -105.79278    2.5785064   -103.21427   -40358.162    4.4112389    4.4112389    4.4112389   -40358.162   -59991.149   -37455.297   -23628.042   -2202.2613    -5596.961    9396.6865    85.838426 
   20200    2158.2946   -105.15291    1.9528703   -103.20004   -19645.229    4.4119187    4.4119187    4.4119187   -19645.229    -55685.14    11104.195   -14354.744   -4461.8202   -3482.2974    7615.0971    85.878117 
   20300    2180.9729   -105.16899    1.9733901    -103.1956   -19526.196    4.4101886    4.4101886    4.4101886   -19526.196   -31833.069   -21027.526   -5717.9922   -1643.8158    17359.675   -19423.181    85.777128 
   20400    2241.3818   -105.23834    2.0280493   -103.21029   -8269.6327    4.4130939    4.4130939    4.4130939   -8269.6327   -14046.219   -44852.236    34089.557   -6044.6498   -30488.946    34447.624    85.946759 
   20500    1961.4478   -104.99957    1.7747592   -103.22481   -15764.458    4.4074495    4.4074495    4.4074495   -15764.458    46304.341   -27929.323   -65668.394    6759.6279    -8950.252     1569.231    85.617401 
   20600    1977.3403   -105.02996     1.789139   -103.24082    9259.5105    4.3957332    4.3957332    4.3957332    9259.5105   -20035.173   -18548.527    66362.232    5600.6735    21753.375    9501.2996    84.936426 
   20700    2770.4484   -105.75494    2.5067599   -103.24818   -26349.409    4.3942513    4.3942513    4.3942513   -26349.409    -6529.404   -75248.672    2729.8497    13082.065    3731.5924    9518.5643    84.850552 
   20800    2137.1921   -105.19228    1.9337763    -103.2585   -6550.9857      4.40342      4.40342      4.40342   -6550.9857     -19435.4    -38175.57    37958.013     13758.16    6701.9543   -9540.5596    85.382785 
   20900    1749.2363   -104.83178    1.5827458   -103.24903   -26694.426     4.424466     4.424466     4.424466   -26694.426    -45001.34   -57089.365    22007.426    8214.5567    21726.262    21540.161    86.612903 
   21000    1963.0405   -104.98357    1.7762003   -103.20737   -16539.906    4.4121304    4.4121304    4.4121304   -16539.906   -73704.902   -14923.402    39008.585   -1839.7831    9524.2749    26155.762    85.890478 
   21100    1945.1174   -104.97837    1.7599831   -103.21838     -5919.88    4.3969132    4.3969132    4.3969132     -5919.88   -25134.337    37206.236   -29831.539   -1184.0155   -15191.051   -15557.999    85.004844 
   21200     2153.391    -105.1954    1.9484335   -103.24696   -39974.426    4.3943356    4.3943356    4.3943356   -39974.426   -82003.087   -11579.281   -26340.912   -6072.5728    32730.848   -17047.556    84.855437 
   21300    2381.8285   -105.40924    2.1551285   -103.25411   -15479.279    4.3973796    4.3973796    4.3973796   -15479.279    14818.042   -30409.376   -30846.504   -2772.8838   -17092.404    5540.2609    85.031899 
   21400    1575.8746    -104.7131    1.4258844   -103.28722   -10298.993    4.4109935    4.4109935    4.4109935   -10298.993    -2340.863    12044.291   -40600.408   -17614.027    13525.006   -24803.078    85.824097 
   21500    1583.8221   -104.69437    1.4330755    -103.2613   -5220.4599    4.4045407    4.4045407    4.4045407   -5220.4599    24333.573   -24378.531   -15616.422    -20806.31    2627.3409   -17340.308    85.447999 
   21600    2090.2206   -105.14675    1.8912756   -103.25548    19130.755    4.3896759    4.3896759    4.3896759    19130.755    101642.48    8043.2072   -52293.421    10442.933   -16835.681   -13837.405     84.58578 
   21700    2046.4279   -105.14608     1.851651   -103.29442   -41947.737    4.3943573    4.3943573    4.3943573   -41947.737   -42281.972    -34021.49   -49539.749   -25279.473    7806.9255    7227.6926    84.856689 
   21800    2127.0869   -105.22425    1.9246329   -103.29961    2170.6333    4.3936618    4.3936618    4.3936618    2170.6333    58688.016   -44739.282   -7436.8339    2960.9932    7526.6467   -963.65635    84.816406 
   21900    2413.6783   -105.49101    2.1839469   -103.30707   -4050.3692    4.3880229    4.3880229    4.3880229   -4050.3692    82938.085   -53687.461   -41401.732   -13534.995    -7256.515   -5579.1772    84.490264 
   22000    2318.5642   -105.41243    2.0978856   -103.31455    1865.8043     4.394147     4.394147     4.394147    1865.8043    95410.021   -69983.127   -19829.481   -276.10951   -551.57122    5977.1486    84.844512 
   22100    1299.9283   -104.52172    1.1762024   -103.34552   -28117.374    4.4127641    4.4127641    4.4127641   -28117.374   -4332.5796   -34507.746   -45511.796    10667.591   -10010.341    2780.3241    85.927493 
   22200    2184.0015   -105.29428    1.9761304   -103.31815    4362.4041    4.4004911    4.4004911    4.4004911    4362.4041    92098.229   -37380.569   -41630.447   -4787.4734    8661.0206    13523.751    85.212524 
   22300    2379.7713   -105.45867    2.1532671    -103.3054   -16617.503    4.3821886    4.3821886    4.3821886   -16617.503    22069.025   -56609.423   -15312.112    3776.1928     7926.763    10682.884    84.153693 
   22400    1717.9054   -104.86475    1.5543969   -103.31036    36990.009    4.3760398    4.3760398    4.3760398    36990.009    127419.04   -799.29386   -15649.722     -6361.74    13771.584   -12742.753    83.799956 
   22500    2057.3693   -105.19067    1.8615509   -103.32912   -10530.279    4.3990694    4.3990694    4.3990694   -10530.279    77821.049    -64359.18   -45052.706   -10694.901     14624.36    -4647.261    85.129962 
   22600    1690.3574    -104.8454    1.5294709   -103.31593   -3397.2418    4.4070233    4.4070233    4.4070233   -3397.2418    52482.976   -30956.606   -31718.095   -9590.1185    16076.792   -903.81878    85.592562 
   22700    2619.0307   -105.65695     2.369754   -103.28719   -44731.426    4.4089718    4.4089718    4.4089718   -44731.426   -82387.672    1632.0892   -53438.694    -12407.49   -13449.501    3875.9898    85.706145 
   22800    1324.3921   -104.47898    1.1983378   -103.28064    3216.2952    4.3956427    4.3956427    4.3956427    3216.2952    115166.55   -38933.471   -66584.194   -10028.991    43811.909    4193.8099    84.931178 
   22900    2041.2536   -105.12315    1.8469692   -103.27618     38994.12    4.3804913    4.3804913    4.3804913     38994.12    159709.39    -61014.57    18287.538    1588.3591   -4872.3668    6823.0956    84.055949 
   23000    2583.0043   -105.63616    2.3371566   -103.29901   -26336.748     4.390485     4.390485     4.390485   -26336.748   -40651.268   -3329.5758   -35029.399     2517.873    17272.494    4793.1725    84.632561 
   23100    859.97426   -104.08324   0.77812279   -103.30512     28592.53    4.4025144    4.4025144    4.4025144     28592.53    170799.41   -64623.633   -20398.193   -26100.339    12574.771   -9595.8542    85.330119 
   23200    2727.9001   -105.76402    2.4682613   -103.29576   -14134.406    4.4019487    4.4019487    4.4019487   -14134.406    81758.047   -72446.832   -51714.434    1853.2107    4686.9697    -6151.293     85.29723 
   23300    2123.4967   -105.24076    1.9213845   -103.31938   -41157.916    4.4012144    4.4012144    4.4012144   -41157.916   -42005.405     -52653.9   -28814.442    5365.4523    23024.433   -5492.0499    85.254552 
   23400    1776.2955   -104.93139    1.6072295   -103.32416    11576.328    4.4018255    4.4018255    4.4018255    11576.328    109227.39   -69272.069   -5226.3348    29998.436   -7453.7533    5850.5058    85.290067 
   23500    1575.3697   -104.75407    1.4254276   -103.32864    15148.955    4.4004926    4.4004926    4.4004926    15148.955    127724.57   -73502.031   -8775.6697   -16807.381    87.604949   -9158.8068    85.212616 
   23600    1666.7887   -104.83406    1.5081454   -103.32591    2796.6789    4.3929061    4.3929061    4.3929061    2796.6789    56595.392   -72190.886    23985.531    597.15426    3159.0963   -8043.9229    84.772652 
   23700    2263.5881   -105.36325    2.0481421   -103.31511    2600.9618    4.3807265    4.3807265    4.3807265    2600.9618     67625.12   -11347.887   -48474.348    6720.9055   -4314.1979   -19188.123    84.069489 
   23800    1680.1809   -104.85833     1.520263   -103.33807    4444.1716    4.3874292    4.3874292    4.3874292    4444.1716    35064.889   -44314.753    22582.379   -1669.6406    13242.371    2578.6199    84.455971 
   23900    2029.0811    -105.1724    1.8359553   -103.33644   -9087.0012    4.4002125    4.4002125    4.4002125   -9087.0012    57347.323   -76975.912   -7632.4142   -4863.9546   -5274.8142   -6439.2991    85.196344 
   24000    2837.6559   -105.90052    2.5675707   -103.33295   -56709.965    4.4088995    4.4088995    4.4088995   -56709.965   -59787.123   -71537.654   -38805.118    12069.945    24085.315    19930.404    85.701929 
   24100    1224.1841   -104.41252    1.1076675   -103.30486     17813.05     4.406741     4.406741     4.406741     17813.05    114106.02   -79644.679    18977.809    3247.8323   -17644.701   -4125.4769    85.576118 
   24200    3128.2292    -106.1134    2.8304875   -103.28292   -38993.263    4.3981829    4.3981829    4.3981829   -38993.263   -10637.464   -74172.968   -32169.358    6863.8683    12040.124   -1024.9531    85.078508 
   24300    1663.0029   -104.79978      1.50472   -103.29506    26194.376    4.3829821    4.3829821    4.3829821    26194.376    155868.25   -54021.931   -23263.193    1807.3499    6245.3576   -33542.689    84.199417 
   24400    1915.0758   -105.04615    1.7328008   -103.31335   -8344.4267    4.3891256    4.3891256    4.3891256   -8344.4267    330.49651   -35503.983    10140.206   -8011.6609    5610.6108   -189.20622    84.553976 
   24500    2242.9969   -105.35486    2.0295107   -103.32534   -37865.083    4.4104556    4.4104556    4.4104556   -37865.083   -39954.801    -61062.11   -12578.339    12108.529    3121.4922   -8567.6462    85.792708 
   24600     1616.462    -104.7499    1.4626088   -103.28729   -2547.7723    4.4127572    4.4127572    4.4127572   -2547.7723    36525.253   -66745.219    22576.649    23275.115    8526.9339    13928.801    85.927091 
   24700    1114.3392   -104.25355    1.0082775   -103.24527     16243.98    4.3877326    4.3877326    4.3877326     16243.98    4015.7925   -5116.3629     49832.51    22477.135   -14637.387   -31212.641    84.473494 
   24800    2214.2702   -105.26482    2.0035182    -103.2613    28570.228    4.3679444    4.3679444    4.3679444    28570.228    42970.764    30517.041    12222.878   -3067.9156    35194.251     15401.76    83.335744 
   24900    2424.4162   -105.52341    2.1936627   -103.32975   -18262.127    4.3834336    4.3834336    4.3834336   -18262.127    1321.5734    -808.6479   -55299.306   -8748.0489   -23225.879   -20453.773    84.225439 
   25000    1349.0656   -104.54784    1.2206629   -103.32717    9671.3051     4.403707     4.403707     4.403707    9671.3051    72580.076   -9585.8003   -33980.361    16051.899    2398.5241   -11538.676    85.399486 
   25100    2221.8443   -105.28726    2.0103714   -103.27688   -8034.1746    4.4042771    4.4042771    4.4042771   -8034.1746     5912.072   -1932.8368   -28081.759   -15809.527   -1984.4221   -19527.366    85.432656 
   25200    2268.4201   -105.31627    2.0525141   -103.26375   -357.25598     4.390527     4.390527     4.390527   -357.25598    13919.601    55786.597   -70777.966   -210.39314   -32750.935   -29734.507    84.634991 
   25300    2209.4003   -105.27001    1.9991118   -103.27089    -26986.42    4.3815387    4.3815387    4.3815387    -26986.42    19411.285   -61939.081   -38431.464    -13859.21    19164.345   -1005.2764    84.116259 
   25400    1535.8909   -104.66455    1.3897063   -103.27485    18794.829    4.3646627    4.3646627    4.3646627    18794.829    18456.211     69861.58   -31933.306    9025.6853   -7340.5598   -1796.0869    83.148051 
   25500    2518.0603   -105.56597    2.2783939   -103.28757    17765.748    4.3736571    4.3736571    4.3736571    17765.748   -21891.987    67652.784    7536.4466   -6122.3775    944.73971   -11132.189    83.663147 
   25600    2022.5038   -105.11966    1.8300039   -103.28966   -45487.729    4.3820793    4.3820793    4.3820793   -45487.729   -8982.4474   -73730.434   -53750.306   -19837.177   -28148.237   -10853.167    84.147402 
   25700    1446.1396   -104.59056    1.3084975   -103.28206    30704.792     4.378064     4.378064     4.378064    30704.792   -31065.211    129885.79   -6706.2068   -3215.5792   -4497.1084   -1526.7078    83.916298 
   25800    2309.1285   -105.37368     2.089348   -103.28433   -20440.112    4.3904847    4.3904847    4.3904847   -20440.112   -17477.294   -17425.634   -26417.409    7310.9804   -7186.5311   -11175.879    84.632548 
   25900    2569.0506   -105.58667    2.3245309   -103.26214   -16744.188    4.3868456    4.3868456    4.3868456   -16744.188   -45114.914     25661.46   -30779.108    1606.8502   -7023.5309    17936.731    84.422274 
   26000    1393.4474   -104.52065    1.2608205   -103.25983    24554.116    4.3736279    4.3736279    4.3736279    24554.116   -9396.6776    68518.135    14540.889   -9050.7361   -8404.4675    11342.799    83.661472 
   26100    2023.4278   -105.10549      1.83084   -103.27465    18412.755    4.3616527    4.3616527    4.3616527    18412.755    83270.708    30248.134   -58280.579   -20644.298   -10266.773   -7347.0698    82.976144 
   26200    2027.9968   -105.15778    1.8349741    -103.3228    55220.818     4.370537     4.370537     4.370537    55220.818    110491.86    19764.844    35405.752    7512.3416    6639.9287    11822.975    83.484224 
   26300    1766.1162   -104.90917    1.5980191   -103.31115   -30526.774    4.3955267    4.3955267    4.3955267   -30526.774   -58213.407   -20007.445   -13359.471    11623.611   -9495.6014    24411.322    84.924458 
   26400    1134.2415   -104.31215    1.0262856   -103.28586   -38972.492    4.3964637    4.3964637    4.3964637   -38972.492   -64182.488   -34929.127   -17805.859   -10082.631    9522.8793    26680.377    84.978777 
   26500    2430.5993   -105.45487    2.1992573   -103.25561    23030.878    4.3728373    4.3728373    4.3728373    23030.878    107321.93    -10866.79   -27362.506    6298.7869    15936.463   -779.63552    83.616109 
   26600    2065.5585   -105.18589    1.8689607   -103.31693    7315.0311    4.3737593    4.3737593    4.3737593    7315.0311    131292.77   -55907.343   -53440.333    -16027.59    1918.1707   -6923.6615     83.66901 
   26700    1550.8614   -104.75389     1.403252   -103.35063    -13883.18    4.3868475    4.3868475    4.3868475    -13883.18   -46183.561   -988.41888    5522.4404   -13234.563    11864.371    8248.3202    84.422384 
   26800    2386.2847   -105.47601    2.1591605   -103.31685   -1194.3347    4.3896841    4.3896841    4.3896841   -1194.3347   -2907.4978    44006.389   -44681.895    17233.693     4514.187    13065.343    84.586257 
   26900    2126.9451   -105.22309    1.9245046   -103.29859   -6896.2783     4.389455     4.389455     4.389455   -6896.2783    42173.459   -13069.152   -49793.142   -22562.177    20571.425   -6564.6338    84.573015 
   27000    2027.5057   -105.12125    1.8345298   -103.28672   -620.24094    4.3837909    4.3837909    4.3837909   -620.24094    2198.8334    11874.262   -15933.818    15643.417   -7905.9161    -6672.628    84.246041 
   27100    1846.4098   -104.96525    1.6706704   -103.29458    23309.798    4.3817619    4.3817619    4.3817619    23309.798    67223.007   -961.68197      3668.07   -11753.811   -22407.473    3141.5967    84.129117 
   27200    2779.9686   -105.83674     2.515374   -103.32137   -24518.703    4.3798854    4.3798854    4.3798854   -24518.703    17579.613   -43379.312    -47756.41   -4126.0773    25604.376   -88.072065    84.021075 
   27300    1400.7388   -104.61724    1.2674179   -103.34982   -18168.709    4.3851605    4.3851605    4.3851605   -18168.709   -72389.579    10786.902    7096.5505    7170.8087   -2356.9514    3606.8705    84.325024 
   27400    1759.9062   -104.91827    1.5924002   -103.32587   -9622.0164    4.3870457    4.3870457    4.3870457   -9622.0164     4843.538   -15993.332   -17716.255   -21631.774     20280.77    1178.3265    84.433829 
   27500    2464.9618   -105.53091    2.2303492   -103.30056    11563.407     4.393401     4.393401     4.393401    11563.407    16140.581    9565.6606    8983.9807   -8351.9903    12373.337    21760.441    84.801302 
   27600    1409.1125   -104.54001    1.2749946   -103.26502     23064.45    4.3866903    4.3866903    4.3866903     23064.45    56465.603    32382.149   -19654.401   -7253.4069    18588.101   -2914.1176    84.413309 
   27700    2222.2516   -105.27696      2.01074   -103.26622   -21409.512    4.3936298    4.3936298    4.3936298   -21409.512   -61344.601   -13153.554    10269.619    11560.644   -7637.4965    902.40941    84.814553 
   27800    2275.5839   -105.31516    2.0589962   -103.25616    9281.3906    4.4008982    4.4008982    4.4008982    9281.3906    99981.759   -55778.824   -16358.764    8394.6897    6693.2224   -10086.278    85.236176 
   27900    1990.0987   -105.04216    1.8006831   -103.24148   -31275.387    4.3994806    4.3994806    4.3994806   -31275.387   -49516.576   -4757.9184   -39551.666   -4612.5718    8580.9173    213.16369    85.153836 
   28000    1886.5812   -104.95592    1.7070183    -103.2489    25250.824    4.3914657    4.3914657    4.3914657    25250.824    98707.581   -26004.338    3049.2284    18749.276   -19626.975   -4121.6376    84.689289 
   28100    2489.5312   -105.51803    2.2525802   -103.26545   -26943.302    4.3851698    4.3851698    4.3851698   -26943.302    -55150.12    -46473.76    20793.972   -2291.4432    9116.8651    2493.3113     84.32556 
   28200    1493.7423   -104.63405    1.3515694   -103.28248    18825.864    4.3844681    4.3844681    4.3844681    18825.864   -9363.4103     8731.898    57109.103   -16729.119      12185.8    14847.738    84.285091 
   28300    1626.5702   -104.74833    1.4717549   -103.27657        28517    4.3899928    4.3899928    4.3899928        28517    30015.367    63497.358   -7961.7253    -43359.75    3812.8116    7682.5118    84.604101 
   28400    2124.2875   -105.18726       1.9221   -103.26516   -2561.7124    4.4011711    4.4011711    4.4011711   -2561.7124    44015.415   -11776.474   -39924.078    29792.232    7427.8595    12002.591    85.252038 
   28500    1883.5118   -104.95638    1.7042411   -103.25214   -15900.722    4.3927137    4.3927137    4.3927137   -15900.722   -75119.826    47487.348   -20069.688   -9857.2207    6306.1137   -8113.9903    84.761513 
   28600    2650.5654   -105.69546    2.3982873   -103.29717   -31510.175    4.3935765    4.3935765    4.3935765   -31510.175   -27171.949   -22686.385   -44672.191    568.37479     12825.66   -7425.2107     84.81147 
   28700    1690.0571      -104.84    1.5291992    -103.3108    11095.273    4.3976952    4.3976952    4.3976952    11095.273   -21353.469     61325.98   -6686.6908    11620.405    18549.806   -10243.208    85.050204 
   28800    1783.1227   -104.89609    1.6134069   -103.28269   -25165.276     4.390385     4.390385     4.390385   -25165.276   -86623.824    587.49245    10540.505     2201.686   -972.40116   -3831.8692    84.626782 
   28900    1858.5204   -104.95998    1.6816283   -103.27835    52974.166    4.3929305    4.3929305    4.3929305    52974.166     102875.5    84763.926   -28716.927    2542.1997   -1416.6837    16062.487    84.774062 
   29000    1446.3501   -104.62569     1.308688     -103.317    9402.1283    4.4105153    4.4105153    4.4105153    9402.1283    75005.157   -59150.227    12351.456   -35427.361    1451.1793   -3000.3154     85.79619 
   29100    2221.4632   -105.31068    2.0100266   -103.30065   -41643.613    4.4127587    4.4127587    4.4127587   -41643.613   -88149.333    1136.6197   -37918.126    2425.0978     9619.586    3549.4229    85.927177 
   29200    2579.8702   -105.62745    2.3343207   -103.29313    -22717.37    4.3824089    4.3824089    4.3824089    -22717.37    -31107.53   -31081.423   -5963.1577   -34639.908    2654.3016    3136.1165    84.166386 
   29300    1446.5331   -104.62125    1.3088536    -103.3124    28247.841    4.3624862    4.3624862    4.3624862    28247.841   -28328.347    41269.761    71802.108    9896.7438   -16274.564   -4155.1323    83.023724 
   29400    1973.6152   -105.13094    1.7857685   -103.34517   -10173.624    4.3715868    4.3715868    4.3715868   -10173.624    4738.9716   -40620.482    5360.6375   -29034.793    5809.2454    11369.984    83.544394 
   29500    2487.0557   -105.60549    2.2503403   -103.35515    1751.8983    4.4005542    4.4005542    4.4005542    1751.8983    13794.275   -20214.957    11676.377   -744.19922    5058.9245    -10940.87    85.216193 
   29600    1508.5604   -104.68613    1.3649771   -103.32116   -12820.041    4.4222056    4.4222056    4.4222056   -12820.041    51422.923    -29643.56   -60239.486   -7926.0113    19054.462    1359.7953    86.480218 
   29700    1850.3284   -104.94365     1.674216   -103.26943   -40373.907    4.4149753    4.4149753    4.4149753   -40373.907   -55696.462   -47992.843   -17432.415   -664.37708    23654.232    4198.5052    86.056732 
   29800    2992.0854   -105.93761    2.7073017   -103.23031   -4586.0831    4.3830115    4.3830115    4.3830115   -4586.0831    16744.673    5375.9083    -35878.83   -17109.958   -3671.2612   -4621.2222    84.201115 
   29900    1731.0321   -104.89232    1.5662742   -103.32604   -6756.2663      4.39457      4.39457      4.39457   -6756.2663   -59421.009    31500.843    7651.3675   -10200.154    3028.4715    9341.9183    84.869016 
   30000    2187.4533    -105.3277    1.9792537   -103.34845   -21166.071    4.4099364    4.4099364    4.4099364   -21166.071    43420.466   -37119.213   -69799.468   -10685.821    2743.0109   -5858.4408    85.762411 
   30100    1402.6348   -104.61696    1.2691335   -103.34783    11661.678    4.4203762    4.4203762    4.4203762    11661.678    93326.567   -10216.013    -48125.52   -9902.0518    16287.095   -2422.9364    86.372941 
   30200    2726.0053   -105.75898    2.4665469   -103.29243   -57802.547    4.4172354    4.4172354    4.4172354   -57802.547   -42198.627   -39519.159   -91689.855    24213.973    3193.0318     16448.59    86.188957 
   30300    1781.3619   -104.90024    1.6118137   -103.28843   -15092.421    4.3872119    4.3872119    4.3872119   -15092.421   -11687.921   -75179.286    41589.943   -8068.2824   -7422.5156    21472.973    84.443423 
   30400    2499.7575   -105.58505    2.2618331   -103.32322    15156.033    4.3764021    4.3764021    4.3764021    15156.033    42288.299    18902.768   -15722.967   -16585.137     11497.47      3405.91    83.820772 
   30500    1790.3001   -105.00699    1.6199011   -103.38709    12099.531    4.4112828    4.4112828    4.4112828    12099.531    83797.455   -6299.2767   -41199.585   -22504.348   -1805.8955    19636.291    85.840988 
   30600    1577.4712   -104.75305     1.427329   -103.32572   -19763.251     4.438925     4.438925     4.438925   -19763.251    -38845.61   -35329.621    14885.479   -9969.7514   -5647.9313    14575.654    87.464824 
   30700    2095.7142      -105.16    1.8962463   -103.26375   -7550.9748    4.4324609    4.4324609    4.4324609   -7550.9748   -65315.427    50681.839   -8019.3366   -2271.4936    13260.127   -21695.668    87.083274 
   30800    1953.6979    -105.0258    1.7677469   -103.25805    6370.8179    4.3986743    4.3986743    4.3986743    6370.8179    40168.615   -9208.1094   -11848.052   -34013.887   -203.56694    7243.1688    85.107024 
   30900    2550.8886   -105.59103    2.3080976   -103.28294    16836.371    4.3791455    4.3791455    4.3791455    16836.371     78703.82    10901.066   -39095.772    20555.547   -18272.247    8589.8777    83.978501 
   31000    2162.3478   -105.34463    1.9565377   -103.38809   -41538.639    4.4075712    4.4075712    4.4075712   -41538.639   -34647.319   -36680.653   -53287.945    2980.8671   -4559.5185    7377.3341    85.624493 
   31100    2134.1612   -105.30252    1.9310339   -103.37148   -22474.027    4.4187593    4.4187593    4.4187593   -22474.027     16601.01    -54888.55   -29134.541    -10101.76    15191.318   -740.53032     86.27819 
   31200    2238.9169   -105.36648    2.0258191   -103.34066    7571.6399    4.3897714    4.3897714    4.3897714    7571.6399    38303.027     1241.114   -16829.222   -2115.2779   -25051.094    24747.817    84.591305 
   31300    1697.1632   -104.87264    1.5356289   -103.33701    23723.495    4.3759785    4.3759785    4.3759785    23723.495    42133.178    42356.575   -13319.267    41613.184   -1194.3705    7341.7893    83.796434 
   31400    2124.0385   -105.29707    1.9218747    -103.3752    9973.2036    4.3850868    4.3850868    4.3850868    9973.2036    81065.841   -4054.6073   -47091.623   -12425.298   -5386.9709     3476.846    84.320775 
   31500    2253.5618   -105.46019      2.03907   -103.42112   -29415.012      4.40093      4.40093      4.40093   -29415.012   -36376.509   -48423.047   -3445.4807   -5241.4627   -3126.3827    8597.5364    85.238029 
   31600    2640.8996   -105.78655    2.3895415   -103.39701   -30762.436    4.4147841    4.4147841    4.4147841   -30762.436    12470.644    -45678.04   -59079.913    15518.665   -6693.2955     10837.57    86.045549 
   31700    1774.2874   -104.95835    1.6054125   -103.35294   -6362.6201     4.412313     4.412313     4.412313   -6362.6201    49263.233   -54466.708   -13884.386    19636.369   -15533.719    8697.6378    85.901145 
   31800    1896.3159   -105.04849    1.7158264   -103.33267    11536.917    4.3985489    4.3985489    4.3985489    11536.917    14804.342    8165.6181    11640.792     -6089.86    2982.3292    2281.7716    85.099751 
   31900    2216.3282   -105.34655    2.0053803   -103.34117     7812.156    4.3906649    4.3906649    4.3906649     7812.156    59524.133   -21629.288   -14458.376   -12989.564    3407.1023    17026.389    84.642964 
   32000    1098.7804   -104.35826   0.99419957   -103.36406   -5704.3177    4.3953238    4.3953238    4.3953238   -5704.3177     71448.86   -74151.496   -14410.317    40252.623   -20679.427    5200.3144    84.912694 
   32100    2327.4927   -105.44737    2.1059643   -103.34141   -26894.001    4.3949247    4.3949247    4.3949247   -26894.001   -31635.513   -12476.763   -36569.728   -22118.885    1845.9206    26755.796    84.889568 
   32200    2532.8618   -105.60878    2.2917866   -103.31699   -32932.292     4.394341     4.394341     4.394341   -32932.292   -44662.837   -31566.186   -22567.853    15233.244   -15399.786    6390.3937    84.855751 
   32300    1869.0746    -104.9911     1.691178   -103.29992   -5924.4653    4.3966084    4.3966084    4.3966084   -5924.4653   -23679.227   -44832.541    50738.372   -3781.2928   -3863.3485   -12011.668    84.987166 
   32400    2062.0105   -105.13848    1.8657504   -103.27273    9564.0629     4.393307     4.393307     4.393307    9564.0629    69285.374   -20180.581   -20412.604    15095.834   -10165.069   -2836.9067    84.795861 
   32500    2060.3164   -105.13805    1.8642176   -103.27384   -480.41882    4.3966098    4.3966098    4.3966098   -480.41882   -6909.8499   -37578.036     43046.63   -5744.8589   -17210.441   -1722.1546    84.987248 
   32600    2339.9721   -105.37723     2.117256   -103.25997   -13921.917    4.4005546    4.4005546    4.4005546   -13921.917    54315.465   -60279.674   -35801.542    7186.3237   -10275.544   -9629.5209    85.216213 
   32700    1382.2791   -104.52539    1.2507152   -103.27468   -27713.028    4.4052245    4.4052245    4.4052245   -27713.028    -73388.28   -40439.259    30688.454    33633.718   -8200.1691    -17737.84    85.487799 
   32800    2262.3321   -105.28908    2.0470056   -103.24207   -558.17558    4.3893199    4.3893199    4.3893199   -558.17558    54073.521   -21279.726   -34468.321   -4114.1302   -8364.4044   -152.47418    84.565205 
   32900    2412.7135   -105.42262    2.1830739   -103.23954   -22561.765    4.3794611    4.3794611    4.3794611   -22561.765   -45760.397    10234.093   -32158.992    18918.681    -15850.49   -9305.2415    83.996663 
   33000    1584.8725   -104.72139     1.434026   -103.28737    11321.375    4.3852463    4.3852463    4.3852463    11321.375    91348.427   -4681.9727   -52702.328   -15725.298   -14271.948    10987.464    84.329974 
   33100    2604.0994    -105.6558    2.3562438   -103.29956   -30812.099    4.3942355    4.3942355    4.3942355   -30812.099   -8539.6844    -43739.18   -40157.432    16069.029    6506.9244   -1748.4326    84.849634 
   33200    1728.4291   -104.83732     1.563919    -103.2734    3301.8445     4.392053     4.392053     4.392053    3301.8445    35557.198    39689.792   -65341.456   -8577.5767   -9149.0178   -13353.228    84.723274 
   33300    1855.3681   -104.93542    1.6787761   -103.25665   -319.99971    4.3937619    4.3937619    4.3937619   -319.99971   -59036.031     19520.21    38555.822     6622.635   -2620.0863    6863.0672    84.822207 
   33400    1988.1004   -105.06149    1.7988751   -103.26262   -8028.9874    4.3879932    4.3879932    4.3879932   -8028.9874    3473.3524   -30882.313    3321.9983    22276.079   -8657.8139    9231.6112    84.488546 
   33500     1963.439   -105.02997    1.7765609   -103.25341    42588.272    4.3631439    4.3631439    4.3631439    42588.272    64919.114    27485.436    35360.266   -33700.087    22219.411   -7229.7399     83.06128 
   33600     1501.845   -104.65518    1.3589009   -103.29628    16915.694    4.3831728    4.3831728    4.3831728    16915.694   -40353.877    8362.8938    82738.066    3579.7449     3613.256     6137.102    84.210411 
   33700    2577.7426    -105.6119    2.3323957    -103.2795   -51521.156    4.4011416    4.4011416    4.4011416   -51521.156   -15314.286   -57408.931    -81840.25    -21814.52    8318.4835    10940.828    85.250319 
   33800    1990.4158   -105.06435    1.8009701   -103.26338   -32034.065    4.3889983    4.3889983    4.3889983   -32034.065   -72292.149   -43943.798    20133.752   -6836.2463    5506.2882    216.05539    84.546615 
   33900    2033.5416   -105.09608    1.8399912   -103.25609    7937.1824    4.3719404    4.3719404    4.3719404    7937.1824    16811.014   -42220.095    49220.628    3856.4746    -41733.06   -7204.0924    83.564667 
   34000    2342.3218   -105.43012     2.119382   -103.31073    21078.164    4.3765836    4.3765836    4.3765836    21078.164    23189.751   -13398.995    53443.738    20533.063    9390.5737   -1114.8799    83.831201 
   34100    1564.9543   -104.75817    1.4160035   -103.34216    9200.2114    4.4013029    4.4013029    4.4013029    9200.2114      21812.2    622.77332    5165.6613    11257.261   -5324.4161   -3012.3301    85.259695 
   34200    1751.6546   -104.87398    1.5849339   -103.28905    8573.8678     4.402026     4.402026     4.402026    8573.8678     74586.74   -16355.706   -32509.431    10957.831   -9784.9729   -5194.2116    85.301727 
   34300    2568.0381   -105.57973    2.3236148   -103.25611   -11215.792    4.3892415    4.3892415    4.3892415   -11215.792    89044.504   -77612.515   -45079.365    15376.005   -16018.284   -1349.2806    84.560676 
   34400    2016.2742   -105.09588    1.8243672   -103.27152   -1028.5402    4.3837703    4.3837703    4.3837703   -1028.5402    1933.8891   -40679.695    35660.186   -6764.6167   -28939.637   -8791.7663    84.244853 
   34500    991.15123    -104.2028   0.89681446   -103.30598   -16585.952    4.3963451    4.3963451    4.3963451   -16585.952   -33476.161   -38249.031    21967.335    4056.6876    12312.881    4753.2653      84.9719 
   34600    3050.5401   -106.04005    2.7601928   -103.27986   -43302.729    4.3944614    4.3944614    4.3944614   -43302.729    6577.3621   -74339.889    -62145.66   -19327.788    5064.9961    -1664.751    84.862724 
   34700    2039.9964   -105.15047    1.8458316   -103.30464   -22373.779    4.3872508    4.3872508    4.3872508   -22373.779    1715.1594   -60456.732   -8379.7638    25617.895    4873.9282    11902.176    84.445669 
   34800    1256.1465   -104.45287    1.1365877   -103.31628    6342.9697    4.3772859    4.3772859    4.3772859    6342.9697   -6906.7103   -49349.866    75285.485   -14818.806    22857.826    5521.6593    83.871562 
   34900    2579.6163   -105.63373    2.3340911   -103.29964     26026.88     4.366289     4.366289     4.366289     26026.88    74772.556    -36796.73    40104.814    24888.185   -2279.5173    8516.3039    83.241028 
   35000    1879.7946   -105.00696    1.7008776   -103.30608   -47275.046    4.3838171    4.3838171    4.3838171   -47275.046   -61341.337   -42819.195   -37664.607   -30159.028    7447.2786    -1950.016     84.24755 
   35100    1467.3261    -104.6166    1.3276675   -103.28893   -22290.396    4.3901734    4.3901734    4.3901734   -22290.396   -52626.502   -51199.476    36954.788    3647.2868    -6848.913   -412.50028    84.614546 
   35200    2872.0063    -105.8585    2.5986516   -103.25985    13551.809    4.3672803    4.3672803    4.3672803    13551.809    26943.635   -6983.4403    20695.231    -5413.949    27620.503    8698.8798    83.297737 
   35300    1580.7478   -104.73921    1.4302939   -103.30892   -19761.158    4.3775555    4.3775555    4.3775555   -19761.158   -14127.808   -27313.294   -17842.371   -8791.6872    7081.6725   -12531.538    83.887063 
   35400    1756.7494   -104.88827    1.5895438   -103.29872    18331.843    4.3863489    4.3863489    4.3863489    18331.843     63054.67   -34581.232     26522.09    5830.2295   -13278.126   -4181.3807    84.393601 
   35500    2787.8121   -105.80393    2.5224709   -103.28145   -24874.331    4.3915097    4.3915097    4.3915097   -24874.331    28193.186   -49821.253   -52994.926   -11197.394    25724.449     4127.418    84.691835 
   35600     1678.066    -104.8004    1.5183494   -103.28205     12906.01    4.3869832    4.3869832    4.3869832     12906.01    124062.72   -64675.238    -20669.45    28566.932   -1432.1255    17874.722    84.430219 
   35700    1930.4148   -105.03264    1.7466799   -103.28596   -17429.071    4.3893221    4.3893221    4.3893221   -17429.071    2384.0611    -37899.78   -16771.494    -12114.87    2190.8571    7643.0326    84.565332 
   35800    2220.5505   -105.30401    2.0092007   -103.29481    21913.759    4.3941233    4.3941233    4.3941233    21913.759    29160.867    1209.3107    35371.099    18010.667    17832.205    4536.0889     84.84314 
   35900    1432.7503    -104.5876    1.2963826   -103.29122    20014.469    4.4097529    4.4097529    4.4097529    20014.469    63524.958    20122.797   -23604.348    4026.0505    26997.182    3840.2496    85.751705 
   36000    2063.5503   -105.11542    1.8671437   -103.24827   -25715.893    4.4000342    4.4000342    4.4000342   -25715.893   -4103.1478   -58016.008   -15028.523    196.68225    13783.952   -8160.9436    85.185985 
   36100    2603.7696   -105.59078    2.3559454   -103.23483    27265.703    4.3753573    4.3753573    4.3753573    27265.703    53780.684    49123.405    -21106.98   -10950.132    3607.3595   -17260.088    83.760755 
   36200    2157.2383   -105.23631    1.9519145    -103.2844   -35891.172    4.3765792    4.3765792    4.3765792   -35891.172    -50988.53   -19972.142   -36712.846   -628.13473    34044.441    8664.4932    83.830949 
   36300    1665.4674   -104.80444    1.5069499   -103.29749    34917.358    4.3868291    4.3868291    4.3868291    34917.358     28971.26    43225.255    32555.561    1122.9727   -11911.599   -4576.3967     84.42132 
   36400    2234.2731   -105.30681    2.0216172   -103.28519   -26207.572    4.3928093    4.3928093    4.3928093   -26207.572    -5982.958   -37880.168   -34759.589   -12660.881    8135.9808   -11716.845    84.767046 
   36500    1619.4646   -104.72245    1.4653256   -103.25713    21380.104     4.379156     4.379156     4.379156    21380.104    77146.951   -10890.992    -2115.647    1342.0275     14923.61    20168.182    83.979106 
   36600    2015.3846   -105.10424    1.8235623   -103.28068    21611.604     4.374357     4.374357     4.374357    21611.604    -5082.451    13504.467    56412.796   -18090.923     15234.19   -9995.3659    83.703317 
   36700    2006.0774   -105.13231     1.815141   -103.31717    -2790.588    4.3974928    4.3974928    4.3974928    -2790.588     21470.44   -46907.543    17065.339    14682.638    1452.4181    8144.9904    85.038467 
   36800    2060.9459    -105.1423    1.8647871   -103.27751   -27936.753     4.407183     4.407183     4.407183   -27936.753   -31167.996    -55705.67    3063.4077   -9547.6514    950.00906   -14106.215    85.601871 
   36900    1556.5144     -104.657    1.4083669   -103.24864    8935.1214    4.3828296    4.3828296    4.3828296    8935.1214   -27005.138    3970.5256    49839.976    -554.2033    14038.352   -11041.147    84.190631 
   37000    2834.4082   -105.80831    2.5646321   -103.24368   -4657.1564    4.3673349    4.3673349    4.3673349   -4657.1564    -3116.786   -43961.407    33106.724   -4781.2699    21206.879    1878.3749    83.300859 
   37100    1488.8878   -104.65227    1.3471769   -103.30509   -3216.3741    4.3787653    4.3787653    4.3787653   -3216.3741   -7433.8375   -16772.541    14557.256    1549.7057   -1829.4564    4397.8336    83.956631 
   37200    2713.7526   -105.73514    2.4554604   -103.27968   -15170.432    4.3952599    4.3952599    4.3952599   -15170.432   -7763.6893    -34558.58   -3189.0272   -14290.308    266.12712    3538.5192     84.90899 
   37300    1314.8999   -104.45535    1.1897491    -103.2656    8720.4626    4.3941927    4.3941927    4.3941927    8720.4626    72386.678   -43424.177   -2801.1133   -24282.208   -3667.1192    -5544.309    84.847158 
   37400    2336.8139   -105.36119    2.1143984   -103.24679     2974.558    4.3872535    4.3872535    4.3872535     2974.558    -24575.06   -26340.325     59839.06    14344.496   -21848.703    1309.9181    84.445826 
   37500    2215.0877   -105.24203    2.0042579   -103.23777    22229.697    4.3713626    4.3713626    4.3713626    22229.697    111378.88   -33897.758   -10792.031     -12561.4   -13519.204   -5543.1244    83.531541 
   37600    1225.8347    -104.3818     1.109161   -103.27264    57030.459      4.37497      4.37497      4.37497    57030.459    24700.386   -1728.2113     148119.2   -2594.2373    26546.657   -8694.4824    83.738514 
   37700    2432.2027    -105.4839    2.2007081   -103.28319   -35950.944    4.3970147    4.3970147    4.3970147   -35950.944   -36681.447   -41172.799   -29998.585   -33236.292   -10502.678    1624.4086    85.010731 
   37800    2085.1575   -105.15334    1.8866943   -103.26664    15074.665    4.3966379    4.3966379    4.3966379    15074.665   -14926.811   -42332.986    102483.79    11893.442   -101.58601    624.16916    84.988881 
   37900    1626.0228    -104.7412    1.4712596   -103.26994    10348.235    4.4037549    4.4037549    4.4037549    10348.235    77014.865   -54588.735    8618.5743   -5888.9646    20472.402    -6155.362    85.402271 
   38000    1413.7121   -104.52388    1.2791564   -103.24473    58040.103    4.4071832    4.4071832    4.4071832    58040.103    120759.24   -24499.854    77860.921   -770.94171    2287.4734   -9812.7146    85.601879 
   38100    2412.3802   -105.42912    2.1827723   -103.24634     -21069.1    4.4158534    4.4158534    4.4158534     -21069.1   -4695.6939   -54794.588   -3717.0181   -8253.9349   -21581.286   -15940.409    86.108087 
   38200    1666.4084   -104.74439    1.5078013   -103.23659    23415.411    4.4093851    4.4093851    4.4093851    23415.411    113263.98    -66819.24    23801.493    -17421.77   -25990.542    6588.3556    85.730251 
   38300    1666.9812   -104.76511    1.5083196   -103.25679    21412.368    4.3919787    4.3919787    4.3919787    21412.368    73329.533     -39221.7    30129.271   -8749.4479    7760.2455    1977.4207    84.718969 
   38400    2004.3609   -105.11127    1.8135879   -103.29768    21373.598    4.3898819    4.3898819    4.3898819    21373.598    73474.762   -37542.914    28188.948    -22623.89   -37398.385   -3239.8542    84.597689 
   38500    2114.5757   -105.25715    1.9133125   -103.34384   -24187.245    4.4095414    4.4095414    4.4095414   -24187.245   -17206.902   -46234.186   -9120.6463    11934.874    1289.7931     7898.436    85.739366 
   38600    2134.2739   -105.26082    1.9311359   -103.32968   -30222.635    4.4127489    4.4127489    4.4127489   -30222.635    -27563.91   -56051.801   -7052.1928   -23927.642    -3231.518   -1321.6607    85.926604 
   38700    2447.9422   -105.51435    2.2149496    -103.2994    2735.1711    4.3932758    4.3932758    4.3932758    2735.1711    66070.549   -28622.096    -29242.94    31976.167   -4663.5695   -22725.696    84.794056 
   38800    1382.8785    -104.5621    1.2512576   -103.31084    29770.101    4.3945624    4.3945624    4.3945624    29770.101    9794.7418   -16588.118    96103.681   -8058.1261    11559.049    15579.808    84.868572 
   38900     2534.392   -105.59531    2.2931711   -103.30214   -29985.407    4.4159961    4.4159961    4.4159961   -29985.407   -40366.214   -81342.527    31752.522    4299.4487    16350.175   -22508.616    86.116436 
   39000    2073.2622   -105.11728    1.8759312   -103.24134   -42375.572    4.4310282    4.4310282    4.4310282   -42375.572   -81656.694   -31421.402   -14048.619    12624.407   -20407.752   -15793.327    86.998857 
   39100    1205.4392   -104.28113    1.0907067   -103.19042     2654.631    4.4160738    4.4160738    4.4160738     2654.631    24711.477   -41486.764     24739.18   -4369.9586   -22475.364   -30614.346    86.120984 
   39200    2898.9548   -105.80101    2.6230352   -103.17798   -19617.897    4.3908751    4.3908751    4.3908751   -19617.897   -22628.441   -55293.284    19068.032    5398.3224    3455.9745   -19313.934    84.655124 
   39300    1441.0437   -104.57814    1.3038866   -103.27425    51207.931    4.3888289    4.3888289    4.3888289    51207.931    37261.953   -22449.807    138811.65    9418.1161   -21015.369   -25241.866    84.536827 
   39400    2478.6265   -105.59579    2.2427133   -103.35308   -34188.272    4.4132618    4.4132618    4.4132618   -34188.272       -70848   -3794.2432   -27922.572    6145.1374    3424.7008   -13555.577    85.956571 
   39500    1343.3494   -104.54846    1.2154908   -103.33297   -11815.713    4.4346568    4.4346568    4.4346568   -11815.713    10242.733   -95682.208    49992.337   -8895.8217   -20166.745   -17691.662    87.212761 
   39600    1271.1257   -104.41487    1.1501413   -103.26473    32460.151    4.4242489    4.4242489    4.4242489    32460.151    18298.365   -59059.891    138141.98   -2245.3095    22035.105   -19931.468    86.600155 
   39700    2412.0993   -105.40754    2.1825181   -103.22502     386.1171    4.4124657    4.4124657    4.4124657     386.1171   -22599.866   -62001.517    85759.735   -5100.9672    2719.5788    -18301.99    85.910062 
   39800    2804.7021   -105.77427    2.5377534   -103.23651   -22140.714    4.4127147    4.4127147    4.4127147   -22140.714   -24527.907    -52131.04    10236.806   -2045.8725    8045.4163   -22625.349    85.924604 
   39900    2017.1259   -105.09859    1.8251379   -103.27345    3421.0164    4.4187131    4.4187131    4.4187131    3421.0164   -43788.773   -22377.402    76429.224    2243.5369    6603.0044   -17026.384    86.275487 
   40000    1751.0416   -104.86882    1.5843792   -103.28444   -4493.3818    4.4341454    4.4341454    4.4341454   -4493.3818   -29610.448    -64730.75    80861.053    9067.5799   -48238.012   -18953.507    87.182593 
   40100    1712.5884   -104.80596     1.549586   -103.25637   -17279.367    4.4350039    4.4350039    4.4350039   -17279.367    5987.9862    -4325.277   -53500.809    10863.087   -20456.443   -8836.7392    87.233244 
   40200    2740.0606   -105.70535    2.4792644   -103.22608    -10539.39    4.4210192    4.4210192    4.4210192    -10539.39    7859.8967   -44400.435    4922.3673    7784.9857    32363.549    26584.755    86.410636 
   40300    1506.4027   -104.64782    1.3630249    -103.2848    24065.735     4.416538     4.416538     4.416538    24065.735    128593.07   -72101.953    15706.083   -2494.8211   -3894.3373    20214.938    86.148144 
   40400    2338.7177   -105.42178    2.1161209   -103.30566    9456.4119    4.4216923    4.4216923    4.4216923    9456.4119    37021.494    -28126.08    19473.822     -7318.23    -6494.782     8110.975     86.45011 
   40500    1172.3141   -104.36299    1.0607344   -103.30226    22916.565    4.4406788    4.4406788    4.4406788    22916.565   -22067.234   -20687.172     111504.1    5183.3864   -16585.401   -5320.6227    87.568533 
   40600    2250.8994   -105.27955    2.0366611   -103.24289   -33371.238    4.4365275    4.4365275    4.4365275   -33371.238     -3208.92    -43134.17   -53770.625    11011.529     4219.346   -6945.4022    87.323178 
   40700    2752.2095   -105.72102     2.490257   -103.23076   -38839.728    4.4146287    4.4146287    4.4146287   -38839.728   -29955.573   -67511.745   -19051.866   -3943.2731    1754.1378    5432.1243     86.03646 
   40800    1496.6428   -104.62771    1.3541939   -103.27352    3998.7549    4.4038025    4.4038025    4.4038025    3998.7549    24707.503   -49826.065    37114.827   -8190.4225   -5085.7034    1145.0319    85.405037 
   40900    2509.0063   -105.56557    2.2702017   -103.29537   -13521.449    4.4038733    4.4038733    4.4038733   -13521.449   -45668.117   -66431.979    71535.748    2294.5803    12603.025    21434.972    85.409161 
   41000    2267.5225    -105.3681    2.0517021    -103.3164    -56354.69    4.4307384    4.4307384    4.4307384    -56354.69   -57147.762   -68010.425   -43905.883   -16546.961    788.11435   -27147.564    86.981788 
   41100    2334.0325   -105.37625    2.1118817   -103.26437   -29008.801    4.4279151    4.4279151    4.4279151   -29008.801   -44212.583   -19754.889   -23058.932    5949.3285    4425.2846     4968.401    86.815615 
   41200    1312.0421   -104.43506    1.1871633    -103.2479    56642.137     4.407893     4.407893     4.407893    56642.137    46299.901    76395.899    47230.611    397.52009    539.16098   -41227.558    85.643248 
   41300    2049.7064    -105.1204    1.8546175   -103.26578    13946.602    4.4114288    4.4114288    4.4114288    13946.602   -31851.442    99043.489   -25352.241   -12297.727    5458.1671    -19652.43    85.849513 
   41400    2442.3676   -105.48618    2.2099055   -103.27627   -31890.547    4.4273212    4.4273212    4.4273212   -31890.547   -53058.967   -40469.024   -2143.6489    -9622.831   -2113.9256    11060.176    86.780689 
   41500    1566.3047   -104.68898    1.4172254   -103.27175    1902.4522      4.43804      4.43804      4.43804    1902.4522   -68895.255    143737.07   -69134.458    7504.2763    10957.297      11774.8    87.412522 
   41600    2535.8005   -105.53567    2.2944456   -103.24122   -21486.138    4.4321488    4.4321488    4.4321488   -21486.138    21536.217   -35298.111   -50696.522    15846.921   -6926.3256   -14969.444    87.064881 
   41700    1707.0119   -104.78393    1.5445402   -103.23939   -9804.7058     4.426989     4.426989     4.426989   -9804.7058   -81991.418    55089.234   -2511.9327    10100.692    26111.834        12823    86.761155 
   41800    2388.1796   -105.42211    2.1608751   -103.26123   -27569.387     4.421723     4.421723     4.421723   -27569.387   -16867.098   -24309.087   -41531.977   -19260.135   -13272.935   -3455.9194    86.451909 
   41900    1423.7863   -104.57374    1.2882717   -103.28547    43616.753    4.4168155    4.4168155    4.4168155    43616.753   -39043.106    150562.32    19331.043   -10806.556   -166.90354    174.23647    86.164379 
   42000    1942.0283    -105.0632     1.757188   -103.30601    306.55482    4.4172251    4.4172251    4.4172251    306.55482   -56541.297    104840.71   -47379.747    5868.2313    835.82849    3783.5626    86.188353 
   42100    2786.5087   -105.85318    2.5212916   -103.33189   -47796.296    4.4167554    4.4167554    4.4167554   -47796.296    -58391.55    -47057.27   -37940.067   -6368.3198    3561.2518    12755.426    86.160865 
   42200    985.45911   -104.24283   0.89166411   -103.35117    70807.875    4.4074266    4.4074266    4.4074266    70807.875   -24928.028    156979.38    80372.275    22455.089   -19119.892   -23269.525    85.616064 
   42300    2747.0871     -105.831    2.4856221   -103.34538   -43019.675    4.4138002    4.4138002    4.4138002   -43019.675   -11555.179   -66599.509   -50904.337     1232.627    1450.6331    18635.992    85.988031 
   42400    1547.4103   -104.73171    1.4001294   -103.33158    32523.286    4.4186559    4.4186559    4.4186559    32523.286   -19851.986    104862.43    12559.415    31487.975    1063.2829   -9956.5227    86.272135 
   42500    2722.9788   -105.76989    2.4638084   -103.30608   -47494.812    4.4185096    4.4185096    4.4185096   -47494.812    12889.311   -64299.423   -91074.323    2142.4306    6786.9196    26102.797    86.263565 
   42600    1517.7432   -104.66983     1.373286   -103.29654     50844.86    4.4073388    4.4073388    4.4073388     50844.86    81710.531    106718.98   -35894.928    16341.638   -6216.2031    5978.1179    85.610946 
   42700    2156.5944   -105.27725     1.951332   -103.32592   -19007.866    4.4149394    4.4149394    4.4149394   -19007.866   -25638.861    31445.504   -62830.243    23915.481    6456.3505    8927.9747    86.054631 
   42800    3087.3098   -106.09858    2.7934627   -103.30512   -65420.971     4.424919     4.424919     4.424919   -65420.971   -33931.338   -60502.325   -101829.25    -15975.39   -4585.4511   -3993.0859    86.639506 
   42900    1593.6517   -104.74862    1.4419696   -103.30665   -12346.827    4.4229096    4.4229096    4.4229096   -12346.827   -3787.3561    37809.429   -71062.555    31215.937    8376.3746    4920.5828    86.521532 
   43000    2294.2392   -105.35385    2.0758759   -103.27797    2228.5751    4.4036106    4.4036106    4.4036106    2228.5751   -52722.511    90787.604   -31379.368    7849.7696     20902.17    2208.6573    85.393879 
   43100    1356.6999   -104.51566    1.2275706   -103.28809    51793.039    4.3863995    4.3863995    4.3863995    51793.039    14201.021    107021.83    34156.266   -6915.9522   -8554.9252    32382.837    84.396521 
   43200    2446.5139   -105.52992    2.2136572   -103.31626   -13717.577    4.3916464    4.3916464    4.3916464   -13717.577   -42574.797   -39437.409    40859.474    16303.316    17606.698   -8820.1457    84.699743 
   43300    2236.0392   -105.32451    2.0232153   -103.30129   -5731.0632    4.4107587    4.4107587    4.4107587   -5731.0632    3694.1882   -54559.693    33672.315   -19725.589   -13976.796   -5963.3414    85.810394 
   43400    1670.5652   -104.79964    1.5115625   -103.28808    2530.7933    4.4259783    4.4259783    4.4259783    2530.7933   -95639.545    26578.449    76653.476    16696.621    15374.066   -4738.3695    86.701743 
   43500    2013.2944   -105.03823    1.8216711   -103.21655   -16029.544    4.4285751    4.4285751    4.4285751   -16029.544   -59183.442   -7493.7348    18588.545   -10224.292    5793.2919   -17178.393    86.854443 
   43600    2432.5608   -105.37813    2.2010321    -103.1771   -67189.999    4.4172512    4.4172512    4.4172512   -67189.999   -55605.546   -82531.945   -63432.505    33924.546   -6636.6951   -2801.2705    86.189881 
   43700    2560.7286   -105.50599    2.3170011   -103.18899    7739.8501    4.4034758    4.4034758    4.4034758    7739.8501   -27977.491    40105.678    11091.364   -7843.6947   -27061.678    2539.9208    85.386037 
   43800    1087.8287   -104.22081   0.98429022   -103.23652    33584.185    4.3993438    4.3993438    4.3993438    33584.185    92928.785    43405.077   -35581.306    33898.503     11288.99    22116.131    85.145892 
   43900    2258.9197   -105.30888     2.043918   -103.26496    13754.259    4.4126194    4.4126194    4.4126194    13754.259    20608.979      69589.9   -48936.101    -19858.75   -17396.255    12967.625    85.919041 
   44000    2021.7372   -105.07933    1.8293103   -103.25002   -22515.836    4.4215769    4.4215769    4.4215769   -22515.836   -21983.019   -21373.225   -24191.264    -817.8621    -20176.05    15350.104    86.443344 
   44100     2473.861   -105.44694    2.2384014   -103.20854   -34902.185    4.4184732    4.4184732    4.4184732   -34902.185   -21287.664   -17527.701   -65891.191    1244.4474    -19933.01    2476.4931    86.261433 
   44200    1825.5436   -104.86251    1.6517902   -103.21072    33838.776    4.4101517    4.4101517    4.4101517    33838.776    30166.232   -37687.904       109038    13185.683   -18923.674   -20613.088    85.774971 
   44300    1840.5045   -104.89936    1.6653272   -103.23404    6221.0928    4.4084949    4.4084949    4.4084949    6221.0928    13768.508   -46045.282    50940.052   -7297.3541   -6438.8485    515.63862    85.678335 
   44400    1454.9796   -104.56171    1.3164961   -103.24521    31547.849    4.4095393    4.4095393    4.4095393    31547.849   -20589.082   -3516.1364    118748.77   -4995.6431    17750.893   -6273.5791    85.739245 
   44500    2381.0217   -105.40816    2.1543985   -103.25376    8117.1593    4.4170026    4.4170026    4.4170026    8117.1593    -20261.03    19562.071    25050.436     11113.17     13620.26    2088.3135     86.17533 
   44600    1985.0401    -105.0479     1.796106    -103.2518   -21038.205    4.4349233    4.4349233    4.4349233   -21038.205   -50960.485   -81633.268    69479.136    20120.857    18748.638    3788.5839    87.228488 
   44700     2370.641   -105.37402    2.1450058   -103.22902   -51657.905    4.4402318    4.4402318    4.4402318   -51657.905   -30841.351   -60568.236   -63564.128    9466.8647    4525.8508   -11315.403    87.542093 
   44800    1989.8131   -105.00174    1.8004247   -103.20131    7607.8876    4.4162725    4.4162725    4.4162725    7607.8876    40941.387   -79895.627    61777.903    6206.3877    5986.4118    -30734.42    86.132608 
   44900    2519.4129   -105.50626    2.2796177   -103.22664   -12190.178    4.3956634    4.3956634    4.3956634   -12190.178    23999.462   -42614.997   -17954.999    22376.107    13673.646    10408.627    84.932377 
   45000    2759.5627   -105.78875    2.4969103   -103.29184    -35905.94    4.4046377    4.4046377    4.4046377    -35905.94    18001.361   -59898.666   -65820.516    6401.0364    4876.0383    1776.8161    85.453641 
   45100    1445.3187   -104.60884    1.3077547   -103.30109    14294.139    4.4270918    4.4270918    4.4270918    14294.139    53305.714    21018.283   -31441.579    17265.464    14985.302   -3250.2686    86.767199 
   45200    2190.8354   -105.23548    1.9823139   -103.25316   -23662.722     4.437036     4.437036     4.437036   -23662.722   -48168.323   -65267.838    42447.996    2173.3586    4917.0905   -10180.711    87.353208 
   45300    1956.3247   -105.00255    1.7701237   -103.23243    3370.6797    4.4356038    4.4356038    4.4356038    3370.6797   -54000.491    21734.383    42378.147    10495.693   -8213.2677   -8830.3513    87.268647 
   45400    1744.5248    -104.7728    1.5784827   -103.19431    38664.461    4.4208955    4.4208955    4.4208955    38664.461    19990.938    929.04456    95073.402   -4010.5439   -1383.4675   -4763.6566    86.403384 
   45500    2081.2736   -105.09772    1.8831801   -103.21454    3599.7042    4.4213829    4.4213829    4.4213829    3599.7042       -18679    35037.048    -5558.936    24198.961    1582.2657    4791.8816    86.431963 
   45600    2142.7726   -105.17626    1.9388257   -103.23744     912.5105    4.4227743    4.4227743    4.4227743     912.5105    66275.512   -43720.577   -19817.404   -495.07491   -3779.9806    19565.142     86.51359 
   45700    1891.2219   -104.98673    1.7112173   -103.27552   -37979.229    4.4063365    4.4063365    4.4063365   -37979.229   -44898.183   -76599.548    7560.0445    38609.426    21637.183   -9777.5246    85.552556 
   45800    2596.2195   -105.64326     2.349114   -103.29415     19466.29    4.3913524    4.3913524    4.3913524     19466.29    89203.248    15140.796   -45945.173   -16396.582    -12403.65    7346.2428    84.682733 
   45900    2068.4121   -105.22131    1.8715427   -103.34977   -55639.896    4.4162184    4.4162184    4.4162184   -55639.896   -52639.539   -45887.025   -68393.123     39553.47     2777.674   -22675.433    86.129441 
   46000    1623.3125   -104.78301    1.4688073    -103.3142    1391.4786    4.4133736    4.4133736    4.4133736    1391.4786    122805.34   -43599.428   -75031.477    11337.986   -842.73587    576.83469      85.9631 
   46100    2205.0979   -105.28187    1.9952189   -103.28665    22780.573    4.3928215    4.3928215    4.3928215    22780.573    89131.526    16233.378   -37023.184    1150.5917    10349.304    5104.8334     84.76775 
   46200    2267.0666   -105.37189    2.0512895    -103.3206   -29057.368    4.3949284    4.3949284    4.3949284   -29057.368    46656.193   -65051.019   -68777.279    19488.256   -15222.781    12001.475    84.889778 
   46300    2672.5355   -105.77511    2.4181663   -103.35694   -27892.435    4.4125531    4.4125531    4.4125531   -27892.435    54097.137   -53380.095   -84394.347   -5837.5555   -11865.601   -1362.9714    85.915169 
   46400     1837.416   -105.00949    1.6625327   -103.34695   -9332.4011    4.4309635    4.4309635    4.4309635   -9332.4011    73036.652    -36373.98   -64659.875    24267.893    11357.326    7560.4814    86.995046 
   46500    1462.0714   -104.60034    1.3229129   -103.27743    32889.955    4.4308969    4.4308969    4.4308969    32889.955    134436.03   -25155.179   -10610.986   -7069.7119    -17704.68   -1966.1313    86.991122 
   46600    2089.6337   -105.13282    1.8907445   -103.24208   -5188.1639    4.4073947    4.4073947    4.4073947   -5188.1639   -31652.815   -53326.342    69414.666    3491.7498    9188.0104    18254.893    85.614205 
   46700    1830.5215   -104.90265    1.6562943   -103.24635    44291.955     4.396281     4.396281     4.396281    44291.955    118827.87   -23665.052    37713.045   -7405.9364    35084.822   -2205.1584    84.968184 
   46800    1526.2263   -104.66305    1.3809617   -103.28208   -13755.324    4.4097633    4.4097633    4.4097633   -13755.324    88874.013   -69562.822   -60577.164   -310.26338    11657.024    28698.151    85.752311 
   46900     2508.854   -105.56588    2.2700638   -103.29581   -35756.545     4.416043     4.416043     4.416043   -35756.545    7884.9656   -77785.226   -37369.375   -4569.2626    24693.726   -1744.2489    86.119178 
   47000    1486.9626   -104.64438     1.345435   -103.29895    24093.949    4.4077685    4.4077685    4.4077685    24093.949    113543.85    3587.1653    -44849.17   -15037.618   -8657.1885    22885.583    85.635993 
   47100    2542.3215   -105.59772    2.3003459   -103.29737   -27614.803    4.4106385    4.4106385    4.4106385   -27614.803    6777.9656   -57779.627   -31842.747   -2430.4167   -9058.3567   -2950.4213     85.80338 
   47200     1276.001   -104.44797    1.1545525   -103.29342    34773.957    4.4207307    4.4207307    4.4207307    34773.957     90066.77    16642.167   -2387.0664   -28110.187   -21040.584    26132.958    86.393721 
   47300    2086.6219   -105.14736    1.8880194   -103.25934   -35348.391    4.4243822    4.4243822    4.4243822   -35348.391    -51127.44   -62105.167    7187.4345    6516.1769   -3799.9156    575.27947     86.60798 
   47400    2139.4288   -105.15677    1.9358001   -103.22097    4485.7287    4.4188555    4.4188555    4.4188555    4485.7287    13285.789    20899.615   -20728.218    12376.968   -10502.992    1228.4384     86.28383 
   47500    1572.4987   -104.67607    1.4228299   -103.25324   -7430.6343    4.4029446    4.4029446    4.4029446   -7430.6343    73649.284   -35828.991   -60112.196    43432.745   -9222.0932   -8719.2102    85.355138 
   47600    2374.7937   -105.42565    2.1487633   -103.27689    4629.1274    4.3787884    4.3787884    4.3787884    4629.1274    51953.007   -3212.8954    -34852.73    15573.175    -7149.419    11996.642    83.957959 
   47700    2407.4652   -105.52222    2.1783251   -103.34389   -19588.649    4.3946149    4.3946149    4.3946149   -19588.649   -30085.653    7944.6324   -36624.926    18326.604    8165.6353   -4239.7574    84.871617 
   47800    1707.1592   -104.87022    1.5446735   -103.32555   -6620.8317    4.4154774    4.4154774    4.4154774   -6620.8317   -51742.516      77770.9   -45890.879     29186.21   -6619.0557   -862.55707    86.086095 
   47900    1836.1281   -104.94754    1.6613673   -103.28618    8447.7569    4.4216855    4.4216855    4.4216855    8447.7569    20042.778    33685.258   -28384.765    4801.5045   -1313.5814   -8405.9848    86.449711 
   48000    2425.9813   -105.44722    2.1950789   -103.25214    -26163.14     4.393067     4.393067     4.393067    -26163.14   -56592.059   -3864.3103    -18033.05    29581.692    3308.9928   -18023.494    84.781964 
   48100    2170.9461   -105.22513    1.9643177   -103.26081    21470.515    4.3726081    4.3726081    4.3726081    21470.515    41258.607    41207.499    -18054.56     1102.204   -19932.216    -7061.005     83.60296 
   48200    1461.1604   -104.64279    1.3220886    -103.3207     39701.69    4.3845484    4.3845484    4.3845484     39701.69    85113.702    68038.026   -34046.658    19802.591    17550.063    4461.8234    84.289719 
   48300    2157.0186    -105.2807    1.9517158   -103.32898   -38958.433    4.3969296    4.3969296    4.3969296   -38958.433   -25773.406   -34669.785   -56432.109    4386.4989    -5526.475    11966.016    85.005795 
   48400    2002.6891   -105.13074    1.8120752   -103.31866    4424.3998    4.3957085    4.3957085    4.3957085    4424.3998    4051.4803     62591.06   -53369.341    10444.193   -9790.7882   -2963.1168    84.934992 
   48500    2147.2882   -105.26144    1.9429115   -103.31852   -3548.3171    4.3978873    4.3978873    4.3978873   -3548.3171    49069.624   -20700.888   -39013.688    12877.119    17078.332    -10360.07    85.061353 
   48600    1446.7221   -104.60989    1.3090246   -103.30086   -25992.883    4.4036401    4.4036401    4.4036401   -25992.883   -11424.614   -13867.369   -52686.666   -20592.307    7802.3896    18133.706     85.39559 
   48700    2353.5377   -105.38336    2.1295303   -103.25383    11473.058    4.3846695    4.3846695    4.3846695    11473.058   -2843.4092    35863.037    1399.5478    31772.627   -4212.8487    28047.287    84.296705 
   48800     1437.535   -104.59833    1.3007119   -103.29762    10909.783    4.3876398    4.3876398    4.3876398    10909.783    95297.463    26168.896    -88737.01    16050.308   -15576.165   -27905.294    84.468134 
   48900    2106.0502   -105.21003    1.9055985   -103.30443   -13493.211     4.397051     4.397051     4.397051   -13493.211    5406.4633   -18790.563   -27095.533    12385.326    4787.1904   -11796.938    85.012834 
   49000    1679.7122    -104.8338    1.5198389   -103.31396   -282.67958    4.4093926    4.4093926    4.4093926   -282.67958    120391.88   -67373.828    -53866.09    14128.398    6455.4104    2735.2567    85.730686 
   49100    2207.6028   -105.27846    1.9974854   -103.28098   -41252.566    4.4120008    4.4120008    4.4120008   -41252.566   -17206.298   -48536.036   -58015.362   -14694.753   -13267.654    23925.783    85.882909 
   49200    2489.5742   -105.50317    2.2526191   -103.25055    11707.213    4.3793122    4.3793122    4.3793122    11707.213    11479.664    48575.909   -24933.935   -12206.829    16038.026   -17384.636    83.988091 
   49300    1324.7401   -104.49881    1.1986527   -103.30015     46814.32    4.3762391    4.3762391    4.3762391     46814.32    64755.077    43901.596    31786.288    20996.748   -1165.5274    15535.119    83.811405 
   49400    2074.5725   -105.19909    1.8771168   -103.32197   -7492.4897    4.4018038    4.4018038    4.4018038   -7492.4897    -50121.36     57388.62   -29744.729   -23726.037    11292.349    6800.1422    85.288805 
   49500    2092.8882    -105.1901    1.8936892   -103.29641   -40975.402    4.4156158    4.4156158    4.4156158   -40975.402    10927.198   -82487.716   -51365.686    13173.648   -14691.699   -32196.238    86.094188 
   49600    1827.0128   -104.91951    1.6531196   -103.26639   -20098.401    4.4082264    4.4082264    4.4082264   -20098.401   -49033.935   -27828.114    16566.845   -6409.3719   -17022.752    10731.252     85.66268 
   49700    2408.9659   -105.44406     2.179683   -103.26438    -9341.329     4.387152     4.387152     4.387152    -9341.329   -10034.691     15213.07   -33202.366    5904.5717    16519.398   -17244.778    84.439967 
   49800    2072.0538   -105.19046    1.8748378   -103.31562   -13272.987     4.393667     4.393667     4.393667   -13272.987   -36240.568    -34601.47    31023.076   -28287.963    7665.0961   -6566.7376    84.816709 
   49900    2124.2786   -105.22005    1.9220919   -103.29796    3152.9989    4.4173267    4.4173267    4.4173267    3152.9989   -14837.279    48783.489   -24487.213   -11263.875    8157.6619   -14820.781    86.194303 
   50000    1095.9117   -104.26314    0.9916039   -103.27154    -8851.405    4.4165122    4.4165122    4.4165122    -8851.405    22357.502   -124466.46    75554.747   -21119.948    23996.888    1814.1608    86.146632 
   50100    2665.0987   -105.64592    2.4114373   -103.23449   -1167.3061    4.3884823    4.3884823    4.3884823   -1167.3061   -16786.992   -20067.078    33352.152    937.04103    20140.055   -6589.6105    84.516803 
   50200    1976.7788   -105.03222     1.788631   -103.24359    3093.0868    4.3728088    4.3728088    4.3728088    3093.0868    28297.507   -48280.075    29261.828   -19991.143   -7353.9432   -1374.5938    83.614477 
   50300    1487.5677   -104.65307    1.3459826   -103.30709    28915.086    4.3954255    4.3954255    4.3954255    28915.086    28975.235   -53942.595    111712.62   -5116.6096   -30487.653    11687.319     84.91859 
   50400    1699.2896   -104.84404     1.537553   -103.30648    25657.595    4.4274571    4.4274571    4.4274571    25657.595   -29094.047    706.74436    105360.09    9041.2233    -38179.56    4278.1667    86.788683 
   50500    957.47955   -104.10556   0.86634762   -103.23922     12544.34    4.4424017    4.4424017    4.4424017     12544.34    20485.059   -41062.526    58210.487    18315.377   -18456.401   -5961.1799    87.670501 
   50600    2666.4621   -105.58439     2.412671   -103.17172   -35160.749    4.4253792    4.4253792    4.4253792   -35160.749   -23348.382   -79895.208   -2238.6576   -5063.5974   -27620.407    25475.994    86.666542 
   50700     1583.566    -104.6152    1.4328438   -103.18235    7340.8882    4.3832144    4.3832144    4.3832144    7340.8882    36285.939   -93562.899    79299.624   -2184.9655   -15474.626   -9319.0524    84.212808 
   50800    2325.1369   -105.32766    2.1038327   -103.22383     34667.46     4.356261     4.356261     4.356261     34667.46    74621.723    11165.561    18215.095    9748.0218    15492.784   -4003.3234     82.66881 
   50900    2006.8979   -105.16195    1.8158834   -103.34606    2115.9888    4.3834943    4.3834943    4.3834943    2115.9888   -25096.649   -29094.463    60539.079   -6827.5416    750.82691   -11456.832    84.228943 
   51000    1457.2783   -104.64935    1.3185761   -103.33077   -2972.4471    4.4270575    4.4270575    4.4270575   -2972.4471    89928.024   -78562.508   -20282.858    3454.6806   -5575.2555    857.06543    86.765185 
   51100    2000.7217   -105.04915    1.8102951   -103.23886   -22475.616     4.425131     4.425131     4.425131   -22475.616    3130.5343   -74471.599    3914.2154    1514.7605   -9837.0676    12618.949     86.65196 
   51200    2188.8533    -105.1709    1.9805205   -103.19038   -3655.6283    4.3893757    4.3893757    4.3893757   -3655.6283    -7682.534   -71347.531     68063.18    3511.0179   -23339.839    12041.564    84.568428 
   51300    2152.4106   -105.16509    1.9475463   -103.21754    12842.428    4.3745619    4.3745619    4.3745619    12842.428   -15620.881     -6824.78    60972.945    15735.536   -568.87814    26904.454     83.71508 
   51400    1712.3004   -104.82315    1.5493254   -103.27382    9551.7367     4.383969     4.383969     4.383969    9551.7367     26872.48   -70733.263    72515.993    21017.089    11068.512    4510.9036    84.256305 
   51500    1980.2179   -105.08587    1.7917427   -103.29413    9929.2165    4.4077202    4.4077202    4.4077202    9929.2165     18165.64   -27552.792    39174.802    7928.6079    22403.664     14424.57    85.633178 
   51600    1767.3747   -104.86792    1.5991578   -103.26877   -8993.6124    4.4158162    4.4158162    4.4158162   -8993.6124     25259.57   -47922.037   -4318.3698    1149.3803    13534.554   -11605.205    86.105913 
   51700    1881.1965   -104.94936    1.7021462   -103.24722   -486.23824    4.4173741    4.4173741    4.4173741   -486.23824    11732.423   -41291.777    28100.639    7652.1903    1631.9071   -15556.049    86.197079 
   51800    1768.8453    -104.8493    1.6004884   -103.24881    6134.4317    4.4109965    4.4109965    4.4109965    6134.4317   -31191.925   -40868.503    90463.723    21064.696    1346.6767   -26064.955    85.824276 
   51900    2055.9036   -105.09497    1.8602248   -103.23475    15362.303    4.4116181    4.4116181    4.4116181    15362.303    7054.7525    18041.187    20990.971    11065.371    11701.278   -27755.869    85.860563 
   52000    1891.4138     -104.958    1.7113909   -103.24661    8078.1644    4.4205648    4.4205648    4.4205648    8078.1644   -55440.483    -17720.07    97395.046    8080.8067   -62.544444    -4711.661    86.383996 
   52100    2282.8436   -105.30394    2.0655649   -103.23838   -23783.108    4.4183385    4.4183385    4.4183385   -23783.108   -45992.341   -24787.544   -569.43833   -8018.0659   -3495.5561   -17774.014    86.253544 
   52200    1805.1033   -104.86854    1.6332954   -103.23525    40407.399     4.384576     4.384576     4.384576    40407.399    51978.828   -48711.528     117954.9   -4313.6679    3943.9072    2775.9502    84.291313 
   52300    2035.0468   -105.10557    1.8413531   -103.26421    673.78141    4.3671213    4.3671213    4.3671213    673.78141   -21801.837   -15798.068     39621.25   -1083.8304    5032.2059   -39064.368     83.28864 
   52400    2799.0569   -105.86728    2.5326455   -103.33463   -18139.654    4.3940065    4.3940065    4.3940065   -18139.654   -18853.118   -38036.785    2470.9417    1960.9538    5233.2637      17721.6    84.836369 
   52500    1331.0113   -104.54148     1.204327   -103.33715    6244.9055     4.429468     4.429468     4.429468    6244.9055    21419.944   -68297.905    65612.678    1147.3751    45204.569    8963.7131    86.906992 
   52600    2021.7622   -105.08077     1.829333   -103.25144   -17326.835    4.4386455    4.4386455    4.4386455   -17326.835   -61147.336   -63172.563    72339.394    -200.2574   -8502.8617    5634.8069    87.448305 
   52700     2882.334     -105.797    2.6079963   -103.18901   -26041.154    4.4218839    4.4218839    4.4218839   -26041.154   -61368.806    -3253.797   -13500.859   -11595.655   -1179.7644   -3923.5449    86.461351 
   52800    1599.3433   -104.64529    1.4471194   -103.19817    13372.484     4.409715     4.409715     4.409715    13372.484   -2991.8084   -58908.465    102017.73    3219.6904    2689.5164    6095.5292    85.749496 
   52900    2299.9046   -105.30844     2.081002   -103.22743    9982.1007    4.4113811    4.4113811    4.4113811    9982.1007    -32328.21    15978.201    46296.311    15157.786    18430.813    38897.018    85.846727 
   53000    2031.7608   -105.13333    1.8383798   -103.29495   -21484.517     4.405966     4.405966     4.405966   -21484.517    -47236.68   -19594.607    2377.7353   -36518.253   -6981.6321   -5498.9571    85.530977 
   53100    1154.7201   -104.34416     1.044815   -103.29934    48201.034    4.3914638    4.3914638    4.3914638    48201.034   -27737.149    81834.968    90505.283   -32085.302   -1317.1797    12831.515    84.689181 
   53200    2424.5939   -105.48257    2.1938235   -103.28874   -17938.472    4.3975578    4.3975578    4.3975578   -17938.472   -27264.043   -61572.333     35020.96   -4966.1951    18071.468    3943.7505    85.042234 
   53300    1856.6469   -104.97086    1.6799332   -103.29092   -27774.418    4.4040628    4.4040628    4.4040628   -27774.418   -71340.897    2143.5674   -14125.924    6609.6081   -7397.8902    2194.2508    85.420183 
   53400    1535.5445   -104.65672    1.3893929   -103.26732    43043.926    4.3883895    4.3883895    4.3883895    43043.926    41051.379    79678.342    8402.0557   -12542.199     23091.41    10516.264    84.511438 
   53500    2057.8705   -105.12986    1.8620045   -103.26785    10872.014    4.3749931    4.3749931    4.3749931    10872.014   -5500.2757    73986.604   -35870.286   -15975.774   -27415.183   -8609.2681     83.73984 
   53600    2967.6223    -105.9736     2.685167   -103.28844   -16056.828    4.3867261    4.3867261    4.3867261   -16056.828   -48643.152   -3316.7454    3789.4138    10630.322    9961.6101   -634.29617    84.415377 
   53700    1229.1505   -104.40596    1.1121612    -103.2938    54936.083    4.3833198    4.3833198    4.3833198    54936.083   -10240.081    96357.878    78690.452   -10882.786   -23006.217   -9505.8311    84.218884 
   53800    2594.7958   -105.63792    2.3478258    -103.2901    -13302.83    4.3953952    4.3953952    4.3953952    -13302.83   -5428.1702    8367.4691   -42847.789    23931.442   -743.39122   -7197.4311    84.916831 
   53900     2478.776   -105.49944    2.2428487   -103.25659   -38059.571    4.3950868    4.3950868    4.3950868   -38059.571   -33906.867   -65913.945     -14357.9    4984.9892    2172.3429    2340.5928    84.898961 
   54000    2272.6709   -105.29391    2.0563604   -103.23755   -3186.5988    4.3858538    4.3858538    4.3858538   -3186.5988    29005.858   -19460.147   -19105.508    13094.755   -20261.521   -16754.703    84.365027 
   54100    2010.1996   -105.08209    1.8188708   -103.26322    9740.4576    4.3862579    4.3862579    4.3862579    9740.4576   -24007.658    8163.7091    45065.322   -33358.521    7664.5594    15934.978     84.38835 
   54200    1968.2636   -105.05156    1.7809263   -103.27063   -10298.696    4.3792912    4.3792912    4.3792912   -10298.696    43077.254    -14657.98   -59315.363   -16344.013   -24449.996   -18287.561    83.986883 
   54300    2379.9556   -105.45072    2.1534338   -103.29729   -30857.886    4.3879132    4.3879132    4.3879132   -30857.886   -22463.177   -32376.576   -37733.906    13700.136   -417.67453     8519.205    84.483924 
   54400    1867.1767   -104.98521    1.6894607   -103.29575   -19436.958    4.3981965    4.3981965    4.3981965   -19436.958   -22621.448   -4712.5818   -30976.845   -19262.985   -51375.208   -10325.227    85.079295 
   54500    1911.9196   -104.98719     1.729945   -103.25724   -7586.0617    4.3816483    4.3816483    4.3816483   -7586.0617    49262.606   -14892.623   -57128.169    -3786.574    21290.072   -7349.3655    84.122573 
   54600    1688.3081   -104.80444    1.5276166   -103.27682    29518.467    4.3754283    4.3754283    4.3754283    29518.467    43255.772   -20757.486    66057.116    -280.5437   -11562.635    1744.7149     83.76483 
   54700    2397.2973   -105.46679     2.169125   -103.29766    -22633.37    4.3924211    4.3924211    4.3924211    -22633.37    22023.003   -46364.512   -43558.601   -5522.8024    4447.1519   -18983.709    84.744575 
   54800    1480.4411   -104.61868    1.3395342   -103.27914    11856.754    4.3992804    4.3992804    4.3992804    11856.754   -28455.395   -8278.4969    72304.154    15245.959   -12792.608    4406.1557    85.142211 
   54900    2021.2172   -105.11216    1.8288398   -103.28332    -20920.63    4.4053688    4.4053688    4.4053688    -20920.63   -20499.186   -51372.246    9109.5432    10821.639    11256.239   -22715.947    85.496198 
   55000    2664.9533   -105.69298    2.4113058   -103.28168   -36528.554    4.3863177    4.3863177    4.3863177   -36528.554   -37042.797   -65137.758   -7405.1078   -9453.0342    29865.278   -5336.5318    84.391799 
   55100    1598.4205   -104.76676    1.4462845   -103.32048    31346.958    4.3505867    4.3505867    4.3505867    31346.958    49062.559   -5011.6832    49989.999   -1694.0997    -37062.39    -33272.92    82.346187 
   55200    2989.0296   -106.06406    2.7045368   -103.35953   -7806.4414    4.3588424    4.3588424    4.3588424   -7806.4414   -26712.385    17033.619   -13740.559    17313.385    19689.097     4222.876    82.815858 
   55300    1835.3554   -105.03173    1.6606681   -103.37107   -10135.037    4.3794689    4.3794689    4.3794689   -10135.037    14358.986    9463.1373   -54227.234    7479.3596   -200.48521   -28600.757    83.997109 
   55400     1337.363   -104.54569    1.2100741   -103.33562    15798.536    4.3927172    4.3927172    4.3927172    15798.536    50940.673   -2265.7022   -1279.3622    2878.2366    9986.7669   -3240.8673    84.761714 
   55500    1954.4595   -105.05033     1.768436   -103.28189   -18634.853    4.3853869    4.3853869    4.3853869   -18634.853     33185.32   -47902.505   -41187.373   -4814.0882    29639.916   -36289.105    84.338084 
   55600    2769.1413   -105.75482    2.5055772   -103.24924    4243.9939    4.3566461    4.3566461    4.3566461    4243.9939   -3140.6924    3588.9667    12283.707    27429.864   -36860.989   -585.44422    82.690732 
   55700    1140.6325   -104.30288    1.0320682   -103.27081    34440.647    4.3465722    4.3465722    4.3465722    34440.647     115121.5    -21615.57    9816.0105   -22166.731    25246.894   -28808.819    82.118439 
   55800    2853.2652   -105.88658    2.5816943   -103.30489   -2415.5925    4.3683565    4.3683565    4.3683565   -2415.5925     6378.433   -23845.338    10220.127   -9069.6602   -19437.421   -12477.469     83.35933 
   55900    1757.9999   -104.91683    1.5906753   -103.32616     4786.524    4.3910282    4.3910282    4.3910282     4786.524    110369.97    -57821.08   -38189.323   -865.51122    25638.044   -21405.141    84.663982 
   56000    1613.7951   -104.75804    1.4601957   -103.29784   -46515.159    4.3903329    4.3903329    4.3903329   -46515.159   -37690.431   -86899.017    -14956.03   -12488.593    19262.491   -16891.205    84.623769 
   56100     3115.369   -106.07789    2.8188514   -103.25904    28590.348    4.3493919    4.3493919    4.3493919    28590.348    80564.545    17192.699   -11986.199    29026.477   -21931.446   -541.50714    82.278362 
   56200    1432.7373   -104.58384    1.2963708   -103.28747    24104.771    4.3340859    4.3340859    4.3340859    24104.771    45084.837   -14407.846    41637.321   -30626.636    23270.812   -24062.036     81.41277 
   56300    2246.0015   -105.34743    2.0322293    -103.3152   -17144.265    4.3612936    4.3612936    4.3612936   -17144.265    30382.514   -78964.762   -2850.5469   -10329.287    -7911.506    10513.954    82.955649 
   56400    2044.5372   -105.16855    1.8499402   -103.31861   -27475.734    4.3903325    4.3903325    4.3903325   -27475.734    40187.269   -58270.286   -64344.184   -14980.039     9743.053   -27047.781    84.623746 
   56500    1765.5949   -104.87126    1.5975474   -103.27371   -32130.915    4.3808648    4.3808648    4.3808648   -32130.915   -47737.703   -34021.861   -14633.182   -27151.505    3417.0453   -5609.4463    84.077452 
   56600    2067.2942   -105.12597    1.8705312   -103.25543    12538.834    4.3355789    4.3355789    4.3355789    12538.834    91889.288   -16881.319   -37391.466    21314.804   -14742.978   -4519.5208    81.496936 
   56700     2754.215   -105.78293    2.4920716   -103.29086    1587.9863    4.3286139    4.3286139    4.3286139    1587.9863    20279.696    3086.7776   -18602.515   -33894.473    24774.149   -7116.7192    81.104796 
   56800    1388.0677   -104.60122    1.2559529   -103.34527    8152.4335    4.3469997    4.3469997    4.3469997    8152.4335    18931.075    17899.807   -12373.582     14422.93   -16196.029   -11505.612    82.142673 
   56900    2227.7639   -105.34935    2.0157276   -103.33362   -12320.512    4.3776835    4.3776835    4.3776835   -12320.512    52943.794   -47069.859    -42835.47   -4369.6117   -1805.9284   -13653.885     83.89442 
   57000    2042.3634   -105.14965    1.8479734   -103.30168   -17237.651    4.3806722    4.3806722    4.3806722   -17237.651    3814.8822   -29018.223   -26509.613   -14387.771   -32752.405   -688.75012    84.066364 
   57100    1924.2404   -105.00266    1.7410932   -103.26157    28707.472    4.3534271    4.3534271    4.3534271    28707.472    6966.1396    82296.489   -3140.2114     24663.58   -12560.712    1751.2689    82.507575 
   57200     2144.981   -105.21569    1.9408239   -103.27486   -20727.482    4.3436125    4.3436125    4.3436125   -20727.482   -1695.2721     -29662.7   -30824.473   -26503.747    2339.4097    3030.5143    81.950805 
   57300      2004.47   -105.12564    1.8136865   -103.31196    17449.337    4.3342023    4.3342023    4.3342023    17449.337    41038.076    8146.6639    3163.2708     21947.39   -24837.235   -13371.725     81.41933 
   57400    2228.6397   -105.35375      2.01652   -103.33723    20767.821    4.3498617    4.3498617    4.3498617    20767.821    33721.594    73976.126   -45394.256   -13786.902    33326.057    8114.2579    82.305024 
   57500    2403.2143   -105.48733    2.1744788   -103.31285   -22928.058     4.368234     4.368234     4.368234   -22928.058   -958.55437   -48858.682   -18966.939   -15890.489   -21489.472    9353.5287     83.35232 
   57600    1330.8903   -104.51679    1.2042175   -103.31257   -2622.7135    4.3508729    4.3508729    4.3508729   -2622.7135     51718.09   -27961.307   -31624.924    8399.4488    33647.182   -17523.174     82.36244 
   57700    2596.1898   -105.65448    2.3490871    -103.3054    27338.886    4.3422194    4.3422194    4.3422194    27338.886    18626.431    21227.739    42162.488   -12139.921    11358.033    4859.4188    81.871979 
   57800    2438.1146    -105.5218    2.2060573   -103.31574    10900.899    4.3504096    4.3504096    4.3504096    10900.899    60551.139     13978.46   -41826.902    4226.5425    16669.208    5481.7512     82.33613 
   57900    887.33159   -104.14474   0.80287627   -103.34186   -47905.864    4.3676669    4.3676669    4.3676669   -47905.864   -74024.024   -48791.985   -20901.584    2832.8932    38000.586   -15023.194    83.319858 
   58000    2234.7364    -105.3482    2.0220364   -103.32616   -15744.165    4.3594168    4.3594168    4.3594168   -15744.165    7565.9039    -47029.16    -7769.238    -7016.046   -10098.309    27372.679    82.848602 
   58100    2303.0946   -105.39822    2.0838884   -103.31433    16304.005    4.3499193    4.3499193    4.3499193    16304.005    67520.118    3803.0373   -22411.139    4682.5689    33697.061   -6879.6026    82.308291 
   58200    1586.9294   -104.75754    1.4358871   -103.32165   -24847.262    4.3586142    4.3586142    4.3586142   -24847.262   -20632.906   -56120.754    2211.8729   -4253.6715   -31645.395    16314.327    82.802852 
   58300    1547.6265    -104.7287     1.400325   -103.32838    9711.8864    4.3735634    4.3735634    4.3735634    9711.8864    103484.17   -33680.664   -40667.847    3970.0341    10849.053   -10281.639     83.65777 
   58400    2206.0731   -105.30742    1.9961013   -103.31132    1917.2395    4.3673311    4.3673311    4.3673311    1917.2395    35768.945   -3926.7335   -26090.493    4505.7712    31072.622     3515.157    83.300643 
   58500    1607.4608   -104.76369    1.4544643   -103.30922    16383.532    4.3514448    4.3514448    4.3514448    16383.532    96137.824    -63884.98    16897.753   -22101.331   -36437.956     5994.804    82.394918 
   58600    2637.3071   -105.72954    2.3862909   -103.34324   -3966.2057    4.3681423    4.3681423    4.3681423   -3966.2057    -1465.918   -38228.015    27795.316   -2289.6865    24948.852    -7932.226    83.347069 
   58700    2013.3726   -105.15869    1.8217419   -103.33695    18245.972    4.3884317    4.3884317    4.3884317    18245.972    88271.335   -34160.547    627.12727   -20751.748   -7590.0277     5833.444    84.513881 
   58800    1437.7755   -104.62023    1.3009295    -103.3193   -63974.852    4.3947282    4.3947282    4.3947282   -63974.852   -41004.817    -104956.2   -45963.541    1240.4707   -7391.6411   -31006.854     84.87818 
   58900    2666.4628   -105.71302    2.4126716   -103.30035    46190.119    4.3519632    4.3519632    4.3519632    46190.119    76564.987    21386.374    40618.996    2383.4137    4407.4079    11690.241    82.424374 
   59000    1952.2062   -105.07083    1.7663972   -103.30444    24312.406    4.3331111    4.3331111    4.3331111    24312.406    30464.348   -11309.541    53782.412   -5265.3167   -22830.655   -28853.836    81.357849 
   59100    2070.7268   -105.19597    1.8736371   -103.32233    12236.467    4.3657212    4.3657212    4.3657212    12236.467    23318.494   -32967.224     46358.13    17294.382    6467.4538    6131.2611    83.208559 
   59200    1671.5918   -104.81614    1.5124914   -103.30365    -5908.947    4.3912772    4.3912772    4.3912772    -5908.947   -1561.3479    5831.4565    -21996.95   -22902.217    2533.6251   -780.82376    84.678386 
   59300     2094.001   -105.17159    1.8946961   -103.27689   -12935.761    4.3889887    4.3889887    4.3889887   -12935.761   -11385.388   -60123.896        32702    1423.9858    -10686.83   -20403.269     84.54606 
   59400    2106.0904   -105.17396    1.9056349   -103.26833     14445.02    4.3564723    4.3564723    4.3564723     14445.02    37935.405    21787.406    -16387.75    1971.2905    8928.0098    16783.952     82.68084 
   59500    1811.6512   -104.90603    1.6392201   -103.26681    39260.171    4.3310926    4.3310926    4.3310926    39260.171    30881.253    48083.396    38815.865   -16122.867   -19575.012   -32007.129    81.244209 
   59600    2451.2652   -105.53462    2.2179562   -103.31666    2331.9351    4.3579589    4.3579589    4.3579589    2331.9351    38312.745   -18534.148   -12782.792   -806.39125    871.18124     13215.08    82.765508 
   59700     1814.878   -104.93417    1.6421398   -103.29203   -22555.407    4.3798266    4.3798266    4.3798266   -22555.407   -44917.852    46437.608   -69185.976    3489.0478   -47128.922    -2159.682    84.017691 
   59800    1488.5693   -104.60464    1.3468888   -103.25776    32903.646    4.3699998    4.3699998    4.3699998    32903.646    7345.2452    57212.377    34153.315   -13160.555    1315.8792   -5743.4885    83.453443 
   59900    2341.3452   -105.38504    2.1184984   -103.26654   -40803.014     4.364227     4.364227     4.364227   -40803.014   -78687.957   -14066.775    -29654.31    -4144.314    1197.3565    7417.9875    83.123151 
   60000     2495.668   -105.52847    2.2581328   -103.27033    14262.413    4.3552981    4.3552981    4.3552981    14262.413   -34430.837    42032.151    35185.926   -27474.611   -1638.0601    -27710.93    82.614001 
   60100    1608.0732   -104.75284    1.4550184   -103.29782   -11268.949    4.3557586    4.3557586    4.3557586   -11268.949   -17292.849     16155.59   -32669.589    513.94846    11238.539    22332.866    82.640209 
   60200     1893.503   -105.01742    1.7132813   -103.30414    11680.803    4.3645778    4.3645778    4.3645778    11680.803   -43480.757     99600.77   -21077.603   -20269.647    -4087.984    17098.061    83.143194 
   60300    2241.4799   -105.35233    2.0281381   -103.32419     529.9799    4.3695647    4.3695647    4.3695647     529.9799   -57266.502    49603.261    9253.1804   -9729.1231    17827.304   -1994.5834    83.428518 
   60400      1736.21   -104.89817    1.5709593   -103.32721    25389.828    4.3633516    4.3633516    4.3633516    25389.828   -22479.286    93467.958    5180.8115   -10825.455   -9086.7675    36554.001     83.07314 
   60500    2045.6301   -105.18169    1.8509291   -103.33076    3141.1638    4.3704022    4.3704022    4.3704022    3141.1638   -31044.032   -15366.001    55833.524   -23929.189    1532.3646   -19059.132    83.476497 
   60600    1866.2567   -105.01268    1.6886282   -103.32405    43910.679    4.3798398    4.3798398    4.3798398    43910.679   -20601.508    132346.15    19987.397    2595.6719    256.43695    8288.2192    84.018453 
   60700    2251.1427   -105.35923    2.0368812   -103.32235   -35519.753    4.3909621    4.3909621    4.3909621   -35519.753   -65505.934   -7680.4148   -33372.911   -10407.351    2245.7689   -16396.761    84.660159 
   60800    2292.7683   -105.38767    2.0745449   -103.31313    -19841.73    4.3778161    4.3778161    4.3778161    -19841.73   -72247.399    18742.321   -6020.1117   -7753.3616   -10514.979   -58.546901    83.902042 
   60900    1677.4505   -104.84563    1.5177925   -103.32783    26862.559    4.3690287    4.3690287    4.3690287    26862.559   -26825.983    72419.567    34994.093   -10878.491   -1048.8216    16161.551    83.397818 
   61000     2383.619   -105.49655    2.1567486    -103.3398   -43754.437    4.3879138    4.3879138    4.3879138   -43754.437   -57870.549   -8113.1437    -65279.62    4936.2796     7835.012   -7338.3822    84.483958 
   61100    2152.4333   -105.26896    1.9475669   -103.32139    9067.2171    4.3903457    4.3903457    4.3903457    9067.2171   -49953.805    111901.11   -34745.656    15090.559   -4064.4389    2717.8867    84.624506 
   61200     1703.512   -104.86778    1.5413734    -103.3264   -24562.422    4.3907119    4.3907119    4.3907119   -24562.422    21389.176    -62148.82   -32927.621   -12104.442   -7342.6854   -11515.569    84.645687 
   61300    2187.4587   -105.28354    1.9792586   -103.30428   -5555.9588    4.4004871    4.4004871    4.4004871   -5555.9588   -76231.788    84943.757   -25379.846    9569.4314   -23876.061    3124.2926    85.212293 
   61400    2259.7064   -105.32233    2.0446298    -103.2777   -56347.057    4.4066268    4.4066268    4.4066268   -56347.057   -21595.471   -88689.343   -58756.356   -22339.824    2889.7033    10011.159    85.569465 
   61500    1902.1561   -104.98017    1.7211108   -103.25906   -11768.657     4.395916     4.395916     4.395916   -11768.657    -77236.02    92601.509   -50671.458    9957.9419   -7942.1235    2050.1696     84.94702 
   61600    1951.2988   -105.03544    1.7655762   -103.26986    20938.823    4.3834958    4.3834958    4.3834958    20938.823   -31306.578       109483   -15359.951   -22182.782    5408.9939   -9062.7558    84.229026 
   61700    1960.9174   -105.09047    1.7742792   -103.31619   -17278.601    4.3831057    4.3831057    4.3831057   -17278.601    29170.029   -39566.719   -41439.111    15152.427   -23859.798    -6504.994    84.206541 
   61800    2266.6535   -105.37687    2.0509157   -103.32596     19847.83    4.3867816    4.3867816    4.3867816     19847.83   -57618.363    68498.211    48663.643   -14174.644    9304.2225     3983.868    84.418582 
   61900     2046.203   -105.17968    1.8514475   -103.32823   -20919.851    4.4010058    4.4010058    4.4010058   -20919.851   -65345.635    38274.289   -35688.208   -17856.794   -27194.327    7715.9945    85.242433 
   62000    2637.1926   -105.67206    2.3861873   -103.28587   -44531.491    4.4050605    4.4050605    4.4050605   -44531.491   -80044.656   -2480.4982    -51069.32   -9570.8805   -19791.387    14178.267    85.478253 
   62100     2286.201   -105.32596    2.0686027   -103.25736   -34903.373     4.395483     4.395483     4.395483   -34903.373   -90022.567   -1015.9012    -13671.65   -28893.749   -806.04274     12026.77    84.921923 
   62200    2039.0692   -105.08578    1.8449926   -103.24079    20667.128    4.3855183    4.3855183    4.3855183    20667.128   -14712.419    99081.438   -22367.637    805.18674   -7444.8383    -7765.434     84.34567 
   62300     2345.731   -105.36128    2.1224667   -103.23881   -27136.087    4.3918967    4.3918967    4.3918967   -27136.087   -10906.007   -52274.752   -18227.502   -17522.092    5153.6486     397.8697    84.714227 
   62400    2173.2255   -105.24301    1.9663801   -103.27663   -25330.486    4.3920591    4.3920591    4.3920591   -25330.486   -29550.986    5645.0333   -52085.505    19339.031   -9475.3917   -4376.1256    84.723626 
   62500    1856.4725   -104.96334    1.6797753   -103.28356    19015.241    4.3873738    4.3873738    4.3873738    19015.241   -33484.356    76909.352    13620.728   -15307.381    31328.451    23120.917    84.452773 
   62600    2157.8663   -105.24147    1.9524827   -103.28899    -27274.67    4.3988793    4.3988793    4.3988793    -27274.67   -53551.021   -15339.545   -12933.445   -11635.266   -2446.3598    920.91213    85.118926 
   62700    1704.2594   -104.81934    1.5420497   -103.27729    20818.668    4.3989339    4.3989339    4.3989339    20818.668    24286.061    27260.634     10909.31   -870.85454    27695.408   -3986.0882    85.122096 
   62800    2550.5132   -105.55778    2.3077579   -103.25002   -16973.402    4.4020392    4.4020392    4.4020392   -16973.402    13786.051   -48855.664   -15850.592   -2249.4748    10357.065   -5865.7587    85.302491 
   62900    1411.2904   -104.53074    1.2769652   -103.25378     14731.52    4.3938982    4.3938982    4.3938982     14731.52    59872.651    47593.215   -63271.307     6048.739    22308.387   -11483.399    84.830099 
   63000    2210.3081    -105.2562    1.9999332   -103.25627   -19238.745    4.3918253    4.3918253    4.3918253   -19238.745    228.40201   -38728.255   -19216.382    -13021.22   -10390.526     7896.641    84.710093 
   63100    1338.1618   -104.49877    1.2107969   -103.28798    34137.761    4.3950263    4.3950263    4.3950263    34137.761    96176.012    77461.503    -71224.23   -9023.5452    12572.874   -3829.9371    84.895456 
   63200    1556.2695   -104.68283    1.4081454   -103.27468    39033.032    4.3960017    4.3960017    4.3960017    39033.032    83768.382    59250.103   -25919.388   -40430.987    7472.6178    8716.9766    84.951987 
   63300     2262.509   -105.31499    2.0471657   -103.26783    4442.5506    4.4057134    4.4057134    4.4057134    4442.5506   -8725.0733    30443.319   -8390.5935    8893.0031   -13223.529   -18921.375    85.516263 
   63400    1775.2443   -104.86013    1.6062783   -103.25385    7196.7021    4.4083985    4.4083985    4.4083985    7196.7021    49867.634    5927.1154   -34204.643   -6972.5147    6335.8535    4548.0193    85.672717 
   63500    2651.2593   -105.64831    2.3989151   -103.24939   -42487.926    4.3987562    4.3987562    4.3987562   -42487.926   -29336.549   -33007.547   -65119.683   -11304.973   -12340.075    1061.9683    85.111779 
   63600    2173.3493   -105.22536    1.9664921   -103.25887    16331.094    4.3807459    4.3807459    4.3807459    16331.094    84859.434    4573.4681   -40439.618   -1217.4046    2558.2662    12783.808    84.070606 
   63700    1457.0688   -104.63228    1.3183864   -103.31389    43407.647    4.3817014    4.3817014    4.3817014    43407.647    69890.152    55565.527    4767.2622    12401.997   -9445.6381    26616.574    84.125633 
   63800    2308.1526   -105.42812     2.088465   -103.33965   -31335.427    4.4097301    4.4097301    4.4097301   -31335.427   -16171.188   -23495.449   -54339.642    4251.2831   -4576.5132    4895.9666    85.750374 
   63900    1731.6931   -104.85327    1.5668723    -103.2864   -15948.437    4.4158575    4.4158575    4.4158575   -15948.437   -19945.225    7780.5425   -35680.628   -17018.841    6719.4722    8241.0291    86.108325 
   64000    1883.4613   -104.93082    1.7041954   -103.22663    37234.009    4.4083165    4.4083165    4.4083165    37234.009     72329.93    14422.982    24949.114    14793.775   -26952.332   -16276.188    85.667934 
   64100    1686.7331   -104.76349    1.5261916    -103.2373   -3254.9159    4.4042781    4.4042781    4.4042781   -3254.9159    104155.11   -49657.432   -64262.422   -14608.592   -4902.4705    22248.252    85.432713 
   64200     2275.483   -105.31138    2.0589049   -103.25247   -7268.8826    4.3825085    4.3825085    4.3825085   -7268.8826   -61511.308    35215.874    4488.7866    573.48132   -21273.574   -14524.572    84.172128 
   64300    2142.2042   -105.23185    1.9383114   -103.29354    -9680.078    4.3705955    4.3705955    4.3705955    -9680.078    2344.3786   -19502.617   -11881.996    221.16835    6596.6607    17968.187    83.487575 
   64400    2334.1745   -105.44298    2.1120102   -103.33097    10602.157    4.3910782    4.3910782    4.3910782    10602.157    38119.008    21125.514    -27438.05   -25388.589   -4086.2251    -5725.169    84.666871 
   64500    1579.7915    -104.7505    1.4294285   -103.32108   -50183.799    4.4081239    4.4081239    4.4081239   -50183.799   -7981.9378   -78591.599    -63977.86    26091.014   -4009.0973    20915.558    85.656706 
   64600    2335.4567   -105.38417    2.1131703     -103.271    5163.3109    4.3978777    4.3978777    4.3978777    5163.3109    22327.295    7597.6265   -14434.989     -4025.09    19859.956    5735.7993    85.060798 
   64700     1416.858    -104.5596    1.2820029   -103.27759    6229.2278    4.4038775    4.4038775    4.4038775    6229.2278    102182.19   -49425.443   -34069.066   -15877.247    20898.142    18545.589    85.409405 
   64800    1590.9779   -104.68733    1.4395502   -103.24778    8633.6719    4.4063864    4.4063864    4.4063864    8633.6719    50144.547    -41588.76    17345.229   -11440.635    366.71789    14891.017     85.55546 
   64900    2609.2041   -105.58695    2.3608627   -103.22609    -30142.68    4.4033615    4.4033615    4.4033615    -30142.68   -13181.245   -62076.524   -15170.272   -3258.1517    2815.5537    9383.8113    85.379385 
   65000    2026.6079   -105.08879    1.8337174   -103.25507   -20974.493    4.4011622    4.4011622    4.4011622   -20974.493    29875.971   -75879.492   -16919.958    850.51432    -7387.792    6156.4523    85.251519 
   65100    1677.9068    -104.7584    1.5182053    -103.2402    38698.405     4.390525     4.390525     4.390525    38698.405    89581.033    18656.357    7857.8234   -21813.313   -21977.993    4504.2789    84.634878 
   65200     2121.569    -105.2008    1.9196402   -103.28116   -12237.147    4.4058817    4.4058817    4.4058817   -12237.147   -6558.8922   -53450.846    23298.296   -9296.8494   -613.70577    11829.659    85.526066 
   65300    2182.9731   -105.24688    1.9751999   -103.27168   -22204.712    4.4184474    4.4184474    4.4184474   -22204.712   -23664.886    -56777.26    13828.009   -44521.021   -5906.4547   -8292.3984    86.259926 
   65400     1836.571   -104.90064    1.6617681   -103.23887    31165.548    4.4053467    4.4053467    4.4053467    31165.548    97789.233   -57356.514    53063.924    19313.345   -15618.858    13896.741    85.494914 
   65500    1936.0543   -105.00677    1.7517826   -103.25499   -16800.911    4.4149015    4.4149015    4.4149015   -16800.911   -23078.678   -55672.889    28348.833   -5720.2481    598.52436    19047.373    86.052413 
   65600    2081.0053   -105.10339    1.8829373   -103.22045    18904.115    4.4168792    4.4168792    4.4168792    18904.115   -42611.606   -3844.0574    103168.01    1301.1053    6245.5918    22370.615    86.168108 
   65700    1354.3122   -104.47027    1.2254102   -103.24486    10103.543    4.4250384    4.4250384    4.4250384    10103.543   -75935.967    2110.2833    104136.31   -10147.553     1263.699    37758.678    86.646523 
   65800    2074.0214   -105.08421    1.8766181   -103.20759    33954.176    4.4262446    4.4262446    4.4262446    33954.176    -12574.67    59058.088    55379.111   -16556.701    10231.874     35323.71    86.717398 
   65900    1129.2903   -104.23609    1.0218056   -103.21428    1169.6775    4.4293753    4.4293753    4.4293753    1169.6775    23936.319    7634.2533    -28061.54   -27412.057    8844.1069   -11429.655    86.901533 
   66000    2269.6682    -105.2258    2.0536435   -103.17216    13535.491     4.418674     4.418674     4.418674    13535.491   -11016.097    16744.302    34878.267   -25559.674    1140.6767   -6003.4686    86.273194 
   66100    1642.1021   -104.65484    1.4858085   -103.16903    48283.442    4.4066083    4.4066083    4.4066083    48283.442    52275.265    -5438.338    98013.399   -7858.1733    20310.339    20157.436    85.568384 
   66200    1700.6828   -104.76183    1.5388135   -103.22302    24020.689    4.4289086    4.4289086    4.4289086    24020.689   -7913.5784    72648.862     7326.783   -4524.7645    13497.036    16117.956    86.874065 
   66300    2233.4394   -105.22291    2.0208629   -103.20205   -20473.968    4.4349401    4.4349401    4.4349401   -20473.968   -5131.5892    14799.678   -71089.991   -21848.174   -12897.581    19544.766    87.229477 
   66400    2176.5989   -105.15243    1.9694324   -103.18299   -28070.093    4.4119444    4.4119444    4.4119444   -28070.093    18488.712   -44404.856   -58294.134    20871.982   -13794.454   -16114.614    85.879617 
   66500    2049.8288   -105.04695    1.8547282   -103.19223    31464.536    4.3850759    4.3850759    4.3850759    31464.536    64329.033    62331.194   -32266.619    7292.4872   -21598.257     25169.04    84.320147 
   66600    2257.1874   -105.27735    2.0423506     -103.235    112.82539     4.377055     4.377055     4.377055    112.82539    52329.924    3961.6886   -55953.136    18908.004    1795.8047   -8794.5176    83.858293 
   66700    1517.3051   -104.66271    1.3728895   -103.28982    53034.717    4.3891203    4.3891203    4.3891203    53034.717    85688.427    78836.444   -5420.7192    9586.9156    5969.5732   -4613.4159    84.553668 
   66800    1870.3134    -104.9919    1.6922989    -103.2996   -15188.075    4.4159258    4.4159258    4.4159258   -15188.075    29279.543   -41615.711   -33228.058   -4946.9532   -9128.8611    -15690.81    86.112322 
   66900    2921.8105   -105.88057    2.6437156   -103.23685   -49833.154    4.4166019    4.4166019    4.4166019   -49833.154   -19084.579   -74373.772   -56041.112        18608    10627.922    249.62531    86.151881 
   67000    1074.2858   -104.22955   0.97203633   -103.25751    9849.3202    4.3862383    4.3862383    4.3862383    9849.3202    75673.138    37295.486   -83420.664   -17434.194   -23584.427    -3042.563    84.387217 
   67100    3126.3197   -106.11111    2.8287598   -103.28235   -9709.3344    4.3642486    4.3642486    4.3642486   -9709.3344   -14294.177     19134.57   -33968.396    9023.0019   -8575.8061   -4391.1452    83.124385 
   67200    1484.4155   -104.66755    1.3431303   -103.32442    36684.203    4.3678172    4.3678172    4.3678172    36684.203    121338.65    41193.655   -52479.697   -25932.956   -9328.3472   -6195.0319    83.328463 
   67300    2376.5505   -105.49915    2.1503529   -103.34879   -48323.641    4.3948878    4.3948878    4.3948878   -48323.641   -61960.289   -58737.564   -24273.071    16043.838   -8237.4652    1898.0769    84.887427 
   67400    2180.9924   -105.25497    1.9734078   -103.28157   -7789.9762    4.4050783    4.4050783    4.4050783   -7789.9762    36259.807   -23577.629   -36052.107    8013.4945   -2554.3573   -12429.065    85.479286 
   67500    2025.0115   -105.07421     1.832273   -103.24194   -3151.6473    4.3853586    4.3853586    4.3853586   -3151.6473    13117.999   -21003.247   -1569.6933   -20196.817   -6387.2912    3922.3341    84.336456 
   67600    1885.6876   -104.94836    1.7062098   -103.24215    33976.495    4.3829879    4.3829879    4.3829879    33976.495    69468.022    14617.265    17844.196    8310.7864   -23016.597   -1062.7668    84.199755 
   67700    2016.0606   -105.09521     1.824174   -103.27104   -50983.755    4.4044932    4.4044932    4.4044932   -50983.755   -80268.725   -47496.105   -25186.436   -30234.047    -28109.54   -2205.8703     85.44523 
   67800    1686.9931   -104.77981    1.5264268   -103.25338    5765.3839    4.4036766    4.4036766    4.4036766    5765.3839   -2873.0561    22799.105   -2629.8976    -1858.012    16721.536    1760.5468    85.397718 
   67900    2222.9548   -105.24109    2.0113762   -103.22971    12469.028    4.3815138    4.3815138    4.3815138    12469.028   -21409.952    54648.865    4168.1714   -6961.4229     16337.09   -938.59529    84.114829 
   68000    1652.6039   -104.78017    1.4953107   -103.28486   -12442.896     4.377037     4.377037     4.377037   -12442.896   -6513.2832   -49594.963    18779.557   -23749.275   -1877.0484   -5294.5449    83.857258 
   68100    2748.4918   -105.79423    2.4868932   -103.30733   -21812.433    4.3820924    4.3820924    4.3820924   -21812.433   -39073.352    17532.066   -43896.014    26562.118    17072.008    668.90677    84.148152 
   68200    1512.1766   -104.70011    1.3682492   -103.33186     21028.54    4.3905527    4.3905527    4.3905527     21028.54     4273.534    13059.013    45753.073   -26678.325    4656.9781    12992.621    84.636477 
   68300    1677.6135   -104.83263    1.5179399   -103.31469   -12845.344    4.3929037    4.3929037    4.3929037   -12845.344    21221.726   -32747.552   -27010.207     4720.607    13646.759    13662.544    84.772512 
   68400    1962.3003   -105.06103    1.7755306    -103.2855    29834.631    4.3954971    4.3954971    4.3954971    29834.631    31243.364     31412.43    26848.098    -19895.25    25204.945    9789.2371    84.922737 
   68500    2042.2709   -105.12388    1.8478896   -103.27599   -4823.6692     4.397931     4.397931     4.397931   -4823.6692   -41265.363   -19425.435     46219.79    7673.3077    16262.161    27404.292    85.063887 
   68600    1657.3538   -104.75179    1.4996086   -103.25218    34757.194    4.4074099    4.4074099    4.4074099    34757.194   -27193.587    53969.738     77495.43    12362.232    3828.4751     78.45238    85.615094 
   68700    1805.0661   -104.85354    1.6332618   -103.22028   -22674.644    4.4251811    4.4251811    4.4251811   -22674.644    -52403.51   -36328.121    20707.699    4376.3449    9403.9297    11027.321    86.654903 
   68800    2413.3809   -105.36134    2.1836777   -103.17766   -33633.442    4.4129862    4.4129862    4.4129862   -33633.442   -45527.434    7267.2273   -62640.118    23643.752   -14443.945    10554.357    85.940469 
   68900    2309.4298    -105.2585    2.0896206   -103.16888   -20665.623    4.3999544    4.3999544    4.3999544   -20665.623    -7847.697   -14789.328   -39359.842   -5124.2093    4275.4042   -11982.122    85.181352 
   69000     1927.058   -104.93879    1.7436426   -103.19514   -10704.948    4.3982181    4.3982181    4.3982181   -10704.948    53081.258   -56482.097   -28714.005    14538.656    17641.343     22269.96    85.080549 
   69100    1991.7871   -105.03251    1.8022108    -103.2303   -9504.9048    4.3954201    4.3954201    4.3954201   -9504.9048   -15175.719    15209.054   -28548.049    20950.052    26950.705   -47514.829    84.918274 
   69200     2006.561   -105.08445    1.8155786   -103.26887    8218.3191    4.3948753    4.3948753    4.3948753    8218.3191     -14974.1    35043.018    4586.0392    7253.4446    6949.8097    14529.659    84.886703 
   69300    1761.4514   -104.87937    1.5937982   -103.28557    12083.954    4.4058715    4.4058715    4.4058715    12083.954    14745.594     85633.54   -64127.272    -563.5832    8825.6141   -21578.677    85.525473 
   69400    2246.1871   -105.31188    2.0323973   -103.27949     1488.697     4.395466     4.395466     4.395466     1488.697   -1139.0847   -13271.396    18876.572    15204.168     -14339.6    8115.1735    84.920934 
   69500    1203.9443   -104.38076    1.0893541    -103.2914    54147.938    4.3811523    4.3811523    4.3811523    54147.938    33565.969    101592.75    27285.092   -23353.841   -110.59321   -12198.833    84.094008 
   69600    2394.8259   -105.47921    2.1668888   -103.31232   -14127.261    4.3908404    4.3908404    4.3908404   -14127.261   -74007.071    13294.678     18330.61    23370.552    3639.3693   -19067.691    84.653115 
   69700    2148.2104   -105.26083    1.9437459   -103.31708   -31509.346    4.3908143    4.3908143    4.3908143   -31509.346   -63409.816   -67995.431    36877.209    20308.294   -2436.8335    18123.801    84.651608 
   69800    1949.3734   -105.08949     1.763834   -103.32565    -3383.854    4.3850198    4.3850198    4.3850198    -3383.854   -18396.933    59503.297   -51257.925   -20302.076    6194.3203    -19423.76     84.31691 
   69900    2375.5063   -105.46483     2.149408   -103.31542    1731.8809    4.3708689    4.3708689    4.3708689    1731.8809   -23162.769    21242.912    7115.4998    32609.618   -21861.437    6163.6104    83.503241 
   70000    2030.5703   -105.16729    1.8373027   -103.32998    24093.735    4.3678898    4.3678898    4.3678898    24093.735    284.52834    11214.383    60782.295    -22042.08    12272.299    21300.931    83.332618 
   70100    2086.6772   -105.22268    1.8880694   -103.33461   -10533.135    4.3836532    4.3836532    4.3836532   -10533.135   -70562.125    51645.647   -12682.927    14407.765   -10483.479    -20816.21      84.2381 
   70200    2021.0736   -105.16563    1.8287099   -103.33692    11342.395    4.3959956    4.3959956    4.3959956    11342.395   -51768.609   -7550.4043    93346.199    4829.3463    -4907.178     39083.99    84.951639 
   70300    2248.2072   -105.34453    2.0342251   -103.31031   -37286.404     4.403459     4.403459     4.403459   -37286.404   -87441.432    8542.7886    -32960.57    5007.5932    3380.6046   -25430.705    85.385057 
   70400     1906.093   -105.00366     1.724673   -103.27899   -9382.9542    4.3818381    4.3818381    4.3818381   -9382.9542   -40868.407   -27786.357    40505.901    12487.233    198.98124   -4838.8971    84.133507 
   70500    1775.5528   -104.88239    1.6065575   -103.27583      78920.8    4.3667191    4.3667191    4.3667191      78920.8   -11710.889    199017.19    49456.098   -5301.6886    6549.4778    24444.615    83.265629 
   70600    2274.6713   -105.37465    2.0581704   -103.31648    -22663.66    4.3951283    4.3951283    4.3951283    -22663.66   -49700.834    4054.9709   -22345.118    4948.3082    -5888.182   -2656.5093    84.901364 
   70700    1845.9753     -104.959    1.6702772   -103.28872    3116.0504    4.4056613    4.4056613    4.4056613    3116.0504    -13312.03     64.72283    22595.458    11938.844    10004.106    30659.681    85.513234 
   70800    2366.3823   -105.40001    2.1411525   -103.25886   -21375.435    4.4092412    4.4092412    4.4092412   -21375.435   -28205.901    4552.5051   -40472.909    11072.677   -4075.8143    6195.0828    85.721855 
   70900    2177.9485   -105.21529    1.9706536   -103.24464   -19796.145    4.3917492    4.3917492    4.3917492   -19796.145   -44836.868   -50734.202    36182.635   -16166.185   -22917.606   -12596.761    84.705694 
   71000    2014.6858   -105.10515    1.8229301   -103.28222    9124.0727     4.373077     4.373077     4.373077    9124.0727   -11725.052     66454.72    -27357.45   -1292.2615    18272.167   -1985.8713     83.62986 
   71100    2044.7987   -105.16014    1.8501768   -103.30997   -17595.091    4.3769161    4.3769161    4.3769161   -17595.091    47987.868   -33389.855   -67383.285    8673.5855    1274.9566   -51091.131    83.850308 
   71200    2183.3922   -105.27949    1.9755792   -103.30391   -15936.769    4.4045113    4.4045113    4.4045113   -15936.769   -21148.858   -20246.711   -6414.7371   -259.57886   -4414.3576    32048.859    85.446283 
   71300    1612.2211   -104.72781    1.4587715   -103.26904   -34545.122    4.4231782    4.4231782    4.4231782   -34545.122   -26524.809   -34267.854   -42842.703    10911.605   -17221.785   -43379.045    86.537293 
   71400    1950.1663   -104.97878    1.7645515   -103.21423    14110.398    4.4090595    4.4090595    4.4090595    14110.398   -42771.763    29926.407    55176.551   -4607.8787    10203.725    1495.0624    85.711258 
   71500    1829.7535   -104.86931    1.6555995   -103.21371   -2182.5881    4.3906763    4.3906763    4.3906763   -2182.5881   -50173.421    22731.185    20894.472    11430.582   -34385.986   -49379.331    84.643625 
   71600    1990.0942   -105.05817    1.8006791   -103.25749    -728.5374    4.3819719    4.3819719    4.3819719    -728.5374   -18280.723    33137.466   -17042.355    15429.481   -7239.0262   -2246.2143    84.141212 
   71700    2198.5729   -105.26894     1.989315   -103.27962    20931.058    4.3806561    4.3806561    4.3806561    20931.058    33586.088   -38520.067    67727.152    -4548.187     2325.783   -414.89735    84.065438 
   71800    1580.7627   -104.72721    1.4303073    -103.2969   -23740.237    4.3992427    4.3992427    4.3992427   -23740.237     -11837.1   -41017.314   -18366.297    7470.5846   -13403.833   -19902.529    85.140022 
   71900    2687.8316   -105.69785    2.4320065   -103.26585   -16319.965    4.3937621    4.3937621    4.3937621   -16319.965    2233.6224   -21001.736   -30191.782    5371.3363    9673.5254   -16137.318    84.822216 
   72000    1360.7677   -104.49601    1.2312512   -103.26475    31957.548    4.3711825    4.3711825    4.3711825    31957.548    23439.045    18887.917    53545.681   -18604.264    -3239.933   -28113.398    83.521218 
   72100     2642.048   -105.64281    2.3905806   -103.25223    -15120.47    4.3580734    4.3580734    4.3580734    -15120.47   -28745.339   -21831.969    5215.8987   -2670.3512    11198.374    5150.4455    82.772032 
   72200    1569.6817   -104.72086     1.420281   -103.30058    32845.021    4.3700062    4.3700062    4.3700062    32845.021    1181.7179   -15573.238    112926.58    2813.8312   -16354.023   -27876.271    83.453811 
   72300    2356.2216   -105.44619    2.1319588   -103.31423   -45891.383    4.3977034    4.3977034    4.3977034   -45891.383   -72543.869   -39484.633   -25645.648   -11649.898    4913.3057    11268.967    85.050682 
   72400    1497.3927   -104.63086    1.3548724   -103.27598    2855.6163    4.3957087    4.3957087    4.3957087    2855.6163    7517.6546   -49889.367    50938.561   -1030.5229     3286.225   -16681.022    84.935006 
   72500    2144.3379     -105.186     1.940242   -103.24576   -30079.287    4.3728062    4.3728062    4.3728062   -30079.287   -70570.186   -21348.121    1680.4467    10164.705   -21087.604    7702.2979    83.614323 
   72600    2275.2325   -105.32903    2.0586781   -103.27035   -316.09646     4.366004     4.366004     4.366004   -316.09646    26798.499     -34151.9    6405.1111    9352.0406    16071.927    6588.8998    83.224731 
   72700    2092.8771   -105.20054    1.8936792   -103.30686   -30389.547    4.3834427    4.3834427    4.3834427   -30389.547    -45190.29   -47261.805    1283.4547   -8030.7869   -17267.237   -18395.193    84.225964 
   72800    1535.6115    -104.6768    1.3894536   -103.28734    -16819.85    4.4019176    4.4019176    4.4019176    -16819.85   -11093.734   -34295.474    -5070.342    11124.404   -9039.1058    11635.807    85.295422 
   72900    2357.1788    -105.3656    2.1328249   -103.23278   -15402.516    4.4028513    4.4028513    4.4028513   -15402.516   -2703.1863    3516.6197   -47020.981    14744.387    16390.788    369.66145    85.349713 
   73000    2393.7125   -105.37903    2.1658814   -103.21315   -18646.868    4.3952744    4.3952744    4.3952744   -18646.868   -13400.478   -54451.818    11911.692    446.04113   -14666.063    14405.018    84.909831 
   73100    2060.2246   -105.05755    1.8641345   -103.19342   -10591.041    4.3829732    4.3829732    4.3829732   -10591.041    11050.046   -22242.462   -20580.709   -11830.207    24185.014   -13155.307    84.198903 
   73200     2547.965   -105.53006    2.3054523   -103.22461   -9701.0761    4.3924238    4.3924238    4.3924238   -9701.0761    3995.3446   -65498.612    32400.039    11981.917   -26630.016    12377.958    84.744732 
   73300    1616.0656   -104.70108    1.4622501   -103.23883    34002.475    4.4123129    4.4123129    4.4123129    34002.475    33824.902   -23327.162    91509.684    31345.072     200.7381    1734.0443    85.901138 
   73400     1561.468   -104.61669    1.4128491   -103.20384   -6157.2055      4.42582      4.42582      4.42582   -6157.2055    51909.538   -57433.622   -12947.533    24752.392   -8988.2908    32410.963    86.692444 
   73500    2138.4494   -105.09294    1.9349139   -103.15803   -2989.6922    4.3982986    4.3982986    4.3982986   -2989.6922    45696.743   -34745.558   -19920.262    19121.253   -23274.529    23779.833    85.085221 
   73600    1510.5193   -104.53607    1.3667496   -103.16932    46656.862    4.3653279    4.3653279    4.3653279    46656.862    69126.821    69816.929    1026.8354    41541.516    7487.2772    4723.5484    83.186072 
   73700    2237.0348   -105.26959    2.0241161   -103.24547     22097.58     4.369917     4.369917     4.369917     22097.58    19258.268    80599.295   -33564.822    17949.712   -3856.9092    8517.7169    83.448697 
   73800    1571.6026   -104.71976    1.4220191   -103.29774    37251.613     4.384381     4.384381     4.384381    37251.613    102060.83     19561.01   -9867.0041    10456.558    5194.2597     3433.603    84.280066 
   73900    1827.9096   -104.96864     1.653931    -103.3147   -15429.405    4.3991205    4.3991205    4.3991205   -15429.405    35024.687   -60522.909   -20789.994    12929.201    10403.339    29057.871     85.13293 
   74000    2240.6596    -105.3078    2.0273959    -103.2804   -990.23907    4.3872363    4.3872363    4.3872363   -990.23907    37461.123   -1533.3552   -38898.485    12690.668     11202.04   -20058.541    84.444833 
   74100    1828.8309   -104.90957    1.6547646    -103.2548    3333.7101    4.3601735    4.3601735    4.3601735    3333.7101    65894.421   -16327.368   -39565.922    5130.7913   -166.91169    49294.361    82.891753 
   74200    2460.0536   -105.47828    2.2259082   -103.25237    43656.946    4.3509662    4.3509662    4.3509662    43656.946     44948.97    16681.805    69340.065   -14029.157    36756.897   -14584.193    82.367736 
   74300    1180.1203   -104.38042    1.0677976   -103.31262    6065.6752    4.3715652    4.3715652    4.3715652    6065.6752    28628.615   -16325.374    5893.7849    16525.365    6638.8494    46582.483    83.543157 
   74400    2376.7312   -105.42507    2.1505164   -103.27456    662.78048    4.3911604    4.3911604    4.3911604    662.78048    11059.315   -7766.6443   -1304.3289   -12120.312    8706.7066   -13453.758    84.671625 
   74500    1034.4796   -104.19579   0.93601891   -103.25977    24241.712    4.3843313    4.3843313    4.3843313    24241.712    78518.868   -36129.697    30335.965    15195.117    30072.638     35736.51    84.277201 
   74600    2362.2546     -105.373    2.1374176   -103.23558    29399.309    4.3789254    4.3789254    4.3789254    29399.309    11597.891    68257.256    8342.7814    12497.061   -2391.0942   -37153.749    83.965839 
   74700    1973.0845   -105.04748    1.7852883   -103.26219    -22828.08    4.3646157    4.3646157    4.3646157    -22828.08   -17763.607   -10890.687   -39829.946   -6417.0309   -14812.687    67651.013     83.14536 
   74800    2208.2425   -105.27443    1.9980643   -103.27637    8997.3666    4.3453071    4.3453071    4.3453071    8997.3666   -3475.3616    8429.1532    22038.308    4276.5117    20285.738    12332.064    82.046759 
   74900    2229.0925   -105.33564    2.0169297   -103.31871    -36210.12    4.3663315    4.3663315    4.3663315    -36210.12    -17476.59   -84288.291    -6865.479   -4325.8299   -9135.7035    47032.634    83.243458 
   75000    1391.7053   -104.57282    1.2592442   -103.31358   -2374.2097    4.3934677    4.3934677    4.3934677   -2374.2097   -17206.863    52012.203   -41927.969    17964.147   -3687.2566    11411.583    84.805164 
   75100    2234.2064   -105.29988    2.0215569   -103.27832     11264.19    4.3915784    4.3915784    4.3915784     11264.19   -10598.651    17560.676    26830.545    -14122.91   -1668.0587     5252.062     84.69581 
   75200     1961.399   -105.04784     1.774715   -103.27313   -2971.2129    4.3696813    4.3696813    4.3696813   -2971.2129   -8127.9001   -12898.736    12112.997    11231.114   -14248.458    42583.413    83.435197 
   75300    2611.8015   -105.64277    2.3632129   -103.27956    32164.745    4.3544758    4.3544758    4.3544758    32164.745    36429.808    10901.305    49163.123   -4402.8696   -7663.6131   -19439.827    82.567217 
   75400    1178.7743   -104.41679    1.0665797   -103.35021    1729.5133    4.3688011    4.3688011    4.3688011    1729.5133     53855.74    -34611.75    -14055.45    13292.675    7142.6469    64609.722    83.384786 
   75500    2261.4802   -105.35393    2.0462348    -103.3077    17005.159    4.3798848    4.3798848    4.3798848    17005.159    -20369.82    45694.052    25691.245    8847.1184    2911.8451   -19832.262    84.021043 
   75600    1928.7726   -105.04935     1.745194   -103.30416    897.31137    4.3678508    4.3678508    4.3678508    897.31137   -6368.2803   -33530.468    42590.683   -3417.6896   -20157.594    63283.661    83.330387 
   75700    2645.4817   -105.68218    2.3936874    -103.2885    13700.651    4.3639443    4.3639443    4.3639443    13700.651   -45573.569    62869.249    23806.273    9076.2385    8299.5076   -32533.387    83.106996 
   75800    1378.5575   -104.56761    1.2473478   -103.32027   -6031.5719    4.3685828    4.3685828    4.3685828   -6031.5719    5349.9589   -9343.7952   -14100.879    16477.727   -9184.7508    62742.356    83.372285 
   75900    2210.4285   -105.31578    2.0000421   -103.31574     32555.54    4.3665716    4.3665716    4.3665716     32555.54    45211.127   -12370.128    64825.623    6133.5984    -5612.229   -20069.591    83.257193 
   76000    1824.4522   -104.96715    1.6508027   -103.31635    -25585.77    4.3762875    4.3762875    4.3762875    -25585.77    723.22978   -26011.015   -51469.525   -137.93317    264.60223    39304.562    83.814185 
   76100    2523.4365   -105.57406    2.2832584   -103.29081    483.01794    4.3733984    4.3733984    4.3733984    483.01794   -119.67336   -9090.4579    10659.185    19447.679   -6368.4051   -7341.1512    83.648299 
   76200     1296.082   -104.46495    1.1727223   -103.29223    17369.319    4.3848775    4.3848775    4.3848775    17369.319    40859.174    22584.814   -11336.032      4567.98   -2795.4713     36252.25    84.308703 
   76300    2122.9316   -105.17447    1.9208731    -103.2536   -26391.149     4.387008     4.387008     4.387008   -26391.149    7980.1904   -45896.652   -41256.985    9081.6394    8081.7667    26058.596    84.431651 
   76400    1838.0625   -104.90446    1.6631176   -103.24134   -1979.3049    4.3719635    4.3719635    4.3719635   -1979.3049    5232.8423    44141.053    -55311.81    16210.824   -14794.352   -15195.255    83.565995 
   76500    2008.4066   -105.09517    1.8172485   -103.27792   -11403.565    4.3688696    4.3688696    4.3688696   -11403.565    20669.684   -40376.125   -14504.255   -3976.7769    4606.9686    58281.354     83.38871 
   76600    2481.2342   -105.53067    2.2450728    -103.2856    2507.2288    4.3660414    4.3660414    4.3660414    2507.2288   -15388.589    37219.821   -14309.546    14974.762   -11638.014   -23929.165    83.226868 
   76700    1544.7148   -104.71644    1.3976905   -103.31875   -29282.771    4.3754826    4.3754826    4.3754826   -29282.771    21841.965   -62030.536   -47659.743   -2472.7932    1665.1419      75222.9    83.767951 
   76800    2435.8455   -105.48562    2.2040042   -103.28161    14187.337    4.3761743    4.3761743    4.3761743    14187.337   -49411.772    27940.524    64033.257    19027.438   -7421.4526   -23274.244    83.807682 
   76900    1342.0424   -104.50674    1.2143082   -103.29243   -6502.2045    4.3790349    4.3790349    4.3790349   -6502.2045    30141.814    19556.956   -69205.383   -7932.2774   -9108.7395      50584.4    83.972138 
   77000    2717.5308   -105.72946     2.458879   -103.27058     8917.518    4.3795954    4.3795954    4.3795954     8917.518   -23920.691   -13229.311    63902.556   -4567.6551   -5101.7357   -23699.616     84.00439 
   77100     1454.538   -104.61573    1.3160966   -103.29964   -18437.254    4.3712705    4.3712705    4.3712705   -18437.254    21765.079   -2016.5336   -75060.307     5791.512    5351.9825    64528.467    83.526263 
   77200    1969.3438   -105.07067    1.7819037   -103.28876    13512.578    4.3594729    4.3594729    4.3594729    13512.578    13439.821   -56825.409    83923.323   -7138.9237   -3200.5974   -10130.074    82.851799 
   77300    2211.0411   -105.31134    2.0005965   -103.31075   -18316.326    4.3610195    4.3610195    4.3610195   -18316.326    23552.326   -13407.228   -65094.074   -3551.9242    7995.8232    50285.605    82.940011 
   77400    2228.9688   -105.30755    2.0168178   -103.29073   -21156.079    4.3773185    4.3773185    4.3773185   -21156.079   -11960.067   -33122.275   -18385.895    -14906.86   -8622.8693   -15176.457    83.873435 
   77500    1706.8132   -104.79123    1.5443604   -103.24687    17229.442    4.3782129    4.3782129    4.3782129    17229.442   -3067.4578    37531.576    17224.208   -4498.7702   -4415.5172    47750.506    83.924863 
   77600    2276.8915   -105.28332    2.0601792   -103.22314    23005.939    4.3810276    4.3810276    4.3810276    23005.939    84615.147   -23421.572    7824.2434    2336.3161    19404.632   -5099.1439     84.08683 
   77700    1274.4052   -104.39178    1.1531086   -103.23867   -20258.743    4.3821254    4.3821254    4.3821254   -20258.743    40032.915   -116968.88    16159.733   -24052.454   -6507.2931     37129.87    84.150057 
   77800    2615.3802    -105.5837     2.366451   -103.21725   -18197.484    4.3706377    4.3706377    4.3706377   -18197.484   -12197.346   -48210.393    5815.2866    6457.2033    7676.8893   -4659.0683    83.489994 
   77900    1973.3099   -105.03018    1.7854922   -103.24469   -19490.841    4.3658685    4.3658685    4.3658685   -19490.841    42947.331   -58644.611   -42775.243   -27217.492    4104.8048    5939.3791    83.216982 
   78000    2071.6182   -105.12384    1.8744437   -103.24939    3884.4226     4.363864     4.363864     4.363864    3884.4226     61129.51   -31558.253   -17917.989     18084.11   -15558.562    17590.902    83.102409 
   78100    1819.7652   -104.92234    1.6465618   -103.27578    15354.315    4.3640465    4.3640465    4.3640465    15354.315    22273.315    -3335.063    27124.694    -34001.16    7516.7295   -11481.223    83.112838 
   78200    2592.4181   -105.62469    2.3456744   -103.27901   -2455.8289     4.372646     4.372646     4.372646   -2455.8289   -12828.004   -3238.2173    8698.7345   -14206.146    3102.5665    398.47366    83.605136 
   78300    1805.3903   -104.91124     1.633555   -103.27768   -23391.913    4.3886481    4.3886481    4.3886481   -23391.913    -34971.99   -56384.987    21181.238   -2159.1485    7750.5118     -25174.3    84.526381 
   78400    1993.6136   -105.02395    1.8038635   -103.22009    35426.306    4.4060866    4.4060866    4.4060866    35426.306    43006.971   -21940.783    85212.731    20208.796   -19449.746    11968.101       85.538 
   78500    912.35892   -104.01652   0.82552153     -103.191    14343.832    4.4103942    4.4103942    4.4103942    14343.832    6882.0889   -58975.721    95125.129    1965.2975   -11633.906    10376.731    85.789123 
   78600    1904.3259   -104.87941    1.7230741   -103.15634    17400.428    4.3945244    4.3945244    4.3945244    17400.428   -3471.8356    34075.832    21597.288    21116.342    1905.9815    7007.3552    84.866375 
   78700    2396.8211   -105.37141    2.1686941   -103.20272   -20423.947    4.3772475    4.3772475    4.3772475   -20423.947    -73284.75   -28948.773    40961.681    1881.4411    2458.0565    8061.5249    83.869356 
   78800    1529.4105   -104.64291    1.3838427   -103.25906    16508.137    4.3665427    4.3665427    4.3665427    16508.137   -41835.677   -25009.254    116369.34    6342.0599    6165.1469    -12771.15    83.255541 
   78900    2144.0178   -105.22807    1.9399524   -103.28812     5761.004    4.3695378    4.3695378    4.3695378     5761.004   -70321.592   -19244.333    106848.94    3890.5438    5490.1225   -5524.4921    83.426975 
   79000    2076.9022   -105.18194    1.8792248   -103.30272   -33242.927    4.3802837    4.3802837    4.3802837   -33242.927   -38446.919   -68471.816    7189.9534   -8740.9325    -3574.316   -2255.5226    84.044003 
   79100    1506.8232   -104.66625    1.3634053   -103.30284   -16844.654    4.3845251    4.3845251    4.3845251   -16844.654   -65622.198   -86858.876    101947.11   -5276.9259    10541.256   -9377.1151    84.288373 
   79200    2458.0156   -105.50085    2.2240642   -103.27679    6073.5467    4.3760614    4.3760614    4.3760614    6073.5467   -22897.277   -50263.982    91381.899   -28513.101   -18444.996    40978.065    83.801194 
   79300    1651.6728   -104.76437    1.4944683    -103.2699   -48499.329    4.3689104    4.3689104    4.3689104   -48499.329   -55215.068   -118568.74    28285.824   -7834.5105     15350.83   -17546.739    83.391044 
   79400    2335.9113   -105.35873    2.1135816   -103.24515    32305.714    4.3593583    4.3593583    4.3593583    32305.714   -46822.766   -10345.444    154085.35    2374.1078    9934.6525    20703.734    82.845266 
   79500    1984.0137   -105.08005    1.7951773   -103.28487   -46216.862    4.3620426    4.3620426    4.3620426   -46216.862   -50891.085   -101451.69    13692.184    1002.9598   -4937.5485   -22290.408    82.998396 
   79600    2217.2678   -105.30323    2.0062305     -103.297    2564.2147     4.371128     4.371128     4.371128    2564.2147   -40915.541   -31862.031    80470.217    2942.2237    17190.862   -32078.947    83.518093 
   79700    1881.0253   -104.98756    1.7019912   -103.28557   -29925.345    4.3657237    4.3657237    4.3657237   -29925.345   -65098.514   -37690.598    13013.076   -77.601988    2506.3084    10702.653    83.208701 
   79800     2289.093   -105.34911    2.0712195   -103.27789    24933.251    4.3594866    4.3594866    4.3594866    24933.251   -29351.694   -24819.569    128971.02   -12751.382    9903.2509   -1786.1833    82.852583 
   79900    1369.1002   -104.57461    1.2387906   -103.33582   -15813.864    4.3627797    4.3627797    4.3627797   -15813.864   -76071.443   -44665.478     73295.33    4008.7212    4945.4699     22672.02    83.040478 
   80000    2236.0202   -105.33365    2.0231981   -103.31045    16883.025    4.3620058    4.3620058    4.3620058    16883.025     338.5818    905.77542    49404.719   -1470.8863   -7037.7248    10156.538    82.996295 
   80100    1832.6613   -104.96311    1.6582305   -103.30487   -21413.337    4.3641783    4.3641783    4.3641783   -21413.337   -80243.634    23486.523   -7482.9009    1791.1537    7367.8383   -7993.2022    83.120371 
   80200    1962.2126   -105.04234    1.7754512   -103.26689   -1574.3691    4.3719734    4.3719734    4.3719734   -1574.3691   -5965.4426   -12682.782    13925.117   -5775.5976   -4749.8551    20410.044    83.566562 
   80300    1757.6074   -104.84404    1.5903201   -103.25372   -962.17555    4.3665614    4.3665614    4.3665614   -962.17555   -44850.531   -7611.6639    49575.668    19954.026   -9504.6383    26605.002    83.256611 
   80400     2171.788   -105.21496    1.9650795   -103.24988    32867.094    4.3731776    4.3731776    4.3731776    32867.094   -21690.932    66787.337    53504.877   -8357.8466   -19554.993    32664.742     83.63563 
   80500    1399.8653   -104.50981    1.2666275   -103.24318   -24305.037    4.3832949    4.3832949    4.3832949   -24305.037   -86484.432   -47820.397    61389.719     30392.94   -35883.211     9848.598    84.217444 
   80600    2258.9921   -105.26902    2.0439835   -103.22504   -25301.351    4.3753311    4.3753311    4.3753311   -25301.351   -35931.122   -25260.423   -14712.507    18959.878    23897.541    12553.847    83.759251 
   80700    1753.4549    -104.8339    1.5865629   -103.24733    2453.4173    4.3649032    4.3649032    4.3649032    2453.4173   -47031.534    48215.929    6175.8562    4132.9893   -65365.003    18249.736    83.161793 
   80800    2203.0889   -105.24465    1.9934012   -103.25125   -5703.8751    4.3593147    4.3593147    4.3593147   -5703.8751    4128.8075   -48421.872    27181.439    12695.467    15013.279   -2457.8148    82.842781 
   80900    1778.4341   -104.88273    1.6091646   -103.27357   -1700.3207    4.3587214    4.3587214    4.3587214   -1700.3207    48111.343     18858.29   -72070.596     5027.973   -46507.579    14742.795    82.808961 
   81000    2415.3986   -105.47658    2.1855035   -103.29108    13175.077    4.3653191    4.3653191    4.3653191    13175.077    -24670.33    27337.367    36858.194    1595.1937    19888.388      4252.76    83.185568 
   81100    2139.3057   -105.21864    1.9356887   -103.28295   -26852.187    4.3790474    4.3790474    4.3790474   -26852.187   -30817.241   -16310.929   -33428.391   -6826.7858   -40173.007   -15732.189     83.97286 
   81200     1785.757   -104.87885    1.6157905   -103.26306   -11288.399    4.3700336    4.3700336    4.3700336   -11288.399   -11266.988   -9152.5835   -13445.625    18609.746   -13358.124    4635.3927    83.455378 
   81300    1889.0928   -104.96616    1.7092908   -103.25687    53741.657    4.3598331    4.3598331    4.3598331    53741.657    -29585.54    87309.893    103500.62   -14478.831   -15803.594   -7727.0897    82.872338 
   81400    2099.4658    -105.1886    1.8996407   -103.28896   -12947.042     4.370668     4.370668     4.370668   -12947.042   -37809.707   -25385.079     24353.66    19997.352   -33982.415   -7083.6843    83.491729 
   81500    2090.3386   -105.17497    1.8913823   -103.28359    3680.8574    4.3746827    4.3746827    4.3746827    3680.8574    6685.6589    35835.758   -31478.845    12775.527   -10225.187   -19271.058    83.722017 
   81600     1761.952   -104.89928    1.5942512   -103.30502   -2024.8127    4.3820454    4.3820454    4.3820454   -2024.8127   -27934.284    -9834.144     31693.99    24511.657   -30055.891    12053.348    84.145445 
   81700    1951.1717   -105.05506    1.7654611    -103.2896    31015.066    4.3884657    4.3884657    4.3884657    31015.066    38180.159    22891.589    31973.449    5831.7024    12772.912   -14819.524    84.515845 
   81800     1802.556   -104.90416    1.6309906   -103.27317   -28760.793    4.3876652    4.3876652    4.3876652   -28760.793   -18085.906   -11347.546   -56848.928    4642.0651   -50457.915    2890.3705    84.469602 
   81900    1984.8259   -105.05403    1.7959122   -103.25811    37777.866    4.3834629    4.3834629    4.3834629    37777.866   -2250.7737    7681.2955    107903.08    20707.048   -7589.2546    29794.776     84.22713 
   82000    1397.8022   -104.54932    1.2647608   -103.28455    4538.9204    4.3902951    4.3902951    4.3902951    4538.9204   -29284.594   -5894.1825    48795.538   -4987.5338   -58162.965   -8034.6449    84.621581 
   82100    3027.3719   -106.00727    2.7392297   -103.26804   -51315.574    4.4017651    4.4017651    4.4017651   -51315.574   -59338.097   -61290.805   -33317.821    13824.657    11257.795      18982.4    85.286558 
   82200     2136.978   -105.19809    1.9335826    -103.2645   -16005.013      4.39002      4.39002      4.39002   -16005.013   -32613.123   -24086.455    8684.5392    2202.7082   -31741.813   -198.54155    84.605673 
   82300    2152.4091   -105.19151     1.947545   -103.24396    29716.297    4.3771993    4.3771993    4.3771993    29716.297    21621.477    24398.301    43129.113    17874.882    18413.037   -7664.8011    83.866586 
   82400    1980.4223   -105.04927    1.7919277   -103.25734    2727.2798    4.3788899    4.3788899    4.3788899    2727.2798     9714.591    1180.3842   -2713.1358   -981.62664    -44231.24    2952.8253    83.963799 
   82500    1968.3267   -105.04518    1.7809834    -103.2642    23000.919    4.3890756    4.3890756    4.3890756    23000.919    61610.736   -18942.815    26334.836    16531.177     3669.067   -21239.842    84.551087 
   82600    1712.7635   -104.80529    1.5497444   -103.25554    -26124.05    4.3865676    4.3865676    4.3865676    -26124.05   -59660.024   -2626.9607   -16085.167    -5622.204   -23758.061   -4335.5902    84.406225 
   82700    2066.6453   -105.12181    1.8699441   -103.25187    24600.729    4.3661521    4.3661521    4.3661521    24600.729     4945.748   -5359.9786    74216.417   -3491.6933   -8490.4432   -1889.7289    83.233201 
   82800     1822.748    -104.9384    1.6492607   -103.28914    2084.9311    4.3731746    4.3731746    4.3731746    2084.9311    -24359.45    48607.873    -17993.63   -26578.459   -28267.006   -18796.793    83.635462 
   82900    1841.9981   -104.96027    1.6666786   -103.29359   -4210.2655    4.3887591    4.3887591    4.3887591   -4210.2655    -36521.93   -13516.947     37408.08   -9139.5624   -36073.048   -4230.7232    84.532795 
   83000    2022.1959    -105.1092    1.8297253   -103.27947    4545.4914    4.3908801    4.3908801    4.3908801    4545.4914    14252.158    9660.8613   -10276.545    9914.9897   -25451.478    7533.7567    84.655411 
   83100    1368.2302    -104.5382    1.2380034    -103.3002    22054.073    4.3957276    4.3957276    4.3957276    22054.073   -19508.096    63426.142    22244.172   -4861.6794   -17537.568   -16379.038    84.936101 
   83200    2159.5495   -105.26914    1.9540057   -103.31514   -7458.4161    4.3781966    4.3781966    4.3781966   -7458.4161   -28024.843    47173.445   -41523.851     25902.11    -37352.92     2387.592    83.923922 
   83300     1914.263   -105.05701    1.7320654   -103.32494    8473.3398    4.3529291    4.3529291    4.3529291    8473.3398   -43377.156    14920.072    53877.104    1342.2972   -29666.752    22305.379    82.479263 
   83400     2288.313   -105.41338    2.0705137   -103.34286    1138.6282    4.3591651    4.3591651    4.3591651    1138.6282   -46026.228    9881.9706    39560.142    2146.9865    1548.1403   -14087.306    82.834252 
   83500     1651.697   -104.85985    1.4944901   -103.36536   -34218.024    4.3942686    4.3942686    4.3942686   -34218.024   -58402.613   -11915.955   -32335.503   -4645.7735   -26603.351   -615.37864    84.851556 
   83600    1874.1361   -104.99625    1.6957577   -103.30049   -5325.7149    4.4026824    4.4026824    4.4026824   -5325.7149    18402.145    -73377.94     38998.65    -10124.01    5993.4349    9244.3397    85.339889 
   83700    1474.7817   -104.60275    1.3344135   -103.26834    11807.293     4.379809     4.379809     4.379809    11807.293     61705.75    30945.098   -57228.968    9065.7277   -32596.437   -3835.0134    84.016678 
   83800    2822.7048   -105.80396    2.5540426   -103.24991    21327.695    4.3524193    4.3524193    4.3524193    21327.695    51012.412   -12499.596    25470.268   -10235.647    24769.799   -8804.2669    82.450291 
   83900    1501.1133   -104.66687    1.3582389   -103.30863   -4225.2745    4.3544428    4.3544428    4.3544428   -4225.2745     19671.76    16439.382   -48786.966     12912.19    -38371.32    12615.039    82.565338 
   84000    2349.9983   -105.44618    2.1263279   -103.31985    4454.9037    4.3730214    4.3730214    4.3730214    4454.9037    48139.934   -22822.182   -11953.041    1066.1618    -9395.258    -14461.64    83.626668 
   84100    1765.3961   -104.87959    1.5973675   -103.28222    44426.066    4.3827387    4.3827387    4.3827387    44426.066    71340.028    73142.116   -11203.946   -6497.3379   -14881.075    2145.0595    84.185392 
   84200    1230.0463   -104.37818    1.1129717   -103.26521   -3226.8457    4.3930168    4.3930168    4.3930168   -3226.8457    15666.222    34570.246   -59917.005   -3823.3881   -9284.9079   -12678.147    84.779059 
   84300    2657.8393   -105.62906    2.4048689   -103.22419   -19344.584    4.3878163    4.3878163    4.3878163   -19344.584   -17482.141   -8002.2125   -32549.399   -27003.566    -9624.667    4386.2072    84.478326 
   84400    1547.7193   -104.63813     1.400409   -103.23772     23255.25    4.3558148    4.3558148    4.3558148     23255.25    60270.344     28003.64   -18508.233    14088.313   -29511.514   -426.52982    82.643408 
   84500    1564.5819   -104.70268    1.4156666   -103.28701    13168.075    4.3469808    4.3469808    4.3469808    13168.075    8657.1986    14998.935    15848.091    14480.402    33501.374   -3828.9019    82.141601 
   84600    2539.9893   -105.64402    2.2982357   -103.34578   -9647.7535     4.365076     4.365076     4.365076   -9647.7535    36858.376   -5762.2016   -60039.434   -13058.272   -38613.556   -5336.6674     83.17167 
   84700    1572.3435    -104.7685    1.4226894   -103.34581    -42391.91    4.3968397    4.3968397    4.3968397    -42391.91   -8350.7571   -78039.895   -40785.078    20988.027    18242.541   -4711.9787     85.00058 
   84800    2083.3525   -105.17247    1.8850611   -103.28741   -57538.206    4.3934601    4.3934601    4.3934601   -57538.206   -34397.361    -108388.9   -29828.352   -44429.884   -17387.673   -656.94559    84.804725 
   84900    2622.3803   -105.61972    2.3727848   -103.24694   -4962.2525    4.3750792    4.3750792    4.3750792   -4962.2525   -15600.793   -36765.438    37479.473    21509.365   -16849.844   -15085.192    83.744784 
   85000    1371.2315   -104.50959    1.2407191   -103.26887    -12287.77    4.3690266    4.3690266    4.3690266    -12287.77    21911.312   -60872.236    2097.6142   -48029.287    533.54629   -1618.5098    83.397701 
   85100    2340.1379   -105.38992    2.1174059   -103.27252    19742.439    4.3766644    4.3766644    4.3766644    19742.439    50020.361   -4175.7007    13382.655    26451.055     -21830.2    2292.6546    83.835846 
   85200    993.72196   -104.18187   0.89914051   -103.28272   -2172.7068    4.3965187    4.3965187    4.3965187   -2172.7068    3704.4053   -14922.611    4700.0854   -10045.675    16370.691    2115.0703    84.981965 
   85300    1874.4081    -104.9004    1.6960038   -103.20439    36906.301    4.3910668    4.3910668    4.3910668    36906.301    61342.307    -31459.17    80835.766    15170.509    -27382.89   -4134.6647    84.666213 
   85400    1994.0058   -105.01091    1.8042184   -103.20669   -16731.302    4.3844429    4.3844429    4.3844429   -16731.302   -43505.588   -46126.155    39437.838   -38360.369    15259.926    15510.973    84.283635 
   85500    2953.5764   -105.87505     2.672458   -103.20259   -14220.065    4.3787597    4.3787597    4.3787597   -14220.065   -1094.8257    4915.0422   -46480.413    32078.978   -2363.4702    22509.101    83.956307 
   85600    1497.5953   -104.57594    1.3550557   -103.22089    35763.969    4.3673963    4.3673963    4.3673963    35763.969    58088.649   -18010.011    67213.269   -43553.211   -20503.682    11084.161    83.304372 
   85700    2521.3957   -105.53623    2.2814118   -103.25482   -23834.066     4.383806     4.383806     4.383806   -23834.066    -32350.15   -15963.334   -23188.714    9430.0003   -23144.267    -14867.97    84.246912 
   85800    1523.3321   -104.66746    1.3783429   -103.28912   -14280.218     4.380336     4.380336     4.380336   -14280.218   -25684.381    11558.585   -28714.859   -25547.531   -44390.019    15360.991    84.047013 
   85900    2133.0916   -105.19696    1.9300661    -103.2669    21363.331    4.3614631    4.3614631    4.3614631    21363.331    42033.327    48320.044   -26263.377    7368.8745    12685.477    5914.3473    82.965324 
   86000    1766.8388   -104.91231    1.5986729   -103.31363   -21473.323     4.363513     4.363513     4.363513   -21473.323   -5512.9292   -39834.693   -19072.348   -19149.959   -40032.041    5427.7032    83.082358 
   86100    2041.6634   -105.18036    1.8473399   -103.33302     -25564.1    4.3584572    4.3584572    4.3584572     -25564.1    1668.2305   -36195.029   -42165.502   -41194.163   -3094.2916    7645.4635    82.793902 
   86200    2513.1816   -105.59869    2.2739795   -103.32471    5747.0073    4.3591565    4.3591565    4.3591565    5747.0073    7245.8831    19976.432    -9981.293    23286.004   -32727.457   -9337.6171    82.833764 
   86300     1129.141    -104.3684    1.0216705   -103.34673   -30253.123    4.3714808    4.3714808    4.3714808   -30253.123    63733.185   -104946.36   -49546.193   -39740.313    2362.3434    28659.806    83.538317 
   86400    2048.6128   -105.17074    1.8536279   -103.31711     42430.94      4.37385      4.37385      4.37385     42430.94    42594.879    67222.051    17475.889    31011.086    5817.5948   -15268.572    83.674215 
   86500    1869.6542   -105.00628    1.6917024   -103.31457    10337.048    4.3764888    4.3764888    4.3764888    10337.048    19801.345     10638.22    571.57951   -10234.027    3691.2801    12758.124    83.825754 
   86600    1957.2803   -105.07309    1.7709883    -103.3021   -11519.721    4.3887755    4.3887755    4.3887755   -11519.721   -22003.833    12381.809   -24937.138   -2986.5093   -4994.3539    663.66723    84.533744 
   86700    1864.1492   -104.96046    1.6867213   -103.27374    14093.366    4.3865522    4.3865522    4.3865522    14093.366    5722.3917    72794.596    -36236.89   -13253.827    3785.1576    631.99209    84.405338 
   86800    1477.0166   -104.62479    1.3364357   -103.28836   -367.42953    4.3656158    4.3656158    4.3656158   -367.42953    17735.915   -6416.4803   -12421.723   -22040.633   -2601.1638    10819.978    83.202534 
   86900     2832.779    -105.8465     2.563158   -103.28334   -9499.9739    4.3588123    4.3588123    4.3588123   -9499.9739   -34743.363    11958.345    -5714.904   -2119.7063   -11861.402   -7247.9015     82.81414 
   87000    1595.2052   -104.77377    1.4433752    -103.3304   -7552.6847    4.3634326    4.3634326    4.3634326   -7552.6847   -14153.378    6007.7752   -14512.451   -42676.664   -954.07118    14039.136     83.07777 
   87100    2435.0741   -105.52601    2.2033062    -103.3227   -3091.0201    4.3624297    4.3624297    4.3624297   -3091.0201    -13342.69    71778.028   -67708.398    39488.837     16303.17    905.31295    83.020494 
   87200    1727.6281   -104.90334    1.5631942   -103.34014   -3957.7639    4.3588917    4.3588917    4.3588917   -3957.7639   -45531.793    37504.685   -3846.1834    -26279.69    5502.7759    11838.845    82.818669 
   87300    1881.8572   -105.04644    1.7027439    -103.3437    17510.622     4.359448     4.359448     4.359448    17510.622    47349.438     67777.49   -62595.061    10267.529    11824.821   -324.04744    82.850382 
   87400    2030.2356   -105.17115    1.8369998   -103.33415   -27915.568    4.3719348    4.3719348    4.3719348   -27915.568   -22025.571   -40719.757   -21001.377   -65130.004   -9492.6868   -12432.976    83.564348 
   87500     2155.008   -105.26152    1.9498965   -103.31162    16236.704    4.3693098    4.3693098    4.3693098    16236.704    25178.415    58574.892   -35043.194    12845.025   -4116.6464    14814.998    83.413917 
   87600    1842.4418   -104.97235      1.66708   -103.30527   -17568.106    4.3709887    4.3709887    4.3709887   -17568.106   -24180.233   -17837.586   -10686.499   -32649.786   -13918.775   -3532.7773    83.510107 
   87700    2147.1362   -105.25006    1.9427739   -103.30729   -40320.709    4.3803362    4.3803362    4.3803362   -40320.709   -40608.332   -61172.445   -19181.351   -25365.609    6817.9354    13477.389    84.047023 
   87800    2660.2557   -105.69883    2.4070553   -103.29178   -17215.572    4.3725595    4.3725595    4.3725595   -17215.572   -2338.5631    24531.561   -73839.714    6748.4898    13478.629    16048.725    83.600172 
   87900    1497.8657   -104.67007    1.3553003   -103.31477    11987.799    4.3628599    4.3628599    4.3628599    11987.799   -18265.713    48698.073    5531.0367   -35406.342   -1202.0353   -3523.3743    83.045059 
   88000    1822.0168   -104.95963    1.6485991   -103.31103    36249.917    4.3776048    4.3776048    4.3776048    36249.917    170159.91   -36674.807   -24735.348    17551.033     -7537.57    6530.3111    83.889893 
   88100    1592.7878    -104.7466    1.4411879   -103.30541   -54939.296    4.3911711    4.3911711    4.3911711   -54939.296    -51561.13   -91632.656   -21624.103   -82837.018   -7794.2933    10717.195    84.672244 
   88200     2955.857   -105.92272    2.6745215    -103.2482   -8066.1333    4.3835651    4.3835651    4.3835651   -8066.1333    30648.661   -11474.864   -43372.197    12367.449   -12913.991    6625.1392    84.233021 
   88300    2058.3526   -105.12713    1.8624407   -103.26469   -46121.387    4.3838725    4.3838725    4.3838725   -46121.387   -41315.246   -94922.269   -2126.6475   -80320.419    -25486.61    899.68673    84.250742 
   88400    1966.7521   -105.03646    1.7795586   -103.25691    34433.074    4.3767749    4.3767749    4.3767749    34433.074    105618.16     39212.08    -41531.02    19062.846   -10513.886    9052.7954    83.842192 
   88500    1493.9914   -104.63746    1.3517948   -103.28566    11038.635    4.3708796    4.3708796    4.3708796    11038.635    53173.084   -38987.189    18930.009   -44001.832   -22815.871   -8105.8393    83.503857 
   88600    2871.7808   -105.88574    2.5984476   -103.28729   -8892.3484     4.377962     4.377962     4.377962   -8892.3484   -4496.0695    1110.6992   -23291.675   -9337.3643    2731.7716    10652.898    83.910431 
   88700    1371.2905   -104.53929    1.2407724   -103.29852   -2309.9415    4.3912592    4.3912592    4.3912592   -2309.9415    10431.615   -25673.937    8312.4977   -28987.196    300.64499   -24401.057    84.677345 
   88800    2474.0849   -105.51994     2.238604   -103.28133   -16331.344    4.3930552    4.3930552    4.3930552   -16331.344    38022.452   -51083.443    -35933.04   -24715.455    11165.312    19434.574    84.781283 
   88900    2390.0404   -105.42693    2.1625588   -103.26437   -25435.751    4.3922354    4.3922354    4.3922354   -25435.751   -28664.311   -23554.019   -24088.924   -20973.439    10433.649    1427.8424    84.733826 
   89000    1765.8455   -104.85436    1.5977741   -103.25659   -14521.974    4.3863702    4.3863702    4.3863702   -14521.974   -33581.179    4856.7418   -14841.486   -31337.235    8527.7676   -5466.5613    84.394829 
   89100    2308.0107   -105.34633    2.0883366   -103.25799    15348.658    4.3798313    4.3798313    4.3798313    15348.658    -50670.22    49654.545    47061.648   -10488.926    9124.7686   -13894.208    84.017963 
   89200    1677.4037    -104.7996    1.5177501   -103.28185   -4035.9244    4.3951052    4.3951052    4.3951052   -4035.9244   -21634.138   -19113.008    28639.373    4045.7678    3104.5955   -15408.319    84.900024 
   89300    1760.9747   -104.84682    1.5933669   -103.25346   -9068.5515    4.3979085    4.3979085    4.3979085   -9068.5515   -5726.4453    16767.474   -38246.683    36916.806   -458.43829    16730.482    85.062586 
   89400    2087.9902    -105.1281    1.8892574   -103.23884   -27774.939    4.3830435    4.3830435    4.3830435   -27774.939   -16509.917   -57431.712   -9383.1895   -61648.385   -8194.8125   -6051.4881    84.202959 
   89500    2247.9672    -105.2817    2.0340079   -103.24769    28292.789    4.3842898    4.3842898    4.3842898    28292.789    47669.609   -22071.689    59280.448    15980.049    19972.857   -13708.392    84.274808 
   89600    1048.9103   -104.21854   0.94907609   -103.26946     8972.305    4.3950935    4.3950935    4.3950935     8972.305    7977.4022    20326.833   -1387.3207   -28547.502    4839.1827    5995.9301    84.899348 
   89700    2677.3939   -105.65172    2.4225623   -103.22916   -7805.5937    4.4020724    4.4020724    4.4020724   -7805.5937   -24467.426   -11999.101    13049.746    3567.6036    5157.1491   -4603.1235    85.304423 
   89800    1880.9297   -104.93606    1.7019047   -103.23416   -59122.188    4.4005868    4.4005868    4.4005868   -59122.188   -104262.23   -71037.079   -2067.2607   -51875.139    22233.996    23535.888    85.218086 
   89900    2220.4567   -105.22185    2.0091159   -103.21273    12756.358    4.3799339    4.3799339    4.3799339    12756.358   -23194.354    30896.087     30567.34      10044.7   -4950.5285   -5916.5255    84.023865 
   90000    2276.2706   -105.29911    2.0596175   -103.23949    2432.1909    4.3676372    4.3676372    4.3676372    2432.1909   -40590.109   -12107.764    59994.446   -40567.771    11663.115   -11641.372    83.318159 
   90100    1584.9768   -104.72796    1.4341203   -103.29384    2665.2695    4.3784693    4.3784693    4.3784693    2665.2695   -51352.469    72770.585   -13422.307   -2092.0071   -21123.353   -1535.7922    83.939609 
   90200    2062.3759   -105.15979     1.866081   -103.29371   -6033.1137    4.3880186    4.3880186    4.3880186   -6033.1137   -31014.345   -55682.958    68597.962   -8749.1686    10462.619    7660.4076    84.490014 
   90300    1579.0824   -104.73195    1.4287869   -103.30316   -30402.144    4.3786536    4.3786536    4.3786536   -30402.144   -61671.274   -8541.9944   -20993.164   -52493.682   -12086.265   -11781.312    83.950204 
   90400    2260.9387   -105.32766    2.0457449   -103.28191    52451.754    4.3546174    4.3546174    4.3546174    52451.754    105628.07   -926.55003    52653.744    29203.881    8051.8584    1107.2292    82.575274 
   90500    1642.1791   -104.81231    1.4858782   -103.32643   -18898.884    4.3624639    4.3624639    4.3624639   -18898.884   -49614.515   -17314.639    10232.501   -45894.114   -12227.801   -11892.518    83.022451 
   90600    2661.4169   -105.73054    2.4081059   -103.32243    -14720.77    4.3855924    4.3855924    4.3855924    -14720.77    -35595.98    10360.222   -18926.552    22307.745   -185.26466    14334.929    84.349941 
   90700     1421.128   -104.59067    1.2858665    -103.3048   -13700.627    4.4059979    4.4059979    4.4059979   -13700.627   -5333.1669   -40383.508    4614.7942    -26820.78   -7332.5535   -510.36042    85.532833 
   90800    2463.0373   -105.47138    2.2286079   -103.24277   -29614.967    4.4109333    4.4109333    4.4109333   -29614.967   -73878.454    2635.7651   -17602.213    2029.2276   -14470.891   -13934.674    85.820586 
   90900    1913.6652   -104.97546    1.7315245   -103.24394   -11334.448    4.3769825    4.3769825    4.3769825   -11334.448    8371.8021   -24099.658   -18275.487   -6971.0315    5501.7457     4618.674    83.854125 
   91000    1814.1294   -104.89886    1.6414624    -103.2574    44181.178    4.3430853    4.3430853    4.3430853    44181.178   -25689.756    32282.665    125950.62   -3497.0983   -24919.592    25164.497    81.920966 
   91100    1998.3456   -105.12601    1.8081451   -103.31786    38652.622    4.3498388    4.3498388    4.3498388    38652.622    4655.8389    12763.413    98538.615   -14214.267    3989.6253    7498.1051    82.303724 
   91200    2018.0291   -105.18086    1.8259552    -103.3549   -20988.878    4.3906345    4.3906345    4.3906345   -20988.878   -76795.762     12197.56    1631.5695    2169.0027   -11635.773    4221.8172    84.641209 
   91300     1942.194   -105.04118    1.7573379   -103.28384   -8287.8319    4.4073321    4.4073321    4.4073321   -8287.8319   -26260.422    40716.002   -39319.076   -7079.3714    8310.7134     3403.596    85.610561 
   91400    1517.4667   -104.61972    1.3730357   -103.24668    13778.629    4.3789549    4.3789549    4.3789549    13778.629   -75440.503     71753.78    45022.612   -1830.1548    19508.656   -2391.3232    83.967539 
   91500    2408.0732   -105.40704    2.1788752   -103.22816    41013.769    4.3418506    4.3418506    4.3418506    41013.769    55751.759    61146.859    6142.6898    2119.3489   -11924.944    17436.102    81.851118 
   91600    1339.1529   -104.51817    1.2116937   -103.30648    2872.6442    4.3347327    4.3347327    4.3347327    2872.6442   -24042.719    -12172.47    44833.122   -22221.735    22924.776   -9047.3093    81.449224 
   91700    2665.2084    -105.7545    2.4115365   -103.34297    8276.5972    4.3652495    4.3652495    4.3652495    8276.5972    13499.414    11253.963    76.414303    22993.222    912.13884     19542.94    83.181587 
   91800    1747.2548   -104.91542    1.5809528   -103.33447   -30453.324    4.4003209    4.4003209    4.4003209   -30453.324   -47262.944   -38588.372   -5508.6549   -40476.008    23684.008   -298.79719    85.202639 
   91900    1841.9795   -104.93401    1.6666618   -103.26734   -41396.407    4.4003699    4.4003699    4.4003699   -41396.407   -28394.843   -80669.615   -15124.764   -6587.1422    19118.893   -1545.6775    85.205488 
   92000    2505.4772   -105.52367    2.2670085   -103.25666    9018.8953    4.3484224    4.3484224    4.3484224    9018.8953    52645.801   -5015.5633   -20573.551   -17554.087   -8783.1085    21303.534     82.22335 
   92100    2084.2294   -105.16606    1.8858546   -103.28021    34481.558    4.3240682    4.3240682    4.3240682    34481.558    48901.392    19262.502     35280.78   -30261.221    25493.588   -9852.2496    80.849549 
   92200    2225.3251   -105.36316    2.0135209   -103.34964   -25945.991    4.3510758    4.3510758    4.3510758   -25945.991    21550.568    -54326.17   -45062.371    17648.198    -6546.449    49973.433    82.373963 
   92300    1842.4726   -105.01922    1.6671079   -103.35211   -934.96812     4.380209     4.380209     4.380209   -934.96812    40500.472   -50682.441    7377.0646   -28065.556   -8244.8508     832.2468    84.039701 
   92400    2138.0075    -105.2416    1.9345141   -103.30708   -6336.0937    4.3984446    4.3984446    4.3984446   -6336.0937    16850.519      1138.04    -36996.84    10940.707   -4263.1902    21082.122    85.093694 
   92500    1742.2887   -104.84447    1.5764594   -103.26801   -12582.089    4.3894705    4.3894705    4.3894705   -12582.089    4458.4211   -79764.595    37559.906   -33439.722   -16231.027   -2133.4784     84.57391 
   92600    1791.2307   -104.87918    1.6207432   -103.25843   -14428.851    4.3477741    4.3477741    4.3477741   -14428.851   -1623.8525    2889.1915   -44551.891   -14199.396    45672.055    8324.3205     82.18658 
   92700    2407.5729   -105.43387    2.1784225   -103.25544    71038.303    4.3257969    4.3257969    4.3257969    71038.303    99266.237    30119.479    83729.191    6481.4678   -22220.069   -10218.717    80.946555 
   92800    1592.1016     -104.782     1.440567   -103.34143   -16054.536    4.3604129    4.3604129    4.3604129   -16054.536    5290.3475   -38473.521   -14980.434   -22095.056    51087.886   -2427.7854    82.905405 
   92900    1883.4689   -104.99346    1.7042022   -103.28925   -4190.1133    4.3926211    4.3926211    4.3926211   -4190.1133    67970.389   -64362.646   -16178.084   -1831.6293    8746.4933    25256.724    84.756154 
   93000    1778.9576   -104.85542    1.6096382   -103.24578   -1604.3652    4.3955505    4.3955505    4.3955505   -1604.3652    46988.193   -829.75253   -50971.536   -17541.382    17643.124   -11908.789    84.925835 
   93100    2363.6167   -105.34605      2.13865    -103.2074   -5372.1136    4.3921444    4.3921444    4.3921444   -5372.1136   -19686.811   -12584.231    16154.701   -13224.551    17050.837    5406.8214    84.728559 
   93200    1546.1549   -104.64681    1.3989934   -103.24782    16902.378    4.3606777    4.3606777    4.3606777    16902.378    132412.25   -33639.792   -48065.319   -7681.2227    2593.4506   -19823.412    82.920512 
   93300    1763.7643   -104.89087     1.595891   -103.29498    36919.155    4.3386515    4.3386515    4.3386515    36919.155    74382.403     19955.01    16420.054   -12725.367    57530.633   -1163.4628    81.670331 
   93400     2113.197    -105.2664     1.912065   -103.35434   -7635.7335    4.3665256    4.3665256    4.3665256   -7635.7335    27647.276   -12036.649   -38517.827    17819.842   -55202.364   -28456.868     83.25456 
   93500    1634.5261   -104.80972    1.4789535   -103.33077   -48497.014    4.3948433    4.3948433    4.3948433   -48497.014   -33459.593   -24265.325   -87766.124   -4127.3413    48824.159   -9529.2582    84.884849 
   93600    1975.9381   -105.08058    1.7878703   -103.29271   -6597.5497    4.3826398    4.3826398    4.3826398   -6597.5497   -6467.4097   -6801.3073   -6523.9322   -23074.596   -24169.401    40.248314    84.179694 
   93700    1680.0626   -104.80959     1.520156   -103.28944     28497.16    4.3575212    4.3575212    4.3575212     28497.16   -1153.9395     92132.93   -5487.5113    23081.126     16364.95   -15283.122    82.740572 
   93800    1799.8136   -104.92409    1.6285092   -103.29558    19819.032    4.3514639    4.3514639    4.3514639    19819.032    -5225.338    45553.589    19128.846   -15644.163   -22558.946     12062.86    82.396007 
   93900    2304.2902   -105.38237    2.0849702    -103.2974   -2338.6867    4.3752747    4.3752747    4.3752747   -2338.6867    36186.933   -14592.359   -28610.634    6288.8973   -80.576444   -17651.467    83.756008 
   94000    2208.0484   -105.26493    1.9978886   -103.26705   -47650.292    4.4052476    4.4052476    4.4052476   -47650.292   -34623.105   -57970.617   -50357.155   -36054.203   -11285.294    21697.248    85.489147 
   94100    1210.3509   -104.34419    1.0951509   -103.24904   -37257.725    4.3857871    4.3857871    4.3857871   -37257.725    893.35561   -76906.473   -35760.059   -10133.304    -44353.24    8294.9634    84.361176 
   94200    2927.4293   -105.85089    2.6487996   -103.20209    35325.292    4.3521745    4.3521745    4.3521745    35325.292    125712.07    6104.5485   -25840.738    12130.381    29267.459    2836.5812    82.436378 
   94300    1238.8866   -104.40923    1.1209706   -103.28826    -15828.17    4.3594401    4.3594401    4.3594401    -15828.17   -42699.153    22671.457   -27456.815   -25960.798   -34398.724    4049.6657    82.849931 
   94400    2730.9037   -105.77919     2.470979   -103.30821   -13961.613    4.3842553    4.3842553    4.3842553   -13961.613   -7695.2647    6730.0024   -40919.576    18222.933    17350.791    9732.1504    84.272818 
   94500    1456.0181   -104.60937    1.3174357   -103.29194   -23301.261    4.4001488    4.4001488    4.4001488   -23301.261   -65031.184   -24586.596    19713.997   -10762.208   -28555.565    13934.136    85.192643 
   94600     2024.138   -105.07718    1.8314826   -103.24569   -16031.545    4.3771237    4.3771237    4.3771237   -16031.545   -42514.616   -16352.621    10772.602   -4266.1418    -14781.56    5139.6546    83.862243 
   94700    2076.9202    -105.1328    1.8792411   -103.25356   -15845.441    4.3544357    4.3544357    4.3544357   -15845.441   -65761.942   -25669.979    43895.599   -22904.156    34195.146    4314.0027    82.564936 
   94800    1951.7505   -105.06992    1.7659848   -103.30394    13276.184    4.3538626    4.3538626    4.3538626    13276.184   -16965.086   -4799.2502    61592.889    9147.5923   -60182.669    -7893.654    82.532337 
   94900    1628.1403   -104.80356    1.4731755   -103.33039   -36504.538    4.3792598    4.3792598    4.3792598   -36504.538   -99347.183   -11980.461    1814.0311   -15000.927    53596.121    4255.3775    83.985078 
   95000    2240.7326   -105.30875     2.027462   -103.28129   -1197.5398    4.3913187    4.3913187    4.3913187   -1197.5398   -16730.033      16798.1   -3660.6869    4312.6177   -23361.661   -6309.6691    84.680782 
   95100    1778.6791   -104.86746    1.6093863   -103.25807    883.48626    4.3903817    4.3903817    4.3903817    883.48626   -21994.924   -40783.036    65428.419   -14827.131    13970.645     8293.583    84.626588 
   95200    2372.4571   -105.40018    2.1466491   -103.25353   -24627.093    4.3922913    4.3922913    4.3922913   -24627.093   -74569.782   -11644.051    12332.555    17404.511   -13790.887    2981.6285    84.737063 
   95300    2046.8906   -105.10937    1.8520696    -103.2573   -3553.1006    4.3841334    4.3841334    4.3841334   -3553.1006   -11162.395     9738.232   -9235.1388   -10405.434    48522.192    10468.792    84.265785 
   95400    2166.3938   -105.21618    1.9601987   -103.25598   -13522.483    4.3808064    4.3808064    4.3808064   -13522.483   -40344.751   -42788.252    42565.554    35424.437   -1503.3378   -6282.0301    84.074089 
   95500    2231.5731   -105.26769    2.0191742   -103.24852   -31834.098    4.3870585    4.3870585    4.3870585   -31834.098   -35799.597    -45714.08   -13988.617     18169.22    25177.965   -7368.8036    84.434569 
   95600    2252.5941   -105.29066    2.0381945   -103.25246   -21188.991    4.3812161    4.3812161    4.3812161   -21188.991   -4645.5911   -17675.705   -41245.677    9298.3733    19968.111    6358.1124    84.097681 
   95700    1543.4827   -104.66919    1.3965756   -103.27262    6667.9306    4.3831541    4.3831541    4.3831541    6667.9306    81423.734   -46817.454   -14602.488    24523.068    7293.6281    4094.0139     84.20933 
   95800    1977.2714   -105.04141    1.7890767   -103.25233    25711.023    4.3871555    4.3871555    4.3871555    25711.023    114808.71   -27013.647   -10661.991   -8039.4906    17088.611   -8575.2989    84.440167 
   95900    1473.2482   -104.59081    1.3330259   -103.25778   -5365.2085    4.3825449    4.3825449    4.3825449   -5365.2085    17094.771   -66740.653    33550.256    43506.731   -16876.879    5285.6904    84.174222 
   96000    2508.7038   -105.51394    2.2699279   -103.24401   -3400.2146    4.3855182    4.3855182    4.3855182   -3400.2146    28710.349     9884.468    -48795.46   -16056.506    42657.534   -13417.272    84.345661 
   96100    2103.7574   -105.16239    1.9035239   -103.25886   -41847.983    4.3899879    4.3899879    4.3899879   -41847.983   -61056.345   -44356.021   -20131.584    43310.694   -2859.0965    6466.8345    84.603819 
   96200    1982.8766   -105.05344    1.7941484   -103.25929   -36608.226    4.3948131    4.3948131    4.3948131   -36608.226    32941.555   -100287.48    -42478.75   -31507.293   -4123.0766    6591.0464    84.883102 
   96300    2189.8253   -105.22609    1.9813999   -103.24469     955.8519    4.3929753    4.3929753    4.3929753     955.8519    40889.937   -13104.583   -24917.798    10279.631   -21405.176   -3636.3485    84.776654 
   96400    1576.3832    -104.6815    1.4263447   -103.25516    19692.692    4.3861394    4.3861394    4.3861394    19692.692    92635.103   -33922.272    365.24392    3625.5965    3736.4692   -4171.4208    84.381508 
   96500    1994.0267   -105.05609    1.8042373   -103.25186    28986.077    4.3891097    4.3891097    4.3891097    28986.077    91560.739    16680.122   -21282.629    15133.822    551.95515    7896.0572    84.553053 
   96600    1847.4549   -104.94072     1.671616    -103.2691   -16398.169    4.3972105    4.3972105    4.3972105   -16398.169    23240.961   -43551.198   -28884.269   -6082.9568   -8544.6131   -13432.425    85.022086 
   96700    1470.1975   -104.60324    1.3302656   -103.27297   -3642.1814     4.388422     4.388422     4.388422   -3642.1814    43693.384   -83494.637    28874.708   -13712.974    22811.381   -447.13224    84.513319 
   96800    2338.7432   -105.37255     2.116144   -103.25641   -9918.6643    4.3769706    4.3769706    4.3769706   -9918.6643    11173.624    19820.764   -60750.381     14030.66   -5382.0056   -17439.945    83.853442 
   96900    1495.7113    -104.6685     1.353351   -103.31515    -29462.46    4.3693943    4.3693943    4.3693943    -29462.46   -3630.5064   -30929.026   -53827.849   -32919.602    7746.6828   -10530.139    83.418756 
   97000    2330.0359   -105.45171    2.1082655   -103.34345    4461.1017    4.3609327    4.3609327    4.3609327    4461.1017    22973.345     9304.337   -18894.377    15897.795   -5148.1828   -1993.4134    82.935059 
   97100    2132.5609   -105.29401    1.9295859   -103.36443    319.26786     4.370451     4.370451     4.370451    319.26786    91538.526   -44491.851   -46088.871   -21097.418    4973.0644   -6607.1877    83.479296 
   97200     698.5749   -103.99383   0.63208525   -103.36174    -17824.29    4.3838636    4.3838636    4.3838636    -17824.29   -20562.973   -20835.287   -12074.611    22117.282   -114.76317    4043.6597     84.25023 
   97300    2622.9396   -105.67417    2.3732909   -103.30087    12476.861    4.3655232    4.3655232    4.3655232    12476.861    17671.505     32537.48   -12778.401    12995.523   -8065.4131    8467.2746    83.197236 
   97400     1822.922   -104.97015    1.6494181   -103.32073   -32321.515    4.3685217    4.3685217    4.3685217   -32321.515   -63831.682   -30837.402   -2295.4603   -40507.855    11222.955    20796.441    83.368788 
   97500    2140.1323   -105.24328    1.9364366   -103.30684   -21120.037    4.3741379    4.3741379    4.3741379   -21120.037    -16018.14   -24988.173   -22353.798    26083.852   -6414.6774    7484.9763    83.690739 
   97600    1912.7651   -105.03548    1.7307101   -103.30477    8857.5405    4.3559611    4.3559611    4.3559611    8857.5405    46483.221    26172.992   -46083.591   -10888.418   -2557.6732    11781.568    82.651738 
   97700    1250.5257   -104.46539    1.1315019   -103.33389    17047.689    4.3529178    4.3529178    4.3529178    17047.689   -5627.4987    65322.474   -8551.9095   -4391.7551    7013.4237    16671.826    82.478624 
   97800    1737.5708   -104.91828    1.5721906   -103.34609    52040.234    4.3539882    4.3539882    4.3539882    52040.234      78251.3    115135.13    -37265.73   -7782.3969   -2272.6299   -28646.007    82.539483 
   97900    1785.9294   -104.99514    1.6159465    -103.3792   -11104.174    4.3659225    4.3659225    4.3659225   -11104.174    2733.0053    9125.8321    -45171.36   -40671.276   -2288.5703    17109.215    83.220065 
   98000    2123.6035   -105.28012     1.921481   -103.35864   -13331.168    4.3765126    4.3765126    4.3765126   -13331.168    37638.016   -7622.0618    -70009.46    25929.755    4753.3112   -20308.858    83.827122 
   98100    2176.8565   -105.31843    1.9696655   -103.34876   -24391.555    4.3634158    4.3634158    4.3634158   -24391.555   -1931.4223   -43139.255   -28103.988    -21831.43     9723.644    312.11001    83.076806 
   98200    2143.8194   -105.28231    1.9397728   -103.34253    3293.6704    4.3448581    4.3448581    4.3448581    3293.6704   -13466.225    31903.174   -8555.9371   -54263.325   -3849.1084    10825.396    82.021327 
   98300    2829.7505   -105.88956    2.5604177   -103.32914    31507.339    4.3353597    4.3353597    4.3353597    31507.339    27806.655    99663.839   -32948.477    2672.6513   -788.69578   -14209.809    81.484575 
   98400    599.26936   -103.92949   0.54223151   -103.38725   -30193.124    4.3502398    4.3502398    4.3502398   -30193.124   -37724.869   -63609.075    10754.573   -74806.431   -514.18679    27475.044     82.32649 
   98500    2279.6812   -105.41822    2.0627034   -103.35551    34308.956     4.363308     4.363308     4.363308    34308.956    17151.414    144296.02   -58520.567    32031.625   -1230.9547   -4168.1064    83.070653 
   98600    2237.4043   -105.37902    2.0244505   -103.35457    1549.2537    4.3617515    4.3617515    4.3617515    1549.2537     14184.25    10765.328   -20301.816   -66777.633    5781.2952    6059.3786     82.98178 
   98700    2083.4206   -105.22343    1.8851228    -103.3383     2355.703    4.3562337    4.3562337    4.3562337     2355.703    17412.732   -7677.1467   -2668.4767   -7528.9811   -452.54546    20237.751    82.667256 
   98800    1936.6536   -105.07239    1.7523249   -103.32007    13345.296    4.3639903    4.3639903    4.3639903    13345.296   -14594.285    39454.286    15175.887   -16264.682   -8386.8279   -16935.504    83.109629 
   98900    2112.5752   -105.21258    1.9115024   -103.30107   -18680.399    4.3671811    4.3671811    4.3671811   -18680.399     44398.93   -76951.457   -23488.669   -33946.082    4960.8903    30353.754    83.292059 
   99000    2037.0754   -105.11595    1.8431886   -103.27276    10830.813    4.3719747    4.3719747    4.3719747    10830.813    16886.275    46765.753    -31159.59    17170.319   -8804.7802   -17686.631    83.566633 
   99100    1427.2422    -104.5861    1.2913988    -103.2947   -8561.7124    4.3682274    4.3682274    4.3682274   -8561.7124    21200.461    -58018.86    11133.262   -40792.039    1090.1508    22915.085     83.35194 
   99200    2724.8013    -105.7681    2.4654575   -103.30264   -271.22326    4.3723698    4.3723698    4.3723698   -271.22326    18891.814   -16070.763   -3634.7208    1796.1296    4126.4835    4451.1892    83.589294 
   99300    1661.4997   -104.83431    1.5033598   -103.33095   -25676.297    4.3752389    4.3752389    4.3752389   -25676.297   -34541.862   -6270.4543   -36216.576   -51972.058   -1177.3032    13753.091    83.753954 
   99400    1139.2017   -104.36611    1.0307737   -103.33533    45272.966     4.357393     4.357393     4.357393    45272.966    11902.306    150704.93   -26788.341    8412.0665    6311.6355    39434.258    82.733272 
   99500    3006.1657    -106.0544    2.7200419   -103.33436    1512.9026    4.3572268    4.3572268    4.3572268    1512.9026   -30241.429    22428.866    12351.271   -15529.029   -6348.7242   -15025.534    82.723807 
   99600    1217.4292   -104.47236    1.1015556    -103.3708    7587.8379    4.3742381    4.3742381    4.3742381    7587.8379    581.03078   -11172.228    33354.711   -9925.4122    530.44598    77814.799    83.696492 
   99700    2756.9758   -105.81188    2.4945697   -103.31731   -7896.1241    4.3865117    4.3865117    4.3865117   -7896.1241   -50648.502    49472.114   -22511.984   -3011.6902   -16655.717   -33082.789    84.402997 
   99800    1243.8448   -104.43447    1.1254569   -103.30901   -5283.8907    4.3652043    4.3652043    4.3652043   -5283.8907   -2145.8415   -45124.311     31418.48   -23308.776   -2123.8667    57107.052    83.179006 
   99900    2592.1449   -105.63722    2.3454272   -103.29179    17793.181     4.346879     4.346879     4.346879    17793.181    29227.492    51430.758   -27278.709    17353.566     -26510.9   -1136.9888    82.135833 
  100000    1783.0517   -104.91893    1.6133426   -103.30558   -6154.3997    4.3503045    4.3503045    4.3503045   -6154.3997   -11154.477   -10451.145    3142.4225   -16690.585    7156.2698    34590.612    82.330161 
Loop time of 22.0496 on 1 procs for 100000 steps with 8 atoms

Pair  time (%) = 6.56272 (29.7635)
Kspce time (%) = 5.45846 (24.7553)
Neigh time (%) = 0.252874 (1.14684)
Comm  time (%) = 0.994343 (4.50957)
Outpt time (%) = 0.0250571 (0.11364)
Other time (%) = 8.75615 (39.7111)

Nlocal:    8 ave 8 max 8 min
Histogram: 1 0 0 0 0 0 0 0 0 0
Nghost:    1900 ave 1900 max 1900 min
Histogram: 1 0 0 0 0 0 0 0 0 0
Neighs:    2152 ave 2152 max 2152 min
Histogram: 1 0 0 0 0 0 0 0 0 0

Total # of neighbors = 2152
Ave neighs/atom = 269
Neighbor list builds = 3191
Dangerous builds = 0
unfix 20
unfix 21
print "seeds:6360281"
seeds:6360281
