LAMMPS (10 Feb 2015)
# ---- initialize simulations
clear
units metal
dimension 3
boundary p p p
atom_style charge
atom_modify map array
# ---- create atoms
read_data /Users/eugeneragasa/pyflamestk_git/pypospack/tests/tests_integration/workflow/WorkflowLammpsThermalExpansion/param_3101/MgO_NaCl_unit.npt.T1500/lammps.structure
  triclinic box = (0 0 0) to (4.2565 4.2565 4.2565) with tilt (0 0 0)
  1 by 1 by 1 MPI processor grid
  reading atoms ...
  8 atoms
# ---- define interatomic potential
include potential.mod
mass 1 24.305
mass 2 15.999

group Mg type 1
4 atoms in group Mg
group O type 2
4 atoms in group O

set group Mg charge 1.61886676565
  4 settings made for charge
set group O charge -1.61886676565
  4 settings made for charge

variable R_cut equal 10.0

pair_style buck/coul/long ${R_cut}
pair_style buck/coul/long 10
pair_coeff 1 1 0.0 0.5 0.0 ${R_cut}
pair_coeff 1 1 0.0 0.5 0.0 10
pair_coeff 1 2 1642.32869573 0.278339228763 0.0 ${R_cut}
pair_coeff 1 2 1642.32869573 0.278339228763 0.0 10
pair_coeff 2 2 10249.6145692 0.172187509684 14.0611166933 ${R_cut}
pair_coeff 2 2 10249.6145692 0.172187509684 14.0611166933 10

kspace_style pppm 1.0e-5

neighbor 1.0 bin
neigh_modify every 1 delay 0 check yes
# ---- define settings
compute eng all pe/atom
compute eatoms all reduce sum c_eng
# ---- run minimization
reset_timestep 0
fix 1 all box/relax iso 0.0 vmax 0.001
thermo 10
thermo_style custom step pe lx ly lz xy xz yz press pxx pyy pzz pxy pxz pyz c_eatoms
min_style cg
minimize 1e-25 1e-25 5000 10000
PPPM initialization ...
  G vector (1/distance) = 0.352512
  grid = 8 8 8
  stencil order = 5
  estimated absolute RMS force accuracy = 3.81673e-05
  estimated relative force accuracy = 2.65057e-06
  using double precision FFTs
  3d grid and FFT values/proc = 3375 512
Neighbor list info ...
  1 neighbor list requests
  update every 1 steps, delay 0 steps, check yes
  master list distance cutoff = 11
Memory usage per processor = 4.06549 Mbytes
Step PotEng Lx Ly Lz Xy Xz Yz Press Pxx Pyy Pzz Pxy Pxz Pyz eatoms 
       0   -105.55076       4.2565       4.2565       4.2565            0            0            0    126453.59    126453.59    126453.59    126453.59 4.0363335e-11 4.044677e-11 1.0723156e-10   -105.55076 
      10   -105.69165     4.299065     4.299065     4.299065            0            0            0    68786.015    68786.015    68786.015    68786.015 -1.0242962e-10 -4.708445e-11 -3.569371e-11   -105.69165 
      20   -105.75532      4.34163      4.34163      4.34163            0            0            0    18126.479    18126.479    18126.479    18126.479 7.5197513e-11 1.703257e-11 -3.0007315e-11   -105.75532 
      27   -105.76066    4.3583247    4.3583247    4.3583247            0            0            0    1.3863117    1.3863117    1.3863117    1.3863117 -6.2572681e-11 -1.3142723e-10 -3.2118437e-11   -105.76066 
Loop time of 0.0137091 on 1 procs for 27 steps with 8 atoms

Minimization stats:
  Stopping criterion = linesearch alpha is zero
  Energy initial, next-to-last, final = 
        -105.550764672     -105.760658065     -105.760658065
  Force two-norm initial, final = 18.26 0.000217628
  Force max component initial, final = 18.26 0.000209876
  Final line search alpha, max atom move = 0.25 5.24691e-05
  Iterations, force evaluations = 27 40

Pair  time (%) = 0.00378275 (27.593)
Kspce time (%) = 0.00215673 (15.7322)
Neigh time (%) = 0 (0)
Comm  time (%) = 0.000410318 (2.99304)
Outpt time (%) = 2.93255e-05 (0.213913)
Other time (%) = 0.00732994 (53.4678)

Nlocal:    8 ave 8 max 8 min
Histogram: 1 0 0 0 0 0 0 0 0 0
Nghost:    2189 ave 2189 max 2189 min
Histogram: 1 0 0 0 0 0 0 0 0 0
Neighs:    2344 ave 2344 max 2344 min
Histogram: 1 0 0 0 0 0 0 0 0 0

Total # of neighbors = 2344
Ave neighs/atom = 293
Neighbor list builds = 0
Dangerous builds = 0
unfix 1
# ---- define output variables ----
variable natoms equal "count(all)"
variable tot_energy equal "c_eatoms"
variable length_x equal "lx"
variable length_y equal "ly"
variable length_z equal "lz"
variable tilt_xy equal "xy"
variable tilt_xz equal "xz"
variable tilt_yz equal "yz"
variable tot_press equal "press"
variable press_xx equal "pxx"
variable press_yy equal "pyy"
variable press_zz equal "pzz"
variable press_xy equal "pxy"
variable press_xz equal "pxz"
variable press_yz equal "pyz"

# ---- output ----
print "pypospack:output_section:begin"
pypospack:output_section:begin
print "tot_energy = ${tot_energy}"
tot_energy = -105.760658064539
print "num_atoms = ${natoms}"
num_atoms = 8
print "xx = ${length_x}"
xx = 4.35832471527479
print "yy = ${length_y}"
yy = 4.35832471527479
print "zz = ${length_z}"
zz = 4.35832471527479
print "xy = ${tilt_xy}"
xy = 0
print "xz = ${tilt_xz}"
xz = 0
print "yz = ${tilt_yz}"
yz = 0
print "tot_press = ${tot_press}"
tot_press = 1.38631174704167
print "pxx = ${press_xx}"
pxx = 1.38631174709188
print "pyy = ${press_yy}"
pyy = 1.38631174731354
print "pzz = ${press_zz}"
pzz = 1.3863117467196
print "pxy = ${press_xy}"
pxy = -6.25726806975275e-11
print "pxz = ${press_xz}"
pxz = -1.31427228854923e-10
print "pyz = ${press_yz}"
pyz = -3.21184365171528e-11
print "pypospack:output_section:done"
pypospack:output_section:done
print "pypospack:lammps_sim:done"
pypospack:lammps_sim:done
#------------------------------------------------------------------------------
# RUN THERMOSTAT
# running using an NPT Nose-Hoover style thermostat
#------------------------------------------------------------------------------
variable tempdamp equal 0.1
variable pressdamp equal 1.0
# set initial velocities
velocity all create 1500 5687519 mom yes dist gaussian loop all
# fix for Nose-Hoover style thermostat
fix 20 all npt temp 1500 1500 0.1 aniso 0.0 0.0 1.0 drag 1.0 couple xyz
variable boxx equal lx
variable boxy equal ly
variable boxz equal lz
variable boxp equal press
variable boxt equal temp
# calculate averages every 10000 steps
reset_timestep 0
fix 21 all ave/time 10 10 100 v_boxx v_boxy v_boxz v_boxp v_boxt file lattice.out
thermo_style custom step temp pe ke etotal press lx ly lz press pxx pyy pzz pxy pxz pyz vol
thermo_modify flush yes
thermo 100
run 100000
PPPM initialization ...
  G vector (1/distance) = 0.351503
  grid = 8 8 8
  stencil order = 5
  estimated absolute RMS force accuracy = 3.99806e-05
  estimated relative force accuracy = 2.7765e-06
  using double precision FFTs
  3d grid and FFT values/proc = 3375 512
Memory usage per processor = 3.06549 Mbytes
Step Temp PotEng KinEng TotEng Press Lx Ly Lz Press Pxx Pyy Pzz Pxy Pxz Pyz Volume 
       0         1500   -105.76067    1.3572315   -104.40344    17510.378    4.3583247    4.3583247    4.3583247    17510.378    31748.708    8521.3047    12261.122    1510.3271    6331.0761    103.29842    82.786353 
     100    296.07747   -104.50365   0.26789711   -104.23575    6727.0446    4.3865373    4.3865373    4.3865373    6727.0446    23278.659    1421.9537   -4519.4786    6722.2381   -11253.371   -4672.0982    84.404476 
     200     1258.148    -104.9845    1.1383988    -103.8461   -18716.419    4.4207599    4.4207599    4.4207599   -18716.419    6931.8014   -30015.208   -33065.851    6532.4831    5343.8253   -273.10252    86.395434 
     300    1414.1147   -104.82013    1.2795207   -103.54061   -30508.701    4.4260579    4.4260579    4.4260579   -30508.701   -23162.099   -45733.064   -22630.939   -2377.1147   -18964.035    -1777.937    86.706422 
     400    1183.9223   -104.34323    1.0712378   -103.27199    344.86999    4.4112971    4.4112971    4.4112971    344.86999    33057.347   -23610.682   -8412.0541    16202.665     184.6282   -10714.064    85.841824 
     500    1417.8138   -104.39969    1.2828677   -103.11682    30078.432    4.4017374    4.4017374    4.4017374    30078.432    72419.448    35701.533   -17885.685   -24487.247   -927.15119    2683.1434    85.284946 
     600    1139.0363   -104.07972     1.030624    -103.0491   -1505.2478    4.4208214    4.4208214    4.4208214   -1505.2478    31721.131   -21499.508   -14737.367    12818.355   -1531.0357   -5044.3594    86.399039 
     700    1934.0493   -104.75249    1.7499684   -103.00252   -7876.0926    4.4338898    4.4338898    4.4338898   -7876.0926   -9547.4387    13621.188   -27702.027   -710.47124    4222.9988    3588.9498    87.167517 
     800    1549.3032   -104.39476    1.4018421   -102.99292   -19131.723    4.4370291    4.4370291    4.4370291   -19131.723   -6233.8709   -22601.135   -28560.163    12125.785    -25332.82   -1546.1072    87.352801 
     900    1313.6585   -104.17723    1.1886259    -102.9886    14813.717    4.4209171    4.4209171    4.4209171    14813.717    69390.146    -22257.67   -2691.3237   -4903.9166    10791.155     7850.582    86.404652 
    1000    1278.7867   -104.15633     1.157073   -102.99926    28082.436    4.4109759    4.4109759    4.4109759    28082.436    50850.743    34969.903   -1573.3383    8064.9675   -28664.176    3612.3241    85.823073 
    1100    1795.0599   -104.64079    1.6242079   -103.01659   -25776.945    4.4288917    4.4288917    4.4288917   -25776.945   -4378.0403   -46861.058   -26091.737    13738.983    13912.548   -4052.4542    86.873074 
    1200     1778.161   -104.62735    1.6089174   -103.01843   -24421.734    4.4219018    4.4219018    4.4219018   -24421.734   -33922.123   -8711.3549   -30631.724   -13313.004   -27228.949   -1361.3249      86.4624 
    1300    1490.8586   -104.36687    1.3489602   -103.01791    1889.0015    4.4159184    4.4159184    4.4159184    1889.0015    45471.878   -31197.904   -8606.9699    9507.1256     6433.954    9634.3006    86.111888 
    1400     960.7154   -103.89144   0.86927548   -103.02217    3635.9125    4.4223123    4.4223123    4.4223123    3635.9125     46259.71    4433.2302   -39785.203    8359.6252   -35098.506   -5340.1371    86.486484 
    1500    1213.2949   -104.11848    1.0978147   -103.02067     23790.56    4.4167685    4.4167685    4.4167685     23790.56    74316.654   -4135.7729    1190.8004     7895.686    9480.6781   -5769.0174    86.161631 
    1600    1436.6647    -104.3402    1.2999244   -103.04027   -11205.701    4.4226257    4.4226257    4.4226257   -11205.701     8693.113   -770.53896   -41539.677    7220.6663   -22146.008     1630.847    86.504868 
    1700    1893.3317   -104.74335    1.7131263   -103.03023   -6168.9061    4.4125877    4.4125877    4.4125877   -6168.9061   -8729.7211   -5225.0814   -4551.9159   -340.25348   -17383.449    975.93167    85.917184 
    1800    1466.7553    -104.3645    1.3271511   -103.03735   -2754.5478    4.4120188    4.4120188    4.4120188   -2754.5478   -28463.351    44715.707       -24516    6065.7162   -1848.3126   -776.62724    85.883963 
    1900    1334.5718   -104.23145    1.2075486    -103.0239     9566.496    4.4241778    4.4241778    4.4241778     9566.496    50708.186   -14558.297   -7450.4012    3269.1977   -12114.892   -3252.2195    86.595979 
    2000    1253.8317   -104.15304    1.1344933   -103.01855   -1714.1208    4.4160489    4.4160489    4.4160489   -1714.1208    19638.626   -5861.3919   -18919.596    1026.6124     6526.326   -2124.9761    86.119521 
    2100    1679.5804    -104.5295    1.5197196   -103.00978     704.7447    4.4174956    4.4174956    4.4174956     704.7447   -13545.827    44884.452   -29224.391    3979.8062   -7759.9279   -10500.875    86.204189 
    2200    1306.8071   -104.19613    1.1824265    -103.0137   -19760.991    4.4275751    4.4275751    4.4275751   -19760.991   -22894.316   -35993.916   -394.73934    15327.012    12014.411   -9149.8539    86.795623 
    2300    1653.7244   -104.48547    1.4963246   -102.98915   -8062.3084     4.429003     4.429003     4.429003   -8062.3084    41139.346   -22397.884   -42928.388    7380.7189   -8690.0467   -1329.2639    86.879621 
    2400    1391.3683   -104.25553    1.2589392   -102.99659   -23322.062    4.4250508    4.4250508    4.4250508   -23322.062    -13157.05   -50084.308   -6724.8277     8145.656     16756.62   -11346.671    86.647252 
    2500    1802.0284   -104.61739    1.6305131   -102.98688    11502.843    4.4148561    4.4148561    4.4148561    11502.843    22799.818   -154.94702    11863.659   -274.50271    10572.944    9193.3197    86.049759 
    2600    1260.4839   -104.14398    1.1405123   -103.00346   -34981.015    4.4294493    4.4294493    4.4294493   -34981.015   -32865.067   -34013.266   -38064.711   -5802.2589    9817.3891   -2854.4705    86.905888 
    2700    1781.9329   -104.59356    1.6123303   -102.98123   -7996.1536    4.4287342    4.4287342    4.4287342   -7996.1536    -11707.57    31467.922   -43748.813    19438.747    20339.351    7884.4015    86.863802 
    2800    1742.6999   -104.54913    1.5768315    -102.9723   -46693.207    4.4426884    4.4426884    4.4426884   -46693.207   -45115.001   -39949.243   -55015.377   -19720.522    920.32484    2513.6141    87.687474 
    2900    1541.3918   -104.34989    1.3946837   -102.95521   -35333.196    4.4407452    4.4407452    4.4407452   -35333.196     -42171.6   -9976.2154   -53851.773    16953.068    41560.215   -845.90836    87.572461 
    3000      1973.21   -104.72583    1.7854019   -102.94042    10787.316    4.4096742    4.4096742    4.4096742    10787.316    246.55016    43102.615   -10987.217   -23837.107    -3577.167    -9292.835    85.747111 
    3100    1169.7661   -104.05786     1.058429   -102.99943   -15397.798    4.4186082    4.4186082    4.4186082   -15397.798   -8365.3395   -22249.873   -15578.181    9925.7765    39188.855    5701.3246    86.269344 
    3200    1544.3967   -104.40044    1.3974026   -103.00304    3221.3862    4.4321112    4.4321112    4.4321112    3221.3862    -37529.06    9803.1214    37390.097   -19035.598    -8186.585   -320.22915    87.062661 
    3300    943.74141   -103.85473   0.85391706   -103.00082    4129.2757    4.4431147    4.4431147    4.4431147    4129.2757   -18824.264    2153.4067    29058.684    1736.9987    22602.294    18435.123    87.712719 
    3400    1640.2124   -104.45858    1.4840987   -102.97448    -4672.054    4.4267277    4.4267277    4.4267277    -4672.054   -23942.291   -23365.236    33291.365   -7416.8537   -4356.1317    1385.3973    86.745795 
    3500    1404.5707   -104.24887    1.2708851   -102.97798    3823.0835    4.4101696    4.4101696    4.4101696    3823.0835    8866.5278   -5822.8749    8425.5977   -12416.992   -1931.8418   -9572.4541    85.776019 
    3600    1988.4326   -104.79218    1.7991756     -102.993   -1517.5798    4.4165852    4.4165852    4.4165852   -1517.5798   -14289.454    28427.554   -18690.839   -9181.3566    5667.9981    11314.242    86.150902 
    3700    1131.9451   -104.04571    1.0242077   -103.02151   -7818.6346    4.4314374    4.4314374    4.4314374   -7818.6346    7900.1777   -47359.573    16003.492   -6978.8164   -9299.6705   -1746.9648    87.022963 
    3800    1791.8528   -104.61954    1.6213061   -102.99824    3721.8138     4.434374     4.434374     4.434374    3721.8138   -9267.6323    8265.3301    12167.744    3241.5359    12574.147    2692.3714     87.19608 
    3900    974.69825   -103.87627   0.88192746   -102.99434   -1208.6962    4.4240612    4.4240612    4.4240612   -1208.6962   -3429.1719   -33528.478    33331.561   -13258.237   -28577.703   -8504.5328    86.589129 
    4000    1777.3327   -104.59517     1.608168     -102.987    11478.339    4.4139487    4.4139487    4.4139487    11478.339    27783.672    66.076914    6585.2672   -5720.3009   -6363.5759   -3737.1582     85.99671 
    4100    1727.4578   -104.56763    1.5630401   -103.00459   -2160.0445    4.4155548    4.4155548    4.4155548   -2160.0445   -11855.091   -4581.9992    9956.9571   -1326.2005   -5445.3065   -698.41989    86.090623 
    4200    1028.1243   -103.94514   0.93026844   -103.01487   -856.90733    4.4299901    4.4299901    4.4299901   -856.90733    44133.658   -9358.9065   -37345.473   -6868.9988   -16185.031   -10347.989    86.937723 
    4300     2059.602   -104.84603    1.8635712   -102.98246    -22972.22    4.4311168    4.4311168    4.4311168    -22972.22   -22531.377   -7972.9653   -38412.316   -5034.7381    14209.654    13215.178    87.004073 
    4400    881.93864   -103.78811   0.79799662   -102.99011    20151.344    4.4244254    4.4244254    4.4244254    20151.344    69664.506   -5228.6775   -3981.7969   -2702.7267   -20873.345   -14103.004    86.610514 
    4500    2201.0068   -104.97125    1.9915172   -102.97974   -29161.193    4.4217237    4.4217237    4.4217237   -29161.193    -22755.36   -37537.063   -27191.155   -4452.7089     29058.73   -3187.1292    86.451949 
    4600    1039.2296    -103.9394   0.94031676   -102.99908    19381.189    4.4220377    4.4220377    4.4220377    19381.189    44471.455   -5162.7807    18834.894   -11839.628   -2523.8384    124.14889    86.470373 
    4700    1726.3788   -104.55659    1.5620638   -102.99453   -6409.3623    4.4256872    4.4256872    4.4256872   -6409.3623   -16929.275   -2405.7893    106.97767    -2589.905    26747.208     7239.479    86.684638 
    4800    1302.7327   -104.17021    1.1787399   -102.99147   -4510.0579     4.434199     4.434199     4.434199   -4510.0579    929.90585   -27489.934    13029.855    2384.9927   -6716.8253   -8076.0981    87.185754 
    4900    1832.9664    -104.6259    1.6585065   -102.96739   -20334.807    4.4255659    4.4255659    4.4255659   -20334.807   -24401.244   -12068.574   -24534.603   -2440.6119    19191.906   -286.19851    86.677515 
    5000    1348.2245   -104.19694    1.2199019   -102.97704    22853.993    4.4014588    4.4014588    4.4014588    22853.993    5751.1382    44157.839    18653.001   -9529.6928    12874.031   -2645.5002    85.268755 
    5100    1373.1804   -104.25768    1.2424824   -103.01519    10887.129    4.4036443    4.4036443    4.4036443    10887.129    12334.122    27723.521   -7396.2577   -10223.096    2063.1703    -4760.187    85.395838 
    5200    1833.4378    -104.6932    1.6589331   -103.03427   -12341.573    4.4261613    4.4261613    4.4261613   -12341.573   -33958.075    32474.523   -35541.167    -825.0854    20562.634    13572.657    86.712501 
    5300    1111.8944   -104.02221    1.0060654   -103.01614   -8635.3493    4.4305095    4.4305095    4.4305095   -8635.3493   -17779.422    -27839.92    19713.294   -1066.3699   -9952.6847     -7722.78    86.968309 
    5400    1729.1424   -104.54734    1.5645644   -102.98277    23909.314    4.4064421    4.4064421    4.4064421    23909.314    10876.018     67736.42   -6884.4963    1597.4916     18240.38    634.54472    85.558708 
    5500    1342.8731   -104.21208    1.2150598   -102.99702     13892.95    4.4019885    4.4019885    4.4019885     13892.95    4947.2291    10160.568    26571.053    -10313.73   -8314.7866    -11573.59    85.299544 
    5600    1529.0686   -104.38996    1.3835334   -103.00643    20927.471    4.4215542    4.4215542    4.4215542    20927.471    1281.6609     44869.84    16630.911    5180.9166    6881.9257    -27328.34     86.44201 
    5700    1432.0945   -104.29762    1.2957892   -103.00183   -5249.3511    4.4281391    4.4281391    4.4281391   -5249.3511   -1730.8175    -12607.06   -1410.1755   -30740.469   -1076.7927   -3406.2842    86.828794 
    5800    1400.3585   -104.26404    1.2670738   -102.99697    22198.669     4.415415     4.415415     4.415415    22198.669    4789.7337     30883.26    30923.013    21610.227    2109.0171   -11924.674    86.082444 
    5900    1796.7313    -104.6107    1.6257203   -102.98498    11574.723    4.4078023    4.4078023    4.4078023    11574.723   -18871.429    20191.688    33403.911   -15351.697   -8889.2041    13520.153    85.637963 
    6000     1235.949   -104.11911    1.1183126   -103.00079   -523.69826    4.4155604    4.4155604    4.4155604   -523.69826   -15479.953   -22144.258    36053.117    14096.738    3112.0384   -5171.6555    86.090947 
    6100    1627.3368   -104.46222    1.4724485   -102.98977   -1635.0547    4.4323236    4.4323236    4.4323236   -1635.0547   -36896.482    55437.104   -23445.786   -294.46562   -23344.273    4023.7952    87.075179 
    6200    1202.6733   -104.07387    1.0882041   -102.98567   -15313.622    4.4221191    4.4221191    4.4221191   -15313.622   -53453.708   -40068.202    47581.044    10627.425   -8466.2138    10669.963    86.475149 
    6300    1719.2106   -104.52141    1.5555779   -102.96583    34740.087    4.4083862    4.4083862    4.4083862    34740.087     24888.25    40527.173     38804.84    -4557.166   -16985.117   -1508.7658       85.672 
    6400    1295.8201   -104.15619    1.1724853   -102.98371   -10961.145    4.4269257    4.4269257    4.4269257   -10961.145    441.56829   -32172.378   -1152.6243    4798.7682    5674.2881   -3246.8082    86.757437 
    6500    1618.3233   -104.43633    1.4642929   -102.97204    4836.0016     4.427713     4.427713     4.427713    4836.0016    6092.3619   -7594.2511    16009.894    14313.081    -14174.27    7086.3532    86.803731 
    6600    1461.2319   -104.29592    1.3221533   -102.97376    7800.9142    4.4115446    4.4115446    4.4115446    7800.9142    26507.578   -19840.776    16735.941   -14685.632   -5240.0443   -2633.9956    85.856269 
    6700    1255.0385   -104.13331    1.1355852   -102.99773    14977.906    4.4124745    4.4124745    4.4124745    14977.906    4267.6698   -23749.935    64415.984    20405.406    10556.029    16424.612    85.910573 
    6800    2049.5838   -104.85633    1.8545065   -103.00183   -11039.979    4.4203301    4.4203301    4.4203301   -11039.979    21276.953   -27196.014   -27200.877   -6278.0513    3952.0182    6535.0458    86.370235 
    6900    934.31726    -103.8511   0.84538989   -103.00571    -9842.178    4.4267075    4.4267075    4.4267075    -9842.178   -29841.062    -54388.54    54703.068    31628.475     6601.261   -4310.3589    86.744607 
    7000    2097.6957   -104.88283    1.8980391   -102.98479    12652.395    4.4125846    4.4125846    4.4125846    12652.395    67094.978   -6227.9002   -22909.894   -9102.6057    17849.918    4964.5455    85.917005 
    7100    1391.8727   -104.26352    1.2593957   -103.00412    -25421.81    4.4161325    4.4161325    4.4161325    -25421.81   -25274.584   -64746.794    13755.947    40448.436    -1561.426    7013.6652    86.124417 
    7200    1633.6579   -104.48381     1.478168   -103.00564    5614.9505    4.4333813    4.4333813    4.4333813    5614.9505    63241.348   -20234.548   -26161.949   -7966.9644    14218.071    3150.7795    87.137533 
    7300    1420.2485    -104.2801    1.2850707   -102.99503   -30498.981    4.4448578    4.4448578    4.4448578   -30498.981   -62231.824   -16328.185   -12936.933    1919.9759   -10380.155     5743.422    87.815995 
    7400    1425.3843    -104.2652    1.2897177   -102.97549   -8119.8715    4.4199043    4.4199043    4.4199043   -8119.8715   -14348.392   -20514.949    10503.726    945.27849    14977.533    12633.137     86.34528 
    7500    1486.3439   -104.30903    1.3448752   -102.96416     35700.71    4.4015438    4.4015438    4.4015438     35700.71   -9020.4117    71193.962     44928.58    8858.7972   -3745.2127   -4927.1992    85.273694 
    7600    1356.2611    -104.2323    1.2271735   -103.00513   -31272.445    4.4264287    4.4264287    4.4264287   -31272.445   -73318.168   -40574.288    20075.121    11102.843    8269.8443   -7306.3038    86.728216 
    7700    1605.0134   -104.43621    1.4522499   -102.98396    27751.743    4.4343445    4.4343445    4.4343445    27751.743    5085.9835    30460.631    47708.616    18867.784    15315.752   -9354.2465    87.194336 
    7800     1415.485   -104.25889    1.2807606   -102.97813   -7910.4407    4.4408965    4.4408965    4.4408965   -7910.4407    -6844.732   -35288.876    18402.285    22443.175   -3193.4972   -16474.447    87.581414 
    7900    2005.2169   -104.77205    1.8143624   -102.95768    -27561.25    4.4339745    4.4339745    4.4339745    -27561.25   -42795.396   -29069.132   -10819.221   -8338.3094    21615.902   -2750.6114    87.172516 
    8000    1597.3282   -104.40209    1.4452961    -102.9568    34167.656    4.4072976    4.4072976    4.4072976    34167.656    69566.871    17543.916    15392.179    30311.636   -2719.3057    -9269.318    85.608546 
    8100    1096.2063   -103.99013   0.99187046   -102.99826   -5443.7356    4.4174706    4.4174706    4.4174706   -5443.7356   -34539.969   -17132.075    35340.838    -33572.73    23402.895     7940.266    86.202729 
    8200    2105.2515   -104.89492    1.9048758   -102.99004   -4087.0413    4.4213838    4.4213838    4.4213838   -4087.0413    15534.306   -34222.795    6427.3645    6652.0042   -21484.491   -6646.4802    86.432017 
    8300     1292.434   -104.17352    1.1694215    -103.0041    -31518.08     4.435168     4.435168     4.435168    -31518.08   -41520.735   -17045.959   -35987.546   -29707.575    24404.569    2352.6305    87.242929 
    8400    1516.0074   -104.35432    1.3717154    -102.9826     -8515.66    4.4341034    4.4341034    4.4341034     -8515.66   -25314.014    -14361.69    14128.724   -2670.2325   -15047.927    1941.3542    87.180116 
    8500     1646.831   -104.45594    1.4900873   -102.96585    10308.241    4.4282535    4.4282535    4.4282535    10308.241    23792.672   -19842.295    26974.346   -29666.656    20525.602   -8909.5001     86.83552 
    8600    1099.3098   -103.97389   0.99467861   -102.97921   -5497.5715    4.4420497    4.4420497    4.4420497   -5497.5715    13050.956   -13406.087   -16137.584    5064.7973   -8960.3497    -20.47385    87.649663 
    8700     1656.391   -104.46948    1.4987374   -102.97074    15024.312    4.4303119    4.4303119    4.4303119    15024.312    69712.017   -40738.403    16099.321   -24247.758    -6941.541    1514.0977    86.956673 
    8800    1143.9548   -104.02065    1.0350744   -102.98558   -1528.0027    4.4158224    4.4158224    4.4158224   -1528.0027   -17285.883    47739.108   -35037.233   -2855.6463     8546.319   -11177.812    86.106274 
    8900    1774.7478   -104.60567    1.6058291   -102.99984   -3231.0586    4.4210855    4.4210855    4.4210855   -3231.0586   -24962.466   -13344.375    28613.665   -6827.6433   -30530.766   -707.29056    86.414526 
    9000    1525.7606   -104.38303    1.3805402   -103.00249   -20029.346    4.4341949    4.4341949    4.4341949   -20029.346   -43017.841   -28418.838     11348.64   -24776.575    27886.965   -8208.7195    87.185515 
    9100    1498.1893   -104.34638    1.3555932   -102.99078   -32629.043    4.4382042    4.4382042    4.4382042   -32629.043   -46742.425   -7165.6083   -43979.096    15087.771   -5309.0205   -15080.232    87.422221 
    9200     1947.171   -104.73591    1.7618412   -102.97407   -5684.1413    4.4197545    4.4197545    4.4197545   -5684.1413   -9977.0066   -27164.706    20089.289   -17531.338    17915.534    1458.6878    86.336502 
    9300     1053.437   -103.95253   0.95317195   -102.99936   -7145.4053    4.4092653    4.4092653    4.4092653   -7145.4053     -42673.2    34510.889   -13273.905    6771.9533    9095.8889   -15637.271    85.723262 
    9400    1875.7071   -104.71304    1.6971792   -103.01587    -7540.858    4.4168746    4.4168746    4.4168746    -7540.858    -367.7816   -10664.253   -11590.539    11953.842   -11930.336    2240.0861    86.167842 
    9500    982.48091   -103.90954   0.88896937   -103.02057    15925.687    4.4283052    4.4283052    4.4283052    15925.687   -16306.391    30232.591     33850.86    -13143.54    8069.3354   -4996.5664    86.838565 
    9600     1379.866   -104.24933    1.2485317    -103.0008   -17961.315    4.4333453    4.4333453    4.4333453   -17961.315   -6388.6544    -39917.02   -7578.2698    8469.3321   -22565.801     -2987.13    87.135408 
    9700    1649.0244   -104.46812    1.4920719   -102.97605    23566.552     4.417703     4.417703     4.417703    23566.552    58238.954   -11753.406    24214.106   -15562.577   -12611.185   -19735.638    86.216333 
    9800     1075.096   -103.96412   0.97276947   -102.99135   -5356.3585    4.4160071    4.4160071    4.4160071   -5356.3585   -32025.268    12309.076    3647.1168    6795.9514   -13143.269   -8734.8912    86.117081 
    9900    1179.3906    -104.0697    1.0671374   -103.00256     28552.34    4.4194377    4.4194377    4.4194377     28552.34    13002.037   -9566.9042    82221.886   -21504.047   -6215.9463   -10683.182    86.317936 
   10000    1838.7661   -104.66271    1.6637542   -102.99896   -13866.243    4.4356173    4.4356173    4.4356173   -13866.243   -22199.025   -7615.3365   -11784.367    3729.7706   -24072.186   -9369.0166    87.269442 
   10100    755.94297    -103.6685   0.68399309    -102.9845    4475.7806    4.4411043    4.4411043    4.4411043    4475.7806   -16689.983   -22419.508    52536.833   -16370.372   -7823.7484   -18421.061    87.593711 
   10200    2098.4399   -104.85614    1.8987126   -102.95742    11720.841    4.4179131    4.4179131    4.4179131    11720.841    48011.949    17021.819   -29871.245   -4918.6185   -24110.289   -6336.9338    86.228632 
   10300    868.66944   -103.77561   0.78599036   -102.98962    9820.5305    4.4099481    4.4099481    4.4099481    9820.5305   -38661.176   -27749.142    95871.909   -13672.809    3291.8015    11995.528    85.763091 
   10400    1809.1416   -104.64031    1.6369494   -103.00336   -17580.693     4.417901     4.417901     4.417901   -17580.693   -19248.415    -14923.48   -18570.182   -586.31307   -21828.952    -11695.68    86.227928 
   10500    1244.4002   -104.13786    1.1259594    -103.0119    20571.943    4.4212225    4.4212225    4.4212225    20571.943    19115.937   -11706.947    54306.839   -10663.072   -1827.1445    24458.746    86.422555 
   10600    1459.8197   -104.32978    1.3208756   -103.00891   -22346.419    4.4280935    4.4280935    4.4280935   -22346.419   -36018.261   -47871.366    16850.372    -2662.964   -14846.549   -17676.475    86.826113 
   10700    1582.0774    -104.4263    1.4314969    -102.9948    16168.433    4.4203545    4.4203545    4.4203545    16168.433    44465.675   -25691.776    29731.399   -9011.1497   -3815.5826    8695.9147    86.371668 
   10800    1539.1831   -104.38784    1.3926852   -102.99515    8084.9325     4.410231     4.410231     4.410231    8084.9325    7308.4481   -31774.558    48720.908   -11221.779   -7277.2184   -13527.246      85.7796 
   10900    1447.2503   -104.31538    1.3095025   -103.00587   -7369.8619    4.4189904    4.4189904    4.4189904   -7369.8619    36922.821    -39513.64   -19518.767    7061.1414   -4438.5842    12311.871    86.291729 
   11000    1767.3019   -104.60261    1.5990919   -103.00352   -6826.6601    4.4229479    4.4229479    4.4229479   -6826.6601    7307.7068   -49056.608    21268.921   -9419.4773    10404.308    17710.371    86.523778 
   11100    1250.5048   -104.13794     1.131483   -103.00646   -12363.358    4.4221711    4.4221711    4.4221711   -12363.358   -19897.848   -8034.1445   -9158.0833    27534.451   -6153.5566   -456.32513    86.478197 
   11200    1447.9323   -104.30669    1.3101196   -102.99658    3624.4997    4.4155715    4.4155715    4.4155715    3624.4997    28372.188   -38534.411    21035.722    -3305.444    677.59996    19277.433    86.091598 
   11300    2022.5478   -104.82665    1.8300437   -102.99661   -27072.232    4.4154122    4.4154122    4.4154122   -27072.232   -45459.252   -18659.351   -17098.095    8776.5958   -7612.6431    -5722.998     86.08228 
   11400    1223.4901   -104.11429    1.1070396   -103.00725   -9237.8169    4.4198342    4.4198342    4.4198342   -9237.8169   -10620.724   -28320.188    11227.461   -2135.0802   -213.87319    23884.188     86.34117 
   11500    1512.8343   -104.36883    1.3688443   -102.99999    15418.656    4.4211818    4.4211818    4.4211818    15418.656    42835.286   -1617.8035    5038.4862    7545.9504    17423.703   -19123.184    86.420173 
   11600    1600.6784   -104.44478    1.4483275   -102.99645    -16640.07    4.4247969    4.4247969    4.4247969    -16640.07   -1683.2741   -21284.131   -26952.806    3784.1572   -3819.2358    19332.245    86.632333 
   11700    1390.1649   -104.24825    1.2578504    -102.9904     24907.85     4.404588     4.404588     4.404588     24907.85    94058.056   -15415.455   -3919.0507   -2244.2834    11342.185   -3913.6343    85.450748 
   11800    1370.8381   -104.24136    1.2403631     -103.001     29649.99     4.405955     4.405955     4.405955     29649.99    19466.111    48243.035    21240.824    19118.163   -913.84795   -10134.041    85.530334 
   11900    1631.0244   -104.47892    1.4757851   -103.00313   -4050.3611    4.4223126    4.4223126    4.4223126   -4050.3611    21336.937    -14826.11    -18661.91   -8806.5733    -16573.49     7058.067    86.486497 
   12000     1252.229   -104.14693    1.1330431   -103.01389    6135.3888    4.4213954    4.4213954    4.4213954    6135.3888    -15163.15    39787.785   -6218.4694    18046.741    1170.9392   -18967.753    86.432699 
   12100     2102.122   -104.89836    1.9020442   -102.99632   -14538.829    4.4244213    4.4244213    4.4244213   -14538.829   -30168.624    19017.843   -32465.704    5369.8181   -8889.6445    3710.9892    86.610278 
   12200    1286.5495   -104.16256     1.164097   -102.99846    25104.394    4.4008877    4.4008877    4.4008877    25104.394   -14433.997    77602.749     12144.43    9348.0974    1066.7434   -21237.054     85.23557 
   12300    1747.5118   -104.59161    1.5811854   -103.01042   -26323.468    4.4085792    4.4085792    4.4085792   -26323.468   -49735.803   -7809.1796    -21425.42    6840.2361   -17125.565   -797.69314     85.68325 
   12400     1871.058   -104.69779    1.6929726   -103.00481    9079.7347    4.4132667    4.4132667    4.4132667    9079.7347   -23363.307    82088.448   -31485.937   -8207.5447   -3143.5646    1198.9321    85.956856 
   12500    1171.7207   -104.08557    1.0601975   -103.02537   -28078.097    4.4146238    4.4146238    4.4146238   -28078.097   -62120.189   -4311.3635   -17802.738     25385.22   -1014.3529   -2825.0303    86.036176 
   12600    1362.1814   -104.26204    1.2325303   -103.02951   -7486.7486    4.4098978    4.4098978    4.4098978   -7486.7486    -7690.084    29494.642   -44264.804   -19495.333   -7329.8174    21066.728    85.760156 
   12700    1892.6033   -104.73987    1.7124673   -103.02741   -9664.2935     4.408381     4.408381     4.408381   -9664.2935   -36208.881    22010.133   -14794.133    26918.545    3812.3525   -4598.7151    85.671695 
   12800    771.38893    -103.7387   0.69796891   -103.04074    5110.1012    4.4079602    4.4079602    4.4079602    5110.1012    9255.2515    17896.809   -11821.756   -16135.397   -10219.179    5383.6204    85.647167 
   12900    1623.0094   -104.49944     1.468533    -103.0309    16405.777    4.4150826    4.4150826    4.4150826    16405.777    7665.1171     80530.91   -38978.697   -25515.474    4938.4225    17867.632    86.063006 
   13000    1946.7637   -104.78254    1.7614727   -103.02107   -23205.849    4.4242877    4.4242877    4.4242877   -23205.849   -24060.014    14979.205   -60536.738    460.53173    -17407.84    610.05868    86.602432 
   13100     1124.442   -104.04171    1.0174188   -103.02429   -4646.8352    4.4121914    4.4121914    4.4121914   -4646.8352    15721.158    18394.715   -48056.379   -14278.129    5254.8991    30157.499     85.89404 
   13200    1920.3325   -104.75471    1.7375572   -103.01715      2227.19    4.4099795    4.4099795    4.4099795      2227.19    7583.3306    28522.396   -29424.156    1944.1975   -4449.3716   -16313.183    85.764924 
   13300     1334.717   -104.23283      1.20768   -103.02515    33947.969    4.3996184    4.3996184    4.3996184    33947.969    28821.948    87598.664   -14576.704   -17616.229   -518.17931    29563.009    85.161841 
   13400    1140.9681   -104.07027    1.0323719    -103.0379   -46362.083     4.426705     4.426705     4.426705   -46362.083   -56503.482   -41088.587    -41494.18   -2867.4771   -2975.1545     -10487.8    86.744459 
   13500    2149.6424   -104.95539    1.9450416   -103.01035   -9217.7168    4.4191876    4.4191876    4.4191876   -9217.7168   -33012.762    20381.583   -15021.971   -275.28862   -11531.061   -10080.641     86.30328 
   13600    1079.8914   -104.00329   0.97710846   -103.02618    23351.637    4.4040752    4.4040752    4.4040752    23351.637   -5375.4638    99771.978   -24341.602   -19880.578    671.97701   -5982.5585    85.420909 
   13700    906.64941   -103.87076   0.82035544    -103.0504    36228.416    4.4188258    4.4188258    4.4188258    36228.416    25522.573    107288.57   -24125.898    4543.6472   -15452.429   -18231.108    86.282087 
   13800    2137.8006   -104.94574    1.9343269   -103.01142   -28124.579      4.44123      4.44123      4.44123   -28124.579    -32845.69    -6169.557    -45358.49    8170.3191   -5169.8806   -2473.5362    87.601149 
   13900    929.05848    -103.8495   0.84063164   -103.00887   -6032.5528    4.4088357    4.4088357    4.4088357   -6032.5528   -11932.155    37808.231   -43973.734    2774.6673   -15180.269   -31233.829    85.698206 
   14000    1767.9492   -104.60321    1.5996776   -103.00353     4593.733    4.3884008    4.3884008    4.3884008     4593.733    22597.484   -7593.4026    -1222.882    33722.411    1852.7696    1357.7132    84.512093 
   14100    1734.7842   -104.59622    1.5696692   -103.02655    5156.0053    4.4136366    4.4136366    4.4136366    5156.0053    7911.8171    22191.349    -14635.15    1990.2254   -12504.699    -9655.827     85.97847 
   14200    1035.9831   -103.94863   0.93737927   -103.01125   -37872.214    4.4463323    4.4463323    4.4463323   -37872.214   -28360.034   -40879.654   -44376.954    9666.2456    7924.5423    1129.0461    87.903415 
   14300    1823.2945   -104.62363    1.6497552   -102.97387    -702.3724    4.4269757    4.4269757    4.4269757    -702.3724    12225.004    17842.452   -32174.573    1267.2119   -12157.552   -1826.6276    86.760372 
   14400    1712.1293   -104.52421    1.5491706   -102.97504   -6573.2604    4.3995799    4.3995799    4.3995799   -6573.2604     17645.44     5404.648   -42769.869    4872.1675   -8531.8949    3166.5739    85.159601 
   14500    783.71249   -103.71823   0.70911953   -103.00911    49175.714    4.3914647    4.3914647    4.3914647    49175.714    86833.512    42394.864    18298.767    3685.4542    -81.65398    13280.904     84.68923 
   14600    1918.0081    -104.7713    1.7354541   -103.03585   -2884.1019    4.4247611    4.4247611    4.4247611   -2884.1019   -14082.194    25627.728   -20197.841   -9419.4907   -13849.957    6661.8574    86.630232 
   14700    1406.4008   -104.28702     1.272541   -103.01448   -16689.489    4.4330392    4.4330392    4.4330392   -16689.489    16164.555   -33805.746   -32427.275    16726.016    9166.6695    7499.1371    87.117362 
   14800    1297.2858   -104.17219    1.1738115   -102.99838     10408.08    4.4003242    4.4003242    4.4003242     10408.08   -38194.105    55943.818    13474.526   -21027.833   -18872.343   -9533.0269    85.202828 
   14900    1727.6488   -104.56276    1.5632129   -102.99955    36116.476    4.3971424    4.3971424    4.3971424    36116.476    36390.843     45367.15    26591.435     27481.99    5510.3265     356.5164    85.018137 
   15000    1327.4351    -104.2298    1.2010911   -103.02871   -25666.276    4.4109706    4.4109706    4.4109706   -25666.276   -43742.806   -22449.156   -10806.865   -11647.919   -13590.823   -7449.1929     85.82276 
   15100    1241.1653     -104.144    1.1230325   -103.02097    306.44974    4.4339539    4.4339539    4.4339539    306.44974   -28741.804    18696.237    10964.916    5836.2626   -73.851615   -7306.0423    87.171301 
   15200    1955.0578     -104.772    1.7689774   -103.00302   -24066.861    4.4220403    4.4220403    4.4220403   -24066.861   -43216.021   -23024.588   -5959.9724    19102.399    2204.3534   -142.19006    86.470526 
   15300     996.4513    -103.9156   0.90161007   -103.01399    12555.382    4.3900271    4.3900271    4.3900271    12555.382   -11667.542    19001.911    30331.776    -22025.42   -25798.471   -12749.004    84.606087 
   15400    2098.8947   -104.92027    1.8991241   -103.02115    20898.542     4.400443     4.400443     4.400443    20898.542    49603.946    19309.863   -6218.1838    17299.957    5632.2489   -6558.7907     85.20973 
   15500    1371.5074   -104.26912    1.2409687   -103.02815   -34559.006    4.4266597    4.4266597    4.4266597   -34559.006   -56354.109   -11028.434   -36294.476   -26538.496   -23010.106   -9577.3178    86.741798 
   15600    1369.1247   -104.26481    1.2388128     -103.026    10359.952    4.4200437    4.4200437    4.4200437    10359.952    41094.453   -7976.2939   -2038.3034   -10963.332   -5919.5967   -9285.8289    86.353447 
   15700    1614.5628   -104.49017    1.4608903   -103.02928    37012.663    4.3913461    4.3913461    4.3913461    37012.663   -26795.989    100938.59    36895.393    -9063.452    5353.2817   -9260.7113     84.68237 
   15800    1161.3409   -104.09905    1.0508056   -103.04825    5787.5499    4.3937407    4.3937407    4.3937407    5787.5499    30440.857   -25648.763    12570.556   -15123.216   -23517.322   -12295.338    84.820975 
   15900    1649.7917   -104.51791    1.4927662   -103.02515   -14089.171    4.4242357    4.4242357    4.4242357   -14089.171   -63789.306    24755.789   -3233.9958    11003.063    17037.674     3638.712    86.599376 
   16000    1290.7003    -104.1791    1.1678528   -103.01125   -17129.645    4.4268276    4.4268276    4.4268276   -17129.645   -42533.342    25009.374   -33864.967   -13630.809   -17393.108   -12324.617    86.751665 
   16100    1548.7795   -104.40442    1.4013682   -103.00305   -11306.719    4.4087359    4.4087359    4.4087359   -11306.719    -8961.153   -4861.1874   -20097.818    14279.595    18388.279    6033.5353     85.69239 
   16200    1666.3953   -104.51552    1.5077895   -103.00773    -3732.194    4.4100204    4.4100204    4.4100204    -3732.194    -50747.51    50251.437   -10700.509    -6678.988   -17770.221    18381.617    85.767314 
   16300    1752.7463    -104.5944    1.5859217   -103.00848   -13480.205    4.4157314    4.4157314    4.4157314   -13480.205   -17800.987   -26577.228    3937.5996   -415.05005    8024.1608   -11852.017    86.100949 
   16400    725.40441   -103.67926   0.65636115    -103.0229    35620.111    4.4119349    4.4119349    4.4119349    35620.111   -27335.795    64256.478    69939.651    15226.583    2880.1593    19879.378    85.879061 
   16500    2150.3085   -104.94309    1.9456443   -102.99745   -19128.095    4.4279666    4.4279666    4.4279666   -19128.095   -23717.816   -26130.952   -7535.5172   -14572.539   -6523.9875   -7492.9479    86.818645 
   16600     868.8078   -103.78743   0.78611556   -103.00131   -5492.2023    4.4181082    4.4181082    4.4181082   -5492.2023   -27818.803    20141.288   -8799.0923    16622.194     23475.22    344.40449    86.240056 
   16700    2153.5038   -104.93631    1.9485355   -102.98777    1021.2678    4.4011876    4.4011876    4.4011876    1021.2678   -14595.233    1653.9402    16005.096   -16949.769   -14558.049    13470.806    85.252996 
   16800    1199.0006   -104.10078    1.0848809    -103.0159    5442.0115    4.4126397    4.4126397    4.4126397    5442.0115   -16027.324     69311.15   -36957.791    10496.043     14870.15   -6695.5828    85.920227 
   16900    1855.9388    -104.6913    1.6792924     -103.012   -36209.178    4.4312881    4.4312881    4.4312881   -36209.178   -54254.247   -22820.221   -31553.065   -5502.5739    6302.6063    20928.488    87.014167 
   17000    1732.3914   -104.55541    1.5675042   -102.98791   -7498.8707     4.428374     4.428374     4.428374   -7498.8707   -27408.063    40873.895   -35962.444    2446.2532   -2761.2104   -9484.3215    86.842609 
   17100    1383.5653   -104.24645     1.251879   -102.99457   -26678.491    4.4086239    4.4086239    4.4086239   -26678.491   -35005.062   -17198.801   -27831.609    21450.686      15832.2    15060.439    85.685859 
   17200     1817.241   -104.63354    1.6442778   -102.98927    11128.631    4.4034951    4.4034951    4.4034951    11128.631   -1826.1088    22209.784    13002.219   -27670.061   -10889.382    3055.8185    85.387155 
   17300    1488.9236   -104.35514    1.3472094   -103.00793   -23582.197    4.4304929    4.4304929    4.4304929   -23582.197    -42149.34    10176.305   -38773.557    36954.949   -2135.6027   -538.75407     86.96733 
   17400    1372.3355   -104.22986     1.241718   -102.98815   -13285.574    4.4408385    4.4408385    4.4408385   -13285.574     18100.92   -39906.974   -18050.667   -15765.581   -510.64873    12389.454    87.577985 
   17500    2063.8223   -104.84609    1.8673897    -102.9787   -25209.709    4.4133024    4.4133024    4.4133024   -25209.709   -20102.765   -28604.275   -26922.088    30339.887   -8008.3199   -10945.232    85.958942 
   17600    1095.8025   -103.98509   0.99150511   -102.99359    27355.284    4.3823183    4.3823183    4.3823183    27355.284    59682.292      19613.5    2770.0601    7288.3744    11566.052    27681.177    84.161166 
   17700    1736.9931   -104.60356    1.5716679   -103.03189    7391.3845    4.4140201    4.4140201    4.4140201    7391.3845    28150.652   -33470.414    27493.916    1712.9056    -2564.594   -26214.351    86.000885 
   17800    1081.9365   -103.98503   0.97895884   -103.00607   -28163.434    4.4409095    4.4409095    4.4409095   -28163.434   -32166.515   -18833.717   -33490.071     10649.07    18000.172    22706.659    87.582186 
   17900    1723.8501   -104.52396    1.5597758   -102.96418    7279.2518    4.4219899    4.4219899    4.4219899    7279.2518    738.86899     39264.75   -18165.864   -2689.6497   -4251.2275   -14277.681    86.467565 
   18000     1463.735   -104.29784    1.3244182   -102.97342   -17194.282    4.4105516    4.4105516    4.4105516   -17194.282    16949.578   -36173.304   -32359.119     9928.007    11387.737    15178.318    85.798308 
   18100    1347.0881   -104.21332    1.2188736   -102.99445    22763.674    4.3955097    4.3955097    4.3955097    22763.674    5615.4563    49705.841    12969.725   -9342.3248    9777.7903   -8457.7123    84.923471 
   18200    1804.6436   -104.64811    1.6328794   -103.01523   -25862.548    4.4162314    4.4162314    4.4162314   -25862.548   -10521.058    -32053.52   -35013.066   -74.364845    -8479.568   -20861.883    86.130203 
   18300    1437.6254   -104.30036    1.3007937   -102.99957    -21142.88    4.4269387    4.4269387    4.4269387    -21142.88   -53404.019    4905.4542   -14930.074    2238.6334    13428.727       9365.1    86.758196 
   18400    1185.0266   -104.06046     1.072237   -102.98823    17663.866    4.4113591    4.4113591    4.4113591    17663.866    56381.399    27579.134   -30968.935   -6100.5163    6998.7549   -43293.931    85.845442 
   18500    1637.1646   -104.46215    1.4813409   -102.98081    34873.052    4.4016935    4.4016935    4.4016935    34873.052    21028.397    72605.877    10984.882   -13594.079     5259.934    29987.971    85.282397 
   18600    1020.2383   -103.93702   0.92313303   -103.01389   -15585.107    4.4123159    4.4123159    4.4123159   -15585.107    35526.883   -61948.409   -20333.797    -2577.563   -2940.6307   -59934.925    85.901314 
   18700    2092.0667   -104.88077    1.8929459   -102.98783     14883.92    4.4147718    4.4147718    4.4147718     14883.92    3788.8163    48365.627   -7502.6821   -1644.4091   -297.01262    12910.762    86.044828 
   18800    794.20257   -103.72824   0.71861118   -103.00963   -9035.8793    4.4142074    4.4142074    4.4142074   -9035.8793     66752.54   -33696.805   -60163.373   -4894.3689   -8844.1111   -53476.498    86.011834 
   18900    2216.3664   -104.98586    2.0054149   -102.98044   -9714.8644    4.4113113    4.4113113    4.4113113   -9714.8644   -10598.065   -1126.5257   -17420.002   -10594.065   -10043.945    12338.012    85.842653 
   19000    1383.1493   -104.24039    1.2515026   -102.98889    2398.9643    4.4051474    4.4051474    4.4051474    2398.9643    8016.2322    43087.537   -43906.876    3869.9787    7745.2552   -52216.493    85.483308 
   19100    1503.3459   -104.35811     1.360259   -102.99785     -25278.3    4.4169884    4.4169884    4.4169884     -25278.3    7492.2757   -44968.278   -38358.898   -15000.827   -9531.7404     20190.07      86.1745 
   19200    1483.8522   -104.33526    1.3426207   -102.99264    14046.225    4.4100363    4.4100363    4.4100363    14046.225   -2768.1213    68955.309   -24048.512   -2805.8579   -2331.9201   -26375.683    85.768241 
   19300    1320.4417   -104.20107    1.1947634    -103.0063   -32389.062    4.4152701    4.4152701    4.4152701   -32389.062   -8244.2991    -41493.18   -47429.707    1885.8157    11332.932   -16352.205    86.073969 
   19400    1615.8141   -104.46487    1.4620226   -103.00284    10678.137    4.4048694    4.4048694    4.4048694    10678.137   -17142.197    22368.809    26807.799   -11415.875   -6721.1947    35729.576    85.467128 
   19500    1556.2692   -104.42907    1.4081451   -103.02093   -8775.2487    4.4150123    4.4150123    4.4150123   -8775.2487    -9543.608    9396.6583   -26178.796     3077.844    6024.3244   -31878.834    86.058895 
   19600    1293.3713   -104.18085    1.1702695   -103.01058   -30638.875    4.4249426    4.4249426    4.4249426   -30638.875   -1821.7433   -36454.952    -53639.93   -9626.8291    3947.0264    64583.807    86.640896 
   19700    1565.1173    -104.4029     1.416151   -102.98675    22369.138    4.4024903    4.4024903    4.4024903    22369.138     2977.984    50580.188    13549.244    9161.2528   -1680.0576   -27529.726     85.32872 
   19800    1310.3729   -104.18904    1.1856529   -103.00339   -9474.9923    4.4071214    4.4071214    4.4071214   -9474.9923    3861.5536    33813.423   -66099.953    4710.1424    2833.8521    54858.264    85.598283 
   19900    1495.3487   -104.36195     1.353023   -103.00893   -1279.1719    4.4191235    4.4191235    4.4191235   -1279.1719    1554.3015   -10601.536    5209.7192     8540.302   -14975.819   -2438.1955    86.299529 
   20000     1161.081   -104.05979    1.0505705   -103.00922   -5396.8931    4.4209314    4.4209314    4.4209314   -5396.8931    21967.974   -3060.8474   -35097.806    8531.3325    5613.6305    18707.442    86.405486 
   20100    1907.1995   -104.70748    1.7256742   -102.98181   -9684.1896     4.417542     4.417542     4.417542   -9684.1896    1040.5267   -595.16436   -29497.931     2023.576   -27321.145    2994.2247    86.206906 
   20200    1519.3932   -104.35107    1.3747789   -102.97629   -17297.969    4.4170481    4.4170481    4.4170481   -17297.969   -3896.0076   -13323.215   -34674.684     9710.957    8960.2339    15727.427    86.177994 
   20300    1209.5659   -104.07998    1.0944407   -102.98554    14534.829    4.4076603    4.4076603    4.4076603    14534.829    61791.469    3035.5896   -21222.573   -8090.3608   -14768.046    13237.679    85.629686 
   20400    1826.1902   -104.64419    1.6523753   -102.99182    3262.2089    4.4118976    4.4118976    4.4118976    3262.2089   -1087.8184    45081.303   -34206.858    -15060.71   -1348.8376   -1494.2293    85.876883 
   20500    1064.6566    -103.9623   0.96332369   -102.99898    20526.313    4.4121692    4.4121692    4.4121692    20526.313    41138.469    29615.294   -9174.8241    -21127.47    2186.0743    29156.528    85.892742 
   20600    1737.5798    -104.5618    1.5721987   -102.98961    6780.3402    4.4164328    4.4164328    4.4164328    6780.3402    29055.477    16378.509   -25092.965   -11373.015   -20981.918   -14013.918    86.141986 
   20700    1168.4606   -104.05244    1.0572477   -102.99519    29708.429     4.414416     4.414416     4.414416    29708.429    18757.886    71973.426   -1606.0261   -875.68766     6224.662    38022.711    86.024027 
   20800    1643.1738   -104.47766    1.4867782   -102.99088   -12392.251    4.4165851    4.4165851    4.4165851   -12392.251   -18266.437    18691.074    -37601.39   -10868.439   -18309.271   -19266.999    86.150899 
   20900    1359.9057   -104.21708    1.2304712   -102.98661     7760.334    4.4155956    4.4155956    4.4155956     7760.334    39419.328     26774.89   -42913.216   -3917.9178    543.31235    22155.814    86.093004 
   21000    1501.0297   -104.34805    1.3581633   -102.98988   -15256.788     4.409402     4.409402     4.409402   -15256.788   -27231.009    5058.0313   -23597.387   -6681.3697   -20047.065   -1552.0138    85.731237 
   21100    1622.0663   -104.46346    1.4676797   -102.99578    289.58305    4.4059952    4.4059952    4.4059952    289.58305    25743.997   -7104.7961   -17770.452    13565.541    5568.3193    -9555.709    85.532679 
   21200    1403.6213   -104.28508     1.270026   -103.01505   -15821.768    4.4137833    4.4137833    4.4137833   -15821.768    -43061.45    14636.319   -19040.174   -1640.6544   -21848.883    22788.003    85.987042 
   21300    1590.1433   -104.44189    1.4387951   -103.00309   -4299.6289    4.4114319    4.4114319    4.4114319   -4299.6289    9106.9203   -3410.7561   -18595.051    2201.8972    3796.8979   -33383.898     85.84969 
   21400    1313.4053   -104.19189    1.1883967   -103.00349    8587.2029    4.4143787    4.4143787    4.4143787    8587.2029   -14371.046     38285.71    1846.9444    25581.431   -9857.2666    27608.085    86.021849 
   21500    1750.7375   -104.57655     1.584104   -102.99245   -36484.476    4.4194436    4.4194436    4.4194436   -36484.476    -39780.35   -25652.034   -44021.046   -728.90365   -4954.3798   -29543.112     86.31828 
   21600    1408.1503   -104.27486     1.274124   -103.00074    15620.368    4.3956628    4.3956628    4.3956628    15620.368    19057.977    30375.148   -2572.0191    32.128942   -6352.9064   -12841.701    84.932342 
   21700    1532.3897   -104.40997    1.3865384   -103.02343    15734.393    4.3993967    4.3993967    4.3993967    15734.393    7716.7654    64830.939   -25344.526    4426.6088   -8732.5731    10804.016    85.148963 
   21800    1463.7458   -104.34191     1.324428   -103.01748   -16847.171    4.4253955    4.4253955    4.4253955   -16847.171   -12287.459   -23706.795    -14547.26   -19687.859    7492.2008    -39856.95    86.667501 
   21900    1468.0139   -104.32451    1.3282898   -102.99622    1144.1747     4.418439     4.418439     4.418439    1144.1747   -4590.8858    25403.598   -17380.188    4430.0832   -20302.685    32582.432    86.259432 
   22000     1631.195   -104.46463    1.4759395   -102.98869   -1718.6013    4.4140608    4.4140608    4.4140608   -1718.6013    20685.634    -12744.85   -13096.588   -12589.108    13301.569   -48222.355    86.003262 
   22100    1428.0346    -104.2898    1.2921157   -102.99769    9412.2008    4.4006577    4.4006577    4.4006577    9412.2008   -25854.592    65156.754    -11065.56    3023.6496   -16212.727    30975.034    85.222203 
   22200    1542.7254   -104.41123    1.3958903   -103.01534    5082.8847    4.4126579    4.4126579    4.4126579    5082.8847    11512.236   -5928.1596    9664.5776   -5372.7235    5524.5991   -24419.225     85.92129 
   22300    1475.1425   -104.34115      1.33474   -103.00641   -15429.502    4.4282919    4.4282919    4.4282919   -15429.502   -15502.291    14518.275   -45304.489    5839.9825   -10236.611    11723.031    86.837783 
   22400    1176.8367   -104.07148    1.0648266   -103.00665   -18785.826    4.4136338    4.4136338    4.4136338   -18785.826   -50247.969    4120.5145   -10230.024   -461.27814    -24952.06    5860.3706    85.978305 
   22500    2158.1647   -104.93509    1.9527528   -102.98234    12200.591    4.4055775    4.4055775    4.4055775    12200.591   -14277.133    22122.072    28756.835   -2235.8295    3523.0383     8897.821    85.508355 
   22600    579.89712   -103.54877    0.5247031   -103.02407   -24607.225    4.4139054    4.4139054    4.4139054   -24607.225   -63190.274    39370.008   -50001.408    4556.7047   -27731.492    27657.747    85.994183 
   22700    2103.2598    -104.9174    1.9030737   -103.01433    22620.758    4.4127394    4.4127394    4.4127394    22620.758   -19713.092    14239.626    73335.739    1781.5814     13455.97    1421.7799    85.926051 
   22800    1146.4606   -104.07414    1.0373417    -103.0368    4427.1165    4.4105477    4.4105477    4.4105477    4427.1165   -22328.074    20316.995    15292.428     486.0265   -18056.954    2453.3363    85.798079 
   22900    1705.4412   -104.56587    1.5431191   -103.02275   -4930.6399    4.4092816    4.4092816    4.4092816   -4930.6399   -25808.266   -8641.8677    19658.214   -3079.0393    15244.014     22764.17    85.724211 
   23000    1684.7899   -104.53832    1.5244333   -103.01389   -7858.3856    4.4128693    4.4128693    4.4128693   -7858.3856   -38362.378     19813.23   -5026.0089    4968.0523   -4997.1687   -25319.774    85.933635 
   23100    1516.5099   -104.38031      1.37217   -103.00814    11377.705    4.4061953    4.4061953    4.4061953    11377.705   -23672.343    18776.674    39028.784    4304.0432    4406.1928    25018.199     85.54433 
   23200    1241.8003   -104.13604     1.123607   -103.01243    -1862.751    4.4173875    4.4173875    4.4173875    -1862.751   -18038.041     15847.16   -3397.3714   -4187.5837    2701.8897   -59798.467    86.197862 
   23300    1653.4632    -104.4936    1.4960882   -102.99751    9448.1014      4.41563      4.41563      4.41563    9448.1014   -21646.545     4536.098    45454.751    10077.741    6477.3321    14153.589    86.095022 
   23400    1409.0875   -104.28362     1.274972   -103.00865   -1837.0925    4.4090627    4.4090627    4.4090627   -1837.0925    5648.7835    10093.955   -21254.016   -14619.013     2070.226   -34476.251    85.711448 
   23500    1536.7682   -104.40665    1.3905001   -103.01615    5666.7803    4.4046193    4.4046193    4.4046193    5666.7803   -19742.353   -14274.104    51016.799    7467.4372    6692.9766   -14157.053    85.452568 
   23600    1830.7671   -104.67421    1.6565165    -103.0177    4342.4696    4.4141565    4.4141565    4.4141565    4342.4696   -12563.774    29822.731   -4231.5489   -1468.5087    14374.621   -4767.7453     86.00886 
   23700     1158.862   -104.06744    1.0485627   -103.01888   -37587.685    4.4282457    4.4282457    4.4282457   -37587.685    -34067.05   -69934.719   -8761.2874    -11184.83   -5431.7957   -26864.968    86.835067 
   23800    1816.6399   -104.64409     1.643734   -103.00036    7007.2651    4.4102349    4.4102349    4.4102349    7007.2651   -14671.415    16999.991    18693.219    22923.529    15833.809   -932.15575    85.779826 
   23900    1795.1168   -104.63011    1.6242594   -103.00585   -24899.873    4.4072962    4.4072962    4.4072962   -24899.873   -5497.9667   -34482.797   -34718.855   -14675.404   -876.79422    -22581.86    85.608465 
   24000    1041.9562   -103.96395   0.94278385   -103.02117    1789.8123    4.4171449    4.4171449    4.4171449    1789.8123   -34803.883    23425.393    16747.927      26389.5    1523.3528    7453.2424    86.183659 
   24100    1745.3179   -104.57764    1.5792003   -102.99844    2252.7958    4.4246264    4.4246264    4.4246264    2252.7958    47696.092   -3724.1347   -37213.569    4674.7726    -3597.821   -11695.482    86.622323 
   24200    1029.7617   -103.92507   0.93175005   -102.99332   -11784.119    4.4211474    4.4211474    4.4211474   -11784.119     44745.65   -61931.429   -18166.579    27005.849    1753.9709    9714.2702    86.418152 
   24300    1519.5246   -104.36077    1.3748978   -102.98587    4196.8837    4.4140852    4.4140852    4.4140852    4196.8837    51311.335   -44247.099    5526.4152    -1139.744   -11190.439    9577.6049    86.004691 
   24400    1815.7095   -104.64159    1.6428921    -102.9987   -22854.316    4.4182849    4.4182849    4.4182849   -22854.316   -13742.609   -55566.503    746.16468    16618.057   -3494.7532   -11139.688    86.250405 
   24500    1279.8797   -104.17023    1.1580621   -103.01217   -25405.068    4.4117846    4.4117846    4.4117846   -25405.068   -19285.843   -58866.146    1936.7838   -1089.2754   -10499.247    27327.494    85.870285 
   24600    1983.8276   -104.79475    1.7950089   -102.99974    15906.131    4.4096876    4.4096876    4.4096876    15906.131    39896.382    -22572.23    30394.242   -5640.5318    6090.4781    2862.1655    85.747896 
   24700     1009.059    -103.9313   0.91301777   -103.01829   -4286.8065    4.4170045    4.4170045    4.4170045   -4286.8065    48423.936   -67261.898    5977.5422    20062.375    6463.8519     9400.751    86.175446 
   24800    1803.6089   -104.63346    1.6319432   -103.00152   -8294.1149    4.4192517    4.4192517    4.4192517   -8294.1149    22916.141   -21127.076    -26671.41   -4359.5034    5068.5007    14205.789    86.307037 
   24900    1697.9609   -104.52898    1.5363507   -102.99263   -24784.161    4.4247048    4.4247048    4.4247048   -24784.161   -19930.021   -63249.638    8827.1772    18189.934    10932.561   -1294.2071    86.626926 
   25000    1274.6449   -104.15132    1.1533255   -102.99799   -9896.4099    4.4075478    4.4075478    4.4075478   -9896.4099    10829.551   -32885.622    -7633.159   -14526.613   -11121.775    19853.721    85.623131 
   25100     1711.904   -104.54715    1.5489667   -102.99818    22142.455    4.4004149    4.4004149    4.4004149    22142.455    66307.228   -23382.186    23502.323    -3068.159     5039.908   -28304.063      85.2081 
   25200    1206.3983    -104.1039    1.0915745   -103.01233    2647.7055    4.4151471    4.4151471    4.4151471    2647.7055    22760.494    -22733.74    7916.3631    -16703.01   -1856.9347    14901.164    86.066777 
   25300    1352.0076   -104.24469    1.2233249   -103.02136   -20901.531    4.4148481    4.4148481    4.4148481   -20901.531    14797.554   -44013.881   -33488.267    -10351.75    3648.5657   -38279.329    86.049294 
   25400     2002.608   -104.81459    1.8120018   -103.00259    25166.446    4.4187168    4.4187168    4.4187168    25166.446    78612.476    8132.5014   -11245.638   -6877.8499   -573.37598    7725.2537    86.275705 
   25500     655.7655   -103.61222   0.59335041   -103.01887   -26353.699    4.4292307    4.4292307    4.4292307   -26353.699    76171.862   -77396.025   -77836.935    407.08321   -875.31582   -52736.609    86.893025 
   25600    2164.9775   -104.95327    1.9589172   -102.99435    3520.9459    4.4100716    4.4100716    4.4100716    3520.9459    23769.433   -10141.111   -3065.4843    12692.478   -6896.6062    11863.722      85.7703 
   25700    1322.0946   -104.20828     1.196259   -103.01202    5920.1495    4.4066703    4.4066703    4.4066703    5920.1495    77201.658   -23822.334   -35618.875    1436.2112   -1226.7957   -30244.967    85.571997 
   25800    1338.2316   -104.22703    1.2108601   -103.01617   -9755.7606    4.4218362    4.4218362    4.4218362   -9755.7606     3795.682   -38644.924    5581.9596    4456.7363    -865.4514    11658.406    86.458551 
   25900    1782.4083   -104.61905    1.6127605   -103.00629   -5050.1484    4.4195988    4.4195988    4.4195988   -5050.1484   -6225.1361   -10159.503    1234.1933    2726.5866   -11398.426   -18017.374    86.327373 
   26000    1393.1376   -104.26573    1.2605402   -103.00519   -24622.432    4.4171162    4.4171162    4.4171162   -24622.432   -15828.451   -41499.553   -16539.294   -13530.134   -978.88125   -5162.4382     86.18198 
   26100    1411.0276   -104.27583    1.2767274    -102.9991    6505.6895    4.3995911    4.3995911    4.3995911    6505.6895   -10223.737   -14680.172    44420.978    11757.858   -7886.6432    4705.5783    85.160256 
   26200    1839.8845    -104.6716    1.6647661   -103.00683    5008.4107    4.4102827    4.4102827    4.4102827    5008.4107     44326.09    463.44513   -29764.303   -241.05573   -4804.2069   -13682.822    85.782619 
   26300    947.74342   -103.87234   0.85753817    -103.0148   -45892.512    4.4245473    4.4245473    4.4245473   -45892.512     -33385.4   -95783.102   -8509.0323    15698.804     3489.213    21431.488    86.617675 
   26400    1545.2714   -104.38316     1.398194   -102.98497      43374.1    4.4118449    4.4118449    4.4118449      43374.1     96724.34    8759.1659    24638.793    9969.3507     3439.091   -9255.8074    85.873807 
   26500    970.07441   -103.88459   0.87774371   -103.00685   -7295.1708    4.4106624    4.4106624    4.4106624   -7295.1708    11072.608   -61235.645    28277.525    17647.884    3481.4998     13676.35    85.804772 
   26600     1913.502   -104.72089    1.7313769   -102.98951   -5314.3471     4.422373     4.422373     4.422373   -5314.3471    40926.548   -41700.162   -15169.427    618.71486    10632.054   -5935.2543     86.49004 
   26700    1232.8679   -104.10754    1.1155248   -102.99201   -24004.334    4.4259835    4.4259835    4.4259835   -24004.334   -3136.0796   -52095.684   -16781.238     8828.348    46.023294   -3900.6173    86.702048 
   26800    1707.8204   -104.53051    1.5452718   -102.98524   -11763.617    4.3968783    4.3968783    4.3968783   -11763.617   -11148.691    -46306.68     22164.52    2597.9402   -704.66706    6697.5783    85.002822 
   26900    1599.7975   -104.44565    1.4475304   -102.99812    5673.6457    4.4024833    4.4024833    4.4024833    5673.6457    65844.293   -41607.809   -7215.5474     1944.827    4671.4466   -25744.282    85.328312 
   27000    1315.6831   -104.20049    1.1904577   -103.01003   -26531.549    4.4158612    4.4158612    4.4158612   -26531.549   -26653.018   -65891.442    12949.813    17352.037   -2688.1933    9287.4196    86.108543 
   27100    1707.6723   -104.54722    1.5451378   -103.00208    4227.9849    4.4191887    4.4191887    4.4191887    4227.9849    42766.149    -24465.84   -5616.3546   -7117.8803    2742.9958   -27997.112    86.303348 
   27200    1559.7022   -104.40383    1.4112513   -102.99258   -22526.308    4.4210053    4.4210053    4.4210053   -22526.308    8207.3968   -70751.984   -5034.3383    23867.055   -8470.9229    13458.924     86.40982 
   27300    1161.8177    -104.0488    1.0512371   -102.99757    25355.941    4.3966269    4.3966269    4.3966269    25355.941    38583.939   -8131.4644    45615.348    -11844.97   -7893.2519   -40582.425    84.988243 
   27400    1981.9819   -104.79823    1.7933389   -103.00489    -6758.077     4.411706     4.411706     4.411706    -6758.077    2412.5045   -11921.646    -10765.09    13572.762    1612.1632    6077.0934    85.865693 
   27500    1331.7152   -104.20976    1.2049639    -103.0048   -15694.703    4.4151471    4.4151471    4.4151471   -15694.703   -25710.556   -46833.486    25459.933    -12474.03    15329.466   -18683.679    86.066773 
   27600    1380.2664   -104.23375    1.2488941   -102.98485    30982.353    4.4154907    4.4154907    4.4154907    30982.353    40201.624    15305.223    37440.213    8335.8591   -2759.3848    -3252.707    86.086868 
   27700    1603.8563   -104.43083    1.4512029   -102.97962   -37919.827    4.4252386    4.4252386    4.4252386   -37919.827   -48798.768   -58875.183   -6085.5297    3685.8977    8305.1528   -11665.258     86.65828 
   27800    1355.6796   -104.20331    1.2266474   -102.97667    26890.394    4.4029432    4.4029432    4.4029432    26890.394    43498.733     -27332.6     64505.05   -13059.961    4316.9769   -12436.876    85.355056 
   27900    1533.3232   -104.38175     1.387383   -102.99437   -10831.477     4.408574     4.408574     4.408574   -10831.477    8572.0869   -29426.776   -11639.743    9177.0159    4718.9255     25878.35    85.682947 
   28000    1465.2489   -104.32242     1.325788   -102.99663    16618.276    4.4026073    4.4026073    4.4026073    16618.276    25518.409   -37349.637    61686.055   -26073.203     6009.329   -10168.348    85.335524 
   28100    1431.0808   -104.29883     1.294872   -103.00396    2206.4176    4.4082565    4.4082565    4.4082565    2206.4176     38280.18    -39150.67    7489.7431    6118.8106   -5425.0698    42693.046     85.66444 
   28200    1794.0586   -104.61825    1.6233019   -102.99494    2892.9453    4.4134248    4.4134248    4.4134248    2892.9453   -21176.543    -8590.649    38446.028    -20633.34    1136.5739   -8439.2317    85.966092 
   28300    1241.1632   -104.11706    1.1230306   -102.99403    25147.726    4.4099454    4.4099454    4.4099454    25147.726    54737.014   -18262.227    38968.391   -1170.3185    1229.7751    42427.158    85.762934 
   28400    1730.8648    -104.5512    1.5661229   -102.98508   -15965.592    4.4195779    4.4195779    4.4195779   -15965.592   -52024.326    1713.8483    2413.7013   -20653.486   -1256.7553   -21756.996    86.326152 
   28500     1471.131   -104.31367    1.3311102   -102.98256     25782.06    4.4001205    4.4001205    4.4001205     25782.06    31784.493   -6175.9002    51737.588    2885.7864   -5075.6155    33294.449    85.190998 
   28600    1275.5947   -104.15777    1.1541849   -103.00359   -3338.6299    4.4034495    4.4034495    4.4034495   -3338.6299   -14954.377     6952.215   -2013.7274   -11835.351     5663.457    2370.1807    85.384506 
   28700    1777.2402   -104.61211    1.6080843   -103.00402   -12599.436     4.413568     4.413568     4.413568   -12599.436   -39891.154   -17103.573    19196.419    442.09026    8714.0244    4579.5526    85.974463 
   28800    1533.0234   -104.39576    1.3871118   -103.00865   -16605.888    4.4186664    4.4186664    4.4186664   -16605.888    2690.3853   -10154.564   -42353.485   -9438.3479   -109.33734    24162.228    86.272749 
   28900    1036.1877   -103.94853   0.93756443   -103.01096   -28.544751    4.4081265    4.4081265    4.4081265   -28.544751   -38623.674    38025.365    512.67471   -95.508375    14454.579   -18298.475    85.656858 
   29000    1992.8251   -104.79314    1.8031501   -102.98999    16247.193    4.3884043    4.3884043    4.3884043    16247.193    -1376.777    3131.2833    46987.072   -4469.9008    2622.3397    6720.8369    84.512294 
   29100    905.75076   -103.83982   0.81954232   -103.02028    2809.2999    4.4031985    4.4031985    4.4031985    2809.2999   -54332.879    55743.007    7017.7718   -10421.121     -878.674   -9352.1974    85.369906 
   29200    1905.6063   -104.73185    1.7242326   -103.00762    -14169.95    4.4200662    4.4200662    4.4200662    -14169.95   -15799.368   -35943.296    9232.8119   -1940.8487    8980.4917   -22750.927    86.354769 
   29300    1497.7094   -104.35798     1.355159   -103.00282    -17474.35    4.4193969    4.4193969    4.4193969    -17474.35   -64119.231    15045.808   -3349.6258   -5398.4514   -1429.0359    13655.332    86.315546 
   29400     1331.655   -104.20841    1.2049094    -103.0035   -18727.567    4.3924624    4.3924624    4.3924624   -18727.567    7800.1056   -14451.771   -49531.036   -4804.2563    -12028.35    -48883.15    84.746967 
   29500    1645.1485    -104.4942     1.488565   -103.00564     39777.26    4.3847485    4.3847485    4.3847485     39777.26   -22780.199    37937.732    104174.25   -19654.401    8061.5987    6667.0741    84.301261 
   29600    1206.7854   -104.11056    1.0919248   -103.01864   -23628.677    4.4126855    4.4126855    4.4126855   -23628.677   -6566.9274   -25155.175   -39163.929    10921.468   -1886.0415   -62010.764    85.922898 
   29700    1590.4513   -104.43495    1.4390738   -102.99588   -2456.4413    4.4111326    4.4111326    4.4111326   -2456.4413   -5553.6415   -10442.069    8626.3864    -30120.61    -3346.224    14108.299    85.832218 
   29800    1625.5517   -104.45484    1.4708334   -102.98401   -19663.484    4.4233432    4.4233432    4.4233432   -19663.484   -27454.948    -7833.986   -23701.518    9013.4696    96.125653   -43384.066    86.546979 
   29900    1198.9905   -104.08177    1.0848718   -102.99689    3378.7208    4.4025536    4.4025536    4.4025536    3378.7208   -11084.327    34358.121   -13137.631    -19528.33   -3615.6751   -6230.3141    85.332397 
   30000    1769.2394    -104.6001     1.600845   -102.99926    27957.603    4.3809812    4.3809812    4.3809812    27957.603    29987.717    23006.121    30878.971   -9358.6579    -6775.714    4118.1433    84.084155 
   30100    1465.8847    -104.3499    1.3263633   -103.02354    4391.6412    4.4010628    4.4010628    4.4010628    4391.6412     763.1712     45271.72   -32859.967    3170.4103    712.85452   -28900.886    85.245742 
   30200    1309.3945   -104.19774    1.1847676   -103.01297   -16246.772     4.418318     4.418318     4.418318   -16246.772    -29754.02   -2760.9413   -16225.354   -35109.973   -660.34734    19821.993    86.252343 
   30300    1829.1451   -104.64205    1.6550489     -102.987    4553.1538    4.4131559    4.4131559    4.4131559    4553.1538     32825.56    6863.8968   -26029.996    17150.299   -2608.0091   -22543.521    85.950381 
   30400    1041.9971   -103.93651   0.94282083   -102.99369   -20094.374    4.4039541    4.4039541    4.4039541   -20094.374   -47899.909   -7552.7092   -4830.5048    -42867.32   -1870.3672    10637.037    85.413859 
   30500    1998.2677   -104.78967    1.8080746    -102.9816    20236.076    4.3870171    4.3870171    4.3870171    20236.076    40592.854    20905.143   -789.76993    8861.7505    598.56613   -4766.6161    84.432175 
   30600    976.54028   -103.89972   0.88359416   -103.01613    8341.8226    4.4031561    4.4031561    4.4031561    8341.8226   -46003.507    69182.612    1846.3634   -50810.699    934.81383   -9492.2154     85.36744 
   30700    1823.3287   -104.65769    1.6497862    -103.0079   -40039.135    4.4218924    4.4218924    4.4218924   -40039.135   -46286.377   -22191.168   -51639.858     -2694.61   -1897.0688    17916.026    86.461845 
   30800    1407.7592   -104.27558    1.2737701   -103.00181    24697.048    4.3988708    4.3988708    4.3988708    24697.048    14550.225    51376.068    8164.8519   -23433.057    3269.9017   -22354.345    85.118433 
   30900    1444.7588   -104.31568    1.3072481   -103.00843   -25113.837    4.3945557    4.3945557    4.3945557   -25113.837   -52173.163   -4668.8091   -18499.538   -32333.202   -627.38384    23518.532    84.868185 
   31000     1732.368   -104.57157     1.567483   -103.00408    9107.7516    4.4029985    4.4029985    4.4029985    9107.7516   -1710.6899    39323.543   -10289.598    -4803.578    1476.8032   -8498.7622    85.358272 
   31100    1265.6606   -104.15041    1.1451963   -103.00521   -28476.339    4.4194384    4.4194384    4.4194384   -28476.339   -43807.561   -17345.754   -24275.702   -44927.484    1111.8048    124.67126    86.317974 
   31200    1472.8895   -104.32214    1.3327013   -102.98943   -2952.3375    4.4048308    4.4048308    4.4048308   -2952.3375   -7373.9998     20241.43   -21724.443    3711.8066   -1768.9454    19734.077     85.46488 
   31300     1547.652   -104.38483     1.400348   -102.98448   -2976.0678    4.3972712    4.3972712    4.3972712   -2976.0678   -41451.944    13279.343    19244.397   -52060.936    3585.5481   -20669.145    85.025609 
   31400    1708.0262   -104.52551     1.545458   -102.98005   -11234.639    4.4117212    4.4117212    4.4117212   -11234.639   -9805.0295   -6077.8565   -17821.029    8522.1355   -9001.3032    16020.787    85.866584 
   31500    1265.7402   -104.12655    1.1452683   -102.98128    5856.2349    4.4194781    4.4194781    4.4194781    5856.2349   -14563.744   -2974.6245    35107.074   -33989.402   -3790.7397   -9610.5212    86.320306 
   31600    1456.6246   -104.29097    1.3179846   -102.97299   -20115.838    4.4242478    4.4242478    4.4242478   -20115.838   -24333.391    -45309.93    9295.8083    12823.722     4712.625    15231.304    86.600085 
   31700    1471.4111   -104.31023    1.3313636   -102.97887    6464.0246    4.4023724    4.4023724    4.4023724    6464.0246   -30655.107    -38844.57    88891.751   -21842.982   -5307.1598    14316.976    85.321862 
   31800    1527.7175   -104.36716    1.3823109   -102.98485    14541.011    4.3997208    4.3997208    4.3997208    14541.011   -1358.5324    16556.288    28425.278    11236.608    13144.416    3220.9372    85.167783 
   31900    1285.9117   -104.16283      1.16352   -102.99931   -43499.323    4.4191515    4.4191515    4.4191515   -43499.323     -40959.4   -63716.846   -25821.724   -21512.636    4369.0994    33474.929    86.301168 
   32000    1984.2941   -104.77544     1.795431   -102.98001   -6870.7347    4.4104449    4.4104449    4.4104449   -6870.7347   -25633.903    14959.007   -9937.3078    4669.6795    13838.661   -18269.504    85.792081 
   32100    1256.1084   -104.13023    1.1365533   -102.99368    -16968.49    4.4165011    4.4165011    4.4165011    -16968.49   -23585.132   -31495.831    4175.4915   -7868.6593    541.53039    12397.465    86.145981 
   32200     1622.152   -104.44864    1.4677572   -102.98089    11618.293    4.4050988    4.4050988    4.4050988    11618.293    37828.838   -30986.428     28012.47   -2590.8004   -2481.3616   -27001.971    85.480482 
   32300    1503.3754   -104.35171    1.3602857   -102.99142    4212.6972    4.4012424    4.4012424    4.4012424    4212.6972   -23255.551    8550.3409    27343.302     3041.999    2269.4766   -4959.1375     85.25618 
   32400    1477.8276   -104.32414    1.3371695   -102.98697    69.476443    4.4199446    4.4199446    4.4199446    69.476443    18844.695    5622.1989   -24258.465   -16620.062   -5315.4183   -30640.299    86.347639 
   32500    1267.1635    -104.1363    1.1465562   -102.98974    -6981.926    4.4170768    4.4170768    4.4170768    -6981.926   -37873.698    50061.383   -33133.463    7572.5776    10096.912   -24604.725    86.179678 
   32600    1557.2477   -104.38405    1.4090304   -102.97502    27997.515    4.4138033    4.4138033    4.4138033    27997.515    17546.457    83576.506   -17130.418    -15587.39    5312.7794   -4690.5588    85.988216 
   32700    897.48285   -103.80241   0.81206134   -102.99035    2093.2776    4.4074888    4.4074888    4.4074888    2093.2776    19106.647     34365.31   -47192.124    13857.109    5482.1311   -38090.086    85.619691 
   32800    1788.4433    -104.5966    1.6182211   -102.97837    19688.364    4.4158357    4.4158357    4.4158357    19688.364    57126.301    -5397.152    7335.9439     4038.695    5827.2325    10108.139    86.107053 
   32900    1420.4438   -104.26345    1.2852474    -102.9782   -43203.598    4.4265171    4.4265171    4.4265171   -43203.598   -28709.433   -43944.972   -56956.387    8937.3628    11737.752   -36986.433    86.733414 
   33000    1361.8378   -104.19243    1.2322194   -102.96021     17349.88    4.4030922    4.4030922    4.4030922     17349.88    12372.636    19717.069    19959.934    5028.2517   -4300.8186    3053.0799    85.363719 
   33100    1561.4646   -104.38801     1.412846   -102.97517   -4334.0064     4.400377     4.400377     4.400377   -4334.0064    24256.063   -37564.721    306.63853   -1611.1739    9070.1082   -36267.947    85.205896 
   33200    1614.2101   -104.43406    1.4605712   -102.97349   -18321.679    4.4240671    4.4240671    4.4240671   -18321.679   -40961.255    17824.157   -31827.938    20349.644    17825.744    9805.7346     86.58948 
   33300    1247.5798   -104.09745    1.1288364   -102.96861   -24852.827    4.4292135    4.4292135    4.4292135   -24852.827   -18549.587   -17791.326   -38217.569   -13590.928   -9930.9505   -30250.097     86.89201 
   33400    1578.5083   -104.40024    1.4282675   -102.97197    -5023.743    4.4114175    4.4114175    4.4114175    -5023.743   -31343.156    36307.903   -20035.976    12800.594     6649.724     14984.12    85.848852 
   33500     1358.415    -104.2047    1.2291224   -102.97558    21532.969      4.39161      4.39161      4.39161    21532.969    57587.566   -2203.4325    9214.7748    8862.2609   -2772.9512   -22249.417    84.697636 
   33600    1347.2661    -104.2199    1.2190347   -103.00087   -17084.769    4.4077614    4.4077614    4.4077614   -17084.769   -29265.447   -15638.199    -6350.661   -2969.6234    7362.7667   -3481.0092    85.635581 
   33700    1775.3996   -104.59944    1.6064189   -102.99302   -9475.2222    4.4147319    4.4147319    4.4147319   -9475.2222   -8683.2985    4290.0443   -24032.412     776.2843   -8859.8338   -5879.9112    86.042498 
   33800    1224.7162   -104.10136    1.1081489   -102.99321   -4769.6921    4.4199343    4.4199343    4.4199343   -4769.6921    19808.415   -16390.763   -17726.729     4402.813    1474.3718   -20432.764     86.34704 
   33900    1462.1285   -104.31854    1.3229646   -102.99558   -6351.5579    4.4025847    4.4025847    4.4025847   -6351.5579    4970.7853    4477.3476   -28502.806    6349.0873    11893.541    3320.6567    85.334208 
   34000    1523.0118   -104.37809    1.3780531   -103.00004    29065.838    4.3886142    4.3886142    4.3886142    29065.838    65417.444    12514.467     9265.604    4320.2697   -7272.2973   -29376.876    84.524425 
   34100    1763.1806   -104.59909    1.5953629   -103.00372   -17293.379    4.4211194    4.4211194    4.4211194   -17293.379   -12269.654    904.54706   -40515.031    1732.8732      19640.6    5739.5522    86.416514 
   34200     1013.767   -103.91208   0.91727767   -102.99481   -9971.9904    4.4214449    4.4214449    4.4214449   -9971.9904   -3466.3837    -10601.67   -15847.917    16084.096    2674.6964   -45597.174    86.435597 
   34300    2051.5472   -104.81598     1.856283    -102.9597    24874.984    4.4104166    4.4104166    4.4104166    24874.984    25803.957    44491.177    4329.8185   -11115.491    8886.6775    6969.7801     85.79043 
   34400    953.53146   -103.85031   0.86277531   -102.98753    -20517.44    4.4142408    4.4142408    4.4142408    -20517.44   -12445.826   -26541.624    -22564.87    12896.863    5075.2363    -52912.42    86.013787 
   34500    1925.2901   -104.70896     1.742043   -102.96692    14634.539     4.416622     4.416622     4.416622    14634.539     11525.43   -1596.3159    33974.501    6555.8697     5332.572     8876.474    86.153058 
   34600    854.54589   -103.75608   0.77321108   -102.98286   -15984.487    4.4265224    4.4265224    4.4265224   -15984.487    44476.332   -46950.954   -45478.837   -186.61751    5090.6966   -53170.733    86.733728 
   34700     1842.363   -104.62749    1.6670087   -102.96049   -6337.1136    4.4162572    4.4162572    4.4162572   -6337.1136   -14154.095   -20704.309    15847.063    14303.407   -7691.0532    8156.4402    86.131713 
   34800    1123.9273   -103.99491     1.016953   -102.97795    9430.6872    4.3971307    4.3971307    4.3971307    9430.6872    68013.672    -13222.72   -26498.891    4161.9404     13209.06   -43772.226    85.017459 
   34900    1643.9528   -104.48383     1.487483   -102.99635   -1419.7127    4.4013359    4.4013359    4.4013359   -1419.7127    6850.7355    25483.474   -36593.348    20568.684    5521.3382   -7614.2475    85.261613 
   35000    1630.3324   -104.48143     1.475159   -103.00627   -17949.998    4.4201914    4.4201914    4.4201914   -17949.998    12414.533   -21915.036   -44349.492   -3764.5526   -3350.1351    -12419.12    86.362108 
   35100    1631.7174   -104.47546    1.4764122   -102.99905   -22547.439    4.4273277    4.4273277    4.4273277   -22547.439    16012.463    -18414.62    -65240.16    9323.6424    20681.252   -18932.717    86.781069 
   35200    1704.3603   -104.52637     1.542141   -102.98423    2130.9811    4.4048589    4.4048589    4.4048589    2130.9811    5163.7895    31889.293    -30660.14   -11667.028   -14636.728    7940.8592    85.466516 
   35300     1481.953   -104.33879    1.3409022   -102.99789    5944.8515    4.3969053    4.3969053    4.3969053    5944.8515    53096.318   -15627.854   -19633.909    3012.0228    23020.625   -27905.255    85.004387 
   35400    1426.1109   -104.29684    1.2903751   -103.00647    18403.778     4.418686     4.418686     4.418686    18403.778    17441.347    29988.624    7781.3627   -3213.7808   -4665.0649     14864.74    86.273896 
   35500    1173.1908   -104.06987    1.0615277   -103.00834   -8463.5583    4.4280671    4.4280671    4.4280671   -8463.5583    16528.967   -44382.952    2463.3104    3905.2942   -3294.5288   -23038.548    86.824559 
   35600    1850.5344    -104.6565    1.6744024   -102.98209   -15146.976    4.4259135    4.4259135    4.4259135   -15146.976   -28929.609    10120.318   -26631.636    7099.9316    31418.237    10331.918     86.69794 
   35700    1485.5859   -104.31746    1.3441894   -102.97327    8644.5009    4.4035459    4.4035459    4.4035459    8644.5009    25551.867    -2925.609    3307.2446    10047.614   -23088.817   -26993.696    85.390111 
   35800    1472.6811   -104.32489    1.3325128   -102.99237   -1906.3448    4.3979943    4.3979943    4.3979943   -1906.3448    3096.4326    39652.461   -48467.928   -4005.2369    50602.327    -9444.737    85.067562 
   35900    1997.7166   -104.81054     1.807576   -103.00296   -2589.6053    4.4141328    4.4141328    4.4141328   -2589.6053    31752.371   -26441.133   -13080.054    1910.1489   -11310.682   -15376.642    86.007472 
   36000    1160.4933   -104.05787    1.0500387   -103.00783   -19950.993    4.4245053    4.4245053    4.4245053   -19950.993    6389.8642    7263.6297   -73506.474   -3375.1579    41947.267   -15378.384    86.615211 
   36100    1899.1598   -104.71164    1.7183997   -102.99324    4373.9102     4.415146     4.415146     4.415146    4373.9102    16615.435    1162.9876   -4656.6923   -959.22938   -15581.487   -3201.7028    86.066714 
   36200    1440.7981   -104.29892    1.3036644   -102.99525    36731.184    4.3916084    4.3916084    4.3916084    36731.184    55932.269    38689.871    15571.411    8119.7925    29054.223   -16288.284    84.697543 
   36300    1575.4463   -104.43635    1.4254969   -103.01086    22697.613    4.4054444    4.4054444    4.4054444    22697.613    14295.944      60425.9   -6629.0043   -14765.606   -1406.5927    2728.9138    85.500601 
   36400    1466.5757   -104.32449    1.3269885    -102.9975   -10122.341    4.4273071    4.4273071    4.4273071   -10122.341    10635.256   -22355.387   -18646.893     21888.73   -14636.849   -2519.2781    86.779861 
   36500    1335.1444   -104.21183    1.2080667   -103.00376   -10107.681    4.4044261    4.4044261    4.4044261   -10107.681    -42536.86    20073.476   -7859.6594   -15236.469    24762.506     1893.925    85.441326 
   36600    1504.9381   -104.36477    1.3616996   -103.00307    17699.781    4.3912953    4.3912953    4.3912953    17699.781     12427.06    33501.608    7170.6771     980.6773   -30728.489   -3168.3174    84.679429 
   36700    1371.7174   -104.26248    1.2411587   -103.02132   -6619.0049    4.4110117    4.4110117    4.4110117   -6619.0049   -27301.905    37808.132   -30363.241    11607.383    26600.874   -11301.071    85.825161 
   36800    1381.7385   -104.24713    1.2502261   -102.99691    -29606.85    4.4344492    4.4344492    4.4344492    -29606.85   -35223.778    1953.6744   -55550.446   -9215.0078    -41805.04   -3260.6728    87.200516 
   36900    1570.0835   -104.39123    1.4206445   -102.97059    4514.3699     4.419421     4.419421     4.419421    4514.3699    6072.4569    23812.597   -16341.944    29528.245    29604.897    261.72449    86.316957 
   37000     1180.736    -104.0423    1.0683547   -102.97395   -14680.749    4.4032704    4.4032704    4.4032704   -14680.749   -13727.579   -6059.6742   -24254.993   -32095.887   -39575.332   -8050.9453    85.374088 
   37100    1615.6189   -104.44045     1.461846    -102.9786    27855.086    4.3973752    4.3973752    4.3973752    27855.086    47999.225    30251.515     5314.518    37400.694    6402.7655    6752.1482    85.031643 
   37200    1289.5593   -104.17346    1.1668204   -103.00664   -12628.572    4.4157373    4.4157373    4.4157373   -12628.572    17612.008   -29300.517   -26197.206   -24860.991   -15374.836    -12503.57    86.101295 
   37300    1479.6538   -104.33288    1.3388219   -102.99406   -2817.7707    4.4273309    4.4273309    4.4273309   -2817.7707    41791.331   -26073.795   -24170.849    1431.2398    -5630.119    6536.6531    86.781257 
   37400    1858.5345   -104.65778    1.6816411   -102.97614   -10735.981    4.4212724    4.4212724    4.4212724   -10735.981     16845.33   -34996.671   -14056.601   -2997.0566   -1720.4839   -6488.0914    86.425484 
   37500    990.64935   -103.88454   0.89636035   -102.98818    1789.6492    4.4007415    4.4007415    4.4007415    1789.6492    30475.669   -48562.501     23455.78   -39319.753   -17894.163    9235.2805    85.227071 
   37600     2163.599   -104.93562    1.9576698   -102.97796    36232.647    4.3955983    4.3955983    4.3955983    36232.647     40504.84    25340.473    42852.628     14909.19   -940.30722   -4851.1151    84.928603 
   37700     959.7668   -103.88657   0.86841717   -103.01816   -47725.524    4.4195193    4.4195193    4.4195193   -47725.524   -28423.571   -73317.636   -41435.364   -41054.926   -13115.204    -5269.474    86.322718 
   37800    2037.3645   -104.83376    1.8434502   -102.99031   -1823.0961    4.4162707    4.4162707    4.4162707   -1823.0961    2376.6261   -13885.625    6039.7107    4285.5218    2949.5317    17907.236    86.132504 
   37900    1178.9122   -104.06432    1.0667045   -102.99762   -5501.1271    4.4116886    4.4116886    4.4116886   -5501.1271   -36757.616    12195.984    8058.2504   -20029.324     -33665.6   -24963.971     85.86468 
   38000    1427.9116   -104.28798    1.2920045   -102.99597   -7503.7198    4.4108638    4.4108638    4.4108638   -7503.7198   -27188.016   -32921.716    37598.572   -8936.9611    1246.8708    23689.066    85.816527 
   38100    1542.7581   -104.39396      1.39592   -102.99804    17557.763    4.4064981    4.4064981    4.4064981    17557.763    18214.322    7593.4399    26865.527     5222.639   -11728.757   -11443.698     85.56197 
   38200    1099.7304   -104.00356   0.99505919    -103.0085     17395.96     4.410751     4.410751     4.410751     17395.96    43617.808    6877.1042    1692.9666    -15533.74   -41360.489     6012.594    85.809943 
   38300     1733.318   -104.55889    1.5683425   -102.99055   -11780.071    4.4198542    4.4198542    4.4198542   -11780.071    -2795.984   -29386.676   -3157.5518    26933.825    10156.358   -5270.1725    86.342342 
   38400    1216.7876   -104.09474     1.100975   -102.99376   -19654.827    4.4132674    4.4132674    4.4132674   -19654.827    5848.5898   -28583.542   -36229.529   -19539.369   -27727.842    -1197.822    85.956895 
   38500    1752.5932   -104.56547    1.5857831   -102.97969    28577.709    4.3910859    4.3910859    4.3910859    28577.709   -12879.333    18598.937    80013.522    23237.752   -279.71425    6430.1385     84.66732 
   38600    1448.0306   -104.32029    1.3102085   -103.01008   -36341.067    4.4100416    4.4100416    4.4100416   -36341.067   -60591.104   -28875.005   -19557.092   -8055.8709   -3001.3371   -2720.8004    85.768545 
   38700    1777.0878   -104.59477    1.6079464   -102.98683   -2308.1046    4.4135542    4.4135542    4.4135542   -2308.1046   -33677.129   -36470.322    63223.137    18733.328   -19016.584    2092.7843    85.973658 
   38800    1366.1618   -104.22236    1.2361319   -102.98622     7055.065    4.3995252    4.3995252    4.3995252     7055.065    -27297.43   -4874.9877    53337.612    8727.6353      6559.66    6554.6486    85.156429 
   38900    1516.8889   -104.35775    1.3725129   -102.98523    5363.0337    4.4051719    4.4051719    4.4051719    5363.0337    4474.7522   -32286.962    43901.311    17696.696   -10098.305   -7119.2409    85.484738 
   39000    1151.8547   -104.04047    1.0422224   -102.99825     9026.591    4.4006968    4.4006968    4.4006968     9026.591    17454.326    -44363.86    53989.307    38785.656   -6601.0416    7735.6212    85.224478 
   39100    1677.7247   -104.52352    1.5180405   -103.00548    1420.2011    4.4026101    4.4026101    4.4026101    1420.2011    19675.497   -12362.858   -3052.0357    12097.959    12459.609   -4336.4514    85.335682 
   39200    1687.0618   -104.53167    1.5264889   -103.00519    -36359.58    4.4160229    4.4160229    4.4160229    -36359.58   -45604.409   -73352.676    9878.3447    60047.843    2047.4817    16652.116    86.118004 
   39300    1729.3255   -104.55168    1.5647301   -102.98695    24000.616    4.3952472    4.3952472    4.3952472    24000.616    17046.393    19604.599    35350.855   -12443.211    13748.026   -2873.4912    84.908255 
   39400    1283.1533   -104.16714    1.1610241   -103.00612   -19921.558    4.4014345    4.4014345    4.4014345   -19921.558   -29337.491   -38084.142    7656.9577    72260.591    4226.8674    8528.0223    85.267341 
   39500    2099.5084   -104.88133    1.8996793   -102.98165     12764.44    4.4133357    4.4133357    4.4133357     12764.44    32864.858   -3054.1948    8482.6568   -21492.364   -3873.4287    16956.209    85.960885 
   39600    877.58854   -103.78886   0.79406056    -102.9948   -10313.634    4.4111826    4.4111826    4.4111826   -10313.634   -63245.846   -20198.624    52503.568    60080.211   -945.53775   -14538.478    85.835138 
   39700    1924.7172   -104.71659    1.7415246   -102.97506    2898.4897    4.4149481    4.4149481    4.4149481    2898.4897   -2490.2327   -27457.184    38642.886   -14503.671   -10264.415    8002.1564    86.055136 
   39800    1013.7332   -103.90567   0.91724711   -102.98842   -7963.8918    4.4129595    4.4129595    4.4129595   -7963.8918   -33488.916   -41798.771    51396.011    56935.589    -2287.841   -11032.235    85.938906 
   39900    1622.3998    -104.4421    1.4679814   -102.97412    9893.7867    4.4065206    4.4065206    4.4065206    9893.7867   -24197.797    12996.387     40882.77   -24405.846      1792.53   -13476.947    85.563275 
   40000    970.42142   -103.86653    0.8780577   -102.98847    8984.1554    4.4018783    4.4018783    4.4018783    8984.1554   -25083.987   -47858.558    99895.011    58851.662   -12802.876    11695.104    85.293136 
   40100    1893.2451   -104.68805     1.713048   -102.97501   -26428.099    4.4079017    4.4079017    4.4079017   -26428.099    -44813.08   -14476.337   -19994.879   -26171.499    17408.113    -4895.165    85.643757 
   40200    1102.1552   -103.98459   0.99725315   -102.98733    8701.8939    4.3986045    4.3986045    4.3986045    8701.8939   -21512.137   -19479.001    67096.819    50334.036   -9431.0862    6618.3843    85.102977 
   40300    1907.3501   -104.70565    1.7258104   -102.97984   -3867.1576    4.3964952    4.3964952    4.3964952   -3867.1576   -20711.909    12027.721   -2917.2848   -18135.558    19956.025    12863.751    84.980601 
   40400    1338.1397   -104.20164    1.2107769   -102.99086   -20314.476    4.4091521    4.4091521    4.4091521   -20314.476   -34662.907   -24526.988   -1753.5313    37482.643   -1883.2058   -5984.7781    85.716659 
   40500    1982.7423   -104.77037    1.7940269   -102.97634      3555.42    4.4003904    4.4003904    4.4003904      3555.42   -12514.061   -12414.703    35595.024    -14105.61    13090.417    18665.811    85.206679 
   40600    1037.7596   -103.93599   0.93898667   -102.99701   -4067.9205    4.4058618    4.4058618    4.4058618   -4067.9205   -33855.246   -2086.9953     23738.48    15609.575    1992.2382   -7033.5047    85.524907 
   40700    1757.8642   -104.56374    1.5905525   -102.97319    20487.455    4.4082033    4.4082033    4.4082033    20487.455    9666.1969   -16671.818    68467.986   -4228.8867   -6088.3449    2633.8627    85.661338 
   40800    964.10623   -103.87477   0.87234358   -103.00242   -30356.783     4.399729     4.399729     4.399729   -30356.783   -64708.972   -14965.006   -11396.372    7429.7603    29747.284    20364.432    85.168262 
   40900    1979.5952   -104.77476    1.7911793   -102.98358    26712.915    4.3872759    4.3872759    4.3872759    26712.915    30508.596    -11730.01     61360.16    107.20936   -6485.6993   -14709.631    84.447122 
   41000     1205.357   -104.10689    1.0906324   -103.01626   -27057.699     4.404728     4.404728     4.404728   -27057.699   -63725.712   -32461.392    15014.007    -1124.297    26469.074    11194.136    85.458897 
   41100     1981.647   -104.77472    1.7930358   -102.98168    3188.1456    4.4156287    4.4156287    4.4156287    3188.1456    10955.989   -7280.1039    5888.5517    3300.1734   -4828.3423    931.40447    86.094942 
   41200    781.22761   -103.69302   0.70687116   -102.98615    20472.409    4.3949213    4.3949213    4.3949213    20472.409    -27778.19    13127.404    76068.014   -6790.2169    20482.704   -5080.1823    84.889371 
   41300    2000.4053     -104.792    1.8100087   -102.98199   -2959.1793    4.3998209    4.3998209    4.3998209   -2959.1793    -1076.041   -8129.4645    327.96777    2961.5571    9581.4885    4211.6733    85.173596 
   41400    1363.9434   -104.23066    1.2341246   -102.99654    13985.405    4.3928303    4.3928303    4.3928303    13985.405   -6514.6738   -29406.853    77877.742   -7211.4358    4614.0734   -16129.754    84.768262 
   41500    1513.7477    -104.3726    1.3696707   -103.00293   -4947.8592    4.4094909    4.4094909    4.4094909   -4947.8592    -16307.78   -13147.057     14611.26    1737.5055    33940.693    8531.1515    85.736424 
   41600    1365.1711   -104.22217    1.2352355   -102.98694   -4194.7543    4.4141996    4.4141996    4.4141996   -4194.7543   -11671.214   -60852.517    59939.468   -4941.4318   -8998.0884    6475.5127    86.011375 
   41700    1596.8503    -104.4274    1.4448637   -102.98254    1197.0655    4.3901453    4.3901453    4.3901453    1197.0655   -24113.382    57309.234   -29604.655   -10388.466    34420.936    -7089.614     84.61292 
   41800    1413.0074   -104.28275    1.2785188   -103.00423    14642.969    4.3948317    4.3948317    4.3948317    14642.969    8879.9793   -28272.061    63320.988    6873.7714   -19937.584      29845.8    84.884178 
   41900    1516.0462   -104.38083    1.3717505   -103.00908   -14321.842    4.4192243    4.4192243    4.4192243   -14321.842   -47055.561    25454.902   -21364.868   -4177.5436    29933.864    -18621.28    86.305435 
   42000    1509.0546   -104.35972    1.3654243    -102.9943   -12195.128    4.4149753    4.4149753    4.4149753   -12195.128   -27781.941    2988.8714   -11792.314    2243.8586     2555.345    26087.368    86.056731 
   42100      1616.57    -104.4422    1.4627065   -102.97949    15218.565    4.3892974    4.3892974    4.3892974    15218.565   -19986.066    15668.589    49973.172   -3278.8192    14620.726   -3361.1416    84.563906 
   42200    1523.7671   -104.37422    1.3787365   -102.99549    4499.4669    4.3939403    4.3939403    4.3939403    4499.4669   -14372.193    38976.067   -11105.474    2951.6847    20695.138    9901.3506    84.832535 
   42300    1255.5658   -104.14553    1.1360623   -103.00947    15750.002    4.4077453    4.4077453    4.4077453    15750.002   -25745.072    16609.163    56385.915    5166.2299    8557.1304    20212.796    85.634637 
   42400    1671.2165   -104.50792    1.5121518   -102.99577   -26653.333    4.4215814    4.4215814    4.4215814   -26653.333   -40172.543   -6640.5718   -33146.884   -5324.9866    26173.526    -1812.898    86.443607 
   42500    1513.0377   -104.35384    1.3690283   -102.98481    12285.258    4.3974293    4.3974293    4.3974293    12285.258   -8640.6225     -4973.44    50469.836     7265.798   -5459.6338    16653.381    85.034782 
   42600    1246.9722   -104.11691    1.1282866   -102.98862    41297.332    4.3940337    4.3940337    4.3940337    41297.332    27675.487    51973.669    44242.839   -10134.204    33146.963   -5538.9067    84.837947 
   42700    1694.9208   -104.52558    1.5335999   -102.99198    -23983.91    4.4193157    4.4193157    4.4193157    -23983.91    89.557542   -64501.555    -7539.733    2169.8947    -16003.25    5607.6564    86.310791 
   42800    1238.0125    -104.1142    1.1201797   -102.99402   -13548.225    4.4120445    4.4120445    4.4120445   -13548.225   -32540.135   -668.57125   -7435.9694    1345.8068    60499.598    3246.6502     85.88546 
   42900    1725.2118   -104.54511    1.5610079    -102.9841    11495.957    4.4033965    4.4033965    4.4033965    11495.957    42147.535   -15613.516    7953.8537    2352.2833   -17576.264   -3996.4984    85.381424 
   43000    1155.8733   -104.04295    1.0458584   -102.99709   -18468.856    4.4048632    4.4048632    4.4048632   -18468.856   -35292.818    5674.0923   -25787.844   -396.11785    64120.442    10916.663    85.466768 
   43100    1989.7707   -104.78783    1.8003863   -102.98745    4188.1095    4.4067426    4.4067426    4.4067426    4188.1095    27208.385     -9793.81   -4850.2466    659.14315    5600.2113   -6850.2645    85.576211 
   43200    1134.7951     -104.026    1.0267864   -102.99922   -16637.593    4.4164557    4.4164557    4.4164557   -16637.593   -49832.306   -14957.427    14876.952     11755.78    26998.419    8519.1026    86.143328 
   43300    1727.8683   -104.55381    1.5634116   -102.99039    204.41966    4.4042819    4.4042819    4.4042819    204.41966    7960.5192    5311.3504   -12658.611   -4930.7298    26083.463    -8104.189    85.432937 
   43400    1414.1997   -104.27524    1.2795976   -102.99564    24009.228    4.3968194    4.3968194    4.3968194    24009.228    36809.483    9591.5483    25626.653    4341.0224    1345.7574    983.15925    84.999403 
   43500    1441.6598   -104.31169     1.304444   -103.00724    7883.8235    4.4082344    4.4082344    4.4082344    7883.8235   -739.72091    11736.829    12654.362    -341.3519    40183.188    5178.9867     85.66315 
   43600    1757.2116   -104.57966     1.589962    -102.9897   -1258.3216    4.4266108    4.4266108    4.4266108   -1258.3216    31148.866   -13629.658   -21294.173      1890.31   -9331.8826   -4944.9106     86.73892 
   43700    1066.6172   -103.94799   0.96509764   -102.98289   -20864.281    4.4128884    4.4128884    4.4128884   -20864.281   -59991.652    29534.832   -32136.021    11431.916     42330.11    7544.9244    85.934752 
   43800    1886.9714   -104.66545    1.7073714   -102.95808    29625.946    4.3940692    4.3940692    4.3940692    29625.946    54123.388     15817.52    18936.929   -4426.1204   -10383.739    -9130.704    84.840006 
   43900    1139.3541   -104.02111    1.0309116    -102.9902   -19090.594    4.4018956    4.4018956    4.4018956   -19090.594    -34801.23    18872.653   -41343.205    12809.261    61702.627     15643.26    85.294144 
   44000    1470.2332   -104.31622    1.3302979   -102.98592    21067.448    4.4144261    4.4144261    4.4144261    21067.448    66094.439   -5590.6892    2698.5928   -6231.0476   -11524.228   -14489.041    86.024616 
   44100     1316.368   -104.18841    1.1910774   -102.99733    -28736.82    4.4208127    4.4208127    4.4208127    -28736.82   -43558.711    17155.023   -59806.772   -2464.5695    58551.846    18095.458     86.39853 
   44200    1647.6561   -104.46888    1.4908339   -102.97804    23653.047    4.4024694    4.4024694    4.4024694    23653.047    47584.533   -942.56509    24317.172    21150.303   -10954.696   -4851.6612    85.327501 
   44300    1613.8564    -104.4452    1.4602511   -102.98495   -128.77546    4.3956926    4.3956926    4.3956926   -128.77546   -13705.635    20795.453   -7476.1437    -17433.43    46502.428    9932.6352    84.934072 
   44400    1427.5368   -104.29591    1.2916653   -103.00424    8586.2303    4.3980789    4.3980789    4.3980789    8586.2303     21614.37   -226.43265    4370.7538    20965.142   -2386.6515    6576.8047    85.072474 
   44500    1670.3039   -104.51112    1.5113261    -102.9998    4665.7013    4.4134797    4.4134797    4.4134797    4665.7013    7278.0291    4210.9065    2508.1683   -5333.3886    26550.009   -2200.6033    85.969303 
   44600    1328.3028   -104.20046    1.2018763   -102.99859    -17439.11    4.4158148    4.4158148    4.4158148    -17439.11   -27906.528    7867.6199   -32278.421    5640.9442    14315.751    12734.914    86.105828 
   44700    1665.1867   -104.49186    1.5066959   -102.98517    18752.254    4.4010787    4.4010787    4.4010787    18752.254    21817.892    15278.932    19159.937    375.06182    12305.619   -10781.883    85.246669 
   44800    1335.6211    -104.2079    1.2084981    -102.9994    -20317.55    4.4045789    4.4045789    4.4045789    -20317.55   -14345.587   -6612.5785   -39994.484    -8382.836    29230.394    16072.059    85.450222 
   44900    1532.6414   -104.38247    1.3867661   -102.99571    15253.846    4.4041123    4.4041123    4.4041123    15253.846    60044.784    4923.7357   -19206.981    24262.288   -10005.617     723.9904    85.423063 
   45000    1596.4918   -104.44929    1.4445393   -103.00475   -40037.738    4.4119552    4.4119552    4.4119552   -40037.738   -52425.213   -6898.8804   -60789.122   -5934.8548    48407.485   -127.12478    85.880249 
   45100    1602.9616    -104.4492    1.4503933   -102.99881   -10861.837    4.4170615    4.4170615    4.4170615   -10861.837    38740.458   -40366.966   -30959.004    13927.254   -19152.441    11136.834     86.17878 
   45200    1252.0814   -104.13312    1.1329096   -103.00021   -1222.3418    4.3972265    4.3972265    4.3972265   -1222.3418    1016.3603    54819.014   -59502.399    13218.768    47050.742   -13250.076    85.023018 
   45300    1599.9934   -104.44821    1.4477076    -103.0005     28598.14    4.3937407    4.3937407    4.3937407     28598.14    34397.499    33275.405    18121.516   -15202.308   -10969.025    14864.794    84.820975 
   45400    1284.4491   -104.17977    1.1621965   -103.01757   -14607.452    4.4151808    4.4151808    4.4151808   -14607.452   -2433.7037    18888.621   -60277.274    19010.317    42006.565   -12881.468    86.068744 
   45500    1816.3354   -104.63559    1.6434584   -102.99213   -398.55706    4.4247942    4.4247942    4.4247942   -398.55706    32.269367     21413.81   -22641.751   -12219.782   -10660.042    19607.385     86.63218 
   45600    1248.1034   -104.13362    1.1293102   -103.00431   -21615.851    4.4037189    4.4037189    4.4037189   -21615.851   -34872.946   -12929.173   -17045.433   -6164.3564    53148.288    1581.7025    85.400176 
   45700     1508.561   -104.35928    1.3649777   -102.99431     32729.59    4.3884107    4.3884107    4.3884107     32729.59    47161.316    42271.425    8756.0276    1672.9884    -855.6401     6750.909    84.512662 
   45800    1367.7442   -104.25075    1.2375637   -103.01319   -2190.5136    4.4047842    4.4047842    4.4047842   -2190.5136    -43014.63     50581.91   -14138.821   -17261.012    45145.566    30938.409     85.46217 
   45900    1628.8115   -104.46138    1.4737828   -102.98759    3612.6107    4.4195439    4.4195439    4.4195439    3612.6107   -10659.983    32370.726   -10872.911   -12234.176    3433.6029    5706.7118    86.324157 
   46000    1236.7134   -104.09718    1.1190043   -102.97818   -31142.755    4.4276201    4.4276201    4.4276201   -31142.755    -73618.73     54415.71   -74225.244   -5238.2295    39811.399    22663.049    86.798268 
   46100    1836.3281   -104.62783    1.6615483   -102.96628    9713.4085    4.3996533    4.3996533    4.3996533    9713.4085   -12107.892    47494.674   -6246.5567    -28615.29    1356.4843    7998.7637    85.163866 
   46200    1220.5519   -104.09066     1.104381   -102.98628    15220.188    4.3940054    4.3940054    4.3940054    15220.188   -21690.277     105332.4   -37981.562   -6974.3573    43084.534   -111.43695    84.836307 
   46300    1572.9992   -104.42135    1.4232828   -102.99807   -15590.009    4.4081548    4.4081548    4.4081548   -15590.009   -38743.038    15001.641    -23028.63   -26065.667    3342.8964    17803.242     85.65851 
   46400    1605.5992   -104.45776    1.4527799   -103.00498   -11000.464    4.4027271    4.4027271    4.4027271   -11000.464   -22741.372    11040.508   -21300.528   -10760.583    35797.754    -10870.07    85.342488 
   46500    1492.8481   -104.35713    1.3507603   -103.00637   -15276.794    4.4144946    4.4144946    4.4144946   -15276.794   -46538.531     30932.88    -30224.73   -1794.8556    13468.005    15695.291     86.02862 
   46600    1315.4085   -104.18625    1.1902093   -102.99604   -3767.3454    4.4042396    4.4042396    4.4042396   -3767.3454   -20075.092    19102.477   -10329.421   -23068.942    18396.677    1005.1687    85.430472 
   46700    1732.7151   -104.55376     1.567797   -102.98596    5169.0827    4.3910335    4.3910335    4.3910335    5169.0827   -27016.998    51651.425   -9127.1795    10468.663     29852.89    800.10266    84.664283 
   46800    1390.3898   -104.26443    1.2580539   -103.00638   -17688.189    4.4062202    4.4062202    4.4062202   -17688.189       -31038   -13325.434   -8701.1321   -21293.111    5495.6907    14121.065    85.545781 
   46900    1695.4174   -104.52886    1.5340493   -102.99481   -4519.7974    4.4116288    4.4116288    4.4116288   -4519.7974   -20692.912    47273.319   -40139.799    8254.6777    38994.174   -4545.9405    85.861185 
   47000    1493.3788    -104.3485    1.3512405   -102.99726   -5890.5663    4.4020336    4.4020336    4.4020336   -5890.5663   -19880.006    6381.6326    -4173.326   -15940.913   -2520.3331    -2034.573    85.302164 
   47100    1606.9079   -104.45473     1.453964   -103.00077   -14938.451     4.394795     4.394795     4.394795   -14938.451   -20627.517    13736.809   -37924.645   -3227.0798    52308.534    2831.6163    84.882049 
   47200    1671.9248   -104.51115    1.5127927   -102.99836    12410.759     4.404328     4.404328     4.404328    12410.759    1214.3767     29509.55    6508.3494   -14439.469   -8891.2917   -6390.6821    85.435617 
   47300    996.08212   -103.90795   0.90127603   -103.00667   -47859.103     4.421204     4.421204     4.421204   -47859.103   -57389.154   -12408.716    -73779.44   -9404.5831      52918.4    15105.515    86.421471 
   47400    2114.2677   -104.90505    1.9130338   -102.99202    18581.742    4.3866093    4.3866093    4.3866093    18581.742    9545.3296    32525.085    13674.812    10066.764   -19629.202    673.67274    84.408631 
   47500    1055.8683   -103.96423   0.95537186   -103.00885    5348.0847     4.378463     4.378463     4.378463    5348.0847   -28595.789    43974.377    665.66651    -21429.53    56091.372    8522.2162    83.939242 
   47600    1854.4758   -104.67642    1.6779687   -102.99845   -7718.9085    4.4115296    4.4115296    4.4115296   -7718.9085   -6298.0784    16592.416   -33451.063    10830.399   -13839.671    7753.6147    85.855393 
   47700     1283.952   -104.16289    1.1617468   -103.00115   -26699.722    4.4207084    4.4207084    4.4207084   -26699.722   -58505.792   -2454.5313   -19138.844   -15256.895    45577.031   -3107.7071    86.392411 
   47800    1542.7529   -104.39777    1.3959153   -103.00185   -8033.1344    4.4053776    4.4053776    4.4053776   -8033.1344   -10199.227    6984.4495   -20884.626    -6559.189    8643.9616    8504.4907    85.496712 
   47900    1531.0986   -104.38369    1.3853702   -102.99832    46615.873    4.3734524    4.3734524    4.3734524    46615.873    48495.721    64035.042    27316.854    8012.0787    24336.302    6658.1275    83.651401 
   48000    1182.4602   -104.10291    1.0699148   -103.03299   -1557.4109    4.3944066    4.3944066    4.3944066   -1557.4109   -19408.879     16159.18   -1422.5337   -32703.896    27406.132    15487.677    84.859545 
   48100    2060.4656   -104.85368    1.8643526   -102.98932   -11211.622    4.4214326    4.4214326    4.4214326   -11211.622   -2224.6037    -5807.839   -25602.424   -841.60811    11711.499    17742.057    86.434881 
   48200    1011.2659   -103.91126   0.91501465   -102.99625   -8085.8423    4.4129095    4.4129095    4.4129095   -8085.8423   -47177.342    12485.302    10434.513   -10841.094    37100.973    4151.2267    85.935985 
   48300    2023.7467   -104.81458    1.8311285   -102.98345    5880.1643    4.3922589    4.3922589    4.3922589    5880.1643    21440.367   -9888.2144    6088.3405   -10819.774    -20061.51    21980.769    84.735189 
   48400    1294.3637   -104.17333    1.1711675   -103.00216    25891.199    4.3835047    4.3835047    4.3835047    25891.199     2881.193    58703.503    16088.902   -1115.8105    37833.224   -7696.3391    84.229541 
   48500    1537.2117   -104.40644    1.3909015   -103.01554    2400.9673    4.4004382    4.4004382    4.4004382    2400.9673    10700.238    7519.6743    -11017.01   -27424.681   -17636.184    23236.198    85.209453 
   48600    1519.4659   -104.37766    1.3748447   -103.00281   -4448.7659      4.41419      4.41419      4.41419   -4448.7659    9155.4587    224.64503   -22726.401    11173.159    3764.1384   -11922.748    86.010814 
   48700     1563.496   -104.41527     1.414684   -103.00058   -9525.3045    4.3962734    4.3962734    4.3962734   -9525.3045   -19373.789   -24330.763    15128.638     -33153.1    12245.407    1713.2414     84.96774 
   48800    1436.2244   -104.29933    1.2995261    -102.9998    28769.911    4.3865574    4.3865574    4.3865574    28769.911    35585.563    37297.124    13427.045    5108.1072   -42373.769    2941.7719    84.405635 
   48900    1629.3714   -104.48757    1.4742895   -103.01328   -19440.185    4.4040849    4.4040849    4.4040849   -19440.185   -17929.241   -39627.889   -763.42429   -19965.822      25841.7    -13700.87    85.421472 
   49000    1148.2188   -104.05017    1.0389325   -103.01124    18311.283    4.4064982    4.4064982    4.4064982    18311.283    35556.298    11288.365    8089.1858   -5452.6764    -47117.62    9779.8608    85.561973 
   49100    1964.2304   -104.77686    1.7772769   -102.99958   -7185.9864    4.4006471    4.4006471    4.4006471   -7185.9864    2187.7104    4202.6676   -27948.337   -1170.6009   -341.82495    -20260.03     85.22159 
   49200    991.08842    -103.9046   0.89675763   -103.00784    10090.788    4.4024104    4.4024104    4.4024104    10090.788    2033.4553   -8590.2142    36829.123   -12422.317   -19941.444   -1305.4487    85.324071 
   49300    1904.4211   -104.72622    1.7231602   -103.00306   -18560.106    4.4019111    4.4019111    4.4019111   -18560.106   -39518.853    8223.4042   -24384.869    12406.901   -37775.679   -8128.5685    85.295044 
   49400    1249.7893    -104.1425    1.1308356   -103.01166    33699.297    4.3972812    4.3972812    4.3972812    33699.297    28581.852    -4135.828    76651.867   -10299.863   -6601.4248    -18293.65    85.026192 
   49500    1503.7586    -104.3776    1.3606324   -103.01697   -28067.137    4.4116196    4.4116196    4.4116196   -28067.137   -70476.656   -5612.9353   -8111.8184    3828.8205   -49991.274   -159.38105     85.86065 
   49600    1811.7806    -104.6309    1.6393372   -102.99157    10044.152     4.406567     4.406567     4.406567    10044.152    31547.684   -18143.426    16728.196   -1769.6984    10000.032   -5693.7997    85.565982 
   49700    1440.2432   -104.30006    1.3031624   -102.99689   -23932.377    4.4011161    4.4011161    4.4011161   -23932.377   -47935.104    11934.372   -35796.399    5994.6534    -73471.15    -5191.743    85.248838 
   49800    2102.1127   -104.88259    1.9020357   -102.98055   -5767.3362    4.4100904    4.4100904    4.4100904   -5767.3362    34044.401   -29600.186   -21746.224    9906.6521    12670.853    12236.241    85.771393 
   49900    1105.2518   -103.99107    1.0000551   -102.99102   -13758.655    4.4190951    4.4190951    4.4190951   -13758.655   -30453.003    22713.212   -33536.173    -2726.269   -66685.912   -18330.393    86.297865 
   50000    1924.2045   -104.71368    1.7410607   -102.97262    7071.8478    4.4045541    4.4045541    4.4045541    7071.8478    47548.252    -36308.24    9975.5314    2233.8533    12046.734    20094.545    85.448777 
   50100     1258.643   -104.12545    1.1388466   -102.98661    7359.9532    4.3891644    4.3891644    4.3891644    7359.9532    23725.383    16927.068   -18572.592    5666.2859    -57381.47   -11427.929    84.556218 
   50200    1808.7635   -104.62471    1.6366072    -102.9881    16614.593    4.4008191    4.4008191    4.4008191    16614.593    36968.513   -15995.185    28870.449   -17181.873    16650.899    20195.175     85.23158 
   50300    1210.1521    -104.0904    1.0949711   -102.99543   -16914.652    4.4191673    4.4191673    4.4191673   -16914.652    9687.1798   -12944.675    -47486.46    4277.9316   -53274.697     3408.837    86.302091 
   50400    2030.6659   -104.80923    1.8373892   -102.97184    -7094.278    4.4131906    4.4131906    4.4131906    -7094.278    3973.3638   -30049.846    4793.6482   -16880.062    4889.2715    3375.0366    85.952409 
   50500    1230.1732   -104.09732    1.1130866   -102.98424   -5558.9569    4.3979348    4.3979348    4.3979348   -5558.9569    20931.234   -19798.822   -17809.283   -2389.8042   -38311.385    21827.876    85.064112 
   50600    2048.1099   -104.84292    1.8531729   -102.98975    9543.0032     4.391145     4.391145     4.391145    9543.0032    7039.5406    4306.7976    17282.671   -10855.036   -14048.596   -19761.178    84.670737 
   50700    971.79043   -103.89166    0.8792964   -103.01236    11711.121     4.410676     4.410676     4.410676    11711.121    28120.871   -7805.0881    14817.581   -3897.9745   -10810.837    28896.161    85.805567 
   50800    1864.6028   -104.68888    1.6871318   -103.00175   -33968.989    4.4198224    4.4198224    4.4198224   -33968.989   -65873.917   -14888.371   -21144.678   -6771.6362   -41571.069     -10444.7    86.340477 
   50900    1638.9669    -104.4771    1.4829717   -102.99413    3657.2905    4.4077681    4.4077681    4.4077681    3657.2905    10966.348   -14604.167     14609.69   -11889.597    25206.129    16615.506    85.635969 
   51000    1169.2352   -104.06007    1.0579486   -103.00212   -4114.0806    4.4032882    4.4032882    4.4032882   -4114.0806   -20971.195    32870.292   -24241.339   -1312.2887   -54986.935    5102.9519    85.375122 
   51100    1891.0695   -104.69666    1.7110794   -102.98558    12682.528    4.4121093    4.4121093    4.4121093    12682.528     5188.124    17011.011    15848.448   -6349.6024    18261.157   -11483.033    85.889245 
   51200    811.06019   -103.73191   0.73386431   -102.99805   -15136.497    4.4148658    4.4148658    4.4148658   -15136.497    -14835.97    43052.001   -73625.523   -5106.2893   -51800.989    22197.335    86.050329 
   51300     2206.352   -104.96187    1.9963537   -102.96551    11968.385    4.4107089    4.4107089    4.4107089    11968.385   -17130.696    7284.7005     45751.15    9239.2359    14155.195   -20316.286    85.807488 
   51400    943.45445   -103.85129   0.85365741   -102.99763   -29058.519    4.4013698    4.4013698    4.4013698   -29058.519   -32646.124    13522.935   -68052.368    1221.4799   -59718.284     19420.08    85.263583 
   51500    1952.3502   -104.75651    1.7665275   -102.98999    29862.085    4.3972363    4.3972363    4.3972363    29862.085    5250.6603    7688.3744    76647.219    2243.1855     8193.387    18062.429    85.023582 
   51600    719.43125   -103.66793   0.65095652   -103.01697   -10392.947    4.4138636    4.4138636    4.4138636   -10392.947   -48637.753    50690.071    -33231.16    4909.7751   -74917.946    2083.2896    85.991736 
   51700    2263.9295    -105.0264     2.048451   -102.97795   -14141.192    4.4184569    4.4184569    4.4184569   -14141.192   -17268.631   -24043.647   -1111.2986      -9.7207    20035.297    15326.804     86.26048 
   51800    995.94539   -103.88062   0.90115232   -102.97947   -30615.621     4.423542     4.423542     4.423542   -30615.621    -60068.75    24479.058   -56257.171    677.58204   -71460.798   -5208.3885    86.558647 
   51900    1750.4321   -104.53837    1.5838277   -102.95454    22277.054    4.4011494    4.4011494    4.4011494    22277.054    46853.873     25577.23   -5599.9413    2770.8053    3913.3452    19224.321    85.250775 
   52000     1349.174   -104.20065     1.220761   -102.97989    -6923.572    4.3969672    4.3969672    4.3969672    -6923.572   -11144.075    45559.869    -55186.51    1541.3974   -51542.743   -5504.8092    85.007978 
   52100    1842.6665   -104.65972    1.6672834   -102.99243   -13401.429    4.4082681    4.4082681    4.4082681   -13401.429   -1154.5943   -10324.828   -28724.865   -1871.0365   -7348.5234    7006.8393    85.665117 
   52200     1244.981    -104.1331     1.126485   -103.00661   -10459.107    4.4146228    4.4146228    4.4146228   -10459.107   -41232.505    36907.323    -27052.14   -14162.036   -40759.638   -4476.6959    86.036118 
   52300    1642.5175   -104.47837    1.4861844   -102.99219   -27098.404    4.4216372    4.4216372    4.4216372   -27098.404   -19632.601   -28563.396   -33099.216    6024.7351    -8403.077   -1639.3687    86.446877 
   52400    1571.9999   -104.40729    1.4223786   -102.98491     23466.02    4.3893172    4.3893172    4.3893172     23466.02    38777.055    24762.999    6858.0062    -10381.73   -41983.537   -6237.5122    84.565049 
   52500    1081.4263   -103.98054   0.97849721   -103.00204    23390.601    4.3922594    4.3922594    4.3922594    23390.601    28440.343    16518.801    25212.659    3702.3505   -32695.461   -4450.1063    84.735215 
   52600    1664.4102   -104.50532    1.5059933   -102.99933   -11152.318    4.4162764    4.4162764    4.4162764   -11152.318   -21437.903    15029.749   -27048.799    8372.7155   -16022.678   -12351.498    86.132832 
   52700    1462.2685   -104.30016    1.3230913   -102.97707    6423.6372    4.4236825    4.4236825    4.4236825    6423.6372   -29143.131    31846.017    16568.026   -13372.736   -33457.769   -15084.029    86.566897 
   52800    1370.7539   -104.21042     1.240287   -102.97013   -13222.381    4.4183566    4.4183566    4.4183566   -13222.381   -51936.417    46100.957   -33831.685    3885.4556   -6864.1234    630.01296    86.254605 
   52900    1535.1232   -104.36337    1.3890117   -102.97436    19543.743    4.3907354    4.3907354    4.3907354    19543.743   -13996.367    35864.271    36763.325   -6077.8679   -39079.747   -9005.5121    84.647044 
   53000     1809.022   -104.62135    1.6368411   -102.98451    12718.518    4.3906982    4.3906982    4.3906982    12718.518   -21793.153    62784.613   -2835.9055   -11241.411   -980.96768   -6953.9594    84.644893 
   53100     1243.675   -104.13359    1.1253033   -103.00829   -15618.896    4.4132034    4.4132034    4.4132034   -15618.896   -62080.597    36061.972   -20838.063    3180.8319   -41373.421    1744.3878    85.953157 
   53200    1719.2656   -104.54169    1.5556276   -102.98606   -2016.1493    4.4148903    4.4148903    4.4148903   -2016.1493    -29224.52    3920.3531    19255.719    -21917.15     6931.254   -9189.4605    86.051761 
   53300    1530.7568   -104.37429     1.385061   -102.98923   -15314.705    4.4070355    4.4070355    4.4070355   -15314.705   -50133.209    22896.151   -18707.058    15835.623   -45816.184   -5788.3057    85.593273 
   53400    1776.6043   -104.58936    1.6075089   -102.98185    23423.909    4.3920386    4.3920386    4.3920386    23423.909    9715.6888    5234.0422    55321.995    -30401.34    5406.6973   -19220.531    84.722441 
   53500    957.48943   -103.88588   0.86635656   -103.01952   -4692.2788     4.408527     4.408527     4.408527   -4692.2788   -34018.449    23581.045   -3639.4324    8766.9825   -64076.754    1820.1103    85.680209 
   53600    1883.8373   -104.69529    1.7045356   -102.99075    5578.3621    4.4215203    4.4215203    4.4215203    5578.3621    21402.295   -32059.768    27392.559   -14634.357   -1524.6346    -6506.751    86.440024 
   53700    771.62329   -103.68655   0.69818097   -102.98837     30136.54     4.405107     4.405107     4.405107     30136.54    52713.118    20092.338    17604.164   -5153.6956   -64182.947   -13221.115    85.480956 
   53800     1859.458   -104.64738    1.6824766    -102.9649    13925.793    4.4086795    4.4086795    4.4086795    13925.793    9768.2339    19595.164    12413.982   -2894.7551    9053.0487   -1876.4211      85.6891 
   53900    1034.9895   -103.91842    0.9364803   -102.98194    2519.5789     4.403884     4.403884     4.403884    2519.5789   -12479.552    33535.453   -13497.164    -23985.13   -50407.481   -16175.619     85.40978 
   54000    2170.0309    -104.9454    1.9634896   -102.98191   -7778.5301    4.4065866    4.4065866    4.4065866   -7778.5301   -23618.097   -14754.494    15037.001    22263.587    2420.9755    3787.0526    85.567123 
   54100     1030.599   -103.92432   0.93250762   -102.99181   -5366.1394    4.4139985    4.4139985    4.4139985   -5366.1394   -44900.674    38739.412   -9937.1561   -13687.691   -30972.837   -3541.2438    85.999624 
   54200    1793.9921   -104.60052    1.6232417   -102.97728   -2038.8437     4.417177     4.417177     4.417177   -2038.8437    20457.299    2464.2318   -29038.062    11928.845   -3246.9888     4458.175    86.185539 
   54300    1535.4142   -104.37886    1.3892751   -102.98958   -20730.949    4.4086039    4.4086039    4.4086039   -20730.949   -56244.692   -6645.8278    697.67361   -20080.966   -25070.723    2118.5943    85.684691 
   54400    1331.1522   -104.19686    1.2044545   -102.99241    14042.388    4.3854776    4.3854776    4.3854776    14042.388   -4996.8086    68671.323   -21547.351   -2696.7163   -31217.605   -5065.3249    84.343319 
   54500    1548.8306   -104.40478    1.4014145   -103.00336   -2675.7819    4.4074092    4.4074092    4.4074092   -2675.7819   -13300.944    21295.129    -16021.53    1363.5277   -33057.902    11519.473    85.615053 
   54600    997.77426   -103.89302   0.90280712   -102.99021   -32440.584    4.4282645    4.4282645    4.4282645   -32440.584   -73900.063    4637.2017    -28058.89   -16943.026   -52205.068    -6082.081    86.836172 
   54700    1900.3233   -104.67684    1.7194525   -102.95738    11735.268    4.4047986    4.4047986    4.4047986    11735.268    7081.6212    5092.4224    23031.761    1210.3675   -3149.8054     12545.35    85.463006 
   54800    1053.2982    -103.9284   0.95304637   -102.97535    -14595.69    4.3969882    4.3969882    4.3969882    -14595.69   -65584.352    485.45566    21311.826   -32340.785   -44567.523   -7495.0424    85.009194 
   54900    1980.8431   -104.76753    1.7923084   -102.97522    14486.678    4.3936813    4.3936813    4.3936813    14486.678    20256.361    6799.1934     16404.48    3504.9373    6663.8573   -6060.6565    84.817537 
   55000    1008.6405   -103.92615   0.91263908   -103.01352   -3921.0799    4.4052523    4.4052523    4.4052523   -3921.0799   -29998.354    35898.932   -17663.818   -30772.138   -46499.858    3239.1796    85.489418 
   55100     1976.062   -104.78098    1.7879824     -102.993   -11110.372    4.4155003    4.4155003    4.4155003   -11110.372   -29546.514     2299.849   -6084.4515   -30365.598    17820.625    674.90717    86.087435 
   55200    1060.7296   -103.95384   0.95977043   -102.99407    8396.4163    4.4042731    4.4042731    4.4042731    8396.4163    12681.821    15617.993   -3110.5657   -756.76777   -42078.473    11065.014    85.432422 
   55300    1831.9108   -104.64553    1.6575514   -102.98798   -13974.284    4.4033164    4.4033164    4.4033164   -13974.284    -49628.25   -23764.947    31470.347   -50469.099    13939.524    6746.0981     85.37676 
   55400    1431.0039   -104.28067    1.2948024   -102.98587      1291.02    4.4020719    4.4020719    4.4020719      1291.02    21665.916    5483.5963   -23276.452    22910.421   -34652.813    5966.7581    85.304393 
   55500    1502.3278   -104.34858    1.3593378   -102.98924   -29310.031    4.4092323    4.4092323    4.4092323   -29310.031   -34654.591   -53944.629    669.12646   -43936.288    2986.5872    17657.692    85.721339 
   55600    1894.5643   -104.69137    1.7142416   -102.97713    91.957126    4.4099865    4.4099865    4.4099865    91.957126     4836.072    14634.961   -19195.162    29119.419   -20367.966    4745.4872    85.765335 
   55700     1194.382   -104.07542    1.0807019   -102.99472   -3988.6749    4.4017431    4.4017431    4.4017431   -3988.6749   -12668.838    8676.9866   -7974.1731   -47401.153   -19692.207    11514.291     85.28528 
   55800    1855.8517   -104.66568    1.6792136   -102.98647    15187.734    4.4046928    4.4046928    4.4046928    15187.734    17289.385    56491.683   -28217.865      5483.09    4469.5884    10956.337    85.456848 
   55900    1176.2427   -104.06116    1.0642891   -102.99687   -4530.9458     4.407426     4.407426     4.407426   -4530.9458   -44719.158    38977.328   -7851.0078   -51117.618    -21625.75    -11929.57     85.61603 
   56000    1803.8798   -104.61809    1.6321884    -102.9859    28194.433    4.4008498    4.4008498    4.4008498    28194.433     33774.43    51463.598   -654.73034   -11606.377    15796.546     8109.632    85.233368 
   56100    1156.2813   -104.04703    1.0462276    -103.0008   -16355.203    4.4053294    4.4053294    4.4053294   -16355.203    -24346.18   -27210.416    2490.9876   -36199.867   -18891.062   -9864.8258    85.493907 
   56200    1882.7713   -104.70367     1.703571   -103.00009    5180.7541    4.4028703    4.4028703    4.4028703    5180.7541    7459.2573   -5287.2518    13370.257    -4393.635    2183.5625    5392.8593    85.350815 
   56300    1259.0862   -104.13988    1.1392476   -103.00063   -8077.2729    4.4129752    4.4129752    4.4129752   -8077.2729   -19483.641   -33178.947     28430.77   -11939.514     2132.545    5921.8422    85.939824 
   56400    1410.3813    -104.2684    1.2761427   -102.99226   -6572.2457    4.4162925    4.4162925    4.4162925   -6572.2457   -24603.717   -38533.089    43420.069   -23524.151   -8305.3316   -965.89509    86.133776 
   56500    1802.9832   -104.61163     1.631377   -102.98026   -9008.7439    4.4174476    4.4174476    4.4174476   -9008.7439   -4669.9216   -21789.709   -566.60092    2367.9956    25512.018    14544.544    86.201382 
   56600    1105.0918   -103.98965    0.9999103   -102.98974   -2317.0639    4.4060987    4.4060987    4.4060987   -2317.0639   -14440.272   -30164.813    37653.893   -44189.094   -5546.5805    1234.7425    85.538703 
   56700    1827.4172   -104.62177    1.6534854   -102.96828    22667.003    4.4018173    4.4018173    4.4018173    22667.003    40836.959    2220.1135    24943.935     9690.043    23613.409    5181.8172     85.28959 
   56800    880.83838   -103.78968   0.79700108   -102.99268   -13665.312    4.4162277    4.4162277    4.4162277   -13665.312   -14658.071   -39117.077    12779.212   -61253.006   -3120.9214    4585.6245    86.129988 
   56900    1990.0271   -104.76816    1.8006184   -102.96754   -1517.1076    4.4093531    4.4093531    4.4093531   -1517.1076   -12967.574    6963.3794    1452.8717    20343.145   -4163.3981    -2460.062    85.728381 
   57000    1017.2093   -103.90893   0.92039231   -102.98854    15204.976    4.3950062    4.3950062    4.3950062    15204.976   -13720.029    25098.777     34236.18   -61310.031    8264.3291     7945.633    84.894287 
   57100    1851.5771   -104.66692    1.6753459   -102.99158    2508.6709    4.4046353    4.4046353    4.4046353    2508.6709    12073.657    12991.029   -17538.674    15580.771    -18009.95   -10218.377    85.453502 
   57200     1043.412   -103.95526   0.94410107   -103.01116    2409.3731      4.40278      4.40278      4.40278    2409.3731   -5454.7408    1165.4405     11517.42   -52861.074       654.73    7441.0089    85.345567 
   57300    2056.9946   -104.86573    1.8612119   -103.00451   -6825.5101    4.4106211    4.4106211    4.4106211   -6825.5101     2429.327    10738.955   -33644.812   -5211.9644   -5238.7222   -8556.0435    85.802362 
   57400    1426.8556   -104.29745    1.2910489    -103.0064   -29986.979    4.4118044    4.4118044    4.4118044   -29986.979   -23765.403   -40119.423   -26076.112   -51406.546   -303.72748    3419.6024     85.87144 
   57500    1371.9199   -104.24544     1.241342    -103.0041    20328.674    4.3919718    4.3919718    4.3919718    20328.674    21478.976    39030.201    476.84361   -19714.033   -7651.4118    3336.4088    84.718575 
   57600    1989.6786   -104.80447     1.800303   -103.00417    23768.552    4.3885063    4.3885063    4.3885063    23768.552    34354.646    39419.931     -2468.92   -16511.719   -5406.6575   -9117.6003     84.51819 
   57700    788.10285   -103.75059   0.71309202    -103.0375    14504.702     4.399791     4.399791     4.399791    14504.702    12324.359    22530.649    8659.0975   -41425.423    8284.5783    9125.0314    85.171864 
   57800    2191.3586   -104.98503    1.9827873   -103.00224   -104.22825    4.4141155    4.4141155    4.4141155   -104.22825    16853.734    12620.426   -29786.845    25079.563   -10506.519   -6281.2741    86.006459 
   57900     883.4795   -103.80749   0.79939082    -103.0081    3275.8766    4.4003222    4.4003222    4.4003222    3275.8766    5589.2044   -15140.637    19379.062   -66951.194    12869.781    4877.3827    85.202714 
   58000    2076.8254    -104.8621    1.8791552   -102.98295    20796.939     4.392708     4.392708     4.392708    20796.939    2575.2309    46821.481    12994.107     42521.65        -2019    1552.9185    84.761183 
   58100    998.85704   -103.90966   0.90378684   -103.00587   -6545.4943    4.4037271    4.4037271    4.4037271   -6545.4943     2252.586   -31470.808    9581.7395    -79039.34   -833.99804    -5585.013    85.400655 
   58200    1908.2271   -104.72547     1.726604   -102.99887    2482.7631    4.4044844    4.4044844    4.4044844    2482.7631   -802.09526    28800.794    -20550.41    30152.958    10248.521    7549.8703    85.444722 
   58300    891.25972   -103.81358   0.80643053   -103.00715   -16182.893    4.4089793    4.4089793    4.4089793   -16182.893   -17031.193   -47633.685    16116.198   -64702.745   -11401.085   -11371.335    85.706585 
   58400    1951.4536   -104.75152    1.7657162    -102.9858    1731.6296    4.3957479    4.3957479    4.3957479    1731.6296     40271.82    1127.2224   -36204.154    1325.3768    29008.569    7876.1747    84.937277 
   58500    1155.9774   -104.05239    1.0459526   -103.00644   -11587.784    4.3975702    4.3975702    4.3975702   -11587.784   -11665.316   -42261.198    19163.162   -41548.296   -2543.4161   -3268.2039    85.042957 
   58600    1766.3431   -104.60453    1.5982244   -103.00631    1443.1493    4.4054981    4.4054981    4.4054981    1443.1493    41807.085   -20346.501   -17131.136   -20096.693    16193.056    3905.4184    85.503729 
   58700    1458.2802   -104.32929    1.3194826   -103.00981    7870.1947    4.4051943    4.4051943    4.4051943    7870.1947    60695.802   -36043.768   -1041.4501   -28727.808    17712.238    5998.9065    85.486042 
   58800    1325.9055   -104.20883    1.1997072   -103.00912   -6296.4875    4.4121976    4.4121976    4.4121976   -6296.4875   -8573.1358   -17857.016    7540.6892   -32443.744    -11336.55   -5694.7122    85.894405 
   58900    1860.3864   -104.67808    1.6833167   -102.99477    8603.9556    4.4018574    4.4018574    4.4018574    8603.9556    81941.042   -31473.186   -24655.989   -13151.093    7497.0323     12350.14    85.291924 
   59000     1220.429   -104.11624    1.1042698   -103.01197   -7739.3076    4.4022813    4.4022813    4.4022813   -7739.3076   -3954.7028   -38128.657    18865.437   -44070.683   -7027.1314   -6613.1355    85.316568 
   59100    1701.4131   -104.53114    1.5394744   -102.99167    11873.569    4.4082227    4.4082227    4.4082227    11873.569    59535.883   -472.83672   -23442.338    11627.369   -22659.357    11414.304    85.662468 
   59200    1151.2929   -104.04341     1.041714    -103.0017    1411.7872    4.4070871    4.4070871    4.4070871    1411.7872   -8185.9493   -15569.305    27990.616   -68747.192    5729.9898   -11655.198    85.596282 
   59300    2150.8686   -104.92573    1.9461511   -102.97958   -7644.1698    4.4060025    4.4060025    4.4060025   -7644.1698   -9636.9344   -2581.4327   -10714.142    27564.348   -8934.5469    5979.0516    85.533102 
   59400    786.56704   -103.71298   0.71170238   -103.00127    14304.358    4.4013159    4.4013159    4.4013159    14304.358   -21768.532    32913.471    31768.136   -82269.109    4017.9159   -1998.0806    85.260452 
   59500    2279.5072   -105.03621     2.062546   -102.97367    18065.168    4.4080305    4.4080305    4.4080305    18065.168    -7877.068    24818.444    37254.129    26791.442   -10760.061   -7786.3788    85.651265 
   59600    574.68262   -103.51403   0.51998491   -102.99404    3317.9644    4.4087433    4.4087433    4.4087433    3317.9644   -45576.944    11671.903    43858.934   -71036.995   -2855.1355    11446.348    85.692822 
   59700    2573.0319   -105.27988    2.3281333   -102.95175   -13486.535    4.4177172    4.4177172    4.4177172   -13486.535   -14615.185    5017.6344   -30862.055    11415.614    1888.5156    -8427.905    86.217162 
   59800     730.5921   -103.64673   0.66105508   -102.98568   -12391.471    4.4008239    4.4008239    4.4008239   -12391.471   -76503.573   -23850.337    63179.498   -89499.646   -4725.5896    4189.8927    85.231864 
   59900    2038.0556   -104.80534    1.8440756   -102.96126    22987.416    4.3926681    4.3926681    4.3926681    22987.416   -8083.9597    12733.815    64312.393    30067.637   -6387.5854    1770.9912    84.758872 
   60000    1256.9052   -104.11988    1.1372743   -102.98261   -42248.575     4.413606     4.413606     4.413606   -42248.575   -73260.899   -59940.104    6455.2773   -88556.743    773.00438   -1874.0151    85.976684 
   60100    1934.6434   -104.71697     1.750506   -102.96647     7448.343    4.4047002    4.4047002    4.4047002     7448.343    22099.831   -1891.6059     2136.804    31418.261   -4292.7239    8265.5072    85.457279 
   60200    1003.4126   -103.89157   0.90790879   -102.98366    8465.0587    4.4011025    4.4011025    4.4011025    8465.0587   -28802.197   -38233.165    92430.538   -63889.531    7193.7867   -11174.257    85.248052 
   60300    1914.4549   -104.71319     1.732239   -102.98095    -4719.226    4.4020669    4.4020669    4.4020669    -4719.226    13856.431     3492.265   -31506.374    22313.718   -17565.955     11875.43    85.304104 
   60400    1274.7296   -104.14923    1.1534021   -102.99583    -17887.75    4.4065327    4.4065327    4.4065327    -17887.75   -59239.514   -47128.333    52704.596   -59773.813    5359.8047    1586.8933    85.563982 
   60500    1553.2662   -104.38976    1.4054279   -102.98433    5757.6657    4.4068586    4.4068586    4.4068586    5757.6657    2912.4921   -1679.0992    16039.604    14811.332    -31328.68    6504.9667    85.582969 
   60600    1322.9815   -104.18784    1.1970615   -102.99078   -30462.978    4.3991078    4.3991078    4.3991078   -30462.978   -55001.877    -38754.62    2367.5628   -48156.449    8083.4188    12061.562    85.132191 
   60700    1846.6436   -104.64615     1.670882   -102.97527    1034.2834    4.4084348    4.4084348    4.4084348    1034.2834     9483.057   -4488.0921   -1892.1145    6369.9244   -14367.855   -9125.9381    85.674832 
   60800    962.99069    -103.8612   0.87133421   -102.98987   -20837.382    4.4125521    4.4125521    4.4125521   -20837.382   -42301.856   -10930.361   -9279.9273   -16882.198   -20758.708    18630.012    85.915107 
   60900    1935.7718   -104.71993     1.751527   -102.96841    20982.939    4.4034634    4.4034634    4.4034634    20982.939    27932.404    1707.8316    33308.582   -10297.011    2566.9147   -16035.526    85.385315 
   61000    1121.2131   -104.00893    1.0144972   -102.99444   -35151.233    4.4062739    4.4062739    4.4062739   -35151.233   -47662.572   -24272.252   -33518.874    6581.1013   -16822.868    2265.1608    85.548908 
   61100    1981.3032   -104.76453    1.7927248   -102.97181     31318.23    4.3980668    4.3980668    4.3980668     31318.23    7767.9739    13455.152    72731.563   -20882.836    1567.0602   -12836.242     85.07177 
   61200    774.23277   -103.70503   0.70054208   -103.00449   -26667.382    4.4068623    4.4068623    4.4068623   -26667.382   -18949.972   -50986.969   -10065.206    20628.468   -10763.418   -19253.615    85.583185 
   61300    2363.6205   -105.11121    2.1386535   -102.97256     5393.787    4.4091345    4.4091345    4.4091345     5393.787   -20506.722    555.54555    36132.538   -17250.354   -8067.1815   -2253.4372    85.715632 
   61400    588.97938    -103.5348   0.53292092   -103.00188   -14830.163    4.4125786    4.4125786    4.4125786   -14830.163   -12204.317   -52732.688    20446.517    19399.458    3446.4205   -15087.384    85.916653 
   61500     2315.743    -105.0684    2.0953329   -102.97307    3987.9949    4.4050847    4.4050847    4.4050847    3987.9949   -7673.1996    15673.288    3963.8963   -7748.9074   -9081.3416   -1012.1769     85.47966 
   61600    1031.1834   -103.92573   0.93303641    -102.9927    4356.0864    4.3928862    4.3928862    4.3928862    4356.0864   -8198.2597    -13996.64    35263.159    3202.9443    17244.631   -16669.951    84.771501 
   61700    1871.6967   -104.68465    1.6935505    -102.9911    6690.0443     4.412536     4.412536     4.412536    6690.0443   -11775.096   -642.44053    32487.669    -194.6626   -1327.4907   -13084.787    85.914165 
   61800    1241.7025    -104.1217    1.1235185   -102.99818   -27420.936    4.4225363    4.4225363    4.4225363   -27420.936   -38399.663   -37905.767   -5957.3773    -11490.27    15742.426    132.99847    86.499625 
   61900    1685.5651   -104.49774    1.5251347    -102.9726    7087.9401    4.4230067    4.4230067    4.4230067    7087.9401    -12076.06    19125.175    14214.705     7776.875    -6402.148   -16718.368    86.527226 
   62000    1251.5242   -104.11125    1.1324054   -102.97885   -6179.5093    4.3969464    4.3969464    4.3969464   -6179.5093   -26595.756   -36561.627    44618.856   -28095.883    3822.6026     10408.54    85.006771 
   62100    1752.4249   -104.56985    1.5856308   -102.98422    28456.186    4.3905238    4.3905238    4.3905238    28456.186    19712.529    40586.448     25069.58    15154.827    8888.5941     -15604.5    84.634806 
   62200    1316.2771    -104.1961    1.1909952   -103.00511   -6877.8006    4.4150985    4.4150985    4.4150985   -6877.8006   -12747.074   -50792.568     42906.24    -31665.19   -10170.527    5895.8408    86.063933 
   62300    1596.8236   -104.43844    1.4448396    -102.9936    -14783.23    4.4267308    4.4267308    4.4267308    -14783.23   -37253.124    7822.2376   -14918.803    10865.683    29006.183   -4559.1106    86.745978 
   62400     1527.939   -104.36538    1.3825113   -102.98287   -7138.4655    4.4116654    4.4116654    4.4116654   -7138.4655   -37415.386   -19377.737    35377.727   -27768.893   -5998.2617   -1774.4302    85.863325 
   62500    1767.3938   -104.56999    1.5991751   -102.97081    12892.185    4.3937804    4.3937804    4.3937804    12892.185    23925.627   -5328.3478    20079.275    12472.438    18703.036    5326.0242    84.823279 
   62600    1477.8029   -104.33262    1.3371471   -102.99548    2962.5532    4.4006159    4.4006159    4.4006159    2962.5532   -9193.4555   -11678.668    29759.783   -42599.758   -3398.5881   -7687.1989    85.219779 
   62700    1600.4468   -104.45378    1.4481179   -103.00566    9064.4038    4.4189116    4.4189116    4.4189116    9064.4038   -6308.7598   -8319.2008    41821.172    18475.696   -11563.565    19720.442    86.287116 
   62800    1539.5088   -104.38757    1.3929799   -102.99459    1467.2908    4.4169967    4.4169967    4.4169967    1467.2908   -34271.426    3135.5781     35537.72    -46775.04    4096.7212   -4549.1162    86.174988 
   62900     1722.741   -104.54296    1.5587722   -102.98419    5605.1166    4.3986634    4.3986634    4.3986634    5605.1166    11920.306   -22948.449    27843.493    9994.2626   -20466.956    4488.3082    85.106391 
   63000    996.17269   -103.90293   0.90135799   -103.00157    25983.348    4.3930551    4.3930551    4.3930551    25983.348   -3263.8429     3640.953    77572.934   -41835.754   -2064.8015    9541.1022    84.781279 
   63100    2231.5182   -105.01931    2.0191245   -103.00019   -5103.2591    4.4104692    4.4104692    4.4104692   -5103.2591    4483.8073    -13670.12   -6123.4649   -14286.714    4474.9847   -5798.6621    85.793501 
   63200    1031.2859   -103.93747   0.93312914   -103.00434   -12771.241    4.4202171    4.4202171    4.4202171   -12771.241   -47180.694   -27271.342    36138.315   -26639.806   -14038.249    10647.515    86.363612 
   63300    1942.3142   -104.74028    1.7574467   -102.98284    13443.503    4.4082738    4.4082738    4.4082738    13443.503    24970.345    10447.812    4912.3529   -22056.587    14606.567   -212.01725    85.665446 
   63400     1468.397   -104.32313    1.3286364    -102.9945    7972.3676    4.3996818    4.3996818    4.3996818    7972.3676   -361.97633   -8887.0384    33166.117   -33263.857   -15659.241   -3036.2554    85.165521 
   63500    1549.8253   -104.40354    1.4023145   -103.00122    -1150.793    4.4056039    4.4056039    4.4056039    -1150.793    10537.541   -18020.225    4030.3043   -16241.288    1189.5287    6968.4661    85.509888 
   63600    1609.9273   -104.44869     1.456696     -102.992    -21.71418    4.4172748    4.4172748    4.4172748    -21.71418   -11512.023   -43655.449    55102.329   -30586.597   -1356.1322   -15762.895    86.191264 
   63700    1104.2094   -103.98972   0.99911189   -102.99061    694.74447    4.4160615    4.4160615    4.4160615    694.74447      13866.8   -30182.503    18399.937   -24088.705   -17928.367    6995.6552    86.120262 
   63800    1735.4292   -104.54726    1.5702528   -102.97701    419.42054    4.4039385    4.4039385    4.4039385    419.42054     5547.893   -36071.727    31782.095   -17429.504    21235.402   -15821.275    85.412955 
   63900    1552.5357    -104.4045     1.404767   -102.99974   -4302.5476    4.3964721    4.3964721    4.3964721   -4302.5476   -22718.196   -18954.638    28765.191   -22186.149   -6128.0673    6832.0777    84.979267 
   64000    1291.2492   -104.18269    1.1683494   -103.01434    14608.179    4.4060237    4.4060237    4.4060237    14608.179    28767.193   -16547.748    31605.092    -4983.138   -7531.2269   -9351.8793    85.534337 
   64100    1626.0723   -104.48523    1.4713044   -103.01393   -26086.026    4.4182571    4.4182571    4.4182571   -26086.026   -46182.884   -50227.896    18152.704   -36810.972   -1242.8451   -2493.5492    86.248776 
   64200    1655.0439   -104.49193    1.4975185   -102.99441   -8314.9531    4.4179912    4.4179912    4.4179912   -8314.9531    13307.996   -784.59823   -37468.257    6552.4012   -15031.552   -2123.2102    86.233206 
   64300    1097.6506   -103.99267   0.99317732    -102.9995    8357.4006    4.4049378    4.4049378    4.4049378    8357.4006   -29157.575   -48250.809    102480.59   -45419.167    -8097.918       -10000    85.471111 
   64400    1903.6109   -104.71328    1.7224271   -102.99085    9634.0911    4.3993975    4.3993975    4.3993975    9634.0911   -4007.8633    8103.0768     24807.06    15167.907   -16475.826    3380.6687     85.14901 
   64500    954.99112   -103.87385   0.86409604   -103.00975    11293.118    4.4065229    4.4065229    4.4065229    11293.118    -30432.29   -40225.589    104537.23   -54162.377       2823.1    1019.6577    85.563409 
   64600    1946.8412   -104.75286    1.7615428   -102.99132   -26811.717    4.4221237    4.4221237    4.4221237   -26811.717   -22399.287   -23873.008   -34162.855    25014.524   -11768.207   -1096.9166    86.475413 
   64700    980.72299   -103.89076   0.88737877   -103.00338   -10567.686    4.4085162    4.4085162    4.4085162   -10567.686   -39096.329   -51313.769    58707.041   -60101.008    4649.5211   -280.34094    85.679579 
   64800    1893.3022   -104.68758    1.7130996   -102.97448    27261.459    4.3900672    4.3900672    4.3900672    27261.459    19443.278     21082.99     41258.11    33447.748    990.99212    5379.6839    84.608406 
   64900    1047.6574   -103.95247   0.94794245   -103.00452   -17296.665     4.407384     4.407384     4.407384   -17296.665   -52055.193   -53511.958    53677.156   -61604.397   -28180.617   -7030.4085    85.613581 
   65000    1987.7583   -104.79359    1.7985655   -102.99503   -7134.5007    4.4093878    4.4093878    4.4093878   -7134.5007    7367.1129   -12106.175    -16664.44    28964.782    5580.5572   -1703.1577     85.73041 
   65100    1198.6855   -104.08949    1.0845959   -103.00489   -10190.751    4.4121495    4.4121495    4.4121495   -10190.751   -30398.435   -27565.199    27391.379   -40283.176   -14948.489    6448.5778    85.891592 
   65200    1847.0137   -104.65943    1.6712168   -102.98821   -1638.1655    4.3978782    4.3978782    4.3978782   -1638.1655    13514.953   -30869.816    12440.366    6328.5388   -8586.4391   -9195.6823    85.060824 
   65300    1130.6342   -104.02892    1.0230216    -103.0059    20969.189    4.3945209    4.3945209    4.3945209    20969.189    36884.225   -7232.5106    33255.851   -3413.4533    10929.884    16896.197    84.866171 
   65400      1967.72   -104.77514    1.7804344   -102.99471   -4761.1419    4.4115407    4.4115407    4.4115407   -4761.1419   -5505.0512   -34194.211    25415.836   -7765.9943   -4863.4829   -9889.1083    85.856044 
   65500     1079.346   -103.98728   0.97661492   -103.01067     -10497.2     4.402937     4.402937     4.402937     -10497.2    -8451.763   -30393.115    7353.2776    15880.277     7682.217    806.95431    85.354692 
   65600    2081.8702   -104.86821    1.8837199   -102.98449    23039.562    4.3990847    4.3990847    4.3990847    23039.562     25433.25    6157.6654    37527.769   -6094.4343    4290.8082   -9030.0781     85.13085 
   65700    791.19352   -103.72628   0.71588852   -103.01039    -36108.88     4.408284     4.408284     4.408284    -36108.88   -22597.932   -72823.698   -12905.009    27378.723   -2043.7081   -20111.687    85.666038 
   65800     2204.499   -104.97856     1.994677   -102.98389    32865.421    4.4008032    4.4008032    4.4008032    32865.421    21389.869     28206.59    48999.805    204.18274     1547.606    14229.513    85.230659 
   65900    772.87369   -103.71037   0.69931236   -103.01106   -33383.838    4.4057506    4.4057506    4.4057506   -33383.838    14806.456    -82597.27     -32360.7    10530.594   -1560.8792   -40237.649     85.51843 
   66000    2105.2131   -104.88151    1.9048411   -102.97667    20747.087    4.3994526    4.3994526    4.3994526    20747.087    16976.093   -11928.585    57193.754    3774.4066     10814.36    9663.7475    85.152213 
   66100    1168.3767   -104.05991    1.0571718   -103.00273   -20498.743    4.4014211    4.4014211    4.4014211   -20498.743    22603.357   -50391.843   -33707.743    7453.6876    380.83628   -32683.745    85.266567 
   66200    1804.2031   -104.62286    1.6324809   -102.99038    3897.3063    4.4015679    4.4015679    4.4015679    3897.3063   -14198.456   -13058.699    38949.074    9542.9564    9220.8093   -6303.5128    85.275094 
   66300    1319.4903   -104.19565    1.1939026   -103.00175    1458.6557    4.3981856    4.3981856    4.3981856    1458.6557   -4382.0176   -17134.904    25892.889   -15629.612     4357.091   -11329.611    85.078664 
   66400    1532.3644   -104.38559    1.3865155   -102.99908    3132.2861    4.4036221    4.4036221    4.4036221    3132.2861   -2588.9502   -26192.804    38178.613    21651.354   -5545.0536   -10626.814    85.394543 
   66500    1304.0954   -104.17968    1.1799729   -102.99971   -15485.946    4.4049011    4.4049011    4.4049011   -15485.946   -34286.365   -33095.602    20924.128   -34751.654    2355.1802    2690.0252    85.468974 
   66600    1532.0016   -104.38428    1.3861872   -102.99809   -11583.019    4.3891484    4.3891484    4.3891484   -11583.019   -3227.8168   -35214.144    3692.9052    39955.671   -9981.9602   -43295.938    84.555291 
   66700    1723.4458   -104.55426      1.55941   -102.99485    4.9613368    4.3830591    4.3830591    4.3830591    4.9613368    -29163.16    3230.9986    25947.046   -52128.807    947.81647    15202.828    84.203858 
   66800    1221.8807   -104.11053    1.1055834   -103.00495    -16840.81    4.4028413    4.4028413    4.4028413    -16840.81   -16771.273   -56556.868    22805.712    43537.969   -1413.0437   -32074.444    85.349132 
   66900    1553.5843   -104.40881    1.4057157   -103.00309   -7121.2887    4.3981228    4.3981228    4.3981228   -7121.2887    -43191.53    1700.1619    20127.502   -48458.186   -363.25279   -1276.0824    85.075019 
   67000    1678.5119    -104.5172    1.5187528   -102.99845    9897.0084     4.398271     4.398271     4.398271    9897.0084   -25406.749   -10577.076    65674.851    28131.648   -5808.2844    552.14949    85.083618 
   67100    859.04568    -103.7873   0.77728259   -103.01001    19821.721    4.3935613    4.3935613    4.3935613    19821.721   -21563.885    23124.344    57904.702    -35737.66   -3789.1375   -20183.194    84.810588 
   67200    2287.1659   -105.06126    2.0694758   -102.99178    -1987.964    4.4040869    4.4040869    4.4040869    -1987.964   -35876.147   -8371.7443    38283.999    12622.066    292.83671    3592.9457    85.421587 
   67300    922.02805   -103.83728   0.83427036   -103.00301   -14187.395    4.4054088    4.4054088    4.4054088   -14187.395   -44181.078   -18342.139    19961.031   -21433.131   -4871.6996     -15046.3    85.498528 
   67400    1809.6715   -104.62986    1.6374288   -102.99243    20035.989    4.3928738    4.3928738    4.3928738    20035.989   -19121.467    2270.4204    76959.013   -8770.8802    1742.6693   -3429.8866    84.770779 
   67500    1413.9846   -104.28671     1.279403   -103.00731   -5555.5165    4.3935961    4.3935961    4.3935961   -5555.5165   -32920.868   -9441.1962    25695.514   -13312.446     4661.674   -4341.4144    84.812603 
   67600    1411.3054   -104.28788    1.2769788    -103.0109    19157.916    4.3970942    4.3970942    4.3970942    19157.916   -20580.625   -12126.222    90180.597   -20862.296   -11656.645   -34594.068    85.015343 
   67700    1478.8893   -104.34697    1.3381301   -103.00884   -12796.455    4.4053232    4.4053232    4.4053232   -12796.455   -22380.729   -7508.0781   -8500.5584   -4128.8489   -636.53527     22470.91    85.493544 
   67800    1435.0431    -104.3089    1.2984571   -103.01045   -10387.656     4.401614     4.401614     4.401614   -10387.656   -35909.423    -29542.15    34288.603   -39344.142    4447.5021   -39389.378    85.277777 
   67900    1792.0695   -104.61899    1.6215021   -102.99749    4075.2161    4.3925959    4.3925959    4.3925959    4075.2161   -24128.423    8914.6416    27439.429    3043.9533   -4053.6151    25755.711    84.754693 
   68000    975.70711   -103.90368    0.8828403   -103.02084   -4427.8395    4.3905535    4.3905535    4.3905535   -4427.8395   -40407.617   -38462.228    65586.327    -44381.26    3687.5124    2892.8423    84.636523 
   68100    1987.8625   -104.80205    1.7986597   -103.00339    15919.284    4.3929325    4.3929325    4.3929325    15919.284    8862.1519    28069.722    10825.977    14244.402    17787.678    5852.5007    84.774176 
   68200     802.2646   -103.75349   0.72590587   -103.02758   -34547.317    4.3998539    4.3998539    4.3998539   -34547.317   -62445.934   -87224.872    46028.855   -52339.965   -10353.645    18076.672    85.175516 
   68300    2209.6731   -104.98848    1.9993586   -102.98912    25866.687    4.3989616    4.3989616    4.3989616    25866.687     -4674.65    38064.058    44210.654    22559.123    7677.0718   -7278.6416    85.123705 
   68400    668.45798   -103.61999   0.60483482   -103.01515   -33973.861    4.4000344    4.4000344    4.4000344   -33973.861   -57772.366   -79083.915      34934.7   -66387.318     9663.575    14673.061    85.185998 
   68500    2036.7444   -104.83119    1.8428891    -102.9883    11008.592     4.392751     4.392751     4.392751    11008.592   -15270.656    18040.238    30256.196    19443.919    -3488.726    11782.253    84.763669 
   68600    1256.7683   -104.15206    1.1371504   -103.01491   -24811.538    4.4009536    4.4009536    4.4009536   -24811.538   -62650.961   -30291.961    18508.307   -53978.735    1753.6566   -12905.883    85.239397 
   68700    1800.0459   -104.62672    1.6287193     -102.998   -2409.2562    4.3995591    4.3995591    4.3995591   -2409.2562    5194.0843   -20214.847     7792.994    10713.104    5756.2586    31529.666    85.158396 
   68800    1072.0242   -103.96924   0.96999001   -102.99925    -238.8965    4.3999198    4.3999198    4.3999198    -238.8965    2452.0036   -26207.186    23038.493    -39295.11   -2677.7531   -34108.847    85.179345 
   68900    1973.2077   -104.77224    1.7853998   -102.98684   -26439.456    4.4039069    4.4039069    4.4039069   -26439.456   -35869.404   -33795.935    -9653.029    24512.218    10491.118    27245.717    85.411112 
   69000    1325.5012   -104.18955    1.1993414    -102.9902      26224.7    4.3838571    4.3838571    4.3838571      26224.7    31046.428   -4234.2558    51861.927     -32201.1   -2051.0942   -24335.346    84.249855 
   69100    1413.8588   -104.28587    1.2792892   -103.00658   -285.98624    4.3913903    4.3913903    4.3913903   -285.98624   -9794.3048   -29566.153    38502.499    16147.209    17809.616    17279.588    84.684927 
   69200    1617.9797   -104.45775     1.463982   -102.99377   -2405.8016    4.4152246    4.4152246    4.4152246   -2405.8016   -37115.669   -12152.598    42050.862   -8597.0217   -6235.3357   -14897.048    86.071307 
   69300    1357.9841   -104.22295    1.2287326   -102.99422   -29899.259    4.4138391    4.4138391    4.4138391   -29899.259   -17964.593   -68525.135   -3208.0489   -2381.3224    1980.6333   -7912.4824    85.990305 
   69400    1661.9235   -104.48202    1.5037433   -102.97828    13531.677    4.3938282    4.3938282    4.3938282    13531.677   -21280.719    14358.119     47517.63    22194.723    4323.7164   -3309.1691    84.826044 
   69500    1288.0426   -104.16487    1.1654481   -102.99942   -6730.1486    4.3847625    4.3847625    4.3847625   -6730.1486   -27012.544   -31881.202      38703.3   -30066.741   -9015.6525   -29249.101    84.302067 
   69600    1847.9838   -104.66812    1.6720946   -102.99602    6256.7528    4.4056951    4.4056951    4.4056951    6256.7528   -27520.297    19871.773    26418.783    32542.926   -4678.0669    5178.4958    85.515201 
   69700     1096.816   -104.00066   0.99242218   -103.00824   -28145.078    4.4070805    4.4070805    4.4070805   -28145.078   -32865.232   -20374.913   -31195.091   -37993.287   -2493.0717   -42684.542    85.595897 
   69800      1912.77   -104.72366    1.7307145   -102.99295    13335.411     4.388288     4.388288     4.388288    13335.411   -7226.9127     37.14661    47195.998    16077.404   -8439.0432    9762.7789    84.505575 
   69900    1068.6136   -103.97163     0.966904   -103.00472    736.02074    4.3933241    4.3933241    4.3933241    736.02074     -1108.34        24932   -21615.598   -14299.151    8226.8914   -35192.385    84.796852 
   70000     1664.044   -104.52523     1.505662   -103.01956    -15453.64    4.4015066    4.4015066    4.4015066    -15453.64   -25458.359   -33065.639    12163.077   -13813.832   -11276.316   -5661.9792    85.271531 
   70100    1444.1869   -104.31408    1.3067307   -103.00735   -4081.5119    4.4108115    4.4108115    4.4108115   -4081.5119   -4769.8692    20317.346   -27792.013    9001.6924    10366.649   -21056.145    85.813475 
   70200    1108.7439   -104.01188    1.0032148   -103.00866   -33527.672    4.4015533    4.4015533    4.4015533   -33527.672   -18448.956   -77084.791   -5049.2692   -42130.457   -389.02813   -28401.818    85.274246 
   70300    2077.1244   -104.86383    1.8794258   -102.98441    36340.853    4.3882416    4.3882416    4.3882416    36340.853    14834.431    69143.963    25044.165    15616.525    2067.4236    1568.9104    84.502893 
   70400    898.27188   -103.83345   0.81277528   -103.02068   -33839.777    4.4030375    4.4030375    4.4030375   -33839.777   -25643.686   -62084.749   -13790.896   -46567.293    9306.3417   -31909.041     85.36054 
   70500    1896.4957   -104.71075    1.7159891   -102.99476    26303.401    4.4034829    4.4034829    4.4034829    26303.401    3653.7614    36876.995    38379.446    7376.4912   -2106.3576    17088.809    85.386448 
   70600     1229.145   -104.12592    1.1121563   -103.01376   -30289.517    4.4072659    4.4072659    4.4072659   -30289.517   -9583.6264   -52474.432   -28810.494   -27787.836    6810.6155   -37343.344      85.6067 
   70700     1881.634   -104.69204     1.702542    -102.9895    28545.767    4.3954877    4.3954877    4.3954877    28545.767    25659.769    27530.018    32447.513    8374.4326     -5703.34    145.67439    84.922194 
   70800    1025.5564   -103.93054     0.927945    -103.0026    4432.8968    4.3940622    4.3940622    4.3940622    4432.8968    49092.259   -9891.8945   -25901.675    6266.7861     12779.06   -24168.244    84.839596 
   70900    2004.1752   -104.80022    1.8134198    -102.9868   -4292.5843    4.4051354    4.4051354    4.4051354   -4292.5843    1537.6596   -11734.788   -2680.6242   -5632.8679    -11757.54   -12914.338     85.48261 
   71000    1130.4976   -104.02569     1.022898    -103.0028   -4804.6049    4.3957038    4.3957038    4.3957038   -4804.6049   -4816.5108    22689.817   -32287.121    37824.352   -2462.5418   -2892.7827    84.934721 
   71100    1982.5394   -104.79061    1.7938433   -102.99677     8649.109    4.3956439    4.3956439    4.3956439     8649.109    27993.174   -6479.9258    4434.0791   -9324.8625    4529.8608   -10869.395    84.931248 
   71200    1170.2247   -104.07685    1.0588439   -103.01801   -148.60795    4.4019248    4.4019248    4.4019248   -148.60795   -34312.999    59488.985    -25621.81    33260.283   -5270.0988    9895.2179    85.295843 
   71300    1968.2709   -104.78016    1.7809329   -102.99923   -13011.406     4.410972     4.410972     4.410972   -13011.406    22813.732   -13659.368   -48188.581    9424.3151    6093.6784   -25442.912    85.822842 
   71400    1267.5284   -104.14887    1.1468863   -103.00199    23829.773    4.3964795    4.3964795    4.3964795    23829.773   -6137.7287    70791.376    6835.6729    2281.8277   -4268.8554     23516.45    84.979694 
   71500    1470.2276   -104.34331    1.3302929   -103.01301    6705.8278    4.3848825    4.3848825    4.3848825    6705.8278    5249.6132    36302.325   -21434.455    34822.471    7148.6222    -9028.421     84.30899 
   71600    1779.2671    -104.6227    1.6099183   -103.01278    64.409493    4.4027526    4.4027526    4.4027526    64.409493   -14531.315    27579.487   -12854.944   -28905.613   -4311.8934   -1717.8086    85.343969 
   71700    1050.7789   -103.96904    0.9507668   -103.01828   -32504.818     4.412226     4.412226     4.412226   -32504.818   -36744.337   -33202.875   -27567.242    33683.576    10270.237     9742.979     85.89606 
   71800    1874.1714   -104.68597    1.6957897   -102.99018    -2828.311    4.3982849    4.3982849    4.3982849    -2828.311   -8383.4654    12244.385   -12345.853   -33971.354   -3428.1011    -19821.35    85.084423 
   71900    1121.1362   -104.02027    1.0144276   -103.00584   -20579.646    4.3963145    4.3963145    4.3963145   -20579.646   -43523.123    1011.4698   -19227.286    12632.118    6207.9901    18372.497    84.970126 
   72000     2029.365   -104.83145    1.8362121   -102.99523    7112.9446    4.3981096    4.3981096    4.3981096    7112.9446    -7541.809    32142.966    -3262.323   -1752.9347   -5761.5302   -12158.398     85.07425 
   72100    989.85203   -103.90806   0.89563891   -103.01242   -39668.874    4.4149994    4.4149994    4.4149994   -39668.874   -56433.327    -49195.12   -13378.175   -11869.374    5063.2793    580.19572    86.058139 
   72200    1911.1852   -104.69818    1.7292805    -102.9689   -173.35196    4.4141702    4.4141702    4.4141702   -173.35196   -13400.555    29907.187   -17026.688    15641.206   -1086.7375   -11452.717    86.009657 
   72300    1215.8854    -104.0754    1.1001586   -102.97524   -24067.708     4.408342     4.408342     4.408342   -24067.708   -20555.037   -25200.331   -26447.756   -34253.575    6834.0483   -16974.364    85.669424 
   72400    2303.5265   -105.04307    2.0842792   -102.95879   -6572.6468    4.4064314    4.4064314    4.4064314   -6572.6468   -1678.7653    15033.017   -33072.192    8332.2581    12675.202    -3206.742     85.55808 
   72500    1140.8141   -104.02016    1.0322325   -102.98793   -15577.815    4.4000826    4.4000826    4.4000826   -15577.815    17287.217   -38889.777   -25130.886   -30774.673   -4806.8708   -35119.312    85.188797 
   72600    1996.8839   -104.78962    1.8068225    -102.9828    7578.7992    4.4077468    4.4077468    4.4077468    7578.7992   -11353.002    34250.868   -161.46865   -9337.5926    14507.048   -470.18222    85.634728 
   72700    1166.4487   -104.04771    1.0554273   -102.99228   -43433.921    4.4190529    4.4190529    4.4190529   -43433.921   -27871.131   -31927.119   -70503.512   -5796.7198     -10214.1    -47124.09    86.295394 
   72800    2186.3422   -104.94342    1.9782484   -102.96517   -14626.004    4.4084787    4.4084787    4.4084787   -14626.004   -34148.391   -6303.3185   -3426.3024    -21404.15     11465.53    23078.571    85.677393 
   72900    1199.4574    -104.0753    1.0852943   -102.99001   -34663.761    4.4051259    4.4051259    4.4051259   -34663.761   -9497.6168   -34708.166   -59785.501    10361.799    -11378.49   -53508.799    85.482058 
   73000    1631.3905   -104.47022    1.4761164   -102.99411   -2524.7582    4.3848581    4.3848581    4.3848581   -2524.7582    -17678.15   -13146.367    23250.242   -29857.093   -5574.0783    11367.102    84.307582 
   73100    1581.7576   -104.43754    1.4312075   -103.00633   -22022.528    4.4075393    4.4075393    4.4075393   -22022.528   -9927.8556    -35302.47    -20837.26    19212.422    3090.7799   -40590.018    85.622631 
   73200    1203.4991    -104.0716    1.0889513   -102.98265     -48284.4     4.425303     4.425303     4.425303     -48284.4   -57344.321    -61883.47   -25625.408   -31023.459    -19789.36    -14516.81    86.662066 
   73300    1784.8827   -104.57483    1.6149993   -102.95983    29098.665    4.3947056    4.3947056    4.3947056    29098.665    34177.229   -7668.3504    60787.115    16764.783    9013.8772   -17622.258     84.87687 
   73400     1398.864   -104.25446    1.2657216   -102.98874   -9501.8065    4.4010955    4.4010955    4.4010955   -9501.8065    32622.945   -50942.309   -10186.056   -16465.389    -18473.88   -8366.8027    85.247644 
   73500    1249.3975   -104.10803    1.1304811   -102.97755    46423.601    4.4071339    4.4071339    4.4071339    46423.601    78692.072   -19737.151    80315.882   -6825.8156    8196.1244   -21540.548    85.599009 
   73600    1226.4895   -104.10649    1.1097535   -102.99673   -173.53609    4.4237828    4.4237828    4.4237828   -173.53609    9884.4165   -27703.426    17298.402   -238.95133   -265.88643   -15218.857    86.572787 
   73700     1959.586   -104.74628    1.7730746    -102.9732    10878.113    4.4143592    4.4143592    4.4143592    10878.113    21441.688    -13128.31    24320.961    -8718.398    2395.5542    -8529.913     86.02071 
   73800    725.69594   -103.63425   0.65662494   -102.97762    30874.446     4.383567     4.383567     4.383567    30874.446    82184.955   -14253.336    24691.718   -1108.2477    16916.477   -20318.126    84.233134 
   73900    1883.2197   -104.68116    1.7039768   -102.97718    33562.682    4.4007446    4.4007446    4.4007446    33562.682    19427.901    17361.615    63898.529   -13190.446    6467.0079    3537.6329    85.227252 
   74000      721.827   -103.65809   0.65312424   -103.00497   -10489.882    4.4185814    4.4185814    4.4185814   -10489.882    64438.031   -44491.231   -51416.444   -2337.4227     11826.66   -20998.587    86.267772 
   74100    1767.7434   -104.56487    1.5994914   -102.96538    14728.221    4.4210716    4.4210716    4.4210716    14728.221    47197.248   -4942.0133    1929.4286   -9461.8443    5764.5253    11983.322    86.413709 
   74200    910.84616   -103.80029   0.82415274   -102.97613    9341.2419    4.4044317    4.4044317    4.4044317    9341.2419    74224.697   -17251.501    -28949.47   -6829.6763    2082.6463   -28631.903    85.441655 
   74300    1798.7434    -104.5825    1.6275408   -102.95496    36603.417    4.4041866    4.4041866    4.4041866    36603.417    69495.761    13115.222    27199.268   -1120.8822    13604.375    20768.263    85.427391 
   74400    1014.7936   -103.89881    0.9182066    -102.9806   -27469.239    4.4199256    4.4199256    4.4199256   -27469.239    56186.495   -84003.207   -54591.005    -4485.338   -6815.6443   -32288.331    86.346526 
   74500    2076.2527   -104.82543    1.8786371    -102.9468    2271.6679     4.417662     4.417662     4.417662    2271.6679    14161.443   -3741.1776    -3605.262     7686.861    9611.7665     26928.31     86.21393 
   74600    866.37683   -103.74315   0.78391596   -102.95924   -13701.739    4.4172603    4.4172603    4.4172603   -13701.739    35417.397   -39351.047   -37171.567   -9613.4486     6758.597   -31353.096    86.190413 
   74700    2066.6133   -104.82218    1.8699151   -102.95226   -6164.3323    4.4100296    4.4100296    4.4100296   -6164.3323    24477.655   -38098.842   -4871.8098    8484.4089    719.12167    42559.927    85.767846 
   74800    1412.4425   -104.25426    1.2780077   -102.97625    1181.0103    4.3955808    4.3955808    4.3955808    1181.0103   -2055.9687   -32925.982    38524.981   -10190.529     12380.61   -47840.943    84.927591 
   74900    1555.1674   -104.40896    1.4071482   -103.00181   -27492.433    4.4066366    4.4066366    4.4066366   -27492.433   -4669.3758   -60705.253   -17102.669    1334.2614   -11787.464    37409.818    85.570034 
   75000     1824.582   -104.64865    1.6509201   -102.99773    2408.7109    4.4133083    4.4133083    4.4133083    2408.7109    2365.9839   -26261.713    31121.862    10394.967    12209.557   -29704.085    85.959289 
   75100    1199.6058   -104.08934    1.0854286   -103.00391   -27343.777    4.4188574    4.4188574    4.4188574   -27343.777   -20546.257   -69321.309    7836.2347   -6077.4753   -350.31117    26461.621    86.283941 
   75200    1854.5457   -104.65633    1.6780319    -102.9783    4843.8355    4.4050266    4.4050266    4.4050266    4843.8355   -25119.046   -19405.576    59056.128    18887.882    10164.663    6288.8575    85.476278 
   75300    1641.9088   -104.46896    1.4856335   -102.98332   -11641.132    4.4059509    4.4059509    4.4059509   -11641.132   -8794.6774   -31211.067    5082.3494   -11772.706   -3062.6499   -8139.6348    85.530097 
   75400    1573.5942   -104.40639    1.4238211   -102.98257   -4385.9146    4.4112293    4.4112293    4.4112293   -4385.9146   -36526.278   -48774.662    72143.197    26923.001   -4845.1481    15670.762    85.837864 
   75500    1880.6556      -104.69    1.7016567   -102.98834   -7547.3706    4.3998818    4.3998818    4.3998818   -7547.3706   -20838.163   -5534.6874    3730.7385   -8118.9054    19548.797   -14992.196    85.177132 
   75600    1201.4296   -104.09799    1.0870787   -103.01091    3477.7248    4.4084025    4.4084025    4.4084025    3477.7248    34084.448   -61611.934    37960.661     23745.37   -11455.599    14016.963    85.672949 
   75700    1417.6476   -104.28035    1.2827173   -102.99763    1071.7095    4.4083717    4.4083717    4.4083717    1071.7095    5389.9282   -47316.571    45141.771    25476.999    32940.667   -6976.7152    85.671157 
   75800    1446.8433   -104.31033    1.3091342    -103.0012   -13693.843     4.405031     4.405031     4.405031   -13693.843    46185.968   -63579.199   -23688.297   -2932.2004    3919.2526      16767.1    85.476534 
   75900    1448.6197   -104.32971    1.3107416   -103.01897   -11030.996    4.3974917    4.3974917    4.3974917   -11030.996   -19035.361   -61569.259    47511.631    49790.306    13387.288     275.8828    85.038401 
   76000    1767.7725   -104.62038    1.5995177   -103.02086    15954.514    4.3986775    4.3986775    4.3986775    15954.514    45020.258   -10669.326    13512.609   -13276.922    6186.6403    9315.4808     85.10721 
   76100    1283.5076     -104.183    1.1613446   -103.02165   -8417.1568    4.4081076    4.4081076    4.4081076   -8417.1568     31714.82   -76214.156    19247.865    49573.155   -10331.799    8712.0907     85.65576 
   76200    1915.3764   -104.73441    1.7330728   -103.00134    2549.3277    4.4035664    4.4035664    4.4035664    2549.3277   -8011.8815   -1563.5607    17223.425    -20933.42    6610.5151   -5739.1939    85.391306 
   76300    1020.8699   -103.94201   0.92370455   -103.01831     9848.017    4.4042387    4.4042387    4.4042387     9848.017    50191.044   -27719.597    7072.6042     43700.11   -25685.197    14612.256    85.430421 
   76400    1694.2735   -104.54377    1.5330143   -103.01075   -13579.085    4.4099792    4.4099792    4.4099792   -13579.085    3283.6432   -26656.228   -17364.672   -20495.148    19751.396   -11635.847    85.764906 
   76500    1259.0876   -104.16041    1.1392489   -103.02117   -16446.174    4.4003968    4.4003968    4.4003968   -16446.174   -21878.393   -4146.9103   -23313.219    14967.996   -3910.1444    22894.965    85.207048 
   76600    1757.2233   -104.59859    1.5899725   -103.00861    2138.3212    4.4031903    4.4031903    4.4031903    2138.3212    15407.452   -23102.152    14109.664   -17595.173     11544.23   -18851.459    85.369428 
   76700    976.54589   -103.91136   0.88359924   -103.02776     6259.155    4.4044822    4.4044822    4.4044822     6259.155     52430.54   -21578.923   -12074.153   -6607.9633    7864.9793    14322.172    85.444594 
   76800    2120.7482   -104.93234    1.9188976   -103.01344     -8161.91    4.4107313    4.4107313    4.4107313     -8161.91   -14229.381   -27662.215    17405.866   -14611.845   -5484.4837    -20523.35    85.808797 
   76900    901.39354   -103.82829   0.81559982   -103.01269    10403.098    4.4054638    4.4054638    4.4054638    10403.098    57315.191   -31772.976    5667.0788   -5910.4484    14970.157    993.81376    85.501733 
   77000    1908.9249   -104.72124    1.7272354     -102.994   -3906.8727    4.4037594    4.4037594    4.4037594   -3906.8727    1717.0937   -9127.2504   -4310.4615    3078.1632    2222.1676   -19574.794    85.402535 
   77100    1303.6277   -104.19018    1.1795498   -103.01063    -25891.03    4.4074297    4.4074297    4.4074297    -25891.03   -34927.878    -39210.63    -3534.581   -16177.738    5022.9402   -27379.584    85.616246 
   77200     1783.134   -104.61711    1.6134172   -103.00369    11835.606    4.4063835    4.4063835    4.4063835    11835.606   -2393.4498    55062.156   -17161.887    10461.965    19908.509   -3157.2358    85.555294 
   77300    1060.2097   -103.96545   0.95929997   -103.00615   -17043.623    4.4056152    4.4056152    4.4056152   -17043.623   -27382.749   -11729.661   -12018.458   -24664.498    -6071.466   -28712.666    85.510547 
   77400    1549.7369    -104.3978    1.4022345   -102.99557    11777.355    4.3985767    4.3985767    4.3985767    11777.355    1621.8645    64328.399   -30618.198    9551.6991    30812.025    84.121413    85.101363 
   77500    1407.7552   -104.26906    1.2737665    -102.9953    18412.956     4.401227     4.401227     4.401227    18412.956    2778.4261    34291.644    18168.799   -27603.176   -17949.336   -17938.245    85.255283 
   77600    1278.2265   -104.15547    1.1565662    -102.9989   -23249.127    4.4094818    4.4094818    4.4094818   -23249.127   -40757.738   -3805.6121   -25184.031   -7852.7642    35111.384   -13677.015    85.735892 
   77700    1767.1636   -104.58581    1.5989668   -102.98684    14651.905    4.4039036    4.4039036    4.4039036    14651.905    29328.697    7371.1583    7255.8586   -7342.1347   -14569.757    12578.639     85.41092 
   77800    1415.2153   -104.29116    1.2805166   -103.01064   -34760.335     4.399623     4.399623     4.399623   -34760.335   -26431.919    -46318.38   -31530.705    -24051.33    26497.791   -32308.439    85.162107 
   77900    1823.0077   -104.65639    1.6494957   -103.00689     6511.252    4.3986227    4.3986227    4.3986227     6511.252    14112.162     2730.965    2690.6293    1338.7178   -8727.2131    42073.297    85.104034 
   78000    1376.3214   -104.26224    1.2453245   -103.01692   -28483.659    4.4103983    4.4103983    4.4103983   -28483.659   -48737.736   -9634.4481   -27078.793   -17976.342    12474.225   -17374.069    85.789359 
   78100    1384.2662   -104.25598    1.2525131   -103.00347    20242.657    4.4021726    4.4021726    4.4021726    20242.657   -207.09983    45682.271    15252.799   -5322.4697    1995.0576    16943.966    85.310247 
   78200    1669.3242   -104.51046    1.5104396   -103.00002   -10401.371    4.3922848    4.3922848    4.3922848   -10401.371   -18597.193    21932.579   -34539.498   -10414.614    4561.6227    24996.448    84.736686 
   78300    1216.2038   -104.11281    1.1004467   -103.01236    23635.329     4.393394     4.393394     4.393394    23635.329    -24181.01    47162.046    47924.952   -17129.802    8517.8308   -12900.492    84.800898 
   78400     1849.311    -104.6941    1.6732954    -103.0208   -18802.291    4.4073444    4.4073444    4.4073444   -18802.291   -587.00833   -25718.189   -30101.675   -430.28242   -10829.072    48392.368    85.611274 
   78500    1351.0279   -104.23573    1.2224384   -103.01329    14216.385    4.4144377    4.4144377    4.4144377    14216.385   -47165.363    82753.396    7061.1231   -19728.831    27026.643   -22341.983    86.025296 
   78600    1453.9032   -104.32496    1.3155221   -103.00944   -12037.185    4.4091195    4.4091195    4.4091195   -12037.185   -11908.249    159.51095   -24362.818    6003.3546   -14587.944    42060.996    85.714756 
   78700    1676.9258   -104.52351    1.5173177   -103.00619    6515.9065    4.3931868    4.3931868    4.3931868    6515.9065   -29835.737    63338.564   -13955.107   -14178.071    31890.984   -12379.118      84.7889 
   78800    1609.0844   -104.47661    1.4559333   -103.02067   -4322.2222    4.3940404    4.3940404    4.3940404   -4322.2222   -7326.9634    2705.1171   -8344.8202   -3807.7393   -14346.366    8020.3685    84.838334 
   78900    1252.7621   -104.16393    1.1335254    -103.0304   -16597.888    4.4072327    4.4072327    4.4072327   -16597.888   -52317.801    45084.944   -42560.806    11813.121    27751.252    13213.994    85.604764 
   79000    1699.1407   -104.54241    1.5374183   -103.00499    -7342.898     4.412968     4.412968     4.412968    -7342.898   -31667.016    33844.917   -24206.596   -16895.355    2577.3221    -7869.338    85.939401 
   79100    1064.0048   -103.97376   0.96273393   -103.01103   -1442.4273    4.3942186    4.3942186    4.3942186   -1442.4273   -5974.2129    29505.649   -27858.718    6880.2238    31477.341    21977.776    84.848658 
   79200    1854.2509   -104.69023    1.6777652   -103.01247    10142.417    4.3892055    4.3892055    4.3892055    10142.417   -5255.5523    40465.595   -4782.7906   -227.36534    5266.5073   -11511.452     84.55859 
   79300    1534.3027   -104.40449    1.3882693   -103.01622   -11585.351    4.4077094    4.4077094    4.4077094   -11585.351    -3466.927   -8989.5069    -22299.62   -14880.535    21858.472    13222.714    85.632545 
   79400     1060.301    -103.9764   0.95938264   -103.01702     20407.63    4.4015602    4.4015602    4.4015602     20407.63    8491.7534    79220.502   -26489.366    11456.038    9218.5618    10392.408    85.274649 
   79500     1772.135   -104.60724     1.603465   -103.00378    6855.0633    4.4018572    4.4018572    4.4018572    6855.0633    11045.853    39825.972   -30306.635   -13902.859    7140.9931   -5928.6507    85.291913 
   79600    1355.9699   -104.23399    1.2269101   -103.00708    8691.7954     4.401668     4.401668     4.401668    8691.7954   -18666.627    58129.909   -13387.896    22829.094    21330.779    17969.656    85.280917 
   79700    1702.2981   -104.55156    1.5402751   -103.01128   -23847.491    4.4002821    4.4002821    4.4002821   -23847.491   -46413.239   -4869.2488   -20259.983    10226.476   -15028.144   -9776.0017    85.200387 
   79800    1446.4285   -104.31208    1.3087589   -103.00332    10634.841    4.4067727    4.4067727    4.4067727    10634.841    190.26231    64119.542   -32405.282    1625.5662    21958.824    6186.3884    85.577966 
   79900    965.07457   -103.88881   0.87321975   -103.01559   -28252.368    4.4071479    4.4071479    4.4071479   -28252.368   -76215.214   -36493.989    27952.098    56850.373   -19699.228     1563.499    85.599827 
   80000    2373.2302   -105.13318    2.1473486   -102.98583    10839.736    4.3905972    4.3905972    4.3905972    10839.736    24153.633    24053.403   -15687.828   -29969.387     12506.47   -15136.247    84.639051 
   80100    779.74888   -103.71853   0.70553317     -103.013   -26930.872    4.4034326    4.4034326    4.4034326   -26930.872   -50854.248   -45450.797    15512.429    66942.575   -9841.6403    16448.358    85.383519 
   80200    1970.1362   -104.78203    1.7826206   -102.99941    144.43963    4.4062379    4.4062379    4.4062379    144.43963    7491.7927    4875.4276   -11933.901   -15215.778   -3512.4029   -20473.701     85.54681 
   80300    1314.8096   -104.19998    1.1896673   -103.01031   -2029.4021    4.4005598    4.4005598    4.4005598   -2029.4021   -3738.8582    5496.3705   -7845.7186    37746.461    1909.2053    14420.742    85.216519 
   80400    1038.6521   -103.95883   0.93979422   -103.01903   -3238.1533    4.3971355    4.3971355    4.3971355   -3238.1533   -32789.835    45974.602   -22899.227    25362.433   -34578.875   -2928.7694    85.017736 
   80500    2154.4791   -104.94946     1.949418   -103.00004   -2103.4762    4.3984576    4.3984576    4.3984576   -2103.4762   -3455.8857    1535.1164   -4389.6594    10232.467    21669.744   -6214.1672    85.094449 
   80600    704.59668   -103.66112   0.63753388   -103.02359   -23408.287    4.4058608    4.4058608    4.4058608   -23408.287   -30704.002   -30616.262   -8904.5967    47496.991   -47521.181     6984.468     85.52485 
   80700    1950.3155   -104.75945    1.7646864   -102.99476    12211.341    4.3956443    4.3956443    4.3956443    12211.341    26587.458     6876.675    3169.8908   -9383.9211    13597.289    -13619.38     84.93127 
   80800      1130.71   -104.03296    1.0230901   -103.00987   -11924.452    4.4074195    4.4074195    4.4074195   -11924.452    9937.7075   -35473.917   -10237.148    52083.201   -17162.434    3073.0391    85.615652 
   80900    1820.8298   -104.63345     1.647525   -102.98592   -5503.6034     4.417422     4.417422     4.417422   -5503.6034    10557.271   -12830.387   -14237.694   -20734.207   -1026.4866   -7260.7613    86.199879 
   81000    1250.3377   -104.13213    1.1313318   -103.00079   -44211.459    4.4061612    4.4061612    4.4061612   -44211.459   -62357.991   -78692.808    8416.4219    45364.657    7776.5074    3215.8651    85.542344 
   81100    1940.1461   -104.74994     1.755485   -102.99445    23581.197     4.380281     4.380281     4.380281    23581.197    62154.417    2818.8245    5770.3489     -8475.56   -10158.028     7420.814    84.043846 
   81200    1155.0946   -104.06907    1.0451538   -103.02391   -23667.976    4.3963066    4.3963066    4.3963066   -23667.976   -44399.179   -43998.434    17393.685    44134.292    17031.067   -8211.9817    84.969665 
   81300    1652.4585    -104.5104    1.4951791   -103.01522   -15833.964    4.4167228    4.4167228    4.4167228   -15833.964    6489.1872    -24830.67   -29160.411    3971.8699    -2288.221    12649.919    86.158959 
   81400    1611.8587   -104.46047    1.4584436   -103.00203   -21641.732    4.4164511    4.4164511    4.4164511   -21641.732   -41379.669   -14570.364    -8975.162     25529.34    15369.008    1095.0816    86.143054 
   81500    952.17484   -103.86334    0.8615478   -103.00179    3226.3984    4.3958448    4.3958448    4.3958448    3226.3984   -30488.181    17669.933    22497.443    18011.557    5538.2162   -8532.2875    84.942893 
   81600    1965.9148    -104.7701     1.778801    -102.9913    25276.956    4.3847904    4.3847904    4.3847904    25276.956    44572.849    34112.267   -2854.2474    3668.3352    6861.3906    6422.5902    84.303675 
   81700    1220.6802   -104.12368    1.1044971   -103.01918   -27205.454    4.4118308    4.4118308    4.4118308   -27205.454   -43500.862   -52543.126    14427.625    39269.966    14597.658   -6085.0749     85.87298 
   81800    1959.2299   -104.75954    1.7727524   -102.98678   -7061.8902    4.4208856    4.4208856    4.4208856   -7061.8902    37852.658   -23697.748   -35340.581   -25849.297   -5217.1388    5471.8088    86.402805 
   81900    1302.9275   -104.17453    1.1789162   -102.99561   -26424.365     4.410997     4.410997     4.410997   -26424.365   -50732.134   -35554.124    7013.1637    47443.507    11735.085    209.43136    85.824306 
   82000     1924.247   -104.71599    1.7410992   -102.97489    27948.434    4.3937661    4.3937661    4.3937661    27948.434    22639.149    39367.762    21838.391   -22586.821   -3772.5143    7644.7351    84.822448 
   82100     1204.178   -104.09158    1.0895655   -103.00202   -13580.236    4.4061425    4.4061425    4.4061425   -13580.236   -13132.717   -5166.1129   -22441.878    45647.937   -8891.7902   -5838.1052    85.541255 
   82200    1779.5618   -104.60804    1.6101849   -102.99785    7559.5629    4.4065821    4.4065821    4.4065821    7559.5629    14624.808    3221.4763     4832.404   -3096.9936    24526.202    7983.3408    85.566863 
   82300     1205.094   -104.09013    1.0903944   -102.99974    18019.762    4.3998648    4.3998648    4.3998648    18019.762     40283.25   -7811.2688    21587.306    33477.434   -27151.492   -3528.0429    85.176146 
   82400    1721.6506   -104.55857    1.5577857   -103.00078   -31469.277    4.4060237    4.4060237    4.4060237   -31469.277   -46671.729   -8466.3959   -39269.705     23140.05    27770.092     662.1548    85.534338 
   82500    1840.3701    -104.6613    1.6652055   -102.99609    19590.366    4.4030226    4.4030226    4.4030226    19590.366     48009.46    9228.3417    1533.2964    4901.2312   -16325.948   -5724.6516    85.359676 
   82600    1233.8414   -104.12667    1.1164056   -103.01026   -29304.784    4.4059206    4.4059206    4.4059206   -29304.784   -41536.228   -38804.322    -7573.802    49481.402    3962.4184   -2448.8579    85.528332 
   82700    1675.4014   -104.51738    1.5159384   -103.00144    36930.051    4.3915493    4.3915493    4.3915493    36930.051    91321.491     31130.57   -11661.909   -26298.278    16385.454   -3296.4907    84.694127 
   82800    1542.7381   -104.41644    1.3959018   -103.02053   -19733.905    4.3951654    4.3951654    4.3951654   -19733.905   -29454.767    -35684.27    5937.3234    45204.683   -22047.324   -6330.8092    84.903513 
   82900    1669.3511   -104.52662     1.510464   -103.01615    3108.7298    4.4057029    4.4057029    4.4057029    3108.7298    37931.145   -11600.553   -17004.402    7252.3057    11151.322    571.84374    85.515653 
   83000    1392.0822   -104.27949    1.2595852    -103.0199   -18241.562    4.4067302    4.4067302    4.4067302   -18241.562   -8868.3259   -30839.181    -15017.18    -789.9466   -7591.2584   -2696.9483    85.575486 
   83100    1241.4838   -104.14421    1.1233206   -103.02089    2460.0472    4.4003718    4.4003718    4.4003718    2460.0472    49966.205   -26866.924   -15719.139     31303.03   -3740.4516   -10645.568    85.205594 
   83200    1942.5773   -104.77042    1.7576848   -103.01274   -4390.4728     4.392655     4.392655     4.392655   -4390.4728    6627.6151   -12598.616   -7200.4177   -27255.739   -3968.5781   -9089.5723    84.758112 
   83300    898.54467   -103.84576    0.8130221   -103.03274    -23171.13    4.3999553    4.3999553    4.3999553    -23171.13   -12850.313     -30301.6   -26361.475      34867.4   -24265.701    372.07533    85.181404 
   83400     1913.163   -104.75092    1.7310701   -103.01985    11943.747    4.3943101    4.3943101    4.3943101    11943.747    88481.324   -23883.437   -28766.647   -7349.3246    7741.5116   -30675.546    84.853958 
   83500    1251.3229   -104.16231    1.1322232   -103.03009    11444.466    4.3979546    4.3979546    4.3979546    11444.466    14730.147    -6231.435    25834.685    15480.753   -5014.9494    14018.491    85.065258 
   83600      1512.69   -104.39052    1.3687137   -103.02181   -3939.5398    4.4029485    4.4029485    4.4029485   -3939.5398    34017.249    -20377.38   -25458.489    5343.8818    5784.3934   -39046.745    85.355365 
   83700    1920.7735   -104.74093    1.7379562   -103.00298    7440.4748      4.40527      4.40527      4.40527    7440.4748     12560.42    21298.416   -11537.412    3033.4708    14930.133    8288.7684    85.490446 
   83800    1269.1564   -104.15993    1.1483594   -103.01157   -19586.614    4.3991278    4.3991278    4.3991278   -19586.614    9093.3254   -71787.648    3934.4798    17357.713   -8406.4604   -36560.474     85.13335 
   83900    1564.5281   -104.42245    1.4156179   -103.00683    30399.777    4.3905269    4.3905269    4.3905269    30399.777    94312.051    25915.993   -29028.712   -3514.7065     23864.09    -4832.003    84.634986 
   84000    1693.7388   -104.54769    1.5325304   -103.01516   -3479.9158    4.3946292    4.3946292    4.3946292   -3479.9158    58082.038    -50296.34   -18225.446    14182.921   -9660.1031   -31764.401    84.872447 
   84100    1152.4938    -104.0674    1.0428006    -103.0246   -10925.149    4.3962802    4.3962802    4.3962802   -10925.149    28013.594   -30148.838   -30640.204    21844.869     24410.61   -15081.422    84.968134 
   84200    1850.1009   -104.68831    1.6740101    -103.0143    7959.1267     4.403484     4.403484     4.403484    7959.1267    62780.473   -16700.081   -22203.012   -2642.9353    -701.4746   -7793.2189    85.386511 
   84300    1471.7182   -104.34813    1.3316415   -103.01649   -20711.634    4.4074522    4.4074522    4.4074522   -20711.634    35657.724   -52449.275   -45343.351    24996.886    8556.3095   -34293.582     85.61756 
   84400    1207.0166   -104.10733     1.092134    -103.0152   -4126.6889    4.3912172    4.3912172    4.3912172   -4126.6889    1629.4306   -6610.7286   -7398.7685   -7338.4327    24270.712     20440.85    84.674911 
   84500    1994.1397   -104.80955    1.8043395   -103.00521    9296.8998    4.3840928    4.3840928    4.3840928    9296.8998    56681.282   -25921.378   -2869.2045    5497.3191   -15814.469   -40530.432    84.263444 
   84600    1042.3074   -103.97155   0.94310167   -103.02845   -31070.897    4.3977507    4.3977507    4.3977507   -31070.897   -31029.934   -20572.205   -41610.553    8657.2918    39836.008    13376.145    85.053428 
   84700    1877.9423   -104.71557    1.6992016   -103.01637   -8868.0157    4.4021534    4.4021534    4.4021534   -8868.0157    4952.8752   -19998.024   -11558.899   -7453.2788   -13091.339   -1024.0588    85.309133 
   84800    1229.8569   -104.13601    1.1128004   -103.02321   -19688.143    4.4090153    4.4090153    4.4090153   -19688.143   -3183.5991   -3827.3096   -52053.521    13942.224    23331.033   -4001.6982    85.708683 
   84900    1274.9381   -104.17561    1.1535908   -103.02202    -6487.309     4.382453     4.382453     4.382453    -6487.309   -16812.238    2374.5253   -5024.2139   -3860.8356    33795.189    26208.014    84.168931 
   85000    1932.1241   -104.76393    1.7482265   -103.01571    23523.801    4.3772841    4.3772841    4.3772841    23523.801    38030.356    15661.445    16879.601    10950.033   -27312.003   -5608.3423    83.871461 
   85100    936.27014   -103.88211    0.8471569   -103.03495   -29744.192    4.4059183    4.4059183    4.4059183   -29744.192   -23846.137   -11780.656   -53605.783    3365.9253    39347.637    27907.659    85.528195 
   85200     1805.227   -104.64677    1.6334073   -103.01336    3650.4285    4.4096727    4.4096727    4.4096727    3650.4285     23441.49   -34118.591    21628.387    14945.148   -22557.843   -3621.9136    85.747026 
   85300    1417.3961   -104.29741    1.2824898   -103.01492   -21081.444    4.4045755    4.4045755    4.4045755   -21081.444   -9944.5361   -23232.785   -30067.011    15564.871    8207.3614    26170.451    85.450024 
   85400    1224.3636   -104.11973    1.1078299    -103.0119    8094.9162    4.3809368    4.3809368    4.3809368    8094.9162    66961.044   -24714.028   -17962.267     1701.567    15135.731    22424.267    84.081597 
   85500    1919.7988   -104.74531    1.7370743   -103.00824    22470.763    4.3908197    4.3908197    4.3908197    22470.763    21755.114    8411.9062    37245.268    9255.3091   -11515.221   -15609.852    84.651921 
   85600     1055.607   -103.98292   0.95513539   -103.02778   -13558.615    4.4060655    4.4060655    4.4060655   -13558.615    28977.206    -20982.58   -48670.471    9146.6463    34691.343    43921.757    85.536768 
   85700    1663.5803   -104.51953    1.5052424   -103.01429    17797.401     4.403473     4.403473     4.403473    17797.401    18495.908    -17497.49    52393.785   -409.33736   -16724.814   -36342.745    85.385874 
   85800    1535.2752   -104.40534    1.3891493    -103.0162   -3778.1576    4.4001999    4.4001999    4.4001999   -3778.1576   -2845.0097    12423.946   -20913.409    901.80496     26781.83    27389.628    85.195609 
   85900    1346.3289   -104.23558    1.2181867   -103.01739     25625.31    4.3860438    4.3860438    4.3860438     25625.31    38775.949    10686.779    27413.202    5753.9087    10238.173    -7650.271    84.375993 
   86000     1597.366   -104.46622    1.4453303   -103.02089   -19424.406    4.3981578    4.3981578    4.3981578   -19424.406   -24192.083   -14828.496   -19252.639   -21784.623   -14406.456    231.01241    85.077052 
   86100    1467.3358   -104.35029    1.3276762   -103.02261   -6361.1185    4.3994845    4.3994845    4.3994845   -6361.1185    7488.2866   -2348.3745   -24223.268    5687.9722    31917.464    28899.721    85.154066 
   86200    1833.1098   -104.66912    1.6586363   -103.01048    13372.473    4.3985313    4.3985313    4.3985313    13372.473    10307.052     430.5557    29379.812   -21903.838   -23152.391   -11032.965    85.098724 
   86300    1088.4755   -104.01533   0.98487554   -103.03045   -41656.257    4.3976339    4.3976339    4.3976339   -41656.257   -39368.685    -14360.65   -71239.436    6948.5893    20823.567    30279.826    85.046651 
   86400    1709.1831   -104.57071    1.5465048    -103.0242    38231.179    4.3840752    4.3840752    4.3840752    38231.179    63384.232    9231.9472    42077.359   -6912.2722    9957.3591    3420.5207    84.262432 
   86500    1692.2508    -104.5667    1.5311841   -103.03552   -22957.463    4.3990314    4.3990314    4.3990314   -22957.463   -8169.5826   -7841.5533   -52861.252   -12456.908   -4504.0039    7858.1466    85.127758 
   86600    723.88849   -103.70444   0.65498952   -103.04945   -17058.907    4.4039559    4.4039559    4.4039559   -17058.907   -10767.274   -17159.525   -23249.923    15847.546    38532.471    26370.513    85.413968 
   86700    2374.7145   -105.16652    2.1486915   -103.01783    6963.1945    4.3960146    4.3960146    4.3960146    6963.1945    42116.087   -14704.322   -6522.1817    271.32281   -9884.8788   -19738.238    84.952739 
   86800    979.58621   -103.92351   0.88635019   -103.03716   -22621.676    4.3959646    4.3959646    4.3959646   -22621.676   -39729.609   -10478.207   -17657.211   -6622.4259    38193.991    36021.121    84.949839 
   86900    1308.3153   -104.21604    1.1837911   -103.03225     6017.901    4.3955681    4.3955681    4.3955681     6017.901    34198.247   -5878.4608   -10266.083    22792.478   -6107.6979   -29683.703    84.926857 
   87000    2094.9029   -104.91928    1.8955122   -103.02377   -7428.6663     4.395235     4.395235     4.395235   -7428.6663    18999.886   -2512.1883   -38773.697    -5460.479    13092.879    11753.567    84.907547 
   87100    1098.3601   -104.02344   0.99381926   -103.02962   -24239.225    4.4017791    4.4017791    4.4017791   -24239.225   -36299.439   -2858.3949   -33559.841    9045.2109     30077.67     1741.583    85.287373 
   87200    1467.1256   -104.34853    1.3274861   -103.02105     9397.817    4.4018511    4.4018511    4.4018511     9397.817    39731.848     14639.65   -26178.047    5476.5126    -20658.71    -29523.35    85.291557 
   87300    1944.3057   -104.77557    1.7592487   -103.01632    2053.9584    4.3936585    4.3936585    4.3936585    2053.9584    24689.875    153.30475   -18681.304   -2139.0686    21952.502    21532.094    84.816215 
   87400    861.04464    -103.8088   0.77909128   -103.02971   -527.70067    4.3954611    4.3954611    4.3954611   -527.70067   -15637.011    44861.593   -30807.684    3087.2335   -3624.5573   -34696.345    84.920654 
   87500    1933.0435    -104.7648    1.7490583   -103.01574    16403.005    4.3987621    4.3987621    4.3987621    16403.005    45799.941    4034.7925   -625.71926   -8990.5525   -21763.092    10638.285    85.112121 
   87600    1523.1802   -104.40465    1.3782054   -103.02645   -16213.401    4.3987319    4.3987319    4.3987319   -16213.401   -3673.8881   -10752.718   -34213.596    6668.2095    17898.223   -21565.144    85.110368 
   87700    994.52505   -103.93872   0.89986716   -103.03885   -14910.141    4.3933323    4.3933323    4.3933323   -14910.141   -29777.164    42309.718   -57262.975   -2265.1143   -40579.746   -12151.582    84.797327 
   87800     2438.076   -105.22211    2.2060224   -103.01609    10924.359    4.3936299    4.3936299    4.3936299    10924.359    26603.069    10562.521   -4392.5119    3670.5386    13667.887   -3741.9944    84.814561 
   87900    864.87874   -103.82413   0.78256046   -103.04156   -42165.463    4.4053604    4.4053604    4.4053604   -42165.463   -41445.241    367.39495   -85418.544    5605.2227   -49844.519   -21066.669    85.495709 
   88000    1688.1875   -104.55151    1.5275076     -103.024    5563.4107    4.3965441    4.3965441    4.3965441    5563.4107   -15523.151     60652.98   -28439.598   -2746.7891    15814.021    11395.465    84.983441 
   88100    1696.5206   -104.55668    1.5350475   -103.02163    -11309.37    4.3981731    4.3981731    4.3981731    -11309.37   -16021.715    17528.361   -35434.755    6761.3539   -31963.358   -11355.979     85.07794 
   88200    1169.4689   -104.08291    1.0581601   -103.02475    7468.1991    4.3961409    4.3961409    4.3961409    7468.1991   -27704.997    81787.773   -31678.179     2836.111   -1795.2301   -1361.5012    84.960062 
   88300    1589.8058   -104.46122    1.4384897   -103.02273   -4236.5769    4.3984977    4.3984977    4.3984977   -4236.5769   -24983.096    25205.626   -12932.261    13628.954    7167.4938    20002.697    85.096778 
   88400    1586.6875   -104.45942    1.4356682   -103.02376   -7221.5655    4.3991987    4.3991987    4.3991987   -7221.5655   -17555.769    36610.998   -40719.925    638.23143   -15731.795   -36499.216    85.137468 
   88500    1209.9901   -104.11945    1.0948245   -103.02463    13578.041    4.3913439    4.3913439    4.3913439    13578.041    3779.3504    23665.504     13289.27    7381.4131    26964.848    22029.174    84.682244 
   88600    1693.3437    -104.5503     1.532173   -103.01812    9389.2515    4.3855307    4.3855307    4.3855307    9389.2515    16850.775    24159.335   -12842.356   -1655.8574   -9536.2766   -9708.2931    84.346382 
   88700    1453.2835   -104.34285    1.3149615   -103.02789   -5428.4976     4.397442     4.397442     4.397442   -5428.4976   -15710.391    11826.309   -12401.411    6266.6091    7479.3757   -13092.219    85.035517 
   88800    1555.7264   -104.42436    1.4076539    -103.0167   -495.94637    4.3991124    4.3991124    4.3991124   -495.94637    1827.3023    23031.467   -26346.608   -5120.7408    10584.081    38707.895    85.132456 
   88900    1503.5134   -104.37793    1.3604105   -103.01752   -10328.591    4.3894655    4.3894655    4.3894655   -10328.591    1950.0703    4737.7183   -37673.563     6437.363   -8569.8183   -67165.357    84.573619 
   89000    1648.1083   -104.50799     1.491243   -103.01675   -7117.3608    4.3875424    4.3875424    4.3875424   -7117.3608   -14258.392   -8122.0542    1028.3636   -376.92207    9871.6237     50168.68    84.462511 
   89100    1273.0984   -104.17629    1.1519262   -103.02436   -10089.559     4.397415     4.397415     4.397415   -10089.559    8349.7284    25052.438   -63670.843   -2830.7204   -1382.9994   -46663.479    85.033954 
   89200     1735.362   -104.58049     1.570192    -103.0103    -21556.06    4.4061382    4.4061382    4.4061382    -21556.06   -25544.803   -18079.286   -21044.091   -1053.5654   -9538.1605    13164.978    85.541002 
   89300    1264.8533   -104.15449    1.1444658   -103.01002   -10657.286    4.3933481    4.3933481    4.3933481   -10657.286   -4575.8201    7274.5698   -34670.608    1560.3567    23520.694   -1750.1243    84.798239 
   89400    1588.5322   -104.44751    1.4373373   -103.01018      -4937.2    4.3832119    4.3832119    4.3832119      -4937.2    16814.386   -5547.7184   -26078.268   -1750.4336   -32965.703   -41602.872    84.212663 
   89500     1805.154   -104.64704    1.6333413    -103.0137     7496.423    4.3923669    4.3923669    4.3923669     7496.423    15807.521    17844.927   -11163.179    11467.797    11109.113    16942.887    84.741438 
   89600    1095.6939   -104.01145   0.99140685   -103.02005   -34979.364    4.4107426    4.4107426    4.4107426   -34979.364   -23751.724   -14338.387   -66847.983     1396.292   -23652.561   -41597.013    85.809455 
   89700    1746.7597   -104.58373    1.5805049   -103.00322    6633.4437    4.3988991    4.3988991    4.3988991    6633.4437   -6077.6244    32971.548   -6993.5919    285.44003   -36004.875    18464.371    85.120077 
   89800    1354.5957   -104.23214    1.2256667   -103.00648    14845.965    4.3843199    4.3843199    4.3843199    14845.965    14606.039     34807.85    -4875.995    3257.6602    9164.3288   -25520.673     84.27654 
   89900    1389.5608   -104.27472    1.2573038   -103.01741   -14532.127    4.3944971    4.3944971    4.3944971   -14532.127   -40286.104    16172.444   -19482.721   -7342.9115   -54614.256    3011.6886    84.864794 
   90000     1864.613   -104.69109    1.6871411   -103.00395    30119.766    4.4008924    4.4008924    4.4008924    30119.766    25370.237    37956.387    27032.674   -1102.1073    22153.724   -11688.615    85.235839 
   90100    992.11238   -103.92112   0.89768413   -103.02344   -40970.766    4.4098745    4.4098745    4.4098745   -40970.766   -61229.468   -1767.9324   -59914.899   -7399.1144   -56741.284   -18743.674    85.758802 
   90200    2208.5557   -104.99678    1.9983476   -102.99843    13706.375    4.3947073    4.3947073    4.3947073    13706.375    18177.244   -5408.2668    28350.147    8339.7296    28068.404    20112.798    84.876968 
   90300    1237.6419   -104.12787    1.1198444   -103.00802   -5188.1857    4.3913682    4.3913682    4.3913682   -5188.1857   -22014.698    50253.657   -43803.516    -7254.249   -54848.029   -20920.068    84.683648 
   90400     1662.775   -104.51681    1.5045137   -103.01229   -2820.7033    4.4015543    4.4015543    4.4015543   -2820.7033    10267.168   -18228.744   -500.53295    11318.433     8912.535    5931.7377    85.274303 
   90500    1485.0691   -104.35432    1.3437217    -103.0106    615.02266    4.4023843    4.4023843    4.4023843    615.02266    7796.8488    28121.997   -34073.778    1573.3406   -26511.934    11710.968    85.322554 
   90600    1341.9722   -104.21583    1.2142446   -103.00159   -4384.6501    4.4072282    4.4072282    4.4072282   -4384.6501    20378.006   -2903.1285   -30628.828    6235.4264   -5583.1399   -17580.415    85.604506 
   90700    1402.3643   -104.27061    1.2688887   -103.00172   -2627.3555    4.3962649    4.3962649    4.3962649   -2627.3555   -3160.2549     13328.74   -18050.552    2915.6362   -4246.2103    27595.768     84.96725 
   90800    1806.2661   -104.62877    1.6343475   -102.99443    1478.4672     4.393513     4.393513     4.393513    1478.4672    16063.893    11322.748   -22951.239    3005.9248   -7148.6494   -29890.879    84.807789 
   90900    1040.7488   -103.95226    0.9416914   -103.01057   -2572.6337    4.4023343    4.4023343    4.4023343   -2572.6337    16299.276   -9853.7145   -14163.463    7392.0901    3246.1245     4768.299    85.319645 
   91000    1947.6636   -104.75509     1.762287    -102.9928   -3864.0995    4.4083106    4.4083106    4.4083106   -3864.0995   -20241.483    5562.6045    3086.5802    513.61159    -15024.44   -1008.5609    85.667594 
   91100    1256.5165   -104.13488    1.1369226   -102.99796   -23551.503    4.4080228    4.4080228    4.4080228   -23551.503      44101.5   -66161.565   -48594.444   -2755.1992    14205.539   -8366.8744    85.650815 
   91200    1721.5437   -104.54283    1.5576889   -102.98514    16892.142    4.3959523    4.3959523    4.3959523    16892.142   -15600.706    38967.336    27309.796    6640.7474   -923.69805    24914.141    84.949123 
   91300    1531.0881    -104.3812    1.3853607   -102.99584   -16108.122    4.4008774    4.4008774    4.4008774   -16108.122    8436.7204   -29237.055   -27524.032   -6219.5778   -4647.1849   -28845.462    85.234971 
   91400    1246.7562   -104.12807    1.1280912   -102.99997    10053.348    4.3997056    4.3997056    4.3997056    10053.348     40068.81     2839.346   -12748.113   -1135.9937    8483.1466    54578.276    85.166905 
   91500    1851.9114   -104.66676    1.6756484   -102.99111    2971.1704     4.408579     4.408579     4.408579    2971.1704   -184.42749   -16202.825    25300.764   -5265.2636    6952.3225   -32248.424    85.683238 
   91600     993.6586   -103.89597   0.89908319   -102.99689   -25427.577    4.4085195    4.4085195    4.4085195   -25427.577    37428.159   -57935.592   -55775.297    4914.6793    7630.3519    46090.101    85.679772 
   91700    2118.4186   -104.89276    1.9167897   -102.97597    31477.941    4.3957371    4.3957371    4.3957371    31477.941    8835.7268    14825.887    70772.209   -4052.3742   -3591.1701   -16571.496    84.936649 
   91800    1028.8808   -103.93461   0.93095294   -103.00365   -20417.005    4.4021083    4.4021083    4.4021083   -20417.005    49346.365   -75960.669   -34636.712   -6445.4721    6585.6676    53949.117    85.306512 
   91900    1990.8543   -104.78129    1.8013668   -102.97992    20588.646    4.4021746    4.4021746    4.4021746    20588.646    15543.994    2574.4966    43647.447    3736.2415   -13389.116   -5932.6519    85.310365 
   92000    1219.1502   -104.10202    1.1031127   -102.99891   -12362.313    4.4071402    4.4071402    4.4071402   -12362.313     30048.94   -45585.624   -21550.256   -7690.2035   -7571.6768    54407.354    85.599375 
   92100      1512.59   -104.36454    1.3686232   -102.99591    16356.516    4.4029425    4.4029425    4.4029425    16356.516   -6518.4272    -11607.42    67195.396   -515.87749    5324.9834   -7524.8842    85.355016 
   92200    1532.2146   -104.38128    1.3863799    -102.9949     2732.346    4.3974221    4.3974221    4.3974221     2732.346   -18881.887     9945.871    17133.054    3779.7805   -24822.406    22261.661    85.034364 
   92300    1310.3891   -104.19227    1.1856676    -103.0066   -12242.459    4.3978419    4.3978419    4.3978419   -12242.459    10338.864   -39057.852   -8008.3885    1941.7541    3296.5051    17410.628    85.058718 
   92400    1977.3008   -104.79809    1.7891033   -103.00899    2662.2103    4.4017508    4.4017508    4.4017508    2662.2103   -33987.189   -7708.3946    49682.215    10761.221   -1390.9298   -3069.1666    85.285724 
   92500    1008.9512   -103.94231   0.91292027   -103.02939   -2585.2071    4.4055803    4.4055803    4.4055803   -2585.2071   -3277.4914    -55197.72     50719.59   -3490.7961   -8504.5007    50080.533    85.508514 
   92600    1572.5571   -104.45036    1.4228827   -103.02748    8543.5647    4.3950203    4.3950203    4.3950203    8543.5647    28129.018    -19002.75    16504.426    3151.5365    3992.1313   -50506.856    84.895105 
   92700    1767.5733   -104.62277    1.5993375   -103.02343    -3693.554    4.4025822    4.4025822    4.4025822    -3693.554    7209.0255   -21484.606    3194.9185    1221.2423   -333.86258    38966.531     85.33406 
   92800    1370.4003   -104.25808     1.239967   -103.01811   -11840.033    4.4098109    4.4098109    4.4098109   -11840.033    1152.0498   -34645.032   -2027.1177     2664.667    1273.1734   -17994.459    85.755091 
   92900    1430.8876   -104.30173    1.2946972   -103.00704    26878.582    4.3967193    4.3967193    4.3967193    26878.582   -15397.764     29318.13    66715.381   -2446.2018    7552.8491    8320.7835    84.993597 
   93000    1492.3534   -104.36672    1.3503127   -103.01641    14944.897    4.4022373    4.4022373    4.4022373    14944.897    33573.403    21466.802   -10205.513   -2742.7699   -6385.2312     21649.67    85.314009 
   93100    1485.8324   -104.35662    1.3444124    -103.0122   -9239.1327    4.4097193    4.4097193    4.4097193   -9239.1327   -14050.836   -5747.8807   -7918.6819   -3608.6159    9896.4015    -38470.22    85.749743 
   93200    1615.0678   -104.46481    1.4613473   -103.00346   -2016.4744    4.4021833    4.4021833    4.4021833   -2016.4744   -3264.2663    31448.029   -34233.186    3890.5888   -1902.8703    21879.804     85.31087 
   93300    1618.1873    -104.4714    1.4641699   -103.00723   -5744.8454    4.4069283    4.4069283    4.4069283   -5744.8454    16535.902   -27271.046   -6499.3921   -13778.714    67.465515   -30155.241    85.587029 
   93400    1329.2539   -104.21203    1.2027369   -103.00929   -11251.772    4.4136463    4.4136463    4.4136463   -11251.772   -28303.223    30047.881   -35499.974    1206.8553    7934.0391    1077.1787     85.97904 
   93500     1769.291   -104.60487    1.6008917   -103.00398   -13469.161    4.4051534    4.4051534    4.4051534   -13469.161    6298.6522   -14198.253   -32507.883   -9738.0909   -25970.203    15607.336    85.483662 
   93600    1564.7226   -104.41651    1.4157939   -103.00072    4424.5505    4.4008344    4.4008344    4.4008344    4424.5505    10248.124   -12632.437    15657.965   -3656.9143     13586.88   -14792.601    85.232473 
   93700    892.43355   -103.82899   0.80749263   -103.02149   -13285.429    4.3963675    4.3963675    4.3963675   -13285.429   -19696.887     6151.942   -26311.341     4153.417   -27108.914    30458.344    84.973201 
   93800    2002.9954   -104.82597    1.8123523   -103.01362      32805.5    4.3972423    4.3972423    4.3972423      32805.5    9635.8101    49362.529    39418.162   -6507.0064    1250.4559    2478.3882    85.023931 
   93900    981.19739   -103.92871   0.88780802    -103.0409    -17146.63    4.4025198    4.4025198    4.4025198    -17146.63   -37730.481    22431.518   -36140.926   -4588.6201    -9403.191    14020.201    85.330435 
   94000    1468.0228   -104.35904    1.3282979   -103.03074   -367.02783    4.4028672    4.4028672    4.4028672   -367.02783   -7944.4019    19480.786   -12637.467    5620.1937   -9567.0377    18869.088    85.350638 
   94100     2162.029   -104.96733    1.9562493   -103.01108   -18848.459    4.4060912    4.4060912    4.4060912   -18848.459   -24840.811    17343.013    -49047.58    17871.457   -4963.5984   -15642.376    85.538264 
   94200    828.03743   -103.77333   0.74922567   -103.02411   -10272.503    4.3937371    4.3937371    4.3937371   -10272.503   -34655.617    35740.939   -31902.831   -16422.491   -15823.582    26180.486     84.82077 
   94300    1848.9342   -104.69023    1.6729545   -103.01728    5594.9363    4.3919811    4.3919811    4.3919811    5594.9363    9270.9502   -12274.911     19788.77    25403.012    4481.9185   -23216.733    84.719108 
   94400    1463.8819   -104.34678    1.3245511   -103.02223   -10307.993    4.4072324    4.4072324    4.4072324   -10307.993   -20553.629    26358.931    -36729.28   -3551.0567   -16158.121    20697.468    85.604749 
   94500    1016.0439    -103.9423   0.91933787   -103.02296    3796.3325    4.3990618    4.3990618    4.3990618    3796.3325   -15280.335    24563.524    2105.8084    7324.0715    7264.4235   -1343.0074    85.129519 
   94600     1877.748   -104.71176    1.6990259   -103.01273    7932.9036    4.4030425    4.4030425    4.4030425    7932.9036    3030.0525    27864.728   -7096.0698    1953.1395    4099.5134   -9095.1034     85.36083 
   94700    1270.2156   -104.17137    1.1493178   -103.02206   -8565.4254     4.401076     4.401076     4.401076   -8565.4254    -34745.68    4832.0333    4217.3709    5334.6691   -11090.026    31103.445     85.24651 
   94800    1536.7618   -104.41095    1.3904944   -103.02045    1336.5467    4.4011274    4.4011274    4.4011274    1336.5467   -11719.514    25933.763   -10204.609   -3410.6314    17206.984   -30448.656    85.249494 
   94900    1777.4435    -104.6228    1.6082682   -103.01453   -10960.405    4.4063822    4.4063822    4.4063822   -10960.405   -1758.9828   -21049.111   -10073.122    7641.5877   -3096.4141     25282.12    85.555216 
   95000    1218.8581   -104.12243    1.1028484   -103.01958   -893.40093    4.3988499    4.3988499    4.3988499   -893.40093   -19018.696    32424.015   -16085.521    6993.4841    6705.6791   -17906.553    85.117221 
   95100    1562.3025   -104.42972    1.4136041   -103.01612   -1862.8134    4.3996267    4.3996267    4.3996267   -1862.8134    13636.589   -9488.9304   -9736.0984    5113.5069    15556.967    10202.497     85.16232 
   95200    1760.8879   -104.61207    1.5932884   -103.01878   -2655.3773     4.398585     4.398585     4.398585   -2655.3773    -8862.907   -36370.171    37266.946    13599.063   -21427.452    13650.968    85.101846 
   95300    1188.1799   -104.09943    1.0750901   -103.02434   -16071.928    4.4124674    4.4124674    4.4124674   -16071.928   -28531.986   -813.06965   -18870.728    -1993.479    24280.674   -3963.2528    85.910161 
   95400     1946.528    -104.7641    1.7612594   -103.00284    1471.6016    4.4100182    4.4100182    4.4100182    1471.6016    25621.761   -18690.457   -2516.4997   -373.23711   -12503.355    27197.546    85.767185 
   95500    853.02668   -103.79573   0.77183646   -103.02389    4097.0623    4.3950959    4.3950959    4.3950959    4097.0623   -7690.2194   -8052.7079    28034.114    6578.7463    23328.207   -21965.902    84.899486 
   95600    1859.9361   -104.71374    1.6829093   -103.03083    8622.1569    4.3901465    4.3901465    4.3901465    8622.1569    13982.698   -4727.8406    16611.613   -3124.7123     5580.806   -3770.1669    84.612989 
   95700     1622.067   -104.50333    1.4676803   -103.03565    6186.4668     4.409695     4.409695     4.409695    6186.4668    17009.021   -19054.322    20604.701    757.10779    15099.831   -13510.204    85.748325 
   95800    881.82396   -103.82991   0.79789285   -103.03202   -37451.951    4.4160612    4.4160612    4.4160612   -37451.951   -41363.556    -6548.716    -64443.58    1734.4438    8661.7137   -23063.511    86.120244 
   95900    2228.6098    -105.0146     2.016493   -102.99811     27961.35    4.3998734    4.3998734    4.3998734     27961.35    41155.426   -16156.905    58885.529   -2416.2711   -4510.6923    7437.9016    85.176645 
   96000    1172.7431   -104.09418    1.0611226   -103.03306   -24929.168    4.3993337    4.3993337    4.3993337   -24929.168   -40628.741    8036.7329   -42195.496   -750.89136    20543.164    -12237.79    85.145306 
   96100    1439.1156   -104.34517     1.302142   -103.04303   -7991.8991    4.4046258    4.4046258    4.4046258   -7991.8991   -10403.197   -44348.799    30776.299   -3810.4256   -17893.285    14021.756    85.452949 
   96200    1806.9307   -104.67046    1.6349488   -103.03551   -3161.7894      4.40867      4.40867      4.40867   -3161.7894    11250.214   -19448.838   -1286.7437    3979.5228    26021.402    5781.3742    85.688545 
   96300    979.86724   -103.92476   0.88660447   -103.03815   -20310.782    4.4136527    4.4136527    4.4136527   -20310.782    -44346.71    -7623.876   -8961.7589   -1970.4512    -3843.862   -13320.271    85.979411 
   96400    1708.5456   -104.56387     1.545928   -103.01794    2499.6667    4.4106137    4.4106137    4.4106137    2499.6667    17273.049   -27705.783    17931.734   -4848.4568   -8930.3183    27714.363    85.801933 
   96500    1704.1455   -104.56798    1.5419466   -103.02603     11691.65    4.4009326    4.4009326    4.4009326     11691.65    14461.563   -20369.641    40983.026    539.26082    27370.804   -21323.258    85.238179 
   96600    847.58079   -103.82491   0.76690892     -103.058    6314.7262    4.3913067    4.3913067    4.3913067    6314.7262    20599.553   -2172.2799    516.90576   -514.69685   -23881.985    20858.856     84.68009 
   96700    2156.9057   -105.00499    1.9516136   -103.05337    9814.2862     4.414617     4.414617     4.414617    9814.2862    15183.178    19041.889   -4782.2091   -6505.7243   -2559.5844    2093.4046    86.035776 
   96800    1068.8543   -104.00764   0.96712181   -103.04052   -20677.544    4.4283275    4.4283275    4.4283275   -20677.544    9913.4557   -60093.378   -11852.708    887.41703   -22779.577   -3963.6921    86.839876 
   96900    1155.6146   -104.06245    1.0456244   -103.01682    12948.735    4.4004549    4.4004549    4.4004549    12948.735    54448.272   -9978.2532   -5623.8152   -5768.5065   -7965.5677    11899.182    85.210421 
   97000    2232.4962   -105.02182    2.0200095   -103.00181    22813.553    4.3916156    4.3916156    4.3916156    22813.553    54312.644    49.376875    14078.637   -6900.0633    9175.0378    6622.1685    84.697962 
   97100     785.2883   -103.74569   0.71054536   -103.03515    7928.1123    4.4097524    4.4097524    4.4097524    7928.1123    20034.732    -763.8952    4513.4997   -1475.0322   -12446.353    19705.301    85.751674 
   97200    1792.9303   -104.62772     1.622281   -103.00544    1870.1093    4.4259013    4.4259013    4.4259013    1870.1093    35382.329    6091.7038   -35863.704    6857.3166    29767.256   -4073.0112    86.697223 
   97300    1694.8709   -104.52754    1.5335548   -102.99399    5219.5731    4.4163661    4.4163661    4.4163661    5219.5731    2748.1429   -12049.083     24959.66   -11862.892   -11198.125    32206.217    86.138081 
   97400    1251.2245   -104.12479    1.1321342   -102.99266   -17196.972    4.4036325    4.4036325    4.4036325   -17196.972   -33878.637    17223.161    -34935.44   -2204.0319    17413.996     -4352.16     85.39515 
   97500    1955.8553   -104.76533     1.769699   -102.99563    24999.527    4.4027456    4.4027456    4.4027456    24999.527    39493.068    4008.2776    31497.235    6295.4619   -2147.0939    15453.805    85.343563 
   97600    1250.0506   -104.15723    1.1310721   -103.02615   -28139.539    4.4160931    4.4160931    4.4160931   -28139.539   -34572.463   -988.18705   -48857.968   -4740.6674    20075.822   -4625.7845    86.122112 
   97700    1257.5723   -104.16373    1.1378778   -103.02586    4665.1917    4.4097682    4.4097682    4.4097682    4665.1917    55925.728   -6481.4784   -35448.675     12571.09    -1917.125   -11786.538    85.752597 
   97800    1602.4518   -104.46409     1.449932   -103.01415    29295.511    4.4064412    4.4064412    4.4064412    29295.511    94606.928    -8302.405    1582.0094   -4052.1386     26660.14    3566.0034    85.558654 
   97900    1101.1449   -104.02177   0.99633904   -103.02543   -21552.867    4.4118157    4.4118157    4.4118157   -21552.867    3824.2489     17965.08   -86447.929    10841.918   -2756.7892   -18746.459    85.872102 
   98000    2184.9883   -104.98057    1.9770233   -103.00355   -5523.6439    4.4208198    4.4208198    4.4208198   -5523.6439    24368.761   -27861.739   -13077.953     7402.301   -629.83771     10182.67    86.398945 
   98100    1081.4266   -103.99821    0.9784975   -103.01971   -13228.057    4.4109758    4.4109758    4.4109758   -13228.057    29704.561    -7892.747   -61495.985     -5229.97    21483.222   -13866.448    85.823064 
   98200    1482.2557   -104.35685    1.3411761   -103.01568    24129.109    4.3994526    4.3994526    4.3994526    24129.109    83843.961    11336.707    -22793.34    5956.9868   -4714.5185    3140.4777    85.152212 
   98300    1891.6346   -104.72997    1.7115907   -103.01838   -18412.794    4.4138725    4.4138725    4.4138725   -18412.794    31599.493   -56251.596    -30586.28   -5897.4184     12678.58     2010.247    85.992255 
   98400    1230.9327   -104.13531    1.1137737   -103.02153    14581.221    4.4066259    4.4066259    4.4066259    14581.221    59232.979     41658.13   -57147.446   -8386.7034   -1891.8997   -6548.0958    85.569414 
   98500     1521.399   -104.40772    1.3765938   -103.03113   -673.83451    4.4171389    4.4171389    4.4171389   -673.83451    63204.513   -28994.959   -36231.057   -7860.5228   -2697.9165    25587.951    86.183312 
   98600      1702.22    -104.5548    1.5402044    -103.0146    4959.2998    4.4187745    4.4187745    4.4187745    4959.2998    53766.778   -5096.5851   -33792.294   -21152.825   -8805.7069   -13304.242    86.279083 
   98700    954.06535   -103.87962   0.86325837   -103.01636   -26329.894    4.4109428    4.4109428    4.4109428   -26329.894   -24194.403    33197.266   -87992.544   -6713.6567    -21365.89    37270.136    85.821139 
   98800    2166.4292   -104.95697    1.9602307   -102.99674    18541.014    4.3931878    4.3931878    4.3931878    18541.014    60303.387    4294.4858     -8974.83   -9948.5581    9573.2272   -13128.552    84.788958 
   98900    1144.7943   -104.07289     1.035834   -103.03706   -5381.5905    4.4043913    4.4043913    4.4043913   -5381.5905   -6976.7409    34616.323   -43784.354    8215.4231   -9933.8391    32667.967    85.439301 
   99000    1486.5494   -104.36889    1.3450611   -103.02383   -25292.652    4.4215816    4.4215816    4.4215816   -25292.652    -10153.74   -13831.512   -51892.703   -4372.9895   -5907.6834   -6567.9432    86.443618 
   99100    1408.3931   -104.28417    1.2743437   -103.00983     35919.06    4.4051235    4.4051235    4.4051235     35919.06   -2861.0257    102878.41    7739.7961    764.69339    2013.9151   -3422.1438    85.481921 
   99200    1446.3672   -104.32398    1.3087034   -103.01527   -6331.6274    4.4037448    4.4037448    4.4037448   -6331.6274    29358.196    3450.1525   -51803.231    4075.6702    9182.0533    5024.3485    85.401684 
   99300    1563.0186   -104.43143    1.4142521   -103.01718    3866.1911    4.4122162    4.4122162    4.4122162    3866.1911    106.75608    43623.483   -32131.666   -4032.5601   -1.3320495   -43136.579    85.895491 
   99400    2140.3878   -104.93888    1.9366678   -103.00221   -600.30463    4.4169826    4.4169826    4.4169826   -600.30463    12767.551    27581.764    -42150.23    8052.3831    9107.5658    3582.8044    86.174162 
   99500    616.62713   -103.57802   0.55793719   -103.02008    7374.0767    4.4095234    4.4095234    4.4095234    7374.0767    52128.691    28876.196   -58882.657    4717.9369     -7608.68   -53261.587    85.738316 
   99600    2040.7332   -104.85529    1.8464983   -103.00879    2319.4622    4.4013439    4.4013439    4.4013439    2319.4622   -16533.147    16799.172    6692.3615   -13213.738    5816.9731    9361.3044    85.262079 
   99700    1421.1472    -104.3068    1.2858838   -103.02092    21435.597    4.3951293    4.3951293    4.3951293    21435.597    52673.903    38644.802   -27011.915    565.32026   -3350.6258   -51708.904    84.901421 
   99800    1478.1064   -104.36179    1.3374218   -103.02437    -24467.68    4.4185982    4.4185982    4.4185982    -24467.68   -21774.792   -32350.365   -19277.884   -16272.992   -67.788743    17049.457    86.268754 
   99900     1476.943   -104.34462     1.336369   -103.00825    -9405.056     4.417094     4.417094     4.417094    -9405.056   -34568.513    34625.357   -28272.012    7426.0508    747.21251   -24329.698     86.18068 
  100000    1597.8474   -104.44796    1.4457659   -103.00219    2338.0424    4.4017649    4.4017649    4.4017649    2338.0424    1802.2908   -3591.9373    8803.7738   -8618.9395   -4907.7806   -6610.7801    85.286545 
Loop time of 21.5056 on 1 procs for 100000 steps with 8 atoms

Pair  time (%) = 6.45699 (30.0247)
Kspce time (%) = 5.33209 (24.794)
Neigh time (%) = 0.156321 (0.726885)
Comm  time (%) = 0.877101 (4.07847)
Outpt time (%) = 0.025722 (0.119606)
Other time (%) = 8.65739 (40.2564)

Nlocal:    8 ave 8 max 8 min
Histogram: 1 0 0 0 0 0 0 0 0 0
Nghost:    1684 ave 1684 max 1684 min
Histogram: 1 0 0 0 0 0 0 0 0 0
Neighs:    2036 ave 2036 max 2036 min
Histogram: 1 0 0 0 0 0 0 0 0 0

Total # of neighbors = 2036
Ave neighs/atom = 254.5
Neighbor list builds = 2076
Dangerous builds = 0
unfix 20
unfix 21
print "seeds:5687519"
seeds:5687519
