LAMMPS (10 Feb 2015)
# ---- initialize simulations
clear
units metal
dimension 3
boundary p p p
atom_style charge
atom_modify map array
# ---- create atoms
read_data /Users/eugeneragasa/pyflamestk_git/pypospack/tests/tests_integration/workflow/WorkflowLammpsThermalExpansion/param_6993/MgO_NaCl_unit.npt.T900/lammps.structure
  triclinic box = (0 0 0) to (4.2565 4.2565 4.2565) with tilt (0 0 0)
  1 by 1 by 1 MPI processor grid
  reading atoms ...
  8 atoms
# ---- define interatomic potential
include potential.mod
mass 1 24.305
mass 2 15.999

group Mg type 1
4 atoms in group Mg
group O type 2
4 atoms in group O

set group Mg charge 1.61814101446
  4 settings made for charge
set group O charge -1.61814101446
  4 settings made for charge

variable R_cut equal 10.0

pair_style buck/coul/long ${R_cut}
pair_style buck/coul/long 10
pair_coeff 1 1 0.0 0.5 0.0 ${R_cut}
pair_coeff 1 1 0.0 0.5 0.0 10
pair_coeff 1 2 1169.10574889 0.285525631363 0.0 ${R_cut}
pair_coeff 1 2 1169.10574889 0.285525631363 0.0 10
pair_coeff 2 2 5328.19415446 0.197938803692 16.6059399876 ${R_cut}
pair_coeff 2 2 5328.19415446 0.197938803692 16.6059399876 10

kspace_style pppm 1.0e-5

neighbor 1.0 bin
neigh_modify every 1 delay 0 check yes
# ---- define settings
compute eng all pe/atom
compute eatoms all reduce sum c_eng
# ---- run minimization
reset_timestep 0
fix 1 all box/relax iso 0.0 vmax 0.001
thermo 10
thermo_style custom step pe lx ly lz xy xz yz press pxx pyy pzz pxy pxz pyz c_eatoms
min_style cg
minimize 1e-25 1e-25 5000 10000
PPPM initialization ...
  G vector (1/distance) = 0.352506
  grid = 8 8 8
  stencil order = 5
  estimated absolute RMS force accuracy = 3.81426e-05
  estimated relative force accuracy = 2.64886e-06
  using double precision FFTs
  3d grid and FFT values/proc = 3375 512
Neighbor list info ...
  1 neighbor list requests
  update every 1 steps, delay 0 steps, check yes
  master list distance cutoff = 11
Memory usage per processor = 4.06549 Mbytes
Step PotEng Lx Ly Lz Xy Xz Yz Press Pxx Pyy Pzz Pxy Pxz Pyz eatoms 
       0   -108.09373       4.2565       4.2565       4.2565            0            0            0    -32837.55    -32837.55    -32837.55    -32837.55 6.8800808e-12 1.9793426e-10 1.5308399e-10   -108.09373 
       9   -108.11055     4.226584     4.226584     4.226584            0            0            0    13.792758    13.792758    13.792758    13.792758 -4.4920118e-11 -8.154534e-11 2.0970287e-11   -108.11055 
Loop time of 0.0097599 on 1 procs for 9 steps with 8 atoms

Minimization stats:
  Stopping criterion = linesearch alpha is zero
  Energy initial, next-to-last, final = 
         -108.09372829     -108.110551709     -108.110551709
  Force two-norm initial, final = 4.74176 0.0024943
  Force max component initial, final = 4.74176 0.00196378
  Final line search alpha, max atom move = 0.00390625 7.67103e-06
  Iterations, force evaluations = 9 28

Pair  time (%) = 0.00288153 (29.5241)
Kspce time (%) = 0.00149989 (15.3679)
Neigh time (%) = 0 (0)
Comm  time (%) = 0.000296116 (3.034)
Outpt time (%) = 0 (0)
Other time (%) = 0.00508237 (52.074)

Nlocal:    8 ave 8 max 8 min
Histogram: 1 0 0 0 0 0 0 0 0 0
Nghost:    2189 ave 2189 max 2189 min
Histogram: 1 0 0 0 0 0 0 0 0 0
Neighs:    2344 ave 2344 max 2344 min
Histogram: 1 0 0 0 0 0 0 0 0 0

Total # of neighbors = 2344
Ave neighs/atom = 293
Neighbor list builds = 0
Dangerous builds = 0
unfix 1
# ---- define output variables ----
variable natoms equal "count(all)"
variable tot_energy equal "c_eatoms"
variable length_x equal "lx"
variable length_y equal "ly"
variable length_z equal "lz"
variable tilt_xy equal "xy"
variable tilt_xz equal "xz"
variable tilt_yz equal "yz"
variable tot_press equal "press"
variable press_xx equal "pxx"
variable press_yy equal "pyy"
variable press_zz equal "pzz"
variable press_xy equal "pxy"
variable press_xz equal "pxz"
variable press_yz equal "pyz"

# ---- output ----
print "pypospack:output_section:begin"
pypospack:output_section:begin
print "tot_energy = ${tot_energy}"
tot_energy = -108.110551708828
print "num_atoms = ${natoms}"
num_atoms = 8
print "xx = ${length_x}"
xx = 4.22658398474032
print "yy = ${length_y}"
yy = 4.22658398474032
print "zz = ${length_z}"
zz = 4.22658398474032
print "xy = ${tilt_xy}"
xy = 0
print "xz = ${tilt_xz}"
xz = 0
print "yz = ${tilt_yz}"
yz = 0
print "tot_press = ${tot_press}"
tot_press = 13.7927584127517
print "pxx = ${press_xx}"
pxx = 13.7927584125475
print "pyy = ${press_yy}"
pyy = 13.7927584121258
print "pzz = ${press_zz}"
pzz = 13.7927584135819
print "pxy = ${press_xy}"
pxy = -4.49201179574407e-11
print "pxz = ${press_xz}"
pxz = -8.15453399591787e-11
print "pyz = ${press_yz}"
pyz = 2.09702873442201e-11
print "pypospack:output_section:done"
pypospack:output_section:done
print "pypospack:lammps_sim:done"
pypospack:lammps_sim:done
#------------------------------------------------------------------------------
# RUN THERMOSTAT
# running using an NPT Nose-Hoover style thermostat
#------------------------------------------------------------------------------
variable tempdamp equal 0.1
variable pressdamp equal 1.0
# set initial velocities
velocity all create 900 9432793 mom yes dist gaussian loop all
# fix for Nose-Hoover style thermostat
fix 20 all npt temp 900 900 0.1 aniso 0.0 0.0 1.0 drag 1.0 couple xyz
variable boxx equal lx
variable boxy equal ly
variable boxz equal lz
variable boxp equal press
variable boxt equal temp
# calculate averages every 10000 steps
reset_timestep 0
fix 21 all ave/time 10 10 100 v_boxx v_boxy v_boxz v_boxp v_boxt file lattice.out
thermo_style custom step temp pe ke etotal press lx ly lz press pxx pyy pzz pxy pxz pyz vol
thermo_modify flush yes
thermo 100
run 100000
PPPM initialization ...
  G vector (1/distance) = 0.352801
  grid = 8 8 8
  stencil order = 5
  estimated absolute RMS force accuracy = 3.76353e-05
  estimated relative force accuracy = 2.61363e-06
  using double precision FFTs
  3d grid and FFT values/proc = 3375 512
Memory usage per processor = 3.06549 Mbytes
Step Temp PotEng KinEng TotEng Press Lx Ly Lz Press Pxx Pyy Pzz Pxy Pxz Pyz Volume 
       0          900   -108.11055   0.81433891   -107.29621     11534.21     4.226584     4.226584     4.226584     11534.21     7742.435      6394.34    20465.854    4027.7628   -1682.4129    4769.5682    75.503748 
     100    593.88464   -107.71913    0.5373593   -107.18178   -191.47903    4.2504631    4.2504631    4.2504631   -191.47903    566.43601   -9635.4063    8494.5332   -2122.8297    992.21251    4938.8929    76.790723 
     200    616.32108   -107.52302   0.55766027   -106.96536   -17502.728    4.2622591    4.2622591    4.2622591   -17502.728   -23499.669   -20564.881   -8443.6346    199.77282     -533.268   -2408.1898    77.431833 
     300    457.58019    -107.1811   0.41402818   -106.76707    6746.7577    4.2496176    4.2496176    4.2496176    6746.7577    6556.6507   -4387.0507    18070.673    1780.9123    1021.5881   -4124.2733    76.744903 
     400    267.65811   -106.86219   0.24218269   -106.62001    115.16346    4.2599957    4.2599957    4.2599957    115.16346    -3033.848   -4831.7056     8211.044   -2837.9113    10223.295    4821.5115    77.308541 
     500     530.2273   -106.99654    0.4797608   -106.51678    953.48496    4.2678994    4.2678994    4.2678994    953.48496    17027.268   -9767.3859   -4399.4269    2088.7099    7752.8723   -2085.0844    77.739641 
     600    1284.6332   -107.62721    1.1623631   -106.46485    2677.5818    4.2612708    4.2612708    4.2612708    2677.5818    11919.285   -18615.128    14728.588   -2620.1091    5327.1025   -9859.0571    77.377984 
     700     1194.778   -107.53652    1.0810603   -106.45546   -293.75269     4.266488     4.266488     4.266488   -293.75269    14707.955   -22075.535    6486.3218    1706.4952     6034.943   -3319.0558    77.662539 
     800    1013.7666   -107.37299   0.91727737   -106.45572   -5583.5383    4.2660835    4.2660835    4.2660835   -5583.5383    9893.1423   -8090.9835   -18552.774   -3973.7487    6091.7634   -2534.9006     77.64045 
     900     845.8235    -107.2218   0.76531888   -106.45648   -2655.6021    4.2587643    4.2587643    4.2587643   -2655.6021    15953.979    617.79929   -24538.585    2102.4601    2206.0685    5563.9389     77.24152 
    1000    595.93703   -107.00289   0.53921635   -106.46368   -21384.712    4.2682041    4.2682041    4.2682041   -21384.712   -1497.1221   -16976.972   -45680.043    5242.3376    -3742.856    8700.8351    77.756293 
    1100    713.21154   -107.10994   0.64532879   -106.46461   -10031.493    4.2660965    4.2660965    4.2660965   -10031.493     21515.57   -299.33101   -51310.719   -7898.3224   -470.43471   -5628.1319     77.64116 
    1200    1301.4438   -107.63947    1.1775737    -106.4619   -5910.3842    4.2549744    4.2549744    4.2549744   -5910.3842    4461.6335   -5157.6478   -17035.138     7501.773   -4992.2941    5668.1923     77.03549 
    1300    1170.5821   -107.53089    1.0591672   -106.47172    3682.2866    4.2609127    4.2609127    4.2609127    3682.2866    31497.621   -18848.046   -1602.7147   -2051.6775    1969.9086     14582.64    77.358477 
    1400    1241.5837   -107.59199    1.1234111   -106.46858   -16133.751    4.2674394    4.2674394    4.2674394   -16133.751    -2829.184   -26931.491   -18640.578   -1105.9824   -5476.8236   -1009.9815    77.714503 
    1500    622.97222    -107.0305   0.56367835   -106.46682    1068.4724    4.2569632    4.2569632    4.2569632    1068.4724    32500.517    252.89749   -29547.997    2355.1829    3426.5257    436.93615    77.143562 
    1600    639.08291   -107.04844   0.57825565   -106.47018     1403.836    4.2521692    4.2521692    4.2521692     1403.836    24980.313   -1074.5248    -19694.28     4262.603    354.14633    8704.1934    76.883227 
    1700    526.44832   -106.95311   0.47634151   -106.47677   -4246.9142    4.2702799    4.2702799    4.2702799   -4246.9142     34306.84   -6242.2022    -40805.38    1926.9293    3002.0278   -4439.1685    77.869792 
    1800    1157.9267   -107.51736    1.0477164   -106.46964   -22762.744    4.2641719    4.2641719    4.2641719   -22762.744   -19600.313   -24505.386   -24182.534   -10124.601    4083.7653   -4552.2752     77.53613 
    1900     1185.483   -107.53487    1.0726499   -106.46223    25482.697    4.2440908    4.2440908    4.2440908    25482.697    39382.623    16497.577    20567.892    7139.9441    677.92323    720.23957    76.445867 
    2000    1229.8891   -107.58358    1.1128295   -106.47075   -14833.673     4.267583     4.267583     4.267583   -14833.673   -20630.395   -12364.845    -11505.78   -4893.8149   -7896.9984    -7632.852     77.72235 
    2100    748.76464   -107.15043   0.67749798   -106.47293    -13964.15    4.2669636    4.2669636    4.2669636    -13964.15    7927.3984   -15421.206   -34398.642   -2113.1363   -1028.7535    1446.0604    77.688515 
    2200    624.59524   -107.03215    0.5651469   -106.46701    17947.205     4.249769     4.249769     4.249769    17947.205    31876.456     28526.41   -6561.2512    995.27408    7184.8744    4255.3001     76.75311 
    2300    444.61651   -106.87325   0.40229836   -106.47096    -7708.324    4.2670047    4.2670047    4.2670047    -7708.324    15719.192    5446.0418   -44290.206    -5870.992   -9988.5269    -12369.66    77.690762 
    2400    812.58025   -107.20277   0.73523969   -106.46753   -15177.799    4.2603966    4.2603966    4.2603966   -15177.799   -4525.7612   -3721.8896   -37285.747   -3568.7852    3921.1175    3493.1125    77.330369 
    2500    1154.8738   -107.51299     1.044954   -106.46804    5765.2481    4.2527516    4.2527516    4.2527516    5765.2481    7244.0515    10986.561   -934.86815   -5867.0547   -480.77577     7597.487    76.914822 
    2600    1107.9963   -107.47399    1.0025383   -106.47146    -1887.688    4.2683427    4.2683427    4.2683427    -1887.688    17954.916   -7634.7167   -15983.263   -95.244838   -5668.0323   -9054.7367    77.763866 
    2700    950.05731   -107.32904   0.85963182   -106.46941    -3200.828     4.260052     4.260052     4.260052    -3200.828    19797.154    -2801.182   -26598.456   -6616.5296   -4331.4635    3049.6766    77.311606 
    2800    660.84786   -107.06492   0.59794903   -106.46697     17042.78    4.2510475    4.2510475    4.2510475     17042.78    62047.206    13301.165    -24220.03   -873.47395    -426.3204   -2055.1109      76.8224 
    2900    616.01537   -107.03031   0.55738365   -106.47292   -13442.935    4.2659598    4.2659598    4.2659598   -13442.935   -175.88628    1936.0497   -42088.968    644.34596   -9202.8801   -6114.1469      77.6337 
    3000     688.2479    -107.0935   0.62274116   -106.47076    1664.1287    4.2587384    4.2587384    4.2587384    1664.1287    32267.842    1962.3721   -29237.828    1554.1006   -3814.9846    2305.9908    77.240111 
    3100    1121.9792    -107.4878    1.0151903   -106.47261   -135.86546    4.2578294    4.2578294    4.2578294   -135.86546    10818.148    4254.4996   -15480.244    6825.0365    12524.118   -4143.3176    77.190665 
    3200    1027.0465   -107.40553   0.92929327   -106.47624    -5494.686    4.2621075    4.2621075    4.2621075    -5494.686   -4176.0325    697.88198   -13005.907    4971.5496   -11560.239    -7397.447    77.423571 
    3300    955.45815   -107.33894   0.86451862   -106.47442    1057.7163    4.2531294    4.2531294    4.2531294    1057.7163    17705.701   -2741.2762   -11791.276   -9955.5167    368.02577    1241.0022    76.935323 
    3400    750.86374   -107.15445   0.67939729   -106.47505   -12915.938    4.2568604    4.2568604    4.2568604   -12915.938     13546.36   -1563.9133   -50730.261    5488.9951   -2007.1711   -2106.0869    77.137975 
    3500    463.09787   -106.89149   0.41902069   -106.47247    -2545.765    4.2606024    4.2606024    4.2606024    -2545.765    41632.862    820.83405    -50090.99    22.343323   -4333.8921   -1576.7887    77.341578 
    3600    882.32416   -107.26577   0.79834544   -106.46743      1896.35     4.261292     4.261292     4.261292      1896.35    28930.307   -11673.733   -11567.523   -10267.214    3989.1404   -2799.2351    77.379138 
    3700    1074.4163   -107.43834   0.97215445   -106.46618    11672.308    4.2532588    4.2532588    4.2532588    11672.308    31840.318   -4514.4607    7691.0678    4784.7091    6711.9292   -4358.8805    76.942344 
    3800    1137.8153   -107.49885    1.0295192   -106.46933    8165.0713    4.2551446    4.2551446    4.2551446    8165.0713    20387.047   -1105.3745    5213.5415   -330.65961   -12060.911    2807.1063    77.044738 
    3900    1162.4095   -107.52026    1.0517726   -106.46849   -9871.9288    4.2680191    4.2680191    4.2680191   -9871.9288   -11269.728   -9411.3525   -8934.7054   -1768.2389   -3573.3071    782.53084     77.74618 
    4000    526.57369   -106.94848   0.47645494   -106.47202    18176.053    4.2508277    4.2508277    4.2508277    18176.053    80865.878   -861.66571   -25476.054   -1735.7659   -1661.3585   -4478.6026    76.810485 
    4100    490.96949   -106.92924   0.44423951     -106.485   -13494.675    4.2535139    4.2535139    4.2535139   -13494.675    3860.6488    12450.647   -56795.321   -326.04802   -4174.8646    339.14718    76.956189 
    4200    777.36623   -107.18488    0.7033773    -106.4815   -13469.955    4.2600051    4.2600051    4.2600051   -13469.955    14838.088   -17707.611   -37540.342    10014.179   -8489.1362    1166.9253    77.309056 
    4300    949.43816   -107.33529    0.8590716   -106.47622    7664.1832    4.2541629    4.2541629    4.2541629    7664.1832    19785.102   -10358.391    13565.839     3551.723    11659.948    -9389.168    76.991424 
    4400    1266.6064   -107.62012    1.1460521   -106.47406   -8084.1614    4.2579988    4.2579988    4.2579988   -8084.1614   -2731.8212   -12615.514   -8905.1496   -1599.8418    -5301.605   -872.90536    77.199874 
    4500    1112.5591   -107.47959    1.0066668   -106.47292     17444.75    4.2557574    4.2557574    4.2557574     17444.75     39736.65   -598.11276    13195.711    5524.5454   -3329.6792   -3643.1032    77.078028 
    4600    876.76836   -107.26661   0.79331844   -106.47329   -6291.9064    4.2601012    4.2601012    4.2601012   -6291.9064    6794.2738   -3810.4314   -21859.561   -4770.3199    2320.9227   -6363.3993    77.314284 
    4700    529.78527   -106.94815   0.47936085   -106.46879   -11708.085     4.256243     4.256243     4.256243   -11708.085    3236.0494    12403.636    -50763.94    5195.7508   -4753.9589    4245.4398    77.104417 
    4800    616.30118   -107.02638   0.55764226   -106.46874   -2829.9933    4.2541964    4.2541964    4.2541964   -2829.9933    41243.352    2878.5616   -52611.893    5973.1337     1635.305   -5503.0762    76.993242 
    4900    923.85367    -107.3051   0.83592221   -106.46917    2174.6334    4.2612255    4.2612255    4.2612255    2174.6334    21523.985   -9286.9329   -5713.1517   -3536.6743   -1127.7026   -7920.8068    77.375514 
    5000    1255.0135   -107.60365    1.1355625   -106.46809    6520.2813    4.2565959    4.2565959    4.2565959    6520.2813    18308.061   -10944.459    12197.243    830.91843   -9939.5691    3524.2341    77.123598 
    5100    1292.8911   -107.63856    1.1698351   -106.46873    8025.5525    4.2533503    4.2533503    4.2533503    8025.5525    33244.069   -11291.571    2124.1595   -256.25139    7503.6637   -5888.5093    76.947312 
    5200    799.67562   -107.19519   0.72356331   -106.47162    12499.297    4.2593355    4.2593355    4.2593355    12499.297    34848.308   -932.15859    3581.7398   -5939.4708   -1912.9318   -1903.7941    77.272607 
    5300    746.46712   -107.14843   0.67541913   -106.47301   -19490.812    4.2594985    4.2594985    4.2594985   -19490.812   -7176.3137    2566.4577    -53862.58   -1284.3971   -11256.717   -977.74336    77.281476 
    5400    438.48202   -106.86951   0.39674774   -106.47276    12328.697    4.2483097    4.2483097    4.2483097    12328.697    73965.877    9386.5599   -46366.344    2105.0896    6312.2913   -7351.6016    76.674068 
    5500    1036.2641   -107.41218   0.93763352   -106.47455   -12736.418    4.2616199    4.2616199    4.2616199   -12736.418   -7581.5411    -7037.437   -23590.276   -2325.8636   -17177.362    2703.0844       77.397 
    5600    1061.5968   -107.42821   0.96055509   -106.46765   -5428.6143    4.2656203    4.2656203    4.2656203   -5428.6143    9297.8363    -21693.94   -3889.7392    4998.2317   -6854.6012   -3813.4741    77.615165 
    5700    1358.6099   -107.68974    1.2292988   -106.46044    9164.1803    4.2432212    4.2432212    4.2432212    9164.1803    24609.441    -5100.411    7983.5111    3824.1221     12603.58   -10341.963    76.398884 
    5800    1039.7972   -107.41222   0.94083035   -106.47139    4204.4169    4.2551455    4.2551455    4.2551455    4204.4169    19935.281   -3944.2073   -3377.8229    3414.0024   -1692.6097   -1085.7513    77.044783 
    5900    585.80899   -107.00142   0.53005229   -106.47136   -12068.738    4.2649143    4.2649143    4.2649143   -12068.738    8343.4429    -175.9493   -44373.706    1821.6816   -2976.4695   -5705.5773    77.576632 
    6000    584.35483   -106.99419   0.52873653   -106.46545    3457.9151    4.2468867    4.2468867    4.2468867    3457.9151    49355.393    11420.873   -50402.521    1138.8173    6467.2516   -4010.0363    76.597046 
    6100    728.69907   -107.12938   0.65934223   -106.47004   -7205.2646    4.2542829    4.2542829    4.2542829   -7205.2646    3258.3835    13435.493   -38309.671    2499.9884   -590.78996   -3286.2371    76.997938 
    6200    968.21148   -107.34687   0.87605809   -106.47082   -19250.269    4.2626083    4.2626083    4.2626083   -19250.269   -15980.075   -13778.178   -27992.556   -1928.2066   -10311.433   -14566.271    77.450866 
    6300    1229.2723   -107.58076    1.1122714   -106.46849    11461.606    4.2482328    4.2482328    4.2482328    11461.606    18453.755    -2838.845     18769.91   -1055.5827   -167.64953   -6421.0056    76.669906 
    6400    1319.0828   -107.66152    1.1935338   -106.46799    3682.8379    4.2534825    4.2534825    4.2534825    3682.8379    21601.714   -6144.6938   -4408.5067   -11075.116   -4951.6532    5970.5551    76.954489 
    6500     771.5037   -107.17067   0.69807276    -106.4726   -3074.9484    4.2615652    4.2615652    4.2615652   -3074.9484    25336.489   -13834.488   -20726.846    2294.1582    6817.9745   -7959.1795     77.39402 
    6600    673.14931    -107.0767   0.60907964   -106.46763    5110.3717    4.2513974    4.2513974    4.2513974    5110.3717    39085.049    6293.1645   -30047.098    -3692.566     382.6487   -8027.3648    76.841369 
    6700    647.51126   -107.05421    0.5858818   -106.46833   -15420.905    4.2551527    4.2551527    4.2551527   -15420.905    5397.7106      2891.11   -54551.535   -2462.6035   -5422.9231    4788.3226    77.045175 
    6800    689.74722   -107.09669   0.62409778   -106.47259    -16671.73    4.2582939    4.2582939    4.2582939    -16671.73     311.7479   -9420.0049   -40906.934    5824.6208    6063.8442   -10061.547    77.215927 
    6900    1056.5355   -107.42576   0.95597552   -106.46978    10479.236    4.2526726    4.2526726    4.2526726    10479.236    34031.674   -12488.182    9894.2171   -8126.2233   -3867.7403    3139.3272    76.910539 
    7000    1272.2803   -107.62053    1.1511859   -106.46935    -3197.316    4.2532744    4.2532744    4.2532744    -3197.316      -4627.6   -11884.223    6919.8749    8224.4891   -13498.877    4197.2203    76.943191 
    7100    882.01147   -107.27261   0.79806252   -106.47455    2672.8977    4.2559739    4.2559739    4.2559739    2672.8977    46155.251   -20412.663   -17723.894    2378.6418    8929.1455   -18686.177     77.08979 
    7200    992.57084    -107.3666   0.89809895    -106.4685   -2685.2063     4.258934     4.258934     4.258934   -2685.2063    19452.942   -12954.294   -14554.267   -5376.8894     11044.27    2110.7092    77.250757 
    7300    688.24008   -107.09162   0.62273409   -106.46889    -5355.669     4.253379     4.253379     4.253379    -5355.669    34781.228   -6083.2161   -44765.018   -1168.2814   -6717.3486   -513.98157    76.948868 
    7400    566.58317   -106.98507   0.51265636   -106.47241   -6351.7142     4.251635     4.251635     4.251635   -6351.7142    38102.286   -7228.1639   -49929.264    167.43367    9429.3586   -15895.742    76.854256 
    7500    1083.7432   -107.45132   0.98059365   -106.47072   -5749.1802     4.254814     4.254814     4.254814   -5749.1802    336.60495   -5454.6732   -12129.472   -4048.3367    4537.4453    4185.3398    77.026779 
    7600    1069.4858   -107.44161   0.96769322   -106.47392   -6110.2284    4.2583032    4.2583032    4.2583032   -6110.2284   -1556.1541   -23411.514    6636.9827    9023.5453   -11448.575   -12185.271    77.216435 
    7700    1093.2221   -107.46173    0.9891703   -106.47256   -3830.9688    4.2537399    4.2537399    4.2537399   -3830.9688    9038.3414   -10991.416   -9539.8313   -7841.4186    -12230.85   -9801.2647    76.968461 
    7800    874.66003    -107.2624   0.79141077   -106.47099    12331.215    4.2526662    4.2526662    4.2526662    12331.215    52310.319   -6119.9322   -9196.7418    1614.5819    9563.1017    13043.921    76.910191 
    7900    742.18022   -107.14174   0.67154026    -106.4702   -3770.3247    4.2568438    4.2568438    4.2568438   -3770.3247    28743.466   -15115.806   -24938.634    9458.3508    -845.0288   -11157.947    77.137072 
    8000    730.37984   -107.13048   0.66086303   -106.46962   -11293.412    4.2566223    4.2566223    4.2566223   -11293.412     34439.96    -16854.81   -51465.385   -2852.9683     6539.111   -4664.2775    77.125031 
    8100    814.48099   -107.20854   0.73695951   -106.47158   -4213.4097    4.2530905    4.2530905    4.2530905   -4213.4097    19940.828    -8242.095   -24338.962    3478.0483    4171.5975    8134.3854    76.933214 
    8200    1224.5347   -107.58038    1.1079848   -106.47239   -2150.6415    4.2511468    4.2511468    4.2511468   -2150.6415    10777.813   -14143.175   -3086.5628   -3362.9251    7031.0453   -7702.8717    76.827783 
    8300    995.48201   -107.37423   0.90073304    -106.4735    11293.611    4.2571542    4.2571542    4.2571542    11293.611    45729.399   -14898.991    3050.4244   -3309.5732   -6218.7336    5732.3685    77.153949 
    8400    1006.0566   -107.38176   0.91030111   -106.47146    -8281.432    4.2575198    4.2575198    4.2575198    -8281.432    13007.588   -11540.536   -26311.349    488.61805    -4787.904    3367.4368    77.173825 
    8500     623.3263    -107.0355   0.56399873    -106.4715     6764.802    4.2554722    4.2554722    4.2554722     6764.802    41038.404   -694.54589   -20049.452    3134.6539    1277.6026   -12958.078    77.062533 
    8600    768.54853   -107.16407   0.69539886   -106.46867     859.7278    4.2517078    4.2517078    4.2517078     859.7278    27357.138   -4653.3619   -20124.593   -7031.6271    -3641.712    5956.1186    76.858202 
    8700    762.20819   -107.16102   0.68966199   -106.47136   -7487.5337    4.2529874    4.2529874    4.2529874   -7487.5337    40758.395   -21426.099   -41794.898    6062.5138    3980.6286    1853.2533    76.927618 
    8800    1037.7785   -107.41476   0.93900381   -106.47576      1231.98    4.2576496    4.2576496    4.2576496      1231.98    35219.541   -18802.477   -12721.125   -3273.6872    -331.0924   -7836.6225    77.180882 
    8900    1311.9429   -107.65941    1.1870735   -106.47234   -4693.5418    4.2597136    4.2597136    4.2597136   -4693.5418    348.06165   -13870.056   -558.63147    4656.9522    5602.2257    3914.5488    77.293186 
    9000    960.56294   -107.34258   0.86913754   -106.47345    -796.9888     4.254329     4.254329     4.254329    -796.9888    13156.314   -10391.332   -5155.9482    2733.0248   -7349.6101   -9353.3588    77.000444 
    9100    966.64492   -107.34559   0.87464063   -106.47095    1770.0274    4.2530766    4.2530766    4.2530766    1770.0274    23519.247   -4048.5646   -14160.601   -8811.2477    4097.7827   -5843.8747     76.93246 
    9200    459.38611   -106.88875   0.41566221   -106.47308    8712.5464    4.2604315    4.2604315    4.2604315    8712.5464    25004.732    10946.413    -9813.506   -5781.1654    5586.3857    7040.7103    77.332272 
    9300    683.74992   -107.08931    0.6186713   -106.47064   -18977.695      4.25588      4.25588      4.25588   -18977.695    3558.4433   -12714.182   -47777.346    2442.6113   -1254.7606   -6077.0941    77.084687 
    9400    749.45964   -107.14795   0.67812683   -106.46982    800.78692      4.25102      4.25102      4.25102    800.78692     35801.36   -24956.246    -8442.754    1758.7281   -3132.0517   -4496.2152     76.82091 
    9500    1093.5315   -107.46104   0.98945027   -106.47159   -16365.753    4.2623588    4.2623588    4.2623588   -16365.753   -7787.5246   -27848.337   -13461.399   -4048.2895    13138.194    1793.4793    77.437267 
    9600     1117.171   -107.48028    1.0108398   -106.46944   -2879.2089    4.2586085    4.2586085    4.2586085   -2879.2089    6726.7865   -16930.693    1566.2802    3524.5186    10378.082   -7095.8454    77.233045 
    9700    1158.0502   -107.51346    1.0478281   -106.46564    11310.569    4.2498328    4.2498328    4.2498328    11310.569    36890.775   -2034.2063    -924.8625    7422.4008   -8253.8501    6491.3198    76.756564 
    9800    841.73822   -107.23285   0.76162243   -106.47122   -9134.7833    4.2609052    4.2609052    4.2609052   -9134.7833    6519.6711   -6736.7864   -27187.235    1255.3354   -4019.8576    4942.1824    77.358069 
    9900    408.59462   -106.84054     0.369705   -106.47083    4574.5697    4.2579703    4.2579703    4.2579703    4574.5697    37948.823    6127.2461    -30352.36   -1259.7976    1527.7655   -7631.8685    77.198327 
   10000    848.30876   -107.23606   0.76756759   -106.46849   -3950.7615    4.2502039    4.2502039    4.2502039   -3950.7615    29369.784   -11094.461   -30127.608    6634.0821   -2441.7973    5755.4154    76.776676 
   10100     807.6139   -107.20482   0.73074603   -106.47407   -6466.8395    4.2656418    4.2656418    4.2656418   -6466.8395    47664.267   -42380.204   -24684.582   -1393.7625   -1109.3166    2194.6191    77.616337 
   10200    1292.6208   -107.63518    1.1695904   -106.46559    -18026.65    4.2654204    4.2654204    4.2654204    -18026.65    825.20937   -45032.764   -9872.3972    3312.8059    16666.861   -1892.7532    77.604256 
   10300    1275.5503   -107.61354    1.1541447    -106.4594     13143.27    4.2469067    4.2469067    4.2469067     13143.27    35795.057   -5262.0642     8896.817    10473.473    7317.7766    11275.954    76.598129 
   10400    963.16902   -107.34038   0.87149557   -106.46888    -6444.539    4.2627397    4.2627397    4.2627397    -6444.539    25028.724   -9450.8234   -34911.517    -2433.035    2935.4677    108.85694    77.458027 
   10500    749.52731   -107.14492   0.67818806   -106.46673   -20486.332    4.2679638    4.2679638    4.2679638   -20486.332   -11133.052   -16603.145     -33722.8    2707.0497    7752.2311    -3055.045     77.74316 
   10600    622.35221   -107.02517   0.56311736   -106.46205    20313.688     4.245185     4.245185     4.245185    20313.688    76292.531    2037.0063   -17388.474     3073.002   -493.99569    8227.0741    76.505006 
   10700    877.23328   -107.26735   0.79373911   -106.47361   -8596.4992    4.2594196    4.2594196    4.2594196   -8596.4992    18222.492   -20500.161   -23511.828    798.24706   -10488.875    1698.6817    77.277182 
   10800    1058.1941   -107.42393   0.95747628   -106.46646   -19641.488    4.2732246    4.2732246    4.2732246   -19641.488    5741.0997   -45068.585   -19596.979    1825.8978   -7597.0171    2209.9736    78.030997 
   10900    1232.4439   -107.57394    1.1151412    -106.4588    17339.127    4.2502504    4.2502504    4.2502504    17339.127    38512.209   -12796.648    26301.819    3929.4828   -1251.5782    5715.0896    76.779194 
   11000    1203.8714    -107.5553    1.0892881   -106.46601    82.134508    4.2526514    4.2526514    4.2526514    82.134508    1691.9441   -2551.3669    1105.8264    -7353.506    9150.9545    276.38998    76.909389 
   11100    529.92965   -106.95293   0.47949148   -106.47344    3284.7281    4.2681901    4.2681901    4.2681901    3284.7281    29702.784     -16463.6   -3384.9993   -3506.1672    8531.6985    5322.8608    77.755526 
   11200    704.32466   -107.10207   0.63728775   -106.46478   -12276.187    4.2653934    4.2653934    4.2653934   -12276.187    8566.8182   -23698.053   -21697.327   -241.83393     1915.271    6649.2968    77.602778 
   11300    508.00695   -106.92288   0.45965536   -106.46323     6965.572    4.2505551    4.2505551    4.2505551     6965.572    53286.275   -20647.403   -11742.156   -6118.6784    16117.352   -4593.2323    76.795709 
   11400    978.31674   -107.35795   0.88520154   -106.47275     5658.362    4.2527214    4.2527214    4.2527214     5658.362    11911.653   -5756.5112    10819.945    -4.127443    1691.1228    6064.5643    76.913184 
   11500    1301.5322    -107.6477    1.1776537   -106.47005   -15290.806    4.2740495    4.2740495    4.2740495   -15290.806   -11215.449   -39921.574    5264.6046   -2747.2411   -12409.584    5665.8357    78.076193 
   11600    1047.2025   -107.41726   0.94753086   -106.46973    4547.3829    4.2537762    4.2537762    4.2537762    4547.3829    21652.603   -17311.162    9300.7074   -3559.4712    12844.693   -2060.3984    76.970432 
   11700     992.1019   -107.36447   0.89767465   -106.46679    18405.282    4.2410268    4.2410268    4.2410268    18405.282    18936.965    20457.386    15821.495    2481.2782    9155.8067    3769.6191    76.280418 
   11800    580.33208   -106.99538   0.52509666   -106.47029   -22569.547    4.2757792    4.2757792    4.2757792   -22569.547    15933.349   -39257.298   -44384.692    -3938.112   -10468.058   -2463.8297    78.171027 
   11900    534.68835   -106.95361   0.48379725   -106.46981   -16367.663    4.2573007    4.2573007    4.2573007   -16367.663     18219.73   -21669.303   -45653.414   -3444.2728    9906.4696    -2895.102     77.16191 
   12000    872.83376   -107.25162   0.78975833   -106.46187     6404.375    4.2365355    4.2365355    4.2365355     6404.375    31749.811   -5152.6455   -7384.0405    3730.5119    11582.121    7353.7679    76.038324 
   12100     1044.823    -107.4158   0.94537782   -106.47042   -11509.276    4.2672618    4.2672618    4.2672618   -11509.276   -3824.9699   -24463.896   -6238.9603    1276.5797   -10092.531   -4095.5442    77.704804 
   12200    1366.3999   -107.70379    1.2363473   -106.46744   -7485.4034    4.2606023    4.2606023    4.2606023   -7485.4034   -8014.9937   -1508.6309   -12932.585    2786.6575   -1370.3675    1935.0558    77.341574 
   12300    1133.9209   -107.49032    1.0259955   -106.46432    19310.094    4.2470296    4.2470296    4.2470296    19310.094    44601.032    1563.5995    11765.651    6928.0574    2469.5027    9275.1347    76.604781 
   12400    788.83866   -107.18373    0.7137578   -106.46997   -2553.8911    4.2603865    4.2603865    4.2603865   -2553.8911    4622.0089     5692.418     -17976.1   -196.86822   -7152.3347   -8190.0108    77.329819 
   12500    643.64898   -107.04877   0.58238712   -106.46639   -11160.531    4.2564893    4.2564893    4.2564893   -11160.531    11085.503   -9755.6934   -34811.401    3385.4745     2488.605    2456.1712    77.117803 
   12600    508.17096   -106.92881   0.45980376   -106.46901   -12918.469    4.2559409    4.2559409    4.2559409   -12918.469    8910.0693   -23577.322   -24088.154   -1007.3855   -1787.3653    2098.3085       77.088 
   12700    631.48091   -107.04186    0.5713772   -106.47048    -5809.547    4.2558295    4.2558295    4.2558295    -5809.547    2626.3434   -31206.342    11151.358    2377.1852   -8517.2407   -10320.753    77.081942 
   12800    1117.4612   -107.48109    1.0111024   -106.46999    8888.7704     4.251633     4.251633     4.251633    8888.7704    17336.697    -8612.369    17941.983   -3052.6762     9466.782      6786.94    76.854148 
   12900    1198.5416   -107.55633    1.0844656   -106.47187     844.4645    4.2606777    4.2606777    4.2606777     844.4645    3490.8935   -4387.7058    3430.2057   -254.42252     -4998.84   -8744.6856    77.345676 
   13000    1219.6919   -107.57229    1.1036028   -106.46868    -6782.404    4.2550741    4.2550741    4.2550741    -6782.404   -3665.0716   -11278.817   -5403.3238    5418.2896   -16276.268   -12812.169    77.040904 
   13100     961.7671    -107.3361   0.87022708   -106.46588    5302.3751    4.2525059    4.2525059    4.2525059    5302.3751     30695.09    11290.469   -26078.434    458.78245    11077.694    9016.6973    76.901493 
   13200    611.32436    -107.0217   0.55313913   -106.46856   -20813.372     4.262869     4.262869     4.262869   -20813.372   -3550.8628   -16638.349   -42250.904   -492.43773    568.20444   -10859.877    77.465075 
   13300    474.77488   -106.89792   0.42958629   -106.46833   -718.52805    4.2501999    4.2501999    4.2501999   -718.52805    19870.924     -29507.1    7480.5922    136.09324   -17054.762   -13343.345    76.776457 
   13400    716.43638    -107.1188   0.64824669   -106.47056    3012.8144    4.2533982    4.2533982    4.2533982    3012.8144    15092.847   -29648.446    23594.042    386.20472   -679.65198    7969.1075    76.949913 
   13500     963.1581   -107.34345   0.87148569   -106.47196   -7027.9108    4.2619104    4.2619104    4.2619104   -7027.9108   -13062.334   -29698.504    21677.106   -1274.2294   -1309.7438   -7687.2088    77.412833 
   13600    1221.1002   -107.57531    1.1048771   -106.47044    5917.8873    4.2535001    4.2535001    4.2535001    5917.8873   -5023.9305    4634.9399    18142.652    1506.9929   -6714.9206   -4784.7675    76.955441 
   13700    1198.8741   -107.55303    1.0847664   -106.46827    2881.1562    4.2589813    4.2589813    4.2589813    2881.1562    16610.467   -14304.059    6337.0606   -3315.6145    -1136.111    8494.3584    77.253328 
   13800     1008.365   -107.38075   0.91238983   -106.46836   -7816.0653    4.2548363    4.2548363    4.2548363   -7816.0653    11905.936   -4399.1741   -30954.958   -391.21285    3514.3187   -11640.775    77.027988 
   13900    594.48572   -107.00879   0.53790318   -106.47089    11945.451    4.2519424    4.2519424    4.2519424    11945.451    23042.739    4709.2331    8084.3798    538.73963   -1889.5519   -3803.0722    76.870927 
   14000    610.64865   -107.02087   0.55252773   -106.46835   -17284.898    4.2679359    4.2679359    4.2679359   -17284.898   -2956.3558   -44808.766   -4089.5706   -5282.4444    3706.5194    5393.3581    77.741635 
   14100    831.17793    -107.2174   0.75206726   -106.46533   -10853.377    4.2503619    4.2503619    4.2503619   -10853.377   -4297.0432   -23715.883    -4547.205    516.49803    242.56862   -14955.082    76.785236 
   14200    977.27231   -107.35927   0.88425653   -106.47502    12254.747    4.2484279    4.2484279    4.2484279    12254.747    13319.388   -11816.608    35261.462   -2833.2223   -11357.346   -4453.4878    76.680466 
   14300    1210.4268   -107.56635    1.0952196   -106.47113   -9920.5596    4.2712875    4.2712875    4.2712875   -9920.5596   -22489.807   -16058.036     8786.165   -5935.9301   -476.40177      2920.76    77.924928 
   14400    1273.8815   -107.61808    1.1526347   -106.46544    3923.7321    4.2492686    4.2492686    4.2492686    3923.7321    622.31423    2271.1442     8877.738   -1912.5858   -2189.6353   -4084.7825    76.725999 
   14500    838.22534    -107.2288    0.7584439   -106.47035     19638.46    4.2493008    4.2493008    4.2493008     19638.46     33330.21    4345.5585    21239.612    2794.2221   -9050.9833    2436.3296    76.727743 
   14600    767.86118    -107.1627   0.69477694   -106.46792   -27995.719    4.2700461    4.2700461    4.2700461   -27995.719   -11212.156   -25543.338   -47231.663   -651.50298   -7082.7509    2474.7788    77.857006 
   14700     654.7882   -107.05826   0.59246612   -106.46579     6403.852    4.2451734    4.2451734    4.2451734     6403.852    25208.078   -9132.0549    3135.5324   -1458.8651    4929.3639   -7107.6381     76.50438 
   14800    653.65306   -107.06643   0.59143903   -106.47499    5288.7062    4.2545428    4.2545428    4.2545428    5288.7062     23752.28   -22067.141     14180.98   -87.721993   -2701.1123    3180.5308     77.01205 
   14900    1090.8639   -107.45423   0.98703655   -106.46719   -13913.475    4.2686545    4.2686545    4.2686545   -13913.475   -25637.495   -36034.523    19931.592    1052.1102   -4579.4215    3501.2264    77.780909 
   15000     1217.139   -107.56606    1.1012929   -106.46477    26703.384    4.2433446    4.2433446    4.2433446    26703.384    10145.759    3379.1268    66585.265    861.22885    756.83012   -16330.355    76.405548 
   15100    1227.0411   -107.58681    1.1102526   -106.47655    6384.5926    4.2513941    4.2513941    4.2513941    6384.5926    12356.121   -4401.4539     11199.11   -1092.3179   -8262.2527   -4817.5583    76.841192 
   15200    939.28274   -107.32271   0.84988276   -106.47283   -15877.266    4.2688757    4.2688757    4.2688757   -15877.266   -9171.0883   -28303.092   -10157.619    2417.9137    -5048.911    677.52136    77.793003 
   15300    852.44126   -107.23607   0.77130676   -106.46476    921.95391    4.2515942    4.2515942    4.2515942    921.95391    20373.328   -5982.4955   -11624.971    1008.1386    3475.3904   -6235.3895    76.852042 
   15400    560.33874   -106.97563   0.50700626   -106.46862    1713.0164    4.2526898    4.2526898    4.2526898    1713.0164    11466.611   -16183.594    9856.0326    5109.1513     -6122.46   -1116.1647     76.91147 
   15500    616.82472    -107.0275   0.55811597   -106.46938   -9379.3199    4.2637877    4.2637877    4.2637877   -9379.3199   -33061.341   -31990.913    36914.295    3262.3194    -10371.86     324.5709    77.515173 
   15600    1111.9684   -107.47222    1.0061323   -106.46609   -214.80991    4.2544932    4.2544932    4.2544932   -214.80991   -6504.5656   -16156.127    22016.263     62.60834    6913.0786   -1243.4032     77.00936 
   15700    1230.8384    -107.5834    1.1136885   -106.46971    4619.4121    4.2547413    4.2547413    4.2547413    4619.4121    -10231.37   -1604.7183    25694.325    7893.5701    1277.4184    3496.6434    77.022828 
   15800    1242.4899   -107.59341     1.124231   -106.46918   -19222.639    4.2659103    4.2659103    4.2659103   -19222.639   -25587.883   -24050.424   -8029.6089    3233.5678   -9151.8153    4115.1531    77.630999 
   15900    1209.3196   -107.56072    1.0942178    -106.4665   -5759.4343    4.2534716    4.2534716    4.2534716   -5759.4343    11991.922   -17149.114    -12121.11    661.58077     5258.998   -3034.5691    76.953895 
   16000     770.2312   -107.17001   0.69692138   -106.47309    7149.6504     4.252355     4.252355     4.252355    7149.6504   -2004.2522    1985.6267    21467.577    6948.1806    10214.771    5813.7226    76.893307 
   16100    599.38691   -107.01404   0.54233787   -106.47171   -34881.877    4.2727208    4.2727208    4.2727208   -34881.877    -34683.03   -42589.385   -27373.215    282.58675   -6417.6277    2386.0723      78.0034 
   16200    698.57974    -107.0975   0.63208963   -106.46541   -6214.8783    4.2538459    4.2538459    4.2538459   -6214.8783   -8251.5065    -16498.32    6105.1915    3432.6407   -792.54686    1902.8944    76.974213 
   16300    947.69759    -107.3249    0.8574967    -106.4674    7578.8761    4.2469774    4.2469774    4.2469774    7578.8761    -20342.31    3548.3181    39530.621    3634.8601    3633.1916    750.99569    76.601954 
   16400    1119.7334   -107.48314    1.0131583   -106.46999   -15507.774    4.2708338    4.2708338    4.2708338   -15507.774   -28197.385    -16297.36   -2028.5777    -320.8697   -10957.517    -8281.933    77.900097 
   16500    1393.5238    -107.7242    1.2608896   -106.46331   -1675.6584    4.2550683    4.2550683    4.2550683   -1675.6584    8137.7408   -13699.296    534.58027    9010.3355   -4329.6046   -914.09549    77.040589 
   16600     1013.516    -107.3825    0.9170506   -106.46545    14424.299    4.2476123    4.2476123    4.2476123    14424.299    8700.4725    12469.688    22102.735   -324.70872    -4906.721    2425.8547    76.636316 
   16700    660.39756   -107.06548   0.59754159   -106.46794   -16504.029    4.2668385    4.2668385    4.2668385   -16504.029   -12187.049   -11121.549   -26203.489    360.00581   -6394.6836   -1500.3798     77.68168 
   16800    593.87322   -107.00335   0.53734897     -106.466   -5472.7907    4.2534593    4.2534593    4.2534593   -5472.7907    8262.1011   -15757.489   -8922.9839    7969.3351    13082.122   -1058.9864    76.953228 
   16900     424.8522   -106.85496    0.3844152   -106.47055    15899.405    4.2511475    4.2511475    4.2511475    15899.405   -1658.8105    571.83268    48785.193   -4093.1952    3997.9853    1753.1393    76.827821 
   17000    1111.4489   -107.47358    1.0056623   -106.46792   -15250.409    4.2644075    4.2644075    4.2644075   -15250.409   -20358.408   -24228.503   -1164.3147    2423.4209    -3821.849   -666.47261    77.548983 
   17100    1170.0692   -107.52593    1.0587032   -106.46722    14062.642    4.2541425    4.2541425    4.2541425    14062.642    10676.351    2716.7118    28794.865     2572.685    15068.441    9740.0323    76.990317 
   17200    1278.7292    -107.6243    1.1570211   -106.46728    589.91384      4.25438      4.25438      4.25438    589.91384    107.22892    1146.1013    516.41133   -2280.4317    483.19514   -1096.8392     77.00321 
   17300    1023.9386   -107.39495   0.92648117   -106.46847   -2662.5531    4.2564212    4.2564212    4.2564212   -2662.5531   -310.31812   -6269.2343   -1408.1068    6722.2071   -14025.444   -3028.3042      77.1141 
   17400    460.67383   -106.88884   0.41682736   -106.47202    17814.364    4.2540602    4.2540602    4.2540602    17814.364    7358.2567     19812.34    26272.495   -3066.5408     9860.547    3232.2932    76.985846 
   17500    571.93244   -106.98904   0.51749649   -106.47154   -12063.581    4.2608599    4.2608599    4.2608599   -12063.581   -25222.864   -17318.669    6350.7901   -1329.5393   -850.47156   -7441.4788    77.355599 
   17600    738.64913   -107.13654   0.66834526    -106.4682    9659.6283    4.2475413    4.2475413    4.2475413    9659.6283   -9955.3154    3910.3279    35023.873    1969.0226   -7142.2671    661.00612    76.632472 
   17700     1001.885   -107.38473   0.90652664    -106.4782   -2930.7368    4.2532746    4.2532746    4.2532746   -2930.7368    3366.9014   -3369.9346   -8789.1772   -4207.7518    14742.808   -1193.1933    76.943201 
   17800    1316.5309   -107.66049    1.1912248   -106.46926   -8849.9088    4.2668684    4.2668684    4.2668684   -8849.9088    -9076.661   -1497.7583   -15975.307    2239.5466    2034.1605   -2816.1363    77.683314 
   17900    1315.0714   -107.65432    1.1899042   -106.46442    15567.791    4.2469258    4.2469258    4.2469258    15567.791    9669.4139    1731.6349    35302.325   -4710.9944   -5564.5428    6161.9421    76.599162 
   18000    769.71899    -107.1698   0.69645792   -106.47334    18495.335    4.2489955    4.2489955    4.2489955    18495.335    4506.1447    15649.924    35329.937    174.43425    12789.547    1545.6665    76.711204 
   18100     582.1847   -106.99625   0.52677296   -106.46947   -3713.2484    4.2689878    4.2689878    4.2689878   -3713.2484   -21817.553    5463.0927    5214.7152    739.92288      4830.44    -3980.661    77.799131 
   18200    567.18083   -106.97943   0.51319714   -106.46623   -16703.197    4.2574965    4.2574965    4.2574965   -16703.197   -21666.481   -18700.329    -9742.781   -6442.7265    1840.2618    7830.5899    77.172559 
   18300    532.17039   -106.94762   0.48151895    -106.4661   -833.33732    4.2409858    4.2409858    4.2409858   -833.33732   -117.92093    12437.082   -14819.173    2354.9962     16708.85   -284.90476    76.278203 
   18400    1178.5194   -107.53818    1.0663491   -106.47184    3020.8423     4.255417     4.255417     4.255417    3020.8423   -6177.3054   -8573.8375     23813.67    -575.7377    190.32562   -2690.1391    77.059531 
   18500    1236.6208   -107.58879    1.1189205   -106.46987   -12065.982    4.2696525    4.2696525    4.2696525   -12065.982   -19603.936   -1226.6221   -15367.388    7342.8609    11588.612    1176.1612    77.835478 
   18600    1139.3302   -107.49925    1.0308899   -106.46836    1499.3841    4.2450783    4.2450783    4.2450783    1499.3841   -3517.4275    2296.5178     5719.062    726.10101    14297.055    14429.434    76.499237 
   18700    978.06418   -107.35531   0.88497302   -106.47034    21675.945    4.2417075    4.2417075    4.2417075    21675.945   -13144.598    33714.989    44457.445   -3968.7304   -12073.325    953.93534    76.317151 
   18800    618.99183    -107.0321   0.56007681   -106.47202   -28655.177    4.2709229    4.2709229    4.2709229   -28655.177   -46962.462   -17285.675   -21717.394    5767.5275    4562.5585   -5719.2193    77.904973 
   18900    530.58139   -106.94846    0.4800812   -106.46838   -18283.487    4.2543212    4.2543212    4.2543212   -18283.487   -21081.115   -18970.828   -14798.516   -4349.0412    8834.4553    7627.5471    77.000018 
   19000    680.29494   -107.07917   0.61554516   -106.46363    23498.125    4.2386242    4.2386242    4.2386242    23498.125    9296.7355   -3754.6498    64952.289    8919.0875   -7259.7087   -4980.2956    76.150847 
   19100    1118.5408   -107.48522    1.0120792   -106.47314   -13449.155    4.2621224    4.2621224    4.2621224   -13449.155   -11116.342   -9275.7663   -19955.358    4760.3893    597.53084   -1041.1435    77.424381 
   19200    1082.2725   -107.45129    0.9792629   -106.47203   -3950.5671    4.2673985    4.2673985    4.2673985   -3950.5671   -16107.074   -6392.7856    10648.159   -1806.8945    5454.9721    566.47165    77.712272 
   19300    1259.1953   -107.60836    1.1393464   -106.46901    8469.4562    4.2430804    4.2430804    4.2430804    8469.4562   -11547.159   -5323.5944    42279.122    13471.002   -5034.0345   -1254.3251    76.391278 
   19400    893.42813   -107.28202   0.80839255   -106.47363    21558.464    4.2420823    4.2420823    4.2420823    21558.464   -19951.818    33824.931     50802.28    -3053.683    10113.049    4337.8627    76.337383 
   19500    660.01069   -107.07117   0.59719154   -106.47398   -16169.782    4.2711572    4.2711572    4.2711572   -16169.782   -38056.834   -30681.143    20228.632    1223.7713    8850.0414    2003.7851    77.917798 
   19600    747.62673    -107.1465   0.67646838   -106.47003   -16153.623    4.2544662    4.2544662    4.2544662   -16153.623    -7939.385   -25297.535   -15223.948    11407.299   -1077.0389   -2097.4146     77.00789 
   19700    661.48486   -107.06298    0.5985254   -106.46445    21660.433    4.2329863    4.2329863    4.2329863    21660.433    12362.769    13495.786    39122.744   -5320.5936    3211.9179    3461.9648    75.847383 
   19800    907.61395   -107.29761   0.82122818   -106.47638    1428.4353    4.2608062    4.2608062    4.2608062    1428.4353    286.65247    1994.9003    2003.7531    470.14684     4983.895   -2290.0139    77.352678 
   19900    1144.9702   -107.50581    1.0359931   -106.46981   -5012.9362    4.2653118    4.2653118    4.2653118   -5012.9362   -15510.283   -16961.396     17432.87    3812.1144   -2302.4471   -3319.0473    77.598327 
   20000    1043.7397   -107.40852   0.94439765   -106.46412    18247.096    4.2432665    4.2432665    4.2432665    18247.096   -18595.077    23211.056    50125.308   -1388.5358    8837.1666    4853.4899    76.401333 
   20100    1158.6826   -107.51786    1.0484003   -106.46946   -122.76783    4.2452831    4.2452831    4.2452831   -122.76783   -19764.663    8151.2581    11245.102     4471.069    13551.825    4938.7324    76.510314 
   20200    768.09762   -107.16707   0.69499087   -106.47208   -4903.6887    4.2600853    4.2600853    4.2600853   -4903.6887   -21632.238   -23797.655    30718.826    6420.4978   -4325.3244   -2230.1758    77.313423 
   20300    795.51454   -107.18831   0.71979827   -106.46851   -13520.947    4.2617958    4.2617958    4.2617958   -13520.947   -14342.804   -13966.484   -12253.554    1062.0016    13014.883    -5034.322    77.406585 
   20400    711.42025    -107.1124     0.643708   -106.46869    8513.2453    4.2439826    4.2439826    4.2439826    8513.2453    8358.3557   -1700.7671    18882.147    4434.6519    3504.8469    7570.2441    76.440017 
   20500    639.46917   -107.05158   0.57860514   -106.47297    17077.042    4.2453274    4.2453274    4.2453274    17077.042    12526.363    21420.798    17283.965    8471.5157    3293.8788   -3355.8181    76.512709 
   20600    1071.2594   -107.44191   0.96929802   -106.47261   -27020.024    4.2699302    4.2699302    4.2699302   -27020.024   -27329.301   -15211.836   -38518.936   -3136.4897    10907.235   -7749.5038    77.850663 
   20700     919.5461   -107.30648   0.83202464   -106.47446     9837.112    4.2512979    4.2512979    4.2512979     9837.112   -21803.476    1371.5605    49943.252     7200.062    1087.2593    8521.7717    76.835975 
   20800    1299.4774    -107.6402    1.1757944   -106.46441    16581.494    4.2335353    4.2335353    4.2335353    16581.494    1817.8055     8979.048    38947.629    12064.105     517.3314    4833.6311    75.876894 
   20900    886.49294   -107.27701   0.80211744   -106.47489   -7408.3399    4.2676696    4.2676696    4.2676696   -7408.3399   -22802.967   -17628.639    18206.586   -6013.4298    11367.259   -2850.6781    77.727085 
   21000    857.95747   -107.24798   0.77629795   -106.47168   -19785.504    4.2587892    4.2587892    4.2587892   -19785.504   -8202.5969   -29415.107   -21738.809    12159.418   -2034.7247   -2448.0929    77.242874 
   21100    606.99493   -107.01707   0.54922177   -106.46785    20055.382    4.2362498    4.2362498    4.2362498    20055.382    26617.854    20502.557    13045.735    7767.1858   -1208.8632   -5292.6915    76.022945 
   21200    611.69108   -107.02985   0.55347094   -106.47638    2106.9772    4.2576774    4.2576774    4.2576774    2106.9772   -4904.3803    9144.6634    2080.6486   -4774.7348    12661.023   -2663.9098    77.182399 
   21300     839.6619   -107.23332   0.75974374   -106.47358   -8571.1458    4.2579536    4.2579536    4.2579536   -8571.1458   -17217.997   -17439.883    8944.4425    16951.081   -3243.1532   -6368.7037    77.197419 
   21400    1004.2201   -107.37883   0.90863945    -106.4702    11742.481    4.2466602    4.2466602    4.2466602    11742.481   -6391.3617    19354.385     22264.42   -1841.1973    52.492273    -1449.441    76.584794 
   21500    1403.3846   -107.74144    1.2698119   -106.47163   -7667.9198    4.2533673    4.2533673    4.2533673   -7667.9198   -17631.744   -13015.203    7643.1866   -805.68232    4946.5555    5510.6991    76.948236 
   21600    1028.3745   -107.40661   0.93049486   -106.47611    4907.4684    4.2551998    4.2551998    4.2551998    4907.4684   -13543.357   -1931.2663    30197.029    17064.611    1301.6875     4367.404    77.047733 
   21700    1101.9601   -107.46847   0.99707668   -106.47139   -3004.2689    4.2549047    4.2549047    4.2549047   -3004.2689   -3175.0006   -7549.2652    1711.4591   -7027.1547   -4171.1537     925.7258    77.031705 
   21800    560.50366   -106.97654   0.50715549   -106.46939     12404.14    4.2493236    4.2493236    4.2493236     12404.14      4820.78    23723.711    8667.9274    1767.0205    7374.0249   -8684.0295    76.728981 
   21900    559.09548   -106.97589   0.50588134   -106.47001   -13341.109    4.2502759    4.2502759    4.2502759   -13341.109   -7712.2146   -7370.4822   -24940.631    13658.141      3118.18    3843.1406    76.780577 
   22000    682.94771    -107.0886   0.61794544   -106.47065   -15591.712    4.2602043    4.2602043    4.2602043   -15591.712   -12143.642   -8197.9008   -26433.592   -4302.9104   -493.92206    702.16213    77.319902 
   22100    968.10432   -107.34595   0.87596113   -106.46998    4272.2997    4.2477294    4.2477294    4.2477294    4272.2997   -15136.477   -10556.438    38509.814    6389.4704    21.164365   -7787.8012    76.642653 
   22200    1203.8458   -107.56247     1.089265    -106.4732    6034.3183    4.2476769    4.2476769    4.2476769    6034.3183   -17437.057    5441.7688    30098.243    13211.436    4084.8559    5992.7902    76.639811 
   22300    1272.8851   -107.62346    1.1517332   -106.47173   -3952.7464    4.2591763    4.2591763    4.2591763   -3952.7464    -16348.38   -22645.422    27135.562   -3237.0372    659.69496    5539.4415    77.263942 
   22400    1075.2689   -107.44535   0.97292588   -106.47243   -5011.6643    4.2474382    4.2474382    4.2474382   -5011.6643   -9938.8014    3348.3906   -8444.5821     11078.56   -5341.0732   -7601.6225    76.626891 
   22500    652.49487   -107.06949   0.59039107    -106.4791   -2986.1771     4.250031     4.250031     4.250031   -2986.1771   -7651.7978   -2318.6806    1011.9473    12451.914   -1213.8754    11001.506    76.767307 
   22600    626.32907   -107.04076    0.5667157   -106.47405    777.89877    4.2546168    4.2546168    4.2546168    777.89877   -1946.0197   -4390.5688    8670.2848   -7629.7674   -934.32568    2992.1481    77.016067 
   22700     491.7135   -106.91799    0.4449127   -106.47308   -1925.3447    4.2519252    4.2519252    4.2519252   -1925.3447   -20175.044   -2666.7707    17065.781    12592.406    8943.1437   -6546.5854    76.869996 
   22800    987.73766   -107.36423    0.8937258   -106.47051   -14172.374    4.2538694    4.2538694    4.2538694   -14172.374   -19111.368   -14935.878   -8469.8769    9344.9281   -3174.7636    11719.725    76.975491 
   22900    1234.7439   -107.58707    1.1172222   -106.46985    14777.861    4.2483441    4.2483441    4.2483441    14777.861   -8970.6051    5620.3549    47683.832   -9425.5833     3749.944   -3217.0585    76.675929 
   23000    1238.6063   -107.59876     1.120717   -106.47804   -4040.8565    4.2544024    4.2544024    4.2544024   -4040.8565   -27655.593    -16232.22    31765.244    16715.098   -632.54078   -12797.026    77.004428 
   23100    1105.6469   -107.47427    1.0004125   -106.47386    2222.5921    4.2549697    4.2549697    4.2549697    2222.5921   -14642.786    -3902.339    25212.901   -468.03737   -4176.0863     2477.001    77.035237 
   23200    878.56828   -107.26522   0.79494704   -106.47028    11290.466    4.2453329    4.2453329    4.2453329    11290.466    243.73521    2821.0921     30806.57   -6290.8521    5271.2901    3237.1756    76.513003 
   23300    461.70609   -106.89394   0.41776138   -106.47618   -15697.518    4.2551718    4.2551718    4.2551718   -15697.518   -23814.383    1717.4157   -24995.586    22747.954   -608.97859   -1234.7533    77.046215 
   23400    522.79764   -106.94613   0.47303829   -106.47309   -7871.8348    4.2557781    4.2557781    4.2557781   -7871.8348    -18453.57   -8027.2687    2865.3345   -3883.2468   -7543.0807    881.64503     77.07915 
   23500    922.87646   -107.30597   0.83503802   -106.47093    5240.5045    4.2458484    4.2458484    4.2458484    5240.5045    -1085.991    13327.506    3479.9981     24.92943    7095.6267    3031.2563    76.540881 
   23600    808.50833   -107.20994   0.73155532   -106.47838   -3099.9463    4.2544693    4.2544693    4.2544693   -3099.9463   -33374.011   -11795.042    35869.215     23172.95    248.13342    2027.6851     77.00806 
   23700    1324.0851   -107.67094    1.1980601   -106.47288   -4243.5416    4.2541152    4.2541152    4.2541152   -4243.5416   -21409.044   -8975.1662    17653.585   -5857.2744   -13713.313   -6011.9595    76.988831 
   23800    1227.4301    -107.5823    1.1106046   -106.47169    10596.916    4.2496119    4.2496119    4.2496119    10596.916   -8339.4715   -1930.5383    42060.759    8183.5556   -2377.5575    987.54776    76.744595 
   23900    1012.6129   -107.39305   0.91623343   -106.47682   -7960.3213    4.2540214    4.2540214    4.2540214   -7960.3213   -19335.806    -13111.91    8566.7521    17557.825    5780.5446   -157.26677    76.983742 
   24000     764.5055   -107.16605   0.69174065   -106.47431     6072.339    4.2521154    4.2521154    4.2521154     6072.339   -8926.6143    8339.4909     18804.14   -12615.684    5542.3044    200.95427    76.880308 
   24100    555.62007   -106.97499   0.50273671   -106.47225   -9541.9192    4.2545751    4.2545751    4.2545751   -9541.9192   -12876.685    889.36055   -16638.433    13371.838   -3137.6767    210.02314    77.013808 
   24200    594.07033   -107.00757   0.53752732   -106.47004   -6699.2803    4.2513529    4.2513529    4.2513529   -6699.2803   -13929.189    10234.888    -16403.54    11666.385   -1757.7942    509.90372    76.838959 
   24300    798.46984   -107.19262   0.72247229   -106.47015    9530.0719    4.2492826    4.2492826    4.2492826    9530.0719   -19961.544    4953.2986    43598.461   -10054.883    5623.6265   -1718.2427     76.72676 
   24400    1122.2241   -107.49108     1.015412   -106.47567   -10285.325    4.2570936    4.2570936    4.2570936   -10285.325   -33752.512   -8448.2038    11344.741    15954.521   -3000.3526    393.08049    77.150649 
   24500    1217.3492   -107.57427    1.1014831   -106.47278    13635.437    4.2519276    4.2519276    4.2519276    13635.437     -12588.6   -9075.9872    62570.899    931.08067    -5604.383   -6164.8702    76.870123 
   24600    1328.8938   -107.67483     1.202411   -106.47242    5028.4528     4.247706     4.247706     4.247706    5028.4528    1277.4116    8892.4697    4915.4772      -4337.2    7731.3527   -1674.4459    76.641386 
   24700     765.9987   -107.17082   0.69309172   -106.47772    -3670.924    4.2564932    4.2564932    4.2564932    -3670.924   -26406.028   -14382.291    29775.547    21894.237    -5193.896    5440.4614    77.118013 
   24800    763.89748   -107.16186    0.6911905   -106.47067    5.6534398    4.2529618    4.2529618    4.2529618    5.6534398    2548.9932    10732.124   -13264.157   -1363.2479   -7275.4367   -3216.6751    76.926227 
   24900    467.97654    -106.8962   0.42343501   -106.47276    1684.8714    4.2470951    4.2470951    4.2470951    1684.8714   -1506.6896    6829.2305   -267.92666   -530.27572    6936.3794    -2284.389    76.608321 
   25000    502.60222    -106.9328   0.45476505   -106.47803   -15409.296    4.2566909    4.2566909    4.2566909   -15409.296   -40841.333   -15962.092    10575.536    18023.187   -4510.1279   -2458.5917    77.128757 
   25100    1163.8963    -107.5239    1.0531178   -106.47079   -10180.411    4.2549957    4.2549957    4.2549957   -10180.411   -12286.563   -11473.201   -6781.4672    -946.6123   -3650.1891   -44.372077    77.036647 
   25200    976.07109   -107.35662   0.88316963   -106.47345    18683.759    4.2449278    4.2449278    4.2449278    18683.759    5460.4067   -4534.3332    55125.203    6571.8753    7766.8433    1466.9762    76.491104 
   25300     1346.929   -107.69325    1.2187297   -106.47452   -5931.8855    4.2556192    4.2556192    4.2556192   -5931.8855   -18398.544   -9058.6918    9661.5795    11665.078    7570.5736    4077.1655     77.07052 
   25400    1177.3265   -107.53591    1.0652698   -106.47064   -942.34279    4.2584003    4.2584003    4.2584003   -942.34279   -2491.3273   -18229.122    17893.421   -6641.3115    4305.2413    1588.7061    77.221715 
   25500      640.961   -107.05251   0.57995498   -106.47255    8557.1945    4.2427554    4.2427554    4.2427554    8557.1945    22506.862    10766.613   -7601.8906    7162.8759   -5118.4762   -4629.9564    76.373727 
   25600    592.73132   -107.01127   0.53631575   -106.47495   -11846.527    4.2539279    4.2539279    4.2539279   -11846.527    -22494.41   -7130.9875    -5914.184    12213.628   -2212.1645   -2378.3827    76.978662 
   25700    534.83274   -106.95392    0.4839279   -106.46999    -13339.93    4.2612942    4.2612942    4.2612942    -13339.93   -19883.282   -14524.795   -5611.7144   -3123.7344    2627.3266    8872.3145    77.379258 
   25800    861.44388   -107.24852   0.77945253   -106.46907   -307.30163    4.2415177    4.2415177    4.2415177   -307.30163   -11113.782   -2846.2002    13038.077    5278.0588   -3617.1361   -7415.9214    76.306909 
   25900    1028.5919   -107.40845   0.93069157   -106.47776    14199.118    4.2495676    4.2495676    4.2495676    14199.118    8409.6216    528.97347    33658.759    7381.1472   -1943.2679    9307.1573    76.742196 
   26000    1401.8681   -107.74262    1.2684397   -106.47418   -11157.298    4.2622618    4.2622618    4.2622618   -11157.298   -13208.514   -15797.078   -4466.3029   -2271.6477    9155.9139    12344.156    77.431979 
   26100    1061.5829   -107.43097    0.9605425   -106.47043    19527.129    4.2478507    4.2478507    4.2478507    19527.129    4638.4153    2018.2134    51924.758    8496.7742    -1121.475   -14798.701    76.649217 
   26200    1011.0395   -107.38551    0.9148098    -106.4707    2549.0943     4.247156     4.247156     4.247156    2549.0943     6543.449    2588.2713   -1484.4374    1592.0179   -7823.8551    4921.4846    76.611621 
   26300    565.41147   -106.98423   0.51159618   -106.47263     -8049.42    4.2562573    4.2562573    4.2562573     -8049.42   -19342.302    849.67371   -5655.6319   -2470.6394    39.831293    9765.3184    77.105191 
   26400    581.16594   -106.99595   0.52585116    -106.4701   -12261.692    4.2569344    4.2569344    4.2569344   -12261.692   -25305.993   -3851.4556   -7627.6264    8869.2929   -3487.6409   -5998.6841    77.141998 
   26500    720.13721   -107.12215   0.65159528   -106.47056   -4971.4959    4.2489328    4.2489328    4.2489328   -4971.4959   -700.00606    -13576.32   -638.16204   -1994.9567   -109.26739       7341.7    76.707808 
   26600    875.95713   -107.26531   0.79258442   -106.47273    22254.296     4.245826     4.245826     4.245826    22254.296    12906.935    14842.919    39013.034    2618.6549    3637.9614    9443.9934    76.539668 
   26700    1505.9202   -107.83325    1.3625882   -106.47067    -15313.05     4.260977     4.260977     4.260977    -15313.05   -18002.362   -25232.724   -2704.0628    8429.4676   -924.51272   -378.42949    77.361979 
   26800    911.43547   -107.29767   0.82468597   -106.47298    5229.0166      4.25409      4.25409      4.25409    5229.0166    12722.872   -20070.805    23034.983   -5590.3069    1757.4673    14742.376    76.987463 
   26900    1216.7512   -107.56752    1.1009421   -106.46658    2803.4297    4.2404793    4.2404793    4.2404793    2803.4297    9473.8008    9850.9599   -10914.472    4981.8077   -8413.0644    5050.2974    76.250879 
   27000    743.18977   -107.14519   0.67245372   -106.47273   -10519.234    4.2581088    4.2581088    4.2581088   -10519.234   -17257.483    -12974.46   -1325.7601    2857.1004   -3109.5553   -11189.143    77.205862 
   27100     339.6623   -106.78146   0.30733359   -106.47413   -21538.743     4.258493     4.258493     4.258493   -21538.743   -21860.012   -25302.592   -17453.624    -3034.252    9100.8349     16265.36    77.226762 
   27200    816.33434   -107.20726   0.73863647   -106.46863     8943.603      4.24296      4.24296      4.24296     8943.603    8322.6825    8545.0359    9963.0905    4218.1819    -8244.422    4262.4489    76.384776 
   27300    958.30793   -107.33971   0.86709715   -106.47261    7490.0068     4.252397     4.252397     4.252397    7490.0068    3116.5897   -1637.0018    20990.432   -3250.5047    4909.1347   -6586.2403    76.895588 
   27400    1060.5622   -107.43613   0.95961898   -106.47651   -17305.287    4.2590864    4.2590864    4.2590864   -17305.287   -13833.887   -31491.287   -6590.6864    3099.1732    6231.1749    21992.787    77.259049 
   27500    1290.0889   -107.63635    1.1672995   -106.46905    17421.165    4.2497564    4.2497564    4.2497564    17421.165    10158.113    5056.0526     37049.33    363.97154   -7880.6588   -2656.6512    76.752428 
   27600    1276.7811   -107.62533    1.1552584   -106.47007   -2857.3684    4.2487013    4.2487013    4.2487013   -2857.3684    3489.9963    -4513.198   -7548.9035   -5119.5412   -2026.1352   -4423.7355    76.695272 
   27700    493.07481   -106.92182   0.44614445   -106.47567   -4552.9656    4.2551192    4.2551192    4.2551192   -4552.9656    1507.0405   -8992.9036   -6173.0339   -1553.6509   -3632.3087    19426.109    77.043357 
   27800    905.26845   -107.28764   0.81910592   -106.46853   -10346.238    4.2563368    4.2563368    4.2563368   -10346.238   -16309.391   -5554.7263   -9174.5983   -3075.9018     2993.289    -3657.998    77.109512 
   27900    517.00643   -106.94051   0.46779829   -106.47271    9579.7014    4.2497963    4.2497963    4.2497963    9579.7014    14872.656    4089.9371    9776.5117    1341.1819    3814.0645    11927.546    76.754586 
   28000    643.53087    -107.0566   0.58228026   -106.47432    -15.54076    4.2501934    4.2501934    4.2501934    -15.54076   -1339.2795   -4527.6302    5820.2874   -3554.7657   -2759.6975    17009.154    76.776103 
   28100    1231.3979   -107.58392    1.1141947   -106.46972   -8132.5657    4.2566114    4.2566114    4.2566114   -8132.5657   -18345.953   -8815.4538    2763.7096   -714.12184    3777.0043   -2591.0214    77.124435 
   28200    987.53054   -107.36579   0.89353838   -106.47225    9449.7818    4.2532482    4.2532482    4.2532482    9449.7818    3702.0981    -2375.987    27023.234      2593.82    3453.2549    12806.717    76.941772 
   28300    1305.9109   -107.65412    1.1816157    -106.4725   -3896.4555    4.2502725    4.2502725    4.2502725   -3896.4555    5532.5765   -5749.8774   -11472.066   -3808.9414   -8087.6869   -948.38208    76.780395 
   28400    852.39354    -107.2465   0.77126359   -106.47524    6277.9201    4.2534309    4.2534309    4.2534309    6277.9201   -243.24255   -2507.8044    21584.807    5918.5063   -2205.5714    -7382.902    76.951689 
   28500    685.97894     -107.095   0.62068816   -106.47431   -10218.455    4.2520163    4.2520163    4.2520163   -10218.455    13945.822   -11998.675   -32602.513    1143.7001    6991.8181    17797.732    76.874937 
   28600    493.33715   -106.91979   0.44638182   -106.47341   -2609.3998    4.2544965    4.2544965    4.2544965   -2609.3998   -2722.8882   -5471.4271    366.11577   -2237.6469    -5154.166    287.54302    77.009538 
   28700     720.6665    -107.1235   0.65207419   -106.47142    -75.18646    4.2499604    4.2499604    4.2499604    -75.18646   -15757.062   -5005.2692    20536.772     9229.718    207.83199   -4589.1073    76.763481 
   28800    1009.9063   -107.38634   0.91378448   -106.47256    2529.2254    4.2501171    4.2501171    4.2501171    2529.2254     8841.443   -11409.868    10156.101   -416.88803    3049.1584    22733.269    76.771968 
   28900    1203.0693   -107.56123    1.0885624   -106.47266   -5523.2163    4.2612824    4.2612824    4.2612824   -5523.2163   -12864.351   -25738.114    22032.816   -887.50284   -3401.1644   -2105.1634    77.378615 
   29000    1261.3388    -107.6115    1.1412859   -106.47021    6881.0223    4.2457342    4.2457342    4.2457342    6881.0223    10737.083    -3587.871    13493.855    5437.1229   -750.37602   -8738.9615    76.534705 
   29100    897.61312   -107.28381   0.81217921   -106.47163    12617.374     4.248308     4.248308     4.248308    12617.374    15089.323   -2547.3418    25310.142   -2206.3705    -4270.237    10168.122    76.673974 
   29200    760.39178    -107.1598   0.68801846   -106.47178     -20740.8    4.2630317    4.2630317    4.2630317     -20740.8   -18153.966   -26366.566   -17701.868    3512.2235    5041.9783   -836.98905     77.47395 
   29300    415.22571   -106.84752   0.37570495   -106.47181    21078.638     4.244519     4.244519     4.244519    21078.638   -2100.4584    15364.619    49971.752    7498.8775   -3569.1267   -4669.6641    76.469004 
   29400    758.89091   -107.15963   0.68666045   -106.47297   -7031.0087    4.2519335    4.2519335    4.2519335   -7031.0087   -8437.2068   -6194.5143    -6461.305   -4071.8699   -3562.2994    4692.4114    76.870443 
   29500    925.57782   -107.30876   0.83748226   -106.47128   -18772.426    4.2598414    4.2598414    4.2598414   -18772.426   -34424.708   -19664.964   -2227.6071    9130.7054    8762.8463    6356.3706    77.300143 
   29600    1115.9811   -107.47957    1.0097632   -106.46981    22188.355    4.2437103    4.2437103    4.2437103    22188.355    5022.8891    7238.9799    54303.197    9317.4166   -5754.8345   -2243.6048    76.425308 
   29700    1513.5431   -107.84039    1.3694856    -106.4709   -1540.4222    4.2539782    4.2539782    4.2539782   -1540.4222    10910.684   -5076.8133   -10455.137   -4626.0893   -8864.1524    2732.4172    76.981398 
   29800    794.54151   -107.19599   0.71891786   -106.47707    5453.8501    4.2539898    4.2539898    4.2539898    5453.8501   -11461.612    -15176.04    42999.203    7687.9428    10439.923   -778.95788    76.982024 
   29900    847.27681   -107.23877   0.76663386   -106.47214    143.24795    4.2473972    4.2473972    4.2473972    143.24795   -105.38879    8913.6698   -8378.5371    2226.0931     65.93482    4330.0683     76.62467 
   30000    548.10625   -106.96879   0.49593805   -106.47286   -6378.1678     4.256566     4.256566     4.256566   -6378.1678   -18346.472    2416.7858   -3204.8167    912.64286    977.72205   -2019.0577     77.12197 
   30100    491.17897   -106.91918   0.44442905   -106.47475   -4268.4805    4.2476692    4.2476692    4.2476692   -4268.4805   -32257.855    1261.0616    18191.352    9647.5226    7163.4165    2721.3481    76.639394 
   30200    883.05868    -107.2758   0.79901005   -106.47679     5351.645    4.2516787    4.2516787    4.2516787     5351.645   -5556.3612    5963.3364     15647.96   -4859.2105     3284.665   -3028.7124    76.856623 
   30300    1238.9648   -107.59127    1.1210414   -106.47023    278.16617    4.2584568    4.2584568    4.2584568    278.16617    567.77932   -6475.7251    6742.4443    2493.7106   -2723.8093   -5906.0133     77.22479 
   30400    1170.3785   -107.52896    1.0589831   -106.46998    6832.9047    4.2433185    4.2433185    4.2433185    6832.9047   -7103.1849    6718.9851    20882.914    13509.444   -2967.8862   -3148.4658     76.40414 
   30500     992.1592   -107.37208    0.8977265   -106.47435    12119.474    4.2524593    4.2524593    4.2524593    12119.474    7550.0724   -2687.6424    31495.992    -2661.088    795.64682    -6314.185    76.898967 
   30600    1001.0721   -107.37952    0.9057911   -106.47373   -10145.007    4.2567356    4.2567356    4.2567356   -10145.007   -16995.762    -5946.976   -7492.2838    2709.4212    1398.1578    3301.1878    77.131188 
   30700    255.35889   -106.70826   0.23105409   -106.47721    13323.073    4.2455645    4.2455645    4.2455645    13323.073   -29984.357    13017.966    56935.609    7606.4263    3217.3796    2064.5114    76.525524 
   30800    777.87252   -107.17683    0.7038354     -106.473   -19520.547    4.2566032    4.2566032    4.2566032   -19520.547   -34104.461   -1432.5344   -23024.645   -2312.2664    3464.8628    4375.2386    77.123993 
   30900    906.49307    -107.2896   0.82021398   -106.46939    4673.5725     4.252212     4.252212     4.252212    4673.5725    215.37456    6588.9164    7216.4265    7251.5222    2163.1974    -1918.388    76.885552 
   31000    1066.0608   -107.43641   0.96459418   -106.47182    11139.924    4.2472114    4.2472114    4.2472114    11139.924   -5766.1757    10621.325    28564.622    6827.4493     2418.531    1827.0328    76.614619 
   31100    1393.5551    -107.7318    1.2609179   -106.47088   -7118.4936    4.2572835    4.2572835    4.2572835   -7118.4936   -9859.4994   -7223.5567   -4272.4248    -6222.731    2600.6862   -1096.6055    77.160977 
   31200    1119.3593   -107.48167    1.0128198   -106.46885    12200.531    4.2492428    4.2492428    4.2492428    12200.531    14357.604   -10541.896    32785.885    10521.954   -6172.4411    378.92742      76.7246 
   31300     740.7032   -107.14072   0.67020382   -106.47052    2253.5537    4.2509592    4.2509592    4.2509592    2253.5537   -29961.198     1732.335    34989.524    8274.9249    11369.148    3195.9799    76.817614 
   31400    682.26876   -107.08464   0.61733111   -106.46731   -20173.395      4.25849      4.25849      4.25849   -20173.395    -43465.11   -7477.6547     -9577.42   -7320.9945    9727.1764   -2787.8277    77.226596 
   31500    723.70941   -107.12182   0.65482748   -106.46699   -4162.6338    4.2471513    4.2471513    4.2471513   -4162.6338    -23760.66    863.93468    10408.823     11476.21   -6948.7825    4792.2303    76.611363 
   31600    737.00212   -107.14077   0.66685501   -106.47392    4971.5038    4.2530562    4.2530562    4.2530562    4971.5038   -5638.2797    7601.8263    12950.965    2352.0558    11741.817   -100.37904    76.931353 
   31700    1231.8481   -107.58523     1.114602   -106.47063      -4823.8    4.2544009    4.2544009    4.2544009      -4823.8   -11142.796    4573.0461   -7901.6505   -3782.3462    7154.4754    6596.5024    77.004343 
   31800    1214.5379   -107.56774    1.0989394    -106.4688    9258.6825    4.2471655    4.2471655    4.2471655    9258.6825    15356.483   -1234.3746    13653.939    14469.682   -7156.1998   -7893.9303    76.612133 
   31900    1004.7761   -107.38184   0.90914249    -106.4727   -9039.0854    4.2552518    4.2552518    4.2552518   -9039.0854   -18438.938   -13302.585    4624.2669    -10129.93    2561.5589   -358.71246     77.05056 
   32000    784.82793   -107.18314    0.7101288   -106.47301   -1316.6853    4.2488676    4.2488676    4.2488676   -1316.6853    -22765.74    8261.5092    10554.175   -7276.2352     8880.097    3450.6141    76.704278 
   32100    679.43884   -107.08832   0.61477054   -106.47355   -5273.9535    4.2487937    4.2487937    4.2487937   -5273.9535   -36830.181   -1954.4775    22962.798     11448.64   -1022.0357   -2688.1823    76.700276 
   32200    481.87061    -106.9113   0.43600665   -106.47529    -10237.83    4.2577626    4.2577626    4.2577626    -10237.83   -41908.236    2833.6431     8361.103   -13939.269    7361.8441   -3482.0823    77.187028 
   32300    895.66031   -107.28031   0.81041227    -106.4699    14650.055    4.2428677    4.2428677    4.2428677    14650.055    16971.877    39404.973   -12426.684   -6104.6949    8695.3779    4496.6436    76.379794 
   32400    1209.0524   -107.56586     1.093976   -106.47188    2366.4526     4.250921     4.250921     4.250921    2366.4526   -13069.087    2640.0733    17528.371    5858.5985    3370.2966    10939.856    76.815543 
   32500    1002.5887   -107.38005   0.90716334   -106.47288   -3222.1909    4.2589744    4.2589744    4.2589744   -3222.1909   -7722.4472   -9488.3953    7544.2698   -12140.827    629.57724   -8017.3067    77.252955 
   32600    1137.7383   -107.49504    1.0294495   -106.46559    13949.544    4.2404977    4.2404977    4.2404977    13949.544    5981.9167    19230.638    16636.076    65.494983   -2464.7582    4439.2643    76.251868 
   32700    674.83209   -107.08101   0.61060225   -106.47041       967.63    4.2510113    4.2510113    4.2510113       967.63   -29257.627   -16234.714    48395.231   -1679.8562    1340.4944    6620.4062    76.820438 
   32800    592.98204   -107.00583   0.53654262   -106.46929    -24888.09    4.2587448    4.2587448    4.2587448    -24888.09   -65147.032   -19053.349    9536.1101    -13915.55     961.9932   -4946.7895    77.240461 
   32900    707.02777   -107.10531   0.63973358   -106.46558     22555.39    4.2423488    4.2423488    4.2423488     22555.39    2252.5435     28604.84    36808.787    3274.9948   -1263.5784    2222.7613    76.351771 
   33000    991.93909   -107.36907   0.89752733   -106.47155   -3873.3176    4.2536991    4.2536991    4.2536991   -3873.3176   -11233.372   -6760.0263     6373.446   -4015.8117   -18.895139    5975.3543    76.966246 
   33100    1140.5589   -107.50574    1.0320017   -106.47374    673.72089    4.2516108    4.2516108    4.2516108    673.72089   -19279.813   -8292.6784    29593.654   -11638.966    1525.7754    3360.4008    76.852944 
   33200    1317.8956   -107.66297    1.1924596   -106.47051    18511.349    4.2445029    4.2445029    4.2445029    18511.349     22574.47    12905.269    20054.308    665.49965   -3694.8799   -9734.4528    76.468137 
   33300    912.25479    -107.2987   0.82542731   -106.47327   -19497.888    4.2582694    4.2582694    4.2582694   -19497.888   -28962.121   -31787.548    2256.0047   -8517.1017   -3936.1589    5290.0402    77.214597 
   33400    729.19297   -107.12909   0.65978912    -106.4693   -7766.3243    4.2465901    4.2465901    4.2465901   -7766.3243   -36443.665   -15977.207    29121.899    -6195.023     -192.182    417.38966    76.580997 
   33500    828.72545   -107.21741   0.74984821   -106.46756   -3995.4574    4.2502815    4.2502815    4.2502815   -3995.4574   -33589.827    10111.601    11491.854    1305.5828    1710.9732   -3737.4664    76.780879 
   33600    578.19008     -106.993   0.52315854   -106.46984   -18697.582    4.2610857    4.2610857    4.2610857   -18697.582   -22639.851   -18364.418   -15088.478   -16908.203   -4195.0622   -1685.3606    77.367902 
   33700    1000.6884   -107.37252   0.90544391   -106.46708    14192.168    4.2394577    4.2394577    4.2394577    14192.168   -1050.7258    15182.584    28444.648   -5862.0457    3963.7768   -219.54631    76.195779 
   33800    1222.1513    -107.5792    1.1058282   -106.47337    3021.5285    4.2550895    4.2550895    4.2550895    3021.5285    304.90961    20857.925   -12098.249   -2114.8664    5909.5349    5361.2046    77.041743 
   33900    906.84785   -107.29306   0.82053499   -106.47252   -23377.066    4.2630997    4.2630997    4.2630997   -23377.066   -16542.468   -28182.585   -25406.146    -20173.55   -3054.5481    3923.2102    77.477656 
   34000    994.75443   -107.36361   0.90007471   -106.46353    17139.251    4.2345541    4.2345541    4.2345541    17139.251   -3267.2048    23472.115    31212.843   -7554.5322   -448.98078    2510.5395     75.93169 
   34100    905.46825   -107.29129    0.8192867     -106.472   -1793.6746    4.2563311    4.2563311    4.2563311   -1793.6746   -34278.266    10813.717    18083.525   -834.44922   -3543.7218     3997.306    77.109204 
   34200    583.38149   -106.99785   0.52785583   -106.46999    -18320.92    4.2644713    4.2644713    4.2644713    -18320.92   -47359.896   -17695.685    10092.822   -16273.083    3015.6746    11484.115    77.552464 
   34300    691.44738   -107.08769   0.62563612   -106.46205    32963.652    4.2418827    4.2418827    4.2418827    32963.652    20787.975    31791.607    46311.374   -2179.0041    7550.9316    7474.9955    76.326607 
   34400     997.0824   -107.36732   0.90218111   -106.46514   -1987.4841    4.2567592    4.2567592    4.2567592   -1987.4841   -19042.579    971.95215    12108.174   -1798.4167   -1541.8797   -345.48876    77.132471 
   34500    645.31125   -107.05304   0.58389118   -106.46915   -5088.3232     4.258069     4.258069     4.258069   -5088.3232   -6465.1361   -18094.825    9294.9917   -12795.118    3514.2704     6596.992    77.203692 
   34600     966.4257    -107.3381   0.87444228   -106.46366      12208.9    4.2472925    4.2472925    4.2472925      12208.9    2598.3948    9103.7243    24924.582    7289.1895    1981.5744    9006.4455    76.619005 
   34700    989.35052   -107.36065   0.89518514   -106.46546   -8899.6109    4.2605811    4.2605811    4.2605811   -8899.6109   -30922.813   -14047.065    18271.045   -10946.883     2079.625     1582.538    77.340418 
   34800    713.48759   -107.11154   0.64557857   -106.46596   -11575.152    4.2557094    4.2557094    4.2557094   -11575.152    -51731.67   -14858.095     31864.31   -16712.691   -794.15693   -939.13118    77.075417 
   34900    1099.2843   -107.45395   0.99465549    -106.4593    9487.6004    4.2463166    4.2463166    4.2463166    9487.6004   -2019.1224    8272.2091    22209.715    10573.399   -7551.5038    45.453359    76.566203 
   35000     1019.486   -107.38509   0.92245234   -106.46264   -11922.202    4.2621532    4.2621532    4.2621532   -11922.202   -22204.661   -8835.3966   -4726.5481   -14886.937   -2318.5642   -767.36916    77.426061 
   35100    810.26743   -107.19804   0.73314699   -106.46489   -11054.863    4.2541467    4.2541467    4.2541467   -11054.863   -12223.069   -1259.5554   -19681.964   -10876.076    2104.4859    2073.3214    76.990543 
   35200     1006.671   -107.37291   0.91085706   -106.46205    4694.2388    4.2447369    4.2447369    4.2447369    4694.2388    17416.747    17294.981   -20629.012    8264.9705    2306.5951   -3324.3135    76.480786 
   35300    962.38656   -107.33552   0.87078759   -106.46473   -22608.026     4.262879     4.262879     4.262879   -22608.026   -33980.993   -15661.565    -18181.52   -15331.184   -1953.3068     -7790.15    77.465621 
   35400    760.67924   -107.15442   0.68827856   -106.46614   -8520.1979    4.2507147    4.2507147    4.2507147   -8520.1979   -35058.597    4967.8286     4530.175   -5706.5788   -2205.5986    1791.7691    76.804358 
   35500    1040.9858   -107.40672   0.94190582   -106.46482    5293.3342    4.2452815    4.2452815    4.2452815    5293.3342   -22444.119    14256.202     24067.92    9309.1386    9127.4016   -2941.3585    76.510227 
   35600    979.89086   -107.35071   0.88662584   -106.46409   -11551.917    4.2651514    4.2651514    4.2651514   -11551.917   -26727.334    -19191.46    11263.043   -16433.553    2986.2299   -6116.3797    77.589575 
   35700    1034.8447   -107.40006   0.93634923   -106.46371    1431.1664    4.2451467    4.2451467    4.2451467    1431.1664   -1860.0113   -210.65163    6364.1621   -283.12481   -5732.9376   -3548.5855    76.502937 
   35800    902.72241   -107.28688   0.81680221   -106.47007    9249.7109    4.2445727    4.2445727    4.2445727    9249.7109    18219.413    4069.5962    5460.1236    12132.176     457.6875   -412.79063     76.47191 
   35900    1010.4661   -107.37913   0.91429096   -106.46484   -24390.441    4.2667698    4.2667698    4.2667698   -24390.441    -19772.27   -34451.058   -18947.994   -14300.835   -367.27423    107.13877    77.677927 
   36000    783.16818    -107.1731   0.70862703   -106.46447    1689.3562    4.2430796    4.2430796    4.2430796    1689.3562   -12839.273     7067.018    10840.323   -1323.6276    4560.8894    -2765.934    76.391238 
   36100    751.87614   -107.15176   0.68031333   -106.47145   -3616.5322    4.2474199    4.2474199    4.2474199   -3616.5322   -44483.631    8614.8567    25019.178    8851.7537   -1189.9589    5314.1267      76.6259 
   36200    812.71272   -107.20086   0.73535955    -106.4655   -11249.281    4.2626505    4.2626505    4.2626505   -11249.281   -29191.268    -25910.76    21354.183   -13150.993   -4721.9771     4803.503    77.453164 
   36300     984.1698    -107.3535   0.89049752     -106.463    17439.111    4.2375281    4.2375281    4.2375281    17439.111    2148.8409    18903.384    31265.109    477.51734    12417.579    3452.6311    76.091783 
   36400    945.64631   -107.33328   0.85564065   -106.47764   -4347.7434    4.2532354    4.2532354    4.2532354   -4347.7434   -18667.776   -1335.0217    6959.5678    7309.7481    5415.5776    2911.4473    76.941078 
   36500    1238.3086   -107.58874    1.1204477    -106.4683   -12313.716    4.2585145    4.2585145    4.2585145   -12313.716     1326.948   -22685.261   -15582.836   -8689.3553   -1711.8485   -1689.0162    77.227927 
   36600    981.29243   -107.35337   0.88789401   -106.46548    12764.065    4.2344023    4.2344023    4.2344023    12764.065     2964.584    31199.523    4128.0864     3694.674   -3312.3629    1863.9996    75.923524 
   36700    635.52349   -107.05168   0.57503501   -106.47664   -17579.989    4.2576491    4.2576491    4.2576491   -17579.989   -56384.908    4656.0683    -1011.127    9821.8434    849.23811    3131.9845    77.180858 
   36800    699.72894   -107.10092   0.63312945   -106.46779   -7660.6586    4.2550768    4.2550768    4.2550768   -7660.6586    -30527.53   -2722.5226    10268.076    -6819.319    1950.6488    1058.1745    77.041054 
   36900    652.00279   -107.05419   0.58994582   -106.46424    17677.039    4.2347351    4.2347351    4.2347351    17677.039   -3221.1731    28945.984    27306.305    817.23104   -6052.0522   -6050.8039    75.941428 
   37000    740.15351   -107.14543   0.66970645   -106.47573    -18472.75    4.2595467    4.2595467    4.2595467    -18472.75   -51588.938   -5705.0967    1875.7857    12909.515   -2971.9541    4728.8473    77.284102 
   37100      1331.78   -107.67461    1.2050225   -106.46958    3820.8879    4.2471281    4.2471281    4.2471281    3820.8879    7224.5987   -2079.3745    6317.4395   -1256.9047     6958.999    966.57041    76.610111 
   37200    1157.3772    -107.5195    1.0472193   -106.47228     20832.52    4.2359428    4.2359428    4.2359428     20832.52    18762.569    7477.6237    36257.368   -4144.8678    5195.5252   -10039.057    76.006418 
   37300    824.04368   -107.22095   0.74561204   -106.47534   -23603.339    4.2651499    4.2651499    4.2651499   -23603.339   -50496.371   -12940.388   -7373.2586     7218.503   -4610.8694      3061.54    77.589491 
   37400    912.77958   -107.29335   0.82590215   -106.46745    8053.0149    4.2431862    4.2431862    4.2431862    8053.0149   -29224.846    15512.849    37871.042   -2179.0867   -2933.2602   -5976.9914    76.396993 
   37500    578.67987   -106.99421   0.52360171    -106.4706    15975.676      4.23426      4.23426      4.23426    15975.676   -9410.5895    20882.626    36454.991    4566.2551    4066.6031   -2874.4187    75.915866 
   37600    445.65935   -106.87968   0.40324194   -106.47644   -33971.402    4.2627474    4.2627474    4.2627474   -33971.402   -77634.248   -6137.3936   -18142.565    9720.9504    1106.2681     2567.568    77.458449 
   37700     1139.001   -107.50004    1.0305921   -106.46945    3375.8989     4.244298     4.244298     4.244298    3375.8989   -16518.927    8294.1571    18352.466   -3481.0751   -882.48786   -9055.4285    76.457063 
   37800    1305.0861   -107.65205    1.1808693   -106.47118    8644.0538    4.2407578    4.2407578    4.2407578    8644.0538    15940.844    548.17961    9443.1376    9014.6026    3386.3104    2944.8846    76.265901 
   37900    801.68244   -107.20444   0.72537912   -106.47907   -15439.521    4.2552148    4.2552148    4.2552148   -15439.521   -14506.758    -11891.21   -19920.594    14742.503    992.06135    1873.2381    77.048549 
   38000    1085.0174   -107.45205   0.98174658    -106.4703    2308.5364    4.2457486    4.2457486    4.2457486    2308.5364   -17056.253    10157.133    13824.729     610.6763   -7664.0955    388.61435    76.535484 
   38100    776.81733   -107.17351   0.70288065   -106.47063    3023.7331    4.2529879    4.2529879    4.2529879    3023.7331   -14909.076   -627.35046    24607.625    4309.5284   -1304.0285    3371.4796    76.927646 
   38200    418.03272     -106.856   0.37824479   -106.47775   -10527.537    4.2460163    4.2460163    4.2460163   -10527.537   -52542.981    15457.819    5502.5499    5308.3561   -5133.4185    2900.5883    76.549961 
   38300    682.28456   -107.09465   0.61734541   -106.47731    5524.9818    4.2411097    4.2411097    4.2411097    5524.9818   -42042.455    20392.686    38224.714    719.77086    66.205911    9177.2977    76.284889 
   38400     1215.412   -107.57255    1.0997303   -106.47282   -10450.451    4.2588979    4.2588979    4.2588979   -10450.451   -19876.595   -22742.294    11267.536    3493.4029    3452.1315    765.79426    77.248793 
   38500    937.13045   -107.32337   0.84793533   -106.47543    13470.163    4.2440964    4.2440964    4.2440964    13470.163    12025.782    2680.9904    25703.716     4406.544    -5628.361    3238.2741    76.446167 
   38600    1008.6371   -107.38648   0.91263605   -106.47384    3420.6951    4.2451103    4.2451103    4.2451103    3420.6951   -5395.4913      6986.01    8671.5665   -7782.0908    5864.8566    4722.7828    76.500969 
   38700      1011.82   -107.38161   0.91551603   -106.46609   -11656.863    4.2614655    4.2614655    4.2614655   -11656.863   -23027.424   -16592.991    4649.8247   -2213.3305    451.21408    2073.3349     77.38859 
   38800    732.72214   -107.13125   0.66298239   -106.46827    4052.8693    4.2391676    4.2391676    4.2391676    4052.8693   -31152.561    27044.537    16266.632    6527.9075   -3299.7877      4525.53    76.180142 
   38900    454.95654   -106.88787   0.41165424   -106.47622   -4443.9488     4.242261     4.242261     4.242261   -4443.9488   -54181.934     24352.09    16497.998   -6951.8777   -201.51282    1660.9881    76.347033 
   39000    1015.2832   -107.38942   0.91864961   -106.47077   -20626.132    4.2606276    4.2606276    4.2606276   -20626.132    -36596.17   -23702.793   -1579.4321   -9459.3872     160.5091    528.16475    77.342951 
   39100    1181.5246   -107.53765    1.0690683   -106.46859     15677.11    4.2405095    4.2405095    4.2405095     15677.11    13386.117    3049.8577    30595.356    369.90551     582.7669   -4479.6505    76.252506 
   39200    888.74201   -107.28103   0.80415245   -106.47688    7054.8825    4.2433654    4.2433654    4.2433654    7054.8825    10379.857    6571.9543    4212.8358   -6461.0254   -652.64846    1813.4646    76.406673 
   39300    1034.4115   -107.40804   0.93595726   -106.47209    -1848.292    4.2563552    4.2563552    4.2563552    -1848.292   -3337.9374   -19786.344    17579.406   -3473.4087   -5878.6146   -2492.8471    77.110515 
   39400    948.69203   -107.32601   0.85839648   -106.46761    14470.581    4.2426046    4.2426046    4.2426046    14470.581   -5933.2459    7051.0012    42293.988    762.22058   -202.45707   -9809.1372    76.365584 
   39500    378.00388   -106.81891   0.34202585   -106.47689   -15054.554    4.2462395    4.2462395    4.2462395   -15054.554   -68691.525    14359.123    9168.7403   -11865.969    6074.9795     1721.024    76.562033 
   39600    687.35267   -107.09767   0.62193114   -106.47574   -14491.503    4.2481085    4.2481085    4.2481085   -14491.503   -58589.704    1702.1001    13413.095   -3033.2328    -5354.906   -7753.5991    76.663174 
   39700    1179.3977   -107.53849    1.0671438   -106.47134    10051.807    4.2447934    4.2447934    4.2447934    10051.807      732.343   -582.69591    30005.775    4318.8676     4453.107    281.11706     76.48384 
   39800    1018.7705   -107.39971   0.92180494    -106.4779   -17228.936    4.2539063    4.2539063    4.2539063   -17228.936   -14601.821   -18252.111   -18832.877   -15190.861     3998.657    5065.1921    76.977492 
   39900    1115.1819   -107.48389      1.00904   -106.47485    8241.0748    4.2396201    4.2396201    4.2396201    8241.0748    8609.5492      7165.88    8947.7952   -5422.9912    2484.0073   -6586.4093    76.204539 
   40000    1205.8458   -107.56376    1.0910746   -106.47269    9687.8579     4.245865     4.245865     4.245865    9687.8579    6255.9979   -8162.6375    30970.213   -2353.7961   -111.95235    4587.5251    76.541777 
   40100    568.23084   -106.98811   0.51414721   -106.47396   -25251.721    4.2613495    4.2613495    4.2613495   -25251.721   -68682.049   -16358.004    9284.8905    -15341.62   -4261.2552    3619.9201    77.382269 
   40200    472.14242    -106.8976   0.42720438    -106.4704    932.89263    4.2355929    4.2355929    4.2355929    932.89263   -53539.509    26223.417     30114.77    1721.0529   -583.77172     3196.092    75.987583 
   40300    740.76832   -107.14622   0.67026274   -106.47596    7944.1518    4.2425604    4.2425604    4.2425604    7944.1518   -26865.981    6037.3884    44661.048   -1805.2786   -7025.7902     -1958.03    76.363196 
   40400    944.22043   -107.32597   0.85435048   -106.47162   -17092.777    4.2613802    4.2613802    4.2613802   -17092.777   -25182.977   -22295.552   -3799.8014   -16093.172   -2477.9691   -658.69944    77.383942 
   40500    1044.3256    -107.4145   0.94492773   -106.46957    11734.762    4.2399486    4.2399486    4.2399486    11734.762    17146.947    15559.652    2497.6885    7718.3688   -3847.8205    3794.9547    76.222251 
   40600    1193.6072    -107.5527    1.0800009    -106.4727    6958.7084    4.2438426    4.2438426    4.2438426    6958.7084    16434.603   -2217.4675    6658.9895    5100.9915   -79.093204   -10077.514    76.432452 
   40700    919.19465   -107.30443   0.83170664   -106.47272   -7991.4518    4.2561672    4.2561672    4.2561672   -7991.4518   -26200.928   -7239.0626    9465.6355   -11437.204   -3069.1726   -1460.7105    77.100296 
   40800    740.91937   -107.14066   0.67039942   -106.47026   -2810.5882    4.2446544    4.2446544    4.2446544   -2810.5882   -47046.683    27018.607    11596.312    4970.7258   -7835.3651   -4277.5529    76.476327 
   40900    605.08261   -107.01996   0.54749146   -106.47247   -7935.6197     4.250769     4.250769     4.250769   -7935.6197   -50913.764   -2425.0908    29531.995    3710.6787    4552.1946   -9035.2575    76.807303 
   41000    783.16574   -107.17882   0.70862482   -106.47019   -9950.0347    4.2509836    4.2509836    4.2509836   -9950.0347   -34538.871   -2368.0526    7056.8189   -8684.3924   -2706.9833   -4612.0229    76.818937 
   41100    836.80381   -107.22674   0.75715767   -106.46958    9178.4546    4.2438887    4.2438887    4.2438887    9178.4546     1152.589    26686.532   -303.75762    1198.2645   -3041.8981   -2592.6688    76.434945 
   41200    998.92816   -107.37489   0.90385119   -106.47104   -6159.0828    4.2552419    4.2552419    4.2552419   -6159.0828   -5866.4514   -19892.464     7281.667   -3490.7366     1609.442   -9408.8489     77.05002 
   41300    942.30434   -107.32231   0.85261677   -106.46969    7119.8962    4.2482175    4.2482175    4.2482175    7119.8962   -7316.1641   -1449.8332    30125.686   -8694.2861    3333.2143   -2153.7447    76.669077 
   41400    950.11684   -107.32951   0.85968569   -106.46982    4487.5667    4.2440237    4.2440237    4.2440237    4487.5667    -18621.72    19862.637    12221.784    5774.9112    -1339.516    7173.9166    76.442237 
   41500    1046.3279   -107.41556    0.9467395   -106.46882   -19325.457    4.2574749    4.2574749    4.2574749   -19325.457   -52385.066   -17054.031    11462.726    1638.2094    412.52345   -8759.8195    77.171385 
   41600    971.19799   -107.34803   0.87876035   -106.46927   -8408.9693    4.2469923    4.2469923    4.2469923   -8408.9693   -37479.389    48.047504    12204.434   -9051.0176    1484.8374    72.513859    76.602762 
   41700    899.76977    -107.2843   0.81413059   -106.47017   -4147.6819    4.2425835    4.2425835    4.2425835   -4147.6819       -19806    16010.527   -8647.5722    7361.1471    -11655.18    5603.4251    76.364442 
   41800    914.49351   -107.29612   0.82745295   -106.46866   -5119.9053    4.2574343    4.2574343    4.2574343   -5119.9053   -4644.2846   -15385.967    4670.5358    9841.4671    967.71942   -472.10561    77.169176 
   41900    963.92696   -107.34063   0.87218137   -106.46844   -2144.1332    4.2473639    4.2473639    4.2473639   -2144.1332    2330.2736    2893.6193   -11656.292   -7621.9403   -1868.8139    2395.2739    76.622872 
   42000    679.07133   -107.08545   0.61443801   -106.47101    10394.265    4.2380273    4.2380273    4.2380273    10394.265   -4247.5859    31749.821    3680.5601    1598.9301   -4536.1805   -2200.6403    76.118683 
   42100    1087.2062   -107.45566   0.98372699   -106.47194   -3700.7939     4.255214     4.255214     4.255214   -3700.7939   -30677.651   -6699.6249    26274.894    4587.1586   -687.74356    4074.0541    77.048503 
   42200     1038.057   -107.40891   0.93925581   -106.46965    5368.2475    4.2506969    4.2506969    4.2506969    5368.2475   -33844.309    13566.448    36382.603    -5335.288   -6594.8401   -5188.8269    76.803392 
   42300    708.68981     -107.113   0.64123743   -106.47176   -1161.8968      4.23907      4.23907      4.23907   -1161.8968   -30698.016    13539.598    13672.727    5914.8408     1583.669    2297.7221    76.174878 
   42400    813.03778   -107.21013   0.73565367   -106.47448   -919.47284    4.2497046    4.2497046    4.2497046   -919.47284   -13957.525   -2816.1123    14015.219    4748.0508    4419.0384   -1750.8726    76.749621 
   42500      1089.72   -107.45511   0.98600159    -106.4691   -3888.7763    4.2493734    4.2493734    4.2493734   -3888.7763    8132.7669    8771.0344    -28570.13   -3536.7367   -4336.4775   -9519.4201    76.731675 
   42600    645.79807   -107.06041   0.58433166   -106.47608   -3377.1587    4.2418778    4.2418778    4.2418778   -3377.1587   -1815.6579    24794.601   -33110.419    11428.475   -2124.4269    8231.3124    76.326344 
   42700    1069.2769   -107.44443   0.96750422   -106.47693    -1500.818    4.2459902    4.2459902    4.2459902    -1500.818   -9889.4146   -2913.8806    8300.8414    11700.514     10744.13   -4725.1474    76.548549 
   42800    1229.8238   -107.58335    1.1127704   -106.47058    11171.617    4.2476574    4.2476574    4.2476574    11171.617   -17223.189      25867.6     24870.44    -4430.459    556.22467    3742.1167    76.638753 
   42900    671.79228    -107.0854   0.60785177   -106.47755    -12951.43    4.2466474    4.2466474    4.2466474    -12951.43   -47625.521   -303.26953       9074.5    4384.7375    3139.9012    11653.694      76.5841 
   43000    555.86184   -106.97983   0.50295547   -106.47687    -4372.603    4.2460622    4.2460622    4.2460622    -4372.603   -32608.612   -13235.982    32726.785    8410.4845     3095.432    5033.4668    76.552441 
   43100    1011.4643    -107.3849   0.91519416   -106.46971    1462.4653    4.2465239    4.2465239    4.2465239    1462.4653   -3322.4087   -802.02386    8511.8284   -6190.0416   -2339.1082    4881.0515    76.577415 
   43200    693.53317   -107.10417   0.62752339   -106.47665   -3225.2829    4.2486467    4.2486467    4.2486467   -3225.2829   -5590.7819    12117.245   -16202.312    4421.0733    5183.3195    574.34255    76.692319 
   43300    936.34586   -107.32356   0.84722541   -106.47633   -2363.8734    4.2462787    4.2462787    4.2462787   -2363.8734   -8294.8212    -7405.328    8608.5291    2809.2699   -1632.3053     11657.67    76.564153 
   43400    1343.6637   -107.68609    1.2157752   -106.47032    12292.585    4.2447388    4.2447388    4.2447388    12292.585   -3715.9589    18208.219    22385.496   -4797.6949    -1473.611   -7798.4941    76.480886 
   43500    1047.2556   -107.42076   0.94757889   -106.47318    -11567.61    4.2500812    4.2500812    4.2500812    -11567.61   -42451.343   -1860.6525     9609.165    12944.935    14.395439   -4541.9269    76.770023 
   43600    573.76026   -106.99246   0.51915034   -106.47331   -12568.837    4.2481645    4.2481645    4.2481645   -12568.837   -44147.098   -16898.726    23339.314   -550.01271     -588.736    5814.2891    76.666208 
   43700     856.6587   -107.24305   0.77512279   -106.46793   -6622.7406    4.2457009    4.2457009    4.2457009   -6622.7406   -20819.547   -12892.234    13843.559   -8808.8672    620.41041   -5632.3065    76.532905 
   43800    777.52187   -107.17401   0.70351812   -106.47049   -6273.5331    4.2486494    4.2486494    4.2486494   -6273.5331    -8031.801   -4022.6346   -6766.1636    14418.637    3088.1997    2518.5461    76.692465 
   43900    701.12867   -107.11035   0.63439595   -106.47595   -1764.5493    4.2467676    4.2467676    4.2467676   -1764.5493   -11677.536   -18695.057    25078.945   -1041.2214   -3360.3661   -2339.4148    76.590605 
   44000    1164.8073    -107.5298    1.0539421   -106.47585     1413.273    4.2461915    4.2461915    4.2461915     1413.273    630.80723   -7904.2116    11513.223   -12085.932   -591.77113    2471.2346    76.559437 
   44100    1346.5609   -107.69124    1.2183966   -106.47284    5880.7051    4.2444699    4.2444699    4.2444699    5880.7051    -12074.01    1951.4043    27764.721    10468.609    8098.2463    8373.9944    76.466352 
   44200    803.47686    -107.2031   0.72700275    -106.4761   -5915.1656    4.2506321    4.2506321    4.2506321   -5915.1656   -38632.821   -15930.275    36817.598   -7324.8637    2310.6627   -566.69142    76.799884 
   44300    779.46639   -107.17625   0.70527757   -106.47097   -16473.273    4.2507821    4.2507821    4.2507821   -16473.273    -31807.25   -30333.318    12720.748   -10588.161   -2631.4781   -2286.6978    76.808012 
   44400    717.99602   -107.11744   0.64965789   -106.46778    14195.604    4.2371137    4.2371137    4.2371137    14195.604    6353.0624    2503.8027    33729.946    13612.585   -1774.5003    394.93606    76.069463 
   44500    504.58315   -106.93277   0.45655743   -106.47622   -4926.8853    4.2493647    4.2493647    4.2493647   -4926.8853   -12742.044   -17145.112      15106.5   -10662.878    2736.5503    5335.9852    76.731205 
   44600    842.58059    -107.2358   0.76238462   -106.47341    -20940.74    4.2572753    4.2572753    4.2572753    -20940.74    -21346.35   -18863.357   -22612.514   -10761.302   -2758.8073   -2973.7626    77.160529 
   44700    1280.8991   -107.62636    1.1589845   -106.46738    5865.0888    4.2394094    4.2394094    4.2394094    5865.0888    1366.0358    14082.299    2146.9315    15850.538   -3592.5305   -6342.7275    76.193176 
   44800    1150.8208   -107.51443    1.0412868   -106.47314     3403.808    4.2449765    4.2449765    4.2449765     3403.808    -16948.42    10151.715    17008.129   -10053.154    -3014.572    651.57045    76.493737 
   44900    1046.9407   -107.41951   0.94729394   -106.47222   -16354.865    4.2562886    4.2562886    4.2562886   -16354.865   -27451.954   -21107.552   -505.08787   -9294.0604   -3305.7226   -1451.9814    77.106893 
   45000    869.31287   -107.25547   0.78657256   -106.46889    4724.6597    4.2416677    4.2416677    4.2416677    4724.6597   -6875.8953   -14346.183    35396.057    16673.056    7192.6016   -3274.7777    76.315002 
   45100    527.44799   -106.95029   0.47724603   -106.47304    5484.1429    4.2435774    4.2435774    4.2435774    5484.1429    -3896.158   -16467.324     36815.91   -7862.5286   -6170.6191   -838.59124    76.418124 
   45200    672.71383   -107.08052   0.60868561   -106.47184   -20013.003    4.2533802    4.2533802    4.2533802   -20013.003   -25721.441   -32985.368   -1332.1998   -6682.4401   -4764.1317   -3651.3018    76.948936 
   45300    791.99732   -107.18837   0.71661582   -106.47176   -2897.4033    4.2452567    4.2452567    4.2452567   -2897.4033   -15490.689   -19125.458    25923.938     17029.51    1993.0548   -153.97564    76.508885 
   45400    1148.9214   -107.51172    1.0395683   -106.47215    249.46792    4.2439446    4.2439446    4.2439446    249.46792   -23458.102    6255.4837    17951.022   -5614.5523   -7793.7864   -687.06081    76.437968 
   45500    1188.4559   -107.54874    1.0753399    -106.4734   -2569.4039    4.2495304    4.2495304    4.2495304   -2569.4039   -19677.257    6958.9093     5010.136   -812.09569   -3173.7229   -7206.9492    76.740184 
   45600     1006.876   -107.38399   0.91104253   -106.47295   -2399.3185    4.2494462    4.2494462    4.2494462   -2399.3185   -16527.698   -19076.743    28406.485    16876.481    2505.6555    8679.7802     76.73562 
   45700    914.12734   -107.29643   0.82712163   -106.46931   -4465.5572    4.2483735    4.2483735    4.2483735   -4465.5572   -17683.695   -9299.3637    13586.387   -9647.3053   -4364.8134    3011.0266    76.677523 
   45800    671.79209   -107.07748    0.6078516   -106.46963    1116.9308    4.2449926    4.2449926    4.2449926    1116.9308    -8859.082   -10701.693    22911.567    925.24974   -607.15367   -1329.6456    76.494607 
   45900    566.58775   -106.98703   0.51266051   -106.47437   -8053.8321    4.2493431    4.2493431    4.2493431   -8053.8321   -20417.159   -32508.786    28764.448    14102.126    2447.3817   -28.682819    76.730035 
   46000    920.52296   -107.30355   0.83290852   -106.47064   -3059.1477     4.251916     4.251916     4.251916   -3059.1477   -24356.842     4344.849     10834.55   -7949.0872   -2911.5003   -2906.8905    76.869495 
   46100    977.56561   -107.35427   0.88452191   -106.46974    7659.1986    4.2452303    4.2452303    4.2452303    7659.1986   -21259.702    33832.228     10405.07    2695.0884    4270.1599   -1083.8066    76.507456 
   46200    933.60333   -107.31902   0.84474391   -106.47427   -7614.0356    4.2467171    4.2467171    4.2467171   -7614.0356   -12599.946   -11656.244    1414.0831    12436.456   -3190.3612    -5872.783    76.587869 
   46300     1098.439   -107.46457    0.9938907   -106.47068     3384.687    4.2479943    4.2479943    4.2479943     3384.687    1843.6088   -1933.1595    10243.612   -4072.6447   -3558.9644    2220.8169    76.656994 
   46400    981.89632   -107.35888   0.88844042   -106.47044    764.16086    4.2481288    4.2481288    4.2481288    764.16086   -8854.2046   -21906.983    33053.671    4512.0483    10359.916   -795.83873    76.664274 
   46500    648.76315   -107.06257   0.58701453   -106.47556    -19892.77    4.2508493    4.2508493    4.2508493    -19892.77   -6571.7575   -65906.201    12799.647     7615.071    2643.3845    4285.4658    76.811656 
   46600    1034.7096   -107.40726   0.93622702   -106.47103    1618.4301    4.2418178    4.2418178    4.2418178    1618.4301    3529.2382   -16040.983    17367.036   -5797.5842    1815.8657    7933.2352    76.323104 
   46700    951.04133   -107.33333   0.86052219   -106.47281    1255.5941    4.2477582    4.2477582    4.2477582    1255.5941   -18076.136    15154.649    6688.2695    6823.5286    725.68862   -1150.5411    76.644212 
   46800    594.41806   -107.01553   0.53784195   -106.47769   -15972.948    4.2556164    4.2556164    4.2556164   -15972.948   -26529.289   -10047.859   -11341.695    5170.1093    1159.9609   -2053.5036    77.070363 
   46900    990.39041   -107.36627   0.89612605   -106.47014    16912.057    4.2408321    4.2408321    4.2408321    16912.057    5851.0505    32818.731    12066.389   -4826.2527    2822.8462    -2696.613    76.269909 
   47000    952.55882   -107.33449   0.86189524    -106.4726     9769.695    4.2445734    4.2445734    4.2445734     9769.695    625.76808    5273.5242    23409.793    6092.3144   -3244.0044   -7802.2016    76.471947 
   47100    631.40206   -107.04823   0.57130585   -106.47693   -26795.692    4.2586073    4.2586073    4.2586073   -26795.692   -17271.401   -57109.403   -6006.2734    3340.0548   -321.00954    3959.8652    77.232981 
   47200    1142.5908   -107.50248    1.0338401   -106.46864    3429.3557     4.238876     4.238876     4.238876    3429.3557    8280.8307   -21088.987    23096.223   -1654.0447    447.96667    1993.4976    76.164418 
   47300     1114.075   -107.48004    1.0080385     -106.472    9702.0385    4.2395916    4.2395916    4.2395916    9702.0385   -5840.8984     36.47509    34910.539    4640.8666   -1766.8812    522.37349       76.203 
   47400    680.88864   -107.09202   0.61608235   -106.47594   -25829.285    4.2592071    4.2592071    4.2592071   -25829.285    -21025.97   -20149.196   -36312.689    2282.8919     3336.786     13405.99    77.265617 
   47500    917.18729    -107.2986   0.82989033   -106.46871    1122.9308    4.2432643    4.2432643    4.2432643    1122.9308   -10170.003    17703.577   -4164.7819   -428.98571   -4619.1151     2208.896     76.40121 
   47600    785.44024    -107.1809   0.71068283   -106.47022     11734.26    4.2400922    4.2400922    4.2400922     11734.26   -9771.0957    12491.791    32482.086    5759.1314   -5276.9419   -4131.0715    76.229999 
   47700    743.49054   -107.14621   0.67272587   -106.47348   -15724.199    4.2544144    4.2544144    4.2544144   -15724.199   -9175.4392    -29606.52   -8390.6381    879.45376    847.11053    8204.6344     77.00508 
   47800    942.35405   -107.32258   0.85266175   -106.46992   -6907.7706     4.249336     4.249336     4.249336   -6907.7706   -13701.225   -28440.437     21418.35    177.33112   -7809.0441   -3123.9599    76.729648 
   47900    942.38216   -107.32352   0.85268718   -106.47083     2589.186    4.2433038    4.2433038    4.2433038     2589.186    -15795.03   -24505.546    48068.134    6786.6173   -1725.7953   -1431.6438    76.403347 
   48000    1079.2929    -107.4479   0.97656687   -106.47133    3974.7744    4.2434249    4.2434249    4.2434249    3974.7744     -3787.76    3525.6468    12186.437   -1500.2307    5170.3697    -1369.506    76.409888 
   48100    1094.2411   -107.46222   0.99009231   -106.47213    5314.0332    4.2492166    4.2492166    4.2492166    5314.0332   -18787.947    5208.7238    29521.322    2818.7728   -7285.6003    4641.4933    76.723183 
   48200     818.0157   -107.21548    0.7401578   -106.47532   -4976.4197    4.2508184    4.2508184    4.2508184   -4976.4197   -37107.291    9899.1872    12278.845    6165.4774   -2935.1237    4763.6687    76.809982 
   48300    931.93825   -107.31486   0.84323731   -106.47162    2638.3507    4.2382085    4.2382085    4.2382085    2638.3507    -4497.409    9381.4136    3031.0475   -3959.8177    3665.6738    1834.4907    76.128444 
   48400    772.46659   -107.17213   0.69894401   -106.47319    8639.5151    4.2457909    4.2457909    4.2457909    8639.5151     1527.963   -14385.686    38776.269    616.79392   -1292.4334    2597.4684     76.53777 
   48500    575.35962    -106.9948   0.52059748   -106.47421   -18987.099    4.2580481    4.2580481    4.2580481   -18987.099   -33723.033   -52908.824    29670.559    38.743857   -1952.8898   -1158.7096    77.202556 
   48600    793.16704   -107.18883   0.71767421   -106.47116    7076.5278    4.2390237    4.2390237    4.2390237    7076.5278    3752.5298   -10590.596     28067.65   -2960.2342    491.44318    6896.8471    76.172383 
   48700    1087.4698   -107.45556   0.98396554    -106.4716    15179.633    4.2394781    4.2394781    4.2394781    15179.633    2366.1597   -3444.4093    46617.148    1685.3566    4926.9166   -3368.0111    76.196881 
   48800    1243.2202   -107.59806    1.1248917   -106.47317   -17379.224    4.2562521    4.2562521    4.2562521   -17379.224   -44252.509   -15959.232    8074.0704   -3083.1353    3168.6799     1062.853    77.104907 
   48900    1065.0577   -107.43795   0.96368657   -106.47426    8044.7545    4.2442703    4.2442703    4.2442703    8044.7545   -20200.451    19520.276    24814.438   -3568.2148    5564.6733    4256.3433    76.455564 
   49000    1019.3028   -107.39423   0.92228659   -106.47195    8839.3822     4.242026     4.242026     4.242026    8839.3822   -12516.951    778.16052    38256.937    1999.5216    4869.3244    188.74434    76.334342 
   49100    681.06225   -107.09015   0.61623944   -106.47391   -2720.5146     4.249219     4.249219     4.249219   -2720.5146   -15369.681   -38578.302    45786.439    116.99118   -1317.9863    1055.2951    76.723313 
   49200    546.20012   -106.96758   0.49421335   -106.47337   -2327.9955     4.245067     4.245067     4.245067   -2327.9955   -1374.2616   -28752.102    23142.377   -1118.6197    3432.3291    177.07997    76.498627 
   49300    633.49118   -107.04855   0.57319613   -106.47536   -11224.044    4.2478484    4.2478484    4.2478484   -11224.044   -8159.0506   -22640.625   -2872.4564    237.05147    5390.6587    9397.0629    76.649094 
   49400    1049.4461   -107.42409   0.94956088   -106.47453     4827.957    4.2439205    4.2439205    4.2439205     4827.957   -13404.358   -12532.864    40421.094   -1178.8904   -7211.4847    -8281.388    76.436663 
   49500     1430.298   -107.76743    1.2941637   -106.47326     4288.712    4.2444392    4.2444392    4.2444392     4288.712   -13408.743    10042.034    16232.846    610.11836    3780.5299    12249.722    76.464691 
   49600     994.3925   -107.37762   0.89974723   -106.47788   -3378.1749    4.2491803    4.2491803    4.2491803   -3378.1749   -26504.761   -223.04171    16593.278    4757.3153     5501.496    5228.4613    76.721215 
   49700    855.57469   -107.24956   0.77414196   -106.47542    862.74169    4.2412898    4.2412898    4.2412898    862.74169   -18240.038   -18032.753    38861.016   -1845.4627   -8183.2802   -3465.1259    76.294608 
   49800    722.90723   -107.12695   0.65410166   -106.47285   -6152.3405    4.2478748    4.2478748    4.2478748   -6152.3405    7681.8157   -33929.676     7790.839   -2185.6909    3716.6208    7378.4626    76.650525 
   49900    482.13465    -106.9112   0.43624557   -106.47495   -14731.981    4.2481652    4.2481652    4.2481652   -14731.981   -7218.2553    -42719.91    5742.2212    3044.0671    3271.6129    6328.5065    76.666245 
   50000    705.26374   -107.11391   0.63813745   -106.47577    8971.7357    4.2405856    4.2405856    4.2405856    8971.7357   -7255.3983   -10539.699    44710.304     1428.073   -10361.055   -6750.8148    76.256613 
   50100    1453.0831    -107.7871    1.3147802   -106.47232   -8460.4056    4.2508916    4.2508916    4.2508916   -8460.4056   -11515.071   -6242.4846   -7623.6609    641.64444    669.16848     1745.049    76.813949 
   50200    1148.2964   -107.51385    1.0390027   -106.47485    6690.8603    4.2435434    4.2435434    4.2435434    6690.8603   -9840.7875    7655.8956    22257.473   -1400.2914    1664.0477    9385.8926    76.416289 
   50300    976.95617   -107.35993   0.88397047   -106.47596    1142.8802    4.2396358    4.2396358    4.2396358    1142.8802   -18812.486    9584.1401    12656.986   -2589.7393   -4670.4998   -6664.5217    76.205383 
   50400    835.58759   -107.23032   0.75605721   -106.47426   -15675.826    4.2548065    4.2548065    4.2548065   -15675.826   -12254.026   -34393.711    -379.7407    3109.8293    479.15396    12460.917    77.026372 
   50500    424.44498    -106.8582   0.38404674   -106.47415   -1337.7327    4.2461192    4.2461192    4.2461192   -1337.7327    8825.0668   -46188.849    33350.584   -1529.7077   -1263.7119    -765.5263    76.555527 
   50600    551.25519   -106.97377   0.49878728   -106.47499   -6635.9802    4.2407523    4.2407523    4.2407523   -6635.9802   -15057.083   -18532.286    13681.429   -3408.2086    -4164.412   -5303.9628    76.265604 
   50700    980.29967   -107.36145   0.88699574   -106.47446   -314.39038    4.2473052    4.2473052    4.2473052   -314.39038   -8706.3753    4185.7168    3577.4873    1833.9264   -2095.9652    10046.233    76.619693 
   50800    1395.7883   -107.73619    1.2629386   -106.47325   -3101.8521    4.2471431    4.2471431    4.2471431   -3101.8521   -15644.638   -2968.5499    9307.6311   -1611.9148   -5405.8706    -7273.548     76.61092 
   50900    1063.7467   -107.44083   0.96250036   -106.47833    3756.0284     4.245997     4.245997     4.245997    3756.0284    -13981.62    8746.3628    16503.342   -399.52581   -6838.4782    1425.4598    76.548915 
   51000    1134.3301    -107.4991    1.0263657   -106.47274    7878.8426    4.2413311    4.2413311    4.2413311    7878.8426   -3645.3075    2447.0771    24834.758    924.49295   -215.27606    7803.7939    76.296839 
   51100    600.56501   -107.01932   0.54340384   -106.47592    3342.9387    4.2481379    4.2481379    4.2481379    3342.9387    2586.0354   -41031.146    48473.927   -4710.7261    2986.2951   -6291.0335    76.664765 
   51200    505.53827   -106.93112   0.45742165    -106.4737   -13815.194    4.2496171    4.2496171    4.2496171   -13815.194   -3248.7039   -46844.927    8648.0474   -5322.0363   -9373.2019   -7832.1558    76.744878 
   51300    718.24605   -107.11909   0.64988412   -106.46921    12033.216     4.239357     4.239357     4.239357    12033.216   -3082.6347    1411.9891    37770.293    2242.4195   -362.23269    9439.6336    76.190348 
   51400    918.30863    -107.3053   0.83090495    -106.4744   -3560.2582    4.2467592    4.2467592    4.2467592   -3560.2582   -15986.897   -14302.918     19609.04    -3627.232    6251.2411   -12461.609    76.590151 
   51500    1194.9822   -107.55607     1.081245   -106.47483    3731.3334    4.2481349    4.2481349    4.2481349    3731.3334   -19751.639    -579.8093    31525.448   -9643.7076   -5719.9558   -12249.751    76.664604 
   51600    1383.3274   -107.72285    1.2516637   -106.47118    15729.122    4.2452094    4.2452094    4.2452094    15729.122   -7989.6928    20326.425    34850.633    1390.7308    4699.8917    18347.918    76.506325 
   51700    893.06586   -107.28352   0.80806476   -106.47546   -7002.6575    4.2490579    4.2490579    4.2490579   -7002.6575   -13778.238   -28942.343    21712.609   -6808.6122    3320.4654   -1566.9848    76.714586 
   51800    740.59637   -107.14309   0.67010716   -106.47298   -66.993427    4.2430272    4.2430272    4.2430272   -66.993427    2852.3206   -33078.589    30025.288   -5941.8811   -3921.8961   -8071.3902    76.388408 
   51900    783.05024   -107.18099   0.70852032   -106.47247   -6302.0086    4.2474714    4.2474714    4.2474714   -6302.0086   -141.01555   -15807.621   -2957.3895    4465.3279    4376.3752    4590.2805    76.628687 
   52000    278.53395   -106.73195   0.25202337   -106.47993    -12194.21    4.2489558    4.2489558    4.2489558    -12194.21   -18568.657   -25714.083    7700.1114   -11211.356    6599.8221    -4346.118    76.709056 
   52100    939.90033   -107.32426   0.85044157   -106.47381    2442.8845    4.2371075    4.2371075    4.2371075    2442.8845   -5352.2153   -3583.0365    16263.905   -6537.0727   -2558.1566   -20163.968    76.069128 
   52200    1197.6963     -107.559    1.0837007    -106.4753   -9514.6886    4.2531568    4.2531568    4.2531568   -9514.6886   -25826.915    2294.1643   -5011.3152    6755.4887    3080.5859   -268.74779    76.936813 
   52300    889.91422   -107.28382   0.80521309   -106.47861   -13373.466    4.2517077    4.2517077    4.2517077   -13373.466   -17541.905   -15426.594   -7151.8986   -10798.569    4054.3634   -5830.9349    76.858198 
   52400    1210.3319   -107.56368    1.0951337   -106.46855    19005.347    4.2323746    4.2323746    4.2323746    19005.347    9537.0818    3933.7475    43545.211    -6324.203    382.89817   -4126.9715    75.814504 
   52500    1114.2565   -107.48344    1.0082027   -106.47524   -617.00367     4.250591     4.250591     4.250591   -617.00367   -10758.649   -24000.669    32908.307     6422.325    1418.0465     8698.554    76.797652 
   52600    635.97451   -107.04963    0.5754431   -106.47418   -5755.8993    4.2551959    4.2551959    4.2551959   -5755.8993   -7020.0703   -34759.068    24511.441   -11829.417    2875.2264   -11031.506    77.047521 
   52700    813.38503   -107.20467   0.73596787    -106.4687    2266.1122    4.2412679    4.2412679    4.2412679    2266.1122   -3835.7419   -20888.669    31522.747   -266.26767    1246.5265   -940.41748    76.293428 
   52800    903.74959   -107.28768   0.81773162   -106.46995    -12638.19    4.2474323    4.2474323    4.2474323    -12638.19   -20715.584   -13544.895     -3654.09     8967.345   -6678.4505    1399.9709    76.626571 
   52900    875.18402   -107.26326   0.79188489   -106.47138   -3636.4843    4.2519917    4.2519917    4.2519917   -3636.4843   -18657.767   -2440.1424    10188.456    -12484.16    5606.4826   -11067.806      76.8736 
   53000     978.3291   -107.35576   0.88521273   -106.47054   -2423.4197    4.2521568    4.2521568    4.2521568   -2423.4197   -15082.352    9385.5082   -1573.4153    5181.1153   -1686.9327    37.869553    76.882553 
   53100    1046.0147   -107.41563   0.94645612   -106.46917    1251.9158    4.2417957    4.2417957    4.2417957    1251.9158   -12942.095   -2772.5677     19470.41    7478.8962   -8900.9968    6037.6028     76.32191 
   53200    856.46746   -107.24818   0.77494976   -106.47323    17572.935    4.2436546    4.2436546    4.2436546    17572.935    191.86851    354.84201    52172.095   -9589.6325    3168.0713   -12191.433    76.422296 
   53300    793.08792   -107.18953   0.71760261   -106.47192   -18512.762    4.2629234    4.2629234    4.2629234   -18512.762   -25886.949   -32137.909    2486.5705     8130.735   -10548.598   -3181.9102    77.468041 
   53400     849.9313   -107.24086    0.7690357   -106.47183    4035.6159    4.2390605    4.2390605    4.2390605    4035.6159   -8807.6531   -13529.732    34444.233    2312.5791   -7296.9499    368.75098    76.174368 
   53500    978.28624   -107.35765   0.88517395   -106.47248    18057.323    4.2338917    4.2338917    4.2338917    18057.323    3579.9633    23897.095    26694.912   -10014.776    6387.3709   -12394.288    75.896059 
   53600    859.42868   -107.24904   0.77762913   -106.47141   -24994.799    4.2658311    4.2658311    4.2658311   -24994.799    -43603.62     9275.954    -40656.73    6349.1827   -12687.774   -9235.0943    77.626672 
   53700    955.36021   -107.33615   0.86442999   -106.47172   -678.53062    4.2418832    4.2418832    4.2418832   -678.53062   -16254.121    25507.608   -11289.079    6167.8008   -10394.248    4647.4374    76.326634 
   53800    959.13436   -107.33616   0.86784492   -106.46832    20520.914    4.2305828    4.2305828    4.2305828    20520.914    11875.539    32447.212     17239.99   -14517.104    5612.2099    2083.0983    75.718256 
   53900    770.30188    -107.1687   0.69698533   -106.47172   -32126.299    4.2615279    4.2615279    4.2615279   -32126.299   -26648.068    -40434.41   -29296.421    2528.4591   -12862.453   -9824.9315    77.391989 
   54000    836.57554   -107.22556   0.75695113   -106.46861   -9492.7699    4.2468273    4.2468273    4.2468273   -9492.7699   -3552.6056   -30150.148    5224.4434    7090.6291   -12669.979    8051.3688     76.59383 
   54100    923.40283   -107.30358   0.83551428   -106.46807    6678.1747    4.2423729    4.2423729    4.2423729    6678.1747    9849.7329   -13824.882    24009.673   -12975.426    3181.2615   -5133.8313    76.353073 
   54200    1020.7676   -107.39365   0.92361196   -106.47004   -11257.959    4.2536852    4.2536852    4.2536852   -11257.959    -23063.22     1737.162   -12447.819    1475.3862   -5509.8374   -13065.551    76.965489 
   54300    1115.1187   -107.47827    1.0089828   -106.46929    15468.699    4.2422117    4.2422117    4.2422117    15468.699   -15424.946    47506.773    14324.271    2731.8606    -3997.026    971.20778     76.34437 
   54400    957.82402   -107.34081    0.8666593   -106.47415   -680.80058    4.2530029    4.2530029    4.2530029   -680.80058   -18373.375    15185.913    1145.0597   -7947.6196    3441.5088    -11053.63     76.92846 
   54500    726.81173    -107.1319   0.65763453   -106.47426   -2447.2682    4.2477433    4.2477433    4.2477433   -2447.2682   -16972.911    17945.259   -8314.1534     4474.127    -5672.297   -19570.526    76.643405 
   54600    729.90523   -107.12942   0.66043359   -106.46899    9956.1396    4.2397832    4.2397832    4.2397832    9956.1396    1541.1594    5751.8254    22575.434    8799.8004   -2976.9333    1860.2938    76.213334 
   54700    568.85746   -106.98672   0.51471419     -106.472   -21206.251    4.2609969    4.2609969    4.2609969   -21206.251    -2016.656   -55422.396   -6179.7009   -4997.1729    6864.2224   -7830.3441    77.363065 
   54800     754.2716   -107.15455   0.68248079   -106.47207    3328.4676    4.2412676    4.2412676    4.2412676    3328.4676    11038.069    406.75906   -1459.4257    1763.2151     -8015.24   -19329.465    76.293407 
   54900    1170.3935   -107.52981    1.0589967   -106.47082    11296.525    4.2363476    4.2363476    4.2363476    11296.525    3612.6035    12627.032    17649.939    3134.3778   -5408.5965    4863.8899     76.02821 
   55000    1017.2307   -107.39228   0.92041168   -106.47187   -23644.079     4.260035     4.260035     4.260035   -23644.079   -27894.647   -23960.367   -19077.223   -10001.216    6651.1514   -7411.6889     77.31068 
   55100    919.13187   -107.30304   0.83164983   -106.47139   -3471.0249    4.2414867    4.2414867    4.2414867   -3471.0249   -12251.077     13343.99   -11505.987   -1405.9374   -2767.1427   -6905.7529    76.305236 
   55200    936.86227   -107.31723   0.84769267   -106.46954    7068.1211    4.2409885    4.2409885    4.2409885    7068.1211   -7058.6297    29303.687   -1040.6941   -2916.2068    -5376.879    5748.0768    76.278348 
   55300    732.43809   -107.13479   0.66272538   -106.47207   -15711.574    4.2530035    4.2530035    4.2530035   -15711.574    1807.5489   -34296.785   -14645.485   -7422.6785    2487.5251   -12662.898    76.928495 
   55400    623.16968   -107.03814   0.56385702   -106.47429    4993.2318    4.2416055    4.2416055    4.2416055    4993.2318     26119.22    12632.832   -23772.356   -1972.4142   -3168.0273   -8755.3516    76.311646 
   55500    1088.7961   -107.45737   0.98516563    -106.4722   -6054.8084    4.2504053    4.2504053    4.2504053   -6054.8084    6578.2975   -4691.3564   -20051.366   -6590.1442   -2920.0236    1764.6042     76.78759 
   55600    1136.0281   -107.49974    1.0279021   -106.47184   -1276.3808     4.245117     4.245117     4.245117   -1276.3808    527.97627    4131.9938   -8489.1124   -9886.3721    221.85592   -14445.548    76.501332 
   55700    782.31783   -107.18256   0.70785761    -106.4747     11039.98    4.2392535    4.2392535    4.2392535     11039.98   -7758.9111     38550.41    2328.4415   -340.91537    -9970.572   -14173.875    76.184772 
   55800    966.00611   -107.34754   0.87406263   -106.47348   -15246.466    4.2554339    4.2554339    4.2554339   -15246.466   -45142.781    3237.1549   -3833.7727   -1446.9969   -10265.095    6934.3954    77.060454 
   55900    802.37987   -107.19759   0.72601016   -106.47158    15323.553    4.2420499    4.2420499    4.2420499    15323.553   -4697.1019    18614.974    32052.788   -8558.8456   -284.29301   -5910.1109    76.335636 
   56000    714.82616   -107.12109   0.64678973    -106.4743    6130.2378    4.2420293    4.2420293    4.2420293    6130.2378    17506.104   -6099.3151    6983.9248    3223.8779   -12584.894   -11701.434     76.33452 
   56100    903.47237    -107.2888   0.81748079   -106.47132   -16361.145    4.2573025    4.2573025    4.2573025   -16361.145   -2784.6375   -29041.874   -17256.924     996.3258   -3992.2363    11714.275    77.162011 
   56200    1139.9715    -107.4975    1.0314702   -106.46603    11677.367    4.2399091    4.2399091    4.2399091    11677.367     21092.31    6405.3087    7534.4827   -10341.146    2781.9254   -1079.0372     76.22012 
   56300    852.31735   -107.24291   0.77119465   -106.47171     6871.926    4.2418278    4.2418278    4.2418278     6871.926    2814.1874    15643.179    2158.4114    902.63894   -10113.075   -7529.4502    76.323642 
   56400    712.35979   -107.11801    0.6445581   -106.47345   -26442.446    4.2551266    4.2551266    4.2551266   -26442.446   -49448.107   -3822.7148   -26056.517   -1865.0208   -1433.1448    12482.047    77.043758 
   56500    876.57416   -107.26201   0.79314273   -106.46887    3751.1118    4.2387965    4.2387965    4.2387965    3751.1118   -26252.512     21902.64    15603.207   -5741.2274    5664.9085   -582.13031    76.160132 
   56600    996.63817   -107.37368   0.90177916    -106.4719   -1357.5843    4.2456307    4.2456307    4.2456307   -1357.5843    1689.5229   -1988.3937    -3773.882     590.7993   -3483.1963    -3570.439    76.529106 
   56700    878.07427   -107.26817   0.79450005   -106.47367   -19392.795    4.2550158    4.2550158    4.2550158   -19392.795    1956.2024   -20972.619   -39161.967   -2173.5954    1976.9829    13600.319    77.037741 
   56800    1191.1991   -107.54644     1.077822   -106.46862    12886.386    4.2357056    4.2357056    4.2357056    12886.386    31369.794    6365.6236    923.74052    111.50737    5509.2156    819.93645    75.993648 
   56900    1047.1035   -107.42009   0.94744123   -106.47264    13999.716    4.2445199    4.2445199    4.2445199    13999.716     23802.47    4196.9904    13999.688    2602.4627    182.86251    -7823.813    76.469055 
   57000    484.18479   -106.91464   0.43810058   -106.47654   -18648.483    4.2549752    4.2549752    4.2549752   -18648.483   -31087.934   -4919.3932   -19938.123    354.71196    6073.2546    7590.7453    77.035535 
   57100    544.13812   -106.96469   0.49234761   -106.47234    4430.3904    4.2397139    4.2397139    4.2397139    4430.3904   -33159.144    17754.187    28696.129    -3775.759    5966.2159    1121.9799    76.209595 
   57200    1022.5046    -107.3953   0.92518365   -106.47012    4783.5336    4.2452458    4.2452458    4.2452458    4783.5336    -17930.97    8266.8684    24014.702    1791.1593   -2263.9149   -9463.2286    76.508294 
   57300    823.89712   -107.22168   0.74547943    -106.4762    -416.0965    4.2505919    4.2505919    4.2505919    -416.0965    3369.1142   -1525.8354   -3091.5684    807.98479    6930.1653    2687.2735    76.797705 
   57400    1190.6292   -107.55014    1.0773064   -106.47283    4068.7033    4.2444468    4.2444468    4.2444468    4068.7033    12704.883    5940.5637    -6439.337   -9135.2287    4381.7158   -237.37807    76.465105 
   57500    1387.1075    -107.7219    1.2550841   -106.46681     6473.118    4.2484785    4.2484785    4.2484785     6473.118    21199.879    5158.4003   -6938.9257    5624.5622   -6495.1296   -5906.9072    76.683207 
   57600    637.55889   -107.05064   0.57687669   -106.47377   -17263.278    4.2494835    4.2494835    4.2494835   -17263.278   -19768.412    4125.0043   -36146.424   -421.79911    4651.7225     9693.651    76.737643 
   57700    441.20022   -106.87359   0.39920723   -106.47438   -16408.391     4.244592     4.244592     4.244592   -16408.391   -44398.904    16035.218   -20861.487   -7008.8897     2979.465    4773.5473    76.472952 
   57800    994.26272   -107.37025    0.8996298   -106.47062    889.14076    4.2451845    4.2451845    4.2451845    889.14076   -19152.828    10257.098    11563.153     8748.511    -3661.145   -1296.7011    76.504982 
   57900    813.59922    -107.2122   0.73616167   -106.47604    6023.8124    4.2483493    4.2483493    4.2483493    6023.8124    4346.8912    7102.0956    6622.4504   -4067.3078    4602.7013    16868.489    76.676213 
   58000    1017.7081   -107.39758   0.92084364   -106.47674    646.52755     4.249551     4.249551     4.249551    646.52755   -6618.7895   -1613.9883     10172.36    -3425.164    2708.2579    10080.407    76.741297 
   58100    1363.1506   -107.69939    1.2334073   -106.46598    11364.549    4.2482472    4.2482472    4.2482472    11364.549    23605.072   -14118.079    24606.655   -193.86155   -1655.9224   -2910.9885    76.670684 
   58200    834.32017   -107.22607   0.75491042   -106.47116    1718.9777    4.2432033    4.2432033    4.2432033    1718.9777    8512.2759   -7662.2347     4306.892   -8777.4506    6458.0008    18523.819    76.397917 
   58300    456.68202   -106.88784   0.41321549   -106.47463    -1488.283    4.2441334    4.2441334    4.2441334    -1488.283    -22800.56    18756.162   -420.45182   -1068.9366    6047.1232    3764.6224    76.448168 
   58400    748.58973   -107.14696   0.67733972   -106.46963   -3878.1713    4.2498199    4.2498199    4.2498199   -3878.1713   -25344.848    2821.6097    10888.724   -2756.6871    613.86503    -3953.181    76.755864 
   58500    673.05488   -107.08244    0.6089942   -106.47345    6078.6835    4.2430707    4.2430707    4.2430707    6078.6835    11684.677     10790.65   -4239.2772   -6553.8109    6749.6792     19150.62    76.390757 
   58600    902.97652   -107.29024   0.81703213    -106.4732     6840.529    4.2423618    4.2423618    4.2423618     6840.529    1421.1789     25970.62   -6870.2117   -6971.5071    9018.8298    1785.9042    76.352474 
   58700    1274.6926   -107.62233    1.1533686   -106.46896   -8294.8393    4.2521437    4.2521437    4.2521437   -8294.8393    4113.5756   -17518.788   -11479.306    1674.0915   -376.09497   -8564.2309    76.881846 
   58800    1055.7099   -107.42748   0.95522851   -106.47225   -833.94593    4.2414644    4.2414644    4.2414644   -833.94593    25544.751   -19930.875   -8115.7131    4090.7384    7171.3958    17202.865    76.304032 
   58900     956.7811   -107.33822   0.86571565    -106.4725    4878.3901    4.2397949    4.2397949    4.2397949    4878.3901    4568.5142    10436.273   -369.61733   -7414.0528    7577.3366     2144.216    76.213963 
   59000    804.61834   -107.20008   0.72803558   -106.47205   -8039.9181    4.2526873    4.2526873    4.2526873   -8039.9181   -7288.2585   -16544.321    -287.1743     2100.611   -9367.4535     -14036.5    76.911337 
   59100    578.38012   -106.99475   0.52333048   -106.47142   -579.68996    4.2441683    4.2441683    4.2441683   -579.68996    8484.1289   -3531.1922   -6692.0066    2191.8602    5786.4827    16393.071    76.450055 
   59200    776.35099   -107.17259   0.70245869   -106.47013    1543.4102    4.2423513    4.2423513    4.2423513    1543.4102   -6645.1154    19688.451   -8413.1047    1297.8185    7652.7608     919.8023    76.351906 
   59300    1025.8137   -107.39727   0.92817783   -106.46909   -4577.7726     4.247369     4.247369     4.247369   -4577.7726   -3553.7475   -4659.6156   -5519.9546    5910.5137   -9675.3564   -12194.365    76.623148 
   59400    960.59241   -107.34168    0.8691642   -106.47252    2010.9189     4.243201     4.243201     4.243201    2010.9189    14636.895   -18229.803    9625.6643   -4443.1029     5117.596    18295.498    76.397795 
   59500    1165.9356    -107.5267    1.0549631   -106.47174    2432.7726    4.2468698    4.2468698    4.2468698    2432.7726   -4391.6401   -12.510911    11702.469    -325.5723    10609.423    1652.7426     76.59613 
   59600    1122.6802   -107.48579    1.0158246   -106.46996    2987.3721    4.2449163    4.2449163    4.2449163    2987.3721    15707.212   -18541.192    11796.097    1087.1057   -4452.1971   -4583.4469    76.490483 
   59700    631.37096   -107.04543   0.57127771   -106.47415    481.40516    4.2397315    4.2397315    4.2397315    481.40516    20762.047   -20161.032    843.20093    1529.7738     7739.338    18345.504    76.210543 
   59800    753.41958   -107.15592   0.68170987   -106.47421   -11681.931    4.2497856    4.2497856    4.2497856   -11681.931   -10142.634    2157.8882   -27061.048   -158.27303    14395.189    1296.3463    76.754008 
   59900    951.32468   -107.33064   0.86077856   -106.46986   -2632.2524    4.2464155    4.2464155    4.2464155   -2632.2524   -5586.4708        13441   -15751.286   -5227.6582   -2716.0093   -1544.8848    76.571554 
   60000    663.28065   -107.07462   0.60015027   -106.47447    10909.925    4.2367436    4.2367436    4.2367436    10909.925    3741.3983    26501.623    2486.7531    2451.8362    10088.892    12500.213    76.049532 
   60100    1041.2244   -107.41774   0.94212171   -106.47562   -1494.7889    4.2508091    4.2508091    4.2508091   -1494.7889   -28202.245    16111.199    7606.6796    960.23088    13800.908     3004.323    76.809474 
   60200    1346.0309   -107.68607     1.217917   -106.46815    8091.1618    4.2478189    4.2478189    4.2478189    8091.1618   -4181.6413     10178.28    18276.846    3179.7735   -7614.4271   -7627.3831    76.647497 
   60300    820.77183   -107.21615    0.7426516    -106.4735    8443.1693    4.2349653    4.2349653    4.2349653    8443.1693    26560.756   -11794.493    10563.245    64.851269    11735.159    12069.175    75.953811 
   60400    760.09883   -107.16348   0.68775339   -106.47573   -14474.006    4.2490171    4.2490171    4.2490171   -14474.006   -4706.5818   -20697.796   -18017.641    434.41167    11784.659    4943.6673    76.712374 
   60500     958.8449   -107.33601   0.86758301   -106.46843   -6696.8025    4.2475481    4.2475481    4.2475481   -6696.8025    4353.1562   -9190.5681   -15252.996    3008.7478   -7845.4203   -6715.0023    76.632839 
   60600    449.11294    -106.8802   0.40636682   -106.47383    6862.7474    4.2383606    4.2383606    4.2383606    6862.7474    12636.619    31264.323   -23312.699   -1747.4315    17431.529    18020.251    76.136641 
   60700    791.22458   -107.19075   0.71591663   -106.47484   -10756.286    4.2462774    4.2462774    4.2462774   -10756.286   -24910.726    7323.2309   -14681.361    6509.9473    5038.6501   -167.92346    76.564083 
   60800    1196.2777   -107.55211    1.0824172   -106.46969    4709.7618    4.2449993    4.2449993    4.2449993    4709.7618   -18175.107    23339.989    8964.4031   -2338.4111   -9078.8296    92.701801     76.49497 
   60900    1101.3722   -107.47142   0.99654475   -106.47487     -1844.85    4.2419813    4.2419813    4.2419813     -1844.85   -1246.4478     4826.602   -9114.7042   -3981.8198     22583.04    17638.801    76.331932 
   61000    1012.5578   -107.39161   0.91618356   -106.47543    3304.7266    4.2436608    4.2436608    4.2436608    3304.7266   -2250.9192    14068.615    -1903.516    6041.4643    1091.5171   -464.11401     76.42263 
   61100    1157.8721   -107.51874     1.047667   -106.47107   -1130.4654    4.2444934    4.2444934    4.2444934   -1130.4654    917.09836   -146.96652   -4161.5281    4396.0037   -12208.575    5185.4778     76.46762 
   61200    521.18897   -106.94728   0.47158273    -106.4757    3278.2164    4.2460076    4.2460076    4.2460076    3278.2164    11588.204    30843.315    -32596.87   -1236.7628    19988.029     7843.573    76.549492 
   61300    652.45859   -107.06269   0.59035824   -106.47233   -8774.2697    4.2421323    4.2421323    4.2421323   -8774.2697   -4285.6801    3807.9988   -25845.128   -665.87619   -2721.5105    4397.2072    76.340081 
   61400    679.38605   -107.08666   0.61472277   -106.47194    -4586.424    4.2429096    4.2429096    4.2429096    -4586.424     -12379.7    653.65883   -2033.2307    6282.2341   -7943.3351    -2026.075    76.382056 
   61500    865.20469   -107.25662   0.78285538   -106.47376   -14663.281    4.2478489    4.2478489    4.2478489   -14663.281   -19514.689   -2064.4194   -22410.736   -7683.1875    18041.308    7114.7506    76.649121 
   61600    1120.7393   -107.48582    1.0140684   -106.47175     7890.817    4.2434676    4.2434676    4.2434676     7890.817   -9814.4218    35321.719   -1834.8457    3366.1455   -5486.9129     5642.696    76.412196 
   61700    1356.8306   -107.69828    1.2276889   -106.47059   -1017.5798    4.2422085    4.2422085    4.2422085   -1017.5798   -14743.562    10504.706    1186.1161    -1667.109   -2210.6922   -11344.682    76.344197 
   61800    908.30694   -107.29733   0.82185521   -106.47547     1381.986    4.2457535    4.2457535    4.2457535     1381.986    200.64586    26760.829   -22815.516   -10143.241    15830.436    9323.5541     76.53575 
   61900    950.03258   -107.33091   0.85960944    -106.4713   -8662.1835    4.2460619    4.2460619    4.2460619   -8662.1835    1772.2423   -158.28689   -27600.506    8928.2092   -10278.805     3161.238    76.552429 
   62000    594.97817   -107.00886   0.53834875   -106.47051   -13256.194    4.2448479    4.2448479    4.2448479   -13256.194   -7851.2745   -10603.659   -21313.649    2047.5193   -1050.3502   -4831.7261    76.486784 
   62100    493.27016   -106.92007    0.4463212   -106.47375   -13409.926    4.2447912    4.2447912    4.2447912   -13409.926   -7083.8493   -6558.0358   -26587.894   -1572.8458     13585.85    9042.2637    76.483716 
   62200    890.01559   -107.27647   0.80530481   -106.47116    7103.2305    4.2438895    4.2438895    4.2438895    7103.2305   -4209.0693    34559.308   -9040.5473     183.0326   -9449.0164    4441.7218    76.434986 
   62300    1194.0672   -107.55237    1.0804171   -106.47195    395.72105    4.2433222    4.2433222    4.2433222    395.72105   -5622.1999    12090.029   -5280.6662    9585.2955    2031.6105    1914.6116     76.40434 
   62400    1010.6632     -107.392   0.91446932   -106.47753   -1174.0282    4.2462734    4.2462734    4.2462734   -1174.0282    548.17652    15610.211   -19680.472    -2275.248     13219.48    10949.664    76.563868 
   62500     1297.589   -107.64439    1.1740858    -106.4703    -997.7184    4.2459061    4.2459061    4.2459061    -997.7184     8771.942    5860.8982   -17625.995   -6266.8811   -4871.6198    4734.8629    76.544003 
   62600    862.36992   -107.25042   0.78029043   -106.47013   -6827.5185    4.2438144    4.2438144    4.2438144   -6827.5185     7278.203   -5772.0176   -21988.741    669.51311     9392.956   -6648.6357    76.430929 
   62700    428.97208   -106.86107   0.38814295   -106.47293   -13393.414    4.2470736    4.2470736    4.2470736   -13393.414    14740.908   -18129.818   -36791.332    -11610.08    9869.8248    12117.292    76.607158 
   62800    650.00571    -107.0582   0.58813882   -106.47007     8962.309    4.2427003    4.2427003    4.2427003     8962.309    13785.541    21210.384   -8108.9974    1947.2127   -7984.9699    6771.0105    76.370752 
   62900    789.88393   -107.18606   0.71470358   -106.47135    6975.9763    4.2416222    4.2416222    4.2416222    6975.9763    8939.6213    26139.004   -14150.696    -2810.261    15006.695   -5605.5979    76.312546 
   63000    852.21182   -107.24802   0.77109917   -106.47692   -10570.981    4.2509865    4.2509865    4.2509865   -10570.981   -9845.9557    6948.8294   -28815.816   -6417.1446    8955.3171    10710.478    76.819094 
   63100    1316.3591   -107.65973    1.1910694   -106.46866    2541.7201     4.246464     4.246464     4.246464    2541.7201    1276.4788     16518.76   -10170.078    2877.4175    -5898.509    7367.4027    76.574178 
   63200    1202.1709   -107.55633    1.0877495   -106.46858    529.02088    4.2399617    4.2399617    4.2399617    529.02088   -1781.3853    20316.044   -16947.596   -2732.7913    19602.195     3459.457     76.22296 
   63300    774.25754   -107.17443   0.70056449   -106.47386   -9370.9998    4.2462571    4.2462571    4.2462571   -9370.9998    24239.766   -18674.839   -33677.927    5716.8446    6673.5465    12146.258    76.562986 
   63400    807.98232   -107.20023   0.73107938   -106.46915   -4969.4053    4.2467823    4.2467823    4.2467823   -4969.4053    15906.639   -13094.395    -17720.46   -4928.5339    2916.8364    2985.0727    76.591397 
   63500    600.06044   -107.01293   0.54294729   -106.46999   -1612.5075    4.2453712    4.2453712    4.2453712   -1612.5075    15988.782   -10665.598   -10160.707    660.04474    17922.928   -1912.6776    76.515076 
   63600    738.85545   -107.13955   0.66853193   -106.47102   -16186.209    4.2462832    4.2462832    4.2462832   -16186.209    397.45432   -25526.551   -23429.531    2035.8121    1578.3702    15039.426    76.564399 
   63700    1052.5212   -107.42271   0.95234327   -106.47036     2217.786     4.240643     4.240643     4.240643     2217.786   -3487.8112    15283.978   -5142.8092   -6480.6188    2231.5903   -3523.3899    76.259709 
   63800    1234.2875   -107.58964    1.1168093   -106.47283   -596.93334    4.2460435    4.2460435    4.2460435   -596.93334   -16116.521    33622.409   -19296.688    5838.2808    17055.132   -5502.9712    76.551433 
   63900    1033.9353   -107.40887   0.93552641   -106.47334    139.83153    4.2491199    4.2491199    4.2491199    139.83153    21886.447    1594.0074    -23060.96   -6421.1784   -4569.8765    15940.937    76.717942 
   64000    1017.7184   -107.39092   0.92085304   -106.47006    8444.2886    4.2383242    4.2383242    4.2383242    8444.2886    27636.221    9238.4467   -11541.802    3705.1424   -3770.9123   -5420.5788    76.134681 
   64100    638.62147   -107.05056   0.57783813   -106.47273    2135.5472    4.2448859    4.2448859    4.2448859    2135.5472    32370.259   -12115.024   -13848.593    2187.8523    19577.631    1120.8772    76.488838 
   64200    579.07235   -106.99524   0.52395684   -106.47128   -17562.935     4.250261     4.250261     4.250261   -17562.935    21023.617   -46772.426   -26939.995   -6058.7157   -2876.0118    13308.959    76.779767 
   64300    713.90752   -107.11605   0.64595853   -106.47009   -2162.8137    4.2393531    4.2393531    4.2393531   -2162.8137    17207.245   -6419.6939   -17275.993     3064.914     993.8929   -8339.9849    76.190142 
   64400    1058.4418   -107.42874   0.95770037   -106.47104   -3658.0956    4.2428258    4.2428258    4.2428258   -3658.0956   -11815.804    24518.481   -23676.964    -8967.889    18256.292    4939.0999    76.377528 
   64500    1045.1917   -107.41977   0.94571144   -106.47406   -1087.3962    4.2482724    4.2482724    4.2482724   -1087.3962    19600.248    1274.2985   -24136.735    4235.8124   -2630.4618    10657.835    76.672048 
   64600    1216.7255   -107.57233    1.1009188   -106.47141     2719.064    4.2429681    4.2429681    4.2429681     2719.064    12982.554    7414.2852   -12239.647   -3350.4436    5191.7668    -14798.78    76.385213 
   64700    1063.1842   -107.43233   0.96199142   -106.47034    272.74807    4.2428309    4.2428309    4.2428309    272.74807    10612.888   -1339.4726   -8455.1714   -3911.3211    10651.974    3265.0157    76.377805 
   64800    617.65912   -107.03332   0.55887095   -106.47445   -14167.734    4.2441183    4.2441183    4.2441183   -14167.734     21425.64     -48377.9   -15550.943    6287.5193   -3877.4127    13735.428     76.44735 
   64900    554.74871   -106.97562   0.50194829   -106.47368   -6786.4819    4.2451961    4.2451961    4.2451961   -6786.4819    36136.039   -37517.785   -18977.699   -6799.1646   -3244.8663   -15311.764    76.505609 
   65000    904.13689   -107.28729   0.81808206   -106.46921   -7454.4731    4.2462765    4.2462765    4.2462765   -7454.4731     6224.093   -5998.5938   -22588.918    12086.693     7783.342    5333.3469    76.564035 
   65100     807.8513   -107.20588   0.73096083   -106.47492   -186.24566    4.2401893    4.2401893    4.2401893   -186.24566    31086.688   -2385.8373   -29259.587   -962.17974   -250.28372    12499.825    76.235231 
   65200    1166.7933   -107.53215    1.0557391   -106.47641    2507.3562    4.2436341    4.2436341    4.2436341    2507.3562    15404.447     14197.37   -22079.749     2396.017   -11442.912   -15321.504    76.421187 
   65300    1361.7047   -107.70344     1.232099   -106.47134   -818.50274    4.2483698    4.2483698    4.2483698   -818.50274     2347.451    7509.7148   -12312.674    7057.4207    3637.0767    6580.5425    76.677323 
   65400    779.29064   -107.18122   0.70511855   -106.47611    -2584.663    4.2405266    4.2405266    4.2405266    -2584.663    28212.483   -26313.506   -9652.9667   -5571.7192     353.1511    3234.7515    76.253431 
   65500    607.38564   -107.02503   0.54957529   -106.47546   -2705.2993    4.2432421    4.2432421    4.2432421   -2705.2993    30535.274    -27024.65   -11626.522    6860.8139   -11692.708   -18163.696    76.400015 
   65600    795.58451   -107.18951   0.71986158   -106.46964   -8687.6105    4.2474747    4.2474747    4.2474747   -8687.6105    19469.873   -30547.104   -14985.601   -5880.2418    -4795.846    9380.5612    76.628869 
   65700    651.04282   -107.06236   0.58907723   -106.47328   -9964.3686    4.2409983    4.2409983    4.2409983   -9964.3686    32556.844   -31051.871   -31398.078    2314.0509   -757.98801    2194.0683    76.278877 
   65800    872.35903   -107.26505   0.78932878   -106.47572   -3083.2244    4.2439214    4.2439214    4.2439214   -3083.2244    15765.175    11978.376   -36993.225   -3390.2782   -8040.9269   -18671.357     76.43671 
   65900    1318.6953   -107.66384    1.1931832   -106.47066   -75.296626    4.2461962    4.2461962    4.2461962   -75.296626    1048.0578    20850.958   -22124.906   -4152.5274   -8065.8322    11547.261    76.559689 
   66000     1030.169   -107.40603   0.93211859   -106.47391    5406.0454    4.2404522    4.2404522    4.2404522    5406.0454     41283.92   -6859.9757   -18205.808    10739.423    3202.7801    2189.6218    76.249413 
   66100    909.82525   -107.29812   0.82322901   -106.47489   -3840.0337    4.2445237    4.2445237    4.2445237   -3840.0337    9831.5986   -3421.0217   -17930.678   -8802.8784   -7836.7221   -16017.677    76.469262 
   66200    871.80907   -107.25974   0.78883117    -106.4709   -4813.2694     4.246048     4.246048     4.246048   -4813.2694    15289.301   -22799.789   -6929.3199    4596.9044   -893.65065    7650.0595    76.551674 
   66300    688.77806   -107.09547   0.62322087   -106.47224   -11343.299    4.2414538    4.2414538    4.2414538   -11343.299    34709.224   -49070.565   -19668.557    2764.9634    3953.3736   -8507.4101    76.303458 
   66400    699.18658   -107.10597   0.63263871   -106.47333   -4272.0627    4.2444788    4.2444788    4.2444788   -4272.0627    22560.555    -3731.451   -31645.292   -923.12007   -10681.737   -13172.839    76.466836 
   66500    1048.4255   -107.41871   0.94863746   -106.47007    2550.9515    4.2445158    4.2445158    4.2445158    2550.9515    1693.2705    28427.912   -22468.328    7256.0982    1268.2304    6309.4414    76.468832 
   66600    876.59155   -107.26722   0.79315846   -106.47406    3685.4864    4.2432305    4.2432305    4.2432305    3685.4864    42481.186    3339.7901   -34764.517   -2493.6406    3027.0182   -18611.448    76.399386 
   66700    1123.3524   -107.48856    1.0164329   -106.47213   -1662.4983    4.2446737    4.2446737    4.2446737   -1662.4983    1537.0149    19615.395   -26139.905    7929.5981   -5509.5198   -12420.693    76.477369 
   66800    1011.4763   -107.38647   0.91520499   -106.47126      7054.56    4.2419022    4.2419022    4.2419022      7054.56    13701.248    4530.6573    2931.7746   -3081.9458   -2936.0494    8613.4765    76.327662 
   66900    666.92498   -107.07959   0.60344774   -106.47615   -14949.482     4.245829     4.245829     4.245829   -14949.482    17588.658   -51342.313   -11094.791    1163.1557    5311.1819   -14995.142    76.539829 
   67000    790.15086    -107.1878    0.7149451   -106.47285    1076.8678    4.2455019    4.2455019    4.2455019    1076.8678    31063.467   -23610.655   -4222.2089    8239.2456   -398.95793   -9101.6562    76.522144 
   67100    988.66946   -107.36452   0.89456891   -106.46995    11054.234    4.2403114    4.2403114    4.2403114    11054.234    16386.178    11644.942     5131.583   -12105.918   -1805.2195    2819.3765    76.241823 
   67200    597.67662   -107.01847   0.54079037   -106.47768     -4668.19      4.24755      4.24755      4.24755     -4668.19    27469.246   -2566.5829   -38907.233    6336.3434     5471.765   -17316.265    76.632944 
   67300     1182.517   -107.54133    1.0699663   -106.47136   -2054.0889    4.2465648    4.2465648    4.2465648   -2054.0889    6621.9161    20893.549   -33677.731   -1886.3934   -3991.8392   -303.05838    76.579631 
   67400      1218.07   -107.57189    1.1021354   -106.46976    7842.7058    4.2393373    4.2393373    4.2393373    7842.7058    18846.189    17348.161   -12666.233   -7177.4475     3634.811   -7148.3156    76.189287 
   67500    646.44386   -107.06502   0.58491599    -106.4801   -9433.1899    4.2447254    4.2447254    4.2447254   -9433.1899    10842.544   -24004.896   -15137.217    6863.7634    4835.9666   -22284.876    76.480165 
   67600    967.01998   -107.34893      0.87498   -106.47395    358.73148    4.2463716    4.2463716    4.2463716    358.73148    13086.244    -19072.23    7062.1805   -5717.6128    52.433417    7238.6972    76.569181 
   67700    953.56862   -107.33298   0.86280893   -106.47017    2481.4081    4.2452228    4.2452228    4.2452228    2481.4081    21591.797   -26028.672    11881.099    819.22717    97.281386   -6595.7062    76.507052 
   67800    602.07749   -107.01911   0.54477237   -106.47434   -13071.147    4.2457255    4.2457255    4.2457255   -13071.147     3204.026   -21354.384   -21063.083    2192.4349    4606.6754   -18403.824    76.534236 
   67900    922.68344   -107.30476   0.83486337    -106.4699   -1097.6899    4.2418918    4.2418918    4.2418918   -1097.6899   -2642.1149    22592.986    -23243.94     3048.556    4840.6584    7762.8384    76.327098 
   68000    1066.3731   -107.43567   0.96487677    -106.4708   -6345.3144    4.2451264    4.2451264    4.2451264   -6345.3144    3052.3599    12554.807   -34643.111   -4027.0852    -8064.613   -4203.8503    76.501841 
   68100    803.61108   -107.20169   0.72712419   -106.47457   -320.59265    4.2470441    4.2470441    4.2470441   -320.59265     23593.38   -2471.8861   -22083.272   -3285.6384    7700.5565   -11770.897    76.605563 
   68200    1038.7657   -107.40982   0.93989706   -106.46993    10632.887    4.2416746    4.2416746    4.2416746    10632.887    3476.6926    13517.102    14904.865     9239.527    4207.4251    3835.4466    76.315376 
   68300    986.46744    -107.3635   0.89257647   -106.47092   -2067.1193     4.246911     4.246911     4.246911   -2067.1193    15548.429   -27432.194    5682.4068   -7789.0919   -7561.8682    -11123.09     76.59836 
   68400    864.48879   -107.25338   0.78220762   -106.47117   -6780.0015    4.2467826    4.2467826    4.2467826   -6780.0015    8197.0695   -37499.202    8962.1277    2436.4845    12767.067   -11807.363    76.591417 
   68500    812.98477     -107.206    0.7356057    -106.4704   -3676.3944    4.2406855    4.2406855    4.2406855   -3676.3944   -5703.7081    4338.8543   -9664.3294    1035.3973   -2565.9215    8825.4948       76.262 
   68600     723.8909   -107.12793    0.6549917   -106.47293   -12327.882    4.2460965    4.2460965    4.2460965   -12327.882   -8223.5779    4652.1678   -33412.234   -9626.8549   -8830.1021   -11710.862    76.554296 
   68700      800.272   -107.19512   0.72410293   -106.47101    2850.1134    4.2456706    4.2456706    4.2456706    2850.1134    23225.467    6179.1925   -20854.319     11034.45    6143.3576   -6047.6855    76.531264 
   68800    924.28432    -107.3073   0.83631187   -106.47099    2604.2661    4.2436202    4.2436202    4.2436202    2604.2661   -4938.1589    20852.785   -8101.8284   -4716.6005   -4558.6048    12419.376    76.420437 
   68900    960.74076    -107.3423   0.86929843   -106.47301   -8133.9414    4.2458657    4.2458657    4.2458657   -8133.9414    696.66512   -5587.0628   -19511.426   -7975.0884   -13191.316   -8753.3793    76.541818 
   69000    1224.3278    -107.5786    1.1077975    -106.4708   -3450.0289    4.2425042    4.2425042    4.2425042   -3450.0289    9354.9684   -26037.884    6332.8285    8325.7325    8674.6681    147.73406    76.360164 
   69100     1001.348   -107.37848   0.90604067   -106.47244    -11378.45     4.246714     4.246714     4.246714    -11378.45   -7895.2425   -20040.958   -6199.1502   -2868.4929    -2389.115    5063.6289      76.5877 
   69200    790.02491   -107.18593   0.71483114    -106.4711   -15734.693    4.2478073    4.2478073    4.2478073   -15734.693    -16398.88   -14962.009    -15843.19   -2376.8463   -20893.392   -6341.1544     76.64687 
   69300    778.49029   -107.17259   0.70439438   -106.46819    9444.3678    4.2401341    4.2401341    4.2401341    9444.3678    19228.496    9286.1476   -181.54003    5464.6775    10114.586    709.34433    76.232255 
   69400    635.65929   -107.04706   0.57515789    -106.4719   -3224.1585    4.2444633    4.2444633    4.2444633   -3224.1585   -9650.7809    11707.558   -11729.253    1438.6962   -2956.2668    2251.5647    76.465995 
   69500    689.77317    -107.0986   0.62412126   -106.47447   -7828.8516    4.2474502    4.2474502    4.2474502   -7828.8516   -3616.8156    9378.8598   -29248.599   -825.48603   -16580.259   -1095.5905    76.627539 
   69600    1166.2172   -107.52429    1.0552179   -106.46907   -3024.6535    4.2445327    4.2445327    4.2445327   -3024.6535     8167.496   -10187.564   -7053.8929    8389.3807    9255.6234   -3003.5607    76.469745 
   69700    1032.2405   -107.40611   0.93399288   -106.47212   -515.62598    4.2443487    4.2443487    4.2443487   -515.62598    13860.121   -8034.2182   -7372.7811    570.43754   -13204.318    2298.2516      76.4598 
   69800    1121.1016   -107.48556    1.0143963   -106.47116   -4183.2769    4.2454235    4.2454235    4.2454235   -4183.2769     1177.497   -19194.048    5466.7205   -4508.7726   -7399.1162   -4997.5806    76.517901 
   69900    1050.4827   -107.41968    0.9504988   -106.46918    2902.7398    4.2465171    4.2465171    4.2465171    2902.7398      11932.2   -14278.231    11054.251      15163.5    9167.6498    749.66257    76.577051 
   70000    621.61977   -107.03584   0.56245463   -106.47338   -5315.2834    4.2425155    4.2425155    4.2425155   -5315.2834   -12358.634      7997.57   -11584.786    963.59034   -17344.479    6736.7756    76.360773 
   70100    559.59805   -106.97937   0.50633607   -106.47304    -8904.025    4.2413668    4.2413668    4.2413668    -8904.025   -12007.103    9610.4171   -24315.389   -4158.7587   -11855.688   -5644.8618    76.298763 
   70200    796.41582   -107.19155   0.72061377   -106.47094   -13963.615    4.2486016    4.2486016    4.2486016   -13963.615   -7565.4541   -6892.4019   -27432.988    15669.405    6024.2994    1301.4049    76.689875 
   70300    693.72175   -107.10277   0.62769401   -106.47508    1220.3618    4.2440629    4.2440629    4.2440629    1220.3618    32636.764    8394.5332   -37370.212   -1249.4478   -13438.443    5449.6989    76.444359 
   70400    1234.6127   -107.58808    1.1171035   -106.47097    5665.5694    4.2402425    4.2402425    4.2402425    5665.5694    16200.696    1205.5016   -409.48946    1358.6741    -17984.17    3390.8956    76.238101 
   70500    1333.3479   -107.67795    1.2064412    -106.4715    3036.7154    4.2478907    4.2478907    4.2478907    3036.7154    14546.241   -18499.816    13063.721    12863.283    8205.0417    1134.3998    76.651384 
   70600    976.37185   -107.35802   0.88344177   -106.47458    -5201.852     4.245111     4.245111     4.245111    -5201.852   -88.789066    1089.6043   -16606.371   -2910.6028   -14882.075   -1601.4233    76.501005 
   70700    888.00143   -107.27457   0.80348235   -106.47108   -982.85492    4.2412626    4.2412626    4.2412626   -982.85492   -3390.7235    486.61363   -44.454908    5191.3851   -10480.536    3088.6002    76.293142 
   70800    700.58667   -107.10486   0.63390554   -106.47096   -6876.4848    4.2454643    4.2454643    4.2454643   -6876.4848    618.06541   -6740.6771   -14506.843     6355.183    8852.2416   -431.75438    76.520109 
   70900    229.82389   -106.68299   0.20794949   -106.47504    36.503359    4.2453517    4.2453517    4.2453517    36.503359     37929.64    12011.001    -49831.13    865.48606   -23283.028    3251.7599     76.51402 
   71000    889.38591   -107.27542   0.80473506   -106.47069   -3865.4193    4.2449448    4.2449448    4.2449448   -3865.4193    2196.8986    4947.9924   -18741.149       3346.9   -3331.2473    1313.3901     76.49202 
   71100    1050.0431   -107.42016   0.95010108   -106.47005    2338.2367     4.245066     4.245066     4.245066    2338.2367     14024.35   -4949.8913    -2059.749    5761.0192    4088.3093    -5270.109    76.498576 
   71200     1123.939   -107.49364    1.0169636   -106.47668   -3536.0205    4.2405898    4.2405898    4.2405898   -3536.0205    3257.3547    4602.4736    -18467.89    4232.5363   -24743.562    7313.3773    76.256836 
   71300    1390.6638   -107.73107    1.2583019   -106.47277    10398.319    4.2426402    4.2426402    4.2426402    10398.319     19564.54   -2406.8406    14037.258   -4259.7439   -5303.4838    7519.9883    76.367508 
   71400      1118.86   -107.48566     1.012368    -106.4733   -7760.6137    4.2525884    4.2525884    4.2525884   -7760.6137    5771.3149   -16272.742   -12780.414    2950.0424   -1993.9499   -2120.1149     76.90597 
   71500     500.7184   -106.92838   0.45306053   -106.47532   -5082.0086    4.2418993    4.2418993    4.2418993   -5082.0086    17662.114    8888.8997    -41797.04    1859.3734   -24229.139    4692.2823    76.327505 
   71600    647.65295   -107.05428      0.58601   -106.46827    1452.2324    4.2351013    4.2351013    4.2351013    1452.2324    5568.5857     10719.39   -11931.278    -8149.181    902.67241    1654.0281    75.961127 
   71700    562.63481    -106.9828    0.5090838   -106.47372   -23552.525    4.2547748    4.2547748    4.2547748   -23552.525   -29252.085   -7114.2404    -34291.25   -2608.8262   -3325.8382      -1171.7    77.024649 
   71800    699.14479   -107.10902   0.63260089   -106.47642   -4845.2869    4.2438421    4.2438421    4.2438421   -4845.2869   -5657.0577    8900.5538   -17779.357    3409.0872   -29449.126    2219.0348    76.432426 
   71900    1310.4905   -107.65349    1.1857594   -106.46773     22400.29    4.2282745    4.2282745    4.2282745     22400.29    32086.738    5591.3462    29522.786   -13539.715    9105.5606   -679.69663    75.594384 
   72000    1267.7168    -107.6228    1.1470568   -106.47575   -14271.759    4.2548973    4.2548973    4.2548973   -14271.759   -13811.192   -15461.012   -13543.072   -6332.3682   -10990.997   -2968.8006    77.031303 
   72100    1166.5685   -107.52835    1.0555357   -106.47281   -9254.6825    4.2477593    4.2477593    4.2477593   -9254.6825   -6946.7203   -1338.7971    -19478.53    4549.6784   -29100.991     395.5398     76.64427 
   72200    1037.5713   -107.40299   0.93881627   -106.46418     13696.79    4.2290153    4.2290153    4.2290153     13696.79     19120.01    5125.9124    16844.449   -13472.065    10310.357    3415.9602    75.634124 
   72300    589.90278   -107.00771   0.53375643   -106.47395   -23417.084    4.2513757    4.2513757    4.2513757   -23417.084   -25883.227   -3758.5807   -40609.445   -4625.2286   -18023.416   -3502.3318    76.840193 
   72400    429.32245   -106.85991   0.38845997   -106.47145    3643.0949    4.2466261    4.2466261    4.2466261    3643.0949    14774.428    9799.5502   -13644.694    4476.7982   -18253.234   -538.50081    76.582945 
   72500    786.06771    -107.1787   0.71125058   -106.46745    4016.1585    4.2375065    4.2375065    4.2375065    4016.1585     12581.12   -3517.5425    2984.8983   -11551.922    7557.6227    2227.0258     76.09062 
   72600    737.02385   -107.14186   0.66687467   -106.47498   -20938.599    4.2476672    4.2476672    4.2476672   -20938.599   -30486.464   -1643.9107   -30685.422   -3452.4867   -23804.304    -2168.367    76.639285 
   72700    1354.7827   -107.69715    1.2258359   -106.47131   -2657.6784    4.2427293    4.2427293    4.2427293   -2657.6784    1045.9678   -744.84505   -8274.1581    877.55133   -13698.066   -18.295353    76.372315 
   72800    1391.9358   -107.72921    1.2594527   -106.46975    1562.5326     4.247978     4.247978     4.247978    1562.5326    13305.754   -20924.941    12306.785   -10863.847    601.17647   -1986.8605    76.656111 
   72900    990.27879   -107.37002   0.89602506   -106.47399    -15912.51    4.2458209    4.2458209    4.2458209    -15912.51   -22970.002    465.43905   -25232.966   -3277.9813   -28976.997    696.52131    76.539391 
   73000    867.56312    -107.2557   0.78498934   -106.47071    27389.205    4.2336431    4.2336431    4.2336431    27389.205    48183.421    19994.945    13989.247    4919.8618   -5008.3872   -138.65618    75.882692 
   73100    722.59486   -107.12668   0.65381902   -106.47286   -13831.306    4.2515712    4.2515712    4.2515712   -13831.306   -13127.679   -10845.436   -17520.803   -9103.2712    4683.1668   -37.848992    76.850798 
   73200    249.66018    -106.7026   0.22589778    -106.4767   -23103.043    4.2487459    4.2487459    4.2487459   -23103.043   -32472.943    8612.0527   -45448.238   -7265.9816   -27713.933    2062.2032     76.69769 
   73300    920.94151   -107.30242   0.83328723   -106.46914    9659.6693    4.2349653    4.2349653    4.2349653    9659.6693    22766.642    12304.635   -6092.2686    4206.0445   -3546.0632   -2730.4081    75.953813 
   73400    1079.9067   -107.44834    0.9771223   -106.47122    1868.7059    4.2486773    4.2486773    4.2486773    1868.7059     11798.86   -15120.848    8928.1056   -8692.0076    1311.2182    93.864142    76.693972 
   73500    1025.8351   -107.40417   0.92819715   -106.47597   -5657.8848    4.2475051    4.2475051    4.2475051   -5657.8848     1023.772   -4606.0289   -13391.397   -7367.2223   -31385.539   -154.81661    76.630513 
   73600    1412.9663   -107.74789    1.2784816   -106.46941    17533.109    4.2394039    4.2394039    4.2394039    17533.109    38920.482    3662.2332    10016.613   -212.86555    5532.7962   -5602.6019    76.192881 
   73700    1045.5852   -107.41956   0.94606744   -106.47349   -2037.0917    4.2441605    4.2441605    4.2441605   -2037.0917    -1480.994    1628.5233   -6258.8046   -2839.7969   -4261.2281    -795.3224    76.449633 
   73800    472.69858   -106.90561   0.42770761    -106.4779   -10583.435    4.2441415    4.2441415    4.2441415   -10583.435   -13315.958    14462.313   -32896.662   -8418.8428   -32315.761    6015.0315    76.448604 
   73900    839.08353   -107.22977   0.75922041   -106.47055   -1968.1945     4.246448     4.246448     4.246448   -1968.1945    8923.7063     9100.931   -23929.221   -1938.8499    11427.891     1859.265    76.573314 
   74000    644.88161    -107.0558   0.58350243    -106.4723   -590.45407    4.2436329    4.2436329    4.2436329   -590.45407    13097.567    8992.0999   -23861.029    -1781.151   -9182.7961   -2137.9668    76.421122 
   74100     617.0498   -107.03713   0.55831963   -106.47881   -10409.327    4.2418561    4.2418561    4.2418561   -10409.327   -15120.706   -1925.4877   -14181.786    -8858.846   -28887.562    3919.1603    76.325175 
   74200    1334.6129   -107.68078    1.2075858   -106.47319   -2114.5198    4.2456203    4.2456203    4.2456203   -2114.5198    14719.919   -18383.664   -2679.8142    2588.4721    11185.699    98.894532    76.528543 
   74300    1098.1803    -107.4694   0.99365658   -106.47574    1901.3714    4.2460155    4.2460155    4.2460155    1901.3714    20666.603   -3573.5078   -11388.981    3759.5441   -12402.429    1233.7077     76.54992 
   74400    936.43012   -107.32472   0.84730165   -106.47742   -6112.7281    4.2444224    4.2444224    4.2444224   -6112.7281   -13100.887    2014.6038   -7251.9011   -309.80576   -23098.417    1632.3242    76.463783 
   74500     1090.438    -107.4564   0.98665119   -106.46974    12895.073    4.2437671    4.2437671    4.2437671    12895.073    28641.972    9053.1418    990.10708   -1535.2178     7204.908   -4793.7032    76.428375 
   74600    717.32567   -107.12336   0.64905134   -106.47431     -10521.7    4.2457186    4.2457186    4.2457186     -10521.7   -28009.855    21994.124   -25549.369   -2517.5109   -20693.762    1427.5167    76.533858 
   74700    451.46314   -106.88589   0.40849334   -106.47739   -15355.725    4.2428781    4.2428781    4.2428781   -15355.725   -48155.725     12059.56   -9971.0097   -8791.5125   -17866.061    4234.9692    76.380354 
   74800    1000.1114   -107.37634   0.90492179   -106.47142    79.251008    4.2435838    4.2435838    4.2435838    79.251008    46.376157   -6708.8808    6900.2576   -2615.1439    9203.1371    639.76781    76.418471 
   74900    808.12365    -107.2045   0.73120726   -106.47329   -5629.4823    4.2514416    4.2514416    4.2514416   -5629.4823    9816.5719   -9916.0507   -16788.968    1322.3812   -22422.052   -1745.0683    76.843766 
   75000    895.61243   -107.28459   0.81036895   -106.47422   -170.84945    4.2406174    4.2406174    4.2406174   -170.84945   -1582.7526   -6744.7904    7814.9947   -15041.862    -12674.24     2505.468    76.258329 
   75100    1228.9589   -107.58247    1.1119878   -106.47048    20747.941    4.2382401    4.2382401    4.2382401    20747.941     44878.29   -3084.4665        20450     -1841.63    8948.2281    2071.8182    76.130147 
   75200    941.80824   -107.32554   0.85216789   -106.47337   -14426.934    4.2542816    4.2542816    4.2542816   -14426.934   -30138.261    5870.6875   -19013.229    3916.5058   -24728.614    933.34258    76.997867 
   75300    662.05621   -107.07221   0.59904237   -106.47316    -10458.87    4.2428309    4.2428309    4.2428309    -10458.87     -50688.2    13654.827    5656.7636   -9192.0128   -10452.413    4816.0369    76.377803 
   75400    950.55327    -107.3286   0.86008057   -106.46852    7724.0251    4.2365136    4.2365136    4.2365136    7724.0251   -10302.845    18951.723    14523.197   -1754.3712    1967.4425   -738.17797     76.03715 
   75500    677.02047   -107.08533   0.61258235   -106.47275   -3142.2899      4.25002      4.25002      4.25002   -3142.2899   -6667.1504    16492.602   -19252.321    2084.6985   -23575.992   -1449.7318    76.766709 
   75600    784.13309   -107.18203    0.7095001   -106.47253   -3240.2345    4.2457298    4.2457298    4.2457298   -3240.2345    1394.9971   -5477.6661   -5638.0345   -1765.4923   -7163.3697    3655.9116    76.534467 
   75700    1078.6799   -107.44496   0.97601222   -106.46895    13167.053     4.241738     4.241738     4.241738    13167.053    40038.884    5648.7058   -6186.4292    -341.6959    4523.3824    1612.8687    76.318798 
   75800    1022.8186   -107.39664   0.92546775   -106.47118    216.87103    4.2452898    4.2452898    4.2452898    216.87103    12417.334    6545.4407   -18312.162    1839.2849   -16070.735     806.5032    76.510675 
   75900    827.99979   -107.22202   0.74919161   -106.47283   -566.07588    4.2460646    4.2460646    4.2460646   -566.07588     -9799.43   -4108.4045    12209.607   -7969.7257   -5285.2468    1955.5604    76.552575 
   76000    1030.6779   -107.40163   0.93257902   -106.46905   -785.14726    4.2462476    4.2462476    4.2462476   -785.14726   -17537.227    15124.269    57.516659   -6598.3845    257.29744    2149.8465    76.562474 
   76100    818.99659   -107.21166   0.74104533   -106.47062    7215.7119    4.2418077    4.2418077    4.2418077    7215.7119   -7706.7277    33066.255   -3712.3912    2547.1691   -14799.032    495.21914    76.322559 
   76200    796.41935    -107.1934   0.72061696   -106.47278   -3222.3805    4.2448386    4.2448386    4.2448386   -3222.3805    -21012.69    4677.9075    6667.6408   -12689.661    2635.9252    932.75049    76.486281 
   76300    983.29438   -107.35989   0.88970542   -106.47018   -2514.4324    4.2485403    4.2485403    4.2485403   -2514.4324    4917.0799    8642.3925   -21102.769   -5829.6353    1871.5736    1251.6894    76.686556 
   76400    834.85211   -107.22603   0.75539173   -106.47064    9790.8506    4.2424428    4.2424428    4.2424428    9790.8506     38544.28    13477.229   -22648.957    5220.0292   -12115.301   -2547.3813    76.356846 
   76500    886.73647   -107.27269   0.80233779   -106.47036    10.272112    4.2440586    4.2440586    4.2440586    10.272112    19370.163   -22199.118    2859.7707   -13214.868    1874.7011     14.80009    76.444125 
   76600    891.14278   -107.27622   0.80632472   -106.46989    2191.3033    4.2471287    4.2471287    4.2471287    2191.3033    14520.486   -1911.3932   -6035.1827     1083.786    5032.6348    2396.7476     76.61014 
   76700    877.83291   -107.26612   0.79428167   -106.47184   -3138.7402    4.2424005    4.2424005    4.2424005   -3138.7402   -16914.986    16338.822   -8840.0574   -3880.8247    -6807.993   -3059.3881    76.354562 
   76800    962.74739   -107.34377   0.87111407   -106.47266    73.290686    4.2423341    4.2423341    4.2423341    73.290686   -35338.125    21128.851    14429.147   -10790.049   -6207.1693   -354.68078    76.350978 
   76900    1188.2511   -107.54574    1.0751546   -106.47058   -3974.9045     4.249223     4.249223     4.249223   -3974.9045   -13742.544    14272.969   -12455.138    7583.2095    3482.6192    800.18968    76.723528 
   77000    787.14475   -107.18635   0.71222511   -106.47412     3166.165    4.2455824    4.2455824    4.2455824     3166.165     16528.45    15824.055    -22854.01   -6833.0245   -3707.7607   -3368.2316    76.526495 
   77100    911.60454   -107.29523   0.82483895   -106.47039    3596.9877     4.240179     4.240179     4.240179    3596.9877    28411.052   -13678.097    -3941.992   -7117.9509   -2982.3256    482.33932    76.234679 
   77200    812.61346    -107.2054   0.73526974   -106.47013   -5062.7179    4.2476691    4.2476691    4.2476691   -5062.7179    30824.766   -23761.331   -22251.589    4157.8655    4948.9651   -722.16441    76.639391 
   77300    518.16285   -106.94498   0.46884464   -106.47613   -20404.076    4.2463727    4.2463727    4.2463727   -20404.076   -23354.935   -18741.866   -19115.426   -2354.0534    1264.0155   -2326.7884    76.569237 
   77400     905.8209   -107.29219   0.81960578   -106.47259    3604.0337    4.2355443    4.2355443    4.2355443    3604.0337   -7592.1989    7503.3836    10900.917   -11882.004   -4574.2757   -910.25641    75.984968 
   77500    1251.1478   -107.60353    1.1320648   -106.47146   -6429.4891    4.2491372    4.2491372    4.2491372   -6429.4891   -16125.193     16587.63   -19750.904   -4542.2277    8432.7413    263.86003    76.718882 
   77600    907.86744   -107.29713   0.82145754   -106.47567   -12017.112    4.2507155    4.2507155    4.2507155   -12017.112   -19215.366    10308.095   -27144.064   -1053.6277    3095.5349   -4026.9909    76.804403 
   77700    1261.5799   -107.60998     1.141504   -106.46847    10968.932    4.2335737    4.2335737    4.2335737    10968.932    18094.078    9109.9434    5702.7765   -8453.2062   -7862.5867   -3814.7438    75.878962 
   77800    1034.4675   -107.40862   0.93600794   -106.47261   -373.60033    4.2432249    4.2432249    4.2432249   -373.60033    28361.635   -12382.035   -17100.401    2674.6985    12727.463     3272.457    76.399086 
   77900    433.04505   -106.86867   0.39182826   -106.47684   -22665.414    4.2522873    4.2522873    4.2522873   -22665.414   -3165.4632   -35521.078     -29309.7    -4750.717    2659.0328   -605.10462    76.889633 
   78000    742.47619   -107.14062   0.67180806   -106.46882   -498.84381    4.2416534    4.2416534    4.2416534   -498.84381    18654.148   -25566.533     5415.854   -10347.108   -9321.5013   -659.82942     76.31423 
   78100    865.61869   -107.25204   0.78322998   -106.46881    2833.6349    4.2416027    4.2416027    4.2416027    2833.6349    16287.173    5369.6017   -13155.871    8411.2852    12611.018    1751.7012    76.311493 
   78200    769.04261   -107.17135   0.69584591    -106.4755   -5180.9403    4.2468252    4.2468252    4.2468252   -5180.9403   -5929.3661    14558.652   -24172.107    -4935.922    -1858.014   -1352.6814    76.593717 
   78300    1332.3588   -107.67728    1.2055462   -106.47173    3437.0421    4.2451077    4.2451077    4.2451077    3437.0421     3882.419    10288.702   -3859.9945    -5990.772   -9512.0354    4414.5749    76.500827 
   78400    1255.4865   -107.60916    1.1359906   -106.47317    9743.2108    4.2407137    4.2407137    4.2407137    9743.2108     15522.14    8300.7572    5406.7354    12375.742    16317.845    899.58134     76.26352 
   78500    831.02323   -107.22907   0.75192728   -106.47715    3961.1013     4.242557     4.242557     4.242557    3961.1013    27837.453   -7432.5545   -8521.5945   -4289.6277   -1693.1911   -1564.4892    76.363012 
   78600    786.17681    -107.1836    0.7113493   -106.47225   -2341.7223     4.250179     4.250179     4.250179   -2341.7223    22898.855   -37785.821    7861.7997   -400.40193   -11925.225    814.80968    76.775327 
   78700    636.88907   -107.04691   0.57627061   -106.47064    1500.7815    4.2422562    4.2422562    4.2422562    1500.7815    24250.831   -25647.638    5899.1524    12540.023    11028.972    2349.2928    76.346771 
   78800    508.68339   -106.93338   0.46026742   -106.47311    6135.5406    4.2383937    4.2383937    4.2383937    6135.5406    14010.749    13909.905   -9514.0319   -4858.7188    -5438.063   -515.71668    76.138426 
   78900    989.70306   -107.36807   0.89550412   -106.47256   -12006.245    4.2509572    4.2509572    4.2509572   -12006.245   -16856.457   -759.56153   -18402.718    2441.3079   -14476.685   -3060.0788    76.817506 
   79000    1174.7477   -107.53402    1.0629364   -106.47108    6513.3656    4.2437727    4.2437727    4.2437727    6513.3656     1321.688    11386.554     6831.855    15935.832    4475.1989    1644.8497    76.428676 
   79100    1139.7485   -107.50325    1.0312684   -106.47198    14040.011    4.2392288    4.2392288    4.2392288    14040.011    22881.586    28646.661    -9408.213    621.44683   -5867.9135   -2951.3091    76.183439 
   79200    1042.8783   -107.41409   0.94361821   -106.47047   -8480.9222    4.2529439    4.2529439    4.2529439   -8480.9222    9469.7082   -24076.382   -10836.093    9128.1888   -10078.992     5459.092    76.925259 
   79300    750.42937   -107.14888   0.67900427   -106.46988    48.853253    4.2431058    4.2431058    4.2431058    48.853253    35361.226   -43801.094     8586.427    11486.349    6023.9152    935.85324    76.392653 
   79400     551.9649   -106.97089   0.49942944   -106.47146   -1179.3712    4.2376559    4.2376559    4.2376559   -1179.3712    16655.195   -5815.5789    -14377.73   -998.99156   -5142.5816   -5394.0318    76.098669 
   79500    613.44205   -107.02812   0.55505526   -106.47306   -19380.247    4.2520294    4.2520294    4.2520294   -19380.247   -14760.159   -17330.379   -26050.201     9678.156   -11470.466    5422.5629    76.875644 
   79600    1060.0196   -107.42852   0.95912803   -106.46939   -2145.8973    4.2443954    4.2443954    4.2443954   -2145.8973   -1425.3956    -2354.195   -2658.1012     3473.491    8882.1172   -1569.6428    76.462324 
   79700    1121.5436   -107.48671    1.0147962   -106.47191    2565.6239    4.2414571    4.2414571    4.2414571    2565.6239   -11077.629     35427.23   -16652.729   -6862.2594   -10290.086   -2588.9418    76.303636 
   79800    1165.8172   -107.52814    1.0548559   -106.47329   -6505.2377    4.2472409    4.2472409    4.2472409   -6505.2377    -9653.185    8688.4016    -18550.93    7038.4098    -12614.15    92.723408    76.616216 
   79900    1103.3692   -107.46828   0.99835166   -106.46993    3324.2041    4.2466406    4.2466406    4.2466406    3324.2041    25768.281   -19892.759    4097.0898    7975.1048    5547.8374   -3132.5669    76.583731 
   80000    599.34093   -107.01354   0.54229627   -106.47124   -7957.4796    4.2488984    4.2488984    4.2488984   -7957.4796     15200.39   -23834.641   -15238.187   -7682.8461   -17431.094    -2642.498    76.705948 
   80100    433.84978   -106.86443    0.3925564   -106.47188   -4816.8731    4.2448979    4.2448979    4.2448979   -4816.8731    23297.753   -35382.849   -2365.5235   -325.05861   -10382.511   -287.46279    76.489489 
   80200    781.94959   -107.17577   0.70752442   -106.46824    10874.389    4.2431243    4.2431243    4.2431243    10874.389    39606.213   -26540.993    19557.946    4056.3353   -2669.8563   -404.90203    76.393649 
   80300    782.41216   -107.18084   0.70794296    -106.4729   -1268.4008    4.2528106    4.2528106    4.2528106   -1268.4008   -2890.8865     5502.206   -6416.5218   -6161.4893   -21165.785    -2210.289    76.918023 
   80400      1087.61   -107.45455   0.98409241   -106.47045     174.2581    4.2488772    4.2488772    4.2488772     174.2581   -3666.2661    14770.681   -10581.641   -1954.4633   -6320.7778    3843.7566      76.7048 
   80500     1349.386   -107.68484    1.2209529   -106.46388    14485.744    4.2403422    4.2403422    4.2403422    14485.744    13589.259    9460.9044     20407.07   -2313.1646    1279.6612   -7756.1342    76.243481 
   80600    774.61897   -107.17496   0.70089152   -106.47407   -4739.8996    4.2473661    4.2473661    4.2473661   -4739.8996   -16893.636   -2357.3917    5031.3287   -3913.1728   -21795.125   -7118.0266    76.622988 
   80700    641.89451   -107.05213   0.58079964   -106.47133   -7924.5267    4.2497317    4.2497317    4.2497317   -7924.5267    3350.7962   -31648.237    4523.8604   -912.83341    509.81522    2823.4228    76.751089 
   80800    832.55499   -107.21902   0.75331325   -106.46571   -4368.8326    4.2456916    4.2456916    4.2456916   -4368.8326    18436.794   -47245.094    15701.803   -2809.4383    5992.9855   -2140.1905      76.5324 
   80900    631.46854   -107.04399     0.571366   -106.47263   -10510.602    4.2433367    4.2433367    4.2433367   -10510.602    -9827.691   -14215.589   -7488.5251   -2017.3643   -24289.194   -4640.3552    76.405125 
   81000    1076.6502   -107.44875   0.97417575   -106.47457    -303.0017    4.2456784    4.2456784    4.2456784    -303.0017    6424.4398    9563.0848    -16896.53    1696.5807    1683.0324    3726.4787    76.531684 
   81100    1451.1631   -107.78304    1.3130429      -106.47   -1041.7462    4.2501865    4.2501865    4.2501865   -1041.7462   -7685.3409     9984.468   -5424.3656   -245.62254    2872.0174    8664.2124    76.775733 
   81200     900.5938   -107.29083    0.8148762   -106.47595    10056.124     4.241581     4.241581     4.241581    10056.124   -10462.624     15355.02    25275.975   -6417.3093     -28297.6   -3094.4241    76.310324 
   81300    849.36162   -107.24262   0.76852024    -106.4741     8052.877    4.2460154    4.2460154    4.2460154     8052.877    4423.7856   -12871.864    32606.709    -794.9883    755.48435    3180.0263    76.549911 
   81400    572.59258   -106.98786    0.5180938   -106.46976   -6206.7812    4.2538555    4.2538555    4.2538555   -6206.7812   -2619.4981   -48085.271    32084.425    838.67122   -3916.9276    4299.3886    76.974737 
   81500    371.11065   -106.80843   0.33578872   -106.47264   -4769.3852    4.2391956    4.2391956    4.2391956   -4769.3852   -288.47506   -31895.768    17876.088   -4502.6884   -32797.002    1066.7711    76.181648 
   81600    961.14953   -107.34226   0.86966829   -106.47259   -1613.0472    4.2424538    4.2424538    4.2424538   -1613.0472    7751.9616   -19152.848    6561.7448    694.55612    2437.8076   -928.45362     76.35744 
   81700    1267.3751   -107.61731    1.1467477   -106.47056   -10176.443    4.2529444    4.2529444    4.2529444   -10176.443   -15217.944   -3245.9043    -12065.48   -37.513844   -402.81124    5156.6221    76.925283 
   81800    1129.0917   -107.49595    1.0216259   -106.47432    6869.5191    4.2401314    4.2401314    4.2401314    6869.5191   -14175.589    39009.116   -4224.9702   -6044.9025   -29694.749    5350.0073    76.232112 
   81900    1282.1523   -107.63068    1.1601183   -106.47056    6042.5328    4.2448078    4.2448078    4.2448078    6042.5328   -6228.9971    7220.1871    17136.409    5021.8834    5981.6983    1277.3425    76.484616 
   82000    811.78962   -107.20799   0.73452431   -106.47346    1586.4846    4.2455662    4.2455662    4.2455662    1586.4846   -971.57433    -18434.41    24165.438    3195.8635    1033.9325   -1995.5763    76.525617 
   82100     225.7517   -106.68269   0.20426488   -106.47842    4267.0075     4.240817     4.240817     4.240817    4267.0075   -8603.5125   -9441.0071    30845.542   -4969.3966   -32116.409   -4631.9092    76.269094 
   82200    798.81727   -107.19493   0.72278665   -106.47215   -11380.381    4.2499455    4.2499455    4.2499455   -11380.381   -2328.5297   -51801.448    19988.836      4724.48    2026.0253    4218.9325    76.762673 
   82300     901.9781   -107.28835   0.81612874   -106.47222    351.85495    4.2414418    4.2414418    4.2414418    351.85495   -3859.6618   -23381.071    28296.297    8.3278802   -5797.5278   -2590.6149     76.30281 
   82400     945.0551   -107.33536   0.85510572   -106.48025   -6353.9006     4.242316     4.242316     4.242316   -6353.9006    -32071.78    25214.122   -12204.044    -2713.577   -37515.533    3614.6366    76.349998 
   82500    1487.2659   -107.81738    1.3457094   -106.47167    1323.1853    4.2505464    4.2505464    4.2505464    1323.1853    -17290.12    21014.785    244.89114    -1743.035    217.29582    2083.4564    76.795237 
   82600    1214.8653   -107.57103    1.0992356   -106.47179    41.121105    4.2443506    4.2443506    4.2443506    41.121105   -15860.748    9045.9867    6938.1242   -7015.4801   -8689.2644   -5912.1319    76.459906 
   82700    458.60275   -106.89286   0.41495341   -106.47791   -3405.2823     4.244975     4.244975     4.244975   -3405.2823    -23943.52    10978.166    2749.5076   -3014.9692   -32767.257    981.92839    76.493653 
   82800    868.44626   -107.25556   0.78578842   -106.46977    830.92307    4.2452474    4.2452474    4.2452474    830.92307    2319.3583   -30704.062    30877.473   -1817.5835    7125.4757   -925.71494    76.508379 
   82900    681.97051   -107.08918   0.61706125   -106.47212   -3691.1287    4.2438147    4.2438147    4.2438147   -3691.1287   -2240.9989   -45578.393    36746.005   -3788.5486   -8863.6153     2258.983    76.430945 
   83000    617.01937   -107.03566   0.55829209   -106.47737   -16317.867     4.248062     4.248062     4.248062   -16317.867   -22037.776   -21640.298   -5275.5277   -5941.5688   -31220.418   -5322.3529    76.660659 
   83100    1301.2392   -107.64641    1.1773886   -106.46902    9141.7573    4.2403837    4.2403837    4.2403837    9141.7573    7039.4647    13896.856    6488.9518   -974.66177    12656.077   -2698.2747    76.245722 
   83200    1025.4457   -107.40094   0.92784486    -106.4731   -1300.2631    4.2449806    4.2449806    4.2449806   -1300.2631    -5025.442    21795.547   -20670.894   -925.22605   -15649.728    8108.4024    76.493959 
   83300    761.50314   -107.16395   0.68902404   -106.47492   -16532.747    4.2513091    4.2513091    4.2513091   -16532.747   -21593.023    13738.452   -41743.669   -6082.2262     -29834.2   -728.07641    76.836583 
   83400    1081.9808   -107.44546   0.97899894   -106.46646    21385.025    4.2363348    4.2363348    4.2363348    21385.025    17473.275    12394.594    34287.206     1019.676    13794.029   -6042.4964    76.027522 
   83500     648.7259   -107.06309   0.58698083   -106.47611     1278.185    4.2455079    4.2455079    4.2455079     1278.185   -3860.2993   -19913.934    27608.788   -4754.4558       -21123   -3172.5122    76.522466 
   83600    718.34874   -107.12384   0.64997704   -106.47387   -13078.393    4.2540812    4.2540812    4.2540812   -13078.393   -16323.272   -44024.633    21112.725     -5826.74   -20974.233     52.30208    76.986986 
   83700    1196.2429   -107.54724    1.0823857   -106.46486    11188.293    4.2386517    4.2386517    4.2386517    11188.293     17495.77   -20634.062    36703.172    4237.8599    10649.873    688.52055    76.152329 
   83800    782.71716   -107.18266   0.70821894   -106.47444   -4234.7076    4.2420641    4.2420641    4.2420641   -4234.7076   -1160.9902    10427.973   -21971.106   -6804.4781   -24980.733    2454.9471    76.336402 
   83900    945.99287    -107.3294   0.85595423   -106.47345   -10398.593    4.2527298    4.2527298    4.2527298   -10398.593     -12112.8    1879.9314    -20962.91   -5385.4433   -13986.769   -3.7843873    76.913641 
   84000     1114.024    -107.4765    1.0079923    -106.4685    14803.484    4.2412678    4.2412678    4.2412678    14803.484    18060.959    18248.914    8100.5792    5242.7037    14464.557   -1252.2327    76.293422 
   84100    628.82938   -107.04479   0.56897804   -106.47581    3047.1002    4.2387928    4.2387928    4.2387928    3047.1002   -5675.9432    23840.288   -9023.0446   -4891.6846   -23454.305   -696.90981    76.159936 
   84200     798.9988   -107.19805   0.72295091    -106.4751   -8350.1653    4.2520879    4.2520879    4.2520879   -8350.1653   -13726.298   -25665.298      14341.1     -2917.63   -11160.605    5406.4522    76.878817 
   84300    1156.6596   -107.51498    1.0465699   -106.46841    22.595042    4.2445396    4.2445396    4.2445396    22.595042    5718.6702   -28337.916    22687.031    2824.9436    8491.1921    2596.7679    76.470119 
   84400    722.86563   -107.12756   0.65406401    -106.4735    6147.5151    4.2371169    4.2371169    4.2371169    6147.5151   -1728.4269   -1117.9242    21288.896   -4109.7739    -31236.56   -2137.6484    76.069635 
   84500    1074.2197    -107.4452   0.97197658   -106.47322   -5829.0965    4.2488536    4.2488536    4.2488536   -5829.0965   -5524.0414   -17501.329    5538.0806   -1110.3948   -8432.9513    657.70584    76.703522 
   84600    1037.3555   -107.40833   0.93862109   -106.46971    6649.2871    4.2460502    4.2460502    4.2460502    6649.2871    14694.064    2350.7631    2903.0336    3129.6091    124.77596   -3903.7627    76.551793 
   84700    662.92502   -107.07329   0.59982849   -106.47346   -3122.7157    4.2413458    4.2413458    4.2413458   -3122.7157    1333.0379    31671.754   -42372.939   -3331.4774   -29802.301    2835.6846    76.297631 
   84800    860.50853   -107.24998    0.7786062   -106.47138   -9528.1813    4.2462577    4.2462577    4.2462577   -9528.1813    771.56267   -220.00429   -29136.102     186.9086    4122.3529   -2903.5831    76.563019 
   84900    864.89409   -107.25328   0.78257434    -106.4707     3807.398    4.2427264    4.2427264    4.2427264     3807.398     9880.132   -11325.775    12867.837    8394.9156   -3784.6059     -4877.55    76.372158 
   85000    772.64391   -107.17435   0.69910444   -106.47525   -1726.9594    4.2444292    4.2444292    4.2444292   -1726.9594   -10899.756   -2099.2813    7818.1585   -1001.1419   -24053.497   -2844.6598    76.464154 
   85100    1138.3978   -107.50128    1.0300463   -106.47123   -250.29317    4.2443659    4.2443659    4.2443659   -250.29317   -7035.0623   -26073.681    32357.863    1660.5441    3558.5998   -2017.4642    76.460734 
   85200    1009.4828   -107.38654   0.91340129   -106.47314    5497.2688    4.2391399    4.2391399    4.2391399    5497.2688    5766.1304   -14823.013    25548.689    11074.055   -9658.5791     5822.415    76.178645 
   85300    871.58199   -107.26319    0.7886257   -106.47456   -16869.447    4.2486349    4.2486349    4.2486349   -16869.447    -12346.96     2939.226   -41200.607   -1401.7831   -28439.746    1570.8429    76.691677 
   85400    986.97198   -107.36101   0.89303299   -106.46797   -8466.7214    4.2458585    4.2458585    4.2458585   -8466.7214    513.84341   -5858.7291   -20055.279      4912.91    1552.7332   -277.02866    76.541429 
   85500    630.05741    -107.0419   0.57008919   -106.47181     9068.285    4.2363267    4.2363267    4.2363267     9068.285    11623.355    9531.7465    6049.7535    9786.0478    -11368.67   -3964.0388    76.027084 
   85600    753.15323    -107.1556   0.68146887   -106.47413   -11105.174    4.2483238    4.2483238    4.2483238   -11105.174   -12431.977    7133.5399   -28017.085   -4598.1002   -25421.941    968.17544    76.674833 
   85700    1052.4257   -107.42138   0.95225691   -106.46912   -1692.2018    4.2464295    4.2464295    4.2464295   -1692.2018    -8599.164   -18781.499    22304.058     7132.608    8199.6897    6533.1195    76.572311 
   85800    845.16122    -107.2382   0.76471964   -106.47348    1407.4992    4.2372589    4.2372589    4.2372589    1407.4992   -1694.3866   -10519.881    16436.765    9659.7407   -16761.356    2053.2677    76.077286 
   85900    992.46732   -107.37176   0.89800529   -106.47375    -4805.856    4.2472865    4.2472865    4.2472865    -4805.856   -11189.545   -9432.8486    6204.8257   -3469.3282   -18093.742   -5149.1189    76.618682 
   86000    1296.9053   -107.64112    1.1734671   -106.46765   -4848.7645     4.247867     4.247867     4.247867   -4848.7645    2880.9266   -24784.886    7357.6656    5819.9146    10230.199   -1532.6968    76.650103 
   86100    600.84171   -107.01852   0.54365421   -106.47486    8879.0947    4.2381716    4.2381716    4.2381716    8879.0947    14989.248    5569.8867    6078.1496    7680.2101   -27431.243    6166.6762    76.126458 
   86200    795.08929   -107.19397    0.7194135   -106.47456   -7002.8651    4.2448176    4.2448176    4.2448176   -7002.8651   -1560.4429    7504.5935   -26952.746    1651.0558   -11532.208   -1052.7112    76.485147 
   86300    955.03781   -107.33459   0.86413828   -106.47045    -5066.251    4.2476736    4.2476736    4.2476736    -5066.251     1475.095    902.99105   -17576.839    2557.2643    8907.9519   -2711.7005    76.639632 
   86400    642.91542   -107.05808   0.58172338   -106.47636   -386.83534    4.2392447    4.2392447    4.2392447   -386.83534   -6387.7957    9716.6524   -4489.3627    1971.9166   -25149.603   -2535.4919    76.184296 
   86500    925.98084   -107.31373   0.83784693   -106.47588    4811.2866    4.2452134    4.2452134    4.2452134    4811.2866   -18173.884   -3927.2403    36534.985    1863.0339   -3146.6662     1608.561    76.506542 
   86600    1353.3324   -107.69399    1.2245236   -106.46946   -1781.4625    4.2474428    4.2474428    4.2474428   -1781.4625   -8611.1979   -11105.792    14372.602    -2521.932    2482.7005    975.38701     76.62714 
   86700    842.49502    -107.2373    0.7623072   -106.47499    4032.7784    4.2401138    4.2401138    4.2401138    4032.7784   -2719.5444   -2234.9397    17052.819    2473.2689   -34375.997    4444.8781    76.231162 
   86800     1022.306   -107.39636   0.92500399   -106.47136   -9232.0295    4.2470571    4.2470571    4.2470571   -9232.0295    4517.2859   -18917.134    -13296.24    1195.1748   -4351.3028   -1536.4209    76.606269 
   86900    899.81389   -107.28492   0.81417052   -106.47075   -4969.7272    4.2440265    4.2440265    4.2440265   -4969.7272     13480.33   -228.53279   -28160.979   -5983.2826   -1537.6605   -8409.5055    76.442391 
   87000    589.41273   -107.00818   0.53331302   -106.47486    3778.0841    4.2391991    4.2391991    4.2391991    3778.0841    -1525.688    21426.556   -8566.6159    4318.4518   -28550.848     5513.238    76.181835 
   87100      789.963   -107.18621   0.71477512   -106.47143   -7228.1423    4.2500665    4.2500665    4.2500665   -7228.1423   -19203.151   -13180.989    10699.713    2181.8817    716.58635   -4231.1938    76.769228 
   87200    792.29533   -107.18846   0.71688546   -106.47158   -5066.8904    4.2424104    4.2424104    4.2424104   -5066.8904   -28352.034    11660.942    1490.4211   -3116.5801   -7636.6852   -4224.0254      76.3551 
   87300     933.7235   -107.31906   0.84485264   -106.47421   -2227.7502    4.2386357    4.2386357    4.2386357   -2227.7502   -27946.289    15307.786    5955.2523   -2205.9917   -23684.002    808.08168    76.151465 
   87400     1240.253   -107.59189     1.122207   -106.46968   -6843.4609    4.2509767    4.2509767    4.2509767   -6843.4609    3342.4236   -27097.024     3224.218    3835.8269    9641.3146   -6300.5002    76.818563 
   87500    1034.9024   -107.41031   0.93640148   -106.47391   -4219.8733    4.2416831    4.2416831    4.2416831   -4219.8733    4370.8166   -1254.4877   -15775.949    1459.2409   -24388.621   -242.61345    76.315837 
   87600    1015.4971   -107.39365   0.91884308   -106.47481     9702.946    4.2387377    4.2387377    4.2387377     9702.946    17554.531    16561.219   -5006.9123   -4395.9317   -25108.887    828.20376    76.156965 
   87700    1065.5502   -107.43406   0.96413224   -106.46993   -1347.3287     4.249179     4.249179     4.249179   -1347.3287    8580.2299   -9894.5221   -2727.6937    7172.4842    14912.357    3140.8374    76.721147 
   87800    403.41983   -106.84079   0.36502274   -106.47576   -9810.9167    4.2417939    4.2417939    4.2417939   -9810.9167   -31409.106    11661.561   -9685.2053   -2177.9343   -24936.467   -2515.6232    76.321814 
   87900    552.95157   -106.97648    0.5003222   -106.47616   -1029.2974     4.243263     4.243263     4.243263   -1029.2974   -26798.637    21377.047    2333.6978   -5422.6743   -14746.766   -1281.7726    76.401144 
   88000     955.3927   -107.33293   0.86445939   -106.46847    6437.8645    4.2470175    4.2470175    4.2470175    6437.8645    4549.9573   -3083.4964    17847.133    7601.0474    9767.9576    5014.2708    76.604124 
   88100    731.36653   -107.13864    0.6617558   -106.47689   -543.24316    4.2402431    4.2402431    4.2402431   -543.24316   -20693.899    9441.4338    9622.7355   -5527.1211   -25156.629   -3430.4223    76.238136 
   88200    1222.3436   -107.58481    1.1060022    -106.4788    3234.7462    4.2434935    4.2434935    4.2434935    3234.7462    7683.3854    -526.9836    2547.8367    -7736.371   -14609.375    2154.2777    76.413594 
   88300    1572.2791   -107.89281    1.4226312   -106.47018     10418.44    4.2451982    4.2451982    4.2451982     10418.44    29256.698    -2938.681    4937.3041    3947.6276   -5429.0347   -1440.1982    76.505721 
   88400     788.3318   -107.19345   0.71329918   -106.48015   -6278.5622     4.244377     4.244377     4.244377   -6278.5622   -8591.8315   -884.30094   -9359.5542   -1452.0602   -24362.769   -4428.4913    76.461329 
   88500    782.95976   -107.18248   0.70843844   -106.47404   -6708.3257    4.2437379    4.2437379    4.2437379   -6708.3257   -12745.627   -277.88624   -7101.4641   -7289.0069   -3524.3648   -106.24987    76.426795 
   88600     694.6801   -107.09837   0.62856115   -106.46981    18783.186     4.240049     4.240049     4.240049    18783.186    20546.005    19307.686    16495.868   -74.406935   -746.23474   -2330.4639    76.227669 
   88700    381.32865    -106.8219   0.34503418   -106.47687   -23844.942    4.2507806    4.2507806    4.2507806   -23844.942   -65051.908    4301.7413    -10784.66   -4676.4018   -23677.815    172.24538    76.807932 
   88800     778.8762    -107.1788   0.70474355   -106.47405    -10216.09     4.242854     4.242854     4.242854    -10216.09    -22712.43   -6813.8563   -1121.9834   -10384.532    1946.3051   -3973.6186    76.379052 
   88900    1297.3478   -107.64377    1.1738675   -106.46991    17803.544    4.2339673    4.2339673    4.2339673    17803.544    35580.178    6967.2025     10863.25    1449.8829   -1004.6264   -2659.3244    75.900127 
   89000    1107.2031   -107.47769    1.0018206   -106.47587   -10557.441    4.2548614    4.2548614    4.2548614   -10557.441   -3125.0084   -13457.667   -15089.648   -5974.1346   -29514.878    978.65947    77.029354 
   89100    1258.0217   -107.60949    1.1382845    -106.4712   -2065.8768    4.2438988    4.2438988    4.2438988   -2065.8768    10631.319    -25047.11    8218.1601   -14572.876    824.05582   -2022.9179     76.43549 
   89200    919.55213   -107.30169   0.83203009   -106.46966    24407.186    4.2330624    4.2330624    4.2330624    24407.186    33237.891    17135.367    22848.301    2260.8036   -10183.759    4853.3725    75.851471 
   89300    655.31076    -107.0653   0.59293895   -106.47236   -23072.073    4.2535228    4.2535228    4.2535228   -23072.073   -64944.452    359.29097   -4631.0589   -4994.3075   -23815.562    104.26989    76.956674 
   89400     627.3404   -107.03668   0.56763078   -106.46905   -12268.557    4.2455936    4.2455936    4.2455936   -12268.557   -40622.078   -6495.7521    10312.159   -16000.688    5760.5298   -6519.0951    76.527099 
   89500    665.33859   -107.07172   0.60201234   -106.46971     4168.458    4.2360811    4.2360811    4.2360811     4168.458    3742.0877    14245.835   -5482.5483    3854.8328   -18106.644    4051.5606    76.013861 
   89600    798.30071   -107.19555   0.72231926   -106.47323   -5032.0731    4.2485137    4.2485137    4.2485137   -5032.0731    7958.9716   -4022.5915   -19032.599   -4582.9812   -15581.351    1034.4674    76.685114 
   89700     1225.885   -107.57875    1.1092065   -106.46954   -5640.9596    4.2461252    4.2461252    4.2461252   -5640.9596    9512.0717   -23624.793   -2810.1575   -13566.614     14789.46    -1317.221    76.555851 
   89800    1005.0478    -107.3822   0.90938834   -106.47281    1180.8147     4.241869     4.241869     4.241869    1180.8147    19490.452   -4050.0318   -11897.976     2840.067    -17040.15   -2496.3934    76.325868 
   89900    1026.4435   -107.40146   0.92874767   -106.47271   -5021.5856    4.2444089    4.2444089    4.2444089   -5021.5856   -23239.806    1206.8756    6968.1739   -1648.5512    -14338.01   -2310.2383    76.463058 
   90000    1033.6915   -107.40495   0.93530576   -106.46964   -8635.7993    4.2443099    4.2443099    4.2443099   -8635.7993   -37280.152   -10499.694    21872.448   -10067.446    4978.2995    5348.8159    76.457703 
   90100    657.20659     -107.069   0.59465433   -106.47435   -14925.121    4.2456854    4.2456854    4.2456854   -14925.121   -36646.362    6346.2162   -14475.218    1057.8107   -17942.355    2919.3156    76.532067 
   90200    701.46313   -107.10692   0.63469858   -106.47223   -149.15436    4.2423327    4.2423327    4.2423327   -149.15436    9590.5689    3951.0313   -13989.063    4844.9437   -9596.1462    2683.8501    76.350902 
   90300    908.41188   -107.29165   0.82195016    -106.4697   -7034.1934    4.2441979    4.2441979    4.2441979   -7034.1934   -2228.0618   -2149.1293   -16725.389   -13872.291    851.97922   -2041.3198    76.451654 
   90400     783.9882   -107.18388     0.709369   -106.47451   -15016.154    4.2467424    4.2467424    4.2467424   -15016.154    1767.5117   -2446.9124   -44369.062   -806.09257   -20722.163   -1805.2747    76.589237 
   90500    1048.7419   -107.42027   0.94892368   -106.47134    2350.2564    4.2409439    4.2409439    4.2409439    2350.2564    9898.4582    573.10767   -3420.7967     7098.873   -4558.2296    8449.0325    76.275942 
   90600    1081.8811    -107.4498   0.97890877   -106.47089   -5180.1972    4.2460393    4.2460393    4.2460393   -5180.1972   -14927.977   -15154.807    14542.192   -12139.261    11345.504   -2713.2185    76.551204 
   90700    878.36066   -107.26735   0.79475918   -106.47259   -13507.154    4.2464511    4.2464511    4.2464511   -13507.154   -35343.722    -3291.862   -1885.8795   -1143.5438   -19666.001   -5683.8603    76.573479 
   90800    937.11955    -107.3179   0.84792546   -106.46997    4175.1037    4.2391809    4.2391809    4.2391809    4175.1037    430.19431   -2229.1963    14324.313    6638.5526   -9391.5903   -2597.1085    76.180857 
   90900    803.49415   -107.19905   0.72701839   -106.47203   -4785.9127    4.2472911    4.2472911    4.2472911   -4785.9127   -12171.765   -296.62198   -1889.3514   -5826.2984    14855.141   -1109.7877    76.618931 
   91000    798.05588   -107.19413   0.72209773   -106.47203   -7564.0462    4.2445111    4.2445111    4.2445111   -7564.0462   -11963.909    18250.956   -28979.186   -3240.1182    -12048.37    6268.3539    76.468581 
   91100    864.89788   -107.25506   0.78257778   -106.47249    8234.4963    4.2407629    4.2407629    4.2407629    8234.4963    14745.817    9468.2016    489.46976    10742.607   -2062.3364   -3577.6827    76.266179 
   91200    910.17832   -107.29496   0.82354847   -106.47141   -9708.0906    4.2505624    4.2505624    4.2505624   -9708.0906   -3960.3369   -12510.199   -12653.736   -2039.5096    12469.195   -1248.9711    76.796105 
   91300    893.53772   -107.27865    0.8084917   -106.47016    936.97673     4.241281     4.241281     4.241281    936.97673    5889.9396    1506.3768   -4585.3862   -7558.3655    -7528.482    2520.7894    76.294134 
   91400    944.03715    -107.3269   0.85418466   -106.47272     2329.879    4.2405058    4.2405058    4.2405058     2329.879    3299.1775   -14658.135    18348.595    18396.755    457.37978    2144.3448    76.252307 
   91500    855.09583   -107.24529   0.77370868   -106.47158    -7133.282    4.2523036    4.2523036    4.2523036    -7133.282   -14874.039   -18352.037    11826.229   -1152.9704    7996.5646    6155.8064     76.89052 
   91600    1004.9743   -107.37879   0.90932188   -106.46947     3744.434    4.2395002    4.2395002    4.2395002     3744.434   -7748.0999    12492.048    6489.3536   -5597.4425     -7336.08   -7824.8818    76.198073 
   91700    842.03387   -107.23629   0.76188995    -106.4744    5374.4105    4.2403961    4.2403961    4.2403961    5374.4105   -7575.2332      8998.95    14699.515     20554.57   -1954.1358     -3554.54    76.246389 
   91800    1021.6523   -107.39452   0.92441243   -106.47011   -15845.662      4.25364      4.25364      4.25364   -15845.662   -18706.314   -3820.9079   -25009.764   -1151.4391    12062.321    3451.8472    76.963034 
   91900    995.03882   -107.37029   0.90033203   -106.46996    5556.0754    4.2386474    4.2386474    4.2386474    5556.0754    25936.205     12073.36   -21341.338   -2078.8875   -4737.7169   -1948.5538    76.152099 
   92000    789.51027    -107.1889   0.71436549   -106.47454   -181.63173    4.2386462    4.2386462    4.2386462   -181.63173    7488.9927     -4147.56   -3886.3279    23400.939   -2776.9963   -3264.1681    76.152034 
   92100    817.22372   -107.21091   0.73944119   -106.47147   -5730.3116    4.2530721    4.2530721    4.2530721   -5730.3116     2118.017   -20738.597    1429.6457   -3370.6846    15863.445   -5429.4463    76.932214 
   92200    898.91831   -107.28168   0.81336018   -106.46832    5264.0033    4.2431227    4.2431227    4.2431227    5264.0033    9007.0754   -21144.424    27929.359   -2466.6116   -159.92294     1434.142    76.393566 
   92300    699.89421   -107.10513   0.63327899   -106.47185    2650.5423    4.2399722    4.2399722    4.2399722    2650.5423   -10197.368   -16339.077    34488.072    24287.023   -975.19278   -3353.7507    76.223524 
   92400    1099.2226   -107.46488   0.99459967   -106.47028   -1028.8175    4.2472731    4.2472731    4.2472731   -1028.8175   -14100.765    1294.6021    9719.7103   -4456.8185    10613.051    204.47996    76.617954 
   92500    1121.3362   -107.48467    1.0146086   -106.47006    7051.9436     4.244878     4.244878     4.244878    7051.9436    15300.425    707.04125    5148.3642    16.605388    2176.0366   -361.78573    76.488414 
   92600    919.55866   -107.30551     0.832036   -106.47348    612.79133    4.2437082    4.2437082    4.2437082    612.79133    260.49644    4066.6479   -2488.7704    23126.116   -607.24024   -4515.6253    76.425193 
   92700    964.62436   -107.34327   0.87281239   -106.47045    10075.752    4.2431867    4.2431867    4.2431867    10075.752    7056.6094    19500.548    3670.0973   -6079.7157    9656.2783    6177.8763     76.39702 
   92800    664.70163   -107.07403     0.601436   -106.47259    1143.1809    4.2456366    4.2456366    4.2456366    1143.1809    7887.5778   -32160.853    27702.818    6324.3526    2835.4532   -1826.8342    76.529428 
   92900    558.94264   -106.97787   0.50574304   -106.47213   -13294.412    4.2486249    4.2486249    4.2486249   -13294.412   -11782.867   -41095.655    12995.286    18027.367   -4555.2712   -2694.8545    76.691135 
   93000    862.60907   -107.24852   0.78050681   -106.46802    1855.8094    4.2418942    4.2418942    4.2418942    1855.8094   -8805.0728   -129.66631    14502.167   -7352.4177    10125.905    891.09814    76.327227 
   93100    1020.2549   -107.39389   0.92314806   -106.47074    39.072304    4.2445487    4.2445487    4.2445487    39.072304   -9889.8894   -16595.221    26602.327    9148.0007   -424.30235    -4454.328    76.470612 
   93200     1237.356   -107.58919    1.1195858   -106.46961   -4496.9756    4.2513035    4.2513035    4.2513035   -4496.9756   -5981.9295   -4459.9432    -3049.054    10549.946   -2578.1785   -7133.1703     76.83628 
   93300    1269.4734   -107.61658    1.1486462   -106.46793    6713.9823    4.2433405    4.2433405    4.2433405    6713.9823   -8791.0846    34171.007   -5237.9757   -8270.7529     5304.388    279.22956     76.40533 
   93400    949.54081   -107.32994   0.85916448   -106.47078    820.73598    4.2415258    4.2415258    4.2415258    820.73598    2944.9824    -11388.63    10905.855    9309.3866    864.79867    3191.1459    76.307346 
   93500    848.26945   -107.23626   0.76753202   -106.46872   -11686.266    4.2486176    4.2486176    4.2486176   -11686.266    5435.7908   -27036.162   -13458.427    5010.2912     1083.239   -5595.2489    76.690742 
   93600    486.89384   -106.91068   0.44055178   -106.47013   -7659.2017    4.2464206    4.2464206    4.2464206   -7659.2017   -11335.496   -9737.0634   -1905.0457   -1252.7119    3447.0772    2061.7407    76.571831 
   93700     537.0766   -106.95862   0.48595819   -106.47266   -694.97297    4.2425293    4.2425293    4.2425293   -694.97297   -11237.985   -28915.398    38068.464    6890.2469    5980.5074    4777.1159    76.361515 
   93800    1089.4139   -107.45549   0.98572458   -106.46977    8959.2303      4.24213      4.24213      4.24213    8959.2303    6952.1377   -13045.461    32971.014   -361.93125    -2046.623    2658.8672    76.339959 
   93900    858.27356    -107.2529   0.77658395   -106.47632    10659.846    4.2473103    4.2473103    4.2473103    10659.846   -16659.657     14440.83    34198.365    4066.4721    7167.5044    2897.7363    76.619969 
   94000    1231.4687   -107.58719    1.1142587   -106.47293   -3632.7991    4.2498517    4.2498517    4.2498517   -3632.7991   -23573.004   -5380.7742    18055.381    3437.7702    5857.6099   -6475.3725    76.757591 
   94100    1426.1481   -107.75716    1.2904087   -106.46675    18276.212    4.2367446    4.2367446    4.2367446    18276.212    10085.084    16455.419    28288.132   -2238.2795   -3003.7854   -3140.7813    76.049586 
   94200    727.89333   -107.13812   0.65861318    -106.4795   -5506.3517    4.2433665    4.2433665    4.2433665   -5506.3517   -22368.692    12854.021   -7004.3844    3273.1083    5967.3452     6784.656    76.406735 
   94300    583.90115   -107.00363   0.52832603    -106.4753   -12851.875    4.2512903    4.2512903    4.2512903   -12851.875   -16853.877   -26270.642    4568.8926   -2583.1099    3002.5885    61.986402    76.835564 
   94400    862.81616   -107.24787    0.7806942   -106.46717   -691.01188    4.2395375    4.2395375    4.2395375   -691.01188     4164.134   -23997.989    17760.819    1107.9916   -479.29257   -2666.8988    76.200085 
   94500    366.95397   -106.80777   0.33202766   -106.47575   -12569.841    4.2441734    4.2441734    4.2441734   -12569.841   -25563.511   -12534.143    388.13283    5976.4004    808.25216    809.61731    76.450326 
   94600    972.18393   -107.35255   0.87965245    -106.4729   -9073.1954     4.249159     4.249159     4.249159   -9073.1954   -17888.943   -17658.866    8328.2221   -4782.2992    3579.5694    4068.2452     76.72006 
   94700    1398.0661   -107.73283    1.2649996   -106.46783    7609.7307    4.2441875    4.2441875    4.2441875    7609.7307   -11287.513    2700.8913    31415.814    4549.5081   -6575.0336   -3512.0664    76.451089 
   94800    993.58347   -107.37465    0.8990152   -106.47564   -2496.7993    4.2454365    4.2454365    4.2454365   -2496.7993   -38086.462    21917.264    8678.7996    10537.564    3624.8591   -3132.2337    76.518604 
   94900    1157.9817   -107.51888    1.0477661   -106.47112    7472.1336    4.2422722    4.2422722    4.2422722    7472.1336   -12048.573    12342.799    22122.175   -1624.0662    6229.5917    4935.0036    76.347633 
   95000    931.41545   -107.31391   0.84276427   -106.47114   -6760.2074    4.2465702    4.2465702    4.2465702   -6760.2074   -3803.7609   -20973.811    4496.9499    4626.0524   -3301.2519   -4000.5712    76.579923 
   95100    315.76992   -106.76062   0.28571526    -106.4749   -23238.425     4.248812     4.248812     4.248812   -23238.425   -37651.386   -18084.141   -13979.749    4584.5254    6834.6074    1320.7579    76.701269 
   95200    681.22444    -107.0851   0.61638619   -106.46872    5503.3287     4.236406     4.236406     4.236406    5503.3287    5622.6258   -9171.3683    20058.729   -3358.4673      3177.47    -77.90968    76.031352 
   95300    872.54721   -107.26106   0.78949905   -106.47156    -8844.587    4.2471973    4.2471973    4.2471973    -8844.587   -8101.0964   -30944.349    12511.684    10442.236    164.59907    -7081.535    76.613852 
   95400    916.61974    -107.3048    0.8293768   -106.47542   -15608.752    4.2499913    4.2499913    4.2499913   -15608.752   -43024.349    5882.4592   -9684.3668    3456.4958    7775.9938   -789.84723    76.765154 
   95500    1372.2144   -107.71099    1.2416085   -106.46938    19748.451    4.2337926    4.2337926    4.2337926    19748.451   -3279.9102     36210.09    26315.173   -5996.0069    4265.9379    -3374.685     75.89073 
   95600    1253.7724   -107.60774    1.1344396    -106.4733   -4395.6269    4.2478305    4.2478305    4.2478305   -4395.6269   -12473.326   -13017.328    12303.774    15809.485   -4229.5235   -4931.1665    76.648123 
   95700    814.10217   -107.21098   0.73661675   -106.47437   -6606.4721     4.249014     4.249014     4.249014   -6606.4721   -23236.102    3781.9985   -365.31326    2197.2167    8430.5042   -1635.9686    76.712211 
   95800    687.13409   -107.09011   0.62173337   -106.46837    15687.396    4.2353729    4.2353729    4.2353729    15687.396   -1214.6937    11093.604    37183.278    613.00388    3804.8108   -1978.3409    75.975743 
   95900    463.12566   -106.89188   0.41904583   -106.47283   -10153.169    4.2480672    4.2480672    4.2480672   -10153.169   -983.22847   -54722.796    25246.517        20848   -3320.6526   -5655.8785     76.66094 
   96000    635.23925   -107.04528   0.57477783    -106.4705   -9231.2675    4.2478219    4.2478219    4.2478219   -9231.2675   -14361.892   -17342.392    4010.4816    -3891.541    9309.4192   -100.98407    76.647659 
   96100    918.01335   -107.29991   0.83063777   -106.46928    7317.5474    4.2374151    4.2374151    4.2374151    7317.5474   -11111.382    20415.162    12648.862    10355.272    592.01757   -2033.2931      76.0857 
   96200    1156.2721   -107.51995    1.0462193   -106.47373   -3876.1445    4.2471233    4.2471233    4.2471233   -3876.1445   -13711.376   -10657.717     12740.66    23625.918    996.58371   -7984.9985    76.609848 
   96300    1519.8213   -107.84464    1.3751663   -106.46947    3600.3259    4.2453566    4.2453566    4.2453566    3600.3259   -7411.4196     25277.89   -7065.4929   -7687.0816    8784.5777    4922.3235    76.514285 
   96400    1086.6355   -107.45626    0.9832106   -106.47305    7890.5692    4.2396558    4.2396558    4.2396558    7890.5692     -12049.8    24401.223    11320.285    15497.543    6102.2516    3487.6217    76.206463 
   96500    820.91984   -107.21717   0.74278552   -106.47439   -12336.618    4.2484008    4.2484008    4.2484008   -12336.618   -8452.7988   -38803.981    10246.926    18005.004   -4846.2073   -1865.8469    76.678999 
   96600    794.42415   -107.18684   0.71881167   -106.46803   -2604.3753    4.2444504    4.2444504    4.2444504   -2604.3753    11452.997   -20671.257    1405.1332   -7472.1445    2998.9984   -2075.5175    76.465297 
   96700    440.74523   -106.87149   0.39879554   -106.47269   -5246.9592    4.2410725    4.2410725    4.2410725   -5246.9592   -14674.157   -15652.921      14586.2    23617.733    5447.2924      597.952    76.282883 
   96800      579.616    -106.9992   0.52444874   -106.47476   -1677.8326    4.2487502    4.2487502    4.2487502   -1677.8326   -5222.1596   -11442.455    11631.117    7683.8547   -5436.4111   -1079.7151    76.697924 
   96900    1183.8734   -107.53911    1.0711935   -106.46792    1262.0281    4.2444448    4.2444448    4.2444448    1262.0281    91.991862    9016.6233   -5322.5307   -4864.6317    2319.0042   -7764.3174    76.464994 
   97000    935.05803   -107.32022   0.84606015   -106.47416    8020.3611    4.2400103    4.2400103    4.2400103    8020.3611    -883.1322    7421.5415    17522.674    31251.072    4794.4065     2816.248    76.225577 
   97100    1181.8358   -107.54097    1.0693498   -106.47162    2845.4748    4.2485826    4.2485826    4.2485826    2845.4748   -2581.9656   -7696.7523    18815.142    552.12185   -2406.8953   -1787.3399    76.688845 
   97200    1051.4587   -107.42109    0.9513819   -106.46971    5733.5765     4.246844     4.246844     4.246844    5733.5765    2161.7637   -19459.768    34498.734    -426.8784   -1642.7839    125.55646    76.594737 
   97300    705.48318   -107.10998   0.63833601   -106.47164     4014.436    4.2427142    4.2427142    4.2427142     4014.436   -9028.5454   -31891.204    52963.057    26891.463    9184.9445   -123.31578      76.3715 
   97400    852.22089   -107.23874   0.77110738   -106.46763    2123.1308    4.2462912    4.2462912    4.2462912    2123.1308   -7066.1281   -13690.108    27125.629   -6335.7418   -1911.7523   -5217.5739    76.564827 
   97500    664.36486   -107.07169   0.60113129   -106.47056   -2636.1993    4.2453293    4.2453293    4.2453293   -2636.1993   -8948.9389   -13230.295    14270.636    9514.0187   -5773.8216   -4167.4096    76.512812 
   97600    677.79884   -107.08582   0.61328663   -106.47254   -5775.5801    4.2454824    4.2454824    4.2454824   -5775.5801   -5391.8591   -10984.469   -950.41281    24706.301    3516.3856   -269.30279    76.521087 
   97700    1037.6346   -107.40588   0.93887356     -106.467    7867.4575    4.2446651    4.2446651    4.2446651    7867.4575    19571.285    15399.024   -11367.936   -10046.517    3971.3436    -4557.332    76.476902 
   97800    876.64262   -107.26423   0.79320466   -106.47102   -3382.3654    4.2443037    4.2443037    4.2443037   -3382.3654    3546.3492   -5062.6124   -8630.8331    18606.501   -4873.4673    -6879.046    76.457368 
   97900    923.71123   -107.30742   0.83579333   -106.47163   -8852.6485    4.2480167    4.2480167    4.2480167   -8852.6485   -2822.5823   -15638.059   -8097.3037    23772.957     4967.851     208.1377    76.658203 
   98000    1278.2109   -107.62267    1.1565521   -106.46612   -312.95113    4.2434278    4.2434278    4.2434278   -312.95113   -2011.6161   -4380.6083     5453.371   -8291.9847    5830.7467    158.51646    76.410044 
   98100    822.57757   -107.21667   0.74428548   -106.47239   -514.60241    4.2426172    4.2426172    4.2426172   -514.60241   -10750.226   -21890.751     31097.17    22055.144   -11441.792    1015.9809    76.366263 
   98200    881.46379   -107.27042   0.79756696   -106.47285   -13791.674    4.2483772    4.2483772    4.2483772   -13791.674   -18649.735   -23268.091    542.80329    16407.497    14619.649   -2439.6525    76.677723 
   98300    956.10454   -107.33338   0.86510348   -106.46828    11198.306    4.2417827    4.2417827    4.2417827    11198.306    22671.798      9583.19    1339.9306   -7324.7447    9110.0806    2752.6071     76.32121 
   98400    737.50309   -107.13966    0.6673083   -106.47235   -8477.3435     4.243117     4.243117     4.243117   -8477.3435   -1948.6616   -5611.9438   -17871.425    25371.008    -8319.372    -952.2472    76.393257 
   98500      732.748   -107.13604   0.66300579   -106.47303   -13794.688    4.2484242    4.2484242    4.2484242   -13794.688   -6118.5419    6201.7109   -41467.234     4433.146    13370.313    1028.1731    76.680266 
   98600    1064.7101    -107.4319   0.96337208   -106.46853    2758.1066     4.239533     4.239533     4.239533    2758.1066    3838.2085    12952.416   -8516.3047   -2813.4498    9694.8862    4297.1438    76.199839 
   98700    809.01449   -107.20617   0.73201331   -106.47416     5152.678    4.2427431    4.2427431    4.2427431     5152.678   -4771.6007   -17922.102    38151.737     28615.28   -3990.1483   -3188.2164    76.373064 
   98800    962.06016   -107.34329   0.87049225    -106.4728   -8742.0007    4.2486621    4.2486621    4.2486621   -8742.0007   -17437.401   -22761.179    13972.578    2335.4859     4723.984    4592.1871     76.69315 
   98900    920.35447   -107.30271   0.83275607   -106.46995    12060.158      4.24064      4.24064      4.24064    12060.158    14137.055   -13199.142    35242.562   -259.78889    7065.9299    2401.3981    76.259545 
   99000    868.65634   -107.25863   0.78597851   -106.47266   -7085.5957    4.2447888    4.2447888    4.2447888   -7085.5957   -9627.5061   -29904.832    18275.551    25526.257     -5801.34    2188.2089    76.483588 
   99100    816.38437   -107.21003   0.73868174   -106.47134   -7338.1264    4.2473359    4.2473359    4.2473359   -7338.1264   -3571.4165    11698.451   -30141.414    3132.7242    5957.3245    -1156.378    76.621355 
   99200    928.98404   -107.31087   0.84056428   -106.47031     3471.585     4.239886     4.239886     4.239886     3471.585    2581.8433    25308.255   -17475.343    -2419.639    11775.868   -3312.9037    76.218874 
   99300    823.19574    -107.2168   0.74484481   -106.47195   -781.00279    4.2470862    4.2470862    4.2470862   -781.00279    -243.1176   -6571.4166    4471.5258    13396.005   -7458.8209    982.82127    76.607842 
   99400    898.28513   -107.28303   0.81278726   -106.47024   -7783.9796    4.2464836    4.2464836    4.2464836   -7783.9796   -7818.0221    2860.2023   -18394.119    182.84826    9598.5154   -5954.6611    76.575237 
   99500     800.1516   -107.19445   0.72399399   -106.47046    1550.0413    4.2393925    4.2393925    4.2393925    1550.0413    5720.3243   -14240.285    13170.084     1091.427    12115.374   -1733.8871    76.192266 
   99600    955.98329   -107.33534   0.86499377   -106.47035   -16841.234    4.2489489    4.2489489    4.2489489   -16841.234   -15603.891   -49637.352    14717.541    12990.466   -6859.6655   -4984.0106    76.708684 
   99700    973.63816   -107.35013   0.88096827   -106.46916   -9587.7989    4.2467462    4.2467462    4.2467462   -9587.7989   -11019.622   -6283.4058   -11460.369    -3394.774    2909.0595   -2983.2452    76.589442 
   99800    1056.4772   -107.42553   0.95592277   -106.46961   -562.51456    4.2404503    4.2404503    4.2404503   -562.51456   -9574.6485    14821.123   -6934.0185    1431.6583    10796.417    1027.8016    76.249314 
   99900     1135.327   -107.49639    1.0272677   -106.46913   -561.30802     4.248462     4.248462     4.248462   -561.30802     3693.416    6042.0902    -11419.43    15093.544   -2203.8142    -3506.549    76.682313 
  100000    1026.4414   -107.39799   0.92874573   -106.46924    -8179.437    4.2473573    4.2473573    4.2473573    -8179.437   -2059.4145    20488.675   -42967.572   -2751.1375    -4778.139   -3530.7866    76.622514 
Loop time of 23.0143 on 1 procs for 100000 steps with 8 atoms

Pair  time (%) = 7.6215 (33.1163)
Kspce time (%) = 5.49719 (23.8859)
Neigh time (%) = 0 (0)
Comm  time (%) = 1.11839 (4.85955)
Outpt time (%) = 0.0261283 (0.11353)
Other time (%) = 8.75114 (38.0247)

Nlocal:    8 ave 8 max 8 min
Histogram: 1 0 0 0 0 0 0 0 0 0
Nghost:    2189 ave 2189 max 2189 min
Histogram: 1 0 0 0 0 0 0 0 0 0
Neighs:    2472 ave 2472 max 2472 min
Histogram: 1 0 0 0 0 0 0 0 0 0

Total # of neighbors = 2472
Ave neighs/atom = 309
Neighbor list builds = 0
Dangerous builds = 0
unfix 20
unfix 21
print "seeds:9432793"
seeds:9432793
