LAMMPS (10 Feb 2015)
# ---- initialize simulations
clear
units metal
dimension 3
boundary p p p
atom_style charge
atom_modify map array
# ---- create atoms
read_data /Users/eugeneragasa/pyflamestk_git/pypospack/tests/tests_integration/workflow/WorkflowLammpsThermalExpansion/param_3867/MgO_NaCl_unit.npt.T1000/lammps.structure
  triclinic box = (0 0 0) to (4.2565 4.2565 4.2565) with tilt (0 0 0)
  1 by 1 by 1 MPI processor grid
  reading atoms ...
  8 atoms
# ---- define interatomic potential
include potential.mod
mass 1 24.305
mass 2 15.999

group Mg type 1
4 atoms in group Mg
group O type 2
4 atoms in group O

set group Mg charge 1.73479148785
  4 settings made for charge
set group O charge -1.73479148785
  4 settings made for charge

variable R_cut equal 10.0

pair_style buck/coul/long ${R_cut}
pair_style buck/coul/long 10
pair_coeff 1 1 0.0 0.5 0.0 ${R_cut}
pair_coeff 1 1 0.0 0.5 0.0 10
pair_coeff 1 2 1225.32983502 0.291530354982 0.0 ${R_cut}
pair_coeff 1 2 1225.32983502 0.291530354982 0.0 10
pair_coeff 2 2 16858.6500597 0.120403294253 7.45918898041 ${R_cut}
pair_coeff 2 2 16858.6500597 0.120403294253 7.45918898041 10

kspace_style pppm 1.0e-5

neighbor 1.0 bin
neigh_modify every 1 delay 0 check yes
# ---- define settings
compute eng all pe/atom
compute eatoms all reduce sum c_eng
# ---- run minimization
reset_timestep 0
fix 1 all box/relax iso 0.0 vmax 0.001
thermo 10
thermo_style custom step pe lx ly lz xy xz yz press pxx pyy pzz pxy pxz pyz c_eatoms
min_style cg
minimize 1e-25 1e-25 5000 10000
PPPM initialization ...
  G vector (1/distance) = 0.3534
  grid = 8 8 8
  stencil order = 5
  estimated absolute RMS force accuracy = 4.23269e-05
  estimated relative force accuracy = 2.93944e-06
  using double precision FFTs
  3d grid and FFT values/proc = 3375 512
Neighbor list info ...
  1 neighbor list requests
  update every 1 steps, delay 0 steps, check yes
  master list distance cutoff = 11
Memory usage per processor = 4.06549 Mbytes
Step PotEng Lx Ly Lz Xy Xz Yz Press Pxx Pyy Pzz Pxy Pxz Pyz eatoms 
       0   -122.62677       4.2565       4.2565       4.2565            0            0            0    18600.794    18600.794    18600.794    18600.794 4.9707872e-11 4.7042733e-11 1.8950886e-10   -122.62677 
       5   -122.63132    4.2712858    4.2712858    4.2712858            0            0            0   -6.7076035   -6.7076035   -6.7076035   -6.7076035 9.5134085e-11 4.9732958e-12 8.6603347e-11   -122.63132 
Loop time of 0.00748587 on 1 procs for 5 steps with 8 atoms

Minimization stats:
  Stopping criterion = linesearch alpha is zero
  Energy initial, next-to-last, final = 
        -122.626768711     -122.631316441     -122.631316441
  Force two-norm initial, final = 2.68597 0.0019334
  Force max component initial, final = 2.68596 0.000975322
  Final line search alpha, max atom move = 0.00390625 3.80985e-06
  Iterations, force evaluations = 5 22

Pair  time (%) = 0.0020473 (27.3489)
Kspce time (%) = 0.0012145 (16.224)
Neigh time (%) = 0 (0)
Comm  time (%) = 0.000227451 (3.03841)
Outpt time (%) = 0 (0)
Other time (%) = 0.00399661 (53.3888)

Nlocal:    8 ave 8 max 8 min
Histogram: 1 0 0 0 0 0 0 0 0 0
Nghost:    2189 ave 2189 max 2189 min
Histogram: 1 0 0 0 0 0 0 0 0 0
Neighs:    2344 ave 2344 max 2344 min
Histogram: 1 0 0 0 0 0 0 0 0 0

Total # of neighbors = 2344
Ave neighs/atom = 293
Neighbor list builds = 0
Dangerous builds = 0
unfix 1
# ---- define output variables ----
variable natoms equal "count(all)"
variable tot_energy equal "c_eatoms"
variable length_x equal "lx"
variable length_y equal "ly"
variable length_z equal "lz"
variable tilt_xy equal "xy"
variable tilt_xz equal "xz"
variable tilt_yz equal "yz"
variable tot_press equal "press"
variable press_xx equal "pxx"
variable press_yy equal "pyy"
variable press_zz equal "pzz"
variable press_xy equal "pxy"
variable press_xz equal "pxz"
variable press_yz equal "pyz"

# ---- output ----
print "pypospack:output_section:begin"
pypospack:output_section:begin
print "tot_energy = ${tot_energy}"
tot_energy = -122.631316441343
print "num_atoms = ${natoms}"
num_atoms = 8
print "xx = ${length_x}"
xx = 4.27128583299446
print "yy = ${length_y}"
yy = 4.27128583299446
print "zz = ${length_z}"
zz = 4.27128583299446
print "xy = ${tilt_xy}"
xy = 0
print "xz = ${tilt_xz}"
xz = 0
print "yz = ${tilt_yz}"
yz = 0
print "tot_press = ${tot_press}"
tot_press = -6.70760353710228
print "pxx = ${press_xx}"
pxx = -6.70760353705429
print "pyy = ${press_yy}"
pyy = -6.70760353725253
print "pzz = ${press_zz}"
pzz = -6.70760353700002
print "pxy = ${press_xy}"
pxy = 9.51340852761742e-11
print "pxz = ${press_xz}"
pxz = 4.97329584958765e-12
print "pyz = ${press_yz}"
pyz = 8.66033470907354e-11
print "pypospack:output_section:done"
pypospack:output_section:done
print "pypospack:lammps_sim:done"
pypospack:lammps_sim:done
#------------------------------------------------------------------------------
# RUN THERMOSTAT
# running using an NPT Nose-Hoover style thermostat
#------------------------------------------------------------------------------
variable tempdamp equal 0.1
variable pressdamp equal 1.0
# set initial velocities
velocity all create 1000 5667677 mom yes dist gaussian loop all
# fix for Nose-Hoover style thermostat
fix 20 all npt temp 1000 1000 0.1 aniso 0.0 0.0 1.0 drag 1.0 couple xyz
variable boxx equal lx
variable boxy equal ly
variable boxz equal lz
variable boxp equal press
variable boxt equal temp
# calculate averages every 10000 steps
reset_timestep 0
fix 21 all ave/time 10 10 100 v_boxx v_boxy v_boxz v_boxp v_boxt file lattice.out
thermo_style custom step temp pe ke etotal press lx ly lz press pxx pyy pzz pxy pxz pyz vol
thermo_modify flush yes
thermo 100
run 100000
PPPM initialization ...
  G vector (1/distance) = 0.353246
  grid = 8 8 8
  stencil order = 5
  estimated absolute RMS force accuracy = 4.26311e-05
  estimated relative force accuracy = 2.96057e-06
  using double precision FFTs
  3d grid and FFT values/proc = 3375 512
Memory usage per processor = 3.06549 Mbytes
Step Temp PotEng KinEng TotEng Press Lx Ly Lz Press Pxx Pyy Pzz Pxy Pxz Pyz Volume 
       0         1000   -122.63132   0.90482102    -121.7265    12395.103    4.2712858    4.2712858    4.2712858    12395.103    11664.873     15295.84    10224.597   -2408.8179    2287.3737   -3472.7185    77.924838 
     100    279.93821   -121.86692   0.25329398   -121.61362    14544.754    4.3082555    4.3082555    4.3082555    14544.754    8136.2487    26102.157    9395.8572    2001.6201   -2136.8208    12964.132    79.965812 
     200    730.45127     -122.032   0.66092766   -121.37107   -30508.059     4.332764     4.332764     4.332764   -30508.059    -36515.99   -12391.938   -42616.251   -3463.9722   -3743.0153   -6159.2745    81.338304 
     300    957.15859   -122.00632   0.86605721   -121.14026    12712.195     4.304004     4.304004     4.304004    12712.195   -214.73264    28028.511    10322.808    6082.2044   -771.21241   -892.37272    79.729308 
     400    909.68314   -121.81207   0.82310042   -120.98897    23844.363    4.3133451    4.3133451    4.3133451    23844.363    15648.081    40931.746    14953.261   -7782.4353   -803.99631    12475.309    80.249552 
     500    1073.7287   -121.83931   0.97153229   -120.86777   -35407.595    4.3516253    4.3516253    4.3516253   -35407.595   -17668.924   -43764.216   -44789.645    7958.7635   -6251.7114   -7021.1819    82.405173 
     600    875.40608   -121.59115   0.79208582   -120.79906   -14066.647    4.3298774    4.3298774    4.3298774   -14066.647   -40149.226    14511.296   -16562.011   -1846.1663   -13097.339    5073.3857    81.175839 
     700    1257.8159   -121.91099    1.1380982   -120.77289    14127.871    4.3016441    4.3016441    4.3016441    14127.871    27332.914    22146.409   -7095.7078   -5360.1775    17103.061    7562.6005    79.598234 
     800    721.84511    -121.4768   0.65314063   -120.82366   -12711.266    4.3482037    4.3482037    4.3482037   -12711.266   -18542.737    9367.2944   -28958.356    6002.1301    -15432.35   -5081.2562    82.210947 
     900    951.56633   -121.67049   0.86099721   -120.80949   -30097.345    4.3414446    4.3414446    4.3414446   -30097.345   -63150.275    38845.536   -65987.297   -4313.1797   -18724.529   -4917.1204    81.828162 
    1000    486.64346   -121.22365   0.44032523   -120.78332    60937.037    4.2937062    4.2937062    4.2937062    60937.037    49233.454    73611.433    59966.225    9092.0166   -3905.0481    12822.484    79.158394 
    1100     954.4262   -121.69512   0.86358488   -120.83154   -13851.384    4.3353079    4.3353079    4.3353079   -13851.384    18175.456   -21025.764   -38703.842    604.79175    3470.8267   -1902.8697    81.481653 
    1200    762.28521   -121.49551   0.68973167   -120.80577   -11892.045    4.3489108    4.3489108    4.3489108   -11892.045   -8880.1261   -941.23846   -25854.769    7190.8271    4542.7755    8427.2024    82.251059 
    1300    974.11174   -121.65505   0.88139677   -120.77365    38407.812    4.3041911    4.3041911    4.3041911    38407.812    47391.943    31941.476    35890.017    10277.509   -9810.9959   -6449.1882    79.739709 
    1400     1102.566   -121.80415   0.99762487   -120.80652   -26530.466    4.3295856    4.3295856    4.3295856   -26530.466   -44491.373    8741.3598   -43841.384     352.6568    12774.489   -740.33064    81.159433 
    1500    616.80887   -121.36411   0.55810163   -120.80601   -6131.5256    4.3388396    4.3388396    4.3388396   -6131.5256   -32596.341     6052.926    8148.8379    12351.638    3354.4329    -882.0625     81.68095 
    1600    1296.8394   -121.97067    1.1734075   -120.79726    10657.048    4.3097947    4.3097947    4.3097947    10657.048   -9984.3486    17481.109    24474.383    210.88947    2422.4869   -9604.1789    80.051553 
    1700    1107.6712   -121.82286    1.0022442   -120.82061    -19627.38     4.331055     4.331055     4.331055    -19627.38   -29699.117    12025.893   -41208.917    1961.5372   -4998.5573    742.41462    81.242089 
    1800    782.11708   -121.52258   0.70767597    -120.8149   -28411.406    4.3377487    4.3377487    4.3377487   -28411.406   -50788.171   -9976.2927   -24469.753   -341.65292    25190.632   -1300.8699    81.619358 
    1900    1271.7178   -121.94128     1.150677    -120.7906    9822.8931    4.3014072    4.3014072    4.3014072    9822.8931   -6607.9206    44441.602   -8365.0021   -12485.434    10985.981    -2290.028    79.585086 
    2000    784.89398   -121.53632   0.71018857   -120.82613    17179.916    4.3327722    4.3327722    4.3327722    17179.916    35680.178    21533.809   -5674.2381    10411.869    1317.6326    1793.1191    81.338762 
    2100    1162.5898   -121.85624    1.0519356   -120.80431   -36811.012    4.3430006    4.3430006    4.3430006   -36811.012   -1577.0955   -37983.975   -70871.966    7220.3996   -7082.3336    -10866.54    81.916175 
    2200    846.09545   -121.54054   0.76556494   -120.77497    51101.149    4.2894632    4.2894632    4.2894632    51101.149     89534.88    35301.224    28467.343    5499.2624    16323.135    2464.0572    78.923957 
    2300    1289.0046     -121.996    1.1663184   -120.82968   -28837.316    4.3301432    4.3301432    4.3301432   -28837.316   -39778.975    3823.5179   -50556.492    401.15508    11708.183     3700.541    81.190792 
    2400     984.5228   -121.68865   0.89081692   -120.79783    -32526.16    4.3562882    4.3562882    4.3562882    -32526.16   -4018.5065   -51084.344    -42475.63   -5124.8282    2610.9436   -4097.5876    82.670355 
    2500     1160.675   -121.83169    1.0502031   -120.78148    20682.316    4.3043562    4.3043562    4.3043562    20682.316    59702.739    13128.043   -10783.833    3449.5752   -567.05133    4922.8752    79.748883 
    2600    684.22811   -121.42409   0.61910397   -120.80498    20659.122    4.3086984    4.3086984    4.3086984    20659.122    62203.575    14365.802   -14592.009   -15412.165    19776.932    -336.2927     79.99048 
    2700    1019.7676   -121.73534   0.92270714   -120.81264   -31816.975    4.3471344    4.3471344    4.3471344   -31816.975   -24981.318   -21816.352   -48653.253   -3460.3479   -5100.1533   -6696.3361    82.150307 
    2800    1079.6465   -121.77913    0.9768868   -120.80224   -12534.306    4.3373546    4.3373546    4.3373546   -12534.306   -5775.6328   -8286.2969   -23540.988   -15015.172    3253.6723    2130.7327    81.597111 
    2900    1318.6209   -121.98028    1.1931159   -120.78716    17885.544    4.2957242    4.2957242    4.2957242    17885.544    54622.858   -373.11186   -593.11316   -6399.7675     7830.487   -6347.1003    79.270056 
    3000    446.43506    -121.2336   0.40394382   -120.82965    27635.973    4.3129444    4.3129444    4.3129444    27635.973     19972.15    17783.767        45152    11503.575    5929.5605   -3288.1101     80.22719 
    3100     1079.952   -121.80217   0.97716325     -120.825   -51057.748    4.3394828    4.3394828    4.3394828   -51057.748    -41098.94   -51589.983   -60484.321   -10658.805    12015.903   -6165.7866    81.717282 
    3200    1174.0983   -121.86815    1.0623489    -120.8058    25971.753    4.3025186    4.3025186    4.3025186    25971.753    44478.479    19393.429    14043.352   -7223.4656   -76.247676    5243.5646    79.646788 
    3300    846.36928   -121.58659   0.76581271   -120.82078    14373.824     4.310719     4.310719     4.310719    14373.824    34262.175   -12552.007    21411.304    3630.0257    16860.636    4802.9161    80.103064 
    3400    989.78831    -121.7194   0.89558126   -120.82382   -30342.096    4.3338494    4.3338494    4.3338494   -30342.096   -12472.126   -14250.552    -64303.61   -334.45686    6345.6955    -8697.549    81.399445 
    3500    684.63773   -121.44318    0.6194746   -120.82371    8278.4439    4.3251475    4.3251475    4.3251475    8278.4439    69885.416   -37182.608   -7867.4763    -11109.73     2493.975   -4492.6575    80.910106 
    3600     1308.662   -121.99841    1.1841049   -120.81431    17599.248    4.3024218    4.3024218    4.3024218    17599.248     9792.502    14831.545    28173.697    -2879.169    63.908548   -4115.1159    79.641413 
    3700    1247.1079   -121.95758    1.1284095   -120.82917    8811.7579    4.3129266    4.3129266    4.3129266    8811.7579    53262.375   -12129.382    -14697.72    271.65014    329.66899    5155.4009    80.226195 
    3800    689.39244    -121.4439   0.62377676   -120.82012   -45542.569    4.3502526    4.3502526    4.3502526   -45542.569   -30754.381   -59148.508   -46724.819    3446.6187    22565.079    -18774.91    82.327216 
    3900    973.06989   -121.69489   0.88045409   -120.81444   -2140.5638    4.3040894    4.3040894    4.3040894   -2140.5638    47702.363   -23822.097   -30301.957    2340.8209    8000.0251    4687.0639    79.734053 
    4000    980.48741   -121.70556   0.88716561    -120.8184    34494.642    4.2961513    4.2961513    4.2961513    34494.642    76486.349   -8371.2393    35368.816    2256.5788    -2880.379    15437.738    79.293704 
    4100    1398.5024   -122.08311    1.2653944   -120.81772   -40428.051    4.3456747    4.3456747    4.3456747   -40428.051    -12777.22   -62183.677   -46323.258    15841.176   -3350.7786   -6342.7825     82.06758 
    4200    705.97681   -121.44228   0.63878266   -120.80349   -3384.1108    4.3374917    4.3374917    4.3374917   -3384.1108    43115.992   -50913.312   -2355.0123    3119.7602    14533.604   -2773.6404    81.604847 
    4300    1230.4702   -121.91346    1.1133553    -120.8001   -7098.9869    4.3043231    4.3043231    4.3043231   -7098.9869    8040.1116   -11748.027   -17589.045    -4673.557    11221.359   -2184.6626    79.747043 
    4400    1146.8035   -121.85596    1.0376519   -120.81831    16927.711    4.3073573    4.3073573    4.3073573    16927.711    63107.396   -15647.357    3323.0936    -3285.265    6417.8261    3230.9063    79.915806 
    4500    1240.1098    -121.9385    1.1220775   -120.81642   -54414.181    4.3563897    4.3563897    4.3563897   -54414.181   -54539.055   -65018.422   -43685.065    2911.0073     5301.682   -4639.9611    82.676137 
    4600    617.56192   -121.36661     0.558783   -120.80783   -33221.459    4.3320613    4.3320613    4.3320613   -33221.459   -29290.609   -28940.446   -41433.321    2638.0912    25326.139   -7405.3646    81.298733 
    4700    1318.1985   -121.94649    1.1927337   -120.75376    33088.057    4.2610453    4.2610453    4.2610453    33088.057     30947.14    42495.205    25821.824   -3815.2135     9449.106    12818.449    77.365697 
    4800    1203.1178   -121.93871    1.0886062    -120.8501   -8242.3139    4.3235996    4.3235996    4.3235996   -8242.3139    23295.633   -16962.344   -31060.231   -5699.0985   -10035.339    10379.192    80.823266 
    4900    1131.0326   -121.82131    1.0233821   -120.79793   -44574.204    4.3532189    4.3532189    4.3532189   -44574.204    -9409.505   -60163.833   -64149.274   -3326.2201    2820.1911   -6697.3214    82.495742 
    5000    998.40425   -121.66732   0.90337715   -120.76395    52076.268    4.2706897    4.2706897    4.2706897    52076.268    89927.095    29552.687    36749.023    9371.3034    19658.902    480.50145    77.892215 
    5100    803.76836   -121.54903    0.7272665   -120.82176   -8933.9121    4.3049635    4.3049635    4.3049635   -8933.9121    35970.685    -27836.47   -34935.951     975.7277    9789.8893    15668.982    79.782643 
    5200    915.72148   -121.61846   0.82856404    -120.7899   -47688.147    4.3480094    4.3480094    4.3480094   -47688.147   -27277.655    -59889.52   -55897.267    3205.9796   -13842.877    10042.844    82.199923 
    5300    1177.9683   -121.84615    1.0658505    -120.7803     13775.24    4.3073254    4.3073254    4.3073254     13775.24     70798.64   -6312.8264   -23160.094   -2941.4961   -588.59016   -2783.8954    79.914032 
    5400    938.23618   -121.64585   0.84893581   -120.79692    3511.3387    4.3099733    4.3099733    4.3099733    3511.3387    22033.214   -11791.814    292.61565   -8027.2771    12931.534    12806.401    80.061502 
    5500    1177.1931   -121.86646    1.0651491   -120.80131   -40530.958    4.3218879    4.3218879    4.3218879   -40530.958   -20595.748   -49844.746   -51152.381   -16137.202   -1303.1025    11530.881    80.727314 
    5600     753.2262   -121.48761   0.68153489   -120.80607    11216.067    4.3128094    4.3128094    4.3128094    11216.067    12859.326    48651.255    -27862.38   -3249.8899   -20303.149    4372.5563    80.219655 
    5700    1123.1472   -121.82711    1.0162472   -120.81087   -9393.9893    4.3249371    4.3249371    4.3249371   -9393.9893    26295.281   -12610.362   -41866.887    1052.6895   -7554.6353   -7892.9147    80.898296 
    5800    1172.4763    -121.8647    1.0608812   -120.80382    5373.9596    4.3157427    4.3157427    4.3157427    5373.9596    16383.396    1494.7693   -1756.2869   -4065.9973    13579.933    2432.5176    80.383446 
    5900    833.29386   -121.55623    0.7539818   -120.80225    13764.153    4.3073979    4.3073979    4.3073979    13764.153    49681.802    22651.035   -31040.379    7634.7118   -10698.642    12085.017    79.918068 
    6000    614.12742   -121.36704    0.5556754   -120.81137   -22932.475    4.3272138    4.3272138    4.3272138   -22932.475   -26418.875    4745.9801   -47124.529   -11727.885   -26121.609   -2960.9329    81.026125 
    6100    1336.1021   -122.01035    1.2089333   -120.80142   -10082.468     4.308552     4.308552     4.308552   -10082.468    3310.8908   -16350.253   -17208.042   -927.24819   -2770.5672   -5227.5753    79.982323 
    6200     1137.389   -121.83685    1.0291335   -120.80772    25979.917    4.3052922    4.3052922    4.3052922    25979.917    54171.342    20100.168    3668.2421    -1366.438    605.19139     6994.634    79.800918 
    6300    1158.9417   -121.86153    1.0486348    -120.8129   -29324.658    4.3229839    4.3229839    4.3229839   -29324.658   -11009.313   -35793.141   -41171.519   -2900.3042   -7088.3489    12717.617    80.788745 
    6400    618.25694   -121.36631   0.55941187    -120.8069     27553.24    4.3025764    4.3025764    4.3025764     27553.24    49785.339    15056.522    17817.858   -17645.201   -19187.532   -2995.9634        79.65 
    6500    1047.1066   -121.75895   0.94744409   -120.81151    -2254.453    4.3213619    4.3213619    4.3213619    -2254.453    14487.455   -1785.4314   -19465.383      2202.84    2872.0429   -13221.644    80.697844 
    6600    1184.9554   -121.86802    1.0721726   -120.79584   -20745.844    4.3302235    4.3302235    4.3302235   -20745.844    4583.5705   -33029.718   -33791.384   -3100.5439    19228.117    7778.6521    81.195307 
    6700    972.52057   -121.66988   0.87995705   -120.78992    33694.528    4.2915724    4.2915724    4.2915724    33694.528    25101.149    46181.573    29800.864   -9517.3848   -9858.1177    3353.4741    79.040434 
    6800    853.57224   -121.59224    0.7723301   -120.81991    1742.1236    4.3148423    4.3148423    4.3148423    1742.1236    18222.544    4360.3408   -17356.514    6669.6181   -23275.344    -3050.143    80.333146 
    6900    1147.2826   -121.84277    1.0380854   -120.80468   -48191.014    4.3337376    4.3337376    4.3337376   -48191.014    -37067.53   -34033.164   -73472.348   -3707.2592    10176.146    2106.6097    81.393148 
    7000    757.96835   -121.47798   0.68582569   -120.79216    53454.008     4.282821     4.282821     4.282821    53454.008    85667.928    25759.074    48935.021    10941.736    18621.977    7557.2343     78.55788 
    7100      1222.59   -121.92222    1.1062252     -120.816    6727.9691    4.3016889    4.3016889    4.3016889    6727.9691    8215.4749    9214.4664    2753.9659   -8194.4199   -34.807901     1753.442    79.600721 
    7200    829.77572   -121.54561    0.7507985   -120.79481   -47930.349    4.3477697    4.3477697    4.3477697   -47930.349   -36586.983   -55956.817   -51247.246    -11353.12   -15139.932   -10666.437    82.186329 
    7300    1047.9927   -121.74076   0.94824579   -120.79252   -16203.553    4.2976345    4.2976345    4.2976345   -16203.553   -24802.598   -9445.8449   -14362.216    18543.769    7664.2816   -2713.9495    79.375859 
    7400    710.97103   -121.43146   0.64330153   -120.78815    47695.505    4.2816688    4.2816688    4.2816688    47695.505    67454.372    39719.983    35912.159    -6189.884    26658.709    5985.2763    78.494496 
    7500     1136.324    -121.8203    1.0281698   -120.79213   -29481.603    4.3325795    4.3325795    4.3325795   -29481.603    1857.3755   -33396.263   -56905.922   -2227.7744   -3050.9028    1315.5292    81.327911 
    7600    1054.3283   -121.74041   0.95397839   -120.78643    5969.7199    4.3118728    4.3118728    4.3118728    5969.7199    26889.704    -21368.96    12388.416    8185.3917    -20556.96   -2447.3567    80.167404 
    7700    827.72527   -121.53808   0.74894322   -120.78914    2297.6291    4.3009388    4.3009388    4.3009388    2297.6291   -2963.6299    24858.451   -15001.934   -9697.1164    20035.896   -2679.6674    79.559088 
    7800    828.21151    -121.5488   0.74938318   -120.79941   -21601.591    4.3166179    4.3166179    4.3166179   -21601.591   -41435.872   -1576.0255   -21792.876    8916.9238    27678.793       3327.9    80.432361 
    7900    1295.1436    -121.9728    1.1718732   -120.80093    4508.6234    4.3026962    4.3026962    4.3026962    4508.6234    14403.238   -27632.657     26755.29    2338.1878   -14152.278    1763.1296    79.656653 
    8000    1045.8935    -121.7589   0.94634645   -120.81256     2011.231    4.3116349    4.3116349    4.3116349     2011.231    32739.623   -3598.6652   -23107.265      4234.66    6035.5941     1917.959    80.154138 
    8100    732.44058   -121.47548   0.66272763   -120.81275    21924.189    4.3088883    4.3088883    4.3088883    21924.189    43199.384    35112.755   -12539.573    595.58994    22694.393   -960.22823    80.001056 
    8200    935.05462   -121.65683   0.84605707   -120.81078    8024.3952    4.3163619    4.3163619    4.3163619    8024.3952    38110.484   -14600.789    563.49043    828.65069    15854.607    3232.4229    80.418053 
    8300    1331.1699   -121.99698    1.2044705   -120.79251   -17618.681    4.3248058    4.3248058    4.3248058   -17618.681   -7845.5926   -50898.921    5888.4704    8136.9343   -2084.6313   -854.87703    80.890932 
    8400    1431.6893   -122.08209    1.2954225   -120.78667    11131.673    4.2911471    4.2911471    4.2911471    11131.673    17677.294    19418.374   -3700.6499   -1766.9901   -362.96377   -6078.6117    79.016937 
    8500    673.27133   -121.42563   0.60919005   -120.81644    21818.509    4.3092134    4.3092134    4.3092134    21818.509    39136.422     10525.08    15794.024    4305.7617    20187.824   -1717.6104    80.019166 
    8600    896.50823   -121.60928   0.81117948    -120.7981     -32918.2    4.3388048    4.3388048    4.3388048     -32918.2   -16706.513   -50072.515   -31975.571   -576.92941    5947.0902    7792.0306    81.678987 
    8700    1234.8567   -121.90516    1.1173243   -120.78784    26351.496    4.2870717    4.2870717    4.2870717    26351.496    79867.197   -20098.053    19285.345   -4582.7016   -15559.003    5684.0305    78.792023 
    8800    910.64985   -121.63378   0.82397512   -120.80981    17134.739    4.2925847    4.2925847    4.2925847    17134.739    2735.5434    26432.728    22235.945    2216.7021    14571.698   -4309.6762    79.096381 
    8900    868.50134   -121.58562   0.78583826   -120.79978   -57068.762    4.3398994    4.3398994    4.3398994   -57068.762   -73275.219   -13897.008    -84034.06   -3113.5612    43274.291    4327.5436    81.740819 
    9000    1186.3851   -121.85904    1.0734661   -120.78557   -14249.061    4.3083728    4.3083728    4.3083728   -14249.061    5288.7772   -14268.684   -33767.276   -3205.1815     13181.84    3385.1931    79.972342 
    9100    1138.9818   -121.81506    1.0305747   -120.78449    18737.978    4.2902575    4.2902575    4.2902575    18737.978    60430.489   -19587.241    15370.686    10350.713   -13169.241   -7546.3035    78.967808 
    9200    952.71406   -121.66969    0.8620357   -120.80765    9285.5153    4.3090811    4.3090811    4.3090811    9285.5153    37787.244    6786.5464   -16717.244    8914.0431   -822.38571   -1046.1404    80.011794 
    9300    1105.5773   -121.81158    1.0003496   -120.81123   -18494.638    4.3268223    4.3268223    4.3268223   -18494.638     5775.893   -24861.588   -36398.219    3340.2825     19502.67   -2491.4553    81.004135 
    9400    1173.3467   -121.87311    1.0616688   -120.81144   -9867.1099    4.3113832    4.3113832    4.3113832   -9867.1099    16967.997   -14995.295   -31574.032    4000.6601   -10279.529    2395.8921    80.140102 
    9500    1070.9091    -121.7708   0.96898102   -120.80182    28755.769    4.2922935    4.2922935    4.2922935    28755.769    71074.092     18442.73   -3249.5139    5496.0994   -15292.981   -4050.9876    79.080285 
    9600    719.08318   -121.47401   0.65064158   -120.82337    -13682.95    4.3280872    4.3280872    4.3280872    -13682.95    34199.126   -45978.765   -29269.213    12673.912     7356.509   -9990.3197    81.075197 
    9700    1159.2273    -121.8518    1.0488932    -120.8029   -8681.2664    4.3228012    4.3228012    4.3228012   -8681.2664    9518.6582   -37601.457    2038.9992     2383.548     16809.51    5940.3765      80.7785 
    9800    1379.2381   -122.04285    1.2479636   -120.79489    21863.611    4.2945264    4.2945264    4.2945264    21863.611    47530.848    14309.147    3750.8385   -13595.203    4257.2245    7540.2046    79.203764 
    9900    1142.3975   -121.84194    1.0336652   -120.80828    20724.841    4.2968921    4.2968921    4.2968921    20724.841    52401.611   -17188.062    26960.974    7103.3179    473.95006   -6763.7895     79.33473 
   10000    873.38661   -121.61298   0.79025856   -120.82272    -11349.98    4.3197321    4.3197321    4.3197321    -11349.98    27391.663   -48712.801   -12728.802    18925.814    2232.9246   -6128.7164    80.606572 
   10100    878.45354   -121.60721   0.79484322   -120.81237   -26202.981    4.3170383    4.3170383    4.3170383   -26202.981   -8833.9043   -41934.594   -27840.443    4816.6374    16943.807    229.63865    80.455864 
   10200    1235.0317   -121.92039    1.1174826   -120.80291    6841.4719    4.2861749    4.2861749    4.2861749    6841.4719    22866.031   -2676.5556    334.94083   -2341.5888    8126.4885    11629.934    78.742585 
   10300    1027.5892   -121.75459   0.92978431    -120.8248    10833.807    4.2993817    4.2993817    4.2993817    10833.807    56520.881   -23204.033   -815.42692    10514.817   -19320.847   -2623.5389    79.472707 
   10400    930.74502   -121.66632   0.84215765   -120.82416   -3572.7698    4.3169673    4.3169673    4.3169673   -3572.7698    45856.387   -46458.881   -10115.816    7487.9999   -5523.1507   -10230.485    80.451892 
   10500    866.46883   -121.59716   0.78399921   -120.81316   -20190.544    4.3188645    4.3188645    4.3188645   -20190.544    25071.353   -60861.452   -24781.534    655.48588    7083.9418    2820.0269    80.558012 
   10600    1059.7608    -121.7688    0.9588938   -120.80991     -20643.4     4.307823     4.307823     4.307823     -20643.4   -2789.8196   -42449.547   -16690.833   -18426.335    10787.284    7406.5719    79.941731 
   10700    1078.7363     -121.785    0.9760633   -120.80893    27252.167    4.2914244    4.2914244    4.2914244    27252.167    82785.692   -19169.215    18140.024   -12821.266    7779.3506    181.36902     79.03226 
   10800    793.81096   -121.54925   0.71825684   -120.83099    5709.0755    4.3181045    4.3181045    4.3181045    5709.0755    97535.944   -56715.952   -23692.766    2646.7883    23.644578    1371.3566    80.515489 
   10900    778.10899   -121.52285   0.70404937    -120.8188   -31467.414    4.3297333    4.3297333    4.3297333   -31467.414    14731.395   -71541.618   -37592.018      181.046    12327.746    7076.5048    81.167737 
   11000    1039.6493   -121.74439   0.94069657   -120.80369    8201.4148    4.2929908    4.2929908    4.2929908    8201.4148    5566.0692   -24365.085    43403.261    -8902.408     20562.11    1580.4585    79.118831 
   11100    999.39223   -121.71873    0.9042711   -120.81446    22339.323    4.2961333    4.2961333    4.2961333    22339.323    75209.625   -27826.985    19635.328   -10697.606   -5040.6515    -349.1404    79.292707 
   11200    1049.1975    -121.7705   0.94933596   -120.82117   -10682.815     4.319899     4.319899     4.319899   -10682.815    59863.778    -66756.25   -25155.972     192.8133   -17196.758      9482.01    80.615914 
   11300    899.19474   -121.62695    0.8136103   -120.81334   -8350.5914    4.3111494    4.3111494    4.3111494   -8350.5914    35895.851   -53916.186   -7031.4388   -940.30682   -2525.2101    355.21755     80.12706 
   11400    954.77423    -121.6776   0.86389979    -120.8137   -5197.3389    4.2991221    4.2991221    4.2991221   -5197.3389    10119.745   -17242.244   -8469.5177   -15488.187    21935.648   -7371.0444    79.458311 
   11500     1019.185   -121.74138      0.92218    -120.8192   -15503.156     4.302195     4.302195     4.302195   -15503.156    9210.0574   -26101.429   -29618.097    -11106.91    35524.817    4478.6298    79.628816 
   11600     1117.283   -121.83362    1.0109411   -120.82268   -4319.0703    4.2987317    4.2987317    4.2987317   -4319.0703    53985.394   -42634.511   -24308.095   -2916.6674   -5453.6211    10599.156    79.436666 
   11700    933.67067    -121.6693   0.84480484    -120.8245    5356.6212    4.3095579    4.3095579    4.3095579    5356.6212    61932.183   -43494.022   -2368.2975    5639.1029     2127.375   -2475.6439    80.038353 
   11800    1111.8907   -121.82559     1.006062   -120.81953   -24215.541    4.3163332    4.3163332    4.3163332   -24215.541   -9626.8547   -41828.805   -21190.962   -7850.3888   -2198.7588   -6302.5883     80.41645 
   11900    967.94416   -121.69484   0.87581622   -120.81902    8217.7091    4.2899848    4.2899848    4.2899848    8217.7091    31616.291   -17144.618    10181.454   -9169.5465    26630.191    9454.9944     78.95275 
   12000    586.42616   -121.35881   0.53061072    -120.8282    28621.464    4.2980111    4.2980111    4.2980111    28621.464    109775.67   -37572.714    13661.436    1959.5717   -11350.267    2960.9722    79.396727 
   12100    1190.3393   -121.88819     1.077044   -120.81115   -37570.426    4.3284833    4.3284833    4.3284833   -37570.426   -2604.4185   -78820.525   -31286.333    1790.6324    3188.3228   -10873.889    81.097458 
   12200    1309.3948   -121.99339     1.184768   -120.80862    7290.9232    4.2921062    4.2921062    4.2921062    7290.9232    15344.531   -13855.116    20383.354   -3898.5642     7477.792   -1591.2344    79.069934 
   12300    1168.7313   -121.86486    1.0574927   -120.80737    28688.434    4.2809224    4.2809224    4.2809224    28688.434    46215.207   -4900.0422    44750.137   -9059.3881    14845.982    5931.5634    78.453454 
   12400     736.9571   -121.48601   0.66681427    -120.8192   -30924.622    4.3271519    4.3271519    4.3271519   -30924.622    27113.879   -76053.327   -43834.419   -876.11255    7428.6754   -4851.9722    81.022647 
   12500    632.31811   -121.38893   0.57213471    -120.8168    5894.9223    4.3068819    4.3068819    4.3068819    5894.9223    49387.478   -54516.995    22814.284    2675.7043   -22318.359   -12362.165    79.889348 
   12600    1364.5994   -122.03521    1.2347182   -120.80049    30686.202    4.2799569    4.2799569    4.2799569    30686.202    44916.106   -11718.888    58861.387    688.73969    3780.2509   -6056.9129    78.400385 
   12700    1588.0563   -122.25025    1.4369067   -120.81335   -11287.446    4.3136001    4.3136001    4.3136001   -11287.446   -9133.2811   -39029.122    14300.065    -7125.916     -3446.75    244.24787    80.263785 
   12800    1057.0667   -121.77109   0.95645614   -120.81463    -10289.26    4.3157966    4.3157966    4.3157966    -10289.26    890.65039   -45777.591    14019.162    468.61571    18172.465   -11828.799    80.386458 
   12900    756.54485   -121.49511   0.68453768   -120.81058     -3715.45     4.293447     4.293447     4.293447     -3715.45    12649.967   -38599.605    14803.288    4309.4781    5239.4946    -8643.448    79.144061 
   13000    857.98613   -121.59967   0.77632388   -120.82335    -5956.569    4.3051389    4.3051389    4.3051389    -5956.569    13527.868   -36466.326    5068.7517   -1512.8909   -9643.8307    3220.5264    79.792398 
   13100    1261.2528   -121.95172    1.1412081   -120.81051   -5762.2714    4.3176255    4.3176255    4.3176255   -5762.2714    18356.558   -25636.581   -10006.792    -9970.546   -4637.9332    1814.3129    80.488701 
   13200    1292.0869   -121.97376    1.1691074   -120.80465    9170.6016     4.300244     4.300244     4.300244    9170.6016    45629.642   -18770.075    652.23785   -3570.6642   -9083.6394   -10595.565    79.520535 
   13300    663.71489   -121.41808   0.60054318   -120.81753    3947.5105    4.3030988    4.3030988    4.3030988    3947.5105    55679.812   -35638.749    -8198.532    287.00589   -2647.3548   -6152.6329    79.679012 
   13400    599.39493   -121.35715   0.54234513   -120.81481   -16513.154    4.3101159    4.3101159    4.3101159   -16513.154   -4849.2063   -18411.117   -26279.137    2284.9716   -34010.372    9177.8433     80.06945 
   13500    891.95391   -121.61903   0.80705864   -120.81197    4823.5187    4.2992025    4.2992025    4.2992025    4823.5187   -18201.539    17479.298    15192.797   -6434.5686   -10663.041   -863.83769    79.462769 
   13600    1206.9283    -121.9021    1.0920541   -120.81004    5092.6498    4.3088243    4.3088243    4.3088243    5092.6498   -16872.887   -18808.398    50959.234   -2270.4112    12871.909   -9707.0865    79.997491 
   13700    1345.8433    -122.0212    1.2177473   -120.80345   -27923.922    4.3171818    4.3171818    4.3171818   -27923.922   -29933.809    -52257.93   -1580.0261    12152.156   -2004.1282   -1356.7656    80.463888 
   13800    832.03468    -121.5609   0.75284247   -120.80806   -19079.439    4.3047685    4.3047685    4.3047685   -19079.439   -4963.5005    -18526.55   -33748.267   -375.88343   -9417.9614    5591.3546    79.771801 
   13900    871.06172   -121.59866   0.78815495   -120.81051   -1533.2237    4.2906276    4.2906276    4.2906276   -1533.2237   -2066.6502    5371.2794   -7904.3003   -8812.2655   -9396.9615    956.58236    78.988247 
   14000    989.90954   -121.72402   0.89569095   -120.82833   -8167.7089     4.313186     4.313186     4.313186   -8167.7089   -24432.419   -34785.298     34714.59   -4597.6305    18590.158   -4069.2239    80.240672 
   14100     996.7703   -121.71545   0.90189871   -120.81355   -18992.756    4.3208199    4.3208199    4.3208199   -18992.756   -13434.431   -46476.514    2932.6777    13587.832    680.71191   -4433.9842    80.667481 
   14200    1125.5649   -121.81414    1.0184348    -120.7957    22850.169    4.2790133    4.2790133    4.2790133    22850.169    22403.752    3555.2438    42591.511    7038.2669   -27918.417    6413.6453    78.348539 
   14300    896.82867   -121.62946   0.81146943   -120.81799   -11826.456    4.3042969    4.3042969    4.3042969   -11826.456   -1935.1546   -7823.6025    -25720.61   -9392.0381   -1284.8519     3948.445    79.745589 
   14400    784.91708   -121.51961   0.71020947    -120.8094   -39434.407     4.321146     4.321146     4.321146   -39434.407   -45474.771   -30656.423   -42172.025    5460.6126    22840.456   -5467.4539    80.685744 
   14500    1074.0085   -121.77086   0.97178548   -120.79907    27548.192    4.2690683    4.2690683    4.2690683    27548.192    2751.9421    12699.916    67192.719    18688.844    17741.529   -6119.7488    77.803531 
   14600    1184.8184   -121.89315    1.0720486    -120.8211     22669.23    4.2935586    4.2935586    4.2935586     22669.23    34316.226    15966.528    17724.936    17189.679   -1370.5162    3846.3066    79.150228 
   14700    1425.5678    -122.0897    1.2898837   -120.79982   -24354.682    4.3245939    4.3245939    4.3245939   -24354.682   -26399.471   -36817.334   -9847.2394   -5346.7329   -12204.127    12550.058    80.879042 
   14800    964.32165   -121.67883    0.8725385   -120.80629    30189.576      4.27653      4.27653      4.27653    30189.576    28486.663    20483.719    41598.345   -377.36751    18663.365     3728.971     78.21221 
   14900    470.31827    -121.2541   0.42555385   -120.82855   -8116.1519     4.286753     4.286753     4.286753   -8116.1519   -4010.0105   -8663.0457     -11675.4     28544.35     10475.25   -11721.342    78.774453 
   15000    837.23734    -121.5762   0.75754994   -120.81865   -38485.901    4.3155384    4.3155384    4.3155384   -38485.901   -42524.537   -44196.085   -28737.083    15866.728    13735.651   -16235.668    80.372033 
   15100    1353.1287   -122.02802    1.2243393   -120.80368    13205.829    4.3017563    4.3017563    4.3017563    13205.829    23756.618   -9621.9966    25482.865   -9384.9352   -14690.413    15930.036    79.604463 
   15200    1234.7292   -121.92332    1.1172089   -120.80611   -9441.2857    4.3019073    4.3019073    4.3019073   -9441.2857   -21549.541   -13406.828    6632.5116    2200.0437    8154.9724    680.33656    79.612847 
   15300    568.26228   -121.33239   0.51417566   -120.81822    4098.8041    4.2905482    4.2905482    4.2905482    4098.8041   -24387.454   -6076.7776    42760.644     20422.06    26409.233   -12687.415    78.983859 
   15400    624.49131   -121.39492   0.56505286   -120.82987    1595.0051    4.2981953    4.2981953    4.2981953    1595.0051    2897.6432   -3171.3983    5058.7704    16734.648    21931.046   -12289.881    79.406934 
   15500    1309.5149   -121.99823    1.1848766   -120.81336   -23168.133    4.3149747    4.3149747    4.3149747   -23168.133   -27146.717   -24446.703   -17910.979   -3147.6992   -5767.9052   -8821.0206    80.340544 
   15600    1474.1055   -122.13414    1.3338016   -120.80034    466.56271    4.2957212    4.2957212    4.2957212    466.56271    8948.2492   -16752.278    9203.7175    2132.9511   -6310.8634    5285.4998    79.269889 
   15700    890.65326   -121.61724   0.80588179   -120.81136   -2085.9673    4.2974835    4.2974835    4.2974835   -2085.9673    3930.3905   -19555.666     9367.374    24592.478    9110.3328   -11167.304    79.367491 
   15800    697.70831   -121.44578   0.63130114   -120.81448    368.73796    4.3075585    4.3075585    4.3075585    368.73796   -9297.0098   -9714.9977    20118.221    7889.3818   -3971.8379    -16203.13    79.927009 
   15900    821.74497   -121.55269   0.74353211   -120.80916    5569.8083    4.3078955    4.3078955    4.3078955    5569.8083   -13411.908    -10813.44    40934.774   -8178.2673   -16965.153      2267.74    79.945766 
   16000    1162.2502   -121.85707    1.0516285   -120.80544    2063.3984    4.2920908    4.2920908    4.2920908    2063.3984   -18381.157   -8178.7402    32750.093     4324.186   -20277.344    5761.2288    79.069083 
   16100    1190.2161   -121.89029    1.0769326   -120.81336    95.130895    4.2961396    4.2961396    4.2961396    95.130895   -10057.052   -5898.3308    16240.776    18919.633    11296.179   -2385.2964    79.293055 
   16200      994.322   -121.71031   0.89968344   -120.81062   -40330.484    4.3220486    4.3220486    4.3220486   -40330.484   -37777.716   -41523.074   -41690.662    5235.0945    14774.432   -15574.083    80.736315 
   16300    972.77185   -121.69086   0.88018441   -120.81067   -7554.8485    4.2907536    4.2907536    4.2907536   -7554.8485   -26760.963    -3351.579    7447.9966   -8131.6872   -2900.0905    -2657.261    78.995207 
   16400     844.3907   -121.57618   0.76402245   -120.81216    24785.514    4.2822933    4.2822933    4.2822933    24785.514   -17435.634    11333.678    80458.497   -1679.3843   -16023.595    7642.7968    78.528851 
   16500    1230.9113   -121.92328    1.1137545   -120.80952    -18924.77    4.3179927    4.3179927    4.3179927    -18924.77   -19072.302    -37978.61    276.60211    11780.886    -9599.927    9866.9964    80.509234 
   16600    1361.4444   -122.03587    1.2318635   -120.80401   -4233.7157    4.3053073    4.3053073    4.3053073   -4233.7157    5834.1948   -27365.161    8829.8188     876.3526    1159.3269   -679.28709    79.801757 
   16700    995.35697   -121.70884    0.9006199   -120.80822    7645.0308    4.2813876    4.2813876    4.2813876    7645.0308    11715.759    17237.997   -6018.6637   -9679.7518    2956.6186   -10664.818    78.479032 
   16800    674.96232   -121.43517   0.61072009   -120.82445    63.937825    4.2941801    4.2941801    4.2941801    63.937825    1884.5634    2680.3005   -4373.0504    1832.3373   -12738.169    7697.1066    79.184604 
   16900    731.56584   -121.48165   0.66193615   -120.81971   -9841.7522    4.3219419    4.3219419    4.3219419   -9841.7522   -26671.438    -43939.32    41085.502    9175.5388   -8223.9314    12827.851     80.73034 
   17000    1336.5271   -122.02068    1.2093178   -120.81137    11118.678     4.290923     4.290923     4.290923    11118.678    15631.794   -21209.805    38934.045   -2697.3818    10182.877    6127.3682    79.004563 
   17100    1281.9578   -121.95952    1.1599423   -120.79958    23712.025    4.2694695    4.2694695    4.2694695    23712.025     4639.884    16978.979    49517.213   -8630.9193    6950.3337   -12480.659    77.825471 
   17200    694.00958   -121.44388   0.62795445   -120.81593   -47084.742     4.315848     4.315848     4.315848   -47084.742   -67753.827   -35367.461   -38132.937   -5164.0578   -29294.381    7469.8315    80.389332 
   17300    667.39074   -121.42394   0.60386916   -120.82007   -12174.986    4.2959755    4.2959755    4.2959755   -12174.986   -21539.452   -19752.812    4767.3066    2244.7001    -28018.46    22248.532     79.28397 
   17400    1052.9672   -121.75681   0.95274684   -120.80407    30833.078    4.2751247    4.2751247    4.2751247    30833.078    27099.247   -1836.6968    67236.682   -4272.5347    1214.6241    9085.5715    78.135132 
   17500    1183.2557   -121.87916    1.0706347   -120.80853   -21850.691    4.3098682    4.3098682    4.3098682   -21850.691   -26933.701   -47297.879    8679.5079   -7587.0075    7802.7134   -19725.635    80.055644 
   17600    1122.6511   -121.82711    1.0157983   -120.81132   -16175.619    4.2978708    4.2978708    4.2978708   -16175.619   -33333.533   -4415.6147   -10777.709    4443.4692    -21059.57    -2948.071    79.388952 
   17700    1067.4827   -121.77166   0.96588074   -120.80578    12421.337    4.2870298    4.2870298    4.2870298    12421.337    7941.8456    26642.757    2679.4086    4328.0973   -18722.748    14961.912    78.789713 
   17800    1051.9355   -121.75624   0.95181339   -120.80443   -10559.452    4.3104516    4.3104516    4.3104516   -10559.452   -14930.517   -46920.572    30172.734    -6143.609    3237.2904   -1364.1571     80.08816 
   17900    876.47737   -121.60208   0.79305514   -120.80902    5245.5097    4.2959856    4.2959856    4.2959856    5245.5097    9416.0312   -44848.592     51169.09   -5383.9288    7577.2962   -23582.905    79.284529 
   18000    701.64636   -121.44786   0.63486437     -120.813    17745.414    4.2854735    4.2854735    4.2854735    17745.414    14629.133    22720.016    15887.093   -129.84732   -21531.995   -10730.722    78.703935 
   18100    1246.5375   -121.94138    1.1278933   -120.81349   -20317.228    4.3047423    4.3047423    4.3047423   -20317.228   -36967.148   -2922.0192   -21062.518    8535.1165   -35505.494    7358.6597    79.770345 
   18200    1371.9674   -122.04986    1.2413849   -120.80847   -4214.1899     4.297906     4.297906     4.297906   -4214.1899    -111.4728   -10105.191   -2425.9055   -4273.5139   -5255.2674   -1285.3242    79.390905 
   18300    970.94267   -121.68342   0.87852933   -120.80489    14913.538    4.2872688    4.2872688    4.2872688    14913.538    39343.166   -7319.6697    12717.118   -10510.263    6235.9096    -26959.86    78.802887 
   18400    523.08746   -121.28661   0.47330052   -120.81331   -13839.991    4.3073142    4.3073142    4.3073142   -13839.991   -31142.737   -19343.297    8966.0597    3675.9345   -22948.336   -6762.7597    79.913408 
   18500    904.97531   -121.63031   0.81884068   -120.81147   -10384.904     4.294367     4.294367     4.294367   -10384.904   -34493.383   -1953.1448    5291.8151    5012.2111    -33931.27    11564.754    79.194949 
   18600    1148.5788   -121.84319    1.0392583   -120.80393    40124.311    4.2762593    4.2762593    4.2762593    40124.311    57417.091    35010.376    27945.466    2894.1472    2133.9079   -4837.7314    78.197359 
   18700    1368.0384   -122.04983    1.2378299     -120.812   -14610.654    4.3073748    4.3073748    4.3073748   -14610.654    13777.972   -30667.946   -26941.987   -182.51103    7779.0868   -20700.497    79.916782 
   18800    786.50331   -121.52892   0.71164472   -120.81727   -11000.433    4.3007195    4.3007195    4.3007195   -11000.433    26915.249   -24101.916   -35814.633   -2318.1891   -10970.568   -17824.223     79.54692 
   18900    769.29049   -121.50555    0.6960702   -120.80948    6898.3205    4.2744832    4.2744832    4.2744832    6898.3205    5187.7671    12179.925    3327.2695    2621.0675   -32994.643     15264.61    78.099967 
   19000    1020.7249   -121.74339   0.92357332   -120.81982   -12776.172    4.2983928    4.2983928    4.2983928   -12776.172   -18604.831   -13188.201   -6535.4825    9817.5087   -14597.595    11888.264    79.417882 
   19100    1460.6467   -122.12716    1.3216238   -120.80554    -15302.23    4.3037563    4.3037563    4.3037563    -15302.23   -171.83202   -25779.605   -19955.254   -2605.9621    15385.811   -15141.865    79.715542 
   19200    1068.0868   -121.77329   0.96642736   -120.80686    11244.536    4.2870401    4.2870401    4.2870401    11244.536    484.92201     7375.148    25873.538   -985.06359    2545.1489     -6662.02    78.790278 
   19300    630.61285   -121.38839   0.57059176    -120.8178   -9050.3393    4.2926108    4.2926108    4.2926108   -9050.3393   -5888.9305   -12303.776   -8958.3111    8990.9186   -20733.808    11924.039    79.097824 
   19400    668.17376   -121.42575   0.60457766   -120.82118     -868.854    4.2930605    4.2930605    4.2930605     -868.854    30462.277    -14584.52   -18484.319    2023.5837    -15750.77    28836.955    79.122686 
   19500    1399.1509   -122.07923    1.2659811   -120.81325   -1716.4863    4.2973741    4.2973741    4.2973741   -1716.4863    20396.747   -20200.859   -5345.3472    721.48053    13968.889    8858.2823     79.36143 
   19600    1357.7169   -122.03557    1.2284908   -120.80708   -6349.6704    4.3058177    4.3058177    4.3058177   -6349.6704    9702.2262   -11151.921   -17599.316   -2356.6223    13657.833   -11997.003    79.830146 
   19700    702.68376   -121.44421   0.63580303    -120.8084   -31008.331    4.3034513    4.3034513    4.3034513   -31008.331   -21752.158   -33458.003   -37814.833    3026.6005   -14230.468    27312.057    79.698596 
   19800    681.16655   -121.42431   0.61633381   -120.80798   -13400.195    4.2910538    4.2910538    4.2910538   -13400.195    4482.8807   -37088.062    -7595.403    5782.4341   -14894.003    28272.847    79.011788 
   19900    1152.8168   -121.85612    1.0430928   -120.81303    2227.7958    4.2965867    4.2965867    4.2965867    2227.7958    37884.235    -38007.62    6806.7726   -2819.0807   -5293.7869   -19538.511    79.317815 
   20000    1264.0935   -121.95532    1.1437783   -120.81154    6020.3876    4.3000617    4.3000617    4.3000617    6020.3876    43754.411   -18818.014    -6875.234   -8409.7763    8044.8268   -7564.8284    79.510425 
   20100    946.70458    -121.6703    0.8565982    -120.8137    21046.505    4.2920438    4.2920438    4.2920438    21046.505    74351.602   -18261.983    7049.8973   -1447.9222   -8795.3831    30226.447    79.066486 
   20200    480.79682   -121.25472   0.43503507   -120.81969   -8152.7506    4.3054251    4.3054251    4.3054251   -8152.7506    45877.964   -55509.977   -14826.238    8533.5283   -11397.608     1616.468     79.80831 
   20300    664.37002   -121.40957   0.60113595   -120.80843   -4395.3356    4.3004006    4.3004006    4.3004006   -4395.3356    40555.543   -41120.024   -12621.526    3053.8997   -6320.0964   -30764.432    79.529223 
   20400     1423.821   -122.08707    1.2883032   -120.79877    12767.226    4.2898626    4.2898626    4.2898626    12767.226    37167.901   -12777.129    13910.908   -238.62353    8515.4897   -3474.1259    78.946002 
   20500    1405.0694   -122.07626    1.2713363   -120.80492   -5510.7135    4.3028644    4.3028644    4.3028644   -5510.7135    4340.7534   -20552.272   -320.62224    -6649.611     3949.736    12979.008    79.665992 
   20600    999.27846   -121.71886   0.90416815   -120.81469   -6377.9251    4.2936369    4.2936369    4.2936369   -6377.9251     9606.232   -18262.135   -10477.873    2098.9851   -12501.677    -13676.47    79.154563 
   20700    724.53993   -121.47505   0.65557896   -120.81947   -7428.0726    4.2916293    4.2916293    4.2916293   -7428.0726    22453.374   -24662.732   -20074.859    5310.6011   -14254.938   -26065.073    79.043579 
   20800    1098.5293   -121.80927   0.99397237    -120.8153   -16291.676    4.3046398    4.3046398    4.3046398   -16291.676   -13425.752   -37210.787    1761.5129   -1709.9735    3438.6584   -2638.1584    79.764647 
   20900      1452.54   -122.11809    1.3142887    -120.8038    4486.2172    4.2947482    4.2947482    4.2947482    4486.2172    11328.431   -16917.303    19047.524    6080.6388    4657.3043    8333.3982     79.21604 
   21000    1015.4791   -121.72553   0.91882685   -120.80671    3821.3094    4.2927431    4.2927431    4.2927431    3821.3094    39047.236   -4763.0937   -22820.214    1324.1947   -16945.229   -27849.975     79.10514 
   21100    801.87723   -121.53529   0.72555537   -120.80973   -27631.228    4.3009523    4.3009523    4.3009523   -27631.228   -17410.796    -29607.73   -35875.157    -999.4779   -24416.924   -24359.611    79.559834 
   21200    823.97317   -121.55394   0.74554824   -120.80839   -2100.6858    4.2899615    4.2899615    4.2899615   -2100.6858   -3719.9835    -20174.59    17592.516   -6367.2812   -744.99322    6222.9726    78.951463 
   21300    1057.9123   -121.76591   0.95722132   -120.80868   -6809.6788    4.2927017    4.2927017    4.2927017   -6809.6788   -8460.3817   -16075.799    4107.1441   -9638.4843    7683.8244    12211.024    79.102849 
   21400     1008.575    -121.7229   0.91257989   -120.81032   -14890.588    4.2986291    4.2986291    4.2986291   -14890.588   -19195.083    5816.2222   -31292.904    1731.7247   -23711.584    159.93893    79.430979 
   21500    863.24944    -121.5903   0.78108623   -120.80922     3332.898     4.292926     4.292926     4.292926     3332.898   -14801.797    50337.027   -25536.536    49.278531   -36706.221   -21233.236    79.115248 
   21600    1077.2802   -121.78139   0.97474581   -120.80665   -121.49954    4.2957776    4.2957776    4.2957776   -121.49954   -13087.339    -1564.075    14286.915    1586.7746    2129.9164    -6265.482    79.273011 
   21700      961.706   -121.67653    0.8701718   -120.80635   -7308.0753    4.3028765    4.3028765    4.3028765   -7308.0753   -8520.1076   -9620.6877   -3783.4306    1362.3344    836.08111    12244.654    79.666669 
   21800    784.50252   -121.51497   0.70983436   -120.80514   -6404.7002    4.2997476    4.2997476    4.2997476   -6404.7002   -1739.4771    11599.148   -29073.772    921.61969   -36745.239    1587.6817    79.493002 
   21900    1184.7118   -121.87372    1.0719521   -120.80177    6926.0588    4.2884313    4.2884313    4.2884313    6926.0588    5672.6944    19048.679   -3943.1966    3517.3403   -20716.026   -4923.8303    78.867011 
   22000    1512.8358   -122.17197    1.3688457   -120.80312    1310.6436    4.2925442    4.2925442    4.2925442    1310.6436    15734.599   -19053.147    7250.4791    -14897.35    15793.113    -14151.91    79.094146 
   22100    806.32005   -121.54209   0.72957532   -120.81251   -6696.7977      4.30518      4.30518      4.30518   -6696.7977    14182.144   -26678.799   -7593.7382   -6327.3471   -4734.6308    6855.2017    79.794679 
   22200    647.52453   -121.40071    0.5858938   -120.81482   -7344.5293    4.2965492    4.2965492    4.2965492   -7344.5293   -12391.029    1393.4809   -11036.039    2228.8191   -32496.952    17883.701     79.31574 
   22300     1208.652   -121.89836    1.0936138   -120.80475    14821.313    4.2908095    4.2908095    4.2908095    14821.313     11272.31    32933.634    257.99578    463.52723   -8651.1039    9881.9668    78.998291 
   22400    1320.0769   -121.99186    1.1944333   -120.79743    621.78264    4.3106535    4.3106535    4.3106535    621.78264    3551.8965    9200.9857   -10887.534   -864.10308    22430.786   -1992.1404    80.099414 
   22500    806.89492   -121.53186   0.73009548   -120.80176    -7671.528    4.3059632    4.3059632    4.3059632    -7671.528   -13500.257   -8239.4597   -1274.8671   -9289.1954   -10609.978    7627.8354    79.838237 
   22600    531.91911   -121.28273   0.48129159   -120.80144    16506.012    4.2791601    4.2791601    4.2791601    16506.012    21888.785    27054.845    574.40675   -1320.4412   -34578.667    21854.562    78.356605 
   22700    865.40571   -121.59745   0.78303727   -120.81441    9910.3783    4.2877943    4.2877943    4.2877943    9910.3783    10836.079    19286.803   -391.74702   -4063.5553    3613.0575    4471.9874    78.831869 
   22800     1322.881   -122.00352    1.1969705   -120.80655   -8701.1472    4.3086774    4.3086774    4.3086774   -8701.1472    -23958.99    6197.9658   -8342.4175    4830.4812    19817.548    357.89383    79.989308 
   22900    1127.6503    -121.8272    1.0203217   -120.80688    262.65978      4.29741      4.29741      4.29741    262.65978    2168.6112    19212.063   -20592.695    6620.4701   -10922.167    7214.7038     79.36342 
   23000    613.22342   -121.36169   0.55485743   -120.80683   -3026.2606    4.2892293    4.2892293    4.2892293   -3026.2606     2808.831    8866.8829   -20754.496   -7954.7407    -31862.74    18189.212    78.911042 
   23100    921.39204   -121.63965   0.83369488   -120.80596   -9161.6968    4.2988028    4.2988028    4.2988028   -9161.6968   -13044.882   -17852.385    3412.1771    3718.3325    1559.5841    3745.7084    79.440612 
   23200    1336.3116   -122.00689    1.2091228   -120.79777   -7171.8719    4.3036894    4.3036894    4.3036894   -7171.8719   -11867.874   -9897.8476    250.10559    2894.9944    14069.817   -12847.604    79.711828 
   23300    1091.9248    -121.7888   0.98799652    -120.8008    979.75827    4.2938155    4.2938155    4.2938155    979.75827    9912.6301    411.06896   -7384.4243    5624.8775   -32254.596    4407.7424    79.164436 
   23400     1005.801   -121.71671   0.91006989   -120.80664     10480.09    4.2889075    4.2889075    4.2889075     10480.09     15242.46    15592.783    605.02484   -7605.5694    -22549.67    6995.0234    78.893286 
   23500    998.46685   -121.71116   0.90343379   -120.80772     5177.558    4.2996854    4.2996854    4.2996854     5177.558    26456.471   -7002.4426   -3921.3544   -14193.959    12219.284    509.41427    79.489551 
   23600    981.95139   -121.69441   0.88849025   -120.80592    3156.6852    4.2974831    4.2974831    4.2974831    3156.6852    11639.148    -8352.305    6183.2125    5086.9321    -1415.948   -10371.406    79.367469 
   23700    989.50928   -121.70249   0.89532879   -120.80716   -3513.3565    4.2960111    4.2960111    4.2960111   -3513.3565   -27853.376    14076.044    3237.2615    11666.106   -20297.791   -3446.2541    79.285942 
   23800    1113.0865   -121.81182    1.0071441   -120.80468    -6093.345    4.2986079    4.2986079    4.2986079    -6093.345   -14377.503    15960.727    -19863.26    5792.3516   -11380.354    12193.774    79.429803 
   23900     1304.794   -121.98298    1.1806051   -120.80237    6344.6314    4.2878415    4.2878415    4.2878415    6344.6314    14419.009   -227.20666    4842.0923   -19872.522    19792.123    4257.0257    78.834475 
   24000     897.6945   -121.62303   0.81225285   -120.81078   -9087.9177     4.297338     4.297338     4.297338   -9087.9177   -13427.288   -13792.413   -44.052021    8647.3443   -5216.4459    384.37204     79.35943 
   24100    771.60806   -121.50719   0.69816719   -120.80902   -20089.766    4.3054065    4.3054065    4.3054065   -20089.766   -27702.667   -17133.161   -15433.471    25896.433   -35054.339   -5672.7562    79.807277 
   24200    1208.1588   -121.89151    1.0931675   -120.79834    15032.798    4.2866981    4.2866981    4.2866981    15032.798    27188.487   -575.34048    18485.248   -655.28262   -7302.0312   -1745.4399    78.771422 
   24300    1275.1692   -121.95433    1.1537999   -120.80053    15240.994    4.2894006    4.2894006    4.2894006    15240.994    5660.4144    10888.523    29174.046   -9558.2503    20705.893    11479.517    78.920499 
   24400    752.69455    -121.4894   0.68105384   -120.80834    1587.8617    4.3052542    4.3052542    4.3052542    1587.8617   -12979.783   -4774.1816     22517.55    3344.8237   -1360.1189    10296.298    79.798807 
   24500     769.4472   -121.50467     0.696212   -120.80845   -2758.6592    4.2944922    4.2944922    4.2944922   -2758.6592   -6658.9807    -13856.62    12239.623    17407.672   -24142.717   -2753.4788    79.201872 
   24600    963.40073   -121.67724   0.87170523   -120.80554    15351.543    4.2817707    4.2817707    4.2817707    15351.543    11409.982     11026.83    23617.817    2827.4652   -12382.074   -18414.293      78.5001 
   24700    1209.9221   -121.90323     1.094763   -120.80847    2525.6073     4.297731     4.297731     4.297731    2525.6073   -8000.8763    14458.598    1119.1006   -12395.615    11499.031   -9360.1444    79.381206 
   24800    1018.6143   -121.72689   0.92166358   -120.80523   -11323.205    4.3064615    4.3064615    4.3064615   -11323.205    -22038.19   -7409.5786   -4521.8465    5922.4624   -727.81236    18793.471    79.865958 
   24900    795.98662   -121.52042   0.72022543   -120.80019    843.59352    4.2882152    4.2882152    4.2882152    843.59352   -5075.4339   -2442.1752     10048.39    16497.687   -19216.928   -722.21289    78.855087 
   25000    927.57265    -121.6435   0.83928723   -120.80421   -9591.3977    4.2910807    4.2910807    4.2910807   -9591.3977    1696.9868   -16596.204   -13874.976     593.2351   -6771.5655   -38415.783    79.013269 
   25100    1244.0179   -121.92822    1.1256136    -120.8026   -10150.961    4.3013405    4.3013405    4.3013405   -10150.961    -10402.06   -14902.701   -5148.1214   -7047.2087    8266.5603   -23345.535    79.581378 
   25200     1402.808   -122.07107    1.2692901   -120.80177   -2186.5585    4.2942086    4.2942086    4.2942086   -2186.5585   -18506.127   -6564.7496    18511.202    3320.9586   -5922.0082     17644.09    79.186186 
   25300    727.11615   -121.47122   0.65790997   -120.81331    2075.8371    4.2886737    4.2886737    4.2886737    2075.8371   -956.26328    12810.786   -5627.0113    10071.988   -14050.411    4216.7729    78.880385 
   25400    480.49758    -121.2558   0.43476431   -120.82104    4754.1555    4.2962873    4.2962873    4.2962873    4754.1555    13044.957    5261.9651   -4044.4553   -273.53066    -6946.368   -42304.201    79.301236 
   25500     1173.595   -121.87116    1.0618934   -120.80927    -5209.677    4.3070039    4.3070039    4.3070039    -5209.677   -5504.3997   -1477.9344    -8646.697   -6551.9598    4320.6255   -18360.359    79.896139 
   25600    1568.5708   -122.21985    1.4192758   -120.80058     12232.86    4.2882448    4.2882448    4.2882448     12232.86   -4750.9545    25506.238    15943.296   -4538.1191    8645.9499    18918.308    78.856722 
   25700    926.94837   -121.65043   0.83872237    -120.8117    2710.3962    4.2836166    4.2836166    4.2836166    2710.3962    26578.473   -14311.984   -4135.3005    7149.8836   -12283.334   -23095.307    78.601673 
   25800    600.34856   -121.36388     0.543208   -120.82067   -24765.273    4.3022215    4.3022215    4.3022215   -24765.273    12562.849   -49505.999    -37352.67    7243.8787    -7341.707   -44951.826    79.630292 
   25900    1162.3807   -121.85996    1.0517465   -120.80821   -9541.0641    4.3017457    4.3017457    4.3017457   -9541.0641   -12678.564   -9244.6503   -6699.9777   -2340.4004    15137.734   -9621.9228    79.603876 
   26000    1250.4147   -121.93128    1.1314015   -120.79988    8597.6845    4.2903194    4.2903194    4.2903194    8597.6845   -21823.706    38321.917    9294.8423   -6956.3962     8148.377    13063.256    78.971226 
   26100    891.78184   -121.61179   0.80690295   -120.80489    1868.4619    4.2863406    4.2863406    4.2863406    1868.4619    1214.7992    9551.7283   -5161.1416    279.69801   -7053.4961   -18742.441    78.751715 
   26200    745.83156    -121.4879   0.67484407   -120.81306    1123.5546    4.2924699    4.2924699    4.2924699    1123.5546    4178.0838   -7607.5616    6800.1416    17782.841   -8141.1418   -39879.576    79.090035 
   26300     983.6509   -121.70095   0.89002801   -120.81093   -17537.319    4.3022144    4.3022144    4.3022144   -17537.319   -25300.755    -11277.95   -16033.253   -2991.8414    20634.681   -7654.1408    79.629898 
   26400      1069.02   -121.77315   0.96727178   -120.80588    233.74297    4.2904469    4.2904469    4.2904469    233.74297   -21100.036    31140.484   -9339.2189   -12459.493    29217.067    9448.3383    78.978266 
   26500     1045.359   -121.75005    0.9458628   -120.80419    2018.7306    4.2856114    4.2856114    4.2856114    2018.7306    5731.1773    3840.0424   -3515.0279   -5074.8287   -6843.8441    -22636.05    78.711531 
   26600    709.63338   -121.45354    0.6420912   -120.81145   -13836.863    4.3019752    4.3019752    4.3019752   -13836.863   -11261.777    19380.114   -49628.926   -245.38889   -3387.9048   -35453.038    79.616615 
   26700    850.51044   -121.58246   0.76955972    -120.8129   -4972.1486    4.2909917    4.2909917    4.2909917   -4972.1486   -14801.271    42251.376   -42366.551    12530.394    34060.865   -7522.5375    79.008358 
   26800    1319.3749    -122.0006    1.1937982    -120.8068    13242.084    4.2841702    4.2841702    4.2841702    13242.084   -3182.5536    48496.093   -5587.2883   -6882.5707    22443.613    12017.972     78.63215 
   26900    1372.0472   -122.04542    1.2414572   -120.80396   -32144.958    4.3095667    4.3095667    4.3095667   -32144.958   -22577.037   -32796.653   -41061.184   -6961.1752    -14461.23   -25681.189    80.038845 
   27000    587.62569   -121.34381   0.53169607   -120.81211   -11588.037    4.2934209    4.2934209    4.2934209   -11588.037     2156.908    2621.2275   -39542.248    1934.6919    6594.1141    -27494.36    79.142613 
   27100    741.53895   -121.48007   0.67096003   -120.80911    15062.653    4.2793608    4.2793608    4.2793608    15062.653   -22216.025    62380.799    5023.1854    7057.3626    31954.826   -3751.1588    78.367633 
   27200    1254.2473    -121.9444    1.1348693   -120.80953    -1095.433    4.2954864    4.2954864    4.2954864    -1095.433   -32857.286    32918.351   -3347.3636     10845.83    13176.376    15695.247    79.256892 
   27300    1253.3706   -121.94327    1.1340761   -120.80919     15353.89    4.2865884    4.2865884    4.2865884     15353.89    7938.8699     26238.31    11884.489    902.24983   -7947.4026   -16560.419    78.765374 
   27400    648.61369    -121.4062    0.5868793   -120.81932   -16317.563    4.2993847    4.2993847    4.2993847   -16317.563   -14191.069   -12708.943   -22052.677   -5653.9868    17699.823   -25226.184    79.472872 
   27500    841.95011    -121.5753   0.76181415   -120.81349   -27682.628    4.2957471    4.2957471    4.2957471   -27682.628   -48563.965    8324.3512    -42808.27    8813.2701    41991.519   -5828.0828    79.271323 
   27600      1382.09   -122.05251    1.2505441   -120.80197    24500.326     4.272084     4.272084     4.272084    24500.326   -3809.6359    41610.838    35699.776    6204.6205     2228.558    11148.012    77.968528 
   27700    1229.7904   -121.92608    1.1127402   -120.81334    -12779.52    4.3001783    4.3001783    4.3001783    -12779.52   -21614.085    4416.2979   -21140.773   -6554.7595   -10881.968   -3406.2291    79.516893 
   27800     393.7401   -121.17477   0.35626432   -120.81851   -13563.869    4.3024058    4.3024058    4.3024058   -13563.869   -28126.362    60396.517   -72961.761    897.09831    31082.658    -22713.08    79.640524 
   27900    966.03691   -121.68375   0.87409049   -120.80966    11851.886    4.2738844    4.2738844    4.2738844    11851.886    1267.2879    52305.078   -18016.707   -3968.3092    33403.957   -15038.803     78.06715 
   28000    1648.1748    -122.2992    1.4913032    -120.8079    7346.5933    4.2937968    4.2937968    4.2937968    7346.5933   -3378.6151    19466.764    5951.6311    3417.5471   -9733.3685    2313.7849    79.163407 
   28100    1185.2533   -121.87904    1.0724421    -120.8066   -30994.376    4.3115767    4.3115767    4.3115767   -30994.376   -40257.748   -14508.537   -38216.842    2807.0655    16.847549   -2111.4421    80.150892 
   28200    394.78491   -121.16674   0.35720968   -120.80953    -4357.058    4.2840324    4.2840324    4.2840324    -4357.058   -9543.5343    2585.4118   -6113.0514   -7224.8743    36543.765   -23856.056    78.624562 
   28300    874.95453   -121.60405   0.79167725   -120.81237    8546.7954    4.2871471    4.2871471    4.2871471    8546.7954    7307.9448    13073.843    5258.5988   -3424.4305    17649.389   -18468.875    78.796176 
   28400    1475.1479   -122.13088    1.3347448   -120.79614   -2002.2638    4.3048267    4.3048267    4.3048267   -2002.2638   -14583.194    7780.7188    795.68383   -5498.5275   -9668.7807    11454.529    79.775039 
   28500    949.03501   -121.66273   0.85870682   -120.80402     16804.77    4.2874173    4.2874173    4.2874173     16804.77   -22022.523    67545.965    4890.8688   -4368.6848    13084.797     2251.588    78.811077 
   28600    427.43332   -121.20063   0.38675065   -120.81388   -9008.4511    4.2965094    4.2965094    4.2965094   -9008.4511   -23461.049    39458.671   -43022.975    691.60445    32782.692   -26678.859    79.313533 
   28700    990.53319   -121.70347   0.89625525   -120.80721   -9467.1455    4.2928722    4.2928722    4.2928722   -9467.1455   -8922.0499    4493.0292   -23972.416   -9160.5187    4756.8015   -28088.589    79.112275 
   28800     1455.131   -122.11657    1.3166331   -120.79993    19214.195    4.2805083    4.2805083    4.2805083    19214.195   -3371.6849    23507.853    37506.416   -4564.5784   -9403.1826    7635.2327    78.430688 
   28900    943.77243   -121.66486   0.85394513   -120.81091   -31810.049    4.3061073    4.3061073    4.3061073   -31810.049    -51029.59   -5323.9861   -39076.572    3975.3946    23528.504    6337.5029    79.846254 
   29000    720.85545   -121.46999   0.65224516   -120.81775   -3612.8674    4.2831818    4.2831818    4.2831818   -3612.8674   -230.70718     8473.674   -19081.569    271.70639    24739.923   -26554.434    78.577739 
   29100    1127.1861   -121.83144    1.0199017   -120.81154    30221.713    4.2778765    4.2778765    4.2778765    30221.713    18758.156    44547.647    27359.335     1190.764   -4643.6568   -27951.815    78.286112 
   29200    1281.7343   -121.96032    1.1597402   -120.80058   -12058.852    4.3079549    4.3079549    4.3079549   -12058.852   -30875.754    4621.1068   -9921.9098    2006.0073    100.55826    12732.794    79.949073 
   29300    602.86389   -121.35494   0.54548392   -120.80946    19665.568    4.2824645    4.2824645    4.2824645    19665.568   -11487.857    62111.943    8372.6176    -1573.736    21715.572    15178.504    78.538267 
   29400    643.63208    -121.3964   0.58237183   -120.81403   -3060.1745    4.2878045    4.2878045    4.2878045   -3060.1745   -13941.449     20839.72   -16078.795    2304.3483     14736.99   -15477.155    78.832433 
   29500    1335.1892   -122.00567    1.2081073   -120.79757   -13541.285    4.3031054    4.3031054    4.3031054   -13541.285   -16326.083   -21491.623   -2806.1492    3506.8684   -6598.3543    -29140.86    79.679381 
   29600      1243.43   -121.92234    1.1250816   -120.79725     7314.735    4.2907857    4.2907857    4.2907857     7314.735   -6596.6889    15114.581    13426.313   -2858.2453    10751.092    7507.7892    78.996979 
   29700    664.63724   -121.40978   0.60137774    -120.8084    -20528.31    4.2926823    4.2926823    4.2926823    -20528.31   -30297.748    1541.1299   -32828.312    2782.0794    30458.709    21307.465    79.101775 
   29800    900.83221   -121.62463   0.81509191   -120.80953    296.73439    4.2839366    4.2839366    4.2839366    296.73439   -24844.577     32251.06   -6516.2804   -1713.0995    1242.0655    1869.3518    78.619289 
   29900    1303.0545   -121.98978    1.1790311   -120.81075    4708.0212    4.2966917    4.2966917    4.2966917    4708.0212   -24013.798    27218.263    10919.599     2076.293   -12843.399    -9394.282    79.323628 
   30000    1150.6276   -121.85089     1.041112   -120.80977   -13899.113    4.2997192    4.2997192    4.2997192   -13899.113   -36350.814    4354.9303   -9701.4546    8018.2812    22367.777    7850.3465    79.491423 
   30100    664.26497    -121.4105   0.60104091   -120.80945    20725.788    4.2720193    4.2720193    4.2720193    20725.788   -14344.655    79451.952   -2929.9328   -3785.9313    20923.475    18270.359    77.964987 
   30200    832.70214   -121.57334   0.75344639   -120.81989   -13766.104     4.294057     4.294057     4.294057   -13766.104   -40312.385    25246.981   -26232.909    4291.6024   -22226.436    4332.3179    79.177799 
   30300    1252.8502     -121.937    1.1336052   -120.80339   -12627.052    4.3037144    4.3037144    4.3037144   -12627.052   -34094.795   -1844.9818   -1941.3808    5316.3072   -15237.619   -3044.8955    79.713216 
   30400    1287.3151    -121.9655    1.1647897   -120.80071    12915.946    4.2775038    4.2775038    4.2775038    12915.946    -15499.83    24353.085    29894.582   -3925.5245    24327.263   -4172.0954    78.265655 
   30500      418.636   -121.19597   0.37879065   -120.81718   -13181.622    4.2884776    4.2884776    4.2884776   -13181.622   -33489.208    21781.347   -27837.004   -1449.8774    2567.7553    6585.4998    78.869565 
   30600    539.42206   -121.30688   0.48808041    -120.8188   -23653.453    4.2957162    4.2957162    4.2957162   -23653.453   -45737.088    10941.861   -36165.133    -1236.499   -31636.305     18103.06    79.269615 
   30700    1469.9227   -122.13873    1.3300169   -120.80871    5657.3733    4.2868661    4.2868661    4.2868661    5657.3733   -12115.381    9234.4014      19853.1    3723.4759   -8208.3484   -8552.0722    78.780687 
   30800     1382.961   -122.05834    1.2513321     -120.807   -8036.8376    4.2948911    4.2948911    4.2948911   -8036.8376   -10206.644   -14234.636    330.76743    3200.3771    6877.2997    -20547.59    79.223944 
   30900    807.41236   -121.54697   0.73056367   -120.81641   -7540.9448    4.2845484    4.2845484    4.2845484   -7540.9448   -16754.722    8401.3196   -14269.432   -7150.3007   -16868.612    521.99341    78.652975 
   31000    826.67723   -121.56609   0.74799493   -120.81809   -1501.4972    4.2845463    4.2845463    4.2845463   -1501.4972   -41768.478    40170.907   -2906.9203    -893.8396   -24375.362    18308.242    78.652861 
   31100    1092.6838   -121.79942   0.98868327   -120.81073   -14330.155    4.3007763    4.3007763    4.3007763   -14330.155    -24563.21   -6684.9045   -11742.349    794.79756   -3281.3151   -11202.071    79.550067 
   31200    1177.8433   -121.87488    1.0657374   -120.80914    9914.1155     4.281066     4.281066     4.281066    9914.1155    14228.091    7700.7895    7813.4661    2050.0977    8443.2362   -40377.122    78.461349 
   31300    950.82661   -121.67178    0.8603279   -120.81145    18868.479    4.2823347    4.2823347    4.2823347    18868.479   -6098.4118    57060.077    5643.7703    4943.5125    -19319.24   -12847.591    78.531124 
   31400    1069.1213   -121.77452    0.9673634   -120.80715    -13712.41    4.3022282    4.3022282    4.3022282    -13712.41   -40598.027    10250.644   -10789.846   -4320.3687   -26839.886    25374.092    79.630663 
   31500    774.33087   -121.50937   0.70063085   -120.80874    12531.824    4.2823973    4.2823973    4.2823973    12531.824    14704.975    13091.456    9799.0395    1435.2745   -431.87842   -7731.1588     78.53457 
   31600    798.15818     -121.535    0.7221903   -120.81281   -5462.5534    4.2834828    4.2834828    4.2834828   -5462.5534    13393.991   -30313.513    531.86171    6482.4415    5678.0523   -52258.898    78.594304 
   31700    1188.1955    -121.8802    1.0751042    -120.8051   -18715.793    4.3002482    4.3002482    4.3002482   -18715.793   -17587.833   -23411.914   -15147.633   -3200.0306   -4995.5743   -14977.879    79.520766 
   31800    1377.3949   -122.04567    1.2462958   -120.79937   -5036.7858    4.2911445    4.2911445    4.2911445   -5036.7858   -12292.789   -5418.7658    2601.1977    -1543.031   -13357.515    28576.577    79.016797 
   31900    631.56413   -121.38089    0.5714525   -120.80944   -10645.319    4.2886042    4.2886042    4.2886042   -10645.319    19774.752   -44772.705   -6938.0054   -725.90201   -9958.4309   -20231.907    78.876549 
   32000    532.89051   -121.29762   0.48217053   -120.81545   -13110.339     4.291349     4.291349     4.291349   -13110.339    11813.922   -42283.166   -8861.7723    430.20053     13761.74    -47984.93    79.028095 
   32100    1196.0303   -121.89228    1.0821933   -120.81009    5029.6168    4.2903741    4.2903741    4.2903741    5029.6168   -9909.3296    12295.079    12703.102   -1828.2313    20046.866   -771.86579    78.974246 
   32200    1518.1697   -122.17782    1.3736719   -120.80415     4153.348    4.2889373    4.2889373    4.2889373     4153.348   -16235.687    1829.5942    26866.137   -376.57574   -1668.0638    2639.7769    78.894927 
   32300     898.1655   -121.62649   0.81267902   -120.81381   -5165.2758     4.289771     4.289771     4.289771   -5165.2758    16463.144   -24227.136   -7731.8353    3971.7043    -4557.152     -40905.6    78.940945 
   32400    670.04565   -121.42267   0.60627139    -120.8164   -8429.8578    4.2913566    4.2913566    4.2913566   -8429.8578    4046.9356   -2441.7922   -26894.717   -2808.3806    9615.6902   -32493.803    79.028513 
   32500    1009.3994   -121.72148   0.91332575   -120.80816    2172.5408    4.2928058    4.2928058    4.2928058    2172.5408   -24347.961    31501.831    -636.2478   -3376.5318    25219.795    7506.4429    79.108603 
   32600     1154.603   -121.84616     1.044709   -120.80145    3208.5082    4.2909686    4.2909686    4.2909686    3208.5082   -27930.427    26997.617    10558.335   -4943.7577    2875.2583    5458.2663    79.007081 
   32700    845.73947   -121.57069   0.76524285   -120.80544    2913.1533    4.2882423    4.2882423    4.2882423    2913.1533    -2362.227   -15641.028    26742.715   -5612.9462   -16511.725   -31283.593    78.856585 
   32800    875.27726   -121.60095   0.79196926   -120.80898    794.43876    4.2891483    4.2891483    4.2891483    794.43876   -6465.5139   -21605.586    30454.416    4775.0589    11991.657   -21158.935    78.906575 
   32900    1086.5548   -121.78977   0.98313764   -120.80663    3988.1893    4.2883637    4.2883637    4.2883637    3988.1893   -11414.616    7974.4912    15404.693    983.58826     20083.38    11910.489    78.863279 
   33000     955.8893   -121.67422   0.86490873   -120.80931   -2942.0296    4.2907997    4.2907997    4.2907997   -2942.0296   -29624.792    6798.8256    13999.878   -4701.6857   -18684.883    6961.6319    78.997749 
   33100    722.77027    -121.4673   0.65397773   -120.81332    -20066.21    4.2911101    4.2911101    4.2911101    -20066.21   -29109.788   -18622.421   -12466.421    1026.6123   -27914.483   -25147.512    79.014897 
   33200    930.25992   -121.65345   0.84171873   -120.81173   -7538.0421    4.2839942    4.2839942    4.2839942   -7538.0421   -4254.8927   -18733.655    374.42101     6873.753    1028.9872   -16384.053     78.62246 
   33300    1307.4503   -121.99292    1.1830085   -120.80991   -2034.1783    4.2914775    4.2914775    4.2914775   -2034.1783   -5679.2989   -3400.1931    2976.9571    7091.1632    3776.7915    6570.8575    79.035195 
   33400     1240.811   -121.92952    1.1227119    -120.8068   -12056.419     4.297351     4.297351     4.297351   -12056.419   -39528.122     25809.71   -22450.844   -3657.4943   -24811.057    4081.6929    79.360152 
   33500    699.56492   -121.44246   0.63298104   -120.80948    1052.0035    4.2870565    4.2870565    4.2870565    1052.0035   -14499.824    15767.653    1888.1807   -2688.5725   -27413.541   -19208.016    78.791181 
   33600    792.42466   -121.52947   0.71700249   -120.81247   -2432.6606    4.2908344    4.2908344    4.2908344   -2432.6606   -13180.946   -35090.166    40973.129    15497.061     3376.402   -15411.219    78.999667 
   33700    1297.3139   -121.98162    1.1738369   -120.80778   -2905.5599    4.2929146    4.2929146    4.2929146   -2905.5599   -13263.816   -14744.218    19291.354    10265.874    2855.0281    5213.9024    79.114623 
   33800     1569.369   -122.22404     1.419998   -120.80405    21059.598    4.2815376    4.2815376    4.2815376    21059.598     2617.415    36399.196    24162.182   -1847.6249   -18532.919    13057.489    78.487284 
   33900    908.05126   -121.63903   0.82162386    -120.8174   -3810.0974    4.2958895    4.2958895    4.2958895   -3810.0974   -12013.551   -8687.4974    9270.7562    4106.4904   -11092.603   -10442.513    79.279209 
   34000    555.38735   -121.31742   0.50252615   -120.81489     -18795.6    4.2989614    4.2989614    4.2989614     -18795.6   -37306.741   -13525.842    -5554.217    9176.1459    3588.7821   -20192.017    79.449403 
   34100    1003.0974   -121.71276   0.90762359   -120.80513    16003.922    4.2871007    4.2871007    4.2871007    16003.922   -10081.378    43973.859    14119.284    5676.2021     17237.03   -2449.4941    78.793618 
   34200    1550.8538   -122.19701    1.4032451   -120.79376    1047.9327    4.2950643    4.2950643    4.2950643    1047.9327   -13652.327     15767.68    1028.4448   -1682.6544    11966.076   -1270.9027    79.233532 
   34300    951.16167   -121.66458   0.86063107   -120.80395    8756.7015    4.2905628    4.2905628    4.2905628    8756.7015    2121.7552   -4984.9359    29133.285   -122.29523   -11854.456   -14393.609    78.984666 
   34400    575.79583   -121.33357   0.52099216   -120.81258    -9028.268    4.2913116    4.2913116    4.2913116    -9028.268   -24778.424   -29523.493    27217.112    8424.6603    8285.2026    -22536.97    79.026029 
   34500    815.52553    -121.5512   0.73790463    -120.8133   -3941.8723    4.2890245    4.2890245    4.2890245   -3941.8723   -25055.717    2785.8193    10444.281    4403.6909    32239.319   -6167.3849    78.899741 
   34600    1280.2424   -121.96675    1.1583902   -120.80836    16773.451    4.2820191    4.2820191    4.2820191    16773.451   -2985.3487    26953.445    26352.257   -3338.6474    12037.257    12525.453    78.513764 
   34700    964.52882   -121.68581   0.87272595   -120.81308   -18347.231    4.3010599    4.3010599    4.3010599   -18347.231   -8080.7892   -27761.288   -19199.616    3563.6558   -7330.9681   -4131.9743    79.565807 
   34800    685.31963   -121.42964   0.62009161   -120.80955   -17846.895    4.2964781    4.2964781    4.2964781   -17846.895    3257.7703   -42693.463   -14104.992    10974.344    2531.2716     -12330.5    79.311798 
   34900    1296.7337    -121.9681    1.1733119   -120.79479     13263.66    4.2822179    4.2822179    4.2822179     13263.66    6711.8335    9612.7505    23466.395    7314.4718     18719.72   -4859.3591    78.524702 
   35000    1328.4354   -121.99796    1.2019962   -120.79596   -7945.9844    4.2965589    4.2965589    4.2965589   -7945.9844   -14857.943   -2258.9827   -6721.0272   -9531.7367   -542.58621    12238.233    79.316274 
   35100    558.87615   -121.31716   0.50568289   -120.81147   -10902.013    4.2919566    4.2919566    4.2919566   -10902.013   -1112.5902   -29860.046    -1733.403    -220.1012   -20076.859   -5774.5857    79.061664 
   35200    536.86177   -121.30495   0.48576381   -120.81918    6470.3678    4.2859099    4.2859099    4.2859099    6470.3678    9614.9145   -27541.024    37337.213    12912.905   -4467.2184    -26259.67    78.727979 
   35300    1479.1726   -122.14743    1.3383865   -120.80905    6426.7082    4.2922754    4.2922754    4.2922754    6426.7082   -1980.3806    3258.1312    18002.374    2332.7888     850.0519   -5791.8674    79.079286 
   35400     1423.655   -122.09556     1.288153   -120.80741    15295.376    4.2864351    4.2864351    4.2864351    15295.376   -5079.8084    13457.498    37508.439   -8773.5077    1809.4422    5776.2728    78.756925 
   35500    504.49555   -121.27583   0.45647817   -120.81936   -14415.315     4.299254     4.299254     4.299254   -14415.315   -8706.5339   -32074.613   -2464.7992    4699.9652   -1705.5583   -11569.843    79.465627 
   35600     717.2149   -121.45573   0.64895111   -120.80678   -14469.736    4.2976833    4.2976833    4.2976833   -14469.736   -11341.649   -16171.473   -15896.086    12908.533   -12396.368   -10981.745    79.378559 
   35700     1322.123   -121.98741    1.1962847   -120.79113    12780.238      4.28245      4.28245      4.28245    12780.238   -6840.9162    26168.415    19013.216   -4119.1047     18228.97    229.95763    78.537469 
   35800    996.43514   -121.70348   0.90159545   -120.80188   -2757.4987     4.292573     4.292573     4.292573   -2757.4987   -10744.361   -4439.3949    6911.2601   -6364.6885     24331.17      7633.39    79.095737 
   35900    895.72665   -121.61559   0.81047229   -120.80512   -1144.5687    4.2932699    4.2932699    4.2932699   -1144.5687   -5149.8311   -15565.303    17281.428    -2823.985   -9397.4999   -6059.9725    79.134268 
   36000    1057.3967   -121.76087   0.95675479   -120.80412    8511.0717    4.2866134    4.2866134    4.2866134    8511.0717    3239.1835    4331.9935    17962.038    11008.736    3312.7577   -11703.917    78.766755 
   36100    1162.4241   -121.85619    1.0517858    -120.8044    7418.7279    4.2898884    4.2898884    4.2898884    7418.7279   -6162.3961    26456.382     1962.198    3192.7396    28042.993   -1153.5042    78.947425 
   36200    1043.0829    -121.7481   0.94380329   -120.80429    8012.5712    4.2900257    4.2900257    4.2900257    8012.5712   -24168.577    38618.854    9587.4362   -7977.4284    19464.683    2052.5354    78.955007 
   36300    831.52376   -121.55863   0.75238018   -120.80625   -1451.9451    4.2948341    4.2948341    4.2948341   -1451.9451   -19132.019   -8768.5854    23544.769    838.15136   -5025.2193   -9986.9069    79.220794 
   36400    1055.5109   -121.75832   0.95504845   -120.80327   -3339.6201    4.2906244    4.2906244    4.2906244   -3339.6201   -800.14843   -14128.892    4910.1795    5297.8981    309.04405   -14488.286     78.98807 
   36500     1380.327   -122.04829    1.2489489   -120.79934    11469.839    4.2815389    4.2815389    4.2815389    11469.839   -17235.064    44697.451    6947.1291    3308.1403    26540.829    1617.9708    78.487353 
   36600    986.34155   -121.70204   0.89246257   -120.80958   -11486.841    4.2933805    4.2933805    4.2933805   -11486.841   -29700.383   -3758.2308   -1001.9095   -20095.224    16654.111    3268.1842    79.140384 
   36700    474.23764   -121.24422   0.42910019   -120.81512   -21572.176    4.2937949    4.2937949    4.2937949   -21572.176   -17353.533   -48038.656    675.66142   -14769.997   -6881.6308   -10557.707    79.163299 
   36800    1016.8562   -121.73139   0.92007289   -120.81132    3378.1732    4.2831921    4.2831921    4.2831921    3378.1732   -10843.328    1731.1812    19246.667      13058.7   -6507.8855   -11883.087    78.578304 
   36900    1551.7115   -122.20548    1.4040211   -120.80146   -3554.7194    4.2945876    4.2945876    4.2945876   -3554.7194   -16250.718    769.91593     4816.644    130.26624   -6514.0602    2094.9941    79.207151 
   37000    893.31149   -121.61663   0.80828701   -120.80835   -8785.6358    4.2937629    4.2937629    4.2937629   -8785.6358   -8128.6859    -30507.09    12278.868   -20237.937    2201.7389    19079.382    79.161528 
   37100    472.76935   -121.23679   0.42777165   -120.80902   -3065.9096    4.2875092    4.2875092    4.2875092   -3065.9096   -4044.0001    -17355.59    12201.861   -11185.668   -6276.5901   -4935.2578    78.816147 
   37200    1098.2733   -121.79803   0.99374078   -120.80429    -9672.744    4.2902315    4.2902315    4.2902315    -9672.744   -12080.128   -1800.5872   -15137.517     9679.432   -17265.762   -14937.448    78.966369 
   37300    1300.9977   -121.97883    1.1771701   -120.80166    4100.3457    4.2839276    4.2839276    4.2839276    4100.3457   -7270.1168    17207.025    2364.1293   -2066.8942   -677.85663    10072.267    78.618794 
   37400    615.02159   -121.36976   0.55648446   -120.81327   -11233.916    4.2935813    4.2935813    4.2935813   -11233.916   -3196.2984    -30768.01    262.56184   -20048.217    8324.2024     7783.629    79.151485 
   37500    705.01867    -121.4482    0.6379157   -120.81028   -17433.195    4.2996756    4.2996756    4.2996756   -17433.195   -22588.284   -39450.986    9739.6832   -7675.7694   -467.47665   -11554.357    79.489007 
   37600    1479.4688   -122.13393    1.3386545   -120.79527    12393.636    4.2841795    4.2841795    4.2841795    12393.636    577.47745    9830.0452    26773.386    9383.7251   -3487.8821   -17423.244    78.632662 
   37700     1193.615   -121.88273     1.080008   -120.80272    12695.367    4.2862795    4.2862795    4.2862795    12695.367    1646.0979   -429.40567     36869.41   -6062.5779    -316.3532     10840.77    78.748352 
   37800    451.03055   -121.22487   0.40810192   -120.81676   -27987.877    4.3013687    4.3013687    4.3013687   -27987.877   -42743.241    -48131.92    6911.5285    -27096.66    4502.2387     13909.24    79.582945 
   37900    809.40379   -121.54694   0.73236556   -120.81457   -4311.9733    4.2866438    4.2866438    4.2866438   -4311.9733   -18521.241   -11895.995    17481.316   -7573.3192    2195.0224   -7165.8725    78.768433 
   38000    1644.2571    -122.2873    1.4877584   -120.79954    18479.958    4.2820184    4.2820184    4.2820184    18479.958    10108.213    21137.023    24194.637    6550.4044   -5274.7187   -1183.4885    78.513725 
   38100    980.47828   -121.69265   0.88715736   -120.80549   -16702.744    4.3037295    4.3037295    4.3037295   -16702.744   -40360.225   -13728.831    3980.8231   -26822.627   -3064.3878     5352.319    79.714057 
   38200    578.69686   -121.33315   0.52361708   -120.80954    -13382.49    4.2905905    4.2905905    4.2905905    -13382.49   -38270.791   -20963.448    19086.768   -24777.726    5598.1221    17210.772    78.986198 
   38300     1080.461   -121.77843   0.97762383   -120.80081    23686.141    4.2764147    4.2764147    4.2764147    23686.141    5852.0719    8827.5422    56378.809    12061.078    174.56882   -1322.9044    78.205888 
   38400    1403.1184   -122.06883     1.269571   -120.79926   -613.28926    4.2963793    4.2963793    4.2963793   -613.28926   -22518.292    17888.211    2790.2133   -1943.1677   -8427.5279   -8781.5427    79.306329 
   38500    770.95136   -121.50587   0.69757299    -120.8083   -12205.866    4.2956866    4.2956866    4.2956866   -12205.866   -47653.824   -25106.294    36142.521   -39958.272   -10480.429    3111.5757    79.267976 
   38600    541.16086   -121.29965   0.48965372      -120.81    7216.5844    4.2810174    4.2810174    4.2810174    7216.5844   -13646.885   -31773.216    67069.855   -10967.209   -1912.6647    6369.6499    78.458675 
   38700    1340.4923   -122.01712    1.2129056   -120.80421    1762.6258    4.2868368    4.2868368    4.2868368    1762.6258   -2041.2122   -601.65945    7930.7489     29439.64    6246.1945    18763.273     78.77907 
   38800    1289.9208   -121.97083    1.1671475   -120.80368    7218.0528    4.2919837    4.2919837    4.2919837    7218.0528   -15491.816    14871.226    22274.748   -16861.241   -2578.9233   -4327.0334    79.063163 
   38900    778.28872   -121.51558   0.70421199   -120.81137   -568.41261     4.289343     4.289343     4.289343   -568.41261   -24723.418   -8541.0771    31559.257   -49056.554    -553.0086    -4569.636    78.917321 
   39000    763.55218    -121.4981   0.69087806   -120.80722   -2180.6554    4.2925146    4.2925146    4.2925146   -2180.6554   -17158.295     9695.285    921.04363    1534.8596   -3734.9367    13514.401    79.092506 
   39100     1355.604   -122.02553     1.226579   -120.79896    -6472.596    4.2920019    4.2920019    4.2920019    -6472.596   -8366.9739    1900.1205   -12950.935    25508.971    4681.2119    8160.9154    79.064173 
   39200    1111.6269   -121.80751    1.0058233   -120.80169    5791.7769    4.2835331    4.2835331    4.2835331    5791.7769   -1436.5041   -1981.6157     20793.45    -22408.69    10582.048   -8431.5173    78.597075 
   39300    824.24809   -121.55482   0.74579699   -120.80903   -234.80328    4.2898959    4.2898959    4.2898959   -234.80328   -21222.846    3663.3443    16855.091   -39134.145   -6773.9059   -12376.253    78.947843 
   39400    1070.8878   -121.77359   0.96896176   -120.80463   -12072.826    4.2975451    4.2975451    4.2975451   -12072.826   -14951.558   -7710.8014    -13556.12    7022.2468   -13473.136    14203.716    79.370903 
   39500    1180.0443   -121.86745    1.0677289   -120.79972    12900.284    4.2854768    4.2854768    4.2854768    12900.284    8738.6131    1447.4229    28514.816    20542.035    2403.4445    17303.519    78.704114 
   39600    890.84771   -121.61024   0.80605773   -120.80418    9501.2297    4.2870593    4.2870593    4.2870593    9501.2297   -14533.343    16970.415    26066.617   -19395.788    17923.424   -12262.605    78.791337 
   39700    772.59204   -121.50474   0.69905751   -120.80568   -13369.842    4.2975109    4.2975109    4.2975109   -13369.842   -29854.348    -6549.017   -3706.1601   -30835.381    3979.1018   -4774.8165    79.369012 
   39800    1047.7806   -121.74909   0.94805387   -120.80103     7674.905    4.2872677    4.2872677    4.2872677     7674.905    7330.3144   -8496.0181    24190.419    7302.6377   -21124.993     8728.911    78.802827 
   39900     1238.268   -121.92108    1.1204109   -120.80067    6351.4296    4.2843897    4.2843897    4.2843897    6351.4296   -659.51653    12116.551    7597.2544    12809.314    7561.1354    5462.4997    78.644235 
   40000    804.99025   -121.53745    0.7283721   -120.80908    -13602.45    4.2938063    4.2938063    4.2938063    -13602.45   -22869.302   -5358.4954   -12579.552   -23496.522    37850.504   -1191.7978    79.163933 
   40100    654.74952   -121.40388   0.59243113   -120.81145   -12500.971    4.2912942    4.2912942    4.2912942   -12500.971   -23524.292   -18875.428    4896.8075   -24358.707    12260.969   -8422.0694    79.025066 
   40200     1333.181   -122.00955    1.2062902   -120.80326    -2423.832    4.2869197    4.2869197    4.2869197    -2423.832   -9353.9553    3706.3587   -1623.8994   -1475.0814   -23973.154    8314.4006    78.783643 
   40300    1373.0944   -122.04355    1.2424047   -120.80114    847.50146    4.2919458    4.2919458    4.2919458    847.50146     1427.453    12825.726   -11710.674    3372.9598    7136.3707    3227.0079    79.061071 
   40400    691.85528   -121.43831   0.62600519   -120.81231   -17774.341    4.2931037    4.2931037    4.2931037   -17774.341   -44930.004    5153.1158   -13546.135   -23316.863    44613.586   -8478.8541    79.125078 
   40500    523.44664    -121.2899   0.47362552   -120.81627     2032.577    4.2865216    4.2865216    4.2865216     2032.577   -31548.821    18358.901    19287.651   -29116.195    9076.1566   -4966.6115    78.761695 
   40600    1528.4868   -122.18876     1.383007   -120.80575    4454.0147    4.2880681    4.2880681    4.2880681    4454.0147     6002.886    6240.1675    1118.9906    3335.4797   -15597.311   -7860.1784    78.846973 
   40700    1341.5598    -122.0205    1.2138715   -120.80662    8588.8154    4.2904242    4.2904242    4.2904242    8588.8154   -3877.4139    20499.992     9143.868    10484.984    12260.247    5273.9966    78.977012 
   40800    495.64977   -121.26644   0.44847433   -120.81797   -3888.2644    4.2889381    4.2889381    4.2889381   -3888.2644   -29858.257    15795.293    2398.1707   -29899.947    39328.568    2671.6768    78.894976 
   40900    624.71913   -121.38184     0.565259   -120.81658   -11037.526    4.2952058    4.2952058    4.2952058   -11037.526   -14430.111   -19158.912    476.44551   -28346.097     16360.24   -9422.8495     79.24136 
   41000    1575.8828   -122.22904    1.4258919   -120.80315    6075.9135    4.2874561    4.2874561    4.2874561    6075.9135    11782.959   -6926.8937    13371.675    4060.5357   -7998.4663   -364.24344    78.813216 
   41100    1329.9222      -122.01    1.2033416   -120.80666    13838.395    4.2829855    4.2829855    4.2829855    13838.395    25704.758    15043.874    766.55482    5393.1828    5001.8059   -2290.4508    78.566937 
   41200    451.98033   -121.22755    0.4089613   -120.81859    -22242.49    4.3000897    4.3000897    4.3000897    -22242.49   -45831.493     -9387.86   -11508.117   -33310.032    34682.053    7849.7537    79.511978 
   41300    811.42752   -121.54777   0.73419667   -120.81357   -2292.3032    4.2905648    4.2905648    4.2905648   -2292.3032   -30982.485   -295.74979    24401.325   -30660.213    19769.034   -846.36189    78.984777 
   41400    1634.2788   -122.27734    1.4787298   -120.79861    19799.181     4.283448     4.283448     4.283448    19799.181    33063.202    12683.319    13651.023    10051.158   -12980.983   -3426.7251     78.59239 
   41500    1060.0626   -121.76921    0.9591669   -120.81004   -1451.6676    4.2927909    4.2927909    4.2927909   -1451.6676   -10429.245     3967.372    2106.8703   -1349.6092   -3298.1872    3528.1351    79.107783 
   41600      272.647   -121.06615   0.24669673   -120.81946    3806.9488    4.2894182    4.2894182    4.2894182    3806.9488   -10288.895    8225.9668    13483.774   -38906.001    26452.595    -711.2116     78.92147 
   41700    948.66264   -121.67074   0.85836989   -120.81237   -8385.5218    4.2974773    4.2974773    4.2974773   -8385.5218   -1900.8108   -2049.1476   -21206.607   -19867.719    17720.446    3205.0805    79.367148 
   41800    1572.2916   -122.22231    1.4226425   -120.79967    9494.8188    4.2895629    4.2895629    4.2895629    9494.8188    3007.8553    7964.5948    17512.006    17412.736   -6188.2639   -2341.5163    78.929458 
   41900    1100.0505   -121.80287   0.99534884   -120.80752    17619.076    4.2772064    4.2772064    4.2772064    17619.076    18108.375     12751.99    21996.863   -3467.0092    693.17819   -1581.5207    78.249331 
   42000    551.61427   -121.31788   0.49911218   -120.81876   -25137.317    4.3011909    4.3011909    4.3011909   -25137.317   -45269.354   -10065.444   -20077.152   -36289.383    34179.857    8403.3461    79.573075 
   42100    1008.7702   -121.72363   0.91275646   -120.81088   -6541.4349    4.2945772    4.2945772    4.2945772   -6541.4349   -21481.111   -1265.3299    3122.1361   -15849.941    17313.752   -138.74748    79.206577 
   42200    1553.1317   -122.20189    1.4053062   -120.79658    18756.065    4.2785743    4.2785743    4.2785743    18756.065    24160.955    14971.679    17135.563    26164.661   -14082.631   -2008.3814     78.32443 
   42300    1027.5605   -121.73543    0.9297583   -120.80567   -2326.8405    4.2939934    4.2939934    4.2939934   -2326.8405    -26797.26   -5280.9136    25097.652   -6779.9808   -7248.2671    -2029.648    79.174279 
   42400    637.73111   -121.38729   0.57703251   -120.81026    4374.9228    4.2899786    4.2899786    4.2899786    4374.9228    -22925.23    3105.4472    32944.551   -40563.396    17351.928    9564.7335    78.952407 
   42500     926.4977   -121.64475   0.83831459   -120.80644    5080.8848    4.2930666    4.2930666    4.2930666    5080.8848    12804.656    13402.282   -10964.284   -2789.7141     19797.71    2140.5112    79.123027 
   42600    1233.3424   -121.91184    1.1159541   -120.79588   -7062.0691    4.2968703    4.2968703    4.2968703   -7062.0691   -13152.076    2493.6909   -10527.822    13535.565   -9419.2076   -15821.669     79.33352 
   42700     893.7333   -121.61035   0.80866868   -120.80169    8758.5007    4.2790212    4.2790212    4.2790212    8758.5007    -10385.68    2656.2754    34004.907   -23849.481   -6301.7953    306.34252    78.348973 
   42800     686.0523   -121.43246   0.62075454    -120.8117   -10883.463    4.2908926    4.2908926    4.2908926   -10883.463   -41745.508   -6234.8096    15329.928    -36590.51    22467.867    2395.1072     79.00288 
   42900    1101.1492   -121.80011   0.99634296   -120.80376   -14682.185    4.2972716    4.2972716    4.2972716   -14682.185   -27167.535    4644.1747   -21523.195   -2833.2161    15774.161   -6455.1179    79.355754 
   43000    1227.5647   -121.90961    1.1107263   -120.79888    8096.0642    4.2837954    4.2837954    4.2837954    8096.0642    2829.1635    9525.8063    11933.223    9578.3923   -1477.9245   -7876.8523    78.611514 
   43100    791.96883   -121.52377   0.71659004   -120.80718   -8340.8155    4.2949377    4.2949377    4.2949377   -8340.8155   -41115.716   -30104.275    46197.545   -41418.025   -4217.9495   -9810.2946    79.226525 
   43200    994.81224   -121.70622   0.90012702   -120.80609   -3513.8625    4.2897373    4.2897373    4.2897373   -3513.8625   -32279.957   -5335.7629    27074.133   -33847.373    13382.936    7107.1914    78.939084 
   43300    1325.2728    -121.9985    1.1991347   -120.79936    29672.614    4.2797761    4.2797761    4.2797761    29672.614     23403.49    31306.769    34307.584    15652.688    16734.487    -3274.552     78.39045 
   43400    1070.8046   -121.77641   0.96888649   -120.80753   -11653.404    4.2994113    4.2994113    4.2994113   -11653.404   -13992.954   -11070.806   -9896.4512   -12559.913   -12159.906   -18741.683    79.474348 
   43500    527.61064   -121.29029    0.4773932    -120.8129   -6364.2925    4.2907169    4.2907169    4.2907169   -6364.2925   -32603.937    1584.7676    11926.292   -46331.347   -12774.928   -827.18318    78.993178 
   43600    1016.3031   -121.72312   0.91957236   -120.80355        15088    4.2800109    4.2800109    4.2800109        15088     2984.349    10766.831    31512.821    -17274.91    2365.2248    1550.3566    78.403349 
   43700       1477.5   -122.13624    1.3368731   -120.79937   -7010.8996    4.2974539    4.2974539    4.2974539   -7010.8996   -14233.449    3203.2634   -10002.513    18994.432    6169.3422    1924.0466    79.365849 
   43800    834.87106   -121.56694   0.75540888   -120.81153   -10745.846      4.29122      4.29122      4.29122   -10745.846   -10900.023    3491.0201   -24828.536    -20730.82   -6268.3807   -15519.843    79.020969 
   43900    388.27095   -121.16801   0.35131572   -120.81669   -3470.9316    4.2788953    4.2788953    4.2788953   -3470.9316   -11084.227   -19677.527    20348.959   -51522.679   -16715.661   -15120.497    78.342059 
   44000    1080.1675   -121.79361   0.97735822   -120.81625   -6527.5324    4.2933529    4.2933529    4.2933529   -6527.5324   -30598.466   -10930.858    21946.727   -3158.6936   -6419.4703    10662.869    79.138857 
   44100    1707.2125   -122.34484    1.5447217   -120.80012   -1380.8491    4.2966995    4.2966995    4.2966995   -1380.8491    2990.8335   -4854.8813   -2278.4996    19900.536    6254.0839   -3972.4997     79.32406 
   44200    839.45135   -121.57097   0.75955322   -120.81142    2794.2307    4.2875322    4.2875322    4.2875322    2794.2307    -6818.267   -12191.686    27392.645   -27707.555   -4598.3813   -17654.448    78.817417 
   44300    510.39148   -121.27718   0.46181294   -120.81537   -12728.994     4.289647     4.289647     4.289647   -12728.994   -35794.705   -27786.754    25394.479    -47304.09   -15673.535   -14678.374      78.9341 
   44400    1240.3462   -121.93084    1.1222913   -120.80854   -1967.5567    4.2942092    4.2942092    4.2942092   -1967.5567   -7043.7871    3857.0417   -2715.9247    187.37916   -12980.665    4020.3314    79.186217 
   44500    1583.2782   -122.23227    1.4325833   -120.79969    8462.8701    4.2880681    4.2880681    4.2880681    8462.8701     13526.23    4605.6628    7256.7177    11574.885    8396.3157    10100.316    78.846972 
   44600    676.37319   -121.42591   0.61199667   -120.81392    8845.2631    4.2849263    4.2849263    4.2849263    8845.2631   -1474.8804     4210.736    23799.934   -41406.198    5295.0103   -20271.431    78.673791 
   44700    449.93874   -121.22726   0.40711402   -120.82015   -9127.6548    4.2953841    4.2953841    4.2953841   -9127.6548   -1362.3613   -18001.735   -8018.8682   -44331.701   -10457.033   -11360.448    79.251233 
   44800    1279.4265   -121.96173     1.157652   -120.80407    8411.9721    4.2937022    4.2937022    4.2937022    8411.9721    12997.425    13676.624    -1438.133     3546.333    -9626.036    4885.5367    79.158173 
   44900    1495.3207   -122.15137    1.3529976   -120.79837    11615.719    4.2868885    4.2868885    4.2868885    11615.719    5441.7501    23197.533    6207.8738    1997.8149    3704.5631    176.12366    78.781923 
   45000    537.48844   -121.30058   0.48633084   -120.81425   -14457.602    4.2932143    4.2932143    4.2932143   -14457.602   -18477.199    -41423.21    16527.604    -42106.95    7614.6528   -7704.2623    79.131193 
   45100    666.09607   -121.41791   0.60269772   -120.81521   -15550.541    4.2851848    4.2851848    4.2851848   -15550.541   -21931.517   -18253.164   -6466.9412   -37616.916   -8732.0471   -28093.543    78.688028 
   45200    1368.1461   -122.04806    1.2379273   -120.81013    5610.6927    4.2860289    4.2860289    4.2860289    5610.6927   -4660.8045    27663.955   -6171.0721    15244.735    -11759.99   -1526.2357     78.73454 
   45300    1372.9998   -122.04866    1.2423191   -120.80634   -21084.367    4.2998444    4.2998444    4.2998444   -21084.367   -32821.916   -21242.842   -9188.3415   -861.76065    2724.6302    14572.275    79.498369 
   45400    508.06777   -121.27095   0.45971039   -120.81124    3259.3104    4.2869013    4.2869013    4.2869013    3259.3104   -25506.198    13825.475    21458.655   -38178.637    6418.5156   -17018.083    78.782627 
   45500    900.70136   -121.62307   0.81497352    -120.8081   -7595.4408    4.2892515    4.2892515    4.2892515   -7595.4408    -21328.83   -213.30076   -1244.1918   -19850.133   -3173.6069   -18023.167    78.912268 
   45600    1326.4216   -121.99796    1.2001741   -120.79778     482.5094    4.2931046    4.2931046    4.2931046     482.5094    6120.3561    8509.7898   -13182.618    12515.532    -4634.721    6986.2085    79.125125 
   45700    939.85015   -121.65364   0.85039617   -120.80325    3393.4368    4.2850756    4.2850756    4.2850756    3393.4368   -7304.4357    22408.678   -4923.9322   -8658.1377   -419.78178      24468.6    78.682014 
   45800    596.89604   -121.35257   0.54008408   -120.81249   -12585.202    4.2915461    4.2915461    4.2915461   -12585.202    -15347.94   -33724.327    11316.661   -42038.579    1892.7044    5759.4816    79.038982 
   45900    1215.9605   -121.90638    1.1002266   -120.80615    5810.9696    4.2845006    4.2845006    4.2845006    5810.9696   -71.043917    8042.6234    9461.3293   -16294.087    4661.6712   -19779.152    78.650341 
   46000    1416.9203   -122.08603    1.2820593   -120.80397    8040.1999    4.2898655    4.2898655    4.2898655    8040.1999     18373.27    16901.939   -11154.609    14548.128    1216.0938    17204.064    78.946164 
   46100    805.92635   -121.54144    0.7292191   -120.81222   -11603.193     4.294238     4.294238     4.294238   -11603.193    6854.2514    -35361.31   -6302.5211   -22339.873   -626.10967    34216.768    79.187811 
   46200    658.75525   -121.40615   0.59605559   -120.81009    15574.397     4.280615     4.280615     4.280615    15574.397   -16402.483    21550.133    41575.542   -47976.228   -458.87415   -452.83848    78.436555 
   46300    1348.8353   -122.02612    1.2204545   -120.80567    109.45705      4.29226      4.29226      4.29226    109.45705   -29357.385    18005.106     11680.65    2133.2986    2162.8942   -4113.9436    79.078437 
   46400     1281.304   -121.96188    1.1593508   -120.80253    14667.621    4.2866268    4.2866268    4.2866268    14667.621    23282.581    20505.087    215.19599    14944.306    2527.0778    11652.528    78.767494 
   46500    662.98914   -121.41241    0.5998865   -120.81252   -7183.4014    4.2850688    4.2850688    4.2850688   -7183.4014   -10525.494   -16901.241    5876.5305    -40662.87    581.14262    22167.267    78.681639 
   46600    564.62667   -121.32613   0.51088607   -120.81525   -28191.811    4.2974265    4.2974265    4.2974265   -28191.811   -47670.754    -52241.25     15336.57   -50559.683     564.4296    16207.361    79.364335 
   46700    1532.1611   -122.18668    1.3863316   -120.80035    8553.6003    4.2795329    4.2795329    4.2795329    8553.6003   -3249.7087    7980.4168    20930.093    6183.7339    7148.1025   -9939.5065    78.377083 
   46800    1312.1932   -121.99568    1.1872999   -120.80838   -439.31321    4.2886776    4.2886776    4.2886776   -439.31321    8923.3394   -11235.854    994.57533    -197.3421    2878.7503    1372.3135    78.880596 
   46900    400.26541    -121.1839   0.36216855   -120.82173   -26913.481     4.296202     4.296202     4.296202   -26913.481   -27705.647   -71563.288    18528.492   -57897.872    9.4193966    18231.558    79.296512 
   47000    668.64032   -121.42268   0.60499981   -120.81768    12862.371    4.2803652    4.2803652    4.2803652    12862.371    8282.3145   -15257.107    45561.906   -33918.606   -2312.3616    13275.211    78.422825 
   47100    1604.4395   -122.25638    1.4517306   -120.80464    5294.5948    4.2932625    4.2932625    4.2932625    5294.5948     11740.88    2051.1155    2091.7889    20092.949    -4884.143    3039.2269    79.133855 
   47200     1237.093   -121.92672    1.1193478   -120.80738    7672.1229      4.28948      4.28948      4.28948    7672.1229   -12588.697    3181.0432    32424.023   -17491.593    1248.3665   -3777.5057    78.924884 
   47300    518.08642    -121.2828   0.46877548   -120.81403    9880.5624    4.2844435    4.2844435    4.2844435    9880.5624   -14693.841    6498.6054    37836.923     -57111.5   -1292.8681    10973.728    78.647197 
   47400    809.67306   -121.54425    0.7326092   -120.81164   -15073.393    4.2949427    4.2949427    4.2949427   -15073.393    1781.5372   -26369.531   -20632.185   -14059.289   -2375.5448    29997.048    79.226799 
   47500    1280.3992   -121.96147    1.1585321   -120.80294     16068.06    4.2792863    4.2792863    4.2792863     16068.06    15095.807    33185.566   -77.192627    18797.239   -7914.6335    5405.7114    78.363537 
   47600    1088.5528   -121.79498   0.98494545   -120.81003   -7172.8841    4.2882707    4.2882707    4.2882707   -7172.8841   -35565.455   -19148.696    33195.499   -14686.816   -6144.9806   -8407.5167    78.858149 
   47700    592.80228     -121.348   0.53637996   -120.81162   -23168.119    4.2978828    4.2978828    4.2978828   -23168.119   -37075.268   -54402.625    21973.536   -39972.604   -255.74241    17230.901    79.389615 
   47800    970.83917   -121.68355   0.87843568   -120.80511    5140.8157    4.2818644    4.2818644    4.2818644    5140.8157    21215.222   -1295.2716   -4497.5033   -10725.975   -3442.4712    35730.038    78.505255 
   47900    1373.8063   -122.04295    1.2430488    -120.7999    4089.6526    4.2890753    4.2890753    4.2890753    4089.6526   -1491.5479      14575.5   -814.99392    11938.371    -2843.509    11965.832    78.902546 
   48000    1030.8785    -121.7374   0.93276057   -120.80464    645.46488     4.288934     4.288934     4.288934    645.46488   -30945.279    2935.8809    29945.793   -23195.689   -2565.4235   -17249.165    78.894746 
   48100     579.0558   -121.33565   0.52394186   -120.81171   -7280.8296    4.2909007    4.2909007    4.2909007   -7280.8296   -21557.819   -333.09349    48.423349   -31408.492    642.79878    18694.362    79.003331 
   48200    897.97571   -121.62011   0.81250729    -120.8076   -8593.0165    4.2932587    4.2932587    4.2932587   -8593.0165    1649.9221   -7048.3258   -20380.646   -1867.5715    2840.4092    41051.826    79.133648 
   48300    1337.2103    -122.0092     1.209936   -120.79926    13776.167    4.2764625    4.2764625    4.2764625    13776.167    15215.046    30374.748   -4261.2927    7103.7403    3599.9826   -6368.0021     78.20851 
   48400    786.96133   -121.52548   0.71205915   -120.81342   -11304.384    4.2907393    4.2907393    4.2907393   -11304.384   -26267.681   -13032.434    5386.9651   -28612.046    1099.0363   -15974.174    78.994416 
   48500    697.49141   -121.44577   0.63110489   -120.81467   -14869.274    4.2948204    4.2948204    4.2948204   -14869.274   -30919.756   -35269.751    21581.686   -24091.201   -4565.1672    77.911557    79.220035 
   48600    1384.6314   -122.05455    1.2528436   -120.80171    20218.294    4.2789586    4.2789586    4.2789586    20218.294    6362.9329    21326.665    32965.284    11165.559    10018.828    13583.889    78.345535 
   48700     1241.185   -121.92766    1.1230503   -120.80461    2640.3014    4.2924872    4.2924872    4.2924872    2640.3014   -1568.7418    9663.9054   -174.25933   -2193.8341    12723.488   -9151.3119    79.090994 
   48800    662.02388   -121.41203   0.59901312   -120.81301   -4054.6678    4.2917252    4.2917252    4.2917252   -4054.6678   -10546.168   -23002.087    21384.251   -24977.691    8166.7468   -24064.305    79.048879 
   48900    826.71851      -121.56   0.74803228   -120.81196    16881.278    4.2832972    4.2832972    4.2832972    16881.278   -15694.301    14432.013    51906.121   -25450.308   -4155.3297    -160.7112    78.584089 
   49000    1522.6762   -122.18031    1.3777494   -120.80256    8722.3769    4.2910893    4.2910893    4.2910893    8722.3769   -7817.1205    23045.766    10938.485    5676.0698    595.50318    8910.8466    79.013748 
   49100    1197.7622   -121.89228    1.0837604   -120.80852    10225.014    4.2872548    4.2872548    4.2872548    10225.014    8042.5784    26155.284   -3522.8212    1568.5781    17132.163   -10259.744    78.802119 
   49200    430.19799   -121.20642   0.38925218   -120.81717   -11243.743    4.2912067    4.2912067    4.2912067   -11243.743   -26066.932   -10736.661    3072.3631   -37627.749    9545.5329   -20470.199    79.020235 
   49300     836.1734   -121.56993   0.75658727   -120.81334   -18911.194     4.291647     4.291647     4.291647   -18911.194   -23360.981   -32893.358   -479.24298   -24089.034   -3591.7534   -22343.352     79.04456 
   49400    1567.3046   -122.22254    1.4181302   -120.80441    13196.317      4.28195      4.28195      4.28195    13196.317     15724.02    9281.5615     14583.37    15009.863   -2451.3316    6141.9454    78.509963 
   49500    1231.6137   -121.92656      1.11439   -120.81217    -5019.459    4.2895862    4.2895862    4.2895862    -5019.459   -13218.554    3727.6437   -5567.4665   -5000.7202    4609.7978    8405.1238    78.930743 
   49600    399.95111   -121.18122   0.36188417   -120.81933   -9426.3396    4.2943121    4.2943121    4.2943121   -9426.3396   -9550.0205   -40932.077    22203.079   -38833.228    11417.082   -15525.388    79.191907 
   49700    934.86506   -121.65612   0.84588555   -120.81024   -5873.1341    4.2947729    4.2947729    4.2947729   -5873.1341    10598.896   -38143.238    9924.9394   -20840.258    -1990.366   -24807.189    79.217403 
   49800    1573.4267   -122.21976    1.4236695   -120.79609     9750.271    4.2878542    4.2878542    4.2878542     9750.271     11681.96      15563.7     2005.153    14429.868   -6248.3393    127.47277    78.835176 
   49900    1092.9875   -121.79116   0.98895807    -120.8022     15924.21    4.2823967    4.2823967    4.2823967     15924.21    21269.615    1565.8519    24937.163   -9743.7398   -135.55685    9764.5386    78.534537 
   50000    573.86335   -121.33071   0.51924362   -120.81147   -16332.527    4.2989249    4.2989249    4.2989249   -16332.527   -14501.518   -27271.528   -7224.5354   -47529.681    8684.4011    -8184.879    79.447381 
   50100    929.39985   -121.64853   0.84094051   -120.80759   -9393.8859    4.2924076    4.2924076    4.2924076   -9393.8859   -9979.0242   -5707.2847   -12495.349   -6730.6411    4419.7306    -21761.56    79.086594 
   50200    1376.5147   -122.04326    1.2454995   -120.79776    14540.649    4.2769368    4.2769368    4.2769368    14540.649    18578.314    7230.2349    17813.397    31294.314   -9558.0899   -5768.8774    78.234532 
   50300    1076.4764   -121.78126   0.97401846   -120.80724   -4716.1018    4.2926032    4.2926032    4.2926032   -4716.1018   -19784.444   -8527.7149    14163.854   -12369.046   -3250.1877    9644.5088    79.097407 
   50400    930.86435   -121.65155   0.84226563   -120.80928   -2104.3448    4.2925434    4.2925434    4.2925434   -2104.3448   -14749.454   -8117.4974    16553.917   -45288.852    8975.4833   -3746.5226    79.094101 
   50500    1068.6862   -121.77118   0.96696972   -120.80421    8504.9478    4.2875159    4.2875159    4.2875159    8504.9478    23169.908   -10635.842    12980.777   -4525.1212    9170.0006   -15171.833    78.816517 
   50600    1083.3938   -121.78294   0.98027746   -120.80266   -2560.6181     4.291424     4.291424     4.291424   -2560.6181   -5523.1925    -11780.04    9621.3785    36256.367   -158.91528   -12152.594    79.032236 
   50700     889.8932   -121.61045   0.80519407   -120.80526    6816.1654    4.2842282    4.2842282    4.2842282    6816.1654   -20932.471    9859.1222    31521.845   -4007.3307   -6032.0982    4274.9479    78.635341 
   50800    1036.8947   -121.74459   0.93820413   -120.80638   -1093.5741    4.2930069    4.2930069    4.2930069   -1093.5741   -17029.023    -5050.062    18798.363   -38288.427     3375.791    2770.8653    79.119725 
   50900    1212.4768    -121.8984    1.0970745   -120.80133   -7920.5965    4.2934326    4.2934326    4.2934326   -7920.5965   -8702.4359   -18180.845    3121.4915    801.53218    6322.2986   -13566.954     79.14326 
   51000    776.77017   -121.50876   0.70283797   -120.80592    3295.5715    4.2819058    4.2819058    4.2819058    3295.5715   -15224.835    8389.9503    16721.599    38738.438   -2399.7628   -4611.1226     78.50753 
   51100    773.64982   -121.50985   0.70001461   -120.80984   -18476.485    4.2911309    4.2911309    4.2911309   -18476.485   -45930.337   -33621.753    24122.636    5425.2986    -5278.411    -8.305586    79.016047 
   51200    1177.1608   -121.86951    1.0651199   -120.80439   -4189.5545    4.2897083    4.2897083    4.2897083   -4189.5545   -24720.783   -9815.3799      21967.5   -33973.572   -2565.0249    3906.6378    78.937483 
   51300    1079.9937   -121.78076   0.97720103   -120.80356    7123.4392    4.2849683    4.2849683    4.2849683    7123.4392     2536.341   -3482.7861    22316.763   -639.40924     4484.462   -3576.7412    78.676101 
   51400    620.22176   -121.37401   0.56118968   -120.81282   -18564.633    4.2958113    4.2958113    4.2958113   -18564.633   -11300.931   -53148.309    8755.3405    38811.276    2273.3156   -11856.668    79.274879 
   51500     911.9391   -121.63844   0.82514166    -120.8133    4028.5431    4.2858169    4.2858169    4.2858169    4028.5431   -4712.7027   -14655.549    31453.881    21995.972   -5072.6401   -2346.3438    78.722854 
   51600    1687.9212   -122.32975    1.5272666   -120.80249    23738.556    4.2794428    4.2794428    4.2794428    23738.556    8174.0848    23001.515    40040.069   -13323.001    -4717.022    457.07874    78.372135 
   51700    1059.0444   -121.77351    0.9582456   -120.81526    -7805.093    4.2979682    4.2979682    4.2979682    -7805.093    386.44961    -25234.02    1432.2911    1095.7232    601.03619   -4591.0643     79.39435 
   51800    270.09301     -121.065   0.24438583   -120.82062   -15070.864    4.2936624    4.2936624    4.2936624   -15070.864    277.59299   -36196.896   -9293.2895    38064.861    5261.3434   -12616.974    79.155971 
   51900    962.02967   -121.68241   0.87046466   -120.81194    8626.8008    4.2804194    4.2804194    4.2804194    8626.8008    8417.3559    -8623.339    26086.386    21553.983   -4023.4884   -2601.7776      78.4258 
   52000    1562.5951   -122.21737    1.4138689    -120.8035    12254.398    4.2880452    4.2880452    4.2880452    12254.398    4612.0319    623.46107      31527.7   -19065.727   -3949.0959    4047.1102    78.845708 
   52100     1075.649   -121.78592   0.97326985   -120.81265    9311.3569    4.2894961    4.2894961    4.2894961    9311.3569   -5909.9513    20011.635    13832.387   -2540.4593    1560.5291    1033.1716    78.925772 
   52200    710.72886   -121.45963   0.64308241   -120.81655    1403.4145    4.2894378    4.2894378    4.2894378    1403.4145   -6594.6865   -10541.968    21346.898    39696.691    3147.6613   -758.04834    78.922555 
   52300    934.59131   -121.65559   0.84563786   -120.80996    3689.2414    4.2860993    4.2860993    4.2860993    3689.2414    10092.596   -20864.985    21840.113    19411.468    -1054.317    1175.2711    78.738416 
   52400    1093.2777   -121.79578   0.98922063   -120.80656    5010.1971    4.2868988    4.2868988    4.2868988    5010.1971   -12470.992    10871.323     16630.26   -35202.498   -10843.977    892.98719    78.782488 
   52500    953.52481    -121.6697   0.86276929   -120.80693   -21901.493     4.297116     4.297116     4.297116   -21901.493   -41995.956    -29673.97    5965.4466   -23909.185   -5652.5004   -1528.3611     79.34713 
   52600    1111.8627   -121.81169    1.0060367   -120.80565   -5430.2157    4.2798003    4.2798003    4.2798003   -5430.2157   -5629.7372   -18729.356     8068.446     33130.84    12200.665    -9734.373     78.39178 
   52700    1084.7497    -121.7892   0.98150437    -120.8077   -5684.8492    4.2788255    4.2788255    4.2788255   -5684.8492   -53.280841    -15374.63   -1626.6371    9611.8971    1889.8105   -15461.213    78.338227 
   52800    659.39901   -121.41009   0.59663808   -120.81345   -34391.864    4.2998192    4.2998192    4.2998192   -34391.864   -49382.067   -42384.351   -11409.174   -52105.272   -15094.801   -3780.0464    79.496969 
   52900    822.72839   -121.55712   0.74442194    -120.8127   -2965.4373    4.2868998    4.2868998    4.2868998   -2965.4373   -11163.138   -13044.138    15310.963   -25255.738   -8625.7497    10048.313    78.782545 
   53000     1502.444   -122.16069    1.3594429   -120.80125     12779.25    4.2814953    4.2814953    4.2814953     12779.25    13040.385    22344.038    2953.3258    17928.654    3018.8549   -1052.0041    78.484957 
   53100    1189.8378   -121.88427    1.0765903   -120.80768    5800.3348    4.2908177    4.2908177    4.2908177    5800.3348    14059.823   -14122.109    17463.291   -5774.5807    5967.3652   -18234.581    78.998746 
   53200    598.88066   -121.35546   0.54187981   -120.81358    1937.9095    4.2922982    4.2922982    4.2922982    1937.9095   -7687.9877    -19905.92    33407.637   -45787.079   -8746.6077   -16795.852    79.080547 
   53300     982.6263   -121.69884   0.88910093   -120.80974   -5047.9575    4.2925446    4.2925446    4.2925446   -5047.9575   -24438.817     12516.74   -3221.7955   -17198.537   -6952.6971     11144.19    79.094168 
   53400    1474.7142   -122.13577    1.3343524   -120.80141    15728.292     4.278444     4.278444     4.278444    15728.292    23245.861    20348.984    3590.0305    12963.196   -2549.5008    12475.011    78.317273 
   53500    1026.9018   -121.74161   0.92916233   -120.81245    6313.8984     4.282479     4.282479     4.282479    6313.8984    8145.8941    807.48511    9988.3161   -15844.551    2209.3273   -18172.486    78.539067 
   53600    472.24451    -121.2456   0.42729676    -120.8183   -30398.591     4.300795     4.300795     4.300795   -30398.591    -30456.17   -43549.536   -17190.065   -47032.727   -3152.5424    -20982.34    79.551104 
   53700    897.01769   -121.62395   0.81164046   -120.81231    8.4204069    4.2830481    4.2830481    4.2830481    8.4204069    6932.7646    2419.7168   -9327.2201   -16504.606   -20368.597   -1644.4076    78.570383 
   53800    1518.8364   -122.17697    1.3742751   -120.80269    16356.948    4.2793384    4.2793384    4.2793384    16356.948    11900.642    38976.847   -1806.6441    17543.621   -5846.9592    10076.349    78.366398 
   53900     935.3108   -121.65458   0.84628886   -120.80829   -18727.896    4.3011601    4.3011601    4.3011601   -18727.896   -4987.2113   -29651.813   -21544.665   -22010.372    4974.8915   -20053.258    79.571366 
   54000    465.63714   -121.23357   0.42131827   -120.81225    -8235.766    4.2899042    4.2899042    4.2899042    -8235.766    7201.8058   -29210.613    -2698.491   -43818.333   -3796.1847   -28462.866    78.948302 
   54100    1088.1537   -121.79296   0.98458432   -120.80837    5970.2233    4.2806245    4.2806245    4.2806245    5970.2233   -9950.0899    25264.627    2596.1325   -3986.4055   -17766.523    1280.7462    78.437076 
   54200    1559.1189   -122.21279    1.4107235   -120.80206   -2127.4034    4.2890672    4.2890672    4.2890672   -2127.4034   -11196.074    21416.498   -16602.635     15297.66   -17832.043     6398.363    78.902096 
   54300      1091.25   -121.79875   0.98738596   -120.81137    1637.9919    4.2870468    4.2870468    4.2870468    1637.9919    14141.807   -9409.9226    182.09136   -18835.888    8288.2876   -13404.497    78.790648 
   54400    607.53836   -121.36788   0.54971347   -120.81817   -5314.1684    4.2886969    4.2886969    4.2886969   -5314.1684    7604.6419   -24070.249      523.102   -42346.031   -912.24934   -25964.502    78.881665 
   54500    1018.0489   -121.73352   0.92115202   -120.81237   -1339.0793    4.2904283    4.2904283    4.2904283   -1339.0793    6744.8342    751.77503   -11513.847   -12785.624     -15889.4    -6643.524    78.977239 
   54600    1367.6304   -122.03808    1.2374607   -120.80062    16215.497    4.2882285    4.2882285    4.2882285    16215.497    42391.112    4580.9538    1674.4256    11454.704   -8931.5564    12222.923    78.855821 
   54700     836.4794   -121.56658   0.75686414   -120.80972   -1072.9581    4.2905231    4.2905231    4.2905231   -1072.9581    17943.183    -33691.15    12529.093   -29709.738   -2532.8295   -11024.763    78.982476 
   54800    549.55763   -121.31228   0.49725129   -120.81503   -4776.6721    4.2876454    4.2876454    4.2876454   -4776.6721    3334.6412   -44390.615    26725.958   -40660.698    3263.5651   -22829.666    78.823657 
   54900    1063.8987   -121.77294   0.96263791    -120.8103    12608.532     4.279484     4.279484     4.279484    12608.532    7420.5974   -2007.2073    32412.207   -231.70999   -19882.275   -11725.403    78.374401 
   55000    1332.4363   -122.01639    1.2056164   -120.81078    8809.2904    4.2858267    4.2858267    4.2858267    8809.2904   -12751.202    15994.148    23184.926    12490.289   -18309.728    9005.5528    78.723394 
   55100    936.13316   -121.65964   0.84703295   -120.81261   -15566.227    4.2974499    4.2974499    4.2974499   -15566.227   -38038.192   -28876.842    20216.351   -29264.671   -3181.2069   -6486.1806     79.36563 
   55200    705.31671   -121.44966   0.63818538   -120.81147   -6203.7582    4.2835788    4.2835788    4.2835788   -6203.7582   -11755.861   -28758.208    21902.794   -40645.105    4656.0211   -29681.699    78.599588 
   55300    1084.7656   -121.78823   0.98151868   -120.80671    1635.7216    4.2798172    4.2798172    4.2798172    1635.7216    1760.9885    11450.768   -8304.5915    7462.7003    959.25635   -18615.362    78.392708 
   55400    1111.4448   -121.80951    1.0056586   -120.80385   -19458.251    4.3009499    4.3009499    4.3009499   -19458.251   -44200.513    5512.6572   -19686.896    10011.053   -20347.065    4452.6404    79.559704 
   55500    964.83189   -121.67964   0.87300017   -120.80664   -3196.2834    4.2859246    4.2859246    4.2859246   -3196.2834   -24729.623   -3143.9521    18284.725   -21157.296   -10310.417    2403.1222     78.72879 
   55600    1016.0695   -121.72238   0.91936102   -120.80302    12192.472      4.27356      4.27356      4.27356    12192.472     14830.91    1667.4589    20079.049   -21490.208    10310.855   -25439.187    78.049374 
   55700    935.71113   -121.65593   0.84665109   -120.80928   -15153.808    4.2952243    4.2952243    4.2952243   -15153.808     -8563.83   -7598.3805   -29299.213    3554.2446     7943.021   -20759.149    79.242388 
   55800    1017.9967   -121.72995   0.92110477   -120.80884   -3885.5591    4.2881538    4.2881538    4.2881538   -3885.5591   -14604.587    10778.653   -7830.7434     20102.65    2288.4567    5724.0462    78.851702 
   55900    1154.2738   -121.85076    1.0444112   -120.80635    9370.3074    4.2800828    4.2800828    4.2800828    9370.3074    3586.3137   -3956.2249    28480.833    4729.0462   -14607.399    4477.6425    78.407304 
   56000    1177.8597    -121.8714    1.0657523   -120.80564    -10980.39     4.292489     4.292489     4.292489    -10980.39    16098.372   -27923.724   -21115.818   -11679.182     5726.761   -12182.958    79.091094 
   56100    869.59663   -121.59479    0.7868293   -120.80796   -4240.4291    4.2864267    4.2864267    4.2864267   -4240.4291    14748.023    6984.8653   -34454.176   -452.73874    32023.825   -16510.749    78.756464 
   56200    764.89871   -121.50255   0.69209643   -120.81045   -8705.1522     4.286255     4.286255     4.286255   -8705.1522   -24699.957    8404.1619   -9819.6614    20675.767    8579.8334   -740.60938    78.746999 
   56300    1120.7471   -121.81942    1.0140755   -120.80534   -12102.213    4.2913911    4.2913911    4.2913911   -12102.213   -15179.209   -23056.849    1929.4204    21230.158   -19759.027    8002.2324     79.03042 
   56400    1239.0953   -121.92434    1.1211594   -120.80318    3971.9796    4.2820934    4.2820934    4.2820934    3971.9796    20087.618   -4262.6754   -3909.0039   -5769.4155    2750.2679    216.35221    78.517854 
   56500     722.4279    -121.4667   0.65366795   -120.81303   -8243.6014    4.2864515    4.2864515    4.2864515   -8243.6014   -25969.694    7191.6297   -5952.7395   -1959.7037     41871.69   -10579.948    78.757831 
   56600    698.79036   -121.44716    0.6322802   -120.81488   -12402.391    4.2897607    4.2897607    4.2897607   -12402.391   -40359.383   -5005.8299    8158.0389    22349.944    32436.816   -11052.942    78.940376 
   56700    1338.1705   -122.01538    1.2108048   -120.80457     8168.832     4.286224     4.286224     4.286224     8168.832    4917.4721   -6359.2808    25948.305    18843.387   -14488.417    7583.7134    78.745292 
   56800    1231.2221   -121.91794    1.1140356    -120.8039   -4890.2446     4.292285     4.292285     4.292285   -4890.2446   -12645.741    -6888.952    4863.9591     -7823.87    7071.7262    4837.1976    79.079816 
   56900    593.11668   -121.35208   0.53666444   -120.81541   -8440.6117    4.2844082    4.2844082    4.2844082   -8440.6117   -2855.8723    223.59989   -22689.563   -6728.4666    40038.588   -7129.6486    78.645256 
   57000    689.50188    -121.4413   0.62387579   -120.81742    6104.2585    4.2796034    4.2796034    4.2796034    6104.2585    2262.3224    10032.185    6018.2678    18505.064    20801.721   -11769.156    78.380959 
   57100    1290.4428   -121.97963    1.1676197   -120.81201    3149.7012     4.292506     4.292506     4.292506    3149.7012   -13882.998   -1128.6147    24460.716    18371.978   -16687.264   -1525.2666    79.092031 
   57200    1377.8869   -122.05601     1.246741   -120.80927    8320.8005    4.2875971    4.2875971    4.2875971    8320.8005    21274.385     5724.088   -2036.0718   -807.66748   -11706.268    10760.389    78.820996 
   57300    1004.7763   -121.72142   0.90914272   -120.81228    11124.264    4.2796439    4.2796439    4.2796439    11124.264    18786.448    24230.938   -9644.5943   -2060.5222    32416.452   -7019.5231    78.383182 
   57400    870.58593   -121.60189   0.78772444   -120.81416    -4218.556    4.2865865    4.2865865    4.2865865    -4218.556   -9221.2137    9739.1884   -13173.643    12640.582    27249.382    -12093.82    78.765269 
   57500    957.27669   -121.67681   0.86616407   -120.81065   -8823.1149    4.2908958    4.2908958    4.2908958   -8823.1149   -15481.144   -1247.6969   -9740.5042    18927.349   -30750.898    1291.2098    79.003061 
   57600    1042.4763   -121.75116   0.94325444   -120.80791   -15049.008    4.2894274    4.2894274    4.2894274   -15049.008   -32722.581    11479.016   -23903.459    1525.8229   -40664.558   -442.49507    78.921978 
   57700    1180.4199   -121.87266    1.0680688   -120.80459   -1382.1454     4.279547     4.279547     4.279547   -1382.1454   -11858.024    20060.915   -12349.327   -5558.0289    21883.471   -4691.2393    78.377857 
   57800    1064.2372   -121.77186   0.96294419   -120.80892    -4551.129    4.2829328    4.2829328    4.2829328    -4551.129   -17820.614    1641.2683    2525.9581    7837.7837    26524.061   -9942.1462    78.564035 
   57900    427.67606   -121.20681   0.38697029   -120.81984   -24336.996    4.2946331    4.2946331    4.2946331   -24336.996   -66896.877    1722.1146   -7836.2246    16679.909   -46441.541   -3882.1822    79.209671 
   58000    519.33012   -121.29402   0.46990081   -120.82412   -1165.0231    4.2810048    4.2810048    4.2810048   -1165.0231   -49399.861    28320.374    17584.418    7747.5267   -55365.518    4725.9035    78.457983 
   58100    1482.8473   -122.15597    1.3417114   -120.81425    17328.058    4.2775399    4.2775399    4.2775399    17328.058    4817.7211    14471.277    32695.177    -10360.75    6588.3566   -6254.6612    78.267633 
   58200    1478.8317   -122.15146     1.338078   -120.81338   -1993.0482    4.2939366    4.2939366    4.2939366   -1993.0482   -18445.932    11902.858    563.92951   -4189.0546   -1033.6918   -2518.6942    79.171138 
   58300    611.99448   -121.37869   0.55374547   -120.82494   -1556.0752    4.2874668    4.2874668    4.2874668   -1556.0752   -25410.776    44269.577   -23527.027    9671.6584   -53300.621   -2129.7179    78.813806 
   58400    739.56021   -121.48716   0.66916962   -120.81799    145.00737    4.2822899    4.2822899    4.2822899    145.00737   -14967.605     16487.93   -1085.3029    11311.099   -32347.682   -3868.9159    78.528662 
   58500    1343.4142   -122.02297    1.2155494   -120.80742      3840.59    4.2877492    4.2877492    4.2877492      3840.59   -10924.221    3646.0312     18799.96    1665.8363    19567.304    6162.8464    78.829383 
   58600    1292.9312   -121.97639    1.1698714   -120.80652    3891.2512    4.2868465    4.2868465    4.2868465    3891.2512    2569.2917    26070.943   -16966.481   -10926.234   -3425.8429   -4507.8026    78.779605 
   58700    932.54237   -121.65424   0.84378393   -120.81046   -8459.7659    4.2885466    4.2885466    4.2885466   -8459.7659   -19473.878    22841.742   -28747.162    9568.3324   -40443.124   -5235.4118    78.873368 
   58800    841.42844   -121.57302   0.76134214   -120.81168   -991.50381    4.2825227    4.2825227    4.2825227   -991.50381   -16950.557    1967.9183    12008.128    32418.956   -18246.912   -1193.5615    78.541472 
   58900    1010.1607   -121.72443   0.91401462   -120.81042    4753.0359     4.282038     4.282038     4.282038    4753.0359   -4231.4074   -3245.0529    21735.568    19254.991     14184.19   -2701.2798    78.514805 
   59000    1105.0705   -121.80885   0.99989098   -120.80896   -2222.1174    4.2917872    4.2917872    4.2917872   -2222.1174   -6489.5121    20093.935   -20270.775   -16757.881    4682.6419    6512.6099    79.052307 
   59100    852.04357   -121.58336   0.77094693   -120.81241    1461.4783    4.2853969    4.2853969    4.2853969    1461.4783   -5435.3662    18895.208   -9075.4068   -4431.6874   -15104.251    1903.2449    78.699714 
   59200    559.40451   -121.32172   0.50616096   -120.81556   -555.50613    4.2820379    4.2820379    4.2820379   -555.50613   -17255.536    1164.0353    14424.982    52448.461   -18320.344   -1126.9843      78.5148 
   59300    1066.5151    -121.7782    0.9650053   -120.81319   -8806.5696     4.292877     4.292877     4.292877   -8806.5696   -14995.797   -16168.675    4744.7625     34022.93   -971.69003   -455.98792    79.112544 
   59400    1706.6307   -122.34455    1.5441954   -120.80035    2757.1021    4.2909249    4.2909249    4.2909249    2757.1021     18931.87   -3055.6134   -7604.9499   -18963.905    2484.7807   -649.69889    79.004665 
   59500    913.38427   -121.63904   0.82644928   -120.81259    1929.7963    4.2854464    4.2854464    4.2854464    1929.7963    7961.9693   -5665.3403    3492.7601    22117.527   -19348.238    6278.2026    78.702444 
   59600    351.37849   -121.13677   0.31793465   -120.81883   -15398.339    4.2905315    4.2905315    4.2905315   -15398.339   -27545.287   -26915.601    8265.8699    56706.654   -18389.007   -9.0669215    78.982941 
   59700    1126.0424   -121.82895    1.0188668   -120.81008   -5148.7821    4.2889919    4.2889919    4.2889919   -5148.7821   -3080.1468   -7990.1235   -4376.0759    4712.5043   -3296.2982    1275.7025    78.897942 
   59800    1560.1261   -122.21409    1.4116349   -120.80246     7944.495    4.2844001    4.2844001    4.2844001     7944.495    20101.581    4283.9338   -552.02975   -22693.388    8307.7648    3993.4721    78.644812 
   59900    945.57584    -121.6695   0.85557689   -120.81392   -5843.0616    4.2857703    4.2857703    4.2857703   -5843.0616   -20263.445   -5597.0025    8331.2629    34685.091    1977.4687    3180.6253    78.720288 
   60000    631.80602   -121.39174   0.57167137   -120.82007   -3332.0263    4.2841147    4.2841147    4.2841147   -3332.0263    -22642.25    6598.7847    6047.3867    55399.426   -19492.534    6585.4238    78.629093 
   60100    1135.2719   -121.84328    1.0272179   -120.81606    5497.4254    4.2841793    4.2841793    4.2841793    5497.4254   -2201.0444    22611.576    -3918.255   -599.63004   -17864.373    -2940.022     78.63265 
   60200    1422.2012   -122.09486    1.2868375   -120.80802    1693.9458    4.2899552    4.2899552    4.2899552    1693.9458   -15992.175    19740.963    1333.0489   -17752.823    6352.2222   -1426.4988    78.951114 
   60300    779.45288   -121.51882   0.70526534   -120.81356   -10875.464    4.2907052    4.2907052    4.2907052   -10875.464   -37800.013   -30096.998    35270.618    28513.632     6656.279     2490.167     78.99253 
   60400    415.66725   -121.18897   0.37610446   -120.81286   -7499.5184    4.2851807    4.2851807    4.2851807   -7499.5184   -47943.734   -11286.493    36731.672    37976.078   -23812.007    6228.8045    78.687806 
   60500    1032.7882   -121.74527   0.93448846   -120.81078    545.69008    4.2839161    4.2839161    4.2839161    545.69008   -29130.732    33026.255   -2258.4533   -6984.5925    -32665.54    1099.7813    78.618158 
   60600    1369.4557   -122.04535    1.2391123   -120.80624    6453.3219    4.2862429    4.2862429    4.2862429    6453.3219   -12454.138    23569.546    8244.5573   -3716.7749    456.53076   -10821.609    78.746335 
   60700    1070.2985   -121.77987   0.96842853   -120.81144    2012.3677    4.2855461    4.2855461    4.2855461    2012.3677   -33181.111    6922.1487    32296.065    39350.859    7059.9999   -1572.5763    78.707935 
   60800    635.78076   -121.39324   0.57526779   -120.81797   -7346.4302    4.2862095    4.2862095    4.2862095   -7346.4302   -40387.088    20831.567   -2483.7694    23823.065   -29223.885    5062.6051    78.744491 
   60900    757.06174   -121.50147   0.68500538   -120.81647   -11263.005    4.2854639    4.2854639    4.2854639   -11263.005   -38384.082    31606.805   -27011.738   -11329.371   -32239.507    4734.8669    78.703405 
   61000    1196.1881   -121.89226    1.0823361   -120.80993    1401.8126    4.2855156    4.2855156    4.2855156    1401.8126   -22770.247    8176.1383    18799.547   -7143.6525    10589.859   -1245.9208    78.706255 
   61100    1360.4336   -122.03759    1.2309489   -120.80664    1126.3308     4.290458     4.290458     4.290458    1126.3308   -19422.097    -5190.831     27991.92     15334.07    13268.092    -3352.404    78.978879 
   61200     1005.847   -121.72266   0.91011153   -120.81255    3329.4136     4.282577     4.282577     4.282577    3329.4136   -17894.072    9808.9044    18073.408    12795.441   -39940.703    6272.6616    78.544456 
   61300    704.82444   -121.45575   0.63773997   -120.81801    -4177.099    4.2802201    4.2802201    4.2802201    -4177.099   -23188.361    7155.5144    3501.5494   -8605.8142   -37610.711    6984.8581     78.41485 
   61400    1066.7389   -121.78048   0.96520773   -120.81527   -12917.354    4.2898325    4.2898325    4.2898325   -12917.354   -18588.408   -7746.5837   -12417.069   -10340.967    20798.475    3219.6534    78.944342 
   61500    1395.4583    -122.0674      1.26264   -120.80476   -2171.8064    4.2899445    4.2899445    4.2899445   -2171.8064   -11573.744    12214.093   -7155.7676    1607.5044    19897.447    -3650.696    78.950526 
   61600     973.8374    -121.6865   0.88114855   -120.80535   -11438.877    4.2915529    4.2915529    4.2915529   -11438.877   -22026.057     15394.89   -27685.464     6529.243   -45427.003    1580.9179    79.039362 
   61700    758.59259   -121.49294   0.68639052   -120.80655    -7494.306    4.2840978    4.2840978    4.2840978    -7494.306   -12359.652    11146.331   -21269.597     4235.395   -37212.599    8109.3899    78.628163 
   61800    987.43885   -121.69949   0.89345542   -120.80604    11337.633    4.2799651    4.2799651    4.2799651    11337.633    979.70034    20587.893    12445.305   -10896.134    27847.683    -3122.654    78.400834 
   61900    907.39633   -121.63067   0.82103127   -120.80964   -1949.4964    4.2927246    4.2927246    4.2927246   -1949.4964   -32692.362    28349.643   -1505.7707   -10930.875    12867.886   -7617.4131    79.104116 
   62000    890.15656   -121.61402   0.80543236   -120.80859   -2691.5362    4.2889338    4.2889338    4.2889338   -2691.5362    -30408.32    36463.033   -14129.322    565.92907   -44633.319   -2405.2071    78.894738 
   62100    1078.4259   -121.78038   0.97578245    -120.8046    9296.5615    4.2820171    4.2820171    4.2820171    9296.5615    -2843.224    37765.314   -7032.4057    4061.4978   -29197.458    400.12807    78.513654 
   62200    1025.0121   -121.73363   0.92745253   -120.80618   -5497.6858    4.2893582    4.2893582    4.2893582   -5497.6858   -19196.441    1464.8872    1238.4962    2961.2619     23653.45    5508.3974    78.918157 
   62300    653.19369   -121.40155   0.59102337   -120.81053   -14263.795    4.2907602    4.2907602    4.2907602   -14263.795   -25825.843   -1333.7467   -15631.794   -11020.628     1329.087    2781.9822     78.99557 
   62400    862.74466   -121.59235    0.7806295   -120.81172   -6989.1832    4.2851013    4.2851013    4.2851013   -6989.1832   -14007.594    27302.613   -34262.568   -10963.952    -39661.25   -1677.9695    78.683427 
   62500    1423.9766   -122.09474    1.2884439    -120.8063    7102.7592    4.2809485    4.2809485    4.2809485    7102.7592    8924.7649    26744.926   -14361.414    7535.5273   -19427.618   -2074.3374    78.454888 
   62600    1204.9316   -121.90034    1.0902474   -120.81009   -2040.3425    4.2890514    4.2890514    4.2890514   -2040.3425     -9811.27   -4833.1462    8523.3887    8319.4156    16846.586   -265.64829    78.901227 
   62700    692.64541   -121.43909   0.62672012   -120.81237   -23613.917    4.2989097    4.2989097    4.2989097   -23613.917   -48338.522     -3214.54   -19288.689   -13890.918   -3240.6019    2169.1805    79.446539 
   62800    1010.6518   -121.72157   0.91445896   -120.80712    139.08003    4.2802023    4.2802023    4.2802023    139.08003   -8346.1829    31411.787   -22648.364   -11935.386   -22093.314   -2056.4958    78.413869 
   62900     1357.314   -122.03065    1.2281263   -120.80253    16434.828     4.274985     4.274985     4.274985    16434.828    29170.796    24545.364   -4411.6756    10268.003   -4841.9173    1282.7194    78.127473 
   63000     791.7981   -121.53013   0.71643556    -120.8137   -8900.4904    4.2940315    4.2940315    4.2940315   -8900.4904   -25985.032    1139.0351   -1855.4744    5786.2756    11957.648    3590.9621    79.176387 
   63100    467.52413   -121.24275   0.42302566   -120.81973   -6501.3909     4.290023     4.290023     4.290023   -6501.3909   -41483.591    13811.434    8167.9845   -12779.141    3224.3047   -767.03834    78.954858 
   63200    1121.7131   -121.82992    1.0149496   -120.81497    13293.154    4.2781873    4.2781873    4.2781873    13293.154   -4600.5324    32578.645     11901.35   -16009.983   -8290.4586    3600.8484    78.303174 
   63300    1707.1324   -122.35193    1.5446492   -120.80728    17160.822    4.2817877    4.2817877    4.2817877    17160.822    4886.6515    41169.859    5425.9546    2580.6059    1730.7502   -120.86646    78.501035 
   63400    815.71874   -121.56114   0.73807946   -120.82306   -2252.5466    4.2939406    4.2939406    4.2939406   -2252.5466   -21107.179    9632.4376     4717.102    11350.441    16170.461   -2451.5055    79.171359 
   63500    367.82926    -121.1543   0.33281964   -120.82148   -16089.714    4.2925566    4.2925566    4.2925566   -16089.714   -66433.531   -3913.4961    22077.884   -13943.109     11052.85    3560.7653    79.094829 
   63600     1146.303   -121.84458     1.037199   -120.80738    9592.5614    4.2793308    4.2793308    4.2793308    9592.5614   -14357.714    16403.642    26731.756   -14785.638   -3294.2551   -3868.5848    78.365984 
   63700    1453.3077   -122.11702    1.3149833   -120.80203    9553.1121    4.2846139    4.2846139    4.2846139    9553.1121     4532.293    31233.074   -7106.0302    3723.7494    4361.6277   -2965.0378    78.656583 
   63800    804.19769   -121.53963   0.72765497   -120.81197   -12615.827    4.2935385    4.2935385    4.2935385   -12615.827   -46293.956    28884.237   -20437.762   -3590.5136    18638.889    -1594.197    79.149119 
   63900    668.86595   -121.41972   0.60520397   -120.81452   -5397.0851    4.2862216    4.2862216    4.2862216   -5397.0851   -36676.309    2508.7893    17976.264   -22549.287    6663.7822   -701.93984    78.745161 
   64000    1348.3172   -122.02661    1.2199857   -120.80663    8690.8423    4.2821756    4.2821756    4.2821756    8690.8423    12111.658   -3628.5688    17589.437   -8830.3811   -7376.4097    992.35764    78.522372 
   64100     1315.362   -121.99547    1.1901672   -120.80531    4813.3068    4.2881531    4.2881531    4.2881531    4813.3068    9686.9536    32156.009   -27403.043     8195.594    4542.9482   -6354.2873    78.851659 
   64200    431.72381   -121.20596   0.39063278   -120.81533    -15122.29    4.2941896    4.2941896    4.2941896    -15122.29   -12689.196    5357.5702   -38035.246   -13642.968     17185.57   -2761.3425    79.185135 
   64300    568.57005   -121.32926   0.51445413   -120.81481   -9768.6843    4.2885154    4.2885154    4.2885154   -9768.6843   -3303.5019   -20563.653   -5438.8976   -19259.549    5117.8851    268.81532    78.871649 
   64400    1456.0072   -122.12088    1.3174259   -120.80345    9033.3403    4.2804266    4.2804266    4.2804266    9033.3403    22304.122    4684.7686    111.13012   -3599.7289   -7174.1381    1061.4774    78.426198 
   64500    1287.6928   -121.97358    1.1651315   -120.80845   -1483.9614    4.2880946    4.2880946    4.2880946   -1483.9614    9821.9998    15389.034   -29662.918    9469.7633    5223.8354     4806.783    78.848432 
   64600    685.28856   -121.43782   0.62006349   -120.81775   -7742.5448    4.2913667    4.2913667    4.2913667   -7742.5448   -11211.358    19210.554    -31226.83   -5262.3864    13751.872   -1261.1533     79.02907 
   64700    836.37141   -121.57355   0.75676643   -120.81678    3852.3448    4.2839002    4.2839002    4.2839002    3852.3448   -609.55579    23000.272   -10833.681   -23441.258    4910.9798    1223.7523    78.617284 
   64800    1465.9603   -122.13182    1.3264316   -120.80539    14273.928     4.286476     4.286476     4.286476    14273.928     40667.18     7272.621   -5118.0168    864.20565   -1804.1371    91.135228    78.759181 
   64900    1183.2756   -121.87743    1.0706526   -120.80678   -7397.3558    4.2957909    4.2957909    4.2957909   -7397.3558    4870.4633    2379.8799   -29442.411    10728.623    11770.306   -4977.6099    79.273749 
   65000    537.50239   -121.29995   0.48634346   -120.81361   -8262.3963    4.2875713    4.2875713    4.2875713   -8262.3963    -32961.79    37012.597   -28837.996   -12012.362    14208.578   -2030.7924    78.819568 
   65100    975.20098   -121.69155   0.88238234   -120.80917    8728.2816     4.279146     4.279146     4.279146    8728.2816   -2653.7021    33565.698    -4727.151   -19817.733   -1642.9199   -1033.0926    78.355827 
   65200    1507.3992   -122.16589    1.3639265   -120.80197    5088.2247    4.2896352    4.2896352    4.2896352    5088.2247    19956.967   -5428.7596    736.46622    7074.7352   -7214.3677    2111.4485    78.933451 
   65300    1004.0569   -121.71863   0.90849178   -120.81014    8136.4812    4.2869833    4.2869833    4.2869833    8136.4812   -2849.9564    24021.972     3237.428    33302.831    6657.2423    136.24091    78.787147 
   65400    696.74155   -121.44359   0.63042639   -120.81317    3778.8105    4.2839382    4.2839382    4.2839382    3778.8105     11255.19    17352.787   -17271.545   -2975.8359     9571.553   -3538.7801    78.619374 
   65500    959.35173   -121.67663   0.86804161   -120.80858   -7573.8576    4.2895665    4.2895665    4.2895665   -7573.8576    16440.597   -6947.4169   -32214.753   -27805.756   -1807.1584    364.10605    78.929659 
   65600    999.87426   -121.71283   0.90470725   -120.80812    5733.4465    4.2800059    4.2800059    4.2800059    5733.4465    8732.6132    2258.8301    6208.8963    28489.617   -3451.6519      4590.66    78.403077 
   65700    980.17021   -121.69994   0.88687861   -120.81306   -3004.0284    4.2851928    4.2851928    4.2851928   -3004.0284    -11668.97   -13995.332    16652.216     53329.55    451.96193    2596.1028    78.688468 
   65800    1267.8491   -121.95435    1.1471765   -120.80717   -11551.085    4.2919677    4.2919677    4.2919677   -11551.085   -16145.009   -9160.1612   -9348.0839   -7583.3001    7549.2084   -2673.7011    79.062278 
   65900     1092.155    -121.7961   0.98820479    -120.8079    5814.3484    4.2772908    4.2772908    4.2772908    5814.3484    2835.4892    19511.514   -4903.9576   -26687.458    7201.9269   -5115.7225    78.253961 
   66000    499.09648   -121.27025   0.45159299   -120.81866   -11879.043    4.2888119    4.2888119    4.2888119   -11879.043   -11653.109   -25701.509    1717.4885    29862.241   -3012.5239    4489.5814    78.888012 
   66100    856.37627   -121.58887   0.77486724   -120.81401   -17949.027    4.2932357    4.2932357    4.2932357   -17949.027   -19177.611   -33520.946   -1148.5243    50525.173   -7079.9121    7247.6165    79.132376 
   66200    1456.1889   -122.12022    1.3175903   -120.80263     23840.62     4.273529     4.273529     4.273529     23840.62    22312.953    40997.173    8211.7342     -11499.6   -4703.1926    506.61871    78.047675 
   66300    1194.8326   -121.89052    1.0811096   -120.80941   -1351.7628    4.2885239    4.2885239    4.2885239   -1351.7628    12710.963   -8845.4547   -7920.7961   -15125.314    1635.4852    349.53804    78.872121 
   66400    566.12985   -121.32687   0.51224619   -120.81463   -16686.573    4.2941829    4.2941829    4.2941829   -16686.573   -16091.508   -30916.351   -3051.8615    36823.234    1479.4661    4821.9151    79.184762 
   66500     700.6337   -121.44385   0.63394809    -120.8099    13467.429    4.2788147    4.2788147    4.2788147    13467.429    8915.4549    35363.902   -3877.0698     33468.14   -6869.8592    2158.1381    78.337632 
   66600    1369.6679   -122.04231    1.2393043   -120.80301    895.36367    4.2869471    4.2869471    4.2869471    895.36367    8185.6227    27171.839   -32671.371   -10567.093   -6652.4656   -2094.2978    78.785153 
   66700    1201.4882    -121.8942    1.0871318   -120.80707    3960.5086    4.2849906    4.2849906    4.2849906    3960.5086    14635.658     7409.843   -10163.975   -2616.1194    3423.1127    187.30207    78.677331 
   66800    886.68784   -121.61623   0.80229379   -120.81394    1742.4274    4.2819451    4.2819451    4.2819451    1742.4274    25211.034   -30417.236    10433.484     40931.46    668.84197     4494.209    78.509693 
   66900    1053.6838   -121.76677   0.95339526   -120.81337   -10269.225     4.289705     4.289705     4.289705   -10269.225    9026.8762   -26992.346   -12842.204    22812.693   -7527.7238    2393.2545    78.937304 
   67000    1478.0009   -122.14395    1.3373263   -120.80662    9161.9313    4.2808103    4.2808103    4.2808103    9161.9313    24444.465    23622.483   -20581.154   -11562.854   -2678.1587   -2532.9212    78.447289 
   67100    962.06004   -121.68509   0.87049214    -120.8146    1641.0565    4.2834757    4.2834757    4.2834757    1641.0565    11146.805     4368.854    -10592.49    16727.704    6729.7584   -4049.4329    78.593914 
   67200    478.48559   -121.25107   0.43294382   -120.81813   -22119.092    4.2946017    4.2946017    4.2946017   -22119.092    -22831.96   -41958.079   -1567.2362    43204.877    6764.8896     2781.251    79.207934 
   67300    1072.1671   -121.78049   0.97011929   -120.81037    5083.7599    4.2835723    4.2835723    4.2835723    5083.7599     9473.689    1103.1207    4674.4699    7992.5836   -2108.1537    4499.9394    78.599232 
   67400    1592.5052   -122.24312    1.4409322   -120.80218    15236.556    4.2824344    4.2824344    4.2824344    15236.556    28045.169    22912.639   -5248.1408   -19240.815   -688.87052   -1923.6197    78.536612 
   67500    880.11766   -121.61205   0.79634895    -120.8157   -2501.2701    4.2883948    4.2883948    4.2883948   -2501.2701   -9011.4581    634.46567    873.18205    36835.391    7965.8694    -4995.526    78.864995 
   67600    314.22001   -121.10758   0.28431287   -120.82327   -3426.4066     4.283822     4.283822     4.283822   -3426.4066    489.41407   -21352.331    10583.697    47934.416    7756.8382    3018.7583    78.612978 
   67700    878.12193   -121.61271   0.79454318   -120.81816   -2786.1277    4.2844377    4.2844377    4.2844377   -2786.1277    5752.4684   -4424.0548   -9686.7966   -9883.5561    5470.1346    8156.0187    78.646879 
   67800     1406.872   -122.07985    1.2729673   -120.80688   -1021.8932    4.2867361    4.2867361    4.2867361   -1021.8932   -1560.5338    9061.7067   -10566.852   -14269.496   -7482.7153    4491.1621    78.773517 
   67900    981.47065   -121.69742   0.88805527   -120.80937   -13611.439     4.293172     4.293172     4.293172   -13611.439   -18669.303    -29175.13    7010.1173    38055.812   -7563.0984   -236.16807    79.128851 
   68000    828.81024   -121.55867   0.74992492   -120.80875   -12121.037    4.2856504    4.2856504    4.2856504   -12121.037   -7402.5302   -34219.388    5258.8063    34385.714     9494.663    1090.4333     78.71368 
   68100    1061.8028   -121.76297    0.9607415   -120.80222    10869.248    4.2747026    4.2747026    4.2747026    10869.248    34016.888     7675.569   -9084.7138   -15864.869    5077.4348    7066.7917    78.111995 
   68200    847.24923   -121.57626   0.76660891   -120.80965   -5705.8627    4.2931011    4.2931011    4.2931011   -5705.8627    9511.7584    4090.1566   -30719.503   -2272.0202   -17782.345    1901.7047    79.124932 
   68300     869.4557   -121.59679   0.78670179   -120.81009   -7035.4444    4.2916987    4.2916987    4.2916987   -7035.4444   -16608.498    5460.3409   -9958.1759     38851.23   -18801.788   -1796.4475    79.047414 
   68400    1317.2506   -121.99203    1.1918761   -120.80016    23299.037    4.2743276    4.2743276    4.2743276    23299.037    39288.716     14723.26    15885.134    17002.654    2687.5529    6007.0172    78.091438 
   68500    1187.3875   -121.88177    1.0743732    -120.8074   -3257.5934    4.2885093    4.2885093    4.2885093   -3257.5934    6967.9266    5397.0572   -22137.764   -24208.173    3813.3982    7661.4783    78.871314 
   68600    668.13653   -121.42027   0.60454398   -120.81572   -6194.4758    4.2891748    4.2891748    4.2891748   -6194.4758    -24989.95    42018.164   -35611.642   -7634.0837   -15944.796    6569.2486    78.908036 
   68700    955.47269   -121.67757   0.86453177   -120.81304    8587.2215    4.2816084    4.2816084    4.2816084    8587.2215    2046.7826    35225.221   -11510.338    23212.943   -21054.298   -1178.2772    78.491174 
   68800    1482.9567   -122.14774    1.3418104   -120.80593    2126.3622    4.2886761    4.2886761    4.2886761    2126.3622    12360.571   -3286.0776   -2695.4066    12158.653    4464.7835   -5842.8983    78.880519 
   68900    1113.2367   -121.81778    1.0072799    -120.8105    9160.7945    4.2817475    4.2817475    4.2817475    9160.7945     9225.397    14302.002    3954.9841   -29401.204    5131.0784    1687.1491    78.498828 
   69000    647.68939   -121.40314   0.58604297   -120.81709   -6722.8746    4.2853696    4.2853696    4.2853696   -6722.8746   -11453.239    12590.571   -21305.955    -16899.36   -20991.438     7233.967     78.69821 
   69100    852.09085   -121.58485   0.77098971   -120.81386   -13313.271    4.2895214    4.2895214    4.2895214   -13313.271   -5207.9399    2890.7033   -37622.578    13272.756   -17329.608    4208.1211    78.927168 
   69200    1226.5727   -121.91566    1.1098287   -120.80583    9039.6198    4.2783344    4.2783344    4.2783344    9039.6198    32159.444   -3447.2896   -1593.2955     152.7338      5568.48   -12873.668    78.311255 
   69300     890.9002   -121.61788   0.80610523   -120.81178   -9114.9353    4.2875414    4.2875414    4.2875414   -9114.9353   -2097.2326   -23973.951   -1273.6224   -24135.105   -1958.9037   -13045.718    78.817922 
   69400    680.78069   -121.42769   0.61598467   -120.81171    -17120.47    4.2910027    4.2910027    4.2910027    -17120.47    -32771.46    669.88422   -19259.834   -18350.316   -23551.435    3580.3549    79.008961 
   69500    1147.3801   -121.84012    1.0381736   -120.80194    5520.9167    4.2812991    4.2812991    4.2812991    5520.9167   -2449.0756    42286.767   -23274.941    9149.8675   -14128.931   -2429.2196    78.474167 
   69600    1249.8068   -121.93217    1.1308514   -120.80132    -3432.898    4.2909078    4.2909078    4.2909078    -3432.898    9953.0478    2464.9867   -22716.729   -3214.4112    9917.3677   -19541.644    79.003723 
   69700    877.73523     -121.603   0.79419328   -120.80881   -6669.4656    4.2869886    4.2869886    4.2869886   -6669.4656   -5987.0139   -5937.6107   -8083.7721   -36791.772   -4427.1897    -13391.56    78.787441 
   69800    675.73216   -121.42619   0.61141666   -120.81477    8266.8549    4.2766489    4.2766489    4.2766489    8266.8549   -5033.8586     37950.95   -8116.5266   -19624.034   -29257.207    16.891194    78.218737 
   69900    1126.8986   -121.83468    1.0196415   -120.81504   -5645.3109    4.2889322    4.2889322    4.2889322   -5645.3109   -9773.7435    26975.002   -34137.191    14404.437   -15851.201    7529.8789     78.89465 
   70000    1384.0348   -122.05964    1.2523038   -120.80733    5591.9753    4.2863377    4.2863377    4.2863377    5591.9753    13756.597    10451.067   -7431.7383    -3262.667    7407.9247   -658.22116    78.751555 
   70100    887.10335   -121.61572   0.80266975   -120.81305    3971.4398    4.2843976    4.2843976    4.2843976    3971.4398    6530.3712   -8799.5448    14183.493   -40950.067   -4587.3806   -10521.584    78.644671 
   70200    624.64901   -121.37816   0.56519555   -120.81297   -14378.504    4.2920696    4.2920696    4.2920696   -14378.504   -30633.542   -5386.3749   -7115.5951   -22940.929   -31313.141   -1584.6036    79.067913 
   70300     1131.464   -121.82694    1.0237724   -120.80317    8015.3329     4.281815     4.281815     4.281815    8015.3329    7394.8079    22909.923   -6258.7321    18486.672    -22394.49    5634.4034    78.502537 
   70400    1204.1459   -121.89267    1.0895365   -120.80314    1655.7312    4.2855933    4.2855933    4.2855933    1655.7312    7024.1687    -14720.78    12663.805   -7834.3717    8755.2546    7544.1895    78.710536 
   70500    902.42828   -121.62634   0.81653607   -120.80981   -8639.9613    4.2893703    4.2893703    4.2893703   -8639.9613   -18644.435   -29874.028     22598.58   -50504.976    3011.1555   -840.98911    78.918828 
   70600    1042.6444   -121.75028   0.94340652   -120.80687    7235.5148    4.2803933    4.2803933    4.2803933    7235.5148    2867.2128    13671.081    5168.2504   -16887.939   -26229.858   -10813.852    78.424365 
   70700    1229.1751    -121.9168    1.1121835   -120.80462   -9517.5082    4.2909586    4.2909586    4.2909586   -9517.5082    4462.1685   -1222.2488   -31792.444     19689.31   -21621.227   -1607.4264    79.006525 
   70800     830.4938   -121.55965   0.75144824    -120.8082   -12927.498    4.2887104    4.2887104    4.2887104   -12927.498   -3879.8277   -27728.961   -7173.7041   -17540.389    5386.9026    10186.382    78.882406 
   70900    638.14283   -121.38927   0.57740504   -120.81186     1880.641    4.2773881    4.2773881    4.2773881     1880.641   -3022.4502   -15370.872    24035.245   -43661.027    12188.978    7917.2998    78.259303 
   71000    1066.3469   -121.77716   0.96485313    -120.8123   -5015.1285    4.2877912    4.2877912    4.2877912   -5015.1285    -378.5682    319.05751   -14985.875   -10508.824   -335.26819   -6973.6414      78.8317 
   71100    1322.1129    -122.0054    1.1962755   -120.80912    8659.9842    4.2839902    4.2839902    4.2839902    8659.9842      27706.3    14538.334   -16264.681    10133.158   -14579.946   -15856.405    78.622239 
   71200    780.03939   -121.52363   0.70579603   -120.81784    10489.107    4.2834707    4.2834707    4.2834707    10489.107    9433.4576    3044.9962    18988.867   -23087.611   -3355.2333   -2554.9322    78.593638 
   71300    654.64058   -121.40886   0.59233256   -120.81652   -11140.545    4.2944761    4.2944761    4.2944761   -11140.545   -35387.944   -19417.925    21384.233   -40201.473    13502.532    12441.766    79.200982 
   71400    1245.5389   -121.93067    1.1269898   -120.80368    10208.412    4.2830314    4.2830314    4.2830314    10208.412    3048.6801    14139.077    13437.479    391.46945    16330.122   -45.423968     78.56946 
   71500    1394.7615   -122.06299    1.2620096   -120.80098    2190.0512    4.2836816    4.2836816    4.2836816    2190.0512    28984.153   -14230.765   -8183.2348    5829.8846    3516.1967   -18713.834    78.605247 
   71600    892.51994   -121.61713    0.8075708   -120.80956    -12348.89     4.287775     4.287775     4.287775    -12348.89    3900.7127    -46796.63    5849.2476   -36594.077   -4362.4881   -13673.629    78.830804 
   71700    816.47541   -121.55011   0.73876411   -120.81134    1863.1972    4.2798397    4.2798397    4.2798397    1863.1972    -6688.402   -5489.3793    17767.373   -36700.648    17151.433    10242.448    78.393943 
   71800    1060.5239    -121.7694   0.95958428   -120.80982   -4418.0588    4.2889049    4.2889049    4.2889049   -4418.0588   -1771.9604    14348.177   -25830.393     4728.498    21485.522   -1446.2576    78.893144 
   71900    1066.5622   -121.77364    0.9650479    -120.8086     952.6132    4.2838555    4.2838555    4.2838555     952.6132    19993.326    11498.187   -28633.673    7261.9202    506.49381   -27740.773     78.61482 
   72000    685.29042   -121.43163   0.62006517   -120.81156    6435.7919    4.2797057    4.2797057    4.2797057    6435.7919    6095.0275    9454.5293    3757.8189   -30726.767   -7906.9108   -16803.231     78.38658 
   72100     676.6564    -121.4219   0.61225293   -120.80965   -21587.787    4.2960293    4.2960293    4.2960293   -21587.787   -26222.295   -26621.791   -11919.274   -35357.456    13503.094    13872.461    79.286946 
   72200    1124.9646   -121.82046    1.0178916   -120.80257   -1729.2759     4.283545     4.283545     4.283545   -1729.2759    4434.7089    9929.3397   -19551.876    9222.3906    19538.841    10847.779     78.59773 
   72300    1254.9764    -121.9359    1.1355291   -120.80037     3026.037    4.2770551    4.2770551    4.2770551     3026.037    5619.0218    6948.6998   -3489.6105    4098.2647   -1123.5296   -18869.121    78.241024 
   72400     942.1248   -121.66328   0.85245432   -120.81082   -16220.203    4.2879611    4.2879611    4.2879611   -16220.203   -15232.153   -43278.166    9849.7106   -41928.768   -9053.0403   -15198.062    78.841072 
   72500     899.6143   -121.62899   0.81398992     -120.815    4306.4348    4.2812811    4.2812811    4.2812811    4306.4348    9005.1952   -9886.0023    13800.112   -38309.995    8977.3149     15727.26    78.473174 
   72600    1301.8701   -121.98798    1.1779594   -120.81002    8797.9861    4.2862444    4.2862444    4.2862444    8797.9861    15091.717    17478.877   -6176.6361    9989.2887     12556.01    17066.847    78.746413 
   72700    1200.8496   -121.89566     1.086554    -120.8091    5500.5937    4.2848996    4.2848996    4.2848996    5500.5937    18963.419   -13001.418    10539.781    7535.2319    743.65971   -5457.6707    78.672316 
   72800    501.33097     -121.269    0.4536148   -120.81539    13651.919     4.278386     4.278386     4.278386    13651.919     8955.454   -12859.973    44860.277   -43237.907    -4068.737   -12601.507    78.314088 
   72900    821.03101   -121.55744   0.74288611   -120.81455   -12959.689    4.2932705    4.2932705    4.2932705   -12959.689   -2553.2837   -38443.388    2117.6058   -31757.838   -6210.8208    117.35287    79.134296 
   73000    1609.1593   -122.25798    1.4560012   -120.80198    7096.1076     4.283299     4.283299     4.283299    7096.1076    39882.147   -2650.0416   -15943.783    14732.445    3757.9406    10807.462    78.584189 
   73100    1202.9593   -121.90133    1.0884629   -120.81287    10141.182    4.2735814    4.2735814    4.2735814    10141.182    23621.574   -6624.8827    13426.853   -16020.771    5670.0469   -330.75423    78.050545 
   73200    315.68062   -121.11464   0.28563446   -120.82901   -17087.727       4.2872       4.2872       4.2872   -17087.727   -5083.8633   -66605.826    20426.508   -49779.217   -4952.2014   -15433.449    78.799093 
   73300    666.30093   -121.42907   0.60288308   -120.82619   -5732.8907    4.2855378    4.2855378    4.2855378   -5732.8907    15309.758   -41860.247    9351.8174   -7447.6686   -4251.4012   -11663.567    78.707474 
   73400    1433.1171   -122.10948    1.2967145   -120.81276    7576.6896    4.2806936    4.2806936    4.2806936    7576.6896    16937.589    5405.7762    386.70344    25186.248   -236.45406   -13.689977    78.440876 
   73500    1195.3738   -121.89437    1.0815993   -120.81277    2744.0771    4.2813995    4.2813995    4.2813995    2744.0771    11866.642   -11773.126    8138.7161   -22314.239    4679.5103    4481.6352    78.479684 
   73600    775.70372   -121.51886   0.70187303   -120.81699    -7512.136    4.2846233    4.2846233    4.2846233    -7512.136    -5177.548   -35920.119    18561.259   -42024.483    2197.1975   -9264.6295    78.657102 
   73700    780.62391   -121.52046   0.70632492   -120.81413   -8888.4529    4.2879379    4.2879379    4.2879379   -8888.4529   -11721.309   -21810.237    6866.1878    9057.3482   -6542.5866   -20262.864    78.839792 
   73800    1101.8659   -121.80435   0.99699144   -120.80735    4816.6137    4.2824314    4.2824314    4.2824314    4816.6137    11121.959   -558.45055    3886.3328    25955.156    123.38858    1510.2177    78.536446 
   73900    1049.8324   -121.75825   0.94991046   -120.80834    10557.982    4.2811427    4.2811427    4.2811427    10557.982    20466.265    14787.128   -3579.4475   -11301.829     14992.11    17838.284    78.465564 
   74000    880.47897   -121.60894   0.79667587   -120.81227    408.17591    4.2873524    4.2873524    4.2873524    408.17591    17049.731   -5902.4086   -9922.7949   -25746.415     5240.545   -5824.8745    78.807502 
   74100    1024.6727   -121.73917   0.92714542   -120.81203    3313.3764    4.2838832    4.2838832    4.2838832    3313.3764    30264.291   -24041.243    3717.0806    912.57423    -5794.436   -33140.191    78.616348 
   74200    1274.8678   -121.96302    1.1535271    -120.8095    7804.6923    4.2799473    4.2799473    4.2799473    7804.6923     19411.97     346.8163    3655.2902    16680.505   -877.03386   -6568.0769    78.399857 
   74300     1136.446   -121.84071    1.0282802   -120.81243   -7135.6105    4.2849434    4.2849434    4.2849434   -7135.6105    826.19993    1774.4958   -24007.527    1788.1657     13864.05    39005.461    78.674729 
   74400    726.59188   -121.47379    0.6574356   -120.81635   -10848.797    4.2852546    4.2852546    4.2852546   -10848.797    7413.2698   -15271.396   -24688.264   -10603.866    16992.994     6350.018    78.691874 
   74500    929.23373   -121.65474   0.84079021   -120.81395   -9875.3272    4.2847821    4.2847821    4.2847821   -9875.3272    4831.7696   -16660.047   -17797.704   -7236.8068   -894.05463   -50627.597    78.665848 
   74600    1257.9105   -121.94494    1.1381839   -120.80676   -1567.5975    4.2843297    4.2843297    4.2843297   -1567.5975    1653.6811    2701.1938   -9057.6673    4373.6657   -986.62089   -13546.101    78.640934 
   74700    1054.1723   -121.76281   0.95383722   -120.80898    5460.2587    4.2810057    4.2810057    4.2810057    5460.2587    3619.0047    11607.691    1154.0807    2627.6459    11724.736    42826.988    78.458032 
   74800    644.74426   -121.39916   0.58337816   -120.81578   -5028.9331    4.2863083    4.2863083    4.2863083   -5028.9331   -168.78892    2642.8253   -17560.836   -5666.5582    17432.775    12176.237    78.749935 
   74900    932.54046    -121.6546   0.84378221   -120.81082    406.23001    4.2865045    4.2865045    4.2865045    406.23001    6602.4921      -4019.7    -1364.102   -12622.848    8117.5276   -34033.975     78.76075 
   75000    1311.8857    -121.9914    1.1870217   -120.80438    7189.8333    4.2813329    4.2813329    4.2813329    7189.8333    9525.6175   -5059.1096    17102.992   -5398.3895   -11158.637   -12417.917    78.476025 
   75100    892.97841   -121.62001   0.80798563   -120.81202   -8314.9229    4.2841881    4.2841881    4.2841881   -8314.9229   -9272.6411    5871.5418   -21543.669    7512.0587   -2318.8556    28239.123    78.633135 
   75200    734.01821   -121.48063    0.6641551   -120.81648    -10834.16    4.2822307    4.2822307    4.2822307    -10834.16    -9366.561    4606.9529   -27742.873   -3884.9806    20038.533    24009.243    78.525403 
   75300    1119.3339   -121.82779    1.0127968   -120.81499    1421.1153    4.2827947    4.2827947    4.2827947    1421.1153   -11189.658   -4829.2177    20282.222   -9200.8012    16614.073   -12219.996    78.556434 
   75400    1459.8803    -122.1293    1.3209304   -120.80837    2889.7615    4.2857529    4.2857529    4.2857529    2889.7615   -19230.457   -2864.4167    30764.158    5426.4576   -11732.933   -6214.0805     78.71933 
   75500    778.99423   -121.52024   0.70485035   -120.81539    721.92061    4.2860406    4.2860406    4.2860406    721.92061   -27378.795    11684.744    17859.813    10264.633   -7462.4651    20959.495    78.735184 
   75600    539.91119   -121.30675   0.48852299   -120.81823   -14658.159    4.2893152    4.2893152    4.2893152   -14658.159   -39257.864    17164.386   -21880.998    441.91188    28018.945    21227.609    78.915783 
   75700     1325.581   -122.01285    1.1994135   -120.81344    4172.9894    4.2770354    4.2770354    4.2770354    4172.9894   -18915.015    29072.326    2361.6567   -4658.4291    22915.873    2218.9906    78.239943 
   75800    1655.6777   -122.30808     1.498092   -120.80999    12907.589     4.278223     4.278223     4.278223    12907.589    -2016.873     9613.343    31126.297    5027.7573   -7946.3314   -16467.852    78.305137 
   75900    857.33094   -121.59645   0.77573105   -120.82072   -18585.627    4.2936435    4.2936435    4.2936435   -18585.627   -22703.485   -19726.573   -13326.825    10710.478    1134.0293    5328.8391    79.154929 
   76000     480.6547   -121.25615   0.43490647   -120.82124   -2112.9504    4.2815365    4.2815365    4.2815365   -2112.9504   -22627.775    14538.935    1749.9889    3504.3245    30427.046    24929.752     78.48722 
   76100    964.54838   -121.68627   0.87274364   -120.81353    4883.2489    4.2803782    4.2803782    4.2803782    4883.2489   -15517.712    17095.246    13072.213   -5773.7672    17732.173    44.350535    78.423537 
   76200    1177.5964   -121.87349     1.065514   -120.80798   -4977.5933    4.2857461    4.2857461    4.2857461   -4977.5933    6687.3824   -23922.599    2302.4365   -10814.615   -10090.987   -30054.657    78.718955 
   76300    952.48757   -121.67331   0.86183077   -120.81148    5539.3649    4.2779688    4.2779688    4.2779688    5539.3649    26036.753   -9246.0707   -172.58759    4365.1383    4069.6963   -20391.486     78.29118 
   76400    853.87581   -121.58753   0.77260478   -120.81492   -9255.1613    4.2874987    4.2874987    4.2874987   -9255.1613   -14959.317    12620.544    -25426.71    8936.2077    31357.881    16546.152    78.815566 
   76500    916.02087   -121.63981   0.82883493   -120.81097    -8334.954    4.2880015    4.2880015    4.2880015    -8334.954     -21015.8    9859.5661   -13848.628   -9365.8035    23962.736    13730.665    78.843301 
   76600    1077.0606   -121.78091   0.97454702   -120.80637    7090.6067    4.2789288    4.2789288    4.2789288    7090.6067    20194.278   -3531.1776    4608.7195   -15611.251   -6607.5726   -34570.767      78.3439 
   76700    1124.8723   -121.82426    1.0178081   -120.80646   -7046.4579    4.2883157    4.2883157    4.2883157   -7046.4579    10448.336   -9133.9532   -22453.756   -5206.6207   -1645.0911   -24651.688    78.860634 
   76800    935.98004   -121.65711   0.84689441   -120.81021   -6430.4839    4.2839439    4.2839439    4.2839439   -6430.4839   -12871.539    20635.513   -27055.425    9633.5187     30013.92    19363.234    78.619688 
   76900    827.68814   -121.56368   0.74890962   -120.81477     1061.473    4.2774097    4.2774097    4.2774097     1061.473    3045.7352    19339.663   -19200.979   -1054.2464    28401.509    17552.957    78.260486 
   77000    1231.0588   -121.92759    1.1138878    -120.8137   -1705.4212     4.286554     4.286554     4.286554   -1705.4212    19584.548   -15914.206   -8786.6051    -15798.32   -1122.3476   -8540.9131     78.76348 
   77100    1498.9465     -122.165    1.3562783   -120.80872    9731.7788    4.2830191    4.2830191    4.2830191    9731.7788    23122.084    3763.2076    2310.0446    588.09105   -4468.9884   -15821.113    78.568786 
   77200    595.30427    -121.3606   0.53864381   -120.82196   -5973.3476    4.2843246    4.2843246    4.2843246   -5973.3476    3365.4978    12792.865   -34078.405    10492.856    25564.559    13549.276    78.640652 
   77300    362.35972   -121.15272   0.32787069   -120.82485   -22344.466    4.2885796    4.2885796    4.2885796   -22344.466   -6238.9128   -9454.3394   -51340.147    7883.9331    25022.513    27348.339    78.875193 
   77400    1344.1145   -122.03152     1.216183   -120.81534    9221.4159    4.2796606    4.2796606    4.2796606    9221.4159    30686.595    83.459753   -3105.8074   -713.11713   -4892.1443     7964.404    78.384101 
   77500    1683.6388   -122.33254    1.5233917   -120.80915    6030.9844    4.2838416    4.2838416    4.2838416    6030.9844    19652.238    1471.5163    -3030.801   -2456.7257   -4115.3978   -10813.002    78.614057 
   77600    821.11535   -121.56602   0.74296242   -120.82306    -5553.417    4.2854542    4.2854542    4.2854542    -5553.417    -1561.736    4854.2395   -19952.754    9463.3179    20392.396    1791.0306    78.702868 
   77700    551.32397   -121.32104   0.49884951   -120.82219   -5.6345144    4.2810744    4.2810744    4.2810744   -5.6345144    9464.1533    19601.122   -29082.179    8509.7301    18428.264    29986.504     78.46181 
   77800    1042.3917   -121.75613   0.94317792   -120.81295   -3889.9745    4.2873443    4.2873443    4.2873443   -3889.9745    17182.397     7221.519    -36073.84    1906.2405   -3992.5942    2508.1357    78.807052 
   77900    1106.1095   -121.80975    1.0008311   -120.80892    4295.8909    4.2819018    4.2819018    4.2819018    4295.8909    23295.026   -2684.1845   -7723.1686    -11336.55   -3676.5105   -35360.049    78.507315 
   78000    872.50247   -121.60093   0.78945857   -120.81147    2784.0273    4.2805311    4.2805311    4.2805311    2784.0273    2541.2835    9364.3995   -3553.6011   -1065.3749    13210.319   -14198.507    78.431941 
   78100    961.80775   -121.68009   0.87026387   -120.80982   -12342.185    4.2902539    4.2902539    4.2902539   -12342.185   -25102.779    10166.353   -22090.128    19689.273    26746.643    20485.666     78.96761 
   78200     1020.234   -121.73269   0.92312919   -120.80956    48.700664    4.2821102    4.2821102    4.2821102    48.700664    9409.3301    6018.3651   -15281.593    3681.3255    8868.1342    703.46265    78.518777 
   78300    996.86874   -121.71367   0.90198779   -120.81168    3418.7521    4.2792383    4.2792383    4.2792383    3418.7521     31090.02   -10274.337   -10559.427   -9296.0844   -8528.7832   -44894.815    78.360901 
   78400    1138.5614    -121.8416    1.0301943    -120.8114    -2977.286    4.2858284    4.2858284    4.2858284    -2977.286    -2641.973   -4515.8635   -1774.0214    288.60572    6190.5891   -21764.354    78.723488 
   78500    1125.3983   -121.82888     1.018284    -120.8106    5203.7868    4.2840254    4.2840254    4.2840254    5203.7868   -30224.061    23238.101     22597.32    14596.493    20285.241     15022.22    78.624178 
   78600    855.69026   -121.58657   0.77424653   -120.81232   -5225.6171    4.2869771    4.2869771    4.2869771   -5225.6171   -4203.8026   -2023.6246   -9449.4241    14809.004    18027.737   -18174.223    78.786805 
   78700     977.3106   -121.69449   0.88429117    -120.8102   -926.86063    4.2854489    4.2854489    4.2854489   -926.86063    32619.794   -5402.5623   -29997.813   -6224.1335   -2027.5473   -39087.945    78.702576 
   78800    1250.4708   -121.93483    1.1314522   -120.80338    5899.9917    4.2834324    4.2834324    4.2834324    5899.9917    5428.1725    22468.868   -10197.066    2002.6961    2895.3944   -7764.4606     78.59153 
   78900    1099.0509   -121.80129   0.99444439   -120.80684   -1845.9923    4.2835316    4.2835316    4.2835316   -1845.9923   -26191.114    29639.069   -8985.9322    19717.526    19953.963    10632.535     78.59699 
   79000     577.1744   -121.33929   0.52223952   -120.81705   -3213.2122    4.2808784    4.2808784    4.2808784   -3213.2122     781.3304     14838.28   -25259.248    10817.725    13196.837   -30559.732    78.451037 
   79100    615.36566   -121.37696   0.55679579   -120.82016   -7297.5432    4.2856261    4.2856261    4.2856261   -7297.5432    21012.761   -15901.232   -27004.159   -1570.5215   -1593.2513   -46759.594    78.712344 
   79200    1257.6225   -121.95048    1.1379232   -120.81256    4719.1312    4.2833687    4.2833687    4.2833687    4719.1312     11486.36    2871.2091   -200.17533   -9039.0918    -3642.965    5624.3016    78.588027 
   79300    1333.4316   -122.01573     1.206517   -120.80922    12400.538    4.2811379    4.2811379    4.2811379    12400.538    3717.2986    20101.082    13383.234   -4569.9092    11220.252    15960.612      78.4653 
   79400    731.99213      -121.48   0.66232186   -120.81768   -11900.668     4.289051     4.289051     4.289051   -11900.668    13649.153   -18343.139   -31008.017    7631.2726    15911.825   -43316.772    78.901203 
   79500    781.94732   -121.52438   0.70752237   -120.81686   -4055.5421     4.282984     4.282984     4.282984   -4055.5421    20331.899   -17551.473   -14947.052    3821.8571   -638.45119   -50377.055    78.566855 
   79600    1430.4288    -122.1008     1.294282   -120.80651    9024.9361    4.2814732    4.2814732    4.2814732    9024.9361   -4159.9439    267.83805    30966.914   -9187.2196   -6498.9803    6324.5326    78.483742 
   79700    1250.7837   -121.94082    1.1317354   -120.80908   -1164.2406    4.2878433    4.2878433    4.2878433   -1164.2406   -13180.306   -3503.2023    13190.786    -14674.44    2758.4198    4708.8742    78.834575 
   79800    608.24797   -121.36804   0.55035555   -120.81768    226.42443    4.2805748    4.2805748    4.2805748    226.42443    13611.448   -6776.3692   -6155.8052   -1896.7784    12531.782   -49076.628    78.434343 
   79900    716.95574   -121.46675   0.64871662   -120.81803   -3601.8081     4.283175     4.283175     4.283175   -3601.8081   -3065.5991   -2733.4323    -5006.393    6284.3882    5591.6581   -36353.672    78.577363 
   80000    1234.7632   -121.92729    1.1172397   -120.81005    729.11975    4.2862481    4.2862481    4.2862481    729.11975   -31005.765     25269.85    7923.2744   -2136.9665   -15295.116    18110.539     78.74662 
   80100    1102.1515   -121.80851    0.9972498   -120.81126    4653.8547    4.2793321    4.2793321    4.2793321    4653.8547   -8229.4735    10942.008     11249.03   -12217.253    -15095.35   -9732.2109    78.366053 
   80200    798.61656   -121.54099   0.72260505   -120.81839   -7340.8834    4.2832842    4.2832842    4.2832842   -7340.8834    16209.723   -20782.193    -17450.18   -8619.5111    2495.9586   -54323.852    78.583375 
   80300    1170.0349   -121.87495    1.0586722   -120.81627   -4882.6361     4.283969     4.283969     4.283969   -4882.6361    4217.5065    1277.5163   -20142.931    2261.4502    6966.8336   -25218.007    78.621071 
   80400    1446.1416   -122.11895    1.3084993   -120.81045    11390.753    4.2797588    4.2797588    4.2797588    11390.753   -14715.732    39114.137    9773.8547    4617.1765   -2315.2946    16156.086      78.3895 
   80500    858.67504   -121.59551   0.77694722   -120.81856   -2895.8091    4.2859184    4.2859184    4.2859184   -2895.8091   -12496.939    15603.841    -11794.33   -4137.2556   -9470.0307   -17583.211    78.728452 
   80600    458.37215   -121.23532   0.41474476   -120.82058   -12016.866     4.286137     4.286137     4.286137   -12016.866    7144.0715   -23965.102   -19229.568    -12460.32   -6097.2931   -58064.904    78.740499 
   80700    990.94622   -121.71005   0.89662896   -120.81342    765.56471    4.2811097    4.2811097    4.2811097    765.56471    501.08534   -13178.323    14973.932    -943.7053     5741.087   -13331.155     78.46375 
   80800    1405.3733   -122.07749    1.2716113   -120.80588   -419.94452    4.2855785    4.2855785    4.2855785   -419.94452   -23189.196    8679.0244    13250.338    9517.9633    2972.2172    20372.825     78.70972 
   80900    732.48534   -121.47996   0.66276813   -120.81719   -3622.1739    4.2847796    4.2847796    4.2847796   -3622.1739    3233.0128   -8273.0404    -5826.494    655.11539   -7749.0047   -36522.798    78.665708 
   81000    515.63209   -121.29029   0.46655475   -120.82373   -3478.7148    4.2817491    4.2817491    4.2817491   -3478.7148    18824.349   -25121.394      -4139.1   -7516.8425   -4864.7072   -53081.429    78.498913 
   81100    1331.4488   -122.02031    1.2047228   -120.81559    3854.4926    4.2841457    4.2841457    4.2841457    3854.4926   -10118.054    799.27067    20882.261   -7336.5447   -1866.0212    2826.3031    78.630802 
   81200    1628.5157   -122.28306    1.4735153   -120.80954    8163.6098    4.2833566    4.2833566    4.2833566    8163.6098   -10202.765      7707.38    26986.215     4343.804     2625.831    7960.1295    78.587359 
   81300    980.84054   -121.70721   0.88748514   -120.81973   -2710.3815    4.2817785    4.2817785    4.2817785   -2710.3815    19433.245   -13759.673   -13804.717    5983.2095      1384.62   -50167.775    78.500531 
   81400    738.52347   -121.48753   0.66823155    -120.8193   -138.99028    4.2811235    4.2811235    4.2811235   -138.99028    15834.915   -3031.9612   -13219.924   -5245.0163   -11238.254     -47411.9    78.464509 
   81500    1111.4586   -121.81781    1.0056711   -120.81213   -3362.9585    4.2865534    4.2865534    4.2865534   -3362.9585   -30932.871    12723.669    8120.3264   -4115.3886   -8418.1366    14607.767    78.763448 
   81600    998.71542   -121.71492    0.9036587   -120.81126   -8716.0184    4.2858104    4.2858104    4.2858104   -8716.0184   -21381.656   -3391.4218   -1374.9775   -2342.9321    3580.1642    10620.285    78.722497 
   81700    671.60196   -121.42338   0.60767957    -120.8157    2412.6554    4.2754403    4.2754403    4.2754403    2412.6554    26501.803   -17017.748   -2246.0881    6496.6698     8968.623   -46933.433     78.15244 
   81800    883.23312    -121.6175   0.79916789   -120.81833    -2877.385     4.284617     4.284617     4.284617    -2877.385    5187.2513    1812.2368   -15631.643    8745.9688   -12834.405   -33724.172    78.656755 
   81900    1314.6577   -121.99821    1.1895299   -120.80868   -7877.9922    4.2906911    4.2906911    4.2906911   -7877.9922    -32269.69    21771.114   -13135.401   -1232.8353   -29327.745    10595.866    78.991753 
   82000    1230.0071   -121.92005    1.1129363   -120.80711    5233.5322    4.2786941    4.2786941    4.2786941    5233.5322   -377.30906    26926.172   -10848.267     3069.792   -2281.4262   -5185.6873     78.33101 
   82100    929.16278   -121.65257   0.84072601   -120.81185   -7244.5132     4.282713     4.282713     4.282713   -7244.5132    16435.452   -8050.5983   -30118.393    3592.1847    17713.505   -41033.595    78.551937 
   82200    870.69159   -121.60074   0.78782005   -120.81292   -13889.249    4.2858634    4.2858634    4.2858634   -13889.249   -12336.843   -9926.0932   -19404.812    6170.6458   -12613.392   -25913.493    78.725418 
   82300    978.67394   -121.69826   0.88552475   -120.81273    2619.1864    4.2799918    4.2799918    4.2799918    2619.1864   -23133.702    29885.886    1105.3752    6001.3823   -41515.559    14692.017    78.402299 
   82400    1027.2318   -121.74132   0.92946095   -120.81186   -6329.7857    4.2848914    4.2848914    4.2848914   -6329.7857   -16594.873    9011.8658   -11406.349   -6949.0397   -14833.516   -6877.2746    78.671867 
   82500    899.45334   -121.62688   0.81384429   -120.81304   -1919.3235    4.2825284    4.2825284    4.2825284   -1919.3235    16315.249   -15693.151   -6380.0678   -1020.2461    24607.087   -40401.946    78.541783 
   82600    808.02062   -121.54604   0.73111404   -120.81492    3325.9282    4.2812132    4.2812132    4.2812132    3325.9282    14028.025   -3221.9655   -828.27492    3696.6344    3417.9648   -23096.559    78.469442 
   82700    1110.9628   -121.81574    1.0052225   -120.81052   -1626.4129    4.2873964    4.2873964    4.2873964   -1626.4129   -18582.681    11048.899    2654.5438    8012.5711   -30099.128    8171.0282    78.809928 
   82800    1276.8898   -121.96423    1.1553567   -120.80887    3457.8666    4.2816508    4.2816508    4.2816508    3457.8666    6308.8197   -6618.9065    10683.687     6171.022   -19407.114   -628.71095    78.493505 
   82900    808.68859   -121.54855   0.73171843   -120.81683   -3570.9867    4.2803144    4.2803144    4.2803144   -3570.9867    38249.541   -27573.662    -21388.84   -6292.7288    12663.523   -29997.506    78.420034 
   83000    741.52669   -121.49155   0.67094893    -120.8206   -12181.194    4.2863582    4.2863582    4.2863582   -12181.194    8300.6311   -22385.824   -22458.388    3137.7407    29558.247   -23219.986    78.752687 
   83100    1423.4879   -122.10266    1.2880018   -120.81466    4580.2161    4.2835523    4.2835523    4.2835523    4580.2161   -10404.922   -1209.9967    25355.567    7474.6022    4569.1745    8099.7735    78.598131 
   83200    1561.3913   -122.22229    1.4127796   -120.80951    12771.288    4.2801409    4.2801409    4.2801409    12771.288    19498.903   -10654.554    29469.515    946.65342   -10117.393   -4368.9074    78.410498 
   83300     622.0828   -121.38639   0.56287359   -120.82351   -7764.6981    4.2840011    4.2840011    4.2840011   -7764.6981    11099.734   -29832.865   -4560.9637   -3293.4412    10023.162    -32014.34    78.622837 
   83400    329.05039   -121.12384   0.29773171   -120.82611   -16368.662    4.2866571    4.2866571    4.2866571   -16368.662   -12014.609   -22695.638    -14395.74   -5137.8812    29071.551   -11213.346    78.769163 
   83500    1108.6394   -121.81696    1.0031202   -120.81384    50.090724    4.2824812    4.2824812    4.2824812    50.090724   -14548.296    2729.6009    11968.967    3501.4474    14422.532    13691.043    78.539185 
   83600    1281.8785   -121.96885    1.1598706   -120.80898    7478.2782    4.2807851    4.2807851    4.2807851    7478.2782   -7137.8259     10800.78     18771.88    1983.6493    -34572.89   -3954.7535    78.445907 
   83700    877.73895   -121.60976   0.79419665   -120.81557   -4121.0828    4.2838047    4.2838047    4.2838047   -4121.0828   -6170.5764   -6505.5728    312.90083   -3560.0558   -15357.563   -21529.979    78.612026 
   83800    959.65234   -121.68101   0.86831361    -120.8127   -4349.9447    4.2861905    4.2861905    4.2861905   -4349.9447     9889.976   -17840.509   -5099.3007   -5024.1879    33914.968   -11071.957    78.743443 
   83900    1040.8852   -121.75219    0.9418148   -120.81038   -4039.4457    4.2844171    4.2844171    4.2844171   -4039.4457    -6025.726    3353.7555   -9446.3665   -4069.2421   -1182.6129    3804.0607    78.645746 
   84000    907.38213   -121.63486   0.82101842   -120.81384     2295.186    4.2773808    4.2773808    4.2773808     2295.186   -14614.255    28692.833   -7193.0197    3346.9215   -58050.531    6089.6547      78.2589 
   84100    1228.6245   -121.92482    1.1116853   -120.81313    5749.9611    4.2815306    4.2815306    4.2815306    5749.9611    3804.3628    4636.9965    8808.5241   -1956.4421   -28735.549   -6052.5313    78.486895 
   84200    1498.9088   -122.16391    1.3562442   -120.80767    1760.4242    4.2889928    4.2889928    4.2889928    1760.4242    3540.2305    -23592.64    25333.682   -7379.9747    24003.309    -9670.381    78.897991 
   84300    751.57669   -121.49928   0.68004238   -120.81923   -6310.7758    4.2835593    4.2835593    4.2835593   -6310.7758   -34319.632    10355.771     5031.534   -4468.1258   -12872.069   -1428.0504    78.598515 
   84400    390.31498   -121.17687    0.3531652    -120.8237   -12072.577    4.2795301    4.2795301    4.2795301   -12072.577   -50167.286    35238.218   -21288.664    985.41984   -54631.851     5012.598     78.37693 
   84500    1119.6692   -121.83232    1.0131002   -120.81922    731.62318    4.2833676    4.2833676    4.2833676    731.62318   -8144.7454    1543.5189     8796.096    627.49951   -10480.541    9430.8691    78.587967 
   84600    1513.2683   -122.17921     1.369237   -120.80997    14.521074    4.2878118    4.2878118    4.2878118    14.521074   -10126.549    -20945.95    31116.062   -8231.2413    15074.344    3120.1534    78.832835 
   84700    862.43683   -121.59767   0.78035096   -120.81732   -1584.6541    4.2818995    4.2818995    4.2818995   -1584.6541   -29862.118    13437.512    11670.644   -6840.2207   -42767.629   -4313.1085    78.507183 
   84800    721.76837   -121.47109   0.65307119   -120.81802    1620.6908    4.2787808    4.2787808    4.2787808    1620.6908   -21970.887    26695.631    137.32873     866.8733   -48062.574    4717.1094    78.335772 
   84900    1148.7014   -121.85195    1.0393692   -120.81259    200.91301    4.2854853    4.2854853    4.2854853    200.91301    12199.697    -10245.15   -1351.8083    1552.2052    12856.455    10401.327    78.704582 
   85000    1120.6934   -121.82588     1.014027   -120.81185    -1130.566    4.2848712    4.2848712    4.2848712    -1130.566    21303.125   -31783.118    7088.2947    -7299.094      10604.4   -2618.8028    78.670756 
   85100    669.25246   -121.42236   0.60555369   -120.81681   -3371.1227    4.2823196    4.2823196    4.2823196   -3371.1227   -57.832916   -13396.579    3341.0442   -10779.522   -36003.954   -12446.843    78.530293 
   85200    897.29802   -121.62618   0.81189411   -120.81429   -5733.5815    4.2878567    4.2878567    4.2878567   -5733.5815   -9426.8781   -7367.2201   -406.64627    605.01825   -34859.358   -1047.6846    78.835311 
   85300    1433.5948   -122.10242    1.2971467   -120.80527    2240.1456    4.2848036    4.2848036    4.2848036    2240.1456    8067.4413   -14085.743    12738.739    7937.6624    11979.717    3695.0372    78.667029 
   85400    1344.3348   -122.02398    1.2163824   -120.80759    6505.5726    4.2804544    4.2804544    4.2804544    6505.5726    30960.538   -12198.863    755.04264   -4938.4682    12217.308   -10565.032    78.427724 
   85500    667.68301   -121.42219   0.60413362   -120.81805   -11705.671    4.2855678    4.2855678    4.2855678   -11705.671   -8808.5615   -10294.049   -16014.404   -14891.159   -35618.383   -15515.294    78.709127 
   85600    574.62214   -121.34213   0.51993019    -120.8222   -12443.476    4.2863841    4.2863841    4.2863841   -12443.476   -31441.262   -19159.839    13270.675    12149.789   -27344.114   -1266.3422    78.754117 
   85700    1306.7918   -121.99547    1.1824127   -120.81306    4125.8064    4.2846708    4.2846708    4.2846708    4125.8064    2626.6129    -18073.45    27824.256    25915.639    9421.7438      5026.53    78.659719 
   85800    1560.8346   -122.21808     1.412276    -120.8058    6270.8551     4.282162     4.282162     4.282162    6270.8551    9985.0691    1918.0091    6909.4872    759.97435   -883.87099   -2274.7101    78.521625 
   85900    827.01533   -121.56701   0.74830085   -120.81871   -4123.0875    4.2818994    4.2818994    4.2818994   -4123.0875   -12949.743     5100.718   -4520.2372   -11348.178    -29348.73   -9650.3625    78.507181 
   86000    448.19859    -121.2277   0.40553951   -120.82216   -13759.557    4.2877018    4.2877018    4.2877018   -13759.557    -26397.94   -31391.025    16510.294    4560.9829   -24116.332   -7950.1286     78.82677 
   86100    964.57363   -121.68655   0.87276649   -120.81378   -1877.1555    4.2843801    4.2843801    4.2843801   -1877.1555    887.63579   -39735.275    33216.173    16789.482    7353.0138    7786.7675    78.643706 
   86200    1186.9982   -121.88122    1.0740209    -120.8072    6573.0151    4.2804367    4.2804367    4.2804367    6573.0151    19006.033   -11207.848     11920.86    4465.6371    3662.8113    17385.874    78.426755 
   86300    886.33531   -121.61426   0.80197481   -120.81228    524.00422      4.28413      4.28413      4.28413    524.00422   -9134.5308    6740.1721    3966.3714   -7674.2907   -21312.028    2811.4482    78.629934 
   86400    908.71668   -121.63547   0.82222595   -120.81324   -891.87518     4.284499     4.284499     4.284499   -891.87518    -23621.17     -3906.48    24852.025    1600.2852   -18092.014   -5890.5884    78.650256 
   86500    1283.6482   -121.96971    1.1614719   -120.80824    6249.4149    4.2828907    4.2828907    4.2828907    6249.4149     5797.537   -20765.673    33716.381    11650.745    2166.4527    8332.6555    78.561717 
   86600    1387.2622   -122.06299     1.255224   -120.80776    4680.1644     4.283345     4.283345     4.283345    4680.1644    10210.099   -6969.2753    10799.669    3218.5013     4913.547    13992.806    78.586721 
   86700    778.73139   -121.52246   0.70461253   -120.81785   -4796.2428    4.2823665    4.2823665    4.2823665   -4796.2428   -32266.653    23557.228   -5679.3032   -8393.9368   -21933.562    5339.2002    78.532873 
   86800    533.69502   -121.30623   0.48289847   -120.82333   -5685.0255    4.2827298    4.2827298    4.2827298   -5685.0255   -32199.494    9973.7789    5170.6387    -4042.461   -16495.134    -5986.568    78.552867 
   86900    1213.9436   -121.91365    1.0984016   -120.81525   -483.39046    4.2867385    4.2867385    4.2867385   -483.39046   -2654.0765   -22512.838    23716.744     2950.552    6179.7949   -11608.848    78.773651 
   87000    1445.5148   -122.11422    1.3079322   -120.80628     4782.606    4.2841011    4.2841011    4.2841011     4782.606   -2467.1901   -15113.132     31928.14    2396.4826   -4118.2669   -2489.9467    78.628347 
   87100    726.01815   -121.47286   0.65691648   -120.81594   -7391.3107    4.2813333    4.2813333    4.2813333   -7391.3107    -39118.83    8405.1471    8539.7509   -2195.3413   -26868.269    4836.0351    78.476047 
   87200    482.88791    -121.2571   0.43692713   -120.82018   -12882.763    4.2829495    4.2829495    4.2829495   -12882.763   -47846.099     5412.294    3785.5161   -3352.9771   -9522.4439   -3839.7764    78.564952 
   87300    1124.3514   -121.83095    1.0173368   -120.81361     696.8094    4.2840359    4.2840359    4.2840359     696.8094   -8076.5511   -13091.822    23258.802   -31.840237    19226.092   -14051.227    78.624753 
   87400     1449.521   -122.11944    1.3115571   -120.80789    2211.6546    4.2846789    4.2846789    4.2846789    2211.6546      4535.77   -22275.431    24374.625    3585.6666   -7760.4839   -1844.1183    78.660163 
   87500    843.49861   -121.58102   0.76321527   -120.81781   -3736.4522    4.2812683    4.2812683    4.2812683   -3736.4522    -27806.85   -1182.6147    17780.108    1185.1585   -23264.743    14066.391    78.472472 
   87600    692.73729   -121.44959   0.62680326   -120.82279    -9518.232    4.2814408    4.2814408    4.2814408    -9518.232   -49373.776    17157.905    3661.1753   -10308.463    3634.1807    3280.6266    78.481959 
   87700    1371.7398    -122.0574     1.241179   -120.81622   -3765.0162    4.2860724    4.2860724    4.2860724   -3765.0162   -24609.619    6880.1995    6434.3711   -4858.8508    25015.645   -5609.4553    78.736934 
   87800    1544.3377   -122.20664    1.3973492   -120.80929    109.66362    4.2846649    4.2846649    4.2846649    109.66362   -6683.3016   -20554.317    27566.609    12720.562    654.60051    1776.2134    78.659393 
   87900     754.7846   -121.50134   0.68294496   -120.81839   -4321.1268    4.2801251    4.2801251    4.2801251   -4321.1268   -18259.871    -21012.99    26309.481    9502.8589   -13335.787    7509.4917    78.409626 
   88000    518.10469   -121.28789   0.46879201    -120.8191   -7837.7788    4.2846996    4.2846996    4.2846996   -7837.7788   -28429.994   -3236.8816    8153.5396   -5225.3231   -682.31458     7801.989    78.661304 
   88100    1024.3953   -121.73662   0.92689436   -120.80973   -9507.3015    4.2876683    4.2876683    4.2876683   -9507.3015   -11053.946   -15788.213   -1679.7456   -1910.1743    4180.6361   -7947.7769     78.82492 
   88200     969.6429   -121.68677   0.87735327   -120.80942    798.37505    4.2800459    4.2800459    4.2800459    798.37505    14799.287   -35452.163    23048.001    15752.914    7112.3415   -23372.071    78.405274 
   88300    781.63067   -121.52162   0.70723585   -120.81439   -6466.0932    4.2810606    4.2810606    4.2810606   -6466.0932   -14609.285   -31512.974    26723.979    11721.547   -8560.6041   -6545.8615     78.46105 
   88400    1092.8229   -121.80198   0.98880911   -120.81317   -6406.9477    4.2850798    4.2850798    4.2850798   -6406.9477   -22932.847   -4165.5365    7877.5403   -9642.5256   -18108.217    6470.7296    78.682246 
   88500    1411.6072   -122.08658    1.2772518   -120.80933    5918.2318    4.2831031    4.2831031    4.2831031    5918.2318    9932.8218    10349.704   -2527.8299   -5181.9478   -4295.3276   -4991.3001    78.573409 
   88600    1253.5755   -121.94623    1.1342614   -120.81197   -47.079076    4.2836825    4.2836825    4.2836825   -47.079076    11356.908   -18755.724    7257.5784    28164.685    3188.4917   -16670.455      78.6053 
   88700    767.10798    -121.5117   0.69409542    -120.8176    459.25618    4.2819894    4.2819894    4.2819894    459.25618    291.48265   -30663.119    31749.405     27798.93   -3638.9325   -10113.733    78.512133 
   88800    880.61927   -121.61469   0.79680282   -120.81789    14.408996    4.2831668    4.2831668    4.2831668    14.408996   -4648.8362   -6994.2298    11686.293    -14275.39   -22776.169    6096.1942    78.576912 
   88900    1230.8971   -121.92536    1.1137415   -120.81162    2167.1576    4.2846047    4.2846047    4.2846047    2167.1576     19951.89    -1335.305   -12115.112   -18369.428   -13265.177    11787.909    78.656079 
   89000    1120.4476   -121.82466    1.0138046   -120.81085    4387.3413    4.2804165    4.2804165    4.2804165    4387.3413    25001.265   -22646.787    10807.545    23840.606    10869.313    6614.8349    78.425644 
   89100    851.10623   -121.58417    0.7700988   -120.81408   -5863.6304    4.2834892    4.2834892    4.2834892   -5863.6304   -6541.2132   -28517.029    17467.351    37534.665    55.277122   -11622.132    78.594657 
   89200    783.10634   -121.52221   0.70857107   -120.81364   -10772.591    4.2861046    4.2861046    4.2861046   -10772.591   -11485.838   -15373.318    -5458.616   -1953.9923   -17278.944   -6997.8636    78.738709 
   89300    901.94585   -121.62716   0.81609956   -120.81106   -5168.8476    4.2821149    4.2821149    4.2821149   -5168.8476    7058.4911    -11811.74   -10753.294   -17761.305   -18172.394    24366.198    78.519033 
   89400    936.94034   -121.65886   0.84776331   -120.81109   -4559.9959    4.2828441    4.2828441    4.2828441   -4559.9959    1203.1512   -20419.807    5536.6682    17413.999    3857.0683    25068.999    78.559152 
   89500    1088.6628   -121.79501     0.985045   -120.80996   -2916.8268    4.2844157    4.2844157    4.2844157   -2916.8268   -13163.277    -10527.83    14940.627    28623.507    8137.1074   -7177.5242     78.64567 
   89600    1019.8643   -121.73342   0.92279461   -120.81063   -320.25342    4.2833429    4.2833429    4.2833429   -320.25342   -4602.8263   -1716.1795    5358.2455    3792.6062   -16835.317   -17754.011    78.586603 
   89700    758.71009   -121.50236   0.68649683   -120.81586   -3322.2657    4.2839397    4.2839397    4.2839397   -3322.2657    16280.462    -10120.06   -16127.199   -10605.462   -16131.085     16085.91     78.61946 
   89800    1027.7774   -121.74506    0.9299546    -120.8151   -558.55216    4.2825539    4.2825539    4.2825539   -558.55216    18719.065   -12726.139   -7668.5817    991.17423   -1165.4543    36974.763    78.543185 
   89900     1489.208    -122.1557    1.3474667   -120.80823    7042.0716    4.2824047    4.2824047    4.2824047    7042.0716    10033.708   -6287.2864    17379.793    12421.515    5523.4324     481.6631    78.534974 
   90000    1091.5079   -121.80103   0.98761932   -120.81342    -4766.657    4.2875634    4.2875634    4.2875634    -4766.657    6353.6709   -12750.938    -7902.704    6509.7526   -4194.0596   -24087.949    78.819134 
   90100    572.98613   -121.33689   0.51844989   -120.81844   -9974.3269    4.2828398    4.2828398    4.2828398   -9974.3269    22253.904   -25703.812   -26473.072   -7637.8679    -23513.64    6538.3992    78.558918 
   90200    893.18998   -121.62299   0.80817707   -120.81481    461.60336    4.2806043    4.2806043    4.2806043    461.60336    22105.616   -30201.195    9480.3892   -19089.285   -7241.2054    25398.325    78.435966 
   90300    1256.4624   -121.94336    1.1368736   -120.80649   -5581.9314     4.290543     4.290543     4.290543   -5581.9314   -4075.3836    -22518.47    9848.0597   -12888.807    17762.334    3071.4903    78.983575 
   90400    1068.4818   -121.77712   0.96678483   -120.81034   -2331.6185    4.2819305    4.2819305    4.2819305   -2331.6185    3468.6872   -934.24777    -9529.295    4824.6158    11484.845   -17769.784    78.508893 
   90500    868.17616    -121.5985   0.78554403   -120.81295    7528.4282    4.2758221    4.2758221    4.2758221    7528.4282    31274.702    -10537.81     1848.393   -1139.9383   -12244.629   -213.33864    78.173379 
   90600    1019.7965   -121.73533   0.92273326    -120.8126   -5442.5157    4.2890815    4.2890815    4.2890815   -5442.5157    8994.3311   -30064.792    4742.9136   -17838.613   -17193.635    14876.963    78.902889 
   90700    1119.1292   -121.82274    1.0126116   -120.81013    4559.7589    4.2847987    4.2847987    4.2847987    4559.7589    10009.405   -70.172105    3740.0436   -15465.607    24336.077     4595.506    78.666763 
   90800    923.99232   -121.64725   0.83604766    -120.8112    9528.5817    4.2783688    4.2783688    4.2783688    9528.5817    17655.251    27565.652   -16635.158   -321.54076    33367.004   -7583.8695    78.313142 
   90900    943.46269   -121.66583   0.85366487   -120.81217   -4707.7631    4.2846473    4.2846473    4.2846473   -4707.7631    8615.2297    9935.8232   -32674.342    7759.3106   -18028.069    -6553.738    78.658422 
   91000    1047.4046   -121.75731   0.94771368   -120.80959    2544.0076    4.2818089    4.2818089    4.2818089    2544.0076    18497.673    7301.7025   -18167.353    -4936.253   -31450.489    2699.2756    78.502202 
   91100    983.82709    -121.7006   0.89018742   -120.81041   -6164.5298    4.2846049    4.2846049    4.2846049   -6164.5298   -11524.709    11521.973   -18490.853   -11917.072    31137.149    4484.9787     78.65609 
   91200    751.22388   -121.49387   0.67972315   -120.81415   -10614.784    4.2840676    4.2840676    4.2840676   -10614.784   -16270.783    15404.785   -30978.354   -5301.9211    47616.674   -2700.7199    78.626502 
   91300    866.86968   -121.59683    0.7843619   -120.81247    4652.8208    4.2785246    4.2785246    4.2785246    4652.8208    20917.004    16838.158     -23796.7    1036.6674   -22923.344   -6946.5643    78.321702 
   91400    1233.5743   -121.92493     1.116164   -120.80877   -2354.8414    4.2869958    4.2869958    4.2869958   -2354.8414    2390.5783    5554.7886   -15009.891     5139.476   -41746.917   -2860.9167    78.787834 
   91500    1131.3424   -121.83355    1.0236624   -120.80989    3622.1267    4.2827954    4.2827954    4.2827954    3622.1267   -7244.3738    18881.079   -770.32542    1099.1643    31422.209    1326.0053    78.556476 
   91600    969.67769   -121.69093   0.87738475   -120.81355     -816.337    4.2805748    4.2805748    4.2805748     -816.337   -18005.933    19987.372   -4430.4498   -6688.7918    52428.036   -959.69664    78.434344 
   91700    1134.7467   -121.83909    1.0267426   -120.81235    -8005.855      4.28447      4.28447      4.28447    -8005.855   -23763.223    6133.6584   -6388.0002   -11560.212   -12512.407   -2819.4605    78.648658 
   91800    1289.7204   -121.97553    1.1669661   -120.80856    6611.1515    4.2784583    4.2784583    4.2784583    6611.1515   -2221.7921    13342.302    8712.9442    548.01247   -32651.893   -1490.9645     78.31806 
   91900     776.5316   -121.51768   0.70262211   -120.81506   -11506.264    4.2877592    4.2877592    4.2877592   -11506.264   -30014.637     14155.55   -18659.706     20136.54    32843.084   -294.52985    78.829935 
   92000    567.19965   -121.32928   0.51321416   -120.81607   -14303.751    4.2869185    4.2869185    4.2869185   -14303.751   -39105.767    9682.3305   -13487.816   -4515.3285    47574.933    3297.5788    78.783577 
   92100    973.59602   -121.69098   0.88093014   -120.81005    9632.5518    4.2764683    4.2764683    4.2764683    9632.5518   -3865.3577    16581.897    16181.116   -31395.995   -3704.6997   -1718.6798    78.208825 
   92200     1313.716   -121.99608    1.1886778    -120.8074    418.37966    4.2857749    4.2857749    4.2857749    418.37966   -2765.5659    12971.511   -8950.8057   -10133.955   -8103.7821   -6309.2204    78.720539 
   92300    1117.0372   -121.82276    1.0107187   -120.81204    807.99775    4.2842677    4.2842677    4.2842677    807.99775   -15050.999     37139.29   -19664.297    16525.681    32531.204   -5342.9469     78.63752 
   92400    800.53102   -121.54014   0.72433729    -120.8158    1224.9936    4.2799995    4.2799995    4.2799995    1224.9936   -29780.253    28078.261    5376.9735   -6516.4102     34586.45     809.8539    78.402727 
   92500    1002.4197   -121.72124   0.90701043   -120.81423   -12171.661    4.2872329    4.2872329    4.2872329   -12171.661   -35667.801    -22218.27    21371.088   -35200.568   -3655.8993    796.16331    78.800907 
   92600     1286.607    -121.9713    1.1641491   -120.80715    3774.5849    4.2806635    4.2806635    4.2806635    3774.5849    3538.5283    1798.4544    5986.7719    -15881.73   -4579.6721   -8226.0044    78.439222 
   92700    1060.0508   -121.76758   0.95915621   -120.80842    3647.4283    4.2819851    4.2819851    4.2819851    3647.4283    8757.4168    29464.539   -27279.671    11730.043    29768.134   -8547.7202    78.511894 
   92800    623.89611   -121.37775   0.56451431   -120.81323   -14138.227    4.2892732    4.2892732    4.2892732   -14138.227   -23016.173   -5117.9017   -14280.608   -14108.369    27476.897    2355.4654    78.913466 
   92900    697.55544   -121.44431   0.63116282   -120.81315    5927.3362     4.277747     4.277747     4.277747    5927.3362   -12304.635     263.2129     29823.43   -36036.392   -4529.3353    1854.0631    78.279001 
   93000    1201.5259   -121.89611    1.0871659   -120.80895    10457.184    4.2795601    4.2795601    4.2795601    10457.184    5585.2544    19417.175    6369.1216   -6146.7953   -3484.3476    2000.4577    78.378581 
   93100    1260.5592   -121.94904    1.1405804   -120.80846   -4806.9955    4.2883879    4.2883879    4.2883879   -4806.9955   -13931.564    33640.379   -34129.802    14943.803    18919.468   -1472.6379    78.864612 
   93200    825.24622   -121.56172   0.74670013   -120.81502    -3314.896    4.2804908    4.2804908    4.2804908    -3314.896   -26956.958    27385.371   -10373.101   -26375.498    18963.965   -3107.1811    78.429729 
   93300    862.09281   -121.59625   0.78003969   -120.81621   -5812.7007     4.281839     4.281839     4.281839   -5812.7007   -13291.966   -18054.336      13908.2   -51484.245   -2019.0694    3813.9104    78.503858 
   93400    1424.5054   -122.09838    1.2889224   -120.80946    -175.9404    4.2834172    4.2834172    4.2834172    -175.9404    6959.7076   -5278.5823   -2208.9465   -5988.1871   -3244.8564     4194.385    78.590697 
   93500    1362.0765   -122.04166    1.2324355   -120.80922    13380.943    4.2791543    4.2791543    4.2791543    13380.943    22956.862    35519.381   -18333.414    15369.769    18058.248    1466.6364    78.356284 
   93600    572.32195   -121.33912   0.51784893   -120.82127   -15020.015    4.2881472    4.2881472    4.2881472   -15020.015   -28398.905   -3251.2796   -13409.861   -39230.168    18402.131    583.09951    78.851336 
   93700     522.7061   -121.29683   0.47295546   -120.82388   -10032.283    4.2809581    4.2809581    4.2809581   -10032.283   -27618.777     -11660.2    9182.1286   -54220.013   -1903.2644   -850.48191    78.455418 
   93800     1315.457   -122.00206    1.1902531   -120.81181    14187.101    4.2768431    4.2768431    4.2768431    14187.101    26260.116    14240.263    2060.9239     7388.599   -7728.6507    3394.4594    78.229391 
   93900    1286.6872   -121.97316    1.1642217   -120.80893   -10581.848    4.2932112    4.2932112    4.2932112   -10581.848   -1460.0124    -13438.72   -16846.812    14312.289    6118.8094    1321.3538    79.131018 
   94000    479.72586   -121.25536   0.43406604    -120.8213   -3047.1387    4.2795809    4.2795809    4.2795809   -3047.1387    -16068.51   -8931.8932    15858.987   -52807.388    11681.189   -3139.3312    78.379721 
   94100     715.8645   -121.46775   0.64772924   -120.82002    5843.3869    4.2735381    4.2735381    4.2735381    5843.3869    -11670.58    12757.865    16442.877   -50629.437    7099.3008   -1512.8356    78.048172 
   94200    1573.5922   -122.23137    1.4238193   -120.80755    -2465.212    4.2900827    4.2900827    4.2900827    -2465.212   -9986.7094    19331.163   -16740.089    15317.859   -4309.3924   -2801.3486    78.958156 
   94300    1318.9677   -122.00511    1.1934297   -120.81168    8036.5191    4.2826187    4.2826187    4.2826187    8036.5191   -12848.916    25766.077    11192.396     5519.836   -6652.1372   -1493.4935     78.54675 
   94400     475.5021   -121.25233   0.43024429   -120.82208   -9132.8541    4.2815204    4.2815204    4.2815204   -9132.8541    -49950.09   -3352.1601    25903.687    -48218.82    8956.2418    265.60936    78.486336 
   94500    692.97632   -121.44786   0.62701954   -120.82084    -11782.13    4.2841535    4.2841535    4.2841535    -11782.13   -40043.871     9248.904   -4551.4225   -29485.073    17518.515    -3644.461     78.63123 
   94600    1498.2139   -122.16363    1.3556154   -120.80801    11255.241    4.2787382    4.2787382    4.2787382    11255.241     5542.662    43746.787   -15523.726    13654.336    7776.6761    -4573.662    78.333427 
   94700     1201.066   -121.89827    1.0867498   -120.81152   -8514.9775    4.2883233    4.2883233    4.2883233   -8514.9775   -22441.641    118.76287   -3222.0549   -24883.316   -3678.6076   -146.15684    78.861049 
   94800    706.63134   -121.45883   0.63937488   -120.81945   -10562.631    4.2807453    4.2807453    4.2807453   -10562.631   -48402.788   -6454.0987    23168.993   -48050.859    3430.2906    2516.4304    78.443717 
   94900    820.69533   -121.55863   0.74258238   -120.81605     10104.17    4.2733365    4.2733365    4.2733365     10104.17   -25007.949    28226.803    27093.656    3009.4544    19586.493   -368.00347    78.037127 
   95000    1206.9699   -121.90435    1.0920917   -120.81226   -3984.5945    4.2894943    4.2894943    4.2894943   -3984.5945   -16532.817    8835.3171   -4256.2833    27819.909    8592.5636   -5046.1894     78.92567 
   95100    1233.6875   -121.92652    1.1162664   -120.81025    7489.4142    4.2832132    4.2832132    4.2832132    7489.4142   -5612.6123     22408.89    5671.9654    -18541.99   -14300.595   -3126.0353    78.579468 
   95200    1123.5671   -121.82588    1.0166271   -120.80925    12294.434    4.2756671    4.2756671    4.2756671    12294.434   -7483.4331    15700.845    28665.891   -30758.579    -4043.359    5325.0054    78.164878 
   95300     864.7994   -121.59567   0.78248867   -120.81318   -5482.4776    4.2845486    4.2845486    4.2845486   -5482.4776   -29461.927    -2735.479    15749.973    13584.367    24602.815    417.09895    78.652989 
   95400    728.02852   -121.47279   0.65873551   -120.81406    166.43131    4.2828797    4.2828797    4.2828797    166.43131   -20099.553    23315.178   -2716.3309    29795.079     10142.42   -4696.7227    78.561115 
   95500    1005.5392   -121.72049   0.90983302   -120.81066   -1960.2184    4.2849796    4.2849796    4.2849796   -1960.2184   -9338.4749    21304.281   -17846.462     -1146.99    -32275.61   -4166.5106    78.676725 
   95600     1205.159   -121.89807    1.0904532   -120.80762   -725.40725    4.2822976    4.2822976    4.2822976   -725.40725   -3012.1491     13136.37   -12300.443   -11896.438   -17829.439   -2996.4406    78.529085 
   95700    1041.0342   -121.75314   0.94194961   -120.81119    9610.6113     4.273653     4.273653     4.273653    9610.6113   -6760.5072    18871.914    16720.427    17214.248    29102.743    1825.8473    78.054471 
   95800    550.50774   -121.31861   0.49811097   -120.82049   -15550.472    4.2869568    4.2869568    4.2869568   -15550.472   -44852.209    6657.9683   -8457.1752    28019.255    8559.8419   -1379.9868    78.785684 
   95900    601.00102   -121.36414   0.54379835   -120.82034   -16538.024    4.2879656    4.2879656    4.2879656   -16538.024   -41024.855    15952.033   -24541.249     4087.682   -42162.746   -3304.9663    78.841316 
   96000    1337.1418   -122.02087     1.209874     -120.811    10238.725    4.2730266    4.2730266    4.2730266    10238.725   -5338.6113    21338.923    14715.864   -10566.861   -24487.408   -1168.4766    78.020154 
   96100     1466.576   -122.13651    1.3269888   -120.80952    1315.7506    4.2812356    4.2812356    4.2812356    1315.7506   -17904.393   -10906.733    32758.378    565.36641    17900.533   -415.54299    78.470673 
   96200    857.39511   -121.59188   0.77578912   -120.81609   -13045.202    4.2891997    4.2891997    4.2891997   -13045.202   -40900.395   -8484.7876    10249.577    23457.727   -5231.3339    3384.2529    78.909412 
   96300    719.50369   -121.46706   0.65102206   -120.81603   -6618.0348    4.2814567    4.2814567    4.2814567   -6618.0348   -38965.874    20386.302   -1274.5327    13670.732   -35566.634   -1902.4995    78.482831 
   96400    1099.6954   -121.80719   0.99502747   -120.81216   -1282.0793    4.2776657    4.2776657    4.2776657   -1282.0793   -28483.463    1285.3873    23351.838   -31747.011   -15709.521   -3930.4224    78.274539 
   96500    1224.3901   -121.91884    1.1078539   -120.81098    2471.2601    4.2804625    4.2804625    4.2804625    2471.2601   -7795.9965   -20915.764    36125.541   -40083.742    10302.597    2949.3154    78.428172 
   96600    1274.1208   -121.96238    1.1528513   -120.80953   -2093.3353     4.286414     4.286414     4.286414   -2093.3353   -7304.2933     4416.737   -3392.4495    5928.4825   -10305.198    1520.3296    78.755764 
   96700    1024.1208   -121.73993   0.92664605   -120.81328   -4309.4351    4.2831847    4.2831847    4.2831847   -4309.4351   -27911.019    31819.336   -16836.623    12705.368   -28786.987     1551.268    78.577897 
   96800    556.24794   -121.32191   0.50330483   -120.81861   -790.15684     4.275712     4.275712     4.275712   -790.15684   -33973.847    8280.1347    23323.242   -46119.837   -9602.3678    1055.3921    78.167339 
   96900    882.57342   -121.61866   0.79857098   -120.82009   -2354.8375    4.2833132    4.2833132    4.2833132   -2354.8375   -31136.977   -4540.4449     28612.91   -45753.549    10502.643    503.96533    78.584972 
   97000     1520.833   -122.18433    1.3760816   -120.80825    5107.8691    4.2873531    4.2873531    4.2873531    5107.8691   -3905.6298    26103.413   -6874.1763    13820.239    2671.8098     5361.919     78.80754 
   97100    1208.8084   -121.90595    1.0937553    -120.8122    8795.5457     4.277541     4.277541     4.277541    8795.5457   -899.46973    18464.123    8821.9837   -6550.5508   -15801.665    682.68192    78.267692 
   97200    492.82591   -121.26732   0.44591924   -120.82141   -5320.3014    4.2779995    4.2779995    4.2779995   -5320.3014   -34433.269   -15809.144    34281.509   -64684.234   -13104.255   -1955.1971    78.292867 
   97300    711.50675   -121.46258   0.64378626   -120.81879   -12350.236     4.285897     4.285897     4.285897   -12350.236   -35409.843   -22137.407    20496.543   -28319.278      905.554    165.75394    78.727269 
   97400    1234.4206   -121.92582    1.1169297   -120.80889   -3909.1165     4.284253     4.284253     4.284253   -3909.1165   -3518.3559   -9227.8048    1018.8113    36478.068    11028.921   -830.25989    78.636706 
   97500    884.71074   -121.61392   0.80050487   -120.81342   -1043.2744    4.2767681    4.2767681    4.2767681   -1043.2744   -1494.5079   -22948.129    21312.813   -5683.7434    8435.5562    3900.0052    78.225278 
   97600    589.88377   -121.35288   0.53373923   -120.81914   -5892.7329     4.279121     4.279121     4.279121   -5892.7329   -17587.399   -27659.944    27569.144   -63418.804   -10182.651    2016.7433    78.354458 
   97700    983.72649    -121.7056    0.8900964    -120.8155   -8878.7548    4.2884718    4.2884718    4.2884718   -8878.7548   -15840.872   -5637.9781   -5157.4146   -22142.165   -23855.629   -298.39983    78.869246 
   97800    1491.1638   -122.15615    1.3492364   -120.80692    2599.8896    4.2824242    4.2824242    4.2824242    2599.8896    10271.295     7102.662   -9574.2883    24984.683   -10214.577     666.4525    78.536048 
   97900     1217.358   -121.91247    1.1014911   -120.81098     6129.607    4.2755537    4.2755537    4.2755537     6129.607    4862.7438   -8304.2651    21830.342   -18395.113    13003.506   -1441.2173    78.158659 
   98000    700.47164    -121.4533   0.63380146    -120.8195   -10788.795    4.2835562    4.2835562    4.2835562   -10788.795    -23929.28     -19075.5    10638.396   -47868.683   -3456.9715   -292.04722    78.598347 
   98100    803.77959   -121.54593   0.72727667   -120.81866   -10702.188    4.2864925    4.2864925    4.2864925   -10702.188   -13274.371     9420.399   -28252.593   -11427.375   -40207.615   -20.930054    78.760089 
   98200    1277.5862   -121.96683    1.1559868   -120.81084    4299.9645     4.280546     4.280546     4.280546    4299.9645    15266.127    21881.335   -24247.569     13893.38   -24349.267    698.27239    78.432761 
   98300    1331.3905   -122.01177    1.2046701    -120.8071    4919.7514    4.2786087    4.2786087    4.2786087    4919.7514    23305.293   -21615.075    13069.037   -20510.873    15987.428    1711.5422    78.326318 
   98400    859.10451   -121.59146   0.77733581   -120.81413   -6347.5736    4.2833816    4.2833816    4.2833816   -6347.5736     5332.774   -32563.376    8187.8816   -37843.405   -11936.278    562.76385    78.588736 
   98500    581.31762   -121.34322    0.5259884   -120.81724   -10176.345    4.2844734    4.2844734    4.2844734   -10176.345   -15214.351    6891.7732   -22206.456   -5014.8573   -51668.584    2123.6096    78.648844 
   98600    955.95133   -121.67802   0.86496485   -120.81305   -183.24272    4.2802999    4.2802999    4.2802999   -183.24272    4566.0076    17895.161   -23010.897    14020.962   -12120.743    957.59737    78.419235 
   98700    1306.5046   -121.98995    1.1821529   -120.80779    3066.0009    4.2813623    4.2813623    4.2813623    3066.0009    10155.575   -3234.9435    2277.3714   -867.86619    37284.875    422.81971    78.477642 
   98800    1014.4424   -121.73033   0.91788879   -120.81244   -745.32725    4.2816154    4.2816154    4.2816154   -745.32725   -14933.365    8519.8406     4177.543   -14829.415   -10991.412    903.03792    78.491558 
   98900    718.67891   -121.46757   0.65027578   -120.81729   -1440.9136    4.2816363    4.2816363    4.2816363   -1440.9136    -18130.22    32912.191   -19104.712   -10818.165   -64332.023    864.02944    78.492712 
   99000    1061.4877   -121.77377   0.96045636   -120.81331   -896.15878     4.284485     4.284485     4.284485   -896.15878   -9854.6935    25647.675   -18481.458    1118.9677    -15862.21      890.005    78.649482 
   99100     1411.887   -122.08412     1.277505   -120.80661    7742.6793    4.2796915    4.2796915    4.2796915    7742.6793   -1603.5049    14810.483    10021.059    4914.2701    39077.333   -2008.6245    78.385799 
   99200    731.77108   -121.48116   0.66212185   -120.81904    -3636.464    4.2791919    4.2791919    4.2791919    -3636.464   -29734.858    29254.353   -10428.887   -3716.8296   -18393.278   -173.92131    78.358353 
   99300    311.09895   -121.10794   0.28148886   -120.82645   -18265.831    4.2857392    4.2857392    4.2857392   -18265.831   -60423.404    29736.675   -24110.763   -11337.165    -69764.11     2410.187    78.718576 
   99400    1135.2997   -121.84706     1.027243   -120.81982    946.23499    4.2827886    4.2827886    4.2827886    946.23499   -26460.247    8918.0513    20380.901    -10356.53   -12042.098    1022.7593    78.556099 
   99500    1758.3123   -122.39984     1.590958   -120.80889    11851.762    4.2793701    4.2793701    4.2793701    11851.762     565.5104    7462.2848     27527.49    1408.8633    12931.801   -583.32037    78.368139 
   99600    1165.5617   -121.87237    1.0546247   -120.81775   -667.84827    4.2812127    4.2812127    4.2812127   -667.84827   -31004.131    41084.571   -12083.985     2977.406   -47854.047   -1496.0072    78.469413 
   99700    787.21692   -121.53154   0.71229042   -120.81925   -5715.7282     4.281292     4.281292     4.281292   -5715.7282   -40164.356    34627.492   -11610.321   -13370.315     -49607.2   -3011.3004    78.473777 
   99800    895.45781   -121.62473   0.81022904    -120.8145   -10861.373    4.2849873    4.2849873    4.2849873   -10861.373   -33069.291   -15387.817    15872.989   -15199.488    9291.8947    1862.8926    78.677148 
   99900    921.87976   -121.64591   0.83413618   -120.81177   -9607.6073    4.2823403    4.2823403    4.2823403   -9607.6073    -27301.02     -5764.57    4242.7679    4120.7207    10371.045    3221.6309    78.531434 
  100000     1009.194   -121.72272   0.91313994   -120.80958    2366.7757     4.276756     4.276756     4.276756    2366.7757   -11702.976     43138.21   -24334.907    14347.995   -30251.319    47.986694    78.224614 
Loop time of 22.3945 on 1 procs for 100000 steps with 8 atoms

Pair  time (%) = 7.23079 (32.2883)
Kspce time (%) = 5.32315 (23.7699)
Neigh time (%) = 0 (0)
Comm  time (%) = 1.06879 (4.77257)
Outpt time (%) = 0.0264277 (0.11801)
Other time (%) = 8.74529 (39.0512)

Nlocal:    8 ave 8 max 8 min
Histogram: 1 0 0 0 0 0 0 0 0 0
Nghost:    2189 ave 2189 max 2189 min
Histogram: 1 0 0 0 0 0 0 0 0 0
Neighs:    2344 ave 2344 max 2344 min
Histogram: 1 0 0 0 0 0 0 0 0 0

Total # of neighbors = 2344
Ave neighs/atom = 293
Neighbor list builds = 0
Dangerous builds = 0
unfix 20
unfix 21
print "seeds:5667677"
seeds:5667677
