LAMMPS (10 Feb 2015)
# ---- initialize simulations
clear
units metal
dimension 3
boundary p p p
atom_style charge
atom_modify map array
# ---- create atoms
read_data /Users/eugeneragasa/pyflamestk_git/pypospack/tests/tests_integration/workflow/WorkflowLammpsThermalExpansion/param_4927/MgO_NaCl_unit.npt.T1200/lammps.structure
  triclinic box = (0 0 0) to (4.2565 4.2565 4.2565) with tilt (0 0 0)
  1 by 1 by 1 MPI processor grid
  reading atoms ...
  8 atoms
# ---- define interatomic potential
include potential.mod
mass 1 24.305
mass 2 15.999

group Mg type 1
4 atoms in group Mg
group O type 2
4 atoms in group O

set group Mg charge 1.66679564584
  4 settings made for charge
set group O charge -1.66679564584
  4 settings made for charge

variable R_cut equal 10.0

pair_style buck/coul/long ${R_cut}
pair_style buck/coul/long 10
pair_coeff 1 1 0.0 0.5 0.0 ${R_cut}
pair_coeff 1 1 0.0 0.5 0.0 10
pair_coeff 1 2 1241.53975785 0.290586946924 0.0 ${R_cut}
pair_coeff 1 2 1241.53975785 0.290586946924 0.0 10
pair_coeff 2 2 7336.97641517 0.111647641293 25.3936876208 ${R_cut}
pair_coeff 2 2 7336.97641517 0.111647641293 25.3936876208 10

kspace_style pppm 1.0e-5

neighbor 1.0 bin
neigh_modify every 1 delay 0 check yes
# ---- define settings
compute eng all pe/atom
compute eatoms all reduce sum c_eng
# ---- run minimization
reset_timestep 0
fix 1 all box/relax iso 0.0 vmax 0.001
thermo 10
thermo_style custom step pe lx ly lz xy xz yz press pxx pyy pzz pxy pxz pyz c_eatoms
min_style cg
minimize 1e-25 1e-25 5000 10000
PPPM initialization ...
  G vector (1/distance) = 0.352901
  grid = 8 8 8
  stencil order = 5
  estimated absolute RMS force accuracy = 3.98348e-05
  estimated relative force accuracy = 2.76637e-06
  using double precision FFTs
  3d grid and FFT values/proc = 3375 512
Neighbor list info ...
  1 neighbor list requests
  update every 1 steps, delay 0 steps, check yes
  master list distance cutoff = 11
Memory usage per processor = 4.06549 Mbytes
Step PotEng Lx Ly Lz Xy Xz Yz Press Pxx Pyy Pzz Pxy Pxz Pyz eatoms 
       0    -112.5899       4.2565       4.2565       4.2565            0            0            0    58061.201    58061.201    58061.201    58061.201 6.8070985e-11 -1.221979e-10 1.2952011e-11    -112.5899 
      10   -112.63526     4.299065     4.299065     4.299065            0            0            0    6762.9013    6762.9013    6762.9013    6762.9013 -3.6532134e-11 6.5076144e-11 2.4224675e-10   -112.63526 
      13     -112.636    4.3051131    4.3051131    4.3051131            0            0            0   -6.5125139   -6.5125139   -6.5125139   -6.5125139 2.4815902e-11 -1.1583773e-10 3.0521581e-11     -112.636 
Loop time of 0.0113389 on 1 procs for 13 steps with 8 atoms

Minimization stats:
  Stopping criterion = linesearch alpha is zero
  Energy initial, next-to-last, final = 
        -112.589903458     -112.636003249     -112.636003249
  Force two-norm initial, final = 8.38407 0.00186563
  Force max component initial, final = 8.38407 0.000962014
  Final line search alpha, max atom move = 0.00390625 3.75787e-06
  Iterations, force evaluations = 13 30

Pair  time (%) = 0.0031414 (27.7045)
Kspce time (%) = 0.00194693 (17.1703)
Neigh time (%) = 0 (0)
Comm  time (%) = 0.000393391 (3.46937)
Outpt time (%) = 2.19345e-05 (0.193444)
Other time (%) = 0.00583529 (51.4624)

Nlocal:    8 ave 8 max 8 min
Histogram: 1 0 0 0 0 0 0 0 0 0
Nghost:    2189 ave 2189 max 2189 min
Histogram: 1 0 0 0 0 0 0 0 0 0
Neighs:    2344 ave 2344 max 2344 min
Histogram: 1 0 0 0 0 0 0 0 0 0

Total # of neighbors = 2344
Ave neighs/atom = 293
Neighbor list builds = 0
Dangerous builds = 0
unfix 1
# ---- define output variables ----
variable natoms equal "count(all)"
variable tot_energy equal "c_eatoms"
variable length_x equal "lx"
variable length_y equal "ly"
variable length_z equal "lz"
variable tilt_xy equal "xy"
variable tilt_xz equal "xz"
variable tilt_yz equal "yz"
variable tot_press equal "press"
variable press_xx equal "pxx"
variable press_yy equal "pyy"
variable press_zz equal "pzz"
variable press_xy equal "pxy"
variable press_xz equal "pxz"
variable press_yz equal "pyz"

# ---- output ----
print "pypospack:output_section:begin"
pypospack:output_section:begin
print "tot_energy = ${tot_energy}"
tot_energy = -112.63600324896
print "num_atoms = ${natoms}"
num_atoms = 8
print "xx = ${length_x}"
xx = 4.30511307073731
print "yy = ${length_y}"
yy = 4.30511307073731
print "zz = ${length_z}"
zz = 4.30511307073731
print "xy = ${tilt_xy}"
xy = 0
print "xz = ${tilt_xz}"
xz = 0
print "yz = ${tilt_yz}"
yz = 0
print "tot_press = ${tot_press}"
tot_press = -6.51251387968517
print "pxx = ${press_xx}"
pxx = -6.51251387980119
print "pyy = ${press_yy}"
pyy = -6.51251387961014
print "pzz = ${press_zz}"
pzz = -6.51251387964418
print "pxy = ${press_xy}"
pxy = 2.48159019880152e-11
print "pxz = ${press_xz}"
pxz = -1.15837732664817e-10
print "pyz = ${press_yz}"
pyz = 3.05215812050655e-11
print "pypospack:output_section:done"
pypospack:output_section:done
print "pypospack:lammps_sim:done"
pypospack:lammps_sim:done
#------------------------------------------------------------------------------
# RUN THERMOSTAT
# running using an NPT Nose-Hoover style thermostat
#------------------------------------------------------------------------------
variable tempdamp equal 0.1
variable pressdamp equal 1.0
# set initial velocities
velocity all create 1200 8887600 mom yes dist gaussian loop all
# fix for Nose-Hoover style thermostat
fix 20 all npt temp 1200 1200 0.1 aniso 0.0 0.0 1.0 drag 1.0 couple xyz
variable boxx equal lx
variable boxy equal ly
variable boxz equal lz
variable boxp equal press
variable boxt equal temp
# calculate averages every 10000 steps
reset_timestep 0
fix 21 all ave/time 10 10 100 v_boxx v_boxy v_boxz v_boxp v_boxt file lattice.out
thermo_style custom step temp pe ke etotal press lx ly lz press pxx pyy pzz pxy pxz pyz vol
thermo_modify flush yes
thermo 100
run 100000
PPPM initialization ...
  G vector (1/distance) = 0.352409
  grid = 8 8 8
  stencil order = 5
  estimated absolute RMS force accuracy = 4.075e-05
  estimated relative force accuracy = 2.82993e-06
  using double precision FFTs
  3d grid and FFT values/proc = 3375 512
Memory usage per processor = 3.06549 Mbytes
Step Temp PotEng KinEng TotEng Press Lx Ly Lz Press Pxx Pyy Pzz Pxy Pxz Pyz Volume 
       0         1200   -112.63601    1.0857852   -111.55023    14526.817    4.3051131    4.3051131    4.3051131    14526.817    7444.6055    16270.204    19865.641    2631.6834    1108.6568   -5533.9062    79.790959 
     100     435.9868   -111.82865   0.39449002   -111.43416    11479.763    4.3466532    4.3466532    4.3466532    11479.763   -23881.228    21373.576    36946.942    1078.0655    4238.8978    544.66027    82.123034 
     200    689.48178   -111.73815   0.62385761    -111.1143   -21881.719    4.3869259    4.3869259    4.3869259   -21881.719   -49852.317   -13228.653   -2564.1859    2888.3957    3298.5835   -4265.1445    84.426908 
     300    1583.5993   -112.29064    1.4328739   -110.85777   -34728.119    4.3719664    4.3719664    4.3719664   -34728.119   -56843.244   -17773.533   -29567.581   -6032.0727   -3827.7431     7803.841    83.566159 
     400    218.31282   -110.85817   0.19753403   -110.66064    60340.811    4.3634082    4.3634082    4.3634082    60340.811    10383.103    79538.793    91100.536    3586.9759    3160.5672   -9192.8776    83.076372 
     500    1809.7205   -112.17451    1.6374732   -110.53704   -40623.911    4.3906787    4.3906787    4.3906787   -40623.911   -64991.656   -36020.423   -20859.652   -3619.2277    896.74465    7599.1917    84.643765 
     600    1055.1156   -111.41665   0.95469074   -110.46196   -7413.1566     4.405084     4.405084     4.405084   -7413.1566   -59759.466    26151.372    11368.625   -596.91284   -57.782353   -6261.2394    85.479621 
     700    182.91298   -110.60766   0.16550351   -110.44216    42916.746    4.3838255    4.3838255    4.3838255    42916.746   -49882.448    107725.33    70907.354    10209.241    8498.8911    3975.9168    84.248037 
     800    1147.7458    -111.5128    1.0385046   -110.47429    17845.163    4.3684277    4.3684277    4.3684277    17845.163   -22797.904    53471.948    22861.444    -9463.093   -5895.1834   -9855.3388    83.363409 
     900    1537.4645   -111.89695    1.3911302   -110.50582   -23808.292    4.3896392    4.3896392    4.3896392   -23808.292   -61168.528     18485.58   -28741.928     6220.475    4128.2856    1546.2736    84.583661 
    1000    1001.9821   -111.39651   0.90661447   -110.48989   -4144.2443     4.403584     4.403584     4.403584   -4144.2443   -37857.513    -7888.167    33312.947   -2438.8047   -2339.4559    4269.9566    85.392327 
    1100    1060.3172   -111.41907   0.95939726   -110.45967    4316.7315    4.3852166    4.3852166    4.3852166    4316.7315   -41247.419    83544.078   -29346.464    -3711.214   -1563.5829     4949.031    84.328262 
    1200    1154.1902   -111.50164    1.0443356    -110.4573    9546.6792     4.374352     4.374352     4.374352    9546.6792   -34919.384    36030.462     27528.96    4423.7483   -2627.2316    960.44599     83.70303 
    1300    1532.9359   -111.86363    1.3870326   -110.47659   -15205.313    4.3898149    4.3898149    4.3898149   -15205.313   -31966.382   -11218.236   -2431.3189    386.48819   -500.65487    4027.9312    84.593817 
    1400    1374.0247   -111.72835    1.2432464   -110.48511   -30550.247    4.3931066    4.3931066    4.3931066   -30550.247    -67319.35   -2098.4159   -22232.977    2820.9478     3844.809    3889.1593    84.784258 
    1500    1150.1583   -111.51729    1.0406874   -110.47661    9561.5296    4.3728024    4.3728024    4.3728024    9561.5296   -38135.279    29532.375    37287.493    728.02658   -1839.1016   -60.890395    83.614108 
    1600    808.69202   -111.21858   0.73172153   -110.48686    30622.898    4.3797474    4.3797474    4.3797474    30622.898    6746.5351    98240.817   -13118.657   -4443.1429    6754.1395   -4744.4092    84.013135 
    1700    1392.2258   -111.74475    1.2597151   -110.48504    -25880.52    4.3949285    4.3949285    4.3949285    -25880.52    -66066.99   -11977.753    403.18423    3570.8502    1612.4725      -5163.8    84.889785 
    1800     1714.077   -112.01165    1.5509329   -110.46071   -21573.206    4.3849886    4.3849886    4.3849886   -21573.206   -37981.217    13137.401   -39875.802    -889.8776    1758.3643   -2540.2639    84.315108 
    1900    877.88353   -111.26378   0.79432747   -110.46946    23060.407    4.3803764    4.3803764    4.3803764    23060.407     4912.159    37696.044    26573.019    -637.9619     1111.275   -4237.7871    84.049336 
    2000    1132.4158     -111.496    1.0246336   -110.47136    3169.9916    4.3828553    4.3828553    4.3828553    3169.9916   -52174.641    92121.493   -30436.877    6691.3073    774.37012    11573.273    84.192112 
    2100    1091.0023   -111.46466   0.98716178    -110.4775    3653.1469     4.386008     4.386008     4.386008    3653.1469    4946.3499   -244.52619    6257.6169    1511.0769   -2008.8806    187.95612    84.373925 
    2200    1672.9809   -111.98866    1.5137483   -110.47491   -29304.373    4.3841979    4.3841979    4.3841979   -29304.373   -60309.013   -15688.585   -11915.522    4107.7217    2789.6326    6672.6571    84.269505 
    2300    704.66114   -111.12041    0.6375922   -110.48282    17191.125    4.3819297    4.3819297    4.3819297    17191.125     5111.922     50925.28   -4463.8265   -1967.9656   -12220.996   -6978.2914     84.13878 
    2400     1385.524   -111.73252    1.2536513   -110.47887    -10188.67    4.3833666    4.3833666    4.3833666    -10188.67    -39052.78    15339.667   -6852.8969   -5919.5249    3960.4633    -7216.661    84.221578 
    2500    1318.7582   -111.66551    1.1932401   -110.47227   -14401.485    4.3884495    4.3884495    4.3884495   -14401.485   -11833.141    5633.0418   -37004.355    2653.5165   -8506.2374      555.473    84.514908 
    2600    1415.7753   -111.74945    1.2810232   -110.46842    484.40847     4.377385     4.377385     4.377385    484.40847   -23954.781    15866.866    9541.1405   -1607.0869    5258.6637   -3049.0147     83.87726 
    2700    967.09852   -111.35133   0.87505106   -110.47628    9895.2366    4.3750609    4.3750609    4.3750609    9895.2366   -10320.146     67287.36   -27281.505     -2939.05   -11476.302   -5827.9967    83.743731 
    2800    1038.6798   -111.41544   0.93981934   -110.47562    14883.946    4.3803301    4.3803301    4.3803301    14883.946   -40873.572    80808.844    4716.5649    3084.1221   -3235.9719    7833.7883    84.046671 
    2900     1556.038   -111.87086    1.4079359   -110.46292   -27577.244    4.3830825    4.3830825    4.3830825   -27577.244   -13816.958   -31213.018   -37701.755    5886.7759    692.33203   -8618.2481    84.205203 
    3000    803.19002   -111.19147   0.72674321   -110.46472    3785.0472    4.3749856    4.3749856    4.3749856    3785.0472   -9618.7381    20808.486    165.39408    3833.5879   -3449.3186     7807.945    83.739405 
    3100    1553.4571   -111.87058    1.4056006   -110.46498   -10482.338    4.3693336    4.3693336    4.3693336   -10482.338   -40265.182    41529.193   -32711.024   -8092.8966    3091.9076   -7284.6423    83.415279 
    3200    1241.8014   -111.59929     1.123608   -110.47568    7404.2171    4.3699354    4.3699354    4.3699354    7404.2171    18502.205    6452.0667   -2741.6206    1015.5897    774.34233    692.75319    83.449752 
    3300    1596.2614   -111.92658    1.4443308   -110.48225    -23593.38    4.3729191    4.3729191    4.3729191    -23593.38   -43761.357    20536.999   -47555.781     16350.18   -5602.1107   -5963.0754    83.620801 
    3400      605.923   -111.03641   0.54825186   -110.48816    23705.056    4.3773525    4.3773525    4.3773525    23705.056    20822.061    37194.292    13098.814   -11164.976    9952.9698    555.42216     83.87539 
    3500    1524.4274   -111.84607    1.3793339   -110.46673   -27033.585    4.3710784    4.3710784    4.3710784   -27033.585   -42577.509   -2827.8796   -35695.366   -2730.0471   -9054.7436    3187.8248    83.515251 
    3600    934.87233   -111.30846   0.84589213   -110.46257    12684.351    4.3672369    4.3672369    4.3672369    12684.351   -6587.1335    37967.686    6672.4991    571.37147     7428.483   -7782.7826    83.295251 
    3700    1474.6513   -111.79382    1.3342955   -110.45953   -5868.9275    4.3747836    4.3747836    4.3747836   -5868.9275   -33901.535    44498.541   -28203.789   -14733.359   -1294.9383     2345.429    83.727809 
    3800     820.1326   -111.19634   0.74207321   -110.45427    14965.597    4.3775512    4.3775512    4.3775512    14965.597    6340.5138    20756.488    17799.789    5519.5354   -2217.8951    7826.8101    83.886814 
    3900    1819.0219   -112.10092    1.6458892   -110.45503   -34442.807    4.3737323    4.3737323    4.3737323   -34442.807   -42394.449   -33111.405   -27822.569   -159.69516   -2202.1562   -3175.9592    83.667464 
    4000    1072.2625   -111.43968   0.97020566   -110.46948     26593.35    4.3653232    4.3653232    4.3653232     26593.35    6024.1534    39121.548    34634.348   -3991.0178   -6901.2958    5370.1165    83.185801 
    4100    816.15022   -111.22322   0.73846987   -110.48475     8068.255    4.3788429    4.3788429    4.3788429     8068.255   -5505.1578    44130.079   -14420.157   -3592.0017    3266.0584   -4887.7248    83.961096 
    4200    1711.8235   -112.00816    1.5488938   -110.45926   -22629.369    4.3826764    4.3826764    4.3826764   -22629.369   -8560.5756   -18091.589   -41235.942   -13342.877    2751.7911   -11506.488    84.181799 
    4300    1219.2918   -111.55619    1.1032408   -110.45295   -14471.601    4.3744571    4.3744571    4.3744571   -14471.601   -25670.891   -15570.674   -2173.2369    10872.438   -8684.7447    12689.247    83.709062 
    4400    654.06476   -111.04902   0.59181154   -110.45721    23749.273    4.3616911    4.3616911    4.3616911    23749.273    16070.993    69211.261   -14034.435    19303.373    560.32446   -16106.421    82.978335 
    4500    1326.4023   -111.67255    1.2001567   -110.47239   -11956.009    4.3750629    4.3750629    4.3750629   -11956.009   -27148.221   -24006.376    15286.571    654.69597    3393.7984    -202.6866    83.743847 
    4600    1380.2932   -111.71774    1.2489183   -110.46883   -24753.736    4.3829875    4.3829875    4.3829875   -24753.736   -17769.465   -27844.822    -28646.92    7589.1934    -5985.178    1364.3719    84.199732 
    4700    867.01878   -111.24729   0.78449681   -110.46279    11943.682    4.3661797    4.3661797    4.3661797    11943.682   -8528.4944    34895.284    9464.2579    8548.9618    8046.4685   -17223.999    83.234777 
    4800    1558.0637   -111.87088    1.4097688   -110.46111    7674.6076    4.3602058    4.3602058    4.3602058    7674.6076    20047.498    18723.059   -15746.734   -8718.3385   -3447.0275    17247.543    82.893595 
    4900    864.03883    -111.2492   0.78180049    -110.4674   -23534.752    4.3858685    4.3858685    4.3858685   -23534.752    -46267.03   -3941.6637   -20395.561    5704.0346    8090.2968   -11464.089    84.365877 
    5000    977.70051   -111.33999   0.88464396   -110.45535     12770.35    4.3721115    4.3721115    4.3721115     12770.35   -7944.6646    17625.464     28630.25    5675.1359   -6209.0534     3309.578    83.574481 
    5100    1860.3355   -112.12689    1.6832706   -110.44362    575.04189    4.3561525    4.3561525    4.3561525    575.04189    -9249.735    19826.903   -8852.0425   -11139.399   -428.00516   -7743.5803    82.662634 
    5200    904.33436   -111.28448   0.81826073   -110.46622    1405.7767    4.3787866    4.3787866    4.3787866    1405.7767    -23482.05     8269.489    19429.891    12797.693    3779.4282   -9926.7023    83.957859 
    5300     1364.729   -111.68391    1.2348355   -110.44908   -12554.174    4.3808196    4.3808196    4.3808196   -12554.174   -22903.853    20152.593   -34911.264   -7092.4156      1785.96   -6253.7146     84.07485 
    5400    876.68183   -111.24652   0.79324015   -110.45328    14851.363    4.3687835    4.3687835    4.3687835    14851.363    33283.538   -19110.311    30380.863    6310.9114   -1449.2536    3942.5136     83.38378 
    5500    1195.9349    -111.5434     1.082107   -110.46129   -4828.0195    4.3757137    4.3757137    4.3757137   -4828.0195   -21991.288   -3995.2411     11502.47   -8190.9792    4607.3342    277.69195    83.781221 
    5600    1697.0546   -111.99131    1.5355306   -110.45578   -6733.2028    4.3716047    4.3716047    4.3716047   -6733.2028    9745.4839   -3085.4578   -26859.635   -4028.6758   -12087.118   -7942.9816    83.545422 
    5700    1015.0836   -111.38314   0.91846899   -110.46467   -2461.4249    4.3716991    4.3716991    4.3716991   -2461.4249   -12720.677   -8012.8896    13349.292   -3451.7215    3373.8615    5334.1911    83.550835 
    5800     1125.998   -111.48062    1.0188266    -110.4618   -12630.966    4.3823197    4.3823197    4.3823197   -12630.966   -10427.863   -44822.797    17357.761   -2712.9507   -15.997983    2045.6077    84.161251 
    5900    1360.9741   -111.68375    1.2314379   -110.45231   -10194.928    4.3826968    4.3826968    4.3826968   -10194.928   -32256.197    36968.634   -35297.221   -5287.6899    5733.2528   -1444.0996    84.182975 
    6000     1437.017   -111.76289    1.3002432   -110.46265   -16220.702    4.3779318    4.3779318    4.3779318   -16220.702   -15834.752   -36014.883    3187.5277    9478.6346   -5007.4068      1936.68    83.908698 
    6100    820.14777   -111.21214   0.74208694   -110.47005    42956.293    4.3627249    4.3627249    4.3627249    42956.293      12757.8    37464.208    78646.872    9172.1214    8534.4191    -8058.476    83.037351 
    6200    1083.8784   -111.46662   0.98071596    -110.4859   -14619.698     4.372718     4.372718     4.372718   -14619.698   -6248.1045   -42723.388    5112.3974    -4215.474   -4854.1529   -577.38311    83.609269 
    6300    1360.2198     -111.701    1.2307555   -110.47025   -25471.234    4.3865355    4.3865355    4.3865355   -25471.234    4220.2511   -45160.045   -35473.908    17532.194   -1315.3794    4930.8605    84.404374 
    6400    1164.2091   -111.49139    1.0534009   -110.43799    13832.576    4.3841762    4.3841762    4.3841762    13832.576   -23898.678    13515.224    51881.183    3016.7888    1054.6447    345.57651    84.268258 
    6500    1144.9252   -111.46136    1.0359524   -110.42541   -13045.869    4.3843846    4.3843846    4.3843846   -13045.869    8401.8146   -29492.202   -18047.218   -16958.601    -1911.677     993.5543    84.280271 
    6600    1234.7013   -111.53993    1.1171837   -110.42275    21923.999    4.3678662    4.3678662    4.3678662    21923.999    35540.367   -5838.3706        36070   -577.32561   -3127.1288    4537.1394    83.331266 
    6700    1369.6479     -111.683    1.2392862   -110.44371   -9690.3015    4.3734404    4.3734404    4.3734404   -9690.3015    4268.1474    -14777.54   -18561.512     5324.492   -5944.6217   -3249.2089    83.650709 
    6800    847.25841   -111.21622   0.76661722    -110.4496     7888.159    4.3867616    4.3867616    4.3867616     7888.159    44727.317   -32691.384    11628.544    2909.1823    -5957.319    7009.2011    84.417424 
    6900    1708.7362   -111.98346    1.5461005   -110.43736    -9449.357    4.3710817    4.3710817    4.3710817    -9449.357   -16342.418    4571.9042   -16577.557    9807.5623    9298.4006   -7256.7359    83.515442 
    7000    716.02319   -111.10423   0.64787283   -110.45635    12103.046     4.367488     4.367488     4.367488    12103.046    15520.349   -5479.7735    26268.562   -13220.357    4993.8698    2210.4658    83.309622 
    7100    1303.5495   -111.63751     1.179479   -110.45803   -6163.4458     4.375236     4.375236     4.375236   -6163.4458    5266.3326   -48035.034    24278.364    8018.7995    989.17292    696.04261    83.753785 
    7200    1559.3354   -111.86695    1.4109195   -110.45603   -13362.872     4.375572     4.375572     4.375572   -13362.872    10771.792   -9120.5635   -41739.845   -1630.5823   -11555.785   -2980.8592    83.773084 
    7300    708.18749    -111.1046   0.64078292   -110.46382    30194.882    4.3770502    4.3770502    4.3770502    30194.882    80572.921   -610.56756    10622.293     2366.034    1314.5065    4195.9805    83.858018 
    7400    1631.1515   -111.92363    1.4759002   -110.44773   -33682.713    4.3788228    4.3788228    4.3788228   -33682.713   -25047.829   -47428.151   -28572.158   -9823.8324   -6363.9011    10406.127    83.959937 
    7500    1127.4408   -111.46069    1.0201321   -110.44056    6933.4381     4.364236     4.364236     4.364236    6933.4381   -21206.824   -16899.335    58906.474    3875.5924    6507.0315   -2365.5064    83.123666 
    7600    1106.3512    -111.4581    1.0010498   -110.45705   -1395.3864    4.3695343    4.3695343    4.3695343   -1395.3864    31915.191   -24884.618   -11216.732   -4034.9302    8361.5412    7350.7839    83.426774 
    7700     1601.145   -111.90566    1.4487497   -110.45691   -22044.203    4.3771917    4.3771917    4.3771917   -22044.203   -4917.2248   -32663.414   -28551.971   -5651.6497    2287.2201    12283.386    83.866148 
    7800    1035.4657   -111.40652   0.93691116   -110.46961    1198.3231    4.3733465    4.3733465    4.3733465    1198.3231    10183.495   -50571.526    43983.001    4370.9572     15861.39   -11587.158    83.645323 
    7900    860.25285   -111.25036   0.77837486   -110.47199    12959.859    4.3659403    4.3659403    4.3659403    12959.859    -20190.11   -20373.332     79443.02    6039.2448   -7050.8545   -313.70915    83.221088 
    8000    1577.9393   -111.90076    1.4277526   -110.47301   -32427.952    4.3776358    4.3776358    4.3776358   -32427.952   -14303.392   -64330.594   -18649.871    1345.6809    3898.4408    6202.9146    83.891676 
    8100    898.50069   -111.27625   0.81298231   -110.46327     13519.85    4.3780629    4.3780629    4.3780629     13519.85    4267.2868   -27697.668    63989.933    11.307385    -18575.99    -1378.914    83.916236 
    8200     1385.929   -111.70773    1.2540177   -110.45371   -4491.8802    4.3573542    4.3573542    4.3573542   -4491.8802   -3868.2151   -24086.093    14478.667    722.65876   -1111.3665   -864.67317    82.731059 
    8300    1102.1337   -111.46783   0.99723374    -110.4706    10851.424    4.3626672    4.3626672    4.3626672    10851.424    25031.644   -35982.904    43505.532   -1611.3542    8531.9212    2679.7147    83.034054 
    8400    1497.4314   -111.82086    1.3549074   -110.46595    -44244.32    4.3843543    4.3843543    4.3843543    -44244.32    -59046.34   -44027.267   -29659.352   -836.57213   -9667.7014    -10813.85    84.278526 
    8500    1113.6301   -111.46884    1.0076359    -110.4612    11119.287    4.3622657    4.3622657    4.3622657    11119.287   -4615.6241   -18075.577    56049.063    10691.891    10011.658    9387.9641    83.011131 
    8600    1271.2828   -111.61316    1.1502834   -110.46287    12155.741    4.3593371    4.3593371    4.3593371    12155.741    7016.6701   -24659.804    54110.357   -926.56568     6093.206   -2601.6388    82.844055 
    8700    1578.1088   -111.88005     1.427906   -110.45214   -24679.409    4.3753417    4.3753417    4.3753417   -24679.409   -18421.716   -33483.294   -22133.217   -7047.1638   -9827.1067    6750.0847    83.759856 
    8800    871.82549     -111.222   0.78884603   -110.43315    15597.971    4.3717739    4.3717739    4.3717739    15597.971   -26836.434   -18817.509    92447.856    8356.5543    8254.0382    2291.7482    83.555123 
    8900    1209.5673    -111.5231    1.0944419   -110.42866    -7293.586    4.3669868    4.3669868    4.3669868    -7293.586    30762.836   -34685.864    -17957.73    303.91571   -12389.987    8374.5964    83.280943 
    9000     1297.388   -111.61437     1.173904   -110.44047   -3622.4097    4.3715328    4.3715328    4.3715328   -3622.4097    -18794.67   -26380.898    34308.338   -2158.1992   -958.79064   -2439.7143      83.5413 
    9100    1335.4817   -111.64575    1.2083719   -110.43738    1857.7881     4.376227     4.376227     4.376227    1857.7881    19194.247   -21408.617    7787.7338    4616.8683   -1903.1612    8591.7524    83.810713 
    9200    1219.4122   -111.53336    1.1033498   -110.43001   -4536.5815    4.3649376    4.3649376    4.3649376   -4536.5815   -33267.088    18454.096    1203.2478    4780.3244   -7266.9171   -3165.1687    83.163758 
    9300    841.74195   -111.20382   0.76162581   -110.44219    20237.467    4.3612387    4.3612387    4.3612387    20237.467   -10053.159    17467.993    53297.569    14133.262    785.69489   -17687.863     82.95252 
    9400    670.50672   -111.07534   0.60668857   -110.46865    14213.935     4.378379     4.378379     4.378379    14213.935   -26451.116   -21448.661    90541.581   -3604.5619    3382.5729    13478.734    83.934412 
    9500    1504.1294   -111.82835    1.3609679   -110.46738   -10698.465     4.368936     4.368936     4.368936   -10698.465   -12528.055   -30040.266    10472.924    1821.6398   -5464.1389   -9949.2182    83.392513 
    9600    1567.3734   -111.88987    1.4181924   -110.47168   -994.33696    4.3599895    4.3599895    4.3599895   -994.33696   -28065.486   -10222.801    35305.276    9707.8241    12416.607     15016.37     82.88126 
    9700    1370.1927   -111.72042    1.2397792   -110.48064   -18162.014    4.3778243    4.3778243    4.3778243   -18162.014   -26772.225   -13661.514   -14052.303   -4129.5411    -3248.236   -1032.3782    83.902515 
    9800    493.70834   -110.91332   0.44671769    -110.4666    63.665377    4.3806305    4.3806305    4.3806305    63.665377   -33636.284    -10548.33    44375.611   -3288.0082    7812.9235    3572.1051    84.063964 
    9900    1466.7853   -111.77023    1.3271782   -110.44305   -2051.7987    4.3576459    4.3576459    4.3576459   -2051.7987   -25783.113    -24023.73    43651.447    699.68647    19597.916   -5047.3825    82.747675 
   10000    1584.8988   -111.88837    1.4340497   -110.45432   -1470.5183    4.3625076    4.3625076    4.3625076   -1470.5183   -21081.949    8510.3851    8160.0086    169.55222   -22898.769    10034.326    83.024944 
   10100      1173.35   -111.52655    1.0616717   -110.46488    -18378.14    4.3845544    4.3845544    4.3845544    -18378.14   -66208.328   -25008.462     36082.37    5910.8417    2670.0365    9661.7311    84.290068 
   10200    720.26838    -111.1082   0.65171397   -110.45649    8482.6671    4.3807759    4.3807759    4.3807759    8482.6671   -57344.492   -3686.2997    86478.793   -5745.0343   -11657.949   -7575.1869    84.072337 
   10300    1129.3707   -111.47407    1.0218783    -110.4522     8533.017    4.3633093    4.3633093    4.3633093     8533.017   -9612.0173    9423.2285     25787.84    2564.4069    8179.9934    12896.606    83.070724 
   10400     1753.644   -112.04579     1.586734   -110.45905   -8483.7524    4.3637711    4.3637711    4.3637711   -8483.7524   -30119.736    17783.923   -13115.444    243.20903   -2843.4272   -10847.826    83.097103 
   10500    905.53151   -111.28312   0.81934394   -110.46378    298.98419    4.3765815    4.3765815    4.3765815    298.98419   -58269.471    34971.009    24195.414    404.41494   -7403.4872    1293.7687     83.83108 
   10600    743.76003   -111.12157    0.6729697    -110.4486    4117.9521    4.3773361    4.3773361    4.3773361    4117.9521   -46496.345    34099.236    24750.965   -368.85138   -4337.7129    2916.2752    83.874451 
   10700    1603.9404   -111.87998    1.4512789    -110.4287   -11897.475    4.3737823    4.3737823    4.3737823   -11897.475   -4214.3609    6652.3437   -38130.407    1987.9477    -7286.882   -673.50802    83.670332 
   10800    992.12005   -111.33288   0.89769107   -110.43519    21540.552    4.3665497    4.3665497    4.3665497    21540.552   -31816.675    35605.446    60832.884   -2185.0875    11927.569    5848.2491     83.25594 
   10900    948.24577   -111.30838    0.8579927   -110.45039    11866.988    4.3708313    4.3708313    4.3708313    11866.988   -22104.209   -4315.6704    62020.844   -11763.648   -4122.1214    1563.9473    83.501088 
   11000    1096.0897   -111.43706   0.99176499   -110.44529   -15342.857    4.3822719    4.3822719    4.3822719   -15342.857   -19807.671    4434.1647   -30655.064    9818.8006    -561.9634    647.29148    84.158493 
   11100    1136.2488   -111.46233    1.0281018   -110.43423    8343.7338     4.368822     4.368822     4.368822    8343.7338   -3414.2425   -4737.7311    33183.175   -10779.183    6333.3222    -3273.969    83.385983 
   11200    1376.7329   -111.69488    1.2456969   -110.44918    12663.938    4.3696476    4.3696476    4.3696476    12663.938    35828.245   -18909.754    21073.324    7834.0996   -10646.163   -8760.7523    83.433266 
   11300    1343.5428   -111.67485    1.2156657   -110.45919    -31152.36    4.3795946    4.3795946    4.3795946    -31152.36   -56208.978   -4857.5822   -32390.519    16416.561   -3373.0092    10361.626    84.004344 
   11400    1067.2682   -111.42193   0.96568672   -110.45624   -6860.5949    4.3676091    4.3676091    4.3676091   -6860.5949    -22247.13   -30586.074    32251.419     424.5238    1740.4026   -4136.3014    83.316553 
   11500    913.80718    -111.2975   0.82683194   -110.47066    14148.063    4.3718274    4.3718274    4.3718274    14148.063   -36460.621    18386.689    60518.123    2197.3926   -6349.8074    3150.6292    83.558191 
   11600    1358.6956   -111.69325    1.2293763   -110.46387   -13034.902    4.3818757    4.3818757    4.3818757   -13034.902   -19674.873   -5308.0869   -14121.746    2968.0858   -14275.118    3589.9132    84.135669 
   11700    1367.0522   -111.67708    1.2369376   -110.44014   -3537.9958      4.37857      4.37857      4.37857   -3537.9958   -26028.394   -11913.501    27327.908    6034.8182    13000.907   -2357.2234      83.9454 
   11800    742.90718   -111.11562   0.67219803   -110.44342    11618.419    4.3782119    4.3782119    4.3782119    11618.419   -26545.208    10537.278    50863.188    12511.582   -17810.081    7814.5189    83.924805 
   11900     1386.961   -111.69384    1.2549515   -110.43889   -7459.9612    4.3737136    4.3737136    4.3737136   -7459.9612   -14773.696   -11030.852    3424.6645    10016.175    10538.561   -184.80523    83.666389 
   12000     1764.969   -112.04572    1.5969811   -110.44874    -17791.66    4.3805702    4.3805702    4.3805702    -17791.66    -28696.08   -2327.9662   -22350.933    2219.4972   -14425.882   -5305.0909    84.060493 
   12100    1059.7974   -111.40893   0.95892697   -110.45001   -286.23142     4.388662     4.388662     4.388662   -286.23142   -40737.584   -9105.8894    48984.779    625.87569   -857.18104    10881.325    84.527184 
   12200    836.91349   -111.19089   0.75725691   -110.43364    6420.5068    4.3805722    4.3805722    4.3805722    6420.5068    15910.507   -32026.259    35377.272   -93.479543   -3625.7866    3429.2786    84.060607 
   12300    1705.0513   -111.96543    1.5427662   -110.42267   -24674.385    4.3754806    4.3754806    4.3754806   -24674.385   -52953.089    -35851.74    14781.673   -6219.9902    248.95097    6910.6705    83.767834 
   12400    1571.9085   -111.85534    1.4222958   -110.43305   -33812.615    4.3867914    4.3867914    4.3867914   -33812.615   -6774.3761   -60029.909   -34633.561   -9636.0691    5161.5788   -10136.426    84.419143 
   12500    1163.5741   -111.48049    1.0528263   -110.42766    720.20994    4.3753237    4.3753237    4.3753237    720.20994   -13337.011   -25684.489     41182.13   -688.25182   -13237.599    914.47824    83.758821 
   12600    1326.7097   -111.62807    1.2004348   -110.42764    -2716.502     4.366724     4.366724     4.366724    -2716.502   -23112.478   -5991.4923    20954.464   -8480.6518   -724.44904     5899.887    83.265911 
   12700    1410.7117   -111.72256    1.2764416   -110.44612    -25044.44    4.3784228    4.3784228    4.3784228    -25044.44    -14845.61   -44434.405   -15853.305   -7616.9728    2388.3098    3815.2939    83.936932 
   12800    993.53095   -111.34349   0.89896768   -110.44452    6743.0067    4.3789276    4.3789276    4.3789276    6743.0067    35011.225   -36675.438    21893.233   -5165.5248    15434.601   -7572.8882    83.965964 
   12900    1443.3237   -111.74077    1.3059496   -110.43482   -5489.8395    4.3728342    4.3728342    4.3728342   -5489.8395    7404.1394   -7633.1808   -16240.477    -18935.86   -7487.6128    3218.5718    83.615929 
   13000    763.51694   -111.12575   0.69084617    -110.4349    24838.388    4.3683761    4.3683761    4.3683761    24838.388    57573.328   -16274.302    33216.137    9494.4256   -10200.166   -6422.0002    83.360456 
   13100    1453.0922   -111.74697    1.3147883   -110.43218   -24582.197    4.3750704    4.3750704    4.3750704   -24582.197   -14570.765   -20114.347   -39061.479    571.99313    4959.4297    8138.9867    83.744274 
   13200    1090.8602   -111.43457   0.98703319   -110.44754   -7978.2341    4.3812312    4.3812312    4.3812312   -7978.2341   -40312.917   -4653.6997    21031.915    4966.8164    2397.0199    6128.4022    84.098554 
   13300     1199.725   -111.53973    1.0855364   -110.45419   -7542.5049    4.3719965    4.3719965    4.3719965   -7542.5049    46541.016   -42439.709   -26728.822    6907.8334    2769.3659   -10598.134    83.567887 
   13400    871.79364   -111.25799    0.7888172   -110.46917    33763.913     4.363502     4.363502     4.363502    33763.913    71292.719   -7226.7952    37225.817    9416.9321    11401.673   -8662.1423    83.081731 
   13500    1286.9886   -111.64494    1.1644944   -110.48044   -14146.444    4.3827117    4.3827117    4.3827117   -14146.444    15643.611   -15578.207   -42504.737    1702.0387    7608.4257   -2775.1252    84.183838 
   13600    906.53451   -111.27968   0.82025147   -110.45943   -11204.518    4.3895083    4.3895083    4.3895083   -11204.518   -35547.219   -12501.999    14435.665   -1024.9071    1053.4089   -10728.448    84.576091 
   13700    979.22175   -111.32052   0.88602042    -110.4345      28789.7    4.3654612    4.3654612    4.3654612      28789.7    109611.07   -2249.7753   -20992.195   -1330.5952    9429.6862   -5173.7769    83.193692 
   13800    792.26179   -111.17691   0.71685511   -110.46005     17495.73    4.3691536    4.3691536    4.3691536     17495.73    45847.318   -10640.849     17280.72    5629.1622    7804.7224   -5140.3644    83.404971 
   13900     1690.632   -111.98672    1.5297193     -110.457   -25559.718    4.3831257    4.3831257    4.3831257   -25559.718   -34642.491   -22674.386   -19362.276    15631.958   -4070.9716    -9788.442    84.207692 
   14000    1304.1114    -111.6312    1.1799874   -110.45121   -5196.6187    4.3827816    4.3827816    4.3827816   -5196.6187   -11982.164     9864.556   -13472.248   -2015.8688    15344.953   -13855.273    84.187866 
   14100     885.3651   -111.25131   0.80109695   -110.45021    14404.178    4.3706036    4.3706036    4.3706036    14404.178    58035.895   -15532.648    709.28654   -9699.1525   -4050.6103    4156.8994    83.488036 
   14200    924.27996   -111.28653   0.83630793   -110.45023    7056.8974    4.3709881    4.3709881    4.3709881    7056.8974   -31604.373    7365.9048     45409.16   -12684.435    2160.3764    16473.981    83.510073 
   14300    1394.5632   -111.70907    1.2618301   -110.44724   -5467.2071    4.3805052    4.3805052    4.3805052   -5467.2071    29332.476   -21329.815   -24404.282    3867.6794     9216.188    3141.2234    84.056751 
   14400    1405.1061   -111.71237    1.2713695     -110.441   -34295.837    4.3906158    4.3906158    4.3906158   -34295.837   -59596.779   -50324.801    7034.0686    3121.5779   -9197.9099    -5885.938    84.640129 
   14500    600.76829   -110.98881   0.54358778   -110.44522    28320.288    4.3697276    4.3697276    4.3697276    28320.288    6437.2455    16929.554    61594.064   -8335.3548    6461.6669   -3163.5202     83.43785 
   14600    1447.5209   -111.76218    1.3097473   -110.45244   -3970.6519    4.3648156    4.3648156    4.3648156   -3970.6519   -11600.216   -2738.4679    2426.7285   -50.501167   -6813.0992   -8541.2126    83.156788 
   14700    1118.9887   -111.47958    1.0124845    -110.4671   -13207.819    4.3881612    4.3881612    4.3881612   -13207.819    17997.312   -32271.401   -25349.368    9021.4771     8373.267   -6091.7216    84.498248 
   14800    1017.8233   -111.37275   0.92094788   -110.45181    18546.166    4.3769118    4.3769118    4.3769118    18546.166    1775.6628     11053.77    42809.065    2960.9331   -13481.527    14306.641    83.850062 
   14900    1642.0009   -111.93273    1.4857169   -110.44702   -6297.7607    4.3593344    4.3593344    4.3593344   -6297.7607    16463.383   -28047.001   -7309.6634    4928.6995     13340.74   -783.99805    82.843902 
   15000      1002.33   -111.38874   0.90692921   -110.48181   -25397.895    4.3800368    4.3800368    4.3800368   -25397.895   -8805.7366   -40079.558    -27308.39   -8403.4127   -7898.0699    6968.4275    84.029792 
   15100    859.35412   -111.23978   0.77756167   -110.46222    20143.961    4.3796336    4.3796336    4.3796336    20143.961    33097.889   -6094.8531    33428.846   -263.04669   -4975.4124    -11191.19    84.006588 
   15200     1673.468   -111.96628     1.514189   -110.45209   -21435.758    4.3720041    4.3720041    4.3720041   -21435.758   -40037.678   -10887.495   -13382.102    5019.5518    4315.7004    -4916.556     83.56832 
   15300     1032.694    -111.4011   0.93440325   -110.46669    1498.5656    4.3724557    4.3724557    4.3724557    1498.5656    7324.8603   -17766.673    14937.509    12317.254   -20356.518   -1961.9514    83.594223 
   15400    1500.0719   -111.81761    1.3572966   -110.46031   -12074.773    4.3749864    4.3749864    4.3749864   -12074.773   -27522.098   -34186.888    25484.668    9121.9955     3850.599   -3150.5605    83.739453 
   15500    1228.0899   -111.56832    1.1112015   -110.45711   -12016.379    4.3752457    4.3752457    4.3752457   -12016.379   -18457.781    3268.6986   -20860.056    110.36502   -49.411801   -679.65778    83.754344 
   15600    924.77642    -111.2921   0.83675714   -110.45534    27366.254    4.3723562    4.3723562    4.3723562    27366.254    35655.252   -16731.891    63175.401    8811.1228    270.05387   -3723.0464    83.588515 
   15700    1587.4478   -111.88493    1.4363562   -110.44857   -23547.906     4.383388     4.383388     4.383388   -23547.906   -24661.097   -36210.819   -9771.8026    1682.0717    8543.8922    4571.3238    84.222815 
   15800    891.02699    -111.2432   0.80621995   -110.43698    9794.3792    4.3883017    4.3883017    4.3883017    9794.3792    27495.853   -110.35687    1997.6411   -158.23238    3090.2579    1869.9304    84.506368 
   15900    1436.8706   -111.71412    1.3001107   -110.41401   -6487.1914    4.3813536    4.3813536    4.3813536   -6487.1914   -8323.7174    6696.8853   -17834.742   -5997.4891     7480.996    4208.1129    84.105601 
   16000    1280.8769    -111.5714    1.1589643   -110.41243   -544.46343    4.3719384    4.3719384    4.3719384   -544.46343   -13796.655   -13451.353    25614.618   -7026.8812   -4134.3266    2290.1351    83.564557 
   16100    1067.2182   -111.40364   0.96564147     -110.438   -1887.7563    4.3830185    4.3830185    4.3830185   -1887.7563   -25667.566    6701.1643    13303.133   -5858.5871    5585.4234    15046.816    84.201515 
   16200    1368.6679   -111.67038    1.2383995   -110.43198   -8692.9814    4.3897371    4.3897371    4.3897371   -8692.9814    8721.4935   -4477.6054   -30322.832   -8645.0315    9016.8293   -5774.6418    84.589318 
   16300     1008.266   -111.34676   0.91230023   -110.43446    13346.467    4.3753351    4.3753351    4.3753351    13346.467    14463.542   -23145.647    48721.506   -9585.4576   -8329.7667   -13544.482    83.759477 
   16400    1220.3726   -111.54143    1.1042188   -110.43721    15742.267    4.3726138    4.3726138    4.3726138    15742.267   -12755.242    10101.596    49880.446   -20654.878   -1248.6455    2279.6759    83.603292 
   16500    1415.1659   -111.71846    1.2804719   -110.43799   -17250.326    4.3882942    4.3882942    4.3882942   -17250.326   -16741.047    4469.1779   -39479.108    -5129.345   -11324.386    12269.241    84.505933 
   16600     937.2681   -111.27564   0.84805987   -110.42758    12734.251    4.3763119    4.3763119    4.3763119    12734.251   -15995.741    12666.806    41531.687   -4038.6896    10586.524   -619.88605    83.815589 
   16700    976.04482   -111.31533   0.88314587   -110.43218    15466.738    4.3735272    4.3735272    4.3735272    15466.738    31084.795   -4137.3471    19452.766   -9060.0156    7963.9755   -1435.4409     83.65569 
   16800    1372.5248   -111.67649    1.2418893    -110.4346   -13420.159    4.3799233    4.3799233    4.3799233   -13420.159   -42410.164     8529.347   -6379.6603    -12490.91   -10688.408    17794.308    84.023256 
   16900    678.16813   -111.06136   0.61362078   -110.44774    14974.963    4.3747248    4.3747248    4.3747248    14974.963   -9762.3632   -612.28619    55299.538   -15123.493    15958.665    11701.721    83.724431 
   17000    1223.2956   -111.55427    1.1068636   -110.44741    17731.005     4.369226     4.369226     4.369226    17731.005     19205.54     9451.826    24535.649   -4827.9884   -7921.1126   -3471.6103    83.409115 
   17100    1083.1752   -111.42394    0.9800797   -110.44386    9347.7332    4.3804449    4.3804449    4.3804449    9347.7332   -26644.192    14822.116    39865.276   -10249.058    6659.6147    6697.0017    84.053282 
   17200    896.55766   -111.24397   0.81122421   -110.43274    7512.8826    4.3893639    4.3893639    4.3893639    7512.8826    14188.361   -13603.711    21953.998    4732.5655    14012.315    4139.7579     84.56775 
   17300    1750.4956   -111.99958    1.5838852   -110.41569   -21937.246    4.3763919    4.3763919    4.3763919   -21937.246   -45768.607   -9069.1377   -10973.992   -1269.0782   -1753.6887   -5759.6697    83.820188 
   17400    793.97323   -111.14812   0.71840366   -110.42972    19856.323    4.3672033    4.3672033    4.3672033    19856.323   -8103.4936    25447.062      42225.4   -4923.4133    3557.8066   -11161.852     83.29333 
   17500    1237.7799   -111.56182    1.1199693   -110.44185    -13838.46    4.3812714    4.3812714    4.3812714    -13838.46   -23356.526   -42181.932    24023.079   -4788.0504    11522.245    22270.302    84.100867 
   17600    1035.7012   -111.36645   0.93712421   -110.42933    4813.3027    4.3866794    4.3866794    4.3866794    4813.3027    4106.8578   -42412.931    52745.981   -4713.0026   -921.57122    419.29844     84.41268 
   17700    1179.8071   -111.48871    1.0675143    -110.4212   -1411.1639    4.3756256    4.3756256    4.3756256   -1411.1639   -35621.594   -35718.322    67106.425   -5524.3422    3456.7603    13924.729    83.776163 
   17800    1224.5293   -111.53761    1.1079799   -110.42963    4834.2595     4.364369     4.364369     4.364369    4834.2595    -9043.453    3143.2203    20403.011   -3264.1813    2020.6075   -3878.9291    83.131267 
   17900    1433.0417    -111.7472    1.2966463   -110.45056   -5438.6829    4.3740845    4.3740845    4.3740845   -5438.6829    6787.1855    -21810.77   -1292.4638   -8580.8376    1209.2055   -4979.8562    83.687676 
   18000    1099.2138   -111.44016   0.99459179   -110.44557   -15995.472    4.3955665    4.3955665    4.3955665   -15995.472    -60639.86   -41308.034    53961.477    414.20583   -7172.0063   -2708.8121    84.926759 
   18100    1183.3375   -111.49338    1.0707087   -110.42267    4425.6234    4.3806401    4.3806401    4.3806401    4425.6234   -20774.991   -28443.151    62495.012    -4029.703   -2627.4877   -22913.865    84.064515 
   18200    1122.3815   -111.43198    1.0155544   -110.41642    28544.367    4.3604567    4.3604567    4.3604567    28544.367   -12507.539    46812.964    51327.676    182.75773   -12842.069   -5695.2918    82.907903 
   18300    1425.9678   -111.73093    1.2902457   -110.44068   -18307.305    4.3744974    4.3744974    4.3744974   -18307.305   -51465.457   -23936.324    20479.866    8553.7771    6726.6827    16311.339    83.711376 
   18400     1234.825   -111.55804    1.1172956   -110.44074   -14748.682    4.3913172    4.3913172    4.3913172   -14748.682   -41368.971   -45040.761    42163.687    217.08179     3667.908    3129.4576    84.680698 
   18500     1016.138   -111.35239   0.91942303   -110.43296   -10422.378    4.3847786    4.3847786    4.3847786   -10422.378   -46663.332    3009.5526    12386.646   -3699.6294   -14270.094    1994.2528    84.302993 
   18600    972.92039   -111.32515   0.88031881   -110.44483    22998.732    4.3644067    4.3644067    4.3644067    22998.732   -48387.721    14141.773    103242.14   -939.18209    6194.0734   -11638.908    83.133419 
   18700     1539.111   -111.84757      1.39262   -110.45495    9334.8435    4.3662581    4.3662581    4.3662581    9334.8435   -15486.914   -10764.486     54255.93     9967.895   -7039.7975   -7822.2857    83.239261 
   18800     1339.178   -111.67143    1.2117164   -110.45971    -8732.963    4.3813167    4.3813167    4.3813167    -8732.963   -20408.972   -29178.502    23388.585    3988.7979    2857.9073   -537.63284    84.103474 
   18900     1192.353   -111.51985    1.0788661   -110.44098   -31462.424    4.3924265    4.3924265    4.3924265   -31462.424   -58770.461   -46802.353    11185.541    2177.6713    5790.1463    18511.024    84.744885 
   19000    753.86101   -111.10987   0.68210928   -110.42776    34309.388    4.3664679    4.3664679    4.3664679    34309.388   -44041.532   -1331.4696    148301.17   -361.80544    1469.6007    20948.997    83.251261 
   19100    1148.3045   -111.48779      1.03901   -110.44878    14776.805    4.3636377    4.3636377    4.3636377    14776.805    18074.413    16347.879    9908.1222    552.85932   -8640.0559    11873.923    83.089484 
   19200    1421.1137   -111.73263    1.2858535   -110.44677   -12691.328    4.3881209    4.3881209    4.3881209   -12691.328   -40166.728     246.5711    1846.1729   -1893.0165    23641.581   -3024.1476     84.49592 
   19300    1069.1933   -111.39065   0.96742855   -110.42322   -10835.134    4.3839725    4.3839725    4.3839725   -10835.134   -35390.368   -17669.983    20554.949   -2788.3285    3390.1832   -4921.9438    84.256511 
   19400    1229.3023   -111.51844    1.1122985   -110.40615   -20623.006    4.3657163    4.3657163    4.3657163   -20623.006   -34190.958    8632.0544   -36310.115    137.32824   -12650.284   -8550.2457    83.208276 
   19500    946.70244   -111.28075   0.85659627   -110.42415    35584.791    4.3618206    4.3618206    4.3618206    35584.791    28317.237   -6113.1682    84550.305   -5924.5312     22757.25    155.21678    82.985727 
   19600    1555.7237   -111.85819    1.4076515   -110.45054   -34413.839    4.3845415    4.3845415    4.3845415   -34413.839   -54631.372   -50023.872    1413.7257   -4492.8636   -6724.9068    -15984.74    84.289319 
   19700    1014.6679   -111.36232   0.91809285   -110.44422    4554.8323    4.3752152    4.3752152    4.3752152    4554.8323    13849.944   -22780.526    22595.079     3144.504   -44.648362   -13758.315    83.752594 
   19800    1293.2424   -111.59949    1.1701529   -110.42934    11377.811    4.3548653    4.3548653    4.3548653    11377.811    4676.7375   -22143.254    51599.949    -2914.591    -9601.926    9404.6855    82.589373 
   19900    1131.7237   -111.47383    1.0240074   -110.44982   -26289.095    4.3672028    4.3672028    4.3672028   -26289.095   -36121.735   -34931.708   -7813.8419   -9996.4112   -5645.0138    -622.3952    83.293302 
   20000    1163.6221   -111.49652    1.0528698   -110.44365    4178.2101    4.3722319    4.3722319    4.3722319    4178.2101   -21757.184   -33766.288    68058.102   -900.19613    269.43043     3371.333    83.581385 
   20100    1061.1455   -111.40245   0.96014676    -110.4423   -622.50228    4.3757941    4.3757941    4.3757941   -622.50228   -9517.8795   -33587.209    41237.581    941.62399    552.46038    5987.2484    83.785842 
   20200    1353.5597   -111.67019    1.2247293   -110.44546   -18319.912    4.3672944    4.3672944    4.3672944   -18319.912   -55675.485   -52128.872    52844.622   -15099.576    291.88386    612.76653    83.298542 
   20300    1478.0108   -111.79918    1.3373352   -110.46185   -4067.8214    4.3630801    4.3630801    4.3630801   -4067.8214    9245.6042   -18155.315   -3293.7533    5310.7247   -12944.123   -4354.1689    83.057636 
   20400    839.73706    -111.2304   0.75981174   -110.47059     24887.91    4.3707606    4.3707606    4.3707606     24887.91   -27318.091    5364.7488    96617.071    5589.3349    8285.0702   -2535.0446    83.497038 
   20500    1482.8846    -111.7966    1.3417451   -110.45486   -26160.713    4.3798839    4.3798839    4.3798839   -26160.713   -33734.225   -33469.802   -11278.113   -3803.8853    1704.8954    334.06299    84.020988 
   20600    1259.9198   -111.58231    1.1400019   -110.44231   -5325.0431    4.3630212    4.3630212    4.3630212   -5325.0431   -5721.8272    -9882.978   -370.32393   -1756.5511   -9977.0226   -12827.928    83.054269 
   20700    1137.3435   -111.48084    1.0290923   -110.45175    16625.845    4.3578513    4.3578513    4.3578513    16625.845   -31724.016    13608.352    67993.198   -4577.1466    17497.845    15404.591     82.75938 
   20800     1249.465   -111.58595    1.1305422   -110.45541   -11234.126    4.3848552    4.3848552    4.3848552   -11234.126   -52455.222   -18873.239    37626.083     4663.753   -4051.8382   -664.90826    84.307416 
   20900    1478.5579   -111.77262    1.3378302   -110.43479   -4905.0563    4.3700093    4.3700093    4.3700093   -4905.0563   -19179.897    -18204.24    22668.969   -1892.4185   -7260.7847   -8440.1914    83.453986 
   21000    960.75837   -111.30187   0.86931436   -110.43256      21070.1    4.3635135    4.3635135    4.3635135      21070.1   -5726.1527    59367.795    9568.6579   -2898.3825    1621.9947    1420.5455    83.082391 
   21100    1284.2883   -111.60022     1.162051   -110.43816   -19873.692    4.3767891    4.3767891    4.3767891   -19873.692   -30841.281   -24817.175   -3962.6201   -1554.9196   -12834.946   -22609.119    83.843009 
   21200    1237.7758    -111.5546    1.1199656   -110.43463    -2932.552    4.3702579    4.3702579    4.3702579    -2932.552   -44764.459    36772.411   -805.60705   -12495.376    9487.2422   -8062.6749    83.468227 
   21300    1522.3477   -111.80978    1.3774522   -110.43233    3748.3096    4.3696237    4.3696237    4.3696237    3748.3096   -26772.939    20027.679    17990.189    3991.3339    9250.7737    3815.7611    83.431896 
   21400    1312.7614   -111.61815    1.1878141   -110.43034   -1521.2649    4.3691774    4.3691774    4.3691774   -1521.2649   -19840.152   -272.78716    15549.145   -476.66054   -5508.6272    7423.5821    83.406333 
   21500    640.03479   -111.01751   0.57911693    -110.4384    6063.7864    4.3714013    4.3714013    4.3714013    6063.7864   -33293.793    58052.488   -6567.3353   -3159.3592    3577.5066   -16645.653     83.53376 
   21600    1187.8436    -111.5119    1.0747859   -110.43711     5965.751    4.3680106    4.3680106    4.3680106     5965.751   -27646.502    11719.941    33823.813    2641.2413    22557.968    6304.4162    83.339528 
   21700    1327.2659   -111.64976     1.200938   -110.44882    8255.1027    4.3664393    4.3664393    4.3664393    8255.1027   -25580.149    23570.319    26775.138   -13946.271    3628.3563   -12169.057    83.249624 
   21800    1116.1361   -111.46613    1.0099034   -110.45622   -6690.0731    4.3797939    4.3797939    4.3797939   -6690.0731   -40532.457   -18186.239    38648.477   -6086.0607   -2902.9307     7843.201    84.015809 
   21900    1753.7839   -112.02998    1.5868605   -110.44312   -23415.403    4.3599549    4.3599549    4.3599549   -23415.403   -49980.145   -10076.497   -10189.568    6921.6912   -1020.5341    2266.3433    82.879283 
   22000    317.21489   -110.74738    0.2870227   -110.46036    35249.884    4.3556188    4.3556188    4.3556188    35249.884   -9636.4363    7341.9595    108044.13    -11061.94   -2760.9433    1073.4084    82.632252 
   22100    1686.7494   -111.97989    1.5262063   -110.45369   -24598.337    4.3740717    4.3740717    4.3740717   -24598.337   -15118.184   -34168.854   -24507.974    8311.0968   -9509.8226   -5703.5385    83.686939 
   22200    942.33681   -111.29863   0.85264615   -110.44599    25114.695    4.3709624    4.3709624    4.3709624    25114.695   -14673.822    24083.616     65934.29    986.64358    2953.6699    10243.672      83.5086 
   22300    1531.4918   -111.82354     1.385726   -110.43782   -7455.5295    4.3580952    4.3580952    4.3580952   -7455.5295   -2753.2272    -26119.99    6506.6287    4364.7938    1913.3421    -18687.83    82.773274 
   22400    958.41287   -111.31734   0.86719211   -110.45015    16598.824    4.3674376    4.3674376    4.3674376    16598.824   -47996.964    39116.612    58676.824    5092.1236    9360.6882    10958.738    83.306737 
   22500    1364.1223   -111.67392    1.2342865   -110.43963   -24575.449     4.377583     4.377583     4.377583   -24575.449   -43970.337   -10148.686   -19607.326   -6941.3166    11541.812    6281.9692    83.888641 
   22600    1330.1956   -111.63664    1.2035889   -110.43305   -896.50517    4.3626831    4.3626831    4.3626831   -896.50517    5429.4088   -23230.949    15112.025    1041.5498   -9914.2095   -11319.007    83.034962 
   22700    1072.8568   -111.41268   0.97074336   -110.44194    26365.952    4.3573094    4.3573094    4.3573094    26365.952   -29717.599    45310.273    63505.181    5491.1036   -8157.5995   -571.69049    82.728507 
   22800    1403.4352   -111.71673    1.2698577   -110.44688   -36099.352    4.3757026    4.3757026    4.3757026   -36099.352   -69847.376   -36358.352   -2092.3268   -6349.2709    12701.301    1322.0323    83.780586 
   22900    1134.1137   -111.45808    1.0261699   -110.43191   -15117.454    4.3657925    4.3657925    4.3657925   -15117.454   -41526.954   -9837.0112    6011.6017    8842.2167   -7107.8391   -24448.158    83.212633 
   23000    1437.4605   -111.72772    1.3006445   -110.42708    19274.945    4.3526792    4.3526792    4.3526792    19274.945    32948.397   -9892.8244    34769.261   -1543.4196   -11406.176   -3155.8838    82.465059 
   23100    1385.5169    -111.7024    1.2536448   -110.44875   -4219.2619    4.3738176    4.3738176    4.3738176   -4219.2619   -20892.214   -25003.749    33238.177    1023.5619   -8551.3984      -5568.3    83.672356 
   23200    1180.4301    -111.5102     1.068078   -110.44212   -26235.298    4.3784632    4.3784632    4.3784632   -26235.298    6150.8652   -56283.741   -28573.019    9088.9661   -16978.398   -14960.663    83.939258 
   23300    1113.6393   -111.43448    1.0076443   -110.42683    17793.732    4.3569671    4.3569671    4.3569671    17793.732   -3006.5741    19805.947    36581.822   -837.98382   -2536.6279   -5544.2054    82.709015 
   23400    1505.6321    -111.7983    1.3623275   -110.43597   -17770.744    4.3573017    4.3573017    4.3573017   -17770.744   -29113.754   -17648.121   -6550.3562    7313.8089   -6656.5419   -1764.1598    82.728069 
   23500    1040.3932   -111.39003   0.94136962   -110.44866   -7019.9526    4.3825335    4.3825335    4.3825335   -7019.9526   -12263.506   -12761.414    3965.0618    -1603.626   -849.91526   -12319.997    84.173568 
   23600    1767.3219   -112.02578      1.59911   -110.42667   -20726.274    4.3786546    4.3786546    4.3786546   -20726.274   -17455.265   -16964.934   -27758.621    3313.9047    8016.0766    9137.6324    83.950265 
   23700    769.86933   -111.11663   0.69659395   -110.42003    1034.5475    4.3599921    4.3599921    4.3599921    1034.5475   -11286.799   -2930.0994    17320.541    4108.3887    762.98467   -16577.654    82.881403 
   23800    1151.1792    -111.4642    1.0416112   -110.42259    7128.3946    4.3569166    4.3569166    4.3569166    7128.3946    49535.378   -6892.8645    -21257.33    6269.7772   -1981.4391   -9358.3331    82.706138 
   23900    1157.1126    -111.4805    1.0469798   -110.43352    3739.5244    4.3750892    4.3750892    4.3750892    3739.5244     -4478.92   -12126.682    27824.175   -1487.5008    7739.4019    3082.0608    83.745357 
   24000     1292.751   -111.59729    1.1697083   -110.42758   -4106.5629    4.3716166    4.3716166    4.3716166   -4106.5629    10760.498   -11943.085   -11137.101   -5141.4999   -9131.4303   -13462.442    83.546104 
   24100    999.77026   -111.32905   0.90461314   -110.42443    39164.542    4.3637383    4.3637383    4.3637383    39164.542    37006.913    42287.713        38199   -4433.6389   -1374.3413    15059.746    83.095231 
   24200    1160.3865   -111.48081    1.0499421   -110.43086   -18718.175    4.3693939    4.3693939    4.3693939   -18718.175   -40580.513    18520.914   -34094.926   -11185.136    10233.194   -12901.269    83.418732 
   24300    678.09376   -111.04793   0.61355349   -110.43438    10586.211    4.3641928    4.3641928    4.3641928    10586.211   -39765.257    41673.473    29850.416    7483.3354   -7273.0049    709.84346    83.121195 
   24400    1797.4069   -112.05852    1.6263315   -110.43219   -3883.9999    4.3634177    4.3634177    4.3634177   -3883.9999   -6892.4676    10775.836   -15535.368   -962.68067    4946.4542   -4475.9538    83.076917 
   24500    1107.5397   -111.44774    1.0021252   -110.44562   -3007.9045    4.3709087    4.3709087    4.3709087   -3007.9045   -12745.394   -15384.697    19106.378   -2451.1432    2563.7438   -11886.981    83.505523 
   24600    873.38058   -111.23001    0.7902531   -110.43976    5120.4213    4.3742856    4.3742856    4.3742856    5120.4213   -47985.606    68894.612   -5547.7424    13863.232    2056.8663   -6652.5124     83.69922 
   24700    1209.6118   -111.52788    1.0944822   -110.43339   -8916.5797    4.3759955    4.3759955    4.3759955   -8916.5797   -11042.493   -13497.441   -2209.8045     10119.58    7789.7375   -2775.6151    83.797409 
   24800    798.72265   -111.15224   0.72270104   -110.42954    16858.592    4.3700229    4.3700229    4.3700229    16858.592    17410.011     27298.18    5867.5841   -6289.6945   -2991.0402    8248.2535    83.454763 
   24900    1861.7889   -112.10564    1.6845857   -110.42106   -13770.398    4.3706353    4.3706353    4.3706353   -13770.398   -13761.611   -19066.414   -8483.1683    14569.795   -9966.7367   -245.32962    83.489857 
   25000    1151.9613   -111.47396    1.0423188   -110.43164    4941.2816    4.3720794    4.3720794    4.3720794    4941.2816   -27646.892    58392.665   -15921.928   -1073.1458   -12590.844    5672.6322    83.572637 
   25100    693.93975    -111.0664   0.62789127   -110.43851    15739.209     4.363845     4.363845     4.363845    15739.209   -28656.185    11231.469    64642.342   -5517.2954   -5515.8534     -11651.7    83.101323 
   25200    1300.6492   -111.61558    1.1768547   -110.43873   -2523.1676    4.3751922    4.3751922    4.3751922   -2523.1676   -34137.563    38948.535   -12380.474    7921.0168   -379.96204   -7331.5215    83.751271 
   25300    1681.9173   -111.94967    1.5218341   -110.42784   -34102.089    4.3800069    4.3800069    4.3800069   -34102.089   -19105.268   -29451.474   -53749.524   -13237.816   -22083.219    2323.9091    84.028068 
   25400    1335.3604   -111.62944    1.2082622   -110.42118    18973.776    4.3540496    4.3540496    4.3540496    18973.776   -19786.035     59363.49    17343.872   -3518.0162   -8135.7333   -11147.959    82.542974 
   25500    1054.5209   -111.39631   0.95415264   -110.44216    9002.1979    4.3649882    4.3649882    4.3649882    9002.1979   -33252.901    13001.558    47257.937    2658.1752    4706.4318   -4051.6205    83.166653 
   25600    1396.0931   -111.69606    1.2632144   -110.43285   -46052.148     4.379107     4.379107     4.379107   -46052.148   -70793.139   -25736.072   -41627.231   -9315.9506   -15243.302    7070.6598    83.976287 
   25700    1194.1894   -111.50196    1.0805276   -110.42143    20252.567    4.3681373    4.3681373    4.3681373    20252.567   -6860.2971    15596.758     52021.24   -10675.798   -3820.5263   -15670.088    83.346781 
   25800     1140.552   -111.45019    1.0319954    -110.4182    16181.993    4.3750464    4.3750464    4.3750464    16181.993   -2100.0775    40184.392    10461.664   -1403.6922    6311.7267   -16310.927    83.742897 
   25900    1350.0574   -111.63182    1.2215603   -110.41026   -24486.091    4.3691226    4.3691226    4.3691226   -24486.091   -29404.513   -20151.155   -23902.606    9854.7334   -776.75761   -3514.0678    83.403199 
   26000    724.32208   -111.07541   0.65538184   -110.42003     38145.39    4.3566607    4.3566607    4.3566607     38145.39    2847.9331    53907.056    57681.181    8676.3187    7363.4076   -5552.3458    82.691565 
   26100    1241.7546   -111.55938    1.1235656   -110.43581   -11610.489    4.3777387    4.3777387    4.3777387   -11610.489   -36856.723   -8336.9314    10362.188   -5884.5518   -7838.9385   -2975.0154    83.897592 
   26200    1361.2708   -111.65606    1.2317065   -110.42435   -5137.6956    4.3756409    4.3756409    4.3756409   -5137.6956   -34478.098    23326.918   -4261.9073   -2336.2457      8566.83   -18351.581    83.777044 
   26300    991.74052   -111.31514   0.89734767   -110.41779    31226.134    4.3645732    4.3645732    4.3645732    31226.134    4525.4249    55877.685    33275.291    7005.9628    7056.4526   -8715.8836    83.142932 
   26400    1423.9261   -111.70594    1.2883982   -110.41754   -23259.151    4.3705032    4.3705032    4.3705032   -23259.151   -33492.322   -8544.0592   -27741.073   -1170.2685   -14121.404   -12101.753    83.482283 
   26500    894.56183   -111.23002   0.80941835    -110.4206   -11002.341     4.372715     4.372715     4.372715   -11002.341   -35361.152    18173.506   -15819.378   -935.91444    11237.612   -9247.6198    83.609093 
   26600    1383.5311   -111.67305     1.251848    -110.4212   -8393.4512    4.3718313    4.3718313    4.3718313   -8393.4512   -34598.632    24867.207   -15448.929    7438.4285   -11212.725    11004.695    83.558412 
   26700    1401.3068   -111.68825    1.2679319   -110.42032   -9609.1298    4.3727724    4.3727724    4.3727724   -9609.1298   -8266.1812   -5731.5186    -14829.69    4122.4246   -8612.1756   -17039.904    83.612386 
   26800     1359.986   -111.64691     1.230544   -110.41637   -14628.577    4.3639834    4.3639834    4.3639834   -14628.577   -28554.744    23267.936   -38598.922   -10097.644    1808.0253    5235.4346    83.109233 
   26900    967.61543   -111.30729   0.87551878   -110.43177    3036.0081    4.3659033    4.3659033    4.3659033    3036.0081   -45707.579    60162.363   -5346.7598   -11458.216   -15576.421    3938.8122    83.218972 
   27000    1223.0311    -111.5431    1.1066242   -110.43647   -17190.846     4.380812     4.380812     4.380812   -17190.846    2627.1355   -22732.906   -31466.766    1404.4114    8911.5181     5741.811    84.074416 
   27100    1515.9748   -111.79953    1.3716859   -110.42785   -15279.324     4.372031     4.372031     4.372031   -15279.324   -20889.116   -25123.045    174.18901   -14766.481    -19003.56     4310.132    83.569866 
   27200    1212.0694   -111.52549    1.0967059   -110.42878    11274.808    4.3658184    4.3658184    4.3658184    11274.808    16104.123    41638.426   -23918.126    5528.3872   -11520.173   -16214.836    83.214116 
   27300    914.40678   -111.25659   0.82737447   -110.42922    434.24883    4.3724652    4.3724652    4.3724652    434.24883   -7056.7157    454.13464    7905.3275    1821.4628   -773.35816   -28626.922    83.594769 
   27400    1226.3309   -111.53492    1.1096099   -110.42531   -15052.583    4.3723132    4.3723132    4.3723132   -15052.583   -52120.396    14966.182   -8003.5347   -2394.8438    -15867.04    8626.3985    83.586048 
   27500    1233.0008   -111.53963     1.115645   -110.42398    -10604.55    4.3767181    4.3767181    4.3767181    -10604.55    39031.981   -34784.014   -36061.618    8640.5778   -10453.964    1051.0082    83.838929 
   27600    1126.6323   -111.44121    1.0194006   -110.42181    16738.685    4.3606172    4.3606172    4.3606172    16738.685    40597.496   -9057.9459    18676.507    3973.0098   -4247.7274   -16921.874     82.91706 
   27700    1300.5423   -111.61093     1.176758   -110.43417     12550.05    4.3609961    4.3609961    4.3609961     12550.05    39500.214    1189.5921   -3039.6546   -932.40413    3494.3206    1687.3003    82.938673 
   27800    1202.1445   -111.52423    1.0877256   -110.43651    -34199.87    4.3851082    4.3851082    4.3851082    -34199.87    -33475.16   -30932.565   -38191.885    250.16246    5250.0123   -4954.1136    84.322009 
   27900    903.98621   -111.24692   0.81794572   -110.42898    21304.689    4.3665094    4.3665094    4.3665094    21304.689    56293.056   -12633.798    20254.809    -9124.439    5050.7506   -9277.2316    83.253635 
   28000    1311.8912   -111.62195    1.1870267   -110.43492    15308.933    4.3626743    4.3626743    4.3626743    15308.933   -9554.6047    28149.585    27331.818   -928.50347   -14232.168   -12442.751    83.034462 
   28100    1500.0823   -111.79662     1.357306   -110.43932    -18031.95    4.3825771    4.3825771    4.3825771    -18031.95   -17323.894   -36651.114   -120.84132    8990.9546    21132.301   -1410.3927    84.176082 
   28200    1217.4701   -111.51822    1.1015926   -110.41662    1499.3135    4.3751137    4.3751137    4.3751137    1499.3135    4629.3099   -780.27535     648.9059   -1526.6481    2957.9597   -8312.7924    83.746761 
   28300     986.0986   -111.30199   0.89224273   -110.40974    9577.9235    4.3680776    4.3680776    4.3680776    9577.9235   -47098.762    27347.653    48484.879    2538.9004   -2586.4897   -15771.564    83.343368 
   28400    1443.8668   -111.73175     1.306441   -110.42531   -21425.659     4.378996     4.378996     4.378996   -21425.659   -46315.478   -18068.959      107.459     12602.56    20870.285    18283.013    83.969903 
   28500    1653.8825   -111.91806    1.4964677   -110.42159   -3371.3502    4.3743216    4.3743216    4.3743216   -3371.3502   -4086.4375   -4863.2115   -1164.4017    10651.371    4900.7916   -2924.0949    83.701285 
   28600     824.5327    -111.1716   0.74605451   -110.42555    21792.773    4.3742911    4.3742911    4.3742911    21792.773   -24445.658    53029.698    36794.277    5286.5752    958.98443    3570.7782    83.699536 
   28700    1283.8703   -111.57808    1.1616728   -110.41641   -19891.245    4.3786356    4.3786356    4.3786356   -19891.245   -55187.405   -3550.8865    -935.4428    2955.7937    10901.001   -5844.6384    83.949173 
   28800    1400.9869   -111.68194    1.2676424    -110.4143   -9940.8832    4.3710378    4.3710378    4.3710378   -9940.8832   -24248.416    16275.845   -21850.078    17333.182    4209.1843    -8349.038    83.512921 
   28900    929.66707   -111.26505    0.8411823   -110.42387    27269.032    4.3662387    4.3662387    4.3662387    27269.032   -13190.732    66224.178    28773.651    3870.1381   -8944.5536   -16167.632    83.238148 
   29000     1490.115   -111.78314    1.3482873   -110.43486   -4862.7946    4.3745142    4.3745142    4.3745142   -4862.7946   -39223.221    4089.2438    20545.593    -6728.002   -8225.4972    7577.8161     83.71234 
   29100    1163.9368   -111.48961    1.0531545   -110.43646    1998.8197    4.3752093    4.3752093    4.3752093    1998.8197    -38328.23    56075.909   -11751.219   -5005.5549   -1062.2511   -3950.6089    83.752251 
   29200    726.58178   -111.10042   0.65742646   -110.44299   -14.862995    4.3760773    4.3760773    4.3760773   -14.862995   -69842.224    16687.841    53109.794    3866.2823   -1409.0381    8493.3993    83.802112 
   29300    1650.2036    -111.9264    1.4931389   -110.43326   -3831.5461    4.3648994    4.3648994    4.3648994   -3831.5461   -10484.514    3253.6725   -4263.7969   -5575.1149    3050.0735    13299.058    83.161577 
   29400     1085.677   -111.42606   0.98234333   -110.44372    10120.375    4.3590552    4.3590552    4.3590552    10120.375   -17689.742    3364.8124    44686.056    778.30081    3484.1385    -22561.17    82.827988 
   29500    1262.0332    -111.5957    1.1419141   -110.45378   -21471.804    4.3694187    4.3694187    4.3694187   -21471.804   -73505.899    13097.358   -4006.8697    3260.2027    -2759.227      7027.91    83.420154 
   29600    985.82182   -111.32887    0.8919923   -110.43687      2195.65    4.3790975    4.3790975    4.3790975      2195.65   -40230.127   -5018.4796    51835.556   -4196.6951    5182.4674   -17870.164    83.975742 
   29700    1116.6643   -111.43765    1.0103814   -110.42727   -11545.561    4.3724464    4.3724464    4.3724464   -11545.561   -13069.925   -10399.164   -11167.595    1649.9534    6337.5266   -18885.277    83.593685 
   29800    1672.0258   -111.93219    1.5128841    -110.4193    6684.2387      4.35587      4.35587      4.35587    6684.2387   -25457.074    23061.799    22447.991   -7813.9291   -7058.0957    3575.6047    82.646552 
   29900    1253.2421   -111.57604    1.1339598   -110.44208   -11098.369     4.373308     4.373308     4.373308   -11098.369   -35609.293   -10039.862    12354.047   -4530.5464    3250.6776    5168.7669    83.643114 
   30000    1016.3339   -111.35031   0.91960029   -110.43071   -35768.869    4.3842528    4.3842528    4.3842528   -35768.869   -61204.276   -14037.429   -32064.901    13298.492   -2712.4878   -13682.453    84.272669 
   30100    1223.9724   -111.52809     1.107476   -110.42061     22047.28    4.3589013    4.3589013    4.3589013     22047.28   -8935.1501    9058.3433    66018.648   -7517.9163   -6405.2573    -3743.475    82.819216 
   30200    1319.5188   -111.63748    1.1939284   -110.44356    8098.4225    4.3519695    4.3519695    4.3519695    8098.4225    1650.5391     3414.893    19229.835    14107.338    5110.3522    15633.384    82.424727 
   30300    1459.1513   -111.78477    1.3202708    -110.4645   -23396.144    4.3745288    4.3745288    4.3745288   -23396.144   -28325.873    -54544.96    12682.399    17163.646   -8671.0654   -8256.0604     83.71318 
   30400    933.23195   -111.28987   0.84440788   -110.44546   -13454.367    4.3928631    4.3928631    4.3928631   -13454.367   -51161.079   -27621.959    38419.936      2893.27   -24113.094    6418.6052    84.770159 
   30500    1046.0097   -111.37656   0.94645158   -110.43011   -22800.839    4.3734846    4.3734846    4.3734846   -22800.839   -15306.837   -31332.683   -21762.997     6262.039    7632.3443   -20451.544    83.653247 
   30600    1087.3521   -111.40151   0.98385903   -110.41766    30741.658    4.3464483    4.3464483    4.3464483    30741.658    13100.905     20311.98    58812.088    14484.726    3499.0918   -18029.557     82.11142 
   30700    1198.2574     -111.536    1.0842085   -110.45179    5007.0172    4.3698227    4.3698227    4.3698227    5007.0172    2526.8903   -34852.403    47346.564    6606.4533    1847.2764    7820.7357    83.443294 
   30800    1192.4011   -111.53449    1.0789095   -110.45558   -61918.665     4.389467     4.389467     4.389467   -61918.665   -69661.257   -69538.143   -46556.596    9107.5963    11994.089   -11794.055    84.573708 
   30900    1101.1937   -111.44711    0.9963832   -110.45073    15301.987    4.3468674    4.3468674    4.3468674    15301.987   -10008.708   -4493.7151    60408.385     10425.84     5995.736   -5778.8137    82.135174 
   31000    1089.1685   -111.43911    0.9855025    -110.4536    37472.191    4.3414316    4.3414316    4.3414316    37472.191    7409.1889   -6516.7686    111524.15   -6492.6887   -16895.591    8381.2432    81.827424 
   31100    1138.8454   -111.49099    1.0304512   -110.46054   -54098.174    4.3863878    4.3863878    4.3863878   -54098.174   -62886.453   -80866.157   -18541.912    10792.371    13741.154   -10309.059    84.395847 
   31200    1179.6375   -111.50707    1.0673608   -110.43971    -63.25382    4.3713564    4.3713564    4.3713564    -63.25382   -8745.9257   -30743.174    39299.338     5014.316    -10063.48   -7830.7797    83.531188 
   31300    819.27681   -111.17475   0.74129887   -110.43345    59878.853    4.3375628    4.3375628    4.3375628    59878.853    39391.663    30043.014    110201.88    13628.601    8971.4627   -4346.5073     81.60886 
   31400    1132.7583   -111.49275    1.0249435   -110.46781   -21388.084     4.365202     4.365202     4.365202   -21388.084   -36841.188   -31034.883     3711.819   -2979.8018   -977.74731   -17377.088    83.178873 
   31500    1699.0934   -111.98219    1.5373754   -110.44481   -33721.213    4.3777166    4.3777166    4.3777166   -33721.213   -23551.809   -45724.351    -31887.48    1186.7388       3103.5     6937.306    83.896321 
   31600    917.03971   -111.27216    0.8297568    -110.4424    24882.896    4.3539752    4.3539752    4.3539752    24882.896    31576.239    6687.3039    36385.147    10772.964   -119.88966   -646.06586    82.538744 
   31700    1473.8605   -111.77795      1.33358   -110.44437   -11528.325    4.3605995    4.3605995    4.3605995   -11528.325   -30134.192    5987.6745   -10438.459    3002.9727    4858.8289    3831.7926    82.916049 
   31800    1325.9131   -111.63233     1.199714   -110.43261    12036.143    4.3699884    4.3699884    4.3699884    12036.143    35594.969   -20864.968    21378.426    862.57807   -1055.3546     3155.513    83.452788 
   31900    1119.6078   -111.44716    1.0130447   -110.43412   -13129.248    4.3645338    4.3645338    4.3645338   -13129.248   -31100.231    -35914.34    27626.828    8726.7566    1908.3646   -3318.4883     83.14068 
   32000    959.09714   -111.30833   0.86781125   -110.44052    4702.6083    4.3552659    4.3552659    4.3552659    4702.6083    15890.632   -17086.275    15303.468   -5187.1548    6895.7045   -14041.715    82.612168 
   32100    1364.7196   -111.67893     1.234827    -110.4441    7260.0077    4.3539114    4.3539114    4.3539114    7260.0077    4159.4131   -13911.664    31532.274      3346.62   -5160.0899    1946.6981    82.535114 
   32200    1419.8705   -111.73223    1.2847286    -110.4475   -14536.947    4.3705105    4.3705105    4.3705105   -14536.947    9701.0758   -22458.941   -30852.975    1471.3152    7961.9344   -15695.724    83.482704 
   32300    1194.2578   -111.51136    1.0805895   -110.43077   -2984.0586    4.3752547    4.3752547    4.3752547   -2984.0586   -14831.043   -1476.6461    7355.5133   -6000.2809    7818.6508    -10153.01    83.754862 
   32400    932.18258   -111.26212   0.84345839   -110.41866   -84.079451    4.3580089    4.3580089    4.3580089   -84.079451    18377.784   -54564.654    35934.632    19663.137   -1041.3331    1003.6186    82.768355 
   32500    923.96491   -111.26225   0.83602287   -110.42622    12361.952    4.3494605    4.3494605    4.3494605    12361.952    26219.865   -37488.253    48354.244   -9879.4261    8828.5413   -7329.1903     82.28225 
   32600    1145.4652   -111.48098     1.036441   -110.44454   -6778.4067    4.3648936    4.3648936    4.3648936   -6778.4067    -14172.26   -19695.189    13532.229    25250.727    5930.0518    7524.8687    83.161248 
   32700    1312.1525   -111.62582    1.1872631   -110.43856   -9236.8615    4.3678568    4.3678568    4.3678568   -9236.8615   -18364.981   -870.38773   -8475.2158    25225.116   -1280.7162   -13538.591    83.330728 
   32800    1056.4638   -111.38427   0.95591063   -110.42836    11692.147     4.351345     4.351345     4.351345    11692.147    14047.384   -13697.462    34726.519   -1816.3522    575.08669   -1522.6509    82.389248 
   32900     843.7136   -111.19957    0.7634098   -110.43616   -2418.6852    4.3633497    4.3633497    4.3633497   -2418.6852   -19269.824     3570.231    8443.5377    27393.382    1384.3691    11023.153    83.073033 
   33000    1100.6016   -111.41798   0.99584745   -110.42214   -4793.8213    4.3723023    4.3723023    4.3723023   -4793.8213   -1530.5554    -1105.328    -11745.58    9295.8092   -5454.7164   -11662.117     83.58542 
   33100    998.00686   -111.31915   0.90301758   -110.41613    26799.359    4.3561495    4.3561495    4.3561495    26799.359    17273.445    34078.692     29045.94    15890.259     4572.685    4361.4064    82.662459 
   33200    1622.2309   -111.89505    1.4678286   -110.42722   -9094.8949    4.3568247    4.3568247    4.3568247   -9094.8949   -16094.111    22056.575   -33247.149    13440.245    8172.2856    4401.2543    82.700902 
   33300    871.68611   -111.22772   0.78871991     -110.439   -3863.1845    4.3673962    4.3673962    4.3673962   -3863.1845    33810.934   -22334.816   -23065.671   -3438.1078    5170.4039   -19513.139    83.304369 
   33400    1073.1298   -111.40112   0.97099036   -110.43012   -9099.5934    4.3715016    4.3715016    4.3715016   -9099.5934    -9820.906   -16281.172   -1196.7024     5012.092    4085.1459    11859.389    83.539509 
   33500    1249.6765   -111.55242    1.1307336   -110.42168    2527.1011    4.3628536    4.3628536    4.3628536    2527.1011    4481.3977    18200.604   -15100.698   -6850.1621   -1969.2788      -4184.7    83.044702 
   33600    1858.0848    -112.0933    1.6812341   -110.41207   -4539.5838    4.3438258    4.3438258    4.3438258   -4539.5838   -755.08334    9330.5104   -22194.178    2360.6115    14388.536   -16647.404    81.962876 
   33700    1091.2038   -111.42742   0.98734415   -110.44007      16780.5    4.3623414    4.3623414    4.3623414      16780.5    24757.274    15826.904    9757.3203     10427.82    2785.3694    4732.6446    83.015455 
   33800    1255.6331   -111.56411    1.1361232   -110.42799   -46395.437    4.3831188    4.3831188    4.3831188   -46395.437   -27499.737    -83745.22   -27941.355   -12639.406    1073.9024   -13634.281      84.2073 
   33900    1256.4537   -111.55102    1.1368657   -110.41415   -1078.0505    4.3566362    4.3566362    4.3566362   -1078.0505    31807.508   -19039.088   -16002.572    11148.561    9500.3377   -7071.4493    82.690169 
   34000     1391.871   -111.68331    1.2593942   -110.42391    10934.025    4.3558595    4.3558595    4.3558595    10934.025    24896.928    6321.2131    1583.9333   -12386.371    238.21114    1306.4529    82.645952 
   34100    1503.2924   -111.78765    1.3602106   -110.42744   -25566.836    4.3727735    4.3727735    4.3727735   -25566.836    609.98881   -44402.247    -32908.25    7409.3748   -6358.6782   -676.02586    83.612451 
   34200    1079.4576    -111.4031   0.97671591   -110.42638   -3036.9085    4.3714855    4.3714855    4.3714855   -3036.9085    10779.063   -22384.174    2494.3858    -1627.297   -5682.3543     2022.326    83.538588 
   34300    1063.6957   -111.38733   0.96245419   -110.42488    3402.2993    4.3701995    4.3701995    4.3701995    3402.2993     14139.17   -11718.461    7786.1892   -5424.3301   -6669.1786   -3717.0133    83.464881 
   34400    1482.6726   -111.76371    1.3415534   -110.42216   -17657.338    4.3604509    4.3604509    4.3604509   -17657.338    -20559.26   -31499.208   -913.54631    8477.0984   -1831.2174   -2997.7099    82.907571 
   34500    959.95379   -111.29794   0.86858637   -110.42935    36900.804    4.3526308    4.3526308    4.3526308    36900.804    43208.139    15698.556    51795.716   -8279.4028     -7915.36     9689.464    82.462312 
   34600    1345.4601   -111.65096    1.2174006   -110.43356   -24125.113    4.3677696    4.3677696    4.3677696   -24125.113   -23940.329   -54696.575    6261.5641    1771.2967    4095.8094    697.39844    83.325735 
   34700     975.5471   -111.31695   0.88269552   -110.43426   -3361.9332    4.3622179    4.3622179    4.3622179   -3361.9332    31503.913   -43599.603      2009.89    3821.0306    18676.502      6587.98    83.008407 
   34800    1313.0592   -111.62495    1.1880835   -110.43687    3050.3218    4.3622085    4.3622085    4.3622085    3050.3218    14413.719   -21773.167    16510.413   -7285.1937   -2800.3925    7038.1314    83.007866 
   34900    1220.7187    -111.5385    1.1045319   -110.43397   -9765.7491    4.3732693    4.3732693    4.3732693   -9765.7491    17252.154   -27878.171    -18671.23    650.23466    10985.672    13473.343    83.640892 
   35000    717.43386   -111.08188   0.64914923   -110.43273    20467.905    4.3650631    4.3650631    4.3650631    20467.905    105268.21   -35858.576   -8005.9216   -10896.731    22331.012    7494.8669    83.170932 
   35100    835.65785   -111.20339   0.75612079   -110.44727    19216.065     4.366889     4.366889     4.366889    19216.065    63584.941   -18825.925     12889.18    -12701.45    13294.748    77.129876    83.275348 
   35200    1514.9897   -111.81123    1.3707945   -110.44044   -24634.918    4.3769046    4.3769046    4.3769046   -24634.918   -13102.134   -31801.311   -29001.309   -12773.853    1807.1658    5184.2827    83.849649 
   35300    987.67131    -111.3238   0.89366575   -110.43013    22203.297    4.3678026    4.3678026    4.3678026    22203.297    51566.379     13136.22    1907.2938   -1672.5141    3639.4226    4348.7665    83.327625 
   35400    1688.8591   -111.95719    1.5281152   -110.42907   -24571.782    4.3658915    4.3658915    4.3658915   -24571.782   -22301.582   -12964.319   -38449.445    7048.6134    3167.1547     2874.628    83.218298 
   35500    972.56578   -111.31075   0.87999796   -110.43075    6615.5439    4.3686634    4.3686634    4.3686634    6615.5439    63921.722    -28171.68   -15903.411    4515.8245   -452.42497   -8183.4186    83.376899 
   35600    1053.1532   -111.38245   0.95291518   -110.42954    8871.9548    4.3628454    4.3628454    4.3628454    8871.9548    7586.2399    18604.784    424.84016    13361.964   -1513.2231     7466.732    83.044231 
   35700    1512.6362   -111.80151     1.368665   -110.43285   -3612.2831     4.366188     4.366188     4.366188   -3612.2831    15325.754     2615.031   -28777.634   -44.694022     -2793.13   -4167.1009    83.235251 
   35800    1218.1357    -111.5336    1.1021948   -110.43141    12954.913    4.3703929    4.3703929    4.3703929    12954.913    14483.335    27709.925   -3328.5214    19417.936   -5574.5836   -4242.5773    83.475965 
   35900    1069.8883   -111.40016   0.96805743    -110.4321    3783.8203    4.3703323    4.3703323    4.3703323    3783.8203    7754.8384     40146.79   -36550.167    2149.4659    4050.4797    2170.6269    83.472491 
   36000     1229.596   -111.53966    1.1125643    -110.4271   -9496.1102     4.365727     4.365727     4.365727   -9496.1102    10189.956   -32480.832   -6197.4547    1000.3458   -501.49825    1125.7448    83.208889 
   36100    974.14351   -111.31928   0.88142552   -110.43785    25165.598    4.3566101    4.3566101    4.3566101    25165.598    30106.854    56319.889   -10929.948    12340.409    394.10032    3524.4969    82.688687 
   36200    1296.1351   -111.61498    1.1727703   -110.44221     4271.013    4.3694801    4.3694801    4.3694801     4271.013    49077.158     8173.496   -44437.615   -1141.5803    3216.8813   -6996.1656    83.423673 
   36300      1275.55    -111.5868    1.1541444   -110.43266   -6025.6563    4.3729314    4.3729314    4.3729314   -6025.6563   -12168.636    21900.558    -27808.89     6355.677   -7101.8545    1409.3353    83.621509 
   36400     1108.991   -111.42755    1.0034384   -110.42411   -8776.7997    4.3636396    4.3636396    4.3636396   -8776.7997    11498.941   -8264.1377   -29565.202    9405.8428   -2502.8595    10944.653    83.089591 
   36500    1310.4178   -111.60859    1.1856936    -110.4229    8698.0881    4.3568048    4.3568048    4.3568048    8698.0881    13346.012    21516.986    -8768.733   -19058.604    9110.6218   -7758.5355    82.699771 
   36600    1201.0351   -111.52354    1.0867218   -110.43682   -6580.8317    4.3722964    4.3722964    4.3722964   -6580.8317    6621.4429   -1679.3545   -24684.583    9388.9235   -4795.1693   -11192.082    83.585085 
   36700    1307.8422   -111.61191    1.1833631   -110.42854   -9162.7905    4.3728142    4.3728142    4.3728142   -9162.7905    15179.164    3079.5113   -45747.047    14432.353    3038.0374    9776.9473    83.614783 
   36800     1108.105   -111.42442    1.0026367   -110.42178     27257.96    4.3535751    4.3535751    4.3535751     27257.96    42543.814    25919.487    13310.579   -8024.2248    12188.883   -1998.9625    82.515993 
   36900    840.50123   -111.20162   0.76050318   -110.44112   -5928.2645    4.3712125    4.3712125    4.3712125   -5928.2645    9205.3223     10425.23   -37415.346    16272.441   -6238.8564   -4602.6494    83.522937 
   37000    1238.8434   -111.54581    1.1209316   -110.42488   -25390.601    4.3732309    4.3732309    4.3732309   -25390.601   -9215.4157   -24527.381   -42429.007   -1953.1424   -4109.4726   -3604.7075    83.638691 
   37100    1426.7725   -111.70421    1.2909737   -110.41323    21155.038    4.3495465    4.3495465    4.3495465    21155.038   -612.22804    61028.189     3049.152   -1610.1458   -1918.4042   -3129.8208    82.287133 
   37200    1450.3897   -111.75752    1.3123431   -110.44517    -3747.317    4.3678143    4.3678143    4.3678143    -3747.317   -9925.5179    24861.139   -26177.572   -11479.421    2809.0491    5958.0114    83.328296 
   37300    1332.5068   -111.64517    1.2056801   -110.43949   -21745.938    4.3833446    4.3833446    4.3833446   -21745.938   -13298.792      4378.74   -56317.763    616.62768    -2460.118    19085.459    84.220314 
   37400    1271.7791   -111.58015    1.1507325   -110.42942   -11076.684    4.3680708    4.3680708    4.3680708   -11076.684    2127.7692   -5655.8167   -29702.004    2674.1457    2408.3001   -582.33192    83.342975 
   37500    1166.1543   -111.48082    1.0551609   -110.42566    8089.0454    4.3594826    4.3594826    4.3594826    8089.0454     28935.98   -7131.3755    2462.5317    667.77401    595.47627    11814.554    82.852354 
   37600    929.36929   -111.27987   0.84091286   -110.43895    3581.6595    4.3762065    4.3762065    4.3762065    3581.6595    50045.111    16000.427    -55300.56   -8784.2497   -13787.228     2737.688    83.809535 
   37700    1410.3344    -111.7108    1.2761002    -110.4347   -27071.178    4.3782804    4.3782804    4.3782804   -27071.178   -18778.194   -6492.7146   -55942.627    176.81683    -4003.866    6602.0679    83.928744 
   37800    1156.4239   -111.46908    1.0463567   -110.42272    12009.624    4.3590808    4.3590808    4.3590808    12009.624    53339.249    16569.715   -33880.092   -2482.9749    3998.6656    14558.534    82.829448 
   37900    1118.3901   -111.44379    1.0119428   -110.43184   -1489.4445    4.3630165    4.3630165    4.3630165   -1489.4445   -12522.383     43105.54    -35051.49    -5022.206   -16662.812   -17919.968    83.054003 
   38000    933.87527   -111.28615   0.84498997   -110.44116   -5051.6397    4.3705325    4.3705325    4.3705325   -5051.6397    12599.414    13486.493   -41240.825    9036.6669   -5098.0123    18281.639    83.483963 
   38100    1333.2078   -111.64696    1.2063144   -110.44064    2728.3252    4.3636326    4.3636326    4.3636326    2728.3252    40027.777   -3072.3918    -28770.41    5921.3382    2449.5274   -4832.8454    83.089193 
   38200    1195.6689   -111.53071    1.0818664   -110.44885   -14326.916    4.3713301    4.3713301    4.3713301   -14326.916    -9897.294   -4993.6593   -28089.794   -4408.3894   -3192.1696    5624.6708    83.529677 
   38300    1155.7962   -111.49051    1.0457887   -110.44472    -12242.76    4.3652587    4.3652587    4.3652587    -12242.76    41291.969   -45196.502   -32823.747    11960.074    7.0980751    11076.991    83.182114 
   38400    1056.2109   -111.40584   0.95568185   -110.45016    17548.729    4.3658456    4.3658456    4.3658456    17548.729    57390.403    22142.812   -26887.027    -16915.89   -567.64289   -1258.9688    83.215671 
   38500    1485.2279   -111.78959    1.3438654   -110.44573   -33195.218       4.3792       4.3792       4.3792   -33195.218   -27285.892   -27487.503    -44812.26   -9483.6439    8208.1321    10471.034    83.981637 
   38600    1182.2209   -111.50022    1.0696984   -110.43052    9800.7842    4.3670524    4.3670524    4.3670524    9800.7842    56805.552     5291.178   -32694.377    2276.8618   -5521.7192    6957.2881    83.284697 
   38700    1319.5104   -111.61727    1.1939208   -110.42335   -2817.3557    4.3628231    4.3628231    4.3628231   -2817.3557     37598.34   -32801.422   -13248.985   -9150.0356   -3374.3683   -3617.6723    83.042956 
   38800    771.73743   -111.13189   0.69828424   -110.43361    3308.5752    4.3699655    4.3699655    4.3699655    3308.5752    92482.843   -36938.066   -45619.052    5682.5301   -437.45768    16593.262    83.451474 
   38900    1930.9533   -112.17394    1.7471672   -110.42678   -27249.709    4.3788311    4.3788311    4.3788311   -27249.709   -9675.7135     -28820.8   -43252.612    1551.7303    5242.2518    3172.1168    83.960415 
   39000    626.80996   -111.01579   0.56715082   -110.44864    33074.696      4.37225      4.37225      4.37225    33074.696     100910.8   -5792.9788    4106.2632    -102.9141   -2815.4454    10354.789    83.582421 
   39100    1499.5738   -111.80681    1.3568459   -110.44997   -16478.294    4.3737034    4.3737034    4.3737034   -16478.294    4759.6471   -24229.063   -29965.467   -14342.705    6620.6773    606.15397    83.665806 
   39200    797.59746   -111.16542   0.72168294   -110.44374    12888.451    4.3753364    4.3753364    4.3753364    12888.451    90375.385    -17901.39   -33808.641    14962.231    8804.7413    3394.8231    83.759553 
   39300    1237.4913   -111.55284    1.1197081   -110.43313   -2957.7802    4.3597388    4.3597388    4.3597388   -2957.7802    35501.177   -21661.699   -22712.819   -12759.572   -8408.1013    12409.411    82.866961 
   39400    895.41953   -111.26978   0.81019441   -110.45958    26684.758    4.3656127    4.3656127    4.3656127    26684.758    94886.634    19695.266   -34527.626     27280.72   -13269.186   -4247.6465    83.202353 
   39500    1464.9164   -111.79347    1.3254872   -110.46799   -32311.814     4.380248     4.380248     4.380248   -32311.814   -13807.801   -43364.535   -39763.106   -3091.0061   -6166.8219    10418.799    84.041947 
   39600    896.88376   -111.26295   0.81151927   -110.45143   -7219.2977    4.3799041    4.3799041    4.3799041   -7219.2977    17980.558   -21792.721    -17845.73   -2733.6359   -8885.3822      5567.91    84.022152 
   39700    1556.8797   -111.83444    1.4086975   -110.42575   -18515.524    4.3711563    4.3711563    4.3711563   -18515.524    5497.5575   -20036.523   -41007.606     1691.374   -6883.3767   -697.59047    83.519713 
   39800     1242.222   -111.55591    1.1239886   -110.43192    5033.9862    4.3756956    4.3756956    4.3756956    5033.9862    69759.819   -28211.709   -26446.152   -13549.032    5635.5706    4984.0618    83.780185 
   39900    965.40869   -111.30005   0.87352207   -110.42653    3613.1913    4.3817018    4.3817018    4.3817018    3613.1913    49252.877   -4742.7054   -33670.598    736.51519   -3501.7852    39.805792    84.125655 
   40000    938.77581   -111.27119   0.84942408   -110.42176   -3035.1269    4.3774774    4.3774774    4.3774774   -3035.1269    63882.695   -14047.624   -58940.452   -4178.9508    3459.0973    6108.5647     83.88257 
   40100    1639.4867   -111.90875     1.483442   -110.42531   -13479.645    4.3677426    4.3677426    4.3677426   -13479.645   -15087.775   -13710.161       -11641    3332.9766    711.05616    230.15993    83.324191 
   40200    1276.3135   -111.61132    1.1548353   -110.45648    4356.2844    4.3711017    4.3711017    4.3711017    4356.2844    4546.4674     29638.55   -21116.164    -2563.319    10806.139    7053.0671    83.516584 
   40300    1201.0813    -111.5393    1.0867636   -110.45253   -17677.477    4.3844028    4.3844028    4.3844028   -17677.477      38060.5   -30726.276   -60366.656    6024.1717    13996.471     8225.579    84.281324 
   40400    935.65981   -111.27568   0.84660466   -110.42908    9328.0496    4.3733415    4.3733415    4.3733415    9328.0496    60840.844   -7449.1379   -25407.557    4286.5735    2623.9556   -5577.1466    83.645034 
   40500    670.91669   -111.04127   0.60705952   -110.43421    36041.465    4.3657223    4.3657223    4.3657223    36041.465    50643.332    90540.658   -33059.595   -41079.835    311.14585    14147.742    83.208618 
   40600    1527.7763   -111.82364    1.3823641   -110.44128   -16464.418    4.3810527    4.3810527    4.3810527   -16464.418     32640.17   -22802.505    -59230.92   -5871.8904    3108.8569   -17657.924    84.088272 
   40700    1254.3722   -111.57361    1.1349824   -110.43863    4032.5341    4.3699129    4.3699129    4.3699129    4032.5341    8986.9822    47614.539   -44503.919   -12399.277   -3455.9992    687.29037    83.448462 
   40800     805.1224   -111.18073   0.72849167   -110.45224   -447.88621     4.368303     4.368303     4.368303   -447.88621   -2992.8146     49456.98   -47807.824   -6742.2603    2719.7746    4890.0764    83.356268 
   40900    1144.4851   -111.48907    1.0355541   -110.45352    2787.8746    4.3755117    4.3755117    4.3755117    2787.8746   -11279.934    57023.696   -37380.138   -1213.7212   -3891.8676   -13810.786    83.769621 
   41000    1368.8957   -111.68296    1.2386056   -110.44435   -30418.096    4.3758904    4.3758904    4.3758904   -30418.096   -8202.2434   -37246.654   -45805.392    9466.4259   -4128.8265    28090.603    83.791373 
   41100    1112.1088   -111.43918    1.0062594   -110.43292     12579.93    4.3593614    4.3593614    4.3593614     12579.93    7550.4309    55799.433   -25610.074    -11535.35    5102.3934    832.68396     82.84544 
   41200     1633.969   -111.91917    1.4784495   -110.44072   -17237.569    4.3711926    4.3711926    4.3711926   -17237.569   -24211.425   -3527.1881   -23974.095   -3148.3548   -1114.6664    1043.8796    83.521796 
   41300    735.08649   -111.10064   0.66512171   -110.43552   -18802.521    4.3927298    4.3927298    4.3927298   -18802.521   -18117.459    2669.4588   -40959.563   -12630.631    3442.0432    22951.535    84.762446 
   41400    1672.0931   -111.92531     1.512945   -110.41236   -22475.848    4.3658042    4.3658042    4.3658042   -22475.848   -22264.841   -16017.624   -29145.078   -4226.7959   -4756.8871   -21602.386    83.213306 
   41500    1204.6775   -111.51359    1.0900175   -110.42357    32914.637    4.3523737    4.3523737    4.3523737    32914.637    41505.919     38410.91    18827.082    4301.0601    3716.2387    6895.2387    82.447698 
   41600    1180.7558   -111.51332    1.0683727   -110.44495    5366.8674    4.3717419    4.3717419    4.3717419    5366.8674    1317.4684    49915.322   -35132.189     1804.059    423.27504     1797.068    83.553287 
   41700    1231.2589   -111.55229    1.1140689   -110.43823   -3860.4591    4.3813978    4.3813978    4.3813978   -3860.4591     11622.83    6001.8587   -29206.066    5528.0204    3590.8498   -13238.176    84.108143 
   41800    1247.1596   -111.56129    1.1284562   -110.43283    7143.7231    4.3659614    4.3659614    4.3659614    7143.7231    14379.225     3935.885    3116.0591   -11859.824    1927.9406    2285.7513    83.222291 
   41900    956.18552   -111.29698   0.86517676    -110.4318    36013.169    4.3483278    4.3483278    4.3483278    36013.169    44192.679    64122.496   -275.66896   -6991.0104   -4521.9867   -6994.0217    82.217987 
   42000    1389.9116   -111.70541    1.2576212   -110.44778    -9753.207    4.3731455    4.3731455    4.3731455    -9753.207    6693.8522    -5078.549   -30874.924    2512.0177   -5857.7955   -9747.4138    83.633791 
   42100    984.71246   -111.31791   0.89098853   -110.42692    7273.5025     4.385939     4.385939     4.385939    7273.5025   -2189.3737    23185.773    824.10787   -6644.7201    3816.1095    3691.9084    84.369942 
   42200    1460.2672   -111.73785    1.3212805   -110.41657   -16094.134     4.355583     4.355583     4.355583   -16094.134    3910.1359   -30469.964   -21722.573   -14695.168   -5310.5098   -24976.271    82.630216 
   42300    1124.3029   -111.44417    1.0172929   -110.42688    25132.877    4.3471537    4.3471537    4.3471537    25132.877    1466.1547    53952.672    19979.805    726.40078   -9926.4794    5133.2475    82.151401 
   42400    1211.2365   -111.54118    1.0959523   -110.44523    -24702.19    4.3895385    4.3895385    4.3895385    -24702.19   -4312.2839   -38274.817   -31519.468   -11776.567    4171.3165   -14144.291    84.577841 
   42500    895.53411   -111.23073   0.81029808   -110.42043   -23965.097       4.3871       4.3871       4.3871   -23965.097   -30136.934     14078.04   -55836.397   -5634.1078   -4066.2519   -23782.379    84.436964 
   42600    1589.4883   -111.83269    1.4382024   -110.39449    25000.453    4.3459337    4.3459337    4.3459337    25000.453    25789.535    22036.564    27175.262   -19538.844   -9446.8519    461.75766    82.082257 
   42700    1428.7053   -111.72758    1.2927226   -110.43486    -10565.54    4.3647893    4.3647893    4.3647893    -10565.54   -9626.0198    -26461.67    4391.0699   -1849.3223   -9758.9469   -21702.829    83.155283 
   42800    945.02351   -111.28779   0.85507713   -110.43272    -33462.28    4.3899222    4.3899222    4.3899222    -33462.28   -42349.051   -59851.201    1813.4101   -8262.7629    -25149.49    6.4959956    84.600022 
   42900    1599.9001   -111.86098    1.4476232   -110.41336   -27371.805    4.3790156    4.3790156    4.3790156   -27371.805   -29634.878   -45543.728   -6936.8088   -9795.9673   -4617.6797    8314.9193    83.971029 
   43000    1158.6158    -111.4635      1.04834   -110.41516   -2717.7328     4.361356     4.361356     4.361356   -2717.7328   -13491.673    10479.243   -5140.7688   -10223.913   -16067.654   -17984.665    82.959213 
   43100    1628.7685   -111.88901     1.473744   -110.41526   -12306.974    4.3608561    4.3608561    4.3608561   -12306.974   -28909.211   -3679.5722   -4332.1399    2397.5283   -3874.4596    9889.6842     82.93069 
   43200    1409.3375   -111.70481    1.2751982   -110.42961   -31965.402    4.3938962    4.3938962    4.3938962   -31965.402   -51748.711   -38217.428   -5930.0674   -3196.2903    536.47052    3227.0841    84.829985 
   43300    875.45943   -111.21888   0.79213409   -110.42675   -31105.859     4.377585     4.377585     4.377585   -31105.859   -58490.081    10773.623   -45601.118   -13665.508   -26028.072   -13563.179    83.888757 
   43400    1407.3889   -111.67047     1.273435   -110.39703    32719.944    4.3316161    4.3316161    4.3316161    32719.944   -3347.8781    44795.469    56712.241     5219.716    437.28755   -3510.3471     81.27367 
   43500    1327.1392   -111.64484    1.2008234   -110.44401    1921.8027    4.3645505    4.3645505    4.3645505    1921.8027   -23859.507    25931.575    3693.3395    4137.9648    89.185714   -20169.176    83.141635 
   43600    685.73784   -111.05259      0.62047   -110.43212   -22694.415    4.3955049    4.3955049    4.3955049   -22694.415   -74397.055   -981.46585    7295.2765   -6039.5769   -20954.524   -30981.924     84.92319 
   43700    1547.1468   -111.82366    1.3998909   -110.42377    3603.3946    4.3497472    4.3497472    4.3497472    3603.3946   -25976.595    17496.711    19290.068   -2282.8744    9820.5938   -2437.5422    82.298526 
   43800    1111.1749   -111.43689    1.0054144   -110.43148    19362.975    4.3312025    4.3312025    4.3312025    19362.975    795.10886    26380.059    30913.756    11226.779    2510.1974   -6284.6129    81.250391 
   43900    790.81277   -111.17687   0.71554402   -110.46132   -11562.137    4.3684328    4.3684328    4.3684328   -11562.137   -45506.168    -18891.91    29711.668   -12517.747   -28602.033   -4286.8762    83.363701 
   44000    1651.5031   -111.92347    1.4943147   -110.42915   -25958.113    4.3817043    4.3817043    4.3817043   -25958.113   -42521.383   -17503.783   -17849.173    3561.4781    22503.396     182.8485    84.125799 
   44100    838.17275   -111.17848   0.75839632   -110.42008    1982.4552    4.3689689    4.3689689    4.3689689    1982.4552   -16008.108   -7645.5509    29601.024    6317.8014   -9779.7579   -10390.371    83.394394 
   44200     1337.317   -111.62633    1.2100325   -110.41629   -2903.6335    4.3508726    4.3508726    4.3508726   -2903.6335    34763.502   -20726.724   -22747.678    232.11551   -3135.1658    3297.8433    82.362419 
   44300    1071.7117   -111.40551   0.96970724    -110.4358    10833.972    4.3642272    4.3642272    4.3642272    10833.972    32415.222   -25148.821    25235.514    5846.7775   -5429.9453    7306.3147    83.123163 
   44400    1058.4825     -111.389   0.95773717   -110.43127   -28108.101     4.379727     4.379727     4.379727   -28108.101   -947.68431     -42401.5   -40975.119   -355.48424   -40666.512    1798.4678     84.01196 
   44500    1035.3547   -111.35087   0.93681068   -110.41406    31312.445    4.3598439    4.3598439    4.3598439    31312.445     28798.12    5343.9774    59795.239    9652.7962   -9257.4554    20114.785    82.872953 
   44600    1248.6566   -111.55419    1.1298108   -110.42438    1635.7843    4.3579429    4.3579429    4.3579429    1635.7843   -17955.091    2806.3363    20056.107    7211.7627    -30560.42    1852.3944    82.764595 
   44700    886.11563   -111.24027   0.80177604   -110.43849    -1173.383    4.3638483    4.3638483    4.3638483    -1173.383   -3087.6196   -17114.849     16682.32    1367.9362   -34366.403    321.85945    83.101515 
   44800    1147.8537   -111.47501    1.0386021   -110.43641    11480.908    4.3586662    4.3586662    4.3586662    11480.908    9702.9918   -44412.041    69151.772    2406.0213    314.16984   -3549.9361    82.805815 
   44900    1262.1846   -111.59487    1.1420512   -110.45282   -4536.0768    4.3569886    4.3569886    4.3569886   -4536.0768   -43015.156    5248.7762    24158.149    3655.5307   -12314.466   -1267.0713     82.71024 
   45000    1188.4251    -111.5339     1.075312   -110.45859   -19623.567    4.3670344    4.3670344    4.3670344   -19623.567    -48129.81    -19612.37    8871.4802    5583.8295    3138.5379    6399.5101    83.283666 
   45100    1526.1238   -111.82208    1.3808689   -110.44121   -7247.2398    4.3639576    4.3639576    4.3639576   -7247.2398   -23783.347   -15420.127    17461.754   -7009.7891    7477.9399   -4537.1327    83.107758 
   45200    979.32064   -111.32993   0.88610989   -110.44382    4891.4864    4.3647394    4.3647394    4.3647394    4891.4864   -42721.546    184.80097    57211.204    3954.9175    723.86393   -3035.7405     83.15243 
   45300    1155.5148   -111.48163    1.0455341   -110.43609   -3950.3612    4.3623915    4.3623915    4.3623915   -3950.3612   -33826.825   -18545.766    40521.508   -6112.9382    8476.1686   -9960.4841    83.018315 
   45400    1156.7347   -111.48704    1.0466379    -110.4404      27836.1    4.3483969    4.3483969    4.3483969      27836.1   -7799.5958    31609.875    59698.021    1265.8489   -4946.8854   -22373.733    82.221907 
   45500    1272.7848   -111.61706    1.1516425   -110.46542    -27760.63    4.3612283    4.3612283    4.3612283    -27760.63    -60153.91   -23222.852    94.871504    5502.7207   -17510.853   -7468.6628    82.951922 
   45600     1226.075   -111.56396    1.1093785   -110.45458    5743.8608    4.3659287    4.3659287    4.3659287    5743.8608   -12297.255    11192.215    18336.623   -1546.5486   -4918.0893   -3149.6692    83.220424 
   45700    1093.5976   -111.44575   0.98951007   -110.45624    1879.7544    4.3641835    4.3641835    4.3641835    1879.7544   -18008.389   -16958.281    40605.933     12285.15   -14779.123    10148.908    83.120664 
   45800    1040.1046   -111.39739   0.94110853   -110.45629    1456.1597    4.3617764    4.3617764    4.3617764    1456.1597   -50350.124   -14260.414    68979.017    2332.7469   -12988.306    13947.749    82.983203 
   45900    1146.9598   -111.48502    1.0377933   -110.44723    7934.7908    4.3652202    4.3652202    4.3652202    7934.7908   -14550.095    4151.3981    34203.069    4093.0659    6094.6758     273.6888    83.179914 
   46000    1135.0591   -111.46798    1.0270254   -110.44095   -7626.7644    4.3627736    4.3627736    4.3627736   -7626.7644    -10779.35   -9724.5531   -2376.3905    3475.7723   -17076.208    4490.9785     83.04013 
   46100    1352.0992   -111.66245    1.2234077   -110.43904   -9576.2587     4.367308     4.367308     4.367308   -9576.2587   -22785.961   -16267.515      10324.7    3026.0982   -4359.6142    7402.8901    83.299323 
   46200    1127.6793   -111.45769    1.0203479   -110.43734   -27884.986    4.3664574    4.3664574    4.3664574   -27884.986    -59689.52    -29191.91    5226.4726    219.29889    9583.7919   -2753.2834    83.250659 
   46300     1005.666   -111.34209   0.90994774   -110.43214    20169.826    4.3419508    4.3419508    4.3419508    20169.826   -11089.238    41695.457    29903.258   -3336.8356   -12225.052    1783.4145    81.856787 
   46400    1327.0659   -111.64722    1.2007571   -110.44646    23014.961    4.3607591    4.3607591    4.3607591    23014.961    20869.596    11204.639    36970.648   -5288.3463    3379.6997   -14963.495    82.925155 
   46500    1113.4976   -111.44251    1.0075161   -110.43499    4878.4257     4.373785     4.373785     4.373785    4878.4257   -34567.806    31611.844    17591.239    4830.8451   -3234.0243    7480.4946    83.670489 
   46600    1100.9218   -111.42042    0.9961372   -110.42428    1401.4537     4.354698     4.354698     4.354698    1401.4537   -31502.423   -2102.8125    37809.597    5799.2151   -10173.081    5429.9996    82.579856 
   46700    1278.1954   -111.58584     1.156538    -110.4293    4804.1825     4.349575     4.349575     4.349575    4804.1825    1901.0252    8964.6653    3546.8568    2725.4002    8214.4118   -4860.1446    82.288751 
   46800    1309.9286   -111.63305    1.1852509    -110.4478   -11945.428    4.3617037    4.3617037    4.3617037   -11945.428   -29566.993   -2991.7169   -3277.5732    660.84787   -16398.928   -950.22424    82.979051 
   46900     1307.409   -111.62579    1.1829711   -110.44281   -8257.9941    4.3750404    4.3750404    4.3750404   -8257.9941   -31237.323    13699.355   -7236.0142    3826.0453   -9590.7774    -8.059863    83.742552 
   47000    1433.0197   -111.71415    1.2966263   -110.41752     4538.172    4.3619365    4.3619365    4.3619365     4538.172   -25984.821     6440.689    33158.648    10969.597    5685.1451   -12220.304    82.992339 
   47100    890.92959   -111.22707   0.80613182   -110.42093    3942.5184    4.3512372    4.3512372    4.3512372    3942.5184   -44663.546    19528.945    36962.157   -1777.2515   -20958.278    20077.213    82.383126 
   47200    1048.1152   -111.37472   0.94835662   -110.42636    7842.8059    4.3605817    4.3605817    4.3605817    7842.8059   -38471.677     19142.72    42857.375   -7600.6479    5175.6135    3262.9967    82.915032 
   47300    1077.5356   -111.40141    0.9749769   -110.42643   -3390.8747    4.3669057    4.3669057    4.3669057   -3390.8747    -44646.66   -3496.4454    37970.481    6974.1707   -10459.718    9658.9325    83.276303 
   47400    1252.3247    -111.5591    1.1331297   -110.42597   -10071.079    4.3570421    4.3570421    4.3570421   -10071.079   -33318.571    39119.166   -36013.832   -2955.8989   -21723.348    24650.723    82.713282 
   47500    1252.5797   -111.55239    1.1333604   -110.41903     27633.45     4.333472     4.333472     4.333472     27633.45   -3243.7826    49996.324     36147.81   -4283.9028   -1249.4955   -16407.197    81.378181 
   47600    898.31125   -111.26652   0.81281089   -110.45371   -19921.154    4.3629073    4.3629073    4.3629073   -19921.154   -52886.434   -6756.0998   -120.92885    9528.7846   -21364.876   -486.78039    83.047769 
   47700     1540.341   -111.81735    1.3937329   -110.42362   -36599.658    4.3731221    4.3731221    4.3731221   -36599.658   -44650.065   -24452.787   -40696.122    -6241.728   -6294.4391    15315.297    83.632449 
   47800    1312.9115   -111.59979    1.1879499   -110.41184    33280.414    4.3262669    4.3262669    4.3262669    33280.414    32321.545     10536.72    56982.975    10945.132   -10748.717   -12934.431    80.972941 
   47900    1241.5748   -111.56668     1.123403   -110.44328   -1870.3558     4.344544     4.344544     4.344544   -1870.3558   -28258.783    33877.943   -11230.227   -415.38057   -29264.811   -8049.3024    82.003537 
   48000    1404.4306   -111.69576    1.2707583     -110.425   -17160.559    4.3733756    4.3733756    4.3733756   -17160.559   -26988.808     4947.346   -29440.214   -5219.3325    4915.5724    11056.354    83.646992 
   48100    484.33883   -110.86517   0.43823995   -110.42693    46743.354    4.3453972    4.3453972    4.3453972    46743.354   -8612.0799    87054.344      61787.8    4081.8569   -15171.701   -8570.1418    82.051865 
   48200    1365.5279    -111.6621    1.2355584   -110.42655    11967.442    4.3477204    4.3477204    4.3477204    11967.442    -17128.53    31637.427    21393.429   -1299.4519   -7983.1269    9599.0675    82.183536 
   48300    1404.8249   -111.69952    1.2711151   -110.42841   -10873.017    4.3566577    4.3566577    4.3566577   -10873.017   -31531.132    21476.785   -22564.705   -19948.852   -559.84469   -4379.9259    82.691395 
   48400    779.96136   -111.14206   0.70572543   -110.43633    12314.625    4.3448587    4.3448587    4.3448587    12314.625    -22739.84    10809.602    48874.113    7276.8523   -9852.6812   -15730.172    82.021362 
   48500    1660.9825   -111.94116    1.5028919   -110.43826   -16477.099    4.3524672    4.3524672    4.3524672   -16477.099   -40228.007   -1016.4966   -8186.7933   -7408.1433    5451.3036   -8570.3876    82.453012 
   48600    1273.1212   -111.59278    1.1519468   -110.44084   -780.55667    4.3550151    4.3550151    4.3550151   -780.55667   -47503.124    3347.2741    41814.179   -10185.229   -13302.396    3871.8077    82.597898 
   48700    1125.2985   -111.45853    1.0181937   -110.44034   -4933.6931    4.3520381    4.3520381    4.3520381   -4933.6931   -22542.056    3251.6062    4489.3701    14573.595   -6252.3332   -22616.034    82.428629 
   48800    1236.7277   -111.55571    1.1190172   -110.43669   -80.603521    4.3400893    4.3400893    4.3400893   -80.603521   -15286.976    20363.251   -5318.0855   -7137.2377   -5199.5744   -3073.8003    81.751548 
   48900    1023.6305   -111.37215   0.92620241   -110.44595    10199.572    4.3398168    4.3398168    4.3398168    10199.572   -48409.399    39805.196    39202.921   -9906.2044   -14660.478    7282.2289     81.73615 
   49000    1227.5319   -111.55793    1.1106967   -110.44724   -20958.081    4.3679839    4.3679839    4.3679839   -20958.081   -31013.673    5953.0716   -37813.643    7356.8138   -1478.7556   -18087.839    83.338004 
   49100    1279.8004   -111.58869    1.1579903    -110.4307   -955.98429    4.3561006    4.3561006    4.3561006   -955.98429    1130.8103   -10398.536    6399.7724   -6530.5118    -10743.15    10546.566    82.659679 
   49200    1478.2346   -111.75492    1.3375377   -110.41738    7201.9097     4.333355     4.333355     4.333355    7201.9097   -8421.2239     5291.503     24735.45   -339.86505    17.713352   -1545.6805    81.371592 
   49300    1219.8649   -111.53745    1.1037594   -110.43369   -28892.551    4.3550492    4.3550492    4.3550492   -28892.551   -12126.261   -40465.243   -34086.148    2249.0716    6894.5505   -16889.088     82.59984 
   49400    932.97278   -111.27393   0.84417337   -110.42976   -5242.5515    4.3586967    4.3586967    4.3586967   -5242.5515    11053.344   -25278.117   -1502.8818   -14216.978   -11921.365    5441.9923    82.807552 
   49500    1464.9992   -111.74635    1.3255621   -110.42079     8230.942    4.3441767    4.3441767    4.3441767     8230.942    7009.4259    887.00562    16796.394     10963.54    5055.9402    589.97845    81.982742 
   49600    1453.5754   -111.74654    1.3152256   -110.43132   -5881.8329     4.348242     4.348242     4.348242   -5881.8329   -240.55591      -6637.6   -10767.343   -5681.3922    7830.0046    -15878.98    82.213116 
   49700    836.20115   -111.19502   0.75661237   -110.43841    15715.196     4.347475     4.347475     4.347475    15715.196    15793.447    3539.8568    27812.285   -3382.8428    -14050.03    21398.251    82.169618 
   49800    1065.7726   -111.40197   0.96433343   -110.43763    3890.0941    4.3499271    4.3499271    4.3499271    3890.0941   -16180.044    18085.734     9764.592    19174.048    911.43432    5895.8797    82.308739 
   49900    1156.3531   -111.48162    1.0462926   -110.43532    -12621.13     4.356174     4.356174     4.356174    -12621.13   -33766.399    -412.6248   -3684.3669    -4767.068   -6736.0685   -5813.8949    82.663855 
   50000    1072.3502   -111.41159   0.97028496   -110.44131    1244.9175     4.343008     4.343008     4.343008    1244.9175   -18077.706   -1316.5119     23128.97    1263.2276   -13910.629    18084.881    81.916594 
   50100     1661.795   -111.94212    1.5036271    -110.4385    16235.157    4.3406065    4.3406065    4.3406065    16235.157    20925.517     11885.35    15894.605    19944.832   -12795.797   -7179.3744    81.780781 
   50200    1417.8899    -111.7294    1.2829365   -110.44646   -16007.298    4.3553656    4.3553656    4.3553656   -16007.298   -20956.397   -28066.484     1000.986    -8756.324   -1284.9523   -8222.4811    82.617844 
   50300    590.70963   -110.99093   0.53448648   -110.45644    2162.0782    4.3385718    4.3385718    4.3385718    2162.0782    7900.9569    2603.6402   -4018.3625    14494.116   -2511.7595    2483.3146    81.665829 
   50400    1160.3898   -111.50236    1.0499451   -110.45241    15099.087    4.3394177    4.3394177    4.3394177    15099.087    8533.1192    23133.372    13630.769     3220.338   -7445.1401    2676.0037    81.713603 
   50500      1455.82   -111.76201    1.3172566   -110.44475   -23630.283    4.3568441    4.3568441    4.3568441   -23630.283    -43250.26   -7267.1648   -20373.424   -1160.8065    11713.641   -260.35837    82.702009 
   50600    987.08398    -111.3358   0.89313433   -110.44266    13689.725     4.338231     4.338231     4.338231    13689.725    7690.3478    4549.2755    28829.553    11779.416   -7643.4484     2618.345    81.646586 
   50700    1694.8068   -111.97788    1.5334968   -110.44438   -4213.2857    4.3411729    4.3411729    4.3411729   -4213.2857    5764.0044   -26967.914    8564.0527   -2083.6971     11133.06    10519.711    81.812798 
   50800    1141.3166   -111.48052    1.0326872   -110.44783   -6506.0437    4.3501181    4.3501181    4.3501181   -6506.0437    -36240.88     2870.503    13852.246    2520.9016     7481.014   -9826.6893    82.319577 
   50900    817.97938    -111.1864   0.74012493   -110.44628   -5649.1826    4.3426281    4.3426281    4.3426281   -5649.1826    152.25369   -9930.7621   -7169.0394    17511.239   -6399.0195    6815.4123      81.8951 
   51000    1039.5059   -111.38207   0.94056675   -110.44151    -508.5877     4.345281     4.345281     4.345281    -508.5877    -5010.021    13192.105    -9707.847   -3995.0692   -1745.9685    2651.8939    82.045278 
   51100    1365.4059   -111.67817    1.2354479   -110.44272   -599.34553    4.3435397    4.3435397    4.3435397   -599.34553   -25479.494    13900.899     9780.558    14223.236   -4646.7823   -1874.2795    81.946684 
   51200     1582.086   -111.87855    1.4315046   -110.44704   -4850.7366     4.347781     4.347781     4.347781   -4850.7366   -5256.9481   -16873.504    7578.2424    13079.476   -12059.083    6828.0802    82.186969 
   51300    1218.1227   -111.54722     1.102183   -110.44504    8501.6247    4.3491306    4.3491306    4.3491306    8501.6247   -4540.0324   -2988.6384    33033.545    2475.8651      2552.46    7761.9122     82.26353 
   51400    852.82831   -111.21305   0.77165697   -110.44139    -9497.731    4.3492381    4.3492381    4.3492381    -9497.731    -30306.22     576.0041    1237.0226    6920.7891   -19281.252    7383.9868     82.26963 
   51500     1095.294   -111.42204   0.99104502     -110.431    -2084.337    4.3405327    4.3405327    4.3405327    -2084.337    3447.3064   -18694.508      8994.19    1869.7732   -8040.2861    16033.554    81.776608 
   51600    1307.3095    -111.6222    1.1828811   -110.43932   -6172.4241    4.3380416    4.3380416    4.3380416   -6172.4241    -19484.65   -12306.309    13273.686    2244.7982    5431.1917   -6840.8173    81.635893 
   51700    1289.0878   -111.61072    1.1663937   -110.44432   -19261.075    4.3558673    4.3558673    4.3558673   -19261.075   -32641.369   -24458.926   -682.92824    8330.2324   -18313.118    2485.9506    82.646399 
   51800    1877.5988   -112.12941    1.6988908   -110.43051    669.35373     4.342829     4.342829     4.342829    669.35373   -11418.083   -12249.738    25675.882   -12078.162    9737.9451   -7949.2335    81.906466 
   51900      895.568   -111.25271   0.81032875   -110.44238    1398.6155    4.3368697    4.3368697    4.3368697    1398.6155   -30579.551    11426.382    23349.016   -2671.4946   -13707.416   -8796.8794    81.569749 
   52000    956.76092    -111.3073   0.86569738    -110.4416   -36842.728    4.3556327    4.3556327    4.3556327   -36842.728   -60296.943   -23928.203    -26303.04    1325.2728   -12620.737     -2513.28    82.633042 
   52100    1315.2244   -111.61872    1.1900427   -110.42867    4339.4873    4.3473682    4.3473682    4.3473682    4339.4873   -12828.913   -17689.228    43536.603   -11969.107    247.71024   -2583.1763    82.163562 
   52200    1299.1672   -111.61062    1.1755138   -110.43511   -782.39162    4.3393215    4.3393215    4.3393215   -782.39162   -12912.114    9103.6805    1461.2582    596.09773   -24567.489   -3035.6792    81.708171 
   52300    1210.9163   -111.53833    1.0956625   -110.44266   -4688.8539    4.3467115    4.3467115    4.3467115   -4688.8539   -10204.823   -5308.2441    1446.5055   -11516.764   -3513.0494    449.10646    82.126334 
   52400    1279.0485   -111.59925    1.1573099   -110.44194    10560.998    4.3444164    4.3444164    4.3444164    10560.998    17899.126   -21443.443    35227.313   -19088.608    5374.2624    5447.3795    81.996316 
   52500    1009.2383   -111.36374   0.91318002   -110.45056   -11053.033    4.3446981    4.3446981    4.3446981   -11053.033   -12151.037    7046.5918   -28054.654    14425.497   -20309.834   -4255.5489    82.012269 
   52600    945.28466   -111.30466   0.85531343   -110.44934   -11106.944    4.3404449    4.3404449    4.3404449   -11106.944   -22187.213   -33267.271    22133.652   -15609.758      12200.7   -6250.8857    81.771644 
   52700    1644.3083   -111.93465    1.4878047   -110.44684   -11144.442    4.3491123    4.3491123    4.3491123   -11144.442   -17832.297   -21632.058     6031.029   -11502.514   -8492.6079    3867.2126    82.262495 
   52800    1675.5975   -111.95234    1.5161158   -110.43623   -30831.969    4.3617026    4.3617026    4.3617026   -30831.969   -38479.944   -15028.276   -38987.688    5095.1426   -24993.245    8796.1597     82.97899 
   52900    936.31229   -111.28244   0.84719504   -110.43524    2104.9586    4.3395612    4.3395612    4.3395612    2104.9586    9289.3737    -16742.42    13767.922   -24599.834    2259.1728   -7744.3793    81.721709 
   53000    1245.9369   -111.56119    1.1273499   -110.43384    13017.321    4.3361118    4.3361118    4.3361118    13017.321    29408.832    4007.7136    5635.4181   -3652.4908    -2827.006   -4102.2664    81.526992 
   53100    844.14072   -111.20674   0.76379626   -110.44295   -17137.819    4.3593906    4.3593906    4.3593906   -17137.819   -9164.1073   -6033.5608    -36215.79   -13495.568   -16333.655   -6736.7957    82.847105 
   53200    766.36801   -111.14212   0.69342588   -110.44869    -9002.996    4.3444324    4.3444324    4.3444324    -9002.996   -17648.506    871.10255   -10231.584   -34466.837    6607.2018   -4201.8095     81.99722 
   53300    1576.2671   -111.86418    1.4262396   -110.43794    29989.211    4.3340823    4.3340823    4.3340823    29989.211    12169.535    66955.264    10842.833     6463.435   -6423.1495   -2907.6541    81.412572 
   53400    1581.6576   -111.88065    1.4311171   -110.44953   -14105.882    4.3527342    4.3527342    4.3527342   -14105.882   -32737.552    7620.6052   -17200.699   -13425.286    1115.5022   -1071.8799    82.468188 
   53500    1047.4302   -111.39132   0.94773681   -110.44358   -23983.598    4.3571016    4.3571016    4.3571016   -23983.598   -39546.181   -24582.229   -7822.3844   -6614.3915    20845.683   -4138.5385    82.716672 
   53600     1497.446   -111.78216    1.3549206   -110.42724   -11970.084    4.3496612    4.3496612    4.3496612   -11970.084   -17921.656    4090.9392   -22079.535    20947.687   -1105.3402   -3605.4757    82.293641 
   53700    1234.0805   -111.54967     1.116622   -110.43305   -27397.267    4.3493531    4.3493531    4.3493531   -27397.267   -31274.946   -21969.003   -28947.853   -27881.644    4912.1564    6096.0942    82.276158 
   53800    1186.1936   -111.51248    1.0732929   -110.43919   -5787.6759    4.3486544    4.3486544    4.3486544   -5787.6759    8612.6048    8986.2024   -34961.835   -13389.262    11284.571    562.33989    82.236513 
   53900    1518.5868   -111.81412    1.3740493   -110.44007    14428.022    4.3509712    4.3509712    4.3509712    14428.022    54023.334   -4030.3744   -6708.8948    1038.1779   -595.32255    4628.7781    82.368018 
   54000    984.54768   -111.33411   0.89083943   -110.44327    17518.105    4.3498349    4.3498349    4.3498349    17518.105     40703.59   -3468.2456     15318.97   -38119.594    4392.3811     734.7538    82.303502 
   54100    847.03391   -111.20461   0.76641408    -110.4382   -7413.7211    4.3575238    4.3575238    4.3575238   -7413.7211   -16982.872    23907.173   -29165.464    -4893.003    11456.343    3744.3945    82.740724 
   54200    1194.8454   -111.50989    1.0811212   -110.42877   -7402.1698    4.3458808    4.3458808    4.3458808   -7402.1698   -21033.315    22972.922   -24146.117     -3679.35   -14235.534    2009.6687    82.079262 
   54300    1013.0866   -111.35249   0.91666208   -110.43582    17698.544    4.3342629    4.3342629    4.3342629    17698.544    2826.9655    28428.059    21840.607   -18658.332    4691.3013   -7028.6783    81.422747 
   54400    1295.1139   -111.61745    1.1718463   -110.44561    2297.6225    4.3569789    4.3569789    4.3569789    2297.6225   -7813.6552    18305.202   -3598.6799    7056.7097    5111.0358    11406.869    82.709687 
   54500     1477.222   -111.77359    1.3366215   -110.43697   -725.32939    4.3516316    4.3516316    4.3516316   -725.32939    15262.985   -7143.3389   -10295.634    4592.7762   -689.44989   -597.83456    82.405534 
   54600    928.87188    -111.2753   0.84046279   -110.43484    18869.594    4.3322632    4.3322632    4.3322632    18869.594    58326.588    -9121.984    7404.1775   -15902.128    9347.2366   -9360.0349    81.310103 
   54700    1224.1998   -111.54756    1.1076817   -110.43987   -9209.1878    4.3509832    4.3509832    4.3509832   -9209.1878    2959.1316   -15202.026   -15384.669     2917.486   -8128.6397    7853.8836    82.368699 
   54800    1262.4885   -111.57707    1.1423262   -110.43475   -20432.279    4.3549852    4.3549852    4.3549852   -20432.279    4811.6659   -41502.974   -24605.527    -8515.425   -678.00753   -3313.1894    82.596197 
   54900    1117.2571    -111.4506    1.0109177   -110.43968   -8695.5972    4.3413385    4.3413385    4.3413385   -8695.5972   -921.63017   -24838.364   -326.79766   -26158.555    20065.843   -13764.979    81.822162 
   55000    1770.4226   -112.04037    1.6019155   -110.43845    1376.6655     4.345897     4.345897     4.345897    1376.6655    12458.927    -10151.07    1822.1391    704.42131    9557.9099    5627.3427     82.08018 
   55100    1261.9946   -111.58516    1.1418792   -110.44328    7209.6443    4.3547813    4.3547813    4.3547813    7209.6443    52684.073   -23418.517   -7636.6232   -1971.1769    9676.8917   -832.28676    82.584597 
   55200    527.39173   -110.92353   0.47719512   -110.44633   -4095.4615     4.355131     4.355131     4.355131   -4095.4615    5451.1485    17135.335   -34872.868    -13682.69    22421.772   -13960.302    82.604493 
   55300      1184.51   -111.50337    1.0717696    -110.4316     11895.66     4.343902     4.343902     4.343902     11895.66    35613.066    30328.007   -30254.094    9462.9918   -2046.7611     2059.008     81.96719 
   55400    1018.1191   -111.36242   0.92121555   -110.44121    10514.785    4.3411879    4.3411879    4.3411879    10514.785    480.11364    64850.214   -33785.974     8541.433    19871.699   -5815.0562    81.813649 
   55500    1242.9553   -111.58088    1.1246521   -110.45623   -26439.385    4.3524239    4.3524239    4.3524239   -26439.385   -36986.639   -20650.744   -21680.773   -33255.425     17380.65   -7577.8585    82.450549 
   55600    1743.5576   -112.01978    1.5776076   -110.44217   -1796.5435    4.3467392    4.3467392    4.3467392   -1796.5435    820.80847    25463.238   -31673.677    141.28792   -2345.2154   -7701.7161    82.127907 
   55700    926.59873   -111.28585   0.83840601   -110.44745   -6850.4886     4.344378     4.344378     4.344378   -6850.4886   -14368.355    44345.808   -50528.919    -7709.884    26959.253   -4085.0615     81.99414 
   55800     978.0017   -111.33281   0.88491649    -110.4479   -24792.415     4.348453     4.348453     4.348453   -24792.415   -36068.116   -2246.8924   -36062.237   -25551.204    84.249333   -14815.961    82.225085 
   55900    1433.7916   -111.74286    1.2973247   -110.44554   -1988.7081    4.3456841    4.3456841    4.3456841   -1988.7081    8135.4406    10778.947   -24880.512    13679.781    13611.543    4344.4668    82.068115 
   56000    1199.0959   -111.53635    1.0849672   -110.45138    8407.7206    4.3465188    4.3465188    4.3465188    8407.7206    12063.698    29730.603   -16571.139   -7416.2774    12330.735   -7890.9325    82.115417 
   56100     1303.915   -111.62698    1.1798097   -110.44717   -23851.653    4.3567118    4.3567118    4.3567118   -23851.653   -19406.976   -24358.481   -27789.502   -34157.449   -6104.9876   -3429.3857    82.694476 
   56200     1220.027    -111.5402    1.1039061   -110.43629     23773.52    4.3442283    4.3442283    4.3442283     23773.52    7707.0563    94082.136   -30468.633   -4032.0526    15535.871    748.87485    81.985666 
   56300    960.89467   -111.31262   0.86943769   -110.44318    22518.551    4.3416423    4.3416423    4.3416423    22518.551    28028.605    49247.103   -9720.0553   -37453.998   -4050.9073    2161.4981     81.83934 
   56400     1039.458   -111.38436   0.94052341   -110.44383   -24419.289    4.3638248    4.3638248    4.3638248   -24419.289   -1358.1955    -25312.26   -46587.412    -13465.92    3061.8099   -5804.2696    83.100168 
   56500      1352.38   -111.65561    1.2236619   -110.43194    8014.8437    4.3454034    4.3454034    4.3454034    8014.8437    41937.664    3744.0302   -21637.163    4833.1823    4670.4009     3447.079    82.052214 
   56600    1130.2343   -111.46324    1.0226597   -110.44058    14842.459    4.3305963    4.3305963    4.3305963    14842.459    23924.937      9618.06    10984.381   -15024.489   -5940.5805   -2342.4118    81.216282 
   56700    1066.8641   -111.42606   0.96532105   -110.46074   -15404.806    4.3576578    4.3576578    4.3576578   -15404.806   -21202.003    27476.841   -52489.255   -2668.7767    12434.194   -1915.0196    82.748354 
   56800    1469.4267   -111.76936    1.3295681   -110.43979    4362.2274    4.3545856    4.3545856    4.3545856    4362.2274    20640.219    25215.304    -32768.84   -12671.462    3309.9011   -525.66061    82.573462 
   56900    833.85055   -111.19783    0.7544855   -110.44334    6237.1069    4.3479125    4.3479125    4.3479125    6237.1069    25176.939    8181.0278   -14646.646   -29146.472    2151.9448   -1436.8116    82.194432 
   57000    1032.5004   -111.37609   0.93422809   -110.44186    4424.6794    4.3509053    4.3509053    4.3509053    4424.6794    65276.931   -21381.053    -30621.84   -1720.9434    11803.784    6232.7051     82.36428 
   57100    1477.8979   -111.77893    1.3372331   -110.44169   -7526.2065    4.3541858    4.3541858    4.3541858   -7526.2065    17777.368   -24203.731   -16152.257   -9835.3761   -493.72553   -2791.5291    82.550719 
   57200    1278.2854   -111.60321    1.1566195   -110.44659   -17517.023    4.3500763    4.3500763    4.3500763   -17517.023   -16507.958   -5992.6579   -30050.454   -16110.097    -2158.906   -4249.0058    82.317206 
   57300    1450.1012   -111.75966     1.312082   -110.44758    13565.723    4.3436308    4.3436308    4.3436308    13565.723    63310.968    6153.3219   -28767.122    21204.586    12403.622   -8843.3486     81.95184 
   57400    1134.1122   -111.47364    1.0261685   -110.44747   -10852.195    4.3584533    4.3584533    4.3584533   -10852.195    6286.6859   -33352.501   -5490.7705   -21917.888    5123.4459    2075.0728    82.793683 
   57500    872.50095   -111.22853   0.78945719   -110.43907   -24227.425      4.36105      4.36105      4.36105   -24227.425   -5813.6235   -32930.372    -33938.28   -22394.944    14314.967   -3876.2011    82.941752 
   57600    1474.9566   -111.75968    1.3345717   -110.42511    483.98276    4.3465735    4.3465735    4.3465735    483.98276     6331.791    18252.835   -23132.678   -9040.9762     10785.42     -4947.64    82.118512 
   57700    1261.5083   -111.57166    1.1414392   -110.43022    17389.362    4.3428974    4.3428974    4.3428974    17389.362    496.38389     55326.49    -3654.788   -35526.074    5514.7432   -2416.4555    81.910334 
   57800    1070.7951    -111.4128   0.96887795   -110.44393   -282.43409    4.3641159    4.3641159    4.3641159   -282.43409   -5259.7845    51128.268   -46715.786    226.79608    9810.3274   -4729.7829    83.116804 
   57900    1084.5341   -111.40905   0.98130926   -110.42774    -394.6542    4.3575406    4.3575406    4.3575406    -394.6542   -46000.984    46034.965   -1217.9436   -487.27756    2934.5659    -2194.726     82.74168 
   58000    1028.3081   -111.34993   0.93043479    -110.4195   -256.21876    4.3290283    4.3290283    4.3290283   -256.21876     -35210.1    14584.888    19856.556   -29276.645    6023.7231    3209.5573    81.128095 
   58100    1256.0787    -111.5779    1.1365264   -110.44137    10675.969    4.3434404    4.3434404    4.3434404    10675.969    30951.479    6481.5941   -5405.1667    19184.591   -214.47093   -2787.9161    81.941063 
   58200    1651.2383   -111.92766    1.4940751   -110.43358   -13020.807    4.3611425    4.3611425    4.3611425   -13020.807   -13175.524   -25840.953   -45.942932   -17905.233   -1387.0615    3384.8009    82.947026 
   58300    1181.9305   -111.50223    1.0694355   -110.43279   -19765.028    4.3502833    4.3502833    4.3502833   -19765.028   -10311.985    -30350.52   -18632.579   -26395.412    3652.2305    4280.1162     82.32896 
   58400    1163.4348   -111.48476    1.0527002   -110.43206     9752.455     4.341363     4.341363     4.341363     9752.455   -4029.3799    20391.338    12895.407    1366.8124   -2364.1231   -2499.1884    81.823544 
   58500    1582.6234    -111.8678    1.4319909   -110.43581    -18165.12    4.3498752    4.3498752    4.3498752    -18165.12   -24440.051   -27155.291    -2900.017   -21343.348    5677.6472    4891.2981    82.305793 
   58600    988.80708   -111.33674   0.89469343   -110.44204   -10308.279    4.3565423    4.3565423    4.3565423   -10308.279    1040.0146   -13744.814   -18220.038   -15097.079    13829.923   -8809.4656    82.684822 
   58700    1456.8453   -111.74924    1.3181843   -110.43105   -2410.2751    4.3455199    4.3455199    4.3455199   -2410.2751   -6080.0149    23207.884   -24358.695    12581.278   -5157.3895    4279.3436    82.058815 
   58800    1255.6047   -111.56875    1.1360975   -110.43265     4764.228    4.3405407    4.3405407    4.3405407     4764.228   -10043.781    11350.186    12986.278   -9548.8823    8342.4384   -10074.278     81.77706 
   58900    875.21275   -111.23601   0.79191089    -110.4441   -5230.8261    4.3507077    4.3507077    4.3507077   -5230.8261   -27936.281    33517.773    -21273.97    -4590.207    7163.6072   -343.06876    82.353054 
   59000    1257.7032   -111.57572    1.1379963   -110.43773    10350.733    4.3426253    4.3426253    4.3426253    10350.733     585.6233    34397.874    -3931.298    22807.382   -17868.128    973.28453    81.894938 
   59100    1146.2872   -111.47543    1.0371848   -110.43824    11067.707    4.3381159    4.3381159    4.3381159    11067.707    22360.215    8939.9946    1902.9123   -1590.1733    13122.872    -1845.002    81.640087 
   59200    1133.7859   -111.47085    1.0258733   -110.44497   -19093.712    4.3535175    4.3535175    4.3535175   -19093.712   -23281.358    14057.073   -48056.851   -6184.0399    2498.0818   -2402.3182    82.512716 
   59300    1238.3489   -111.56302    1.1204841   -110.44254    6964.0594    4.3436623    4.3436623    4.3436623    6964.0594    -16477.27    30367.419    7002.0292    8014.1623   -13858.801   -1804.0848    81.953625 
   59400    1274.6064   -111.59804    1.1532907   -110.44475   -8127.6603    4.3397645    4.3397645    4.3397645   -8127.6603   -31562.342    6141.5068    1037.8539   -5883.9076    22169.522    1418.9832    81.733198 
   59500    1180.4966   -111.51353    1.0681381   -110.44539   -4813.8691    4.3500282    4.3500282    4.3500282   -4813.8691   -29691.189    36182.438   -20932.856   -8998.1722    1598.9131    235.61373    82.314476 
   59600    1490.7662   -111.79071    1.3488766   -110.44184   -14268.371    4.3418217    4.3418217    4.3418217   -14268.371   -22112.593   -11781.857   -8910.6638    26210.262   -6836.4769    4235.9926    81.849487 
   59700    898.08147   -111.25714   0.81260299   -110.44454    10939.179    4.3403836    4.3403836    4.3403836    10939.179    6354.7459    18516.814    7945.9757   -7675.4496    21141.182   -12258.432    81.768183 
   59800    1259.5985    -111.5814    1.1397112   -110.44169   -10469.539    4.3555554    4.3555554    4.3555554   -10469.539   -13413.055   -5203.9634   -12791.598   -10105.555    4320.9799    7789.0615    82.628643 
   59900    1298.3396   -111.61217    1.1747649    -110.4374    1068.6102    4.3468378    4.3468378    4.3468378    1068.6102   -11152.454    5654.4286    8703.8557     25791.81    -4163.378   -4947.9652    82.133495 
   60000    998.40305    -111.3418   0.90337606   -110.43843    24027.174     4.340885     4.340885     4.340885    24027.174     5457.011    19794.692    46829.819    -33487.06    8752.5332   -6458.6755    81.796522 
   60100    1400.2288   -111.70103    1.2669565   -110.43407    7380.6343     4.352737     4.352737     4.352737    7380.6343   -1166.0973    13912.575    9395.4258    5574.1413   -844.42917   -1455.4014    82.468346 
   60200    1021.7704   -111.35805   0.92451934   -110.43353   -2169.9579    4.3492443    4.3492443    4.3492443   -2169.9579   -5079.9078    24324.285   -25754.251   -190.16027    4963.1685   -8438.3674    82.269985 
   60300    826.10666   -111.18367   0.74747866   -110.43619    14846.707    4.3414546    4.3414546    4.3414546    14846.707   -5859.3344    30931.309    19468.145   -29989.363    5097.7292    -4476.498    81.828726 
   60400    1374.9923   -111.68117     1.244122   -110.43705    10598.836    4.3560539    4.3560539    4.3560539    10598.836    12572.185     2396.027    16828.297    14663.876   -6234.5768   -714.42098    82.657016 
   60500    1322.3385    -111.6317    1.1964797   -110.43522   -25222.469    4.3569824    4.3569824    4.3569824   -25222.469   -21103.995   -46524.478   -8038.9328   -8501.4058     3723.347   -9091.1962    82.709886 
   60600    1140.4237   -111.46279    1.0318793   -110.43091    1121.3744    4.3366867    4.3366867    4.3366867    1121.3744   -5625.6683    21614.055   -12624.264   -17585.176     4416.285   -3262.5657    81.559423 
   60700     1504.248   -111.79301    1.3610752   -110.43194    14085.207    4.3433134    4.3433134    4.3433134    14085.207    8460.3524    27427.361    6367.9067    12637.329   -11144.609      13847.9    81.933878 
   60800    930.77212   -111.28645   0.84218218   -110.44427   -13962.883    4.3534141    4.3534141    4.3534141   -13962.883   -33693.314   -20872.732    12677.396   -10302.125    2360.6711    6116.4214    82.506837 
   60900    1057.8799   -111.40366   0.95719196   -110.44647    1656.1695    4.3458861    4.3458861    4.3458861    1656.1695    3558.0573    6215.4696   -4805.0184   -15136.019    6891.8963   -6971.1659     82.07956 
   61000    1659.5719   -111.93472    1.5016155   -110.43311    3608.4419    4.3499619    4.3499619    4.3499619    3608.4419    5975.5282   -11472.857    16322.655    -8025.831    5580.3344    6924.6754    82.310714 
   61100    891.43682   -111.24996   0.80659077   -110.44337   -6769.7263     4.343284     4.343284     4.343284   -6769.7263    15156.991    -10687.37     -24778.8   -23524.093    9462.3837    1083.5632    81.932213 
   61200    1026.5144   -111.37262   0.92881179   -110.44381    2515.5853    4.3412198    4.3412198    4.3412198    2515.5853    18430.918    21898.355   -32782.517   -6637.4784    11439.614    5368.1736    81.815452 
   61300    1221.1198   -111.54435    1.1048949   -110.43945    8714.7984    4.3531375    4.3531375    4.3531375    8714.7984    5471.0345     8043.299    12630.062   -3594.6248    7453.2477    4973.4435    82.491114 
   61400    894.90952   -111.24722   0.80973294   -110.43749    5007.8735    4.3468329    4.3468329    4.3468329    5007.8735     16303.92   -31005.582    29725.282   -24566.211    14986.787    13430.223    82.133218 
   61500    1115.9833   -111.44288    1.0097652   -110.43311     1987.593    4.3503945    4.3503945    4.3503945     1987.593   -4684.9919   -13505.111    24152.882    15450.988    10268.576    13481.387    82.335271 
   61600    998.93677   -111.33146   0.90385898    -110.4276    14108.478    4.3532046    4.3532046    4.3532046    14108.478   -2503.4328   -3360.9011    48189.768   -7012.6779    5398.0849    4421.3787    82.494926 
   61700    989.22769   -111.32202   0.89507401   -110.42695   -1217.1223    4.3435613    4.3435613    4.3435613   -1217.1223    10430.785   -6375.1106   -7707.0412   -19380.725    21575.723   -1342.1267    81.947904 
   61800    1104.0137   -111.43525   0.99893477   -110.43631   -2969.5732    4.3456504    4.3456504    4.3456504   -2969.5732   -5985.2256   -11640.358    8716.8642    31247.206   -2924.4776   -1392.4576    82.066205 
   61900    1269.4397   -111.58131    1.1486157    -110.4327    1236.0444    4.3507803    4.3507803    4.3507803    1236.0444   -819.21154   -22574.517    27101.862   -4484.8715    7478.9497    2242.5144    82.357179 
   62000    993.68298   -111.33274   0.89910524   -110.43363   -8828.5669    4.3539125    4.3539125    4.3539125   -8828.5669   -22196.029   -7963.5099    3673.8385   -5485.6651    9737.3222   -18348.507    82.535179 
   62100    1371.0464   -111.66167    1.2405516   -110.42112   -17370.585    4.3576151    4.3576151    4.3576151   -17370.585   -43648.558    -30430.56    21967.362    20127.106   -10851.944    427.50923    82.745922 
   62200    1623.0874   -111.88701    1.4686036   -110.41841   -8672.9619    4.3427996    4.3427996    4.3427996   -8672.9619   -9572.4691    1922.0049   -18368.422   -7861.4768    13631.017   -11169.158      81.9048 
   62300    1042.8565   -111.37455    0.9435985   -110.43096    2323.2733    4.3344013    4.3344013    4.3344013    2323.2733    1228.5039    3595.8072    2145.5088    9160.9098   -933.91373   -3656.0493    81.430548 
   62400    1306.8607   -111.61948     1.182475   -110.43701   -15924.394    4.3563699    4.3563699    4.3563699   -15924.394   -17263.719   -19770.882   -10738.582    18632.264   -2202.4662    2174.4979     82.67501 
   62500    1266.4915   -111.57387    1.1459481   -110.42792   -17637.303    4.3589741    4.3589741    4.3589741   -17637.303   -5392.4213   -17676.109   -29843.378   -3684.1071    5503.1056   -10791.939    82.823363 
   62600    1022.0523   -111.35486   0.92477441   -110.43009   -7167.7406    4.3409356    4.3409356    4.3409356   -7167.7406   -28097.848   -17442.924     24037.55    16174.679    5214.4288    5161.6726    81.799381 
   62700     1544.128   -111.83026    1.3971594    -110.4331    14905.299    4.3349531    4.3349531    4.3349531    14905.299    10218.423   -43.796138     34541.27   -1223.7541   -4125.3759    8945.9041    81.461652 
   62800    1130.4889   -111.46375    1.0228901   -110.44086    532.12523    4.3518987    4.3518987    4.3518987    532.12523   -7100.5107   -30448.161    39145.048    9138.2848    10272.294    1022.5267    82.420709 
   62900    650.99307   -111.03351   0.58903221   -110.44448   -20912.203     4.355938     4.355938     4.355938   -20912.203   -61098.774   -54051.942    52414.106    20392.277    4040.2793    6799.2674    82.650423 
   63000    1232.4492   -111.54405     1.115146    -110.4289    8168.1721    4.3404776    4.3404776    4.3404776    8168.1721    6748.5827   -21802.185    39558.119   -10693.641   -4526.2003    8788.7198    81.773494 
   63100    1157.3058   -111.48308    1.0471546   -110.43593    15994.363    4.3422801    4.3422801    4.3422801    15994.363   -2789.3587    18963.949    31808.498    23282.913    2511.1988   -542.00789    81.875416 
   63200     1141.861   -111.46678    1.0331798    -110.4336   -15820.222    4.3617328    4.3617328    4.3617328   -15820.222     -34933.6   -32037.056     19509.99    9266.3718    -10172.18    8755.8418    82.980714 
   63300    1214.2041   -111.51435    1.0986374   -110.41572    5993.8592    4.3514817    4.3514817    4.3514817    5993.8592   -768.06426   -11832.899    30582.541   -9843.3668   -2974.6322    11975.413    82.397015 
   63400    1028.4233   -111.34749   0.93053898   -110.41695    2207.2432    4.3451433    4.3451433    4.3451433    2207.2432    -27540.88    1919.3056    32243.304    27012.946     -752.016    701.46836    82.037482 
   63500     798.8661   -111.15182   0.72283083   -110.42899   -2899.9437    4.3552343    4.3552343    4.3552343   -2899.9437    -5847.775   -5224.7778    2372.7218   -9132.4638   -1547.6536    10016.298    82.610368 
   63600    1646.7802   -111.91134    1.4900413   -110.42129    -2844.472    4.3519843    4.3519843    4.3519843    -2844.472   -13771.345    8689.8565   -3451.9272    1401.5627   -5590.0019    8413.8692    82.425572 
   63700    1337.0329    -111.6409    1.2097755   -110.43112    7511.4272    4.3438547    4.3438547    4.3438547    7511.4272    11355.623    7041.2437    4137.4151    3546.6318    8699.1232    4183.2377    81.964514 
   63800    1059.2692   -111.39994   0.95844908   -110.44149   -17026.681        4.343        4.343        4.343   -17026.681   -23384.977    -40325.06    12629.996   -20276.333   -4152.8049    11396.032    81.916142 
   63900    1291.3997   -111.60656    1.1684856   -110.43808   -7659.5952    4.3536737    4.3536737    4.3536737   -7659.5952   -28566.633    2121.2409    3466.6063   -1840.2269    4278.4968   -9355.2859      82.5216 
   64000    1171.8107   -111.49433     1.060279   -110.43405   -21394.797    4.3590278    4.3590278    4.3590278   -21394.797    -37503.01   -18164.711     -8516.67    -58.12342    12180.224    9910.0052    82.826425 
   64100    1083.4085   -111.41465   0.98029076   -110.43436    3564.9845    4.3351292    4.3351292    4.3351292    3564.9845    27309.316   -21917.161    5302.7986   -29421.507   -8748.8349     792.4187    81.471581 
   64200    1715.9775   -111.99038    1.5526525   -110.43773    14756.971    4.3330176    4.3330176    4.3330176    14756.971    149.41097    42472.145    1649.3565    -3789.618    14369.734   -12171.294    81.352585 
   64300    1113.6627   -111.45493    1.0076654   -110.44726   -20894.696    4.3587123    4.3587123    4.3587123   -20894.696   -22082.008   -18308.925   -22293.156    -2852.821    7617.8849    12607.357    82.808444 
   64400    888.78806   -111.24404   0.80419412   -110.43984   -15013.362    4.3428556    4.3428556    4.3428556   -15013.362   -13311.985   -27403.562   -4324.5379   -13915.126   -14632.856    5229.9745    81.907971 
   64500    1264.8066    -111.5737    1.1444236   -110.42928    13026.501    4.3334229    4.3334229    4.3334229    13026.501   -25342.647    44973.731    19448.418   -798.67524    18615.218   -8971.6601    81.375418 
   64600    1301.4336   -111.61485    1.1775645   -110.43729   -29178.088    4.3526323    4.3526323    4.3526323   -29178.088   -39470.187   -31989.965   -16074.111   -7603.2836    10483.948     8885.767    82.462392 
   64700    1309.4585    -111.6196    1.1848256   -110.43478    -7544.978    4.3459289    4.3459289    4.3459289    -7544.978   -393.45521   -2789.9067   -19451.572   -11104.389   -20049.793    7405.6273    82.081983 
   64800    1409.5628   -111.70725    1.2754021   -110.43185   -8045.7062    4.3467893    4.3467893    4.3467893   -8045.7062   -15826.114    15663.309   -23974.313    6306.0139    17277.639   -1700.1586    82.130744 
   64900    1147.9556   -111.47514    1.0386943   -110.43645   -23070.327    4.3456101    4.3456101    4.3456101   -23070.327   -25655.602   -39334.087   -4221.2913   -18204.844    14994.053    19012.488    82.063923 
   65000    1123.3343   -111.45153    1.0164165   -110.43512    6579.4193    4.3350727    4.3350727    4.3350727    6579.4193    24736.799   -3700.2702   -1298.2704   -12521.073    -5077.271    9354.6982    81.468394 
   65100    1007.0688    -111.3561   0.91121705   -110.44488    931.11691    4.3502993    4.3502993    4.3502993    931.11691    15907.551    11177.079    -24291.28   -3148.5931    11998.479   -3205.8038    82.329868 
   65200    989.16247   -111.33276   0.89501499   -110.43775   -9354.7922    4.3522981    4.3522981    4.3522981   -9354.7922   -18386.986   -20461.768    10784.377   -32350.988   -6081.7236    4841.3846    82.443402 
   65300    1381.1012   -111.67734    1.2496494   -110.42769    14025.826    4.3346899    4.3346899    4.3346899    14025.826    29326.928    25214.288   -12463.737   -6949.8715    1330.3414    8770.6121    81.446812 
   65400    945.29258   -111.29737   0.85532059   -110.44205   -8633.7541    4.3523005    4.3523005    4.3523005   -8633.7541   -36731.096    7313.3209    3516.5125   -9301.6042    13554.606   -9161.3836    82.443536 
   65500    1019.9496   -111.35684   0.92287183   -110.43396   -17135.646    4.3552343    4.3552343    4.3552343   -17135.646   -38886.762   -27127.347    14607.173    -28911.48   -13044.835    1388.9307    82.610369 
   65600    1291.9499   -111.58903    1.1689834   -110.42004    9017.8955    4.3428763    4.3428763    4.3428763    9017.8955   -2461.3197    38447.491   -8932.4852      4395.81    5539.6234   -16384.491    81.909142 
   65700    858.79863   -111.21058   0.77705905   -110.43352   -10347.796    4.3458892    4.3458892    4.3458892   -10347.796   -33537.755   -8608.6334        11103   -18066.606    14728.485    1033.8657    82.079738 
   65800    939.49772   -111.29006   0.85007728   -110.43998   -800.77857    4.3389457    4.3389457    4.3389457   -800.77857   -14487.168   -431.78497    12516.617   -18684.207   -10019.153   -2489.9548    81.686946 
   65900    1702.5031   -111.97565    1.5404606   -110.43519   -170.26045    4.3382727    4.3382727    4.3382727   -170.26045   -14316.781    36119.327   -22313.327    7597.0488     6671.561   -9436.3397    81.648938 
   66000    1142.0155   -111.47699    1.0333196   -110.44367   -30800.157      4.35597      4.35597      4.35597   -30800.157   -57387.241   -49813.857    14800.626   -24890.871   -1516.1725    4834.8369     82.65224 
   66100    1221.7903   -111.53862    1.1055016   -110.43312   -13508.937    4.3411268    4.3411268    4.3411268   -13508.937   -22258.638   -15278.527   -2989.6464   -3212.8237   -7372.9065    4085.6796    81.810192 
   66200    1415.7903   -111.70499    1.2810368   -110.42395    1427.5404    4.3337909    4.3337909    4.3337909    1427.5404    1101.7896    35364.535   -32183.704    3092.9554    10530.171   -896.99248    81.396149 
   66300       856.72    -111.2111   0.77517826   -110.43592   -30339.999    4.3558448    4.3558448    4.3558448   -30339.999   -38310.676   -19043.789   -33665.532   -25592.168   -7060.2677    5515.8526    82.645114 
   66400    1340.4825   -111.64388    1.2128967   -110.43099   -4884.4309    4.3453381    4.3453381    4.3453381   -4884.4309   -1341.1743   -19196.453     5884.335    9598.7373   -1051.1967    10903.707    82.048515 
   66500    1408.1181   -111.70566    1.2740948   -110.43156    35289.219    4.3301845    4.3301845    4.3301845    35289.219    38824.823    42517.692     24525.14   -8990.4029    10099.227   -8861.6864    81.193117 
   66600     1272.296   -111.59566    1.1512002   -110.44446   -467.77065    4.3454644    4.3454644    4.3454644   -467.77065    9878.0367   -11375.527    94.178256   -20973.255    1742.7699    12801.238    82.055667 
   66700    789.30231   -111.15486   0.71417732   -110.44068    11413.035    4.3520469    4.3520469    4.3520469    11413.035     25144.56    41551.377   -32456.832    7747.4849   -2474.7687    2097.8537    82.429129 
   66800    1060.7793   -111.39081   0.95981544   -110.43099    3114.8477    4.3468273    4.3468273    4.3468273    3114.8477    23169.853    12475.169   -26300.479   -13469.839    9204.1481   -14058.837    82.132898 
   66900    1312.0235   -111.61916    1.1871464   -110.43201    14786.961    4.3296741    4.3296741    4.3296741    14786.961    9198.7031    29802.503    5359.6755   -13420.441   -2716.4479    13951.286    81.164407 
   67000    1285.1666   -111.61389    1.1628457   -110.45104      127.979    4.3314598    4.3314598    4.3314598      127.979    15234.659   -8309.8186   -6540.9035    25956.493    1633.0597   -14826.073    81.264875 
   67100    1496.2472   -111.80657    1.3538359   -110.45274   -5648.6321    4.3485884    4.3485884    4.3485884   -5648.6321   -23262.231    14461.109   -8144.7746   -9824.0096     4391.124   -9199.4446    82.232768 
   67200    1413.1603   -111.72381    1.2786571   -110.44515   -14843.485    4.3456024    4.3456024    4.3456024   -14843.485   -11543.233    607.07327   -33594.294    4159.2896    1303.7149   -830.99901    82.063485 
   67300    406.58876   -110.82309   0.36789005    -110.4552   -1917.2368    4.3323755    4.3323755    4.3323755   -1917.2368    30581.475    10966.421   -47299.606    14874.098   -3539.7722   -21922.186    81.316425 
   67400    1527.5038   -111.83026    1.3821175   -110.44815    155.90481    4.3344983    4.3344983    4.3344983    155.90481    28.601019     6019.907   -5580.7936    4261.9156     11218.36   -1104.0532    81.436013 
   67500    1527.8561   -111.82709    1.3824363   -110.44465   -4003.6445    4.3543313    4.3543313    4.3543313   -4003.6445   -9239.0337    17483.266   -20255.166   -350.61083     1082.937   -11619.419    82.558998 
   67600    1095.0633   -111.43632   0.99083625   -110.44548   -31406.705    4.3507946    4.3507946    4.3507946   -31406.705   -16565.503     -50614.6   -27040.011    8556.1208    3119.4458   -15651.761     82.35799 
   67700    1046.7055   -111.38683    0.9470811   -110.43975    14158.381    4.3256156    4.3256156    4.3256156    14158.381   -8357.3711    69931.867   -19099.353    3594.9135    20712.667    6270.6595    80.936379 
   67800    1376.3683   -111.69302     1.245367   -110.44766   -17.726786    4.3280394    4.3280394    4.3280394   -17.726786    11236.811    17322.776   -28612.767   -13563.731   -1641.1174   -6095.1485    81.072508 
   67900    696.92635   -111.09427    0.6305936   -110.46368   -2520.4701    4.3543595    4.3543595    4.3543595   -2520.4701   -14344.406    19316.236    -12533.24    18246.068    11578.306   -14393.811    82.560603 
   68000    1302.1406   -111.63048    1.1782042   -110.45227   -25941.731    4.3548511    4.3548511    4.3548511   -25941.731   -49359.947   -30252.503    1787.2561   -9881.6672    18003.877    12006.596    82.588566 
   68100    1405.3591   -111.70145    1.2715985   -110.42985    39784.312    4.3269101    4.3269101    4.3269101    39784.312    24640.369    45726.838     48985.73   -3498.9347   -724.30838    -418.9134    81.009062 
   68200    1236.5119   -111.56563    1.1188219   -110.44681    -11569.02    4.3386349    4.3386349    4.3386349    -11569.02   -19007.554   -9499.5976    -6199.909    17374.848    8542.4713   -5532.2524    81.669391 
   68300     539.0979   -110.93739   0.48778711    -110.4496   -14389.814    4.3540998    4.3540998    4.3540998   -14389.814   -27965.047    26759.624   -41964.019   -16186.951    18245.369    14827.191    82.545831 
   68400    1470.8342   -111.76764    1.3308417    -110.4368    15476.372    4.3347888    4.3347888    4.3347888    15476.372    40815.738    18745.618    -13132.24    7559.1784    3946.2843   -9547.8338    81.452389 
   68500    1150.1973    -111.4912    1.0407227   -110.45048    10344.739     4.336901     4.336901     4.336901    10344.739   -10138.267    36645.718    4526.7673    12306.787    10949.949   -6348.8498    81.571513 
   68600    845.03158   -111.21697   0.76460233   -110.45237   -2804.2621    4.3496525    4.3496525    4.3496525   -2804.2621   -11106.066     16614.67   -13921.391    1841.6903    13608.207    4027.0678    82.293148 
   68700    1445.7547   -111.74162    1.3081492   -110.43347    12060.933    4.3487589    4.3487589    4.3487589    12060.933    23298.098    5495.4432    7389.2581   -6319.6278    7755.0907   -11477.505    82.242441 
   68800    1087.8378   -111.42204   0.98429846   -110.43774   -10213.268    4.3457427    4.3457427    4.3457427   -10213.268   -32930.602    17929.635   -15638.837    10361.124    9985.9381    4758.8726    82.071435 
   68900    779.89544   -111.14886   0.70566578   -110.44319    6984.7423    4.3327044    4.3327044    4.3327044    6984.7423    21057.972    21041.462   -21145.207   -9208.1474    3040.0845    6347.9463    81.334946 
   69000    1423.6822   -111.73253    1.2881776   -110.44435    21247.895    4.3403531    4.3403531    4.3403531    21247.895    22364.063    25568.636    15810.987    -4283.714    13400.423   -8574.0123    81.766457 
   69100    1414.6341   -111.71987    1.2799907   -110.43988   -17838.497    4.3579354    4.3579354    4.3579354   -17838.497   -32098.339   -6399.3658   -15017.786    3512.7686    10337.253    19188.973    82.764171 
   69200    1025.7614   -111.36282   0.92813049   -110.43469    12484.229    4.3365753    4.3365753    4.3365753    12484.229    25442.526    6573.2815    5436.8791     -10106.6   -1485.3585    12633.298    81.553139 
   69300    1300.5157   -111.61259     1.176734   -110.43586    13753.662     4.333745     4.333745     4.333745    13753.662    25745.218    26185.361   -10669.592    7283.4327     6815.379   -10039.559    81.393563 
   69400    1328.5017   -111.63763    1.2020563   -110.43557    -9448.666    4.3512555    4.3512555    4.3512555    -9448.666   -4167.5498    9307.7998   -33486.248   -8931.1883   -3858.6409    17304.235    82.384166 
   69500    1055.2524   -111.39201   0.95481457    -110.4372    604.94084    4.3439854    4.3439854    4.3439854    604.94084     17973.66    21988.677   -38147.514   -4359.4575    -8365.552   -9301.0551    81.971914 
   69600    1643.1799    -111.9195    1.4867837   -110.43272    9021.0985    4.3423739    4.3423739    4.3423739    9021.0985    13255.098     20641.82   -6833.6227    1282.4775   -1580.4645   -12317.656    81.880722 
   69700    1590.9296   -111.87422    1.4395065   -110.43471   -6825.1989    4.3444829    4.3444829    4.3444829   -6825.1989    2036.5562    3861.4141   -26373.567   -6391.1972   -15723.799    2548.4413    82.000079 
   69800    827.92545   -111.18888   0.74912435   -110.43976    -4153.406    4.3440439    4.3440439    4.3440439    -4153.406    16839.817    14590.226   -43890.261    1630.7112   -4047.2972   -18531.849    81.975223 
   69900    1390.9044   -111.68617    1.2585196   -110.42765   -2250.6867    4.3533356    4.3533356    4.3533356   -2250.6867     12615.87    9092.6543   -28460.585    7300.6211    217.19977    331.60096    82.502375 
   70000    1188.4128   -111.51138    1.0753008   -110.43608   -6809.2328     4.340702     4.340702     4.340702   -6809.2328     23882.92   -17178.994   -27131.625    5528.7546   -12503.096   -18835.058    81.786177 
   70100    1296.4641   -111.61061    1.1730679   -110.43755    15175.985    4.3270943    4.3270943    4.3270943    15175.985    33482.362    9497.1372    2548.4567   -2916.9394    10748.739    -8436.499    81.019409 
   70200    1570.7916   -111.86492    1.4212852   -110.44363    8744.4502    4.3473343    4.3473343    4.3473343    8744.4502    13071.163    -8530.236    21692.424    20429.001    15443.479    10487.943    82.161642 
   70300    878.18783   -111.24078    0.7946028   -110.44617   -13993.454     4.351828     4.351828     4.351828   -13993.454    31779.802   -31766.422   -41993.741   -5542.7065   -16538.907   -12799.323    82.416691 
   70400    1001.8126   -111.34078   0.90646111   -110.43432    9348.4765    4.3268085    4.3268085    4.3268085    9348.4765    15796.939    30295.423   -18046.932    4329.6372    795.04723   -3254.0909     81.00336 
   70500    1169.1947   -111.50221     1.057912    -110.4443    9624.8159    4.3375082    4.3375082    4.3375082    9624.8159    15499.683    14055.172   -680.40774    8148.2538    4703.4164    3951.9401    81.605782 
   70600    958.86874     -111.312   0.86760458    -110.4444   -11408.242    4.3572306    4.3572306    4.3572306   -11408.242    17798.793   -26597.109    -25426.41   -6444.2476   -20364.656   -16568.785    82.724019 
   70700    1585.8715   -111.86472    1.4349299   -110.42979    2210.6086    4.3362968    4.3362968    4.3362968    2210.6086   -12550.364    11412.133     7770.056    1246.2906   -8211.0548    1266.9662    81.537426 
   70800    1207.7334   -111.53008    1.0927826    -110.4373    15934.012    4.3327193    4.3327193    4.3327193    15934.012     20925.47    22251.035    4625.5293     21092.53   -896.93804   -4405.0112    81.335783 
   70900    1063.1263   -111.40684   0.96193901   -110.44491   -19984.152    4.3478067    4.3478067    4.3478067   -19984.152    21201.683   -16279.518   -64874.621   -5380.6654   -10761.565   -25555.969    82.188428 
   71000    1036.2585   -111.37622   0.93762845    -110.4386   -12098.443    4.3446551    4.3446551    4.3446551   -12098.443   -6565.3538    1454.5108   -31184.487    9460.5948    7793.7217    11029.438    82.009829 
   71100     1306.773   -111.61782    1.1823957   -110.43543   -11255.817    4.3436903    4.3436903    4.3436903   -11255.817   -19758.153     9352.256   -23361.554    26740.501    -2571.638   -10297.318    81.955209 
   71200    1540.1845   -111.83049    1.3935913    -110.4369    1451.0105    4.3384504    4.3384504    4.3384504    1451.0105    24546.039   -3967.9818   -16225.025   -14120.454   -12780.049   -12926.862    81.658972 
   71300    1195.7787    -111.5302    1.0819657   -110.44824    9046.7697    4.3334757    4.3334757    4.3334757    9046.7697   -155.97336    8518.8187    18777.464    18328.938    19049.181    16235.524     81.37839 
   71400    1113.1275   -111.45861    1.0071812   -110.45143   -8309.9616    4.3515318    4.3515318    4.3515318   -8309.9616   -8554.9626    9777.1354   -26152.058    581.58869    11381.933   -7053.1377    82.399861 
   71500    1274.2636   -111.58733    1.1529805   -110.43435   -18546.577    4.3508943    4.3508943    4.3508943   -18546.577    -5453.102   -26860.333   -23326.296   -10325.523   -8622.9479    -4494.854    82.363654 
   71600    722.44371   -111.08966   0.65368226   -110.43598    19183.956    4.3302679    4.3302679    4.3302679    19183.956    13036.477    10835.814    33679.576    14648.477    20846.863    10284.065    81.197809 
   71700    1503.6841   -111.80611     1.360565   -110.44555    6918.2889    4.3435798    4.3435798    4.3435798    6918.2889    4145.6446    2910.4974    13698.725   -8580.9356    10673.551    1710.2673    81.948953 
   71800    1498.9071   -111.79585    1.3562427   -110.43961     7133.424    4.3503888    4.3503888    4.3503888     7133.424    6890.1512    2775.5981    11734.523    5907.7013   -21827.696   -1858.2046    82.334946 
   71900    726.28274   -111.10029   0.65715588   -110.44313    7680.3924     4.341644     4.341644     4.341644    7680.3924    15031.659     10616.11   -2606.5923    20178.026    14913.733    3305.7857    81.839438 
   72000    1376.1376   -111.67834    1.2451582   -110.43318   -4655.3104    4.3432228    4.3432228    4.3432228   -4655.3104   -9693.0811    14801.822   -19074.672    1907.3693   -1712.7477    2904.1289    81.928749 
   72100    943.69636   -111.29583    0.8538763   -110.44195    39431.937    4.3288437    4.3288437    4.3288437    39431.937    103711.39    12786.039    1798.3883    7538.4159   -8245.0079   -760.95493    81.117715 
   72200    886.78029   -111.27031   0.80237744   -110.46793   -19220.966    4.3483864    4.3483864    4.3483864   -19220.966   -41723.993    10112.298   -26051.202    22871.165    33512.837    7577.9789     82.22131 
   72300    1691.6819   -111.97366    1.5306693   -110.44299   -606.74451    4.3509767    4.3509767    4.3509767   -606.74451    28462.982   -14802.619   -15480.597   -8769.6335    7604.3132   -1439.6896    82.368333 
   72400    1404.8361   -111.71468    1.2711252   -110.44355    14320.113    4.3219303    4.3219303    4.3219303    14320.113    40915.906   -2692.7908    4737.2231    1281.2442    11614.456   -1519.9671    80.729688 
   72500     791.4357   -111.18297   0.71610765   -110.46687   -12512.917    4.3340493    4.3340493    4.3340493   -12512.917   -4250.9225   -2526.2177   -30761.612     14262.88    28573.497    6892.2815    81.410709 
   72600    1170.6697   -111.50566    1.0592466   -110.44642    7552.6929    4.3594006    4.3594006    4.3594006    7552.6929    69129.348   -24255.832   -22215.437   -5468.8348   -7998.0535   -1865.8842    82.847677 
   72700    1134.4736    -111.4764    1.0264956   -110.44991   -17842.458    4.3468176    4.3468176    4.3468176   -17842.458   -27991.132   -15875.039   -9661.2007    10682.072    10844.728    3099.4702     82.13235 
   72800    1339.2667   -111.65535    1.2117967   -110.44355    8541.2041    4.3223515    4.3223515    4.3223515    8541.2041    26786.574    3902.6488   -5065.6101    23693.629    19225.699    5739.4916    80.753293 
   72900    1698.5165   -111.98749    1.5368534   -110.45064    16265.867    4.3432566    4.3432566    4.3432566    16265.867     47198.14    -752.0266    2351.4877   -6880.1145   -19109.975   -2388.4309    81.930664 
   73000    1057.3607   -111.41264   0.95672217   -110.45592   -17737.259    4.3524508    4.3524508    4.3524508   -17737.259   -26175.555     -11410.3   -15625.924    979.13526    17854.578   -566.34214    82.452077 
   73100    692.87074   -111.07365   0.62692401   -110.44672    25910.278    4.3404805    4.3404805    4.3404805    25910.278    71997.073    18174.242   -12440.483    9615.3163    12278.837     5176.207    81.773658 
   73200    1729.5446   -112.00152    1.5649283   -110.43659   -12502.557    4.3459176    4.3459176    4.3459176   -12502.557   -6001.0251   -5445.9796   -26060.667   -16332.451   -7191.5676    480.94776    82.081343 
   73300    929.63363    -111.2878   0.84115204   -110.44665   -1555.2044    4.3425444    4.3425444    4.3425444   -1555.2044    12997.249    -3391.201   -14271.661    26071.804    19845.605    2646.5614    81.890366 
   73400    1546.7098   -111.84627    1.3994955   -110.44677    -622.0879    4.3416938    4.3416938    4.3416938    -622.0879     3259.475    3870.1286   -8995.8673    6795.2317    9875.9878     2081.957    81.842255 
   73500    1651.1199   -111.93828     1.493968   -110.44431   -2692.3749     4.344124     4.344124     4.344124   -2692.3749    5839.4036    6362.9345   -20279.463   -323.61335   -16864.023    2776.9417    81.979758 
   73600    793.76394    -111.1701    0.7182143   -110.45189    9990.4817    4.3335747    4.3335747    4.3335747    9990.4817    27755.473     15197.86   -12981.888    22656.593    15266.783     6699.965    81.383966 
   73700    1146.9387   -111.49374    1.0377742   -110.45597   -14667.611    4.3479878    4.3479878    4.3479878   -14667.611    4405.4157   -25476.786   -22931.462   -934.79765    3348.4731    8103.1111    82.198702 
   73800    1394.5974   -111.71096     1.261861    -110.4491    219.73572    4.3450152    4.3450152    4.3450152    219.73572    29045.861    8990.6341   -37377.288   -9189.6571   -8464.0385   -194.57452    82.030224 
   73900    1230.0836   -111.56678    1.1130055   -110.45377    15662.358    4.3279157    4.3279157    4.3279157    15662.358    27635.709    13498.495    5852.8698    19357.968    31097.063    5985.6657    81.065561 
   74000    1359.4803   -111.69361    1.2300863   -110.46352   -19855.788     4.349181     4.349181     4.349181   -19855.788     1330.829   -42332.707   -18565.485   -13967.321    -10890.51    15276.699     82.26639 
   74100     1458.321   -111.76779    1.3195195   -110.44827   -3890.6882    4.3427479    4.3427479    4.3427479   -3890.6882     3324.584    8195.3107   -23191.959   -2816.9821   -12859.151    -5351.544     81.90188 
   74200    871.63056    -111.2345   0.78866964   -110.44583    10247.878    4.3292303    4.3292303    4.3292303    10247.878    44917.253     10495.27   -24668.888    17771.517    17633.858    15414.244    81.139453 
   74300    1011.1606   -111.36891   0.91491941   -110.45399   -21584.673    4.3433162    4.3433162    4.3433162   -21584.673   -6004.4016    -19729.26   -39020.358   -12768.649   -10876.663     7174.509    81.934033 
   74400    1374.1995   -111.69508    1.2434046   -110.45168    5426.4724    4.3456184    4.3456184    4.3456184    5426.4724    41097.712    7734.0109   -32552.306   -2883.1032   -4565.0625    -7744.679    82.064394 
   74500    1586.6933   -111.88348    1.4356735   -110.44781    779.25537    4.3402095    4.3402095    4.3402095    779.25537   -6861.6006    15561.655   -6362.2878    -204.1187    11214.013    11775.037    81.758343 
   74600    983.96483    -111.3399   0.89031206   -110.44959    7006.7321    4.3372885    4.3372885    4.3372885    7006.7321    57672.047    -13534.44    -23117.41   -4946.3248   -3883.6102   -2051.2844    81.593382 
   74700    1018.0856   -111.37149   0.92118521   -110.45031   -10492.238    4.3429189    4.3429189    4.3429189   -10492.238   -11961.856    16260.504   -35775.363   -14008.906    1357.4299   -8414.6416    81.911555 
   74800    1312.9298   -111.63403    1.1879665   -110.44606    4389.6696    4.3392125    4.3392125    4.3392125    4389.6696    26465.548   -2057.3519   -11239.187    5066.9731    2948.8076    11364.368    81.702016 
   74900    1187.5737   -111.52631    1.0745416   -110.45177   -2135.9325    4.3429368    4.3429368    4.3429368   -2135.9325     17976.15   -8621.9607   -15761.987   -11321.471   -3930.8202   -6612.4224    81.912568 
   75000    1452.6928   -111.76146    1.3144269   -110.44704   -19432.286    4.3486502    4.3486502    4.3486502   -19432.286   -18593.306   -18269.485   -21434.067   -9975.9447   -3091.9693   -7910.9742    82.236276 
   75100    1406.4675   -111.71008    1.2726013   -110.43748    14389.563    4.3369639    4.3369639    4.3369639    14389.563    46613.368    15289.883   -18734.561    3304.5194    13794.229    17031.982    81.575061 
   75200    1158.6054   -111.49073    1.0483305    -110.4424   -19084.153    4.3416494    4.3416494    4.3416494   -19084.153    1109.0899   -32749.761   -25611.788   -14910.733   -10277.591   -10739.818    81.839739 
   75300    837.67525   -111.20566   0.75794617   -110.44772   -7808.1517    4.3498756    4.3498756    4.3498756   -7808.1517    5802.9277    2217.8111   -31445.194   -699.88746    5266.0014   -7251.1623    82.305814 
   75400    1513.4986   -111.80729    1.3694453   -110.43785    4342.6993    4.3459482    4.3459482    4.3459482    4342.6993    13599.076    400.99124   -971.96978    4246.6418    6601.1797    17048.694    82.083079 
   75500    1092.6127    -111.4325   0.98861894   -110.44388   -5083.6998    4.3432623    4.3432623    4.3432623   -5083.6998   -6676.3581   -9773.1865    1198.4452   -17960.824   -14723.847   -9374.9728    81.930982 
   75600    1175.1234    -111.5059    1.0632764   -110.44262     4274.302    4.3393616    4.3393616    4.3393616     4274.302    30320.031    4086.5976   -21583.723   -1269.6975   -3472.5655    1967.2291    81.710433 
   75700    1293.3477    -111.6106    1.1702482   -110.44035    8894.2228    4.3482017    4.3482017    4.3482017    8894.2228   -5910.7508    11989.242    20604.177   -869.65886    12091.861    13317.108    82.210831 
   75800    931.72213   -111.28995   0.84304177    -110.4469   -2658.9565      4.34676      4.34676      4.34676   -2658.9565   -22284.906    217.42046    14090.616   -17064.341   -7066.4608   -9802.4884    82.129088 
   75900     1307.237   -111.62213    1.1828155   -110.43931     10081.86    4.3398887    4.3398887    4.3398887     10081.86    1537.2468    10543.215    18165.117    992.32447    12194.731    10707.911    81.740216 
   76000    1376.2101   -111.68078    1.2452238   -110.43556    4662.3006    4.3526501    4.3526501    4.3526501    4662.3006     -19502.8    6735.9721     26753.73   -4749.9008    4355.9057    4670.7325    82.463408 
   76100     789.7275   -111.15502   0.71456204   -110.44045     1116.938    4.3522087    4.3522087    4.3522087     1116.938   -8362.3939    -4386.292      16099.5    1884.4042    5054.8575   -21734.331    82.438324 
   76200    1287.6994    -111.6016    1.1651374   -110.43647   -131.21188    4.3464437    4.3464437    4.3464437   -131.21188    -31782.36    39847.327   -8458.6025    13500.754    12983.115    627.98731    82.111158 
   76300     1356.464   -111.66127    1.2273571   -110.43391    16383.175    4.3442294    4.3442294    4.3442294    16383.175   -34941.509    61980.174    22110.861   -6110.4208   -5287.3495   -9201.2255     81.98573 
   76400     861.1864   -111.22724   0.77921955   -110.44802   -2704.0697    4.3444698    4.3444698    4.3444698   -2704.0697   -16697.596   -10291.666    18877.053    -7545.256    4511.8041   -12221.821    81.999337 
   76500    1273.1721   -111.59009    1.1519928    -110.4381    760.10299    4.3480036    4.3480036    4.3480036    760.10299   -2601.7693   -13018.029    17900.108     6745.926    11387.663   -3405.1996    82.199596 
   76600    1577.7405   -111.85884    1.4275728   -110.43127     5824.593    4.3472364    4.3472364    4.3472364     5824.593    6647.5706    8898.7502    1927.4583   -8722.1821    -5700.375   -5149.8828     82.15609 
   76700    994.41342   -111.33948   0.89976616   -110.43972   -15803.885    4.3451877    4.3451877    4.3451877   -15803.885   -13891.054   -30756.797   -2763.8023    4572.3843   -3703.5334   -1477.7308    82.039995 
   76800    1316.5995    -111.6255    1.1912869   -110.43421   -6599.8184     4.342446     4.342446     4.342446   -6599.8184   -25254.031    14595.465   -9140.8897     6909.486     3119.864   -3898.1683    81.884799 
   76900    1590.4411   -111.87019    1.4390645   -110.43113    -13930.11    4.3503477    4.3503477    4.3503477    -13930.11   -34115.652   -28330.916    20656.237   -8624.1964   -1530.7776    4113.0825    82.332617 
   77000    838.86736   -111.19496   0.75902482   -110.43594   -22507.332    4.3507171    4.3507171    4.3507171   -22507.332    -3685.551   -61440.794   -2395.6521    15782.125    1301.9352   -8427.8928    82.353588 
   77100    1453.9297   -111.75189    1.3155462   -110.43635   -9447.4422    4.3383696    4.3383696    4.3383696   -9447.4422   -16807.556    617.45963   -12152.231   -2327.2365    1578.3431    13421.219     81.65441 
   77200    1539.6374   -111.83767    1.3930963   -110.44457    10904.012    4.3416721    4.3416721    4.3416721    10904.012    20619.592   -514.19197    12606.636    6376.0851   -3263.7628    1310.9295    81.841025 
   77300    1214.9509   -111.55343    1.0993132   -110.45412   -24103.344    4.3474557    4.3474557    4.3474557   -24103.344   -35905.742   -37287.628    883.33708    16356.451   -3750.8125   -13775.799    82.168528 
   77400    896.51305   -111.26376   0.81118384   -110.45258    17226.303     4.337496     4.337496     4.337496    17226.303   -25144.443    25041.053    51782.299    262.52055   -3385.5089    14227.154    81.605095 
   77500    1126.2468   -111.46853    1.0190518   -110.44948    14868.733      4.34852      4.34852      4.34852    14868.733    31788.312   -26897.461    39715.348    1964.6265   -8236.7652   -19431.099    82.228886 
   77600    1297.9166   -111.62572    1.1743822   -110.45134   -15277.997       4.3504       4.3504       4.3504   -15277.997    -11102.04   -49933.185    15201.234    16581.087    1138.9732   -12205.265    82.335586 
   77700    1162.5234   -111.50027    1.0518756   -110.44839    23986.739    4.3326055    4.3326055    4.3326055    23986.739    40493.104    15593.453    15873.659   -8842.4105    7704.5267    5903.0913    81.329377 
   77800    1509.4904    -111.8186    1.3658186   -110.45278   -18834.009    4.3476615    4.3476615    4.3476615   -18834.009   -20573.311   -18278.928   -17649.788   -11752.099    1576.5999   -28018.073    82.180197 
   77900    1285.5356   -111.60344    1.1631796   -110.44026   -22411.928    4.3572381    4.3572381    4.3572381   -22411.928   -13991.279   -41410.479   -11834.027     4025.038     3377.178   -7848.8475    82.724448 
   78000    1112.7295   -111.44389    1.0068211   -110.43707   -7234.7478     4.345338     4.345338     4.345338   -7234.7478   -13952.771    -28658.09    20906.617   -13564.659    3599.2525   -1386.5883    82.048507 
   78100    1161.8633   -111.49337    1.0512783    -110.4421   -2845.2751    4.3422319    4.3422319    4.3422319   -2845.2751    25718.704   -35175.122    920.59232   -1326.7365    3963.1437   -34985.453    81.872687 
   78200    1502.4511   -111.80141    1.3594494   -110.44196    20993.918    4.3470052    4.3470052    4.3470052    20993.918    29521.842   -22537.161    55997.073   -8954.5539   -19959.658     4970.597    82.142983 
   78300    1033.6989   -111.38322   0.93531245   -110.44791   -9422.5157    4.3583091    4.3583091    4.3583091   -9422.5157    25378.357    -35344.37   -18301.534   -1912.6023   -3107.7318   -10574.913    82.785461 
   78400    726.01456   -111.09671   0.65691323    -110.4398    6520.1792    4.3499779    4.3499779    4.3499779    6520.1792    75797.981   -35043.312   -21194.131   -238.22476   -4056.8117    -15625.44     82.31162 
   78500    1160.7629   -111.48237    1.0502827   -110.43209     26643.01     4.341521     4.341521     4.341521     26643.01    74504.417   -26994.953    32419.564    786.03205   -14661.388    8411.7184     81.83248 
   78600    1111.7937   -111.44864    1.0059743   -110.44267   -22383.078    4.3670652    4.3670652    4.3670652   -22383.078   -25073.802   -36820.936   -5254.4959    2.5459492   -1911.6247   -28378.228    83.285427 
   78700    1413.8929   -111.70264      1.27932   -110.42332   -4589.1541    4.3630151    4.3630151    4.3630151   -4589.1541   -14993.569    2053.3998   -827.29334    1338.4519    17599.445      6339.14    83.053921 
   78800     1456.011   -111.73193    1.3174294    -110.4145    10622.972     4.337396     4.337396     4.337396    10622.972   -6044.6766    11119.377    26794.215    3599.7468    -1646.821   -4363.1544    81.599447 
   78900    995.88601   -111.34226   0.90109859   -110.44116   -13840.895    4.3464709    4.3464709    4.3464709   -13840.895   -9341.4976    2547.6262   -34728.815      1516.38    17141.932   -24412.791      82.1127 
   79000    1143.4651   -111.47413    1.0346313    -110.4395   -10264.838    4.3588225    4.3588225    4.3588225   -10264.838    117.26858    5921.4608   -36833.244    3433.0274    10633.582    26017.836     82.81472 
   79100    1506.5913   -111.79695    1.3631955   -110.43375   -12200.705    4.3546225    4.3546225    4.3546225   -12200.705    14405.954   -19398.674   -31609.396    11553.998    587.12504    1520.5444    82.575561 
   79200    1271.2418   -111.58848    1.1502463   -110.43823   -6312.6134    4.3453878    4.3453878    4.3453878   -6312.6134    19657.037   -2812.5961   -35782.281   -9428.8486    11460.673     -14151.1    82.051329 
   79300    1596.8235    -111.8806    1.4448395   -110.43576   -8940.4569    4.3406167    4.3406167    4.3406167   -8940.4569    10265.155    -5131.639   -31954.887   -2760.9487    8507.8957     26953.03    81.781356 
   79400    1116.2065   -111.45601    1.0099671   -110.44604   -18601.344    4.3571131    4.3571131    4.3571131   -18601.344   -11614.212   -17701.465   -26488.356   -3330.9599   -6873.5917   -4783.6315    82.717327 
   79500    881.03786   -111.23504   0.79718157   -110.43786   -29073.588    4.3615345    4.3615345    4.3615345   -29073.588   -43309.299    14972.257   -58883.723   -4480.0592    16002.942   -10046.251    82.969399 
   79600    1432.0867    -111.7158    1.2957822   -110.42002    6717.0742    4.3428918    4.3428918    4.3428918    6717.0742    5393.4698    37472.682   -22714.929   -4584.9043    286.07754    22122.987    81.910017 
   79700    1063.4425   -111.39417   0.96222513   -110.43194   -4766.1584    4.3475234    4.3475234    4.3475234   -4766.1584   -468.11357     11163.87   -24994.231    11328.804   -1463.7751   -22576.545    82.172364 
   79800    1174.5393   -111.50089    1.0627478   -110.43814   -17330.166    4.3568892    4.3568892    4.3568892   -17330.166    337.86583   -5843.6778   -46484.686    -1140.799    12774.997    396.39161    82.704577 
   79900    1342.5595    -111.6487    1.2147761   -110.43392    1116.2975    4.3471012    4.3471012    4.3471012    1116.2975    12734.845    -17608.88    8222.9276    10013.569    2196.1361    18234.693    82.148428 
   80000     880.4089   -111.23849   0.79661248   -110.44188   -15339.909    4.3398655    4.3398655    4.3398655   -15339.909   -8416.2786   -25315.991   -12287.457    2573.4995    14143.551   -27590.573    81.738902 
   80100    992.70066    -111.3415   0.89821642   -110.44328   -3656.9797    4.3461096    4.3461096    4.3461096   -3656.9797   -44916.444    16731.307    17214.198   -12122.365    12506.085    5095.4108    82.092225 
   80200    1602.7283    -111.8889    1.4501823   -110.43871   -12638.389     4.351483     4.351483     4.351483   -12638.389    -17564.93    -17768.48   -2581.7558    16666.774    -7734.906    1378.7591    82.397089 
   80300    1112.8593   -111.45414    1.0069385    -110.4472   -12407.487    4.3436658    4.3436658    4.3436658   -12407.487   -1794.8323    -12931.27   -22496.358   -10241.894    34516.284   -16451.126    81.953819 
   80400    1312.2597   -111.63188    1.1873602   -110.44452    3003.2613    4.3403762    4.3403762    4.3403762    3003.2613   -4323.4922   -3011.9991    16345.275   -22375.473    5338.8614   -3519.7988    81.767765 
   80500    980.15696    -111.3297   0.88686661   -110.44283   -2433.2088    4.3618198    4.3618198    4.3618198   -2433.2088    -21076.52    5392.5566    8384.3368     8151.001   -8664.9282    13771.607     82.98568 
   80600    624.86466   -111.00072   0.56539068   -110.43533   -28565.501    4.3603993    4.3603993    4.3603993   -28565.501   -35127.596   -9726.8291   -40842.077   -12322.912    40654.587   -16068.132    82.904629 
   80700    1528.9548   -111.79856    1.3834305   -110.41513    15045.676    4.3305477    4.3305477    4.3305477    15045.676    14348.934    11064.833     19723.26   -16523.964   -6377.0909   -5796.5699    81.213545 
   80800     1198.282   -111.52074    1.0842307   -110.43651    14122.835    4.3438241    4.3438241    4.3438241    14122.835     5304.353    30448.142    6616.0089    3359.9758    16977.359    23662.567    81.962784 
   80900     858.0294   -111.21836   0.77636303     -110.442   -30921.237    4.3621508    4.3621508    4.3621508   -30921.237   -28903.034   -19942.419   -43918.258    1117.3284    24764.654   -12362.533    83.004575 
   81000     1691.413      -111.95    1.5304261   -110.41957   -13556.267     4.342848     4.342848     4.342848   -13556.267   -13876.064    -17959.38   -8833.3583    2278.2697   -14636.452   -7275.3864     81.90754 
   81100    848.42688   -111.20212   0.76767447   -110.43445    4868.9838     4.343116     4.343116     4.343116    4868.9838   -31824.393    36435.871    9995.4731    7007.9302     23597.61    11909.669    81.922707 
   81200     744.1635   -111.11481   0.67333477   -110.44148   -23278.771    4.3542276    4.3542276    4.3542276   -23278.771   -17587.241    -23895.76   -28353.311   -11629.291    8711.2613   -8648.1444    82.553101 
   81300    1643.3471    -111.9137     1.486935   -110.42677    4017.2775    4.3421258    4.3421258    4.3421258    4017.2775    4129.9164   -8802.7734     16724.69    14434.446   -9622.9759   -5123.1069    81.866684 
   81400    1368.5447   -111.67597     1.238288   -110.43768   -7688.5141    4.3436874    4.3436874    4.3436874   -7688.5141   -14585.121    30550.265   -39030.687    880.52296    22200.752   -6562.9902    81.955043 
   81500    937.42175   -111.29179    0.8481989    -110.4436   -11981.925    4.3447803    4.3447803    4.3447803   -11981.925   -2640.9403   -28230.077   -5074.7583   -24993.853    1682.2356   -19853.362    82.016919 
   81600    1420.6997    -111.7213    1.2854789   -110.43582   -2482.2942     4.340016     4.340016     4.340016   -2482.2942   -7627.2476    12651.088   -12470.723    4692.4101    844.31345   -637.64705    81.747408 
   81700    987.33762   -111.33749   0.89336383   -110.44412   -14646.032    4.3523264    4.3523264    4.3523264   -14646.032   -34231.306   -1108.6153   -8598.1749    405.61498     22031.82   -3158.2932    82.445007 
   81800    1218.0437   -111.53972    1.1021115   -110.43761   -20869.304     4.350892     4.350892     4.350892   -20869.304    14246.573   -41704.655    -35149.83   -18037.461   -9828.1313   -15918.287    82.363521 
   81900    1188.6842   -111.50603    1.0755465   -110.43049    27566.314    4.3372822    4.3372822    4.3372822    27566.314    7609.6026    58730.623    16358.718    8638.9854    20182.527    12125.013    81.593026 
   82000    1384.9557   -111.69059     1.253137   -110.43745   -13892.033     4.347142     4.347142     4.347142   -13892.033   -28750.449   -10325.755   -2599.8962   -316.71857    12350.427   -2963.8318     82.15074 
   82100    1084.1584   -111.41817   0.98096929    -110.4372   -13455.592    4.3539457    4.3539457    4.3539457   -13455.592   -11230.446   -18808.187   -10328.143   -6314.7158   -9220.1089   -16388.779    82.537067 
   82200    934.43335   -111.28094   0.84549493   -110.43545    843.00273    4.3441836    4.3441836    4.3441836    843.00273   -31312.371    30670.324     3171.055    9621.9151    39963.307    10292.481    81.983134 
   82300    1426.5059   -111.72542    1.2907325   -110.43468   -5487.4734     4.338763     4.338763     4.338763   -5487.4734   -2920.3125   -8494.8104   -5047.2973     846.6847   -8590.4784   -27568.603    81.676622 
   82400    1378.5379   -111.68813      1.24733    -110.4408   -13923.427    4.3490278    4.3490278    4.3490278   -13923.427   -25470.174   -9841.7426    -6458.364    3369.0611    9419.1515   -20863.156    82.257697 
   82500    1154.8672   -111.48557    1.0449481   -110.44062   -5444.2984     4.347505     4.347505     4.347505   -5444.2984   -35059.496    32392.346   -13665.745     12131.72    34384.872    6972.7714     82.17132 
   82600    1328.1973   -111.64007    1.2017808   -110.43829    -484.7899    4.3370006    4.3370006    4.3370006    -484.7899   -2137.3186   -24012.742    24695.691   -4391.2765   -11538.143   -32770.576    81.577132 
   82700    1014.9689   -111.36588   0.91836522   -110.44752    1384.5546    4.3390258    4.3390258    4.3390258    1384.5546   -37969.178    1572.6943    40550.147    3413.6451    24475.349    1840.6903    81.691466 
   82800    1151.9938   -111.49117    1.0423482   -110.44882   -9817.5355    4.3562471    4.3562471    4.3562471   -9817.5355   -7892.8533   -8857.0507   -12702.702    8912.9876    21665.748    883.25758    82.668018 
   82900    1250.3379   -111.56936     1.131332   -110.43803   -7927.9059    4.3492268    4.3492268    4.3492268   -7927.9059     25523.28   -40812.261   -8494.7374   -5124.8997   -11105.628   -23846.965     82.26899 
   83000    1492.6992   -111.77788    1.3506256   -110.42725    1008.1469    4.3300785    4.3300785    4.3300785    1008.1469   -2900.3174    4582.0502     1342.708    5311.8309    15806.514    7036.1077    81.187153 
   83100    852.03347   -111.21739   0.77093779   -110.44645    1025.3843    4.3505563    4.3505563    4.3505563    1025.3843    2991.3205   -11604.398     11689.23    9817.0351   -4853.8377   -8712.0093    82.344459 
   83200    999.81549   -111.34436   0.90465407    -110.4397       -15900    4.3537004    4.3537004    4.3537004       -15900    2409.6647   -37207.148   -12902.516    7339.2989   -21947.224   -20333.432    82.523114 
   83300    1449.2395    -111.7379    1.3113023    -110.4266    16500.062    4.3345754    4.3345754    4.3345754    16500.062   -4126.5758   -13827.583    67454.344     17563.86    5102.8817    17264.048    81.440359 
   83400    1048.3968   -111.38899   0.94861145   -110.44038     6953.818    4.3447441    4.3447441    4.3447441     6953.818    31528.778    6141.7422   -16809.066   -1503.1646   -12034.496   -17663.862    82.014872 
   83500    973.83603   -111.32199    0.8811473   -110.44085   -12851.117    4.3528173    4.3528173    4.3528173   -12851.117    744.94235   -25833.907   -13464.386    13426.279   -7865.4821   -5523.2069     82.47291 
   83600      1424.43   -111.71722    1.2888542   -110.42837   -6904.4239    4.3480226    4.3480226    4.3480226   -6904.4239   -13979.715   -36007.907    29274.351    15388.835    4211.1387    9157.9256    82.200676 
   83700    907.96652   -111.25681   0.82154718   -110.43527    -9562.118    4.3424945    4.3424945    4.3424945    -9562.118     30975.93   -32059.701   -27602.582   -10268.793    -6912.515   -24758.881    81.887542 
   83800    1283.0118   -111.59878     1.160896   -110.43788   -10434.449    4.3443225    4.3443225    4.3443225   -10434.449   -26331.355   -28199.173    23227.182     19093.74    1384.9369    603.01349    81.990999 
   83900    1845.3807    -112.1008    1.6697392   -110.43106   -16798.938    4.3545844    4.3545844    4.3545844   -16798.938   -8677.5548    -30907.06   -10812.199     11209.89     6927.872   -2444.8154    82.573395 
   84000    1219.4746   -111.54423    1.1034063   -110.44082   -21718.396    4.3439104    4.3439104    4.3439104   -21718.396    5239.7333   -29773.725   -40621.195   -3694.2534   -11025.817   -22725.167    81.967665 
   84100    691.19193   -111.07044   0.62540498   -110.44503    33966.664    4.3319423    4.3319423    4.3319423    33966.664    28656.212    3671.4062    69572.374    19220.871   -3210.1382    6274.8167    81.292036 
   84200    1403.1622   -111.71663    1.2696106   -110.44702    -6218.483    4.3502353    4.3502353    4.3502353    -6218.483    18095.278   -35119.388   -1631.3383   -1234.0443    11234.697   -13430.404    82.326234 
   84300    1015.9663    -111.3723   0.91926764   -110.45303    3154.1042    4.3458907    4.3458907    4.3458907    3154.1042    11836.612   -9930.0271    7555.7274    12660.104   -21481.358    8265.7741    82.079819 
   84400    989.74424   -111.34818   0.89554139   -110.45264    23884.559    4.3377257    4.3377257    4.3377257    23884.559    1557.6823    13646.764    56449.231    20747.359    15827.717    4158.8924    81.618057 
   84500    1851.9626   -112.11384    1.6756947   -110.43815   -11240.838    4.3507197    4.3507197    4.3507197   -11240.838   -24153.045   -6561.7718   -3007.6979   -2350.4436    8129.6205   -4787.8692    82.353737 
   84600    1005.0994   -111.35406   0.90943505   -110.44462    17876.544    4.3378906    4.3378906    4.3378906    17876.544   -9495.8065    11523.218    51602.221     7961.768   -18276.797    4879.8763    81.627368 
   84700    708.66855   -111.09823    0.6412182   -110.45702   -2427.7204    4.3355321    4.3355321    4.3355321   -2427.7204   -36034.369    36922.426   -8171.2189    15492.075    10812.238    4622.2313    81.494298 
   84800    1505.0743   -111.80683    1.3618229   -110.44501   -9335.3582    4.3524278    4.3524278    4.3524278   -9335.3582   -22966.286   -15614.395    10574.606   -9507.3918    11461.598   -2848.6605    82.450773 
   84900    1285.6587    -111.6041     1.163291   -110.44081   -6759.8281    4.3488701    4.3488701    4.3488701   -6759.8281    -17927.68   -12251.216    9899.4119    550.58626   -15951.431    5111.8533     82.24875 
   85000    965.50432   -111.31478   0.87360859   -110.44117   -2258.5183    4.3407804    4.3407804    4.3407804   -2258.5183   -11371.781    27026.645   -22430.419   -2490.5187    9828.5427    13008.785    81.790607 
   85100    1412.7117    -111.7101    1.2782513   -110.43185    7666.1576    4.3432654    4.3432654    4.3432654    7666.1576    4912.7018   -40.931903    18126.703   -13968.727    19080.008   -8683.1573    81.931159 
   85200    932.30854   -111.28435   0.84357236   -110.44078   -540.70537    4.3494181    4.3494181    4.3494181   -540.70537    -8302.286   -29648.388    36328.558    16349.888     11638.13    10788.674    82.279848 
   85300    824.50906   -111.18708   0.74603312   -110.44104   -1662.4648    4.3492782    4.3492782    4.3492782   -1662.4648   -2057.6667   -3755.0913    825.36361     -11878.7    23155.287    6465.9761    82.271908 
   85400    1324.4611   -111.63322    1.1984002   -110.43482    4645.4813     4.342042     4.342042     4.342042    4645.4813   -8193.8441   -24642.109    46772.397   -13845.259    11177.106   -836.34696    81.861944 
   85500    1340.7118   -111.65016    1.2131042   -110.43706    19415.637    4.3415365    4.3415365    4.3415365    19415.637    15986.702   -12122.958    54383.168    14273.951    15750.598    13026.172     81.83336 
   85600    955.09379   -111.30707   0.86418893   -110.44288   -26588.145    4.3545781    4.3545781    4.3545781   -26588.145   -61217.923   -24349.328    5802.8163   -23917.032    148.24388    4977.5216    82.573038 
   85700    1239.0338   -111.55716    1.1211039   -110.43606   -16889.648     4.346777     4.346777     4.346777   -16889.648   -41060.333   -31449.475    21840.865    2129.1835   -4680.9513   -4073.9869    82.130051 
   85800    1556.0483   -111.84066    1.4079452   -110.43271    10495.856    4.3300578    4.3300578    4.3300578    10495.856   -9523.5434   -13210.685    54221.797   -5862.7587   -6960.9361    7574.5148     81.18599 
   85900    1028.0422   -111.38577   0.93019418   -110.45558   -10021.224    4.3460513    4.3460513    4.3460513   -10021.224   -40786.362   -21371.161     32093.85   -16572.186   -7118.7807   -12217.837     82.08892 
   86000    1403.0804   -111.71209    1.2695366   -110.44255   -1017.7454    4.3571603    4.3571603    4.3571603   -1017.7454    -16764.93   -36717.056     50428.75    5266.1735   -7245.2013   -11044.296    82.720016 
   86100    1301.5269   -111.61414    1.1776489    -110.4365    10388.121    4.3431993    4.3431993    4.3431993    10388.121   -1590.0855    4337.5938    28416.854   -18213.155    14654.959   -5167.2822    81.927419 
   86200    1203.8357   -111.52532    1.0892559   -110.43606   -14071.747    4.3425527    4.3425527    4.3425527   -14071.747   -49508.555   -4796.3524    12089.667   -7129.5107    1054.4402   -11488.407    81.890833 
   86300    1384.7555   -111.68657    1.2529559   -110.43361   -11521.806    4.3519766    4.3519766    4.3519766   -11521.806   -21661.037   -8723.9621   -4180.4186   -4132.9082    6796.7486   -7821.6689    82.425133 
   86400     1222.536   -111.53615    1.1061763   -110.42997    8534.0155    4.3506121    4.3506121    4.3506121    8534.0155   -7645.0884   -4285.4941    37532.629   -19530.371    1164.2587   -4764.1186    82.347627 
   86500    1357.3896   -111.65307    1.2281947   -110.42487   -508.04647    4.3533798    4.3533798    4.3533798   -508.04647   -34980.566    5856.3276    27600.099    1149.8204    3303.3794    5694.1967    82.504889 
   86600    890.47438   -111.23724   0.80571993   -110.43152    9571.3892    4.3440412    4.3440412    4.3440412    9571.3892   -40327.276   -13689.511    82730.954   -28636.986    7453.0335    863.74447    81.975072 
   86700    1200.7254   -111.52005    1.0864415    -110.4336    6053.5254    4.3394883    4.3394883    4.3394883    6053.5254   -35907.028    23932.854     30134.75   -2249.6153   -909.83331    11334.546    81.717592 
   86800    1292.4943   -111.60826     1.169476   -110.43879   -7147.3786    4.3479202    4.3479202    4.3479202   -7147.3786   -35973.025    23261.085    -8730.196   -6663.4837   -6130.6623   -24.541191    82.194869 
   86900    1368.1799   -111.67615    1.2379579    -110.4382   -8783.5075    4.3362177    4.3362177    4.3362177   -8783.5075   -6003.7201   -32991.204    12644.401   -36293.827    5666.1765    2402.3383    81.532964 
   87000     1226.521   -111.55429    1.1097819   -110.44451    10015.294    4.3408436    4.3408436    4.3408436    10015.294   -12336.733    34701.768     7680.846    7992.3369   -8131.5771   -248.72381    81.794181 
   87100    825.00401   -111.18613   0.74648097   -110.43965    -15886.49    4.3590481    4.3590481    4.3590481    -15886.49   -43723.186   -11329.982    7393.6972    -13848.37   -7127.0951    4937.8843    82.827584 
   87200    1358.6272   -111.65939    1.2293145   -110.43008   -165.29643    4.3302892    4.3302892    4.3302892   -165.29643     -4853.17   -31538.761    35896.042    -24559.02    127.18651    9695.2231    81.199005 
   87300    1321.3269   -111.63688    1.1955644   -110.44131    15887.688    4.3327225    4.3327225    4.3327225    15887.688   -3019.1084    10335.942    40346.231    4013.8647   -17309.427    3276.7595    81.335963 
   87400     944.0033   -111.30006   0.85415402   -110.44591   -13735.864    4.3524627    4.3524627    4.3524627   -13735.864   -47151.013    3101.3954    2842.0257   -20825.125   -6567.8023   -462.52589    82.452755 
   87500    1485.3646   -111.78164    1.3439891   -110.43765   -5561.3666    4.3382446    4.3382446    4.3382446   -5561.3666   -21095.597   -8317.7623     12729.26    -236.3655    893.29918    4150.1903    81.647351 
   87600    1224.1858   -111.54987    1.1076691    -110.4422    2706.7975     4.338535     4.338535     4.338535    2706.7975   -31619.732    14556.263    25183.861   -6211.7385    -5074.532   -605.08279    81.663748 
   87700    868.21744   -111.23508   0.78558138    -110.4495    -10240.39    4.3401708    4.3401708    4.3401708    -10240.39   -57286.916    4504.6545     22061.09   -30373.952    2197.3677   -4238.3243    81.756157 
   87800     1372.713   -111.68995    1.2420595   -110.44789     2046.847    4.3420595    4.3420595    4.3420595     2046.847   -7059.2139   -13356.322    26556.076    14330.522     14486.09    24393.414    81.862935 
   87900    1258.6247   -111.58815    1.1388301   -110.44932    1111.7392    4.3497539    4.3497539    4.3497539    1111.7392   -36037.121    33630.745    5741.5941   -10633.274   -4360.0977    82.482387    82.298904 
   88000    1024.3456   -111.37629   0.92684941   -110.44944    12454.425    4.3353663    4.3353663    4.3353663    12454.425   -23311.979    4067.5007    56607.755   -28712.687    3803.6484    6976.5886     81.48495 
   88100    1225.6552   -111.55614    1.1089986   -110.44714    10809.842    4.3370964    4.3370964    4.3370964    10809.842   -11820.045    26121.346    18128.226    17183.008    807.01866    16275.881    81.582539 
   88200     947.1435   -111.29947   0.85699535   -110.44248   -12990.117    4.3528724    4.3528724    4.3528724   -12990.117   -51726.417   -14037.685     26793.75    -28981.27   -3960.8384   -11656.563    82.476039 
   88300     1387.473   -111.69092    1.2554147    -110.4355    4179.6648    4.3332633    4.3332633    4.3332633    4179.6648   -4597.2652   -6927.1812    24063.441   -14257.373    12401.804   -2515.5777    81.366428 
   88400    1196.0014   -111.52604    1.0821672   -110.44388    25248.321    4.3306802    4.3306802    4.3306802    25248.321    14325.484    49314.507    12104.973    6114.0182   -9097.2836    6137.3684    81.221004 
   88500    1391.3381   -111.70784     1.258912   -110.44893   -29767.843    4.3486224    4.3486224    4.3486224   -29767.843   -42058.683   -33811.781   -13433.066   -28804.125    5608.9841   -3838.4765    82.234696 
   88600    1264.6845   -111.58848    1.1443131   -110.44416     17323.84     4.334657     4.334657     4.334657     17323.84   -8015.8043    44357.096    15630.229    917.98116    7486.1938   -2258.2121    81.444958 
   88700    1176.8506   -111.51288    1.0648392   -110.44804   -506.04474    4.3402319    4.3402319    4.3402319   -506.04474   -10149.104   -12856.194    21487.164    2645.7408   -8702.9213    13563.891    81.759611 
   88800    1143.9562   -111.48264    1.0350756   -110.44756   -27337.074    4.3492538    4.3492538    4.3492538   -27337.074   -14813.709    -43478.25   -23719.263   -11308.981    12353.397    -9193.792    82.270525 
   88900     1452.555    -111.7493    1.3143023     -110.435   -1144.3636    4.3483988    4.3483988    4.3483988   -1144.3636   -15135.394    14421.401    -2719.098    4876.5801    8999.5559   -12993.993    82.222012 
   89000    1394.0666   -111.68748    1.2613807    -110.4261   -11800.018    4.3486578    4.3486578    4.3486578   -11800.018   -30301.854   -19775.562    14677.363   -2449.7697   -3747.4654    6531.0764    82.236704 
   89100    915.42964   -111.25962   0.82829998   -110.43132    6802.4087    4.3300986    4.3300986    4.3300986    6802.4087    15510.229    4794.4145    102.58238    -2686.017    8085.2082   -21976.254    81.188281 
   89200     1300.037   -111.62226    1.1763008   -110.44596    3659.7582    4.3394995    4.3394995    4.3394995    3659.7582   -23873.614    12402.089      22450.8    9460.3911    13326.788   -6147.3438    81.718223 
   89300    1140.0321   -111.47523     1.031525    -110.4437   -16993.231     4.354753     4.354753     4.354753   -16993.231   -22906.984   -28467.535     394.8248   -5672.1651   -12583.949   -7562.4687    82.582988 
   89400    815.55618   -111.18359   0.73793237   -110.44566   -2217.3362    4.3331982    4.3331982    4.3331982   -2217.3362    30180.209   -9846.5938   -26985.624   -5156.5731    9058.7438   -29650.275    81.362759 
   89500    1295.9797   -111.61631    1.1726297   -110.44368    15432.421    4.3318765    4.3318765    4.3318765    15432.421   -4006.0393    21332.802    28970.502    4483.7205   -5926.1098    3833.2063    81.288329 
   89600    1602.7903   -111.89176    1.4502383   -110.44153   -3791.1535    4.3434606    4.3434606    4.3434606   -3791.1535   -13503.493   -2782.5928    4912.6252   -2562.5548   -13040.797   -14116.212    81.942205 
   89700    903.47946   -111.26834   0.81748721   -110.45085    19758.475    4.3397098    4.3397098    4.3397098    19758.475    27837.886    2276.0702    29161.468    -14416.69    15605.053   -13525.012    81.730104 
   89800    981.67247   -111.34304   0.88823788    -110.4548   -16716.904     4.342465     4.342465     4.342465   -16716.904   -16607.705    6993.5118   -40536.519   -1615.0078   -25751.183    20181.072    81.885872 
   89900    1089.0963   -111.43189   0.98543721   -110.44646    7939.7299    4.3347758    4.3347758    4.3347758    7939.7299    19401.846    7248.8982   -2831.5541   -646.36446    1710.0583    3870.3006    81.451658 
   90000    1157.9428   -111.49638    1.0477309   -110.44865     12544.18    4.3356287    4.3356287    4.3356287     12544.18    14519.042    25007.897   -1894.3972   -9297.3375    4685.7577    978.66145    81.499747 
   90100    844.78916   -111.22038   0.76438299   -110.45599   -11694.066    4.3466192    4.3466192    4.3466192   -11694.066   -33405.081    28478.846   -30155.964    163.07609   -24539.208    27220.386    82.121105 
   90200    1504.0482   -111.80226    1.3608944   -110.44137    25904.403    4.3392815    4.3392815    4.3392815    25904.403    19264.807    28943.617    29504.786    1072.6744     3584.275    4913.2954     81.70591 
   90300    1264.6423   -111.59268     1.144275   -110.44841    9326.5501    4.3350303    4.3350303    4.3350303    9326.5501   -12097.999    31518.257    8559.3923    3501.1973   -4275.5499    10923.692    81.466003 
   90400    380.26844   -110.81034   0.34407487   -110.46626   -77.826978    4.3379071    4.3379071    4.3379071   -77.826978    21556.764    24015.668   -45805.912    342.38349   -13423.575    25056.143    81.628299 
   90500    1385.2356   -111.70981    1.2533903   -110.45642    2802.7864    4.3484579    4.3484579    4.3484579    2802.7864   -8399.2092    11741.533    5066.0354    2313.2177    4379.9272   -13428.856    82.225366 
   90600    1457.7006   -111.76533    1.3189582   -110.44637    2278.3896    4.3462254    4.3462254    4.3462254    2278.3896   -11757.485    25343.666   -6751.0119    1103.9546   -3756.5863    8654.3505    82.098785 
   90700    955.87367   -111.30713   0.86489458   -110.44224    2024.4077    4.3313626    4.3313626    4.3313626    2024.4077    6679.1215    28131.253   -28737.152    7581.3908   -7150.1638    14198.732    81.259405 
   90800     1119.148   -111.46288    1.0126286   -110.45025   -6304.9959    4.3397208    4.3397208    4.3397208   -6304.9959    22772.839   -12505.319   -29182.508    1169.1229    12055.122   -33105.257    81.730726 
   90900    1594.8923   -111.88224    1.4430921   -110.43915   -7696.8426    4.3483966    4.3483966    4.3483966   -7696.8426   -22215.236   -23138.581    22263.289    4234.0048    4676.0918   -1545.1424    82.221885 
   91000    1210.4491   -111.53913    1.0952398   -110.44389    -16856.28    4.3441194    4.3441194    4.3441194    -16856.28    17195.092   -39308.502   -28455.429    2471.5206   -152.01269    5331.1705    81.979497 
   91100     952.5882   -111.31184   0.86192182   -110.44992   -8248.7299    4.3336987    4.3336987    4.3336987   -8248.7299    17545.184   -38373.066   -3918.3073    1311.9303    14888.176   -38154.504    81.390952 
   91200    1753.0403   -112.02956    1.5861877   -110.44337    3747.3837    4.3350284    4.3350284    4.3350284    3747.3837    -859.1835    4699.0332    7402.3015    1149.3843   -5805.8182     8952.322    81.465895 
   91300    983.34691   -111.34371   0.88975295   -110.45396   -26942.616    4.3515835    4.3515835    4.3515835   -26942.616   -4621.5318    -28141.67   -48064.646   -4212.4048     4938.467   -6715.2932    82.402797 
   91400    874.09585   -111.24646   0.79090029   -110.45556   -10412.715    4.3414697    4.3414697    4.3414697   -10412.715    17313.777    -20140.38   -28411.541   -275.38326    17644.755   -16795.029    81.829582 
   91500    1815.4893   -112.08557    1.6426929   -110.44287    12650.486    4.3341315    4.3341315    4.3341315    12650.486   -8100.9706    9742.6515    36309.776   -6110.9265   -15902.573     9428.639    81.415345 
   91600    1199.1532   -111.53301     1.085019   -110.44799    16145.701    4.3354874    4.3354874    4.3354874    16145.701    29683.963   -7038.9277    25792.067    1042.6222    2734.9397   -23670.014    81.491779 
   91700    593.93448   -110.99227    0.5374044   -110.45486    11976.941     4.347174     4.347174     4.347174    11976.941    23800.853   -279.96055    12409.931   -6811.1603    16831.837   -10562.737    82.152557 
   91800    1531.1957   -111.81662    1.3854581   -110.43116   -22327.063    4.3599661    4.3599661    4.3599661   -22327.063   -31604.199    661.71608   -36038.707   -387.91956   -12578.554     6617.939    82.879923 
   91900    1430.0607   -111.71687     1.293949   -110.42293    13211.195    4.3366904    4.3366904    4.3366904    13211.195    23973.379   -7124.4135    22784.618    1876.4197    6442.0813   -26562.391     81.55963 
   92000    1032.0698   -111.36767   0.93383844   -110.43383    15136.251    4.3256747    4.3256747    4.3256747    15136.251    18189.966    21505.118     5713.669   -12133.031    11682.768    2109.0636    80.939696 
   92100     1227.697   -111.55555    1.1108461    -110.4447   -6842.6663    4.3490843    4.3490843    4.3490843   -6842.6663   -13538.924    22768.492   -29757.567   -87.826861   -13839.646    10466.146    82.260905 
   92200     1191.457   -111.51343    1.0780553   -110.43537    1894.7949     4.350111     4.350111     4.350111    1894.7949    2731.7382   -1622.7367    4575.3833    2174.4011    13284.167   -12365.552    82.319177 
   92300    746.37394   -111.11681   0.67533483   -110.44148    12172.703    4.3365569    4.3365569    4.3365569    12172.703   -4675.0578    17888.726     23304.44   -8718.5864    1144.8058    7988.1294    81.552099 
   92400    1510.9698    -111.8103    1.3671572   -110.44315    1734.9988    4.3329641    4.3329641    4.3329641    1734.9988    2390.5701    4775.7291   -1961.3027   -1737.1585   -20212.291    26268.054    81.349571 
   92500    1476.1644   -111.78489    1.3356645   -110.44923    13052.987    4.3389439    4.3389439    4.3389439    13052.987    161.58378   -255.81035    39253.187    14490.501    14688.111   -5870.1675    81.686842 
   92600    885.42628   -111.25686   0.80115231    -110.4557   -7781.1329    4.3500758    4.3500758    4.3500758   -7781.1329   -2080.8969    28915.922   -50178.424   -13813.582   -4102.9254    4263.2964    82.317178 
   92700    1018.7369   -111.36447   0.92177453   -110.44269   -12438.403    4.3443029    4.3443029    4.3443029   -12438.403   -1591.8872     -9715.45   -26007.873    2527.7958   -6761.1373    15237.867    81.989891 
   92800    1160.2881    -111.4867     1.049853   -110.43685    37358.849    4.3293474    4.3293474    4.3293474    37358.849    26592.933    16538.018    68945.596     6391.052    15455.995    3017.3283    81.146034 
   92900    1097.9802   -111.44219   0.99347555   -110.44872    7765.4847    4.3429966    4.3429966    4.3429966    7765.4847    10564.767   -3615.0616    16346.748   -13824.049    5679.3897    13384.691    81.915949 
   93000    1177.4316   -111.51087    1.0653649    -110.4455   -10389.929    4.3537965    4.3537965    4.3537965   -10389.929   -3443.7644   -36180.446    8454.4241    13132.996   -530.66864    8440.7241     82.52858 
   93100    1517.9547   -111.81024    1.3734773   -110.43676    4885.1427    4.3409168    4.3409168    4.3409168    4885.1427    17769.687   -19131.161    16016.901   -7743.2252     14103.83   -3787.4119    81.798318 
   93200    844.92433   -111.20785   0.76450529   -110.44334    10912.423    4.3352987    4.3352987    4.3352987    10912.423    27147.734    10247.351    -4657.817   -12690.976   -12713.726    16387.942    81.481139 
   93300    1000.0494   -111.35375   0.90486568   -110.44889   -20595.137    4.3428245    4.3428245    4.3428245   -20595.137   -7936.0191   -27752.692   -26096.699    21540.858    -3620.338   -14452.381     81.90621 
   93400    1295.5866    -111.6138     1.172274   -110.44153    5669.1122    4.3468491    4.3468491    4.3468491    5669.1122   -5401.1567   -23321.278    45729.771   -1686.0592   -4507.9413   -2899.4815    82.134139 
   93500    1321.3779   -111.63564    1.1956105   -110.44003   -6707.1639    4.3458715    4.3458715    4.3458715   -6707.1639   -29946.845    -9090.848    18916.201   -5061.1483   -22518.465    8578.3207    82.078733 
   93600    1028.7953   -111.37475   0.93087561   -110.44387   -16555.027    4.3399002    4.3399002    4.3399002   -16555.027   -25323.909   -27536.295    3195.1235    25389.021   -3517.1563   -25320.645    81.740862 
   93700    1577.6799   -111.86261    1.4275179   -110.43509    961.16372    4.3400671    4.3400671    4.3400671    961.16372   -13464.294   -27119.312    43467.097   -8312.4679   -2055.0343   -5459.8005    81.750294 
   93800    1237.6269   -111.55767    1.1198309   -110.43784   -32833.379    4.3526364    4.3526364    4.3526364   -32833.379   -46033.761   -33540.387   -18925.989    12984.094    -18148.85    7416.8763    82.462629 
   93900    676.90218   -111.05765   0.61247532   -110.44517   -31221.842    4.3431477    4.3431477    4.3431477   -31221.842   -39070.945   -54275.442   -319.13934        21797    5561.7492   -12896.346    81.924498 
   94000    1251.6075   -111.57405    1.1324808   -110.44156    27800.814     4.324859     4.324859     4.324859    27800.814    18064.774    -5430.071    70767.739   -13402.024   -3222.5877    2382.4009    80.893918 
   94100    1472.8784   -111.78736    1.3326914   -110.45467    -4940.324    4.3376281    4.3376281    4.3376281    -4940.324   -20583.629   -22555.449    28318.106    25224.306   -3832.5455    13787.188     81.61255 
   94200     1216.764   -111.55652    1.1009536   -110.45557   -8276.2435    4.3519565    4.3519565    4.3519565   -8276.2435   -30248.043   -42811.509    48230.822    8221.2757    4266.3371   -17422.587    82.423989 
   94300     1270.257   -111.58564    1.1493553   -110.43628   -895.54365    4.3531806    4.3531806    4.3531806   -895.54365    6800.7162   -25648.023    16160.676   -88.824446   -5593.1548    13.111235     82.49356 
   94400    1210.6933    -111.5275    1.0954607   -110.43204   -5060.4833    4.3414452    4.3414452    4.3414452   -5060.4833   -38069.768   -19161.574    42049.892    19276.751   -1839.4582   -5360.9768    81.828192 
   94500    1056.1504   -111.39352    0.9556271   -110.43789    8757.8484    4.3318228    4.3318228    4.3318228    8757.8484    4363.4638   -23556.363    45466.444   -4193.0129    14498.816   -14329.579    81.285306 
   94600    1257.0207   -111.58679    1.1373787   -110.44941   -1267.5566    4.3390031    4.3390031    4.3390031   -1267.5566    5364.5345   -24432.101    15264.897    10627.108   -5653.4507    1126.7697    81.690186 
   94700    1458.8211   -111.76668     1.319972   -110.44671   -3992.2073    4.3500929    4.3500929    4.3500929   -3992.2073     -29357.3    -29557.85    46938.528    5035.5319    8867.7021    10791.145    82.318148 
   94800    1467.4905    -111.7664    1.3278162   -110.43859   -18792.152     4.347417     4.347417     4.347417   -18792.152   -5435.5163   -39775.893   -11165.046   -8189.7034   -4751.8552    3169.8214    82.166329 
   94900    931.04856    -111.2784    0.8424323   -110.43597    5754.1242     4.335529     4.335529     4.335529    5754.1242    12098.097   -30998.195    36162.471    12308.591    7283.1861     19419.32    81.494119 
   95000    1250.3292    -111.5687    1.1313242   -110.43737   -7875.8563    4.3469309    4.3469309    4.3469309   -7875.8563   -27082.491   -37738.886    41193.808   -6339.9746    4041.7322    4763.4937    82.138774 
   95100    1505.2825   -111.79594    1.3620113   -110.43393   -13746.036    4.3498584    4.3498584    4.3498584   -13746.036   -19360.352   -44129.372    22251.617    714.67915    10743.424    6329.3885    82.304834 
   95200    1137.9361   -111.46805    1.0296285   -110.43842    4411.9472    4.3394023    4.3394023    4.3394023    4411.9472    2800.6794   -9718.5356    20153.698    1100.1039   -2247.3669    5874.8597    81.712735 
   95300    1185.9746   -111.51885    1.0730947   -110.44576   -7797.8281    4.3414183    4.3414183    4.3414183   -7797.8281   -40277.268    -3901.948    20785.732   -5139.1606    19030.432   -16583.938    81.826672 
   95400    1435.1225   -111.73979     1.298529   -110.44126    2726.7031    4.3358245    4.3358245    4.3358245    2726.7031   -6958.0487    8046.6226    7091.5353    4718.5884   -9914.6364    16251.143    81.510789 
   95500    707.95726   -111.09558   0.64057461     -110.455    -17539.86    4.3489811    4.3489811    4.3489811    -17539.86   -34825.475   -11968.911   -5825.1951   -6647.8581    3624.0501    6722.9895    82.255046 
   95600    1167.0916   -111.50518     1.056009   -110.44918   -13504.202    4.3440848    4.3440848    4.3440848   -13504.202   -31106.055    -1211.741   -8194.8091   -3596.3958    5598.1338   -8633.7749    81.977542 
   95700    1440.9888   -111.74129    1.3038369   -110.43746    23713.536    4.3324782    4.3324782    4.3324782    23713.536    5032.3678      9480.98     56627.26    1181.8206   -13984.262    12161.481    81.322209 
   95800    981.96448    -111.3358   0.88850209    -110.4473    -11427.66    4.3465211    4.3465211    4.3465211    -11427.66   -44288.584   -19081.359    29086.962   -1936.3972    9109.0037    13471.938    82.115546 
   95900    1059.6816   -111.40104    0.9588222   -110.44222   -15491.373    4.3517852    4.3517852    4.3517852   -15491.373   -9962.2941    -28293.86   -8217.9636     4424.446    8714.6096   -19709.345    82.414258 
   96000     1112.037   -111.44382    1.0061945   -110.43762    6753.5545    4.3465172    4.3465172    4.3465172    6753.5545    -5864.631   -28643.878    54769.172    7833.0707   -9243.8779   -10471.978    82.115323 
   96100    1349.6744   -111.65411    1.2212137    -110.4329   -1482.4907    4.3344781    4.3344781    4.3344781   -1482.4907   -8034.1427    3546.3419     40.32862    1980.3565     29511.32   -2549.2178    81.434878 
   96200    1000.4576   -111.34695   0.90523502   -110.44171    17016.503    4.3369735    4.3369735    4.3369735    17016.503    26692.957    -2065.939    26422.491    10783.369    3440.0077   -36180.843    81.575604 
   96300    1173.8482   -111.49619    1.0621225   -110.43406    -2393.608    4.3561862    4.3561862    4.3561862    -2393.608   -20993.277   -21885.307     35697.76    15735.714    3391.8137   -3594.7125    82.664549 
   96400    1017.9893   -111.35273   0.92109807   -110.43164   -9337.8201    4.3487765    4.3487765    4.3487765   -9337.8201   -11279.824    3697.9179   -20431.554    2434.0792    26080.656   -9475.7814    82.243441 
   96500    1164.3238   -111.47972    1.0535046   -110.42622    15140.469    4.3359618    4.3359618    4.3359618    15140.469    24739.454   -24287.558     44969.51    17413.416   -228.83422   -21734.256     81.51853 
   96600    1376.6518   -111.67417    1.2456234   -110.42855    1640.7345    4.3399138    4.3399138    4.3399138    1640.7345   -15910.666   -2721.5007     23554.37    8449.0168    3184.7624    9119.8074    81.741634 
   96700    1052.8294   -111.38754   0.95262214   -110.43492   -12387.664    4.3413929    4.3413929    4.3413929   -12387.664   -16820.291    10851.996   -31194.696   -5134.4539    21206.302   -10199.865     81.82524 
   96800    1020.5813   -111.35849   0.92344341   -110.43505     10233.07     4.345353     4.345353     4.345353     10233.07   -10832.338   -7452.4485    48983.997    17931.025   -15320.766   -5336.8868     82.04936 
   96900    1158.8251   -111.48414    1.0485293   -110.43561   -1951.6065    4.3455893    4.3455893    4.3455893   -1951.6065   -4978.1826   -7782.4921    6905.8551   -2816.6306    3832.5174    5747.8307    82.062745 
   97000    1098.2618   -111.43368   0.99373036   -110.43994    3593.7191    4.3361662    4.3361662    4.3361662    3593.7191     14782.39    5378.6665   -9379.8996    1181.2805    16339.199   -22545.997    81.530058 
   97100    1421.3296   -111.72692    1.2860489   -110.44087    16280.954    4.3372793    4.3372793    4.3372793    16280.954    20013.064   -14599.402    43429.198    12875.802   -10458.495    1692.2039    81.592862 
   97200    1215.0367   -111.54041    1.0993907   -110.44102   -14084.173    4.3437851    4.3437851    4.3437851   -14084.173    -11639.23    -15507.15    -15106.14   -8537.8431     13728.51   -1739.1698    81.960572 
   97300    886.36005   -111.24259    0.8019972   -110.44059   -12221.833    4.3415525    4.3415525    4.3415525   -12221.833   -36707.185     961.2847   -919.59734   -1353.2685    22800.933   -17987.346     81.83426 
   97400    1348.8626   -111.65415    1.2204793   -110.43367    1141.7475    4.3431582    4.3431582    4.3431582    1141.7475   -21184.382   -7954.1944    32563.819     7571.346   -13990.771    10074.939    81.925091 
   97500    1435.0781   -111.73374    1.2984888   -110.43525   -20601.181    4.3418439    4.3418439    4.3418439   -20601.181   -20065.783   -19666.398   -22071.361   -13659.527    23290.957    -6337.069    81.850742 
   97600    1292.4146   -111.60756    1.1694039   -110.43815    11482.653    4.3368987    4.3368987    4.3368987    11482.653    4327.4421    21146.952    8973.5641    -2620.798    7200.1939   -8912.5365    81.571387 
   97700    1389.7985   -111.69046    1.2575189   -110.43294   -15180.939    4.3520949    4.3520949    4.3520949   -15180.939   -24934.389   -13219.213   -7389.2148    11020.455   -2348.3443    5428.5516    82.431855 
   97800    857.08036   -111.21168   0.77550432   -110.43617   -15439.208    4.3426081    4.3426081    4.3426081   -15439.208    -17480.64    8701.1326   -37538.116   -20110.614    27286.604   -6211.3579    81.893967 
   97900    1215.4003   -111.53328    1.0997197   -110.43356    14640.122    4.3358344    4.3358344    4.3358344    14640.122    19004.958    40542.977   -15627.567    16115.309   -9460.2685   -9288.3229    81.511346 
   98000    1423.3509   -111.72017    1.2878778   -110.43229   -11425.767    4.3549133    4.3549133    4.3549133   -11425.767   -17105.836     10316.25   -27487.716     15285.76    13142.312    2501.1013    82.592106 
   98100     1106.631   -111.43123     1.001303   -110.42993   -1448.4682    4.3427055    4.3427055    4.3427055   -1448.4682   -18506.331     43871.91   -29710.984    2110.7902    22907.264   -5340.4145    81.899479 
   98200    1104.1798   -111.42211   0.99908513   -110.42303    25016.434    4.3359863    4.3359863    4.3359863    25016.434    22015.714    25676.417     27357.17    15948.509   -13598.123   -12109.771    81.519914 
   98300    893.74014   -111.23929   0.80867486   -110.43062   -10646.985    4.3551931    4.3551931    4.3551931   -10646.985   -27290.675    4444.7573   -9095.0383    301.87648    32902.205   -5593.8598    82.608025 
   98400    1124.4685   -111.44443    1.0174428   -110.42699    4596.0181    4.3447029    4.3447029    4.3447029    4596.0181   -16142.237    8179.6721    21750.619    5821.6701    15554.398    -22055.47     82.01254 
   98500    1370.6311   -111.66677    1.2401758    -110.4266    38001.428    4.3298582    4.3298582    4.3298582    38001.428     35459.99    17850.385     60693.91    15362.991    1125.5684   -6075.0684    81.174761 
   98600    1081.2216    -111.4243   0.97831206   -110.44599   -12387.684    4.3509739    4.3509739    4.3509739   -12387.684   -49656.286    453.23656    12039.996     -6245.89     23347.32    1329.0448    82.368174 
   98700    1108.1156   -111.43999    1.0026463   -110.43734   -11032.215    4.3521975    4.3521975    4.3521975   -11032.215   -20283.911   -2053.3473   -10759.386    1363.3043    -14618.25   -16983.649    82.437685 
   98800    1360.2448   -111.65639    1.2307781   -110.42561    21070.802    4.3336365    4.3336365    4.3336365    21070.802    18496.597    43834.218    881.58996    10098.778     14050.07    9595.9908    81.387447 
   98900    1069.6905    -111.4079   0.96787849   -110.44002   -10680.503    4.3493338    4.3493338    4.3493338   -10680.503   -11381.368   -6628.2032   -14031.938   -3126.3635    13311.536    4777.9762     82.27506 
   99000    1479.0968    -111.7677    1.3383179   -110.42939   -2446.9578    4.3507156    4.3507156    4.3507156   -2446.9578    8496.5113   -14990.118   -847.26699    2003.2555   -8654.8913   -7233.3201    82.353504 
   99100    861.73584   -111.20792    0.7797167   -110.42821     19558.13    4.3364196    4.3364196    4.3364196     19558.13    -20213.64    40063.679     38824.35    7124.9477    26135.997    21486.152    81.544353 
   99200    924.41436   -111.27153   0.83642954    -110.4351   -14168.867    4.3443598    4.3443598    4.3443598   -14168.867   -48055.461   -14309.771     19858.63   -11066.846    1176.0254   -6936.3947    81.993109 
   99300    1417.4928   -111.70931    1.2825773   -110.42673    3557.2689    4.3444209    4.3444209    4.3444209    3557.2689    26657.794   -9611.7502   -6374.2369    4902.2155    2564.7436   -15573.642    81.996572 
   99400    1332.8746   -111.63737     1.206013   -110.43136    -2581.274    4.3391213    4.3391213    4.3391213    -2581.274   -7928.9189     16321.44   -16136.343   -12155.896    33569.096    16487.184     81.69686 
   99500    1380.1053   -111.68227    1.2487483   -110.43352   -20282.908    4.3444263    4.3444263    4.3444263   -20282.908   -4105.2566   -28266.291   -28477.176   -19487.943   -3579.7397   -26610.797    81.996875 
   99600    1359.9355   -111.65946    1.2304982   -110.42896   -10465.403    4.3411381    4.3411381    4.3411381   -10465.403    11526.611   -18096.411   -24826.409    2791.8345    12467.122   -7110.1373    81.810832 
   99700    940.22478   -111.28635   0.85073514   -110.43562   -16725.262    4.3495145    4.3495145    4.3495145   -16725.262    -30277.17    4510.3065   -24408.921   -7498.3031    19940.457    6020.5905    82.285318 
   99800    1299.2652   -111.60181    1.1756024   -110.42621    -15257.58     4.349237     4.349237     4.349237    -15257.58    -13870.22   -28645.054   -3257.4668   -18135.846   -12847.178   -16282.765    82.269571 
   99900    1375.6182   -111.66687    1.2446882   -110.42219    23480.284    4.3274556    4.3274556    4.3274556    23480.284    44714.012    15056.027    10670.814    5069.9371    11755.278    13935.764    81.039707 
  100000    1138.2398     -111.469    1.0299033    -110.4391    8363.9788    4.3412583    4.3412583    4.3412583    8363.9788    4056.6393   -2645.9182    23681.215   -3382.3107   -5578.1452    11118.342    81.817629 
Loop time of 22.7054 on 1 procs for 100000 steps with 8 atoms

Pair  time (%) = 7.04996 (31.0497)
Kspce time (%) = 5.57473 (24.5525)
Neigh time (%) = 0.0349653 (0.153996)
Comm  time (%) = 1.07285 (4.72507)
Outpt time (%) = 0.0281787 (0.124106)
Other time (%) = 8.94469 (39.3946)

Nlocal:    8 ave 8 max 8 min
Histogram: 1 0 0 0 0 0 0 0 0 0
Nghost:    2098 ave 2098 max 2098 min
Histogram: 1 0 0 0 0 0 0 0 0 0
Neighs:    2106 ave 2106 max 2106 min
Histogram: 1 0 0 0 0 0 0 0 0 0

Total # of neighbors = 2106
Ave neighs/atom = 263.25
Neighbor list builds = 375
Dangerous builds = 0
unfix 20
unfix 21
print "seeds:8887600"
seeds:8887600
