LAMMPS (10 Feb 2015)
# ---- initialize simulations
clear
units metal
dimension 3
boundary p p p
atom_style charge
atom_modify map array
# ---- create atoms
read_data /Users/eugeneragasa/pyflamestk_git/pypospack/tests/tests_integration/workflow/WorkflowLammpsThermalExpansion/MgO_NaCl_unit.npt.T300/lammps.structure
  triclinic box = (0 0 0) to (4.2565 4.2565 4.2565) with tilt (0 0 0)
  1 by 1 by 1 MPI processor grid
  reading atoms ...
  8 atoms
# ---- define interatomic potential
include potential.mod
mass 1 24.305
mass 2 15.999

group Mg type 1
4 atoms in group Mg
group O type 2
4 atoms in group O

set group Mg charge 2.0
  4 settings made for charge
set group O charge -2.0
  4 settings made for charge

variable R_cut equal 10.0

pair_style buck/coul/long ${R_cut}
pair_style buck/coul/long 10
pair_coeff 1 1 0.0 0.5 0.0 ${R_cut}
pair_coeff 1 1 0.0 0.5 0.0 10
pair_coeff 1 2 1279.69 0.29969 0.0 ${R_cut}
pair_coeff 1 2 1279.69 0.29969 0.0 10
pair_coeff 2 2 9547.96 0.21916 32.0 ${R_cut}
pair_coeff 2 2 9547.96 0.21916 32.0 10

kspace_style pppm 1.0e-5

neighbor 1.0 bin
neigh_modify every 1 delay 0 check yes
# ---- define settings
compute eng all pe/atom
compute eatoms all reduce sum c_eng
# ---- run minimization
reset_timestep 0
fix 1 all box/relax iso 0.0 vmax 0.001
thermo 10
thermo_style custom step pe lx ly lz xy xz yz press pxx pyy pzz pxy pxz pyz c_eatoms
min_style cg
minimize 1e-25 1e-25 5000 10000
PPPM initialization ...
  G vector (1/distance) = 0.354854
  grid = 8 8 8
  stencil order = 5
  estimated absolute RMS force accuracy = 5.34408e-05
  estimated relative force accuracy = 3.71126e-06
  using double precision FFTs
  3d grid and FFT values/proc = 3375 512
Neighbor list info ...
  1 neighbor list requests
  update every 1 steps, delay 0 steps, check yes
  master list distance cutoff = 11
Memory usage per processor = 4.06549 Mbytes
Step PotEng Lx Ly Lz Xy Xz Yz Press Pxx Pyy Pzz Pxy Pxz Pyz eatoms 
       0    -164.6599       4.2565       4.2565       4.2565            0            0            0   -75586.685   -75586.685   -75586.685   -75586.685 9.4798587e-11 1.6226154e-10 -3.4446142e-11    -164.6599 
      10   -164.72135     4.213935     4.213935     4.213935            0            0            0   -8637.4527   -8637.4527   -8637.4527   -8637.4527 -1.5549588e-10 2.0227431e-10 -1.1495762e-10   -164.72135 
      15   -164.72214      4.20883      4.20883      4.20883            0            0            0    5.5876567    5.5876567    5.5876567    5.5876567 2.0554645e-10 4.244052e-10 1.3955449e-10   -164.72214 
Loop time of 0.0198009 on 1 procs for 15 steps with 8 atoms

Minimization stats:
  Stopping criterion = linesearch alpha is zero
  Energy initial, next-to-last, final = 
        -164.659901251     -164.722138416     -164.722138416
  Force two-norm initial, final = 10.9148 0.000791362
  Force max component initial, final = 10.9148 0.000788889
  Final line search alpha, max atom move = 0.015625 1.23264e-05
  Iterations, force evaluations = 15 55

Pair  time (%) = 0.0053432 (26.9846)
Kspce time (%) = 0.0030818 (15.5639)
Neigh time (%) = 0 (0)
Comm  time (%) = 0.000618458 (3.12338)
Outpt time (%) = 1.81198e-05 (0.09151)
Other time (%) = 0.0107393 (54.2366)

Nlocal:    8 ave 8 max 8 min
Histogram: 1 0 0 0 0 0 0 0 0 0
Nghost:    2189 ave 2189 max 2189 min
Histogram: 1 0 0 0 0 0 0 0 0 0
Neighs:    2344 ave 2344 max 2344 min
Histogram: 1 0 0 0 0 0 0 0 0 0

Total # of neighbors = 2344
Ave neighs/atom = 293
Neighbor list builds = 0
Dangerous builds = 0
unfix 1
# ---- define output variables ----
variable natoms equal "count(all)"
variable tot_energy equal "c_eatoms"
variable length_x equal "lx"
variable length_y equal "ly"
variable length_z equal "lz"
variable tilt_xy equal "xy"
variable tilt_xz equal "xz"
variable tilt_yz equal "yz"
variable tot_press equal "press"
variable press_xx equal "pxx"
variable press_yy equal "pyy"
variable press_zz equal "pzz"
variable press_xy equal "pxy"
variable press_xz equal "pxz"
variable press_yz equal "pyz"

# ---- output ----
print "pypospack:output_section:begin"
pypospack:output_section:begin
print "tot_energy = ${tot_energy}"
tot_energy = -164.722138415744
print "num_atoms = ${natoms}"
num_atoms = 8
print "xx = ${length_x}"
xx = 4.20883001371435
print "yy = ${length_y}"
yy = 4.20883001371435
print "zz = ${length_z}"
zz = 4.20883001371435
print "xy = ${tilt_xy}"
xy = 0
print "xz = ${tilt_xz}"
xz = 0
print "yz = ${tilt_yz}"
yz = 0
print "tot_press = ${tot_press}"
tot_press = 5.58765665687492
print "pxx = ${press_xx}"
pxx = 5.58765665651822
print "pyy = ${press_yy}"
pyy = 5.58765665647238
print "pzz = ${press_zz}"
pzz = 5.58765665763416
print "pxy = ${press_xy}"
pxy = 2.0554645346851e-10
print "pxz = ${press_xz}"
pxz = 4.24405202668874e-10
print "pyz = ${press_yz}"
pyz = 1.39554488680613e-10
print "pypospack:output_section:done"
pypospack:output_section:done
print "pypospack:lammps_sim:done"
pypospack:lammps_sim:done
#------------------------------------------------------------------------------
# RUN THERMOSTAT
# running using an NPT Nose-Hoover style thermostat
#------------------------------------------------------------------------------
variable tempdamp equal 0.1
variable pressdamp equal 1.0
# set initial velocities
velocity all create 300 5622738 mom yes dist gaussian loop all
# fix for Nose-Hoover style thermostat
fix 20 all npt temp 300 300 0.1 aniso 0.0 0.0 1.0 drag 1.0 couple xyz
variable boxx equal lx
variable boxy equal ly
variable boxz equal lz
variable boxp equal press
variable boxt equal temp
# calculate averages every 10000 steps
reset_timestep 0
fix 21 all ave/time 10 10 100 v_boxx v_boxy v_boxz v_boxp v_boxt file lattice.out
thermo_style custom step temp pe ke etotal press lx ly lz press pxx pyy pzz pxy pxz pyz vol
thermo_modify flush yes
thermo 100
run 100000
PPPM initialization ...
  G vector (1/distance) = 0.355405
  grid = 8 8 8
  stencil order = 5
  estimated absolute RMS force accuracy = 5.20839e-05
  estimated relative force accuracy = 3.61703e-06
  using double precision FFTs
  3d grid and FFT values/proc = 3375 512
Memory usage per processor = 3.06549 Mbytes
Step Temp PotEng KinEng TotEng Press Lx Ly Lz Press Pxx Pyy Pzz Pxy Pxz Pyz Volume 
       0          300   -164.72213    0.2714463   -164.45069    3895.3166      4.20883      4.20883      4.20883    3895.3166    6120.9931    3610.5133    1954.4434   -3858.0597     2038.146   -1481.7142    74.556267 
     100     255.9739   -164.64053   0.23161057   -164.40892   -4132.5547    4.2168841    4.2168841    4.2168841   -4132.5547    4699.8747   -7842.6449   -9254.8941    358.17533   -1311.3564    651.63656    74.985101 
     200    251.54005   -164.56691   0.22759873   -164.33931   -873.68687    4.2159549    4.2159549    4.2159549   -873.68687    3148.1357   -2540.2859   -3228.9104    344.96461    -647.9578   -119.34649    74.935544 
     300    293.96965   -164.53885   0.26598992   -164.27286    855.47752     4.214293     4.214293     4.214293    855.47752    9374.7544   -3422.9227   -3385.3991     2468.445    -547.7495     1571.087    74.846964 
     400    191.65486   -164.39842   0.17341334   -164.22501   -6751.4871    4.2192377    4.2192377    4.2192377   -6751.4871     3978.528   -12401.537   -11831.452    9302.4608    798.10151    1774.9472     75.11073 
     500    168.17736    -164.3475   0.15217041   -164.19533   -541.54999    4.2169137    4.2169137    4.2169137   -541.54999   -2262.1608   -1670.7146    2308.2254    12031.194   -526.45945     2126.802    74.986682 
     600    163.56986   -164.32783   0.14800145   -164.17982   -563.80772    4.2182927    4.2182927    4.2182927   -563.80772    7065.5459   -8409.1129   -347.85619    11123.427   -1276.2648    5387.3471    75.060274 
     700    158.72424   -164.32007   0.14361702   -164.17646   -3356.0136    4.2192989    4.2192989    4.2192989   -3356.0136    9736.2172   -13465.839    -6338.419    14402.876    238.03731    1531.5231    75.113998 
     800    234.27607   -164.38906   0.21197791   -164.17708    2180.3944     4.217343     4.217343     4.217343    2180.3944    7791.3877   -453.51823   -796.68637    11569.621    1055.9699    3432.9525    75.009587 
     900    227.95026   -164.38426   0.20625419   -164.17801   -311.60289    4.2193981    4.2193981    4.2193981   -311.60289    5771.5158   -5951.3509   -754.97359    3794.8597     2958.123    4233.0234    75.119298 
    1000    305.87757   -164.45487   0.27676445   -164.17811    1127.2667    4.2179459    4.2179459    4.2179459    1127.2667    15001.122   -7454.6509    -4164.671    7249.6552    -543.0278   -41.432901    75.041763 
    1100    423.17098   -164.56047     0.382894   -164.17758    -1274.724    4.2177198    4.2177198    4.2177198    -1274.724    2099.5179    4544.2073   -10467.897   -165.29567   -1023.3307     241.3072    75.029695 
    1200    353.60488   -164.49746   0.31994912   -164.17751    2867.1908    4.2196038    4.2196038    4.2196038    2867.1908    20992.805    -3939.282   -8451.9503   -5330.3255       2711.8   -262.78888    75.130281 
    1300    403.71294   -164.54243   0.36528796   -164.17714    3416.2287    4.2172614    4.2172614    4.2172614    3416.2287    14372.851   -59.392727   -4064.7721   -1446.5924    1645.9617    -333.9842    75.005232 
    1400    449.79454   -164.58517   0.40698355   -164.17819    1833.4622     4.216844     4.216844     4.216844    1833.4622    5811.3622     6391.409   -6702.3847   -3675.1124   -2079.0303   -2139.0736    74.982962 
    1500    358.56962   -164.50377   0.32444133   -164.17933   -500.11511    4.2196839    4.2196839    4.2196839   -500.11511    14105.573   -6257.2976   -9348.6211    -1139.488   -1203.4334   -330.73658    75.134564 
    1600    297.67832   -164.44874    0.2693456   -164.17939     1737.443    4.2171987    4.2171987    4.2171987     1737.443    6077.3777   -2271.1644    1406.1157     5369.108    2586.5209    702.40575    75.001888 
    1700    192.41666   -164.35398   0.17410264   -164.17988    2607.6888    4.2171233    4.2171233    4.2171233    2607.6888    4656.9856    -949.7291    4115.8098    9380.9788   -675.46741    98.321174    74.997863 
    1800    154.03746   -164.31929   0.13937633   -164.17991   -3187.6936    4.2191365    4.2191365    4.2191365   -3187.6936    2475.0316   -3676.3523   -8361.7603    8743.5274    -833.3273    4687.4376    75.105323 
    1900    179.32934    -164.3414   0.16226095   -164.17913    -1034.438     4.217469     4.217469     4.217469    -1034.438    187.07644   -5669.1012    2378.7108    15515.293     60.95812    2730.9231    75.016309 
    2000    128.02404    -164.2951   0.11583884   -164.17926   -567.42463    4.2184213    4.2184213    4.2184213   -567.42463   -3683.3367   -3163.4456    5144.5084    11179.782    -1035.463     2135.607    75.067137 
    2100    206.72227   -164.36675   0.18704666   -164.17971   -208.15301    4.2186334    4.2186334    4.2186334   -208.15301    9484.8694    -3056.407   -7052.9214    8417.9677    1908.2541    5102.1124     75.07846 
    2200    343.76358   -164.49023   0.31104451   -164.17918   -3044.1253    4.2178769    4.2178769    4.2178769   -3044.1253   -4303.1968   -1344.0274   -3485.1516    7445.2426   -7.7846742    1845.2033    75.038076 
    2300    314.05493   -164.46304    0.2841635   -164.17888    1967.7099    4.2192454    4.2192454    4.2192454    1967.7099    9580.4061    1394.2435   -5071.5199   -2601.0482   -1994.7613   -1293.3517    75.111143 
    2400    409.64746   -164.54872   0.37065763   -164.17806    -207.7776    4.2182153    4.2182153    4.2182153    -207.7776    11212.744   -3460.2662   -8375.8104   -998.70269    17.322724    1649.3755    75.056142 
    2500    487.88237    -164.6187   0.44144622   -164.17726   -4676.7481    4.2180416    4.2180416    4.2180416   -4676.7481   -5011.0018    2281.9869   -11301.229   -3684.5659     2177.255    679.07994    75.046868 
    2600    352.46134   -164.49663   0.31891443   -164.17772    3121.2018    4.2199322    4.2199322    4.2199322    3121.2018    18330.969    4373.2035   -13340.567   -5594.4811    -2714.503     -3683.13    75.147824 
    2700    396.12031   -164.53542   0.35841798     -164.177     -1527.36    4.2178277    4.2178277    4.2178277     -1527.36    4073.7605   -3217.5088   -5438.3318   -2566.0986   -3138.8079   -368.53772    75.035453 
    2800     383.6181   -164.52535   0.34710572   -164.17824   -2078.2326    4.2177261    4.2177261    4.2177261   -2078.2326    3838.6786   -2350.1942   -7723.1823    3052.0604    843.51901    2575.7547     75.03003 
    2900    256.62224   -164.41154   0.23219719   -164.17935    16.312459    4.2196617    4.2196617    4.2196617    16.312459    5612.9288    1651.4404   -7215.4318    3364.8355   -1086.5827    39.946744    75.133378 
    3000    248.38506   -164.40373   0.22474402   -164.17899      446.892    4.2178957    4.2178957    4.2178957      446.892    5976.1486   -4753.6642     118.1916    9677.5544   -3609.0501   -296.99251    75.039084 
    3100    179.96446   -164.34221   0.16283563   -164.17937   -1461.2649    4.2177813    4.2177813    4.2177813   -1461.2649    5042.3537   -6863.8361   -2562.3124    13160.795    287.17478    4635.6898    75.032975 
    3200    116.18143   -164.28529    0.1051234   -164.18016    2525.6261    4.2183896    4.2183896    4.2183896    2525.6261    9163.4708    700.30326   -2286.8957    10348.998    213.42939    2139.6774    75.065442 
    3300    187.95406   -164.34975   0.17006478   -164.17968   -386.97058    4.2182858    4.2182858    4.2182858   -386.97058    5727.5351   -1616.4273   -5272.0196    13694.391    328.89293    1742.7532    75.059903 
    3400    176.22025   -164.33845   0.15944779     -164.179    2370.7559    4.2171683    4.2171683    4.2171683    2370.7559     5425.576    1536.4531    150.23861    7279.6337     2815.558    2568.6427    75.000267 
    3500    241.79047   -164.39727    0.2187771    -164.1785    5266.4947    4.2186076    4.2186076    4.2186076    5266.4947    15018.893     2913.061   -2132.4696    2788.6356   -179.30228    107.19719    75.077085 
    3600    405.35432   -164.54458   0.36677311   -164.17781   -2334.2454    4.2177169    4.2177169    4.2177169   -2334.2454    1957.3772   -1293.5276   -7666.5856     795.1683    3339.5615    531.60256     75.02954 
    3700    377.52368   -164.51979   0.34159136   -164.17819    6747.1574    4.2168066    4.2168066    4.2168066    6747.1574     12627.33    9987.7987   -2373.6563   -5388.7954    2025.6097    952.73328    74.980971 
    3800    394.89249   -164.53507   0.35730702   -164.17777    1947.8334    4.2195283    4.2195283    4.2195283    1947.8334    8349.6245    3455.4173   -5961.5416   -4780.8012    1770.6886   -2995.5767    75.126249 
    3900    485.48874   -164.61678   0.43928041    -164.1775   -4602.8754    4.2180885    4.2180885    4.2180885   -4602.8754   -598.81633   -4939.1752   -8270.6346   -3070.9024   -2073.7214   -785.50919     75.04937 
    4000    354.07047   -164.49906    0.3203704   -164.17869    1731.6631    4.2171844    4.2171844    4.2171844    1731.6631    8723.0894    4050.1305   -7578.2305   -812.63916    700.54179     743.0519    75.001125 
    4100    274.37088   -164.42703   0.24825654   -164.17877   -2873.9111    4.2192422    4.2192422    4.2192422   -2873.9111    2683.1759   -2701.0031    -8603.906    1506.1024    1861.0483    141.01234    75.110967 
    4200    294.94438   -164.44573   0.26687187   -164.17886   -4972.8633    4.2189616    4.2189616    4.2189616   -4972.8633   -3608.4511   -5898.3334   -5411.8054    10052.632   -2829.3801   -2658.0768    75.095984 
    4300    214.05435   -164.37313   0.19368087   -164.17945   -2958.9811    4.2176935    4.2176935    4.2176935   -2958.9811    1611.5244   -5030.0594   -5458.4084    8717.4636    1080.0969    3400.5881     75.02829 
    4400      209.214   -164.36912   0.18930123   -164.17982   -3560.9692     4.219248     4.219248     4.219248   -3560.9692    7949.0585   -12839.993   -5791.9736    10671.798    368.97064     4242.928    75.111281 
    4500    229.98843   -164.38718   0.20809837   -164.17908   -4018.3977     4.219144     4.219144     4.219144   -4018.3977   -4285.1564   -4690.8258    -3079.211    11568.174    67.958434   -808.26387    75.105728 
    4600     182.0074   -164.34378   0.16468412    -164.1791    2040.9862    4.2181999    4.2181999    4.2181999    2040.9862    11928.419    665.80853   -6471.2693    5684.0824    536.85928    2720.5463     75.05532 
    4700    309.90008   -164.45934   0.28040411   -164.17894   -3458.6223    4.2192147    4.2192147    4.2192147   -3458.6223    3522.6094   -6924.2206   -6974.2556    6673.1845    800.35457    3803.5164    75.109503 
    4800    357.07486   -164.50094   0.32308883   -164.17785   -2830.4567    4.2182681    4.2182681    4.2182681   -2830.4567   -2736.2821    164.15085    -5919.239     162.7548    1613.4925    151.12508    75.058957 
    4900    285.86106   -164.43642    0.2586531   -164.17777    4742.5745    4.2188917    4.2188917    4.2188917    4742.5745    17688.706    5323.2384   -8784.2209   -3587.9794    433.27977   -593.06004    75.092253 
    5000    408.60498   -164.54689   0.36971437   -164.17718    697.36724    4.2185164    4.2185164    4.2185164    697.36724    273.75522    6064.4735    -4246.127   -4700.7661    1448.1624   -545.61692    75.072216 
    5100     457.3292    -164.5914   0.41380107    -164.1776   -587.82766    4.2172439    4.2172439    4.2172439   -587.82766    4218.9245   -334.33445    -5648.073   -1382.3175      -1386.2   -1699.7422    75.004298 
    5200    340.29793   -164.48629   0.30790872   -164.17838    3399.0382    4.2186625    4.2186625    4.2186625    3399.0382    11311.018    4219.9553   -5333.8585   -2927.2763    342.34165   -2809.8963    75.080013 
    5300    320.08118   -164.46785   0.28961618   -164.17823    3026.9859    4.2188329    4.2188329    4.2188329    3026.9859    8690.9372    1227.8431   -837.82264     786.3402    1563.2424   -1634.3622    75.089113 
    5400    276.99949   -164.42958   0.25063496   -164.17895   -718.17664    4.2166096    4.2166096    4.2166096   -718.17664    6946.8971   -5342.4781    -3758.949     8776.506   -3475.1875   -1992.1511    74.970461 
    5500     161.4611   -164.32594    0.1460934   -164.17985    1976.6927    4.2179454    4.2179454    4.2179454    1976.6927    12077.256   -1073.5852   -5073.5928    6029.1874   -953.14468   -922.53715    75.041736 
    5600    180.51237   -164.34331   0.16333139   -164.17997    -2907.101    4.2189425    4.2189425    4.2189425    -2907.101    4645.0098   -10997.829   -2368.4833     13943.23   -453.84864    3085.2012    75.094963 
    5700    170.13899   -164.33372   0.15394533   -164.17978   -341.45676    4.2178379    4.2178379    4.2178379   -341.45676     6196.081   -6713.9058   -506.54542    9138.8991    -888.7697   -1386.1937    75.035996 
    5800    184.84207   -164.34701   0.16724899   -164.17976    1031.7285    4.2181026    4.2181026    4.2181026    1031.7285    11437.135   -2477.8787   -5864.0709    7914.1467   -1680.4864    1374.7032    75.050122 
    5900    312.64998   -164.46228   0.28289228   -164.17938   -2821.6702     4.217475     4.217475     4.217475   -2821.6702     1865.593   -6407.0139   -3923.5898    8152.4048    675.46107    5729.1654    75.016629 
    6000     316.6418   -164.46497   0.28650416   -164.17847     3158.205     4.218776     4.218776     4.218776     3158.205    13909.827   -3735.1532   -700.05879     783.3963    209.76868    418.60051    75.086076 
    6100    372.59249   -164.51473   0.33712952    -164.1776   -39.474279     4.219049     4.219049     4.219049   -39.474279     4805.416    5363.3262   -10287.165   -1935.4103    1471.6393   -469.39016     75.10065 
    6200     469.3617   -164.60122   0.42468833   -164.17653   -1727.7062    4.2173779    4.2173779    4.2173779   -1727.7062   -1011.6411    2627.3453   -6798.8226   -2747.0092    1394.9708    1636.4064    75.011451 
    6300    378.68401   -164.51986   0.34264125   -164.17722    1160.6399    4.2194929    4.2194929    4.2194929    1160.6399    13302.277   -4287.7456    -5532.612   -2888.5124    -1229.087    415.58571    75.124359 
    6400    359.05066   -164.50245   0.32487658   -164.17757    3090.6992    4.2183994    4.2183994    4.2183994    3090.6992    7078.9089    11391.479   -9198.2906   -5996.4057    34.412169   -3007.6777    75.065966 
    6500    410.74004   -164.54926   0.37164622   -164.17761   -3706.1791    4.2175653    4.2175653    4.2175653   -3706.1791     -3663.43   -2440.2781   -5014.8291    5068.3081    1140.4824   -1448.6725    75.021448 
    6600    276.48005   -164.42931   0.25016496   -164.17914    318.49668    4.2202362    4.2202362    4.2202362    318.49668    7570.2831    39.956248   -6654.7493     1649.194    -1234.846    947.29441    75.164067 
    6700    212.03287   -164.37108    0.1918518   -164.17922    2450.3297    4.2184013    4.2184013    4.2184013    2450.3297    10225.692   -999.70621   -1874.9964    5295.5962    -2752.565   -4554.5894    75.066068 
    6800    236.68001    -164.3932   0.21415305   -164.17904   -3876.3946    4.2173066    4.2173066    4.2173066   -3876.3946    270.20935    -9770.365    -2129.028    15965.735    1375.1104   -1173.5173    75.007647 
    6900    145.14108   -164.31117    0.1313267   -164.17984     -245.067    4.2202749    4.2202749    4.2202749     -245.067    8696.5537   -1463.2287   -7968.5259    7385.8051   -608.32625    1832.3335    75.166133 
    7000    144.01134   -164.30978   0.13030448   -164.17948   -1275.6079    4.2178569    4.2178569    4.2178569   -1275.6079    1465.4895   -8146.3052     2853.992    12782.554   -741.81064   -3413.6054    75.037009 
    7100    211.64811    -164.3704   0.19150366   -164.17889   -389.53827    4.2175568    4.2175568    4.2175568   -389.53827    4896.3217   -6298.8413    233.90477    9324.1075    998.91204    1202.3888    75.020993 
    7200    270.80957   -164.42345   0.24503419   -164.17841   -2668.2977    4.2199903    4.2199903    4.2199903   -2668.2977    7657.4316     -7386.65   -8275.6745    2973.9598    1503.8588    976.07953     75.15093 
    7300    323.30587    -164.4708   0.29253394   -164.17826    1930.8361    4.2173932    4.2173932    4.2173932    1930.8361    2239.1714    2974.2128    579.12425    1843.0511   -545.53048    418.79952    75.012267 
    7400      342.042   -164.48765   0.30948679   -164.17817    6332.1941    4.2171224    4.2171224    4.2171224    6332.1941    19063.398    666.44132   -733.25648   -813.37789    62.432346    581.54355    74.997817 
    7500    434.95121   -164.57114     0.393553   -164.17759   -2205.5964     4.220662     4.220662     4.220662   -2205.5964    8339.5495   -6516.9894   -8439.3491    -5266.824    845.12042    1072.9262    75.186821 
    7600    435.02087   -164.57076   0.39361602   -164.17714    2076.2622    4.2172071    4.2172071    4.2172071    2076.2622    7285.1093    6946.3491   -8002.6716   -4508.7139   -719.54263    1676.8356    75.002335 
    7700    284.21377   -164.43519   0.25716259   -164.17803    5538.5238    4.2174998    4.2174998    4.2174998    5538.5238    23084.557   -1436.1955   -5032.7898    2663.6308    1858.7452   -1659.0961    75.017952 
    7800    311.86427   -164.46007   0.28218135   -164.17788    392.42985     4.220415     4.220415     4.220415    392.42985    11923.057   -6132.3038   -4613.4638   -2367.5988   -411.73061    529.55878    75.173623 
    7900     314.7682   -164.46361   0.28480888    -164.1788   -2584.2794    4.2173611    4.2173611    4.2173611   -2584.2794    5550.2878   -4544.3796   -8758.7464    6399.9009   -3034.1963   -1437.6216    75.010551 
    8000    196.76367   -164.35785   0.17803591   -164.17981    1812.5542     4.218566     4.218566     4.218566    1812.5542    20043.797   -10103.742   -4502.3925    9337.5822     1324.975   -2099.9727    75.074861 
    8100    252.02098     -164.407   0.22803388   -164.17897   -3630.5279    4.2199458    4.2199458    4.2199458   -3630.5279    4048.9967   -14927.875   -12.705435    8326.1019    23.688076    1318.4127    75.148553 
    8200    193.82766    -164.3553   0.17537934   -164.17992   -1925.1928    4.2173065    4.2173065    4.2173065   -1925.1928    14120.712   -15402.293    -4493.998    11480.838   -3184.8377   -3014.4914    75.007638 
    8300     196.8167   -164.35835   0.17808389   -164.18027     1.010394    4.2184677    4.2184677    4.2184677     1.010394    15840.602   -8732.0503   -7105.5205    12661.748   -1847.8006   -243.37417    75.069612 
    8400     299.3266   -164.44994     0.270837    -164.1791   -7283.5149    4.2197212    4.2197212    4.2197212   -7283.5149   -196.94786   -14674.573   -6979.0235    5731.2142    1149.7177    2295.1804    75.136552 
    8500    257.02645   -164.41153   0.23256293   -164.17897    -623.4551    4.2179102    4.2179102    4.2179102    -623.4551    11623.945   -12339.537   -1154.7736    5749.7665   -119.99951    226.94636    75.039856 
    8600    380.06977   -164.52207   0.34389512   -164.17817   -1456.8146     4.217429     4.217429     4.217429   -1456.8146    2547.5916    806.95867    -7724.994    4743.2107   -369.67402    736.61443    75.014178 
    8700    435.83277   -164.57202   0.39435065   -164.17767   -4558.1756    4.2199241    4.2199241    4.2199241   -4558.1756     2871.105   -5984.1286   -10561.503   -5999.7997    786.08665    1149.5991    75.147394 
    8800    395.13702   -164.53494   0.35752828   -164.17741    3993.2236    4.2179695    4.2179695    4.2179695    3993.2236    17804.868   -4857.3448   -967.85209    1252.9668   -2125.1161    2431.6212    75.043018 
    8900    475.54118   -164.60729   0.43027966   -164.17701   -2622.0123    4.2182522    4.2182522    4.2182522   -2622.0123   -350.87574    1135.2112   -8650.3725   -3960.9951    2577.8845   -1641.2702    75.058112 
    9000    425.51024     -164.563   0.38501061   -164.17799   -2085.3877    4.2197675    4.2197675    4.2197675   -2085.3877    5176.9314   -795.91662   -10637.178   -2645.3794   -552.65343   -479.64786    75.139028 
    9100    353.87134   -164.49899   0.32019023    -164.1788   -1178.1388    4.2184095    4.2184095    4.2184095   -1178.1388     14546.08   -10069.299   -8011.1978    289.36179   -1676.1165    836.38349    75.066505 
    9200    321.88596   -164.47005   0.29124918    -164.1788   -6263.8648    4.2191316    4.2191316    4.2191316   -6263.8648   -5194.0729   -4310.4428   -9287.0787    6532.6168    875.88323   -1240.0852    75.105061 
    9300    186.88093   -164.34897    0.1690938   -164.17988    1585.1073    4.2200515    4.2200515    4.2200515    1585.1073    13903.703   -4105.0864   -5043.2945    3457.8985    2034.0801   -986.12076      75.1542 
    9400    228.25207   -164.38547   0.20652727   -164.17894   -5992.9163    4.2180732    4.2180732    4.2180732   -5992.9163    6460.0371   -16579.596   -7859.1898    10356.868    74.839514    870.24176    75.048557 
    9500    216.04851    -164.3745   0.19548523   -164.17902   -4160.7254    4.2200419    4.2200419    4.2200419   -4160.7254   -3119.1049   -4512.2826   -4850.7887     11578.15   -1006.5295    1017.7688    75.153685 
    9600    138.74359   -164.30546   0.12553812   -164.17993    2853.4966    4.2190495    4.2190495    4.2190495    2853.4966    16187.768   -6025.8634   -1601.4146    4559.7244    59.927474    813.29072    75.100681 
    9700    283.06435   -164.43519   0.25612257   -164.17907   -5494.8571    4.2182248    4.2182248    4.2182248   -5494.8571    3838.2385   -13099.515   -7223.2949    11367.177    1232.3221    360.22016    75.056648 
    9800    283.17239   -164.43461   0.25622033   -164.17839    905.42408    4.2197772    4.2197772    4.2197772    905.42408    11964.115    601.19438   -9849.0374    2806.9423   -951.97404    1287.8176    75.139547 
    9900    238.10219   -164.39379   0.21543987   -164.17835    5065.1139    4.2181741    4.2181741    4.2181741    5065.1139    21060.552    306.14955     -6171.36   -1624.3465   -2482.8899    2375.7506    75.053942 
   10000    418.82592   -164.55605   0.37896249   -164.17709    1891.4862    4.2172399    4.2172399    4.2172399    1891.4862    7816.0909   -1126.0078   -1015.6246   -831.77286    -342.8386   -265.97772    75.004085 
   10100    415.06293   -164.55325   0.37555766    -164.1777    1608.9976    4.2192819    4.2192819    4.2192819    1608.9976    14837.343    807.94315   -10818.294   -4195.0415    1145.8237    3.4768288    75.113092 
   10200    328.32607   -164.47505   0.29707633   -164.17797    8076.4769    4.2178953    4.2178953    4.2178953    8076.4769    26205.278    5972.4258   -7948.2726   -6085.3016    577.21952    1703.7918    75.039058 
   10300    385.52696   -164.52669    0.3488329   -164.17786    2968.6519    4.2179966    4.2179966    4.2179966    2968.6519    4573.5491   -790.53141    5122.9379    133.94953   -1899.2352   -78.480674    75.044467 
   10400    292.64408   -164.44469   0.26479052    -164.1799    2233.8438    4.2182251    4.2182251    4.2182251    2233.8438    18546.986   -5837.7524   -6007.7025    2485.4902    996.19701   -1027.6685    75.056664 
   10500    252.46524   -164.40843   0.22843585   -164.17999    698.93063    4.2172575    4.2172575    4.2172575    698.93063    10689.759   -2223.7588   -6369.2078    4616.9477     647.3141   -584.03043    75.005026 
   10600     229.1467   -164.38688   0.20733675   -164.17954   -3407.2936     4.220213     4.220213     4.220213   -3407.2936    1181.1228   -10777.106    -625.8972    12513.688    225.31337    184.16204    75.162829 
   10700     121.2902   -164.28946   0.10974592   -164.17972    857.45396    4.2187098    4.2187098    4.2187098    857.45396    13318.313   -7829.0894   -2916.8618    9058.4785   -1058.4062   -603.14468    75.082541 
   10800    220.71892   -164.37929   0.19971112   -164.17958   -3993.8518    4.2167771    4.2167771    4.2167771   -3993.8518   -322.08814   -6746.6322    -4912.835    11576.022   -1292.1653   -1591.0744    74.979394 
   10900    240.43084   -164.39698   0.21754687   -164.17944   -3722.1694    4.2202407    4.2202407    4.2202407   -3722.1694    9051.6683   -12559.454   -7658.7226    8717.2803    1409.4481    996.13073    75.164306 
   11000    188.91045   -164.34996   0.17093014   -164.17903    2488.0297     4.219695     4.219695     4.219695    2488.0297    10845.113   -1509.4653   -1871.5591    4165.4873    1999.4942    -5.816168    75.135153 
   11100    366.55274   -164.50948   0.33166463   -164.17782   -1441.2041    4.2167244    4.2167244    4.2167244   -1441.2041    1600.2682    1069.1479   -6993.0285    649.36373   -454.54282    2060.5348    74.976584 
   11200     412.0375   -164.55051   0.37282019   -164.17769   -4368.6392    4.2204688    4.2204688    4.2204688   -4368.6392     10573.92   -6647.0715   -17032.766     371.8519   -1909.5186    1346.5833    75.176498 
   11300    342.77592   -164.48748   0.31015085   -164.17733    4041.3997    4.2197258    4.2197258    4.2197258    4041.3997    17998.415   -1402.7887   -4471.4274   -3201.8066    2974.5929    1264.7455    75.136801 
   11400    418.62557    -164.5557   0.37878121   -164.17692   -553.34936    4.2171171    4.2171171    4.2171171   -553.34936    488.80963    5741.2294   -7890.0872   -4708.3444    2237.1049    3557.9438    74.997534 
   11500    416.18559   -164.55433   0.37657347   -164.17776    -1393.637    4.2199239    4.2199239    4.2199239    -1393.637    16378.196    -6838.955   -13720.152    3163.3627   -1628.8007    15.860415    75.147384 
   11600    412.34562    -164.5504   0.37309898    -164.1773   -2779.0956    4.2198154    4.2198154    4.2198154   -2779.0956    3864.8473   -9416.0781    -2786.056   -3921.6423    239.40486   -518.61681    75.141586 
   11700     330.2946   -164.47713   0.29885749   -164.17827   -2074.9977    4.2172127    4.2172127    4.2172127   -2074.9977   -5137.2648   -149.44922   -938.27915    6905.0959     3352.625   -516.42171    75.002632 
   11800    235.72442   -164.39342   0.21328841   -164.18014    1132.2043    4.2183321    4.2183321    4.2183321    1132.2043    15132.488   -10934.995   -800.88049     7865.715    873.40694   -160.82076    75.062373 
   11900    320.44658    -164.4692    0.2899468   -164.17925   -8763.6261    4.2199972    4.2199972    4.2199972   -8763.6261   -5586.1481   -12603.733   -8100.9969     8079.624    711.79714   -2539.1416      75.1513 
   12000    208.48524   -164.36814   0.18864183    -164.1795   -1657.9915    4.2178936    4.2178936    4.2178936   -1657.9915    7564.5063   -9078.4741   -3460.0067    10747.941    844.82526   -2789.7739    75.038968 
   12100    145.52785   -164.31141   0.13167666   -164.17974    3039.9676    4.2171309    4.2171309    4.2171309    3039.9676    12146.882   -6816.6131    3789.6339    10445.672    -1161.294    1560.7028     74.99827 
   12200    310.74055   -164.45934   0.28116458   -164.17818   -6357.4145    4.2200936    4.2200936    4.2200936   -6357.4145   -2399.6863   -7389.9767   -9282.5806    7914.8683    1931.3529   -134.07921    75.156449 
   12300    268.00341   -164.42032   0.24249512   -164.17783   -246.49411    4.2183463    4.2183463    4.2183463   -246.49411    15414.417   -9982.8062   -6171.0932    5125.0528   -585.67492    100.17477    75.063132 
   12400    245.25687   -164.40033   0.22191357   -164.17841    6671.7912    4.2168871    4.2168871    4.2168871    6671.7912    20526.899   -477.11289   -34.412865    6018.7072    -3470.568    3879.6503    74.985263 
   12500     381.0426   -164.52245   0.34477535   -164.17768   -4082.1264    4.2212481    4.2212481    4.2212481   -4082.1264   -1805.7707   -4292.1524   -6148.4561   -3577.1033   -1048.0857    3143.0532    75.218149 
   12600    365.44865   -164.50823   0.33066561   -164.17756    2368.6398    4.2177342    4.2177342    4.2177342    2368.6398    27141.744   -9001.5793   -11034.245   -921.20325     2585.618    3014.8182    75.030462 
   12700    396.48674   -164.53636   0.35874953   -164.17761   -345.89748      4.21794      4.21794      4.21794   -345.89748    9347.6219   -1581.9106   -8803.4037   -1567.0678   -1012.2412    1369.7211    75.041447 
   12800    366.61108   -164.50959   0.33171741   -164.17787   -1734.4239    4.2219294    4.2219294    4.2219294   -1734.4239    1150.2602   -4433.3989   -1920.1331   -4047.7554   -1252.5635     2291.659    75.254572 
   12900    288.06968   -164.43862    0.2606515   -164.17797    5683.1222    4.2175167    4.2175167    4.2175167    5683.1222    33919.232   -8125.4144   -8744.4505   -634.18226    2744.1954    1470.9618    75.018858 
   13000    367.20375   -164.51002   0.33225367   -164.17777   -5343.1588    4.2190135    4.2190135    4.2190135   -5343.1588   -3498.9825   -4922.1038     -7608.39     4752.287     952.8609   -2828.0848    75.098755 
   13100    240.05838   -164.39636   0.21720986   -164.17915    974.78369    4.2209555    4.2209555    4.2209555    974.78369    7643.1165   -7898.7619    3179.9964    2724.4117    2180.0836   -901.34621    75.202505 
   13200    179.59242   -164.34195   0.16249899   -164.17945    958.06941    4.2175523    4.2175523    4.2175523    958.06941    13185.394   -9940.9296   -370.25642     10238.08   -35.256469   -1639.7118    75.020757 
   13300     243.9513    -164.3997   0.22073226   -164.17897   -2268.1761    4.2190718    4.2190718    4.2190718   -2268.1761     2351.026   -7272.4664    -1883.088      11573.6   -86.323492   -2249.7459    75.101871 
   13400    166.85326   -164.33019   0.15097234   -164.17922   -993.83965     4.220091     4.220091     4.220091   -993.83965    10521.374   -6917.7643    -6585.129    5606.1014    1571.6165   -1403.9611    75.156308 
   13500    199.37889   -164.35949   0.18040221   -164.17909    2289.9364    4.2175093    4.2175093    4.2175093    2289.9364    11417.852   -6947.7178    2399.6745    10515.996    2736.1105   -438.09834    75.018463 
   13600    268.71764   -164.42196   0.24314137   -164.17881    887.52203    4.2184377    4.2184377    4.2184377    887.52203    7722.8846   -2992.0124   -2068.3061    2090.4583   -716.82775    2594.3051    75.068011 
   13700    266.94582    -164.4203   0.24153818   -164.17876    2130.8317    4.2202962    4.2202962    4.2202962    2130.8317    18790.671   -3795.2408   -8602.9348   -740.54216   -1946.1482    2193.6189    75.167274 
   13800    372.51968   -164.51495   0.33706364   -164.17788    1974.7267    4.2175497    4.2175497    4.2175497    1974.7267    10587.231   -6371.5833     1708.532   -2483.8682    4639.1356    2536.4862    75.020617 
   13900    339.52453   -164.48558   0.30720893   -164.17837    1779.1999    4.2177022    4.2177022    4.2177022    1779.1999    13413.238    -3410.778   -4664.8605   -3769.0187    -3869.547    4867.1884    75.028752 
   14000     284.8123   -164.43649   0.25770415   -164.17878    5341.7171    4.2203536    4.2203536    4.2203536    5341.7171    23584.252   -5419.5251   -2139.5753   -6170.9893    747.54774    1952.2784    75.170341 
   14100    409.65553   -164.54873   0.37066493   -164.17806    -5726.186     4.218515     4.218515     4.218515    -5726.186   -159.02504   -10041.864   -6977.6688   -712.70234   -2026.8316    3044.0266    75.072138 
   14200    301.51001   -164.45176    0.2728126   -164.17895    1255.7296    4.2173603    4.2173603    4.2173603    1255.7296    21808.801   -10734.561   -7307.0515    3104.7111   -2686.7164   -1532.7443    75.010512 
   14300    250.64606   -164.40589   0.22678982    -164.1791    808.02123    4.2203958    4.2203958    4.2203958    808.02123    6470.8135   -7221.9312    3175.1814    996.48248    249.19479    -791.1807    75.172595 
   14400    317.86033   -164.46586    0.2876067   -164.17826   -4133.8001     4.219032     4.219032     4.219032   -4133.8001    4245.6003   -8268.5464   -8378.4544    10384.536    458.50115   -651.51697    75.099744 
   14500    261.51991   -164.41517   0.23662871   -164.17854     1185.278    4.2174513    4.2174513    4.2174513     1185.278    16160.694   -12866.486    261.62527    8117.6203   -3536.4359   -4421.3067    75.015366 
   14600     291.7205   -164.44266   0.26395484    -164.1787    -2761.369    4.2208711    4.2208711    4.2208711    -2761.369   -5010.1665   -3781.4947    507.55433    6843.3229   -1302.2857   -3392.3996    75.197994 
   14700    296.16934   -164.44636   0.26798024   -164.17838   -4132.1643    4.2190466    4.2190466    4.2190466   -4132.1643    -1190.621   -9411.8011   -1794.0708    7279.7877    2861.4737   -1107.6651    75.100524 
   14800    252.58488   -164.40693   0.22854411   -164.17839    2738.1173    4.2165808    4.2165808    4.2165808    2738.1173    14890.703   -9219.2437    2542.8925    4808.7341   -4585.4385    1769.3503    74.968923 
   14900    330.53758   -164.47702   0.29907735   -164.17794   -3989.0149    4.2212262    4.2212262    4.2212262   -3989.0149   -1102.3688   -1027.4364   -9837.2395   -979.63125    990.18585   -1197.8985    75.216977 
   15000    332.42629   -164.47799   0.30078629    -164.1772   -2941.5773    4.2187155    4.2187155    4.2187155   -2941.5773    1051.8189   -9676.8346   -199.71611   -2614.7624    97.403174    2199.0938    75.082845 
   15100    327.43681   -164.47356   0.29627171   -164.17729      3484.66    4.2163747    4.2163747    4.2163747      3484.66    18629.083   -7119.9618   -1055.1413   -4010.3816   -824.91305    6517.6279    74.957932 
   15200    414.80622   -164.55246   0.37532539   -164.17713   -7547.3245    4.2214014    4.2214014    4.2214014   -7547.3245   -8822.0386   -9263.1855   -4556.7493   -8323.1014   -528.89256    2125.7822    75.226344 
   15300    344.33627   -164.48934    0.3115627   -164.17777     417.5853     4.218145     4.218145     4.218145     417.5853    9761.8149   -7255.4083   -1253.6507   -2817.9016    2063.9597    1703.6816    75.052389 
   15400    303.18596   -164.45265   0.27432903   -164.17832    1308.8445    4.2159653    4.2159653    4.2159653    1308.8445    13006.286   -6946.9835   -2132.7687   -2910.8351   -1976.1446     3207.825    74.936098 
   15500    319.87445    -164.4678   0.28942913   -164.17837   -3323.8027    4.2215678    4.2215678    4.2215678   -3323.8027   -4122.3737   -13711.545    7862.5108    699.61633    229.94876   -570.56651     75.23524 
   15600    297.00292   -164.44715   0.26873449   -164.17842    744.07369    4.2185668    4.2185668    4.2185668    744.07369    14231.587   -2903.1216    -9096.244    4878.8841    1722.2637   -3573.2016    75.074908 
   15700    302.88051   -164.45221   0.27405265   -164.17816   -1561.9114    4.2158036    4.2158036    4.2158036   -1561.9114    3935.1693   -6950.8192   -1670.0845    9293.2338   -4466.2147    -2263.422    74.927475 
   15800     241.0462   -164.39687   0.21810366   -164.17877      2834.28    4.2212893    4.2212893    4.2212893      2834.28    8874.8733   -10494.917    10122.884    5919.2724    2020.1845   -2588.0429    75.220351 
   15900    213.59243   -164.37172   0.19326292   -164.17846    4899.6412     4.218475     4.218475     4.218475    4899.6412    22067.232   -2526.2102   -4842.0982    6670.1684     1147.314   -4839.8533    75.070002 
   16000    320.24436   -164.46734   0.28976382   -164.17757   -1976.7867    4.2166167    4.2166167    4.2166167   -1976.7867    4352.8933   -10066.122   -217.13151    5708.5649   -1481.8469   -1234.0503     74.97084 
   16100    265.45547    -164.4185   0.24018969   -164.17831    217.98306    4.2207767    4.2207767    4.2207767    217.98306    3722.4507   -5556.4515      2487.95   -1683.2704    3078.2132    1142.6422     75.19295 
   16200    183.78641   -164.34474   0.16629381   -164.17844    4672.8516    4.2188658    4.2188658    4.2188658    4672.8516     18498.67   -8855.6546    4375.5393    167.67309    2816.6664   -413.01252     75.09087 
   16300     288.0866   -164.43852   0.26066681   -164.17785   -1174.1738    4.2167148    4.2167148    4.2167148   -1174.1738    6603.7075   -6612.4305   -3513.7985   -6220.7656   -367.99367    3688.5927    74.976072 
   16400     260.1072   -164.41357   0.23535046   -164.17822    902.48543    4.2205434    4.2205434    4.2205434    902.48543    14217.083   -2364.8838   -9144.7431   -6424.5517    1411.6685    3559.9264    75.180484 
   16500    278.68878   -164.43016   0.25216346   -164.17799    2991.6149    4.2195603    4.2195603    4.2195603    2991.6149     13847.65   -11309.527    6436.7216   -3551.2716    3147.4032    1858.4044     75.12796 
   16600    383.07334   -164.52399   0.34661281   -164.17738   -2531.8668    4.2167443    4.2167443    4.2167443   -2531.8668    942.87383   -4619.1565   -3919.3177    -6540.415   -3892.3589    604.27077    74.977645 
   16700     325.9749    -164.4733   0.29494894   -164.17835    927.04685    4.2204358    4.2204358    4.2204358    927.04685    17813.531   -9209.9794   -5822.4114   -2155.6459    2602.2962    2392.9641    75.174735 
   16800    354.70501   -164.49928   0.32094455   -164.17834   -761.01048    4.2194765    4.2194765    4.2194765   -761.01048    4083.9142   -8229.0379    1862.0923      -71.733   -892.43735   -3237.6886    75.123482 
   16900    335.55557   -164.48221   0.30361773   -164.17859   -1108.3704    4.2166565    4.2166565    4.2166565   -1108.3704    9525.6086   -6856.9376   -5993.7824    4484.6179   -2493.3525   -6175.3778    74.972961 
   17000    286.94295   -164.43873   0.25963201    -164.1791   -2003.4767    4.2205403    4.2205403    4.2205403   -2003.4767    9761.2689   -13015.608   -2756.0907    3961.9055    1375.2775   -2326.4926     75.18032 
   17100      370.133   -164.51298   0.33490411   -164.17807   -6355.5861    4.2190543    4.2190543    4.2190543   -6355.5861   -5800.6514   -5354.8045   -7911.3024    8502.0333     598.1652   -5099.1434    75.100936 
   17200    289.11268   -164.44003   0.26159523   -164.17844   -2628.0895    4.2168469    4.2168469    4.2168469   -2628.0895    12969.721   -12162.992   -8690.9976     1648.661   -879.25723   -6455.6971    74.983118 
   17300    256.58699   -164.41142    0.2321653   -164.17925    582.61631    4.2207597    4.2207597    4.2207597    582.61631    10928.341   -6530.7578   -2649.7346   -53.559575   -1215.5913   -2527.6526     75.19204 
   17400    375.79629   -164.51821   0.34002838   -164.17818   -8042.3144    4.2196613    4.2196613    4.2196613   -8042.3144   -6341.9633   -11464.675    -6320.305    147.72725     2210.571   -1639.5395    75.133352 
   17500    314.57554   -164.46319   0.28463456   -164.17855   -449.23042    4.2161777    4.2161777    4.2161777   -449.23042    11215.935   -11275.903   -1287.7237   -10551.579   -4223.6238   -535.72522    74.947426 
   17600    304.15246   -164.45434   0.27520353   -164.17914   -2093.1615    4.2210048    4.2210048    4.2210048   -2093.1615   -678.00549    488.75177   -6090.2307   -7364.3858    3251.6935    350.49158    75.205144 
   17700    347.60928   -164.49224   0.31452418   -164.17772   -8529.4988    4.2202897    4.2202897    4.2202897   -8529.4988   -6226.9644   -14998.142   -4363.3906     -7611.99   -1265.3868    1853.5056    75.166925 
   17800     279.6626   -164.43125    0.2530446   -164.17821    4182.4721    4.2164662    4.2164662    4.2164662    4182.4721    22753.757   -5860.3631   -4345.9774   -6813.8379   -1423.1457    1464.5197    74.962812 
   17900    327.50817   -164.47466   0.29633628   -164.17832   -4902.1807    4.2205244    4.2205244    4.2205244   -4902.1807   -1291.9748    602.15801   -14016.725   -6048.0053    669.43307    22.411917    75.179469 
   18000    337.28371   -164.48283   0.30518139   -164.17764   -2224.3961    4.2205299    4.2205299    4.2205299   -2224.3961    1736.5143   -5008.9381   -3400.7643    2644.9914    1892.1014   -301.96912    75.179763 
   18100     349.2021   -164.49324    0.3159654   -164.17727    2770.2055    4.2160854    4.2160854    4.2160854    2770.2055    20584.717   -7636.4036   -4637.6967   -782.34139    -2627.415   -2731.1891    74.942503 
   18200    386.29528    -164.5268   0.34952809   -164.17727   -6495.2992     4.220679     4.220679     4.220679   -6495.2992   -1875.6341   -3629.1859   -13981.078    2472.6092   -1719.1211    -1923.802    75.187732 
   18300    267.57367   -164.41974   0.24210628   -164.17764    4931.8646    4.2206302    4.2206302    4.2206302    4931.8646    15120.793    4428.4685   -4753.6679    7722.9329    1010.1137   -3699.1471    75.185122 
   18400    254.34676   -164.40768    0.2301383   -164.17754    572.06843    4.2164282    4.2164282    4.2164282    572.06843    24473.198   -12912.756   -9844.2366    1721.7659   -252.82903   -6997.0684    74.960784 
   18500    294.90731   -164.44477   0.26683834   -164.17794    -1282.475    4.2192661    4.2192661    4.2192661    -1282.475    1683.7689    7297.7307   -12828.925    2175.1024    111.82818   -4949.4669    75.112245 
   18600    202.17312   -164.36171   0.18293049   -164.17878    2930.6136    4.2200483    4.2200483    4.2200483    2930.6136    19945.918   -2443.1433   -8710.9341   -253.69833     1366.847   -2441.0991    75.154029 
   18700     209.7082   -164.36784   0.18974839   -164.17809    1398.1212    4.2169888    4.2169888    4.2169888    1398.1212    23323.389   -11454.759   -7674.2656   -4580.4756    2093.8179   -6415.6326    74.990691 
   18800    254.26569   -164.40849   0.23006494   -164.17843    3460.2731    4.2189468    4.2189468    4.2189468    3460.2731    4772.4702    8138.8896   -2530.5405   -8243.4781    833.20994   -2811.6013    75.095195 
   18900     236.2811   -164.39278   0.21379211   -164.17899    2361.2349    4.2186606    4.2186606    4.2186606    2361.2349    18550.247   -8083.2055   -3383.3367   -4801.2751    2800.1137   -559.36253    75.079911 
   19000    309.60648   -164.45885   0.28013845   -164.17871    1317.5015    4.2174205    4.2174205    4.2174205    1317.5015    9699.8009   -7023.4264    1276.1301   -8432.4619   -2357.8738    265.26285     75.01372 
   19100    288.11126   -164.43901   0.26068913   -164.17832    2690.8271    4.2193521    4.2193521    4.2193521    2690.8271    6518.3494   -1983.9294    3538.0613    -3552.519   -789.68164    279.72038    75.116837 
   19200    268.14333   -164.42038   0.24262172   -164.17776    2484.2194    4.2189758    4.2189758    4.2189758    2484.2194    14429.832   -623.01889   -6354.1548    2945.1787    1677.0105    164.67082    75.096741 
   19300    377.77517     -164.519   0.34181891   -164.17718   -908.93812    4.2168665    4.2168665    4.2168665   -908.93812    4581.7391   -5311.6909   -1996.8626   -599.82989   -596.45341    1973.8979    74.984163 
   19400    315.96895   -164.46431   0.28589534   -164.17841    932.28578    4.2193448    4.2193448    4.2193448    932.28578     12858.67   -4691.5416   -5370.2715     7252.801   -1413.8558    355.87901    75.116452 
   19500    288.27193   -164.43986    0.2608345   -164.17903    1923.7884    4.2196997    4.2196997    4.2196997    1923.7884    13513.151   -2340.7388   -5401.0476     5114.683    361.09913   -1463.3891    75.135404 
   19600    407.43264   -164.54653   0.36865361   -164.17788    -4977.565    4.2175666    4.2175666    4.2175666    -4977.565   -54.634976   -9323.4322   -5554.6279    3503.3186    2826.2402   -3291.7164    75.021517 
   19700    279.23291   -164.43148   0.25265581   -164.17882   -1241.8276    4.2196339    4.2196339    4.2196339   -1241.8276    16971.781   -5792.2004   -14905.063    21.535491   -2953.1611    -4418.231     75.13189 
   19800    192.07799   -164.35314   0.17379621   -164.17934    2340.0045    4.2190469    4.2190469    4.2190469    2340.0045    15418.658   -8136.0249   -262.61975    464.44538    520.09858   -3969.5473    75.100541 
   19900    289.65861   -164.44065    0.2620892   -164.17856   -4507.6078     4.217886     4.217886     4.217886   -4507.6078   -1496.9401   -4800.0934   -7225.7898   -6303.5278   -2639.0657   -7614.6193    75.038562 
   20000    262.22354   -164.41604   0.23726537   -164.17877   -4306.0155    4.2204337    4.2204337    4.2204337   -4306.0155    14432.573   -11989.008   -15361.611   -6116.2109    38.381104   -5436.8489    75.174621 
   20100    261.21164   -164.41517   0.23634979   -164.17882    175.17005    4.2188461    4.2188461    4.2188461    175.17005     6665.135   -4586.6494   -1552.9755      -1982.4    1663.1765   -2856.4677    75.089819 
   20200    289.97191    -164.4407   0.26237268   -164.17832   -582.93719    4.2181665    4.2181665    4.2181665   -582.93719     4372.159   -721.88865   -5399.0819   -9096.8495   -3643.2854    -4803.139    75.053534 
   20300    335.06926   -164.48124   0.30317771   -164.17807   -591.06914    4.2197556    4.2197556    4.2197556   -591.06914    14889.931   -13388.127   -3275.0118     677.7717   -381.57184    520.39521    75.138391 
   20400     423.9368   -164.56071   0.38358693   -164.17713   -2170.4701    4.2186921    4.2186921    4.2186921   -2170.4701   -1055.7725   -460.05855   -4995.5792    739.68893    977.38929     1670.666    75.081593 
   20500    356.45501   -164.49988   0.32252799   -164.17735   -2881.7952    4.2192751    4.2192751    4.2192751   -2881.7952    3919.4059   -4658.0671   -7906.7245    2220.3552    1871.9514    2105.1754    75.112728 
   20600    308.35234   -164.45658   0.27900367   -164.17758    4576.4149     4.218204     4.218204     4.218204    4576.4149    16729.366   -4389.4167    1389.2955     3811.603   -4840.0783    3564.8217    75.055536 
   20700    381.15718   -164.52295   0.34487903   -164.17807   -3988.4595    4.2184869    4.2184869    4.2184869   -3988.4595    977.44226    -1607.288   -11335.533    6409.7389    868.62066    2646.2921    75.070637 
   20800    326.33481   -164.47408   0.29527459    -164.1788    -270.4604    4.2189097    4.2189097    4.2189097    -270.4604    14014.803   -3328.3749   -11497.809   -525.72327    198.68058    862.17431    75.093213 
   20900    270.18516   -164.42305   0.24446921   -164.17858    2990.5762    4.2185087    4.2185087    4.2185087    2990.5762    16193.778   -4796.5222   -2425.5267    36.463067   -2558.9907   -3128.2719    75.071801 
   21000    288.34309   -164.43913   0.26089888   -164.17823   -2144.1415    4.2190388    4.2190388    4.2190388   -2144.1415    1162.9371   -10595.452    3000.0906   -320.51947    -322.4382   -1242.3465    75.100109 
   21100     221.3519   -164.37939   0.20028385   -164.17911     3789.918    4.2180428    4.2180428    4.2180428     3789.918    21114.943   -1218.8005   -8526.3888   -10496.122   -2009.4731   -6047.4365    75.046931 
   21200    217.22791   -164.37604   0.19655238   -164.17949   -2413.9269    4.2191508    4.2191508    4.2191508   -2413.9269    15171.199   -13119.166   -9293.8137   -4185.1243   -140.79981   -9755.0979     75.10609 
   21300    189.39998   -164.35054   0.17137308   -164.17916    -475.5967    4.2196387    4.2196387    4.2196387    -475.5967    3410.0777   -12019.784    7182.9163   -7422.2133    2103.7986   -4867.8466    75.132146 
   21400    130.84911   -164.29779   0.11839502   -164.17939    3860.2012    4.2183663    4.2183663    4.2183663    3860.2012     22033.14   -3821.8817   -6630.6545   -6601.9493    617.86655   -5974.0587    75.064199 
   21500    281.56484   -164.43329   0.25476579   -164.17853   -3419.2551    4.2191308    4.2191308    4.2191308   -3419.2551    6261.3982   -11667.218   -4851.9457    -3488.198   -4082.5077   -4977.6855    75.105018 
   21600    327.81326   -164.47498   0.29661233   -164.17836   -1370.1002    4.2195171    4.2195171    4.2195171   -1370.1002    10052.108   -11131.601   -3030.8081    1571.7861    3441.6523   -322.98635    75.125651 
   21700    252.85368   -164.40727   0.22878733   -164.17849     6389.223    4.2186933    4.2186933    4.2186933     6389.223    27710.153   -6201.0568   -2341.4273   -132.91963    1905.3164    517.31744     75.08166 
   21800    413.55871   -164.55178   0.37419661   -164.17758   -561.80998    4.2187695    4.2187695    4.2187695   -561.80998      453.969   -3610.1446    1470.7457    2576.9402   -966.97903    2291.7709    75.085727 
   21900    438.61838   -164.57391   0.39687112   -164.17704   -3450.2197    4.2197987    4.2197987    4.2197987   -3450.2197    11257.012   -12082.369    -9525.302    6781.6906    191.45808     2755.786    75.140694 
   22000    345.77428   -164.48971   0.31286383   -164.17685    2915.2159    4.2188373    4.2188373    4.2188373    2915.2159    18188.377   -4695.5775    -4747.152   -1862.6558    1301.3109    3471.7308    75.089345 
   22100    332.61724   -164.47848   0.30095907   -164.17752   -29.378341    4.2180046    4.2180046    4.2180046   -29.378341    3306.1914    749.67186   -4143.9983     2238.285     3225.693    2.2574404    75.044892 
   22200    298.37201   -164.44864   0.26997326   -164.17866   -128.21328    4.2194001    4.2194001    4.2194001   -128.21328    16205.265   -11051.674   -5538.2306   -2028.4266    341.54824    -392.7765    75.119405 
   22300    324.89153   -164.47238   0.29396869   -164.17842    -1262.688    4.2193085    4.2193085    4.2193085    -1262.688    9910.2131   -5343.6651   -8354.6121   -5609.7493    1574.3686   -1659.3827    75.114511 
   22400    278.92183   -164.43128   0.25237433   -164.17891   -4568.2198     4.217388     4.217388     4.217388   -4568.2198   -825.54345   -7983.9907   -4895.1251   -8531.1654   -1628.2958   -6411.6212    75.011987 
   22500    180.95467   -164.34343   0.16373159    -164.1797    3361.9397     4.218743     4.218743     4.218743    3361.9397    11479.854   -10924.789     9530.754   -5288.8407    5442.9094   -5768.6133    75.084313 
   22600    279.34795   -164.43151   0.25275989   -164.17875   -5957.8516    4.2196941    4.2196941    4.2196941   -5957.8516    5788.0468    -13464.76   -10196.841   -8251.1652   -707.31823   -4756.6732    75.135107 
   22700    280.08228   -164.43157   0.25342433   -164.17815   -6197.8049    4.2181192    4.2181192    4.2181192   -6197.8049   -1227.4179   -11282.805   -6083.1917   -5293.0069   -2656.2503   -5708.6725    75.051011 
   22800    217.01491   -164.37542   0.19635965   -164.17906    2677.0093    4.2188111    4.2188111    4.2188111    2677.0093    10941.298   -5449.5199    2539.2493    3067.3561    1435.6617   -4786.4758    75.087948 
   22900    366.56623   -164.50998   0.33167683    -164.1783    -7367.355    4.2190075    4.2190075    4.2190075    -7367.355    -1842.501   -14862.692   -5396.8721   -2458.6502    -424.9707   -3385.9242    75.098435 
   23000    408.72427   -164.54797   0.36982231   -164.17814    238.41477    4.2179234    4.2179234    4.2179234    238.41477    9999.4891     -6926.82   -2357.4248    6384.5095    25.507469    2114.2342    75.040558 
   23100    387.99907   -164.52924   0.35106971   -164.17817   -188.35006    4.2197006    4.2197006    4.2197006   -188.35006    11488.271   -2327.6643   -9725.6569    4450.1547   -1079.6691    197.19628    75.135455 
   23200    458.13277   -164.59161   0.41452816   -164.17709   -2392.8214    4.2195677    4.2195677    4.2195677   -2392.8214   -3465.8576   -7506.9906    3794.3841    2287.0371    497.76343   -277.20429    75.128356 
   23300     380.3763   -164.52233   0.34417247   -164.17816    1982.1521     4.217649     4.217649     4.217649    1982.1521    14722.011   -7101.2202   -1674.3343   -907.70093   -3736.3255    3296.0174    75.025913 
   23400     334.7565   -164.48142   0.30289471   -164.17853    -2174.344    4.2195365    4.2195365    4.2195365    -2174.344    7040.6413   -5644.8461   -7918.8271   -99.107347    2748.9709    1233.2117    75.126687 
   23500    306.32276   -164.45564   0.27716727   -164.17847   -1765.1297    4.2204096    4.2204096    4.2204096   -1765.1297    -2805.577   -3306.9086    817.09644     -7871.24   -2006.9055   -686.16777    75.173335 
   23600    162.75524    -164.3266   0.14726436   -164.17934     2079.842    4.2170681    4.2170681    4.2170681     2079.842    22607.129   -12678.093   -3689.5099   -8419.0095   -5379.9856   -3373.9697    74.994918 
   23700    219.14308   -164.37754   0.19828526   -164.17925    480.50602    4.2199101    4.2199101    4.2199101    480.50602     7484.231   -9428.3866    3385.6737   -5075.2881    2436.8184   -1549.5809    75.146647 
   23800    243.96538   -164.39981     0.220745   -164.17907   -3247.0518    4.2202372    4.2202372    4.2202372   -3247.0518    4902.7726   -8880.4997   -5763.4282    -11434.08   -732.85587   -4683.7972    75.164123 
   23900    177.08467   -164.33983   0.16022993    -164.1796    3590.4911    4.2173014    4.2173014    4.2173014    3590.4911    30870.299   -17455.258   -2643.5671   -5568.2899   -908.66936   -6389.5718    75.007365 
   24000    289.29704   -164.44049   0.26176204   -164.17873   -1017.9236     4.219941     4.219941     4.219941   -1017.9236    3790.4464   -8351.2569    1507.0396   -2942.1434   -393.93062   -3591.3791    75.148295 
   24100    253.34287   -164.40749   0.22922995   -164.17826   -1356.7512     4.220101     4.220101     4.220101   -1356.7512     23504.44   -12001.294   -15573.399   -3367.1371    1946.7156   -4821.1776    75.156846 
   24200    280.70019   -164.43209   0.25398343   -164.17811    6054.4132    4.2161403    4.2161403    4.2161403    6054.4132     27455.47   -9202.1689   -90.061624    257.01129    -1172.533   -3317.2717    74.945432 
   24300    377.92522   -164.51975   0.34195468   -164.17779   -1693.5327    4.2198755    4.2198755    4.2198755   -1693.5327    4243.3456   -3692.8973   -5631.0463    4117.7904    1144.4869   -2533.3878    75.144797 
   24400    294.86424   -164.44497   0.26679936   -164.17817    4674.8547    4.2193059    4.2193059    4.2193059    4674.8547    29837.717   -6175.1424   -9638.0102    288.95751   -1336.7961   -726.43324    75.114373 
   24500    371.95602    -164.5142   0.33655362   -164.17765    6109.9013    4.2170112    4.2170112    4.2170112    6109.9013     19706.87   -5365.3037    3988.1379    3021.4402   -2931.2247    1164.8617    74.991884 
   24600    370.47842   -164.51363   0.33521666   -164.17841    -3169.467    4.2190973    4.2190973    4.2190973    -3169.467    4120.6701    -7238.735    -6390.336   -747.86648    1139.1843    1660.8487     75.10323 
   24700    227.23691   -164.38498   0.20560873   -164.17937    7969.0776    4.2195405    4.2195405    4.2195405    7969.0776    25452.529   -2894.3041    1349.0076   -4921.4266   -795.31602    914.05888      75.1269 
   24800    285.34668   -164.43674   0.25818767   -164.17856   -2167.9386    4.2177048    4.2177048    4.2177048   -2167.9386    2126.9785   -9071.3288     440.5345   -7131.0084   -453.31338    385.63992    75.028893 
   24900    218.07668   -164.37657   0.19732037   -164.17925   -3329.2674      4.21982      4.21982      4.21982   -3329.2674    9280.5492   -12211.023   -7057.3289   -7428.9909    313.83687    1717.4003    75.141832 
   25000    172.96743   -164.33552   0.15650457   -164.17902    4296.9071    4.2200676    4.2200676    4.2200676    4296.9071    17570.693   -3459.9538   -1220.0175   -10223.655    379.39838   -854.27237     75.15506 
   25100    251.05614   -164.40556   0.22716087   -164.17839   -7764.3725    4.2173566    4.2173566    4.2173566   -7764.3725    -4190.032   -14358.578   -4744.5073    -12717.69   -967.71699    -3625.134    75.010315 
   25200    213.47331   -164.37223   0.19315514   -164.17908    4814.1656    4.2195969    4.2195969    4.2195969    4814.1656    25604.864   -9121.6339    -2040.733   -3744.7415    2515.3752   -1945.9345    75.129916 
   25300    325.61903   -164.47306   0.29462694   -164.17843   -4549.0726    4.2211395    4.2211395    4.2211395   -4549.0726     4084.076    -9429.037    -8302.257   -7867.8335   -3765.8602   -3965.3817    75.212345 
   25400    343.00374   -164.48823   0.31035699   -164.17787   -2884.9978    4.2168054    4.2168054    4.2168054   -2884.9978    4218.5041   -7347.4256   -5526.0718    -148.6669    1767.6177   -5254.9423    74.980904 
   25500    286.12755   -164.43746   0.25889422   -164.17856    5790.9168    4.2201765    4.2201765    4.2201765    5790.9168    23171.392   -671.40371   -5127.2375    2723.5198    496.06064   -5248.8768    75.160877 
   25600    399.18376    -164.5388   0.36118986   -164.17761   -9065.7372      4.22023      4.22023      4.22023   -9065.7372    1618.6918   -10604.934   -18210.969     238.4208   -41.731437   -1618.7911    75.163736 
   25700    338.91465   -164.48472    0.3066571   -164.17806     3648.841    4.2158484    4.2158484    4.2158484     3648.841    12988.485    1844.2747   -3886.2372    7551.7808   -1025.6275   -4256.1046    74.929866 
   25800    286.55969   -164.43778   0.25928523   -164.17849    659.60372    4.2208577    4.2208577    4.2208577    659.60372    15662.838   -4261.1163   -9422.9101    2860.3691   -475.33585    -2186.213    75.197279 
   25900    399.25204   -164.53874   0.36125163   -164.17749   -7482.7549    4.2195492    4.2195492    4.2195492   -7482.7549   -3904.0219   -8051.7687   -10492.474   -1237.8584    1226.0228    753.78925    75.127368 
   26000    313.01061   -164.46161   0.28321857   -164.17839    2629.7972    4.2159867    4.2159867    4.2159867    2629.7972    8154.6483   -5914.9377    5649.6812   -3894.9942   -3360.9171    1156.2342    74.937239 
   26100    304.62529   -164.45473   0.27563137    -164.1791   -4948.7844    4.2200757    4.2200757    4.2200757   -4948.7844    5398.9818    -14448.27   -5797.0651    -5137.593    4447.3478    2301.3646    75.155491 
   26200    344.60408    -164.4905   0.31180501    -164.1787   -5183.5343    4.2200549    4.2200549    4.2200549   -5183.5343   -10151.658   -5103.6756    -295.2692   -9146.7225   -2369.6056    899.88287    75.154382 
   26300    244.06816   -164.39985     0.220838   -164.17901    2252.8107    4.2170918    4.2170918    4.2170918    2252.8107    20643.176   -13316.514   -568.23017   -6872.2828    1652.7951    2128.1175    74.996182 
   26400    345.31674   -164.49113   0.31244984   -164.17868   -8402.5498    4.2196504    4.2196504    4.2196504   -8402.5498   -5436.1388   -10383.427   -9388.0837   -8902.9166    2817.8073   -427.45526     75.13277 
   26500    316.75163   -164.46551   0.28660353   -164.17891    1185.1836    4.2200988    4.2200988    4.2200988    1185.1836    8461.5998   -3600.4932   -1305.5558   -5406.4134   -1399.8004   -1647.3765    75.156725 
   26600     303.4603   -164.45345   0.27457726   -164.17887   -1687.3145    4.2182115    4.2182115    4.2182115   -1687.3145     21743.94    -16241.79   -10564.093   -56.908193   -1876.8654   -2157.5955    75.055937 
   26700    425.40152   -164.56296   0.38491223   -164.17805    -4001.849     4.219376     4.219376     4.219376    -4001.849   -3512.2215    -2340.384   -6152.9416    1710.5625    1625.2842   -4389.5868    75.118117 
   26800    301.12004   -164.45153   0.27245974   -164.17907    2550.4201    4.2198884    4.2198884    4.2198884    2550.4201    22335.501   -10203.393   -4480.8482     2007.966   -656.17003   -4663.6789    75.145484 
   26900    323.94881   -164.47156   0.29311569   -164.17844   -2811.6568    4.2185051    4.2185051    4.2185051   -2811.6568    14553.959   -14108.429   -8880.5003    6569.4102   -531.82826   -4847.1623     75.07161 
   27000    327.11584   -164.47458   0.29598129    -164.1786    222.85762    4.2186876    4.2186876    4.2186876    222.85762    5254.8795   -2588.9273   -1997.3794    3757.3742     2181.334   -3410.5097    75.081356 
   27100    234.62494   -164.39171   0.21229357   -164.17942   -3076.4284     4.220098     4.220098     4.220098   -3076.4284      16673.6   -15728.374   -10174.511    2489.7299   -1794.1512   -2790.4348    75.156682 
   27200    299.80522   -164.44974   0.27127006   -164.17847   -579.31319     4.218302     4.218302     4.218302   -579.31319    10776.514   -13006.029    491.57575    2992.6718    2347.2295    -2765.416    75.060766 
   27300     250.3149   -164.40525   0.22649018   -164.17876   -1410.5249    4.2182577    4.2182577    4.2182577   -1410.5249    6196.2245   -12423.363    1995.5639   -8238.3668     3527.312    478.66572    75.058405 
   27400     281.9654   -164.43387   0.25512822   -164.17874   -751.86699    4.2194383    4.2194383    4.2194383   -751.86699    14245.619   -9234.3482   -7266.8721    -4990.732   -1444.7169    223.71444    75.121443 
   27500    367.35918    -164.5108   0.33239431    -164.1784     283.0134    4.2183516    4.2183516    4.2183516     283.0134    2335.1977   -11554.777     10068.62   -6319.7935   -1234.7905     795.6104    75.063415 
   27600    276.01216   -164.42894    0.2497416    -164.1792    2132.3897    4.2182943    4.2182943    4.2182943    2132.3897    23117.889   -15144.175   -1576.5444    -9269.442    3982.6146    2883.0447    75.060359 
   27700    352.98342   -164.49794   0.31938681   -164.17855     944.7856    4.2201004    4.2201004    4.2201004     944.7856    6353.8106      1154.22   -4673.6738   -6458.4057   -2707.7974    174.89503    75.156812 
   27800    322.06342   -164.47027   0.29140975   -164.17886    2098.3264    4.2173665    4.2173665    4.2173665    2098.3264    12687.303   -9476.7846    3084.4605   -240.21318    1653.0033    184.78504    75.010839 
   27900    234.65593   -164.39164   0.21232161   -164.17932    4073.4599    4.2181867    4.2181867    4.2181867    4073.4599     25702.93   -12346.408   -1136.1421    1202.1003    1073.6649    -517.9534    75.054614 
   28000    296.95317   -164.44742   0.26868947   -164.17873    487.94906    4.2214123    4.2214123    4.2214123    487.94906    2587.0045    78.793819   -1201.9512    3627.5474   -3153.5226   -789.04271    75.226923 
   28100    204.61434    -164.3649   0.18513936   -164.17976    3537.3866    4.2166085    4.2166085    4.2166085    3537.3866    28292.872   -14157.766   -3522.9459    8470.5608    4799.4704   -4163.0103    74.970401 
   28200    260.71761   -164.41547   0.23590277   -164.17957    626.44671    4.2187559    4.2187559    4.2187559    626.44671    12040.545   -14651.613    4490.4085    6250.7519    1800.3568   -3532.7019    75.085002 
   28300    283.73256   -164.43567   0.25672719   -164.17894    -2771.151    4.2213405    4.2213405    4.2213405    -2771.151     5479.286   -11382.261   -2410.4777    5891.6772     -1255.66   -2701.5519    75.223085 
   28400    156.69126   -164.32105   0.14177754   -164.17927    2488.8393     4.217283     4.217283     4.217283    2488.8393    27757.515     -13226.2   -7064.7968    7933.1022    589.15193   -4311.0489    75.006384 
   28500     232.8432   -164.38942   0.21068142   -164.17874    3849.7972    4.2189884    4.2189884    4.2189884    3849.7972    14445.837   -9452.9183    6556.4727    1334.2302    4298.2813   -2909.8032    75.097417 
   28600    274.73664   -164.42661   0.24858748   -164.17803   -5867.6362    4.2208367    4.2208367    4.2208367   -5867.6362    5074.5463   -13675.343   -9002.1118   -2529.4669    121.61093    -1214.276    75.196158 
   28700    272.57291   -164.42467   0.24662969   -164.17804    3552.1691    4.2169787    4.2169787    4.2169787    3552.1691     14015.28    -2779.189    -579.5835    2056.5738    1529.3787    -699.6178    74.990148 
   28800    363.96076   -164.50704   0.32931934   -164.17772    2098.6009    4.2178832    4.2178832    4.2178832    2098.6009    4758.7215   -4999.8311    6536.9123   -4505.4721    2575.2343   -501.26506    75.038415 
   28900      397.712   -164.53767   0.35985818   -164.17781   -3935.7617    4.2206093    4.2206093    4.2206093   -3935.7617    6631.5331   -11859.478   -6579.3398   -4236.0572   -3782.3074    2503.0336    75.184004 
   29000    405.01088   -164.54383   0.36646236   -164.17736    5416.9964    4.2174293    4.2174293    4.2174293    5416.9964     13747.28    1594.2823    909.42684     7.191612     4884.732    2330.9384    75.014189 
   29100    370.01435   -164.51327   0.33479676   -164.17848   -3196.4979    4.2171895    4.2171895    4.2171895   -3196.4979   -1782.7693   -10537.351    2730.6266    1457.5957   -2871.2243    1061.0517    75.001395 
   29200    313.70559   -164.46333   0.28384741   -164.17948    443.00902    4.2197576    4.2197576    4.2197576    443.00902    7305.6238   -10414.455    4437.8578    4092.4411     -1322.67    364.35636    75.138497 
   29300    337.26477   -164.48405   0.30516425   -164.17888   -8265.3319    4.2191781    4.2191781    4.2191781   -8265.3319   -1522.5935   -12692.495   -10580.907    6449.8527   -855.94114    855.14068    75.107544 
   29400    207.81457   -164.36753   0.18803499    -164.1795   -3299.1544    4.2175408    4.2175408    4.2175408   -3299.1544    3917.4966   -17298.011    3483.0511    10387.607    895.94511   -1912.4384    75.020139 
   29500    140.60742   -164.30746   0.12722455   -164.18024    2169.2981    4.2187427    4.2187427    4.2187427    2169.2981     3335.127   -3627.8113    6800.5785    5345.7682    924.45928   -3251.4998    75.084299 
   29600    312.03066   -164.46159    0.2823319   -164.17926    -11021.29    4.2192872    4.2192872    4.2192872    -11021.29   -4962.4639   -19605.467   -8495.9393    10944.647    792.75825   -2790.0807    75.113372 
   29700    296.59137   -164.44746   0.26836211   -164.17909   -1709.2474    4.2178222    4.2178222    4.2178222   -1709.2474    4932.3269   -14681.751    4621.6816    4962.7024    1360.6187   -4221.2677     75.03516 
   29800    265.60768   -164.42018   0.24032741   -164.17985    2359.9762    4.2188169    4.2188169    4.2188169    2359.9762    5347.8972    2951.7791   -1219.7478    404.45147    -413.4007   -3950.4623    75.088258 
   29900    371.36451   -164.51427   0.33601841   -164.17825    -3788.148    4.2197375    4.2197375    4.2197375    -3788.148    4616.1756   -12240.049   -3740.5706    1912.2051    6637.7562   -1651.4662    75.137423 
   30000    363.70452   -164.50655   0.32908749   -164.17747    2875.8595    4.2165839    4.2165839    4.2165839    2875.8595     18414.23   -4138.8652   -5647.7865   -3024.9553    -292.1686    351.69813    74.969092 
   30100    372.54245   -164.51464   0.33708424   -164.17755     2179.127    4.2190518    4.2190518    4.2190518     2179.127    8506.7704   -136.82532   -1832.5639   -3331.2308   -2674.7742   -210.93118    75.100801 
   30200    407.43166    -164.5456   0.36865272   -164.17695   -2317.0642    4.2201105    4.2201105    4.2201105   -2317.0642    1340.7082   -7317.7888   -974.11189   -3294.7849    1238.3223    2213.4765    75.157351 
   30300    327.31836   -164.47391   0.29616453   -164.17774    6491.5706    4.2165863    4.2165863    4.2165863    6491.5706    32298.166   -6950.1932   -5873.2611   -1538.8162    1053.1706      4278.57    74.969216 
   30400    301.61678    -164.4515    0.2729092   -164.17859     1794.557      4.21913      4.21913      4.21913     1794.557    11846.426   -11410.005    4947.2498    662.50763   -985.77643     2693.996    75.104978 
   30500    242.68191   -164.39902   0.21958369   -164.17943    3007.0202    4.2192108    4.2192108    4.2192108    3007.0202    13688.153   -4867.7251    200.63226    3588.9417   -1.4018853    3310.5727    75.109294 
   30600    217.02767   -164.37585   0.19637119   -164.17948    3138.2639    4.2165187    4.2165187    4.2165187    3138.2639    21188.845   -14199.069    2425.0153    7241.1121   -98.924892    1529.9095     74.96561 
   30700    222.29075   -164.38058   0.20113334   -164.17944   -3629.5332    4.2193468    4.2193468    4.2193468   -3629.5332    1951.4185   -15296.499    2456.4807     8474.247   -1674.6537   -272.99181    75.116556 
   30800    126.49157   -164.29428   0.11445223   -164.17983    4414.4196    4.2195147    4.2195147    4.2195147    4414.4196    18817.366   -3631.4902   -1942.6169    9032.8163    6028.6359   -1673.5258    75.125522 
   30900    187.67768   -164.34958   0.16981471   -164.17977   -1020.1564    4.2165723    4.2165723    4.2165723   -1020.1564    8789.9818   -13369.902    1519.4506    9812.3868    -2008.846    -1642.997    74.968469 
   31000    257.45394   -164.41259   0.23294974   -164.17964    -234.4751    4.2185984    4.2185984    4.2185984    -234.4751    4942.7031   -3335.4485   -2310.6799    3897.4291   -1075.8633   -2792.2519    75.076591 
   31100    244.73924   -164.40051   0.22144521   -164.17907    2724.5246    4.2205971    4.2205971    4.2205971    2724.5246    10750.927    -5997.941     3420.588     578.6199    4879.8441   -3581.5148    75.183353 
   31200    372.53742   -164.51475   0.33707969   -164.17767   -5078.2921    4.2177633    4.2177633    4.2177633   -5078.2921   -2094.1409   -12624.101   -516.63442   -621.29847   -1171.9577   -1819.2102    75.032015 
   31300    373.53074   -164.51595   0.33797846   -164.17797    950.88169     4.218386     4.218386     4.218386    950.88169    7141.5793    86.187152   -4375.1214   -5560.7648    1612.6966    124.57006    75.065252 
   31400    285.11382    -164.4365   0.25797698   -164.17852    1416.1612    4.2208937    4.2208937    4.2208937    1416.1612    16374.293   -14396.522    2270.7125   -4281.6439   -1299.4612    523.99997    75.199203 
   31500    375.91988   -164.51809   0.34014021   -164.17795   -2364.3929    4.2178235    4.2178235    4.2178235   -2364.3929    3984.3721   -9353.6578   -1723.8931   -6749.8385    -126.7777    2252.2048    75.035226 
   31600    333.13966   -164.48013   0.30143176    -164.1787    454.89892    4.2182173    4.2182173    4.2182173    454.89892    17369.296   -7441.3397   -8563.2597   -1874.9179   -2757.3001    4173.6934     75.05625 
   31700    318.76455   -164.46716   0.28842486   -164.17873   -4730.5762    4.2211985    4.2211985    4.2211985   -4730.5762    8772.5982   -17877.659   -5086.6674    211.73823    5162.1595    2748.4539    75.215497 
   31800    322.44553   -164.47008   0.29175549   -164.17832   -743.32186    4.2175204    4.2175204    4.2175204   -743.32186    3703.0139   -7531.3713    1598.3918    116.70077   -4925.7328    3214.7786    75.019055 
   31900    232.35846   -164.38939   0.21024282   -164.17915    1085.2505    4.2181804    4.2181804    4.2181804    1085.2505    24585.922   -13469.483   -7860.6879    6563.3597   -2315.2802    2510.0269    75.054275 
   32000    340.31203    -164.4868   0.30792147   -164.17888   -4962.9547    4.2209874    4.2209874    4.2209874   -4962.9547   -725.90167   -7389.6024   -6773.3599    5742.9291    3799.1882    1516.4857    75.204213 
   32100    335.62698   -164.48249   0.30368235   -164.17881    -857.7873    4.2175223    4.2175223    4.2175223    -857.7873    7163.2686   -10112.426    375.79582    5685.9429   -3048.1535   -2090.8387    75.019156 
   32200    323.33613   -164.47186   0.29256133    -164.1793   -2382.6111    4.2172852    4.2172852    4.2172852   -2382.6111    12061.509   -13818.662   -5390.6797     4576.945    1184.0316   -368.72953    75.006501 
   32300    395.23876   -164.53628   0.35762033   -164.17865   -2683.9637     4.219797     4.219797     4.219797   -2683.9637   -6161.9511     2615.759   -4505.6989    2390.4458    -492.8233   -920.51108    75.140601 
   32400    292.94348   -164.44433   0.26506142   -164.17926    454.71981    4.2179448    4.2179448    4.2179448    454.71981    16724.808   -15135.774   -224.87395   -6214.7007   -1234.2524   -3610.6497      75.0417 
   32500     355.9379   -164.50099   0.32206009   -164.17893   -1938.7093    4.2174504    4.2174504    4.2174504   -1938.7093    3919.7111    -9773.717    37.877889   -6191.9334   -1807.1667   -648.79081    75.015318 
   32600    346.61925   -164.49293   0.31362838    -164.1793   -4093.0422    4.2205595    4.2205595    4.2205595   -4093.0422   -2247.6708   -4975.1898   -5056.2661   -7105.9583    4001.8262   -763.78246    75.181342 
   32700    265.42008   -164.41987   0.24015767   -164.17971   -1432.2916    4.2178235    4.2178235    4.2178235   -1432.2916    9479.4491   -16266.156    2489.8317   -13320.203   -4974.5561    900.66681    75.035228 
   32800    366.39328   -164.51059   0.33152034   -164.17907   -2804.7891     4.217833     4.217833     4.217833   -2804.7891   -3359.6118   -6369.8495     1315.094   -5763.2797    836.92254   -203.94148    75.035735 
   32900    287.90156   -164.43981   0.26049938   -164.17931   -4726.0568    4.2222318    4.2222318    4.2222318   -4726.0568     15663.45   -17223.846   -12617.774   -2159.8067    2346.2759    2778.8306    75.270747 
   33000    271.73279   -164.42448   0.24586954   -164.17861    1422.5279    4.2181073    4.2181073    4.2181073    1422.5279    13909.432   -8069.7718   -1572.0768   -5898.3123   -647.31563    2959.8565    75.050377 
   33100    321.33344   -164.46943   0.29074925   -164.17868   -1222.6921    4.2182459    4.2182459    4.2182459   -1222.6921    7767.8693   -3915.0891   -7520.8566     3770.235    1578.0077    293.62634    75.057776 
   33200    310.21269   -164.45982   0.28068696   -164.17914   -4277.6588     4.221658     4.221658     4.221658   -4277.6588    17395.646   -17832.533   -12396.089    5827.6542    885.66698    3481.8187    75.240061 
   33300    393.03338   -164.53345   0.35562486   -164.17782   -2590.1695    4.2185772    4.2185772    4.2185772   -2590.1695   -1668.6423   -2046.5502    -4055.316    1377.7253   -1572.2828    2085.0012    75.075461 
   33400    297.59753   -164.44774    0.2692725   -164.17846   -2573.1827    4.2186895    4.2186895    4.2186895   -2573.1827    10960.882   -8272.4501    -10407.98    5305.8215    1760.1684    912.08338    75.081455 
   33500    297.69372   -164.44773   0.26935954   -164.17837    3035.7279    4.2196993    4.2196993    4.2196993    3035.7279     16592.11   -4934.8713   -2550.0546     354.4447    2537.7639   -64.993508    75.135385 
   33600    386.29159   -164.52707   0.34952475   -164.17755   -2977.3849    4.2184539    4.2184539    4.2184539   -2977.3849    581.49013   -5770.8587   -3742.7862   -2986.3178   -3421.1825   -528.17562    75.068879 
   33700    239.93177   -164.39615   0.21709531   -164.17906    2154.0771    4.2170163    4.2170163    4.2170163    2154.0771    18947.347   -10696.155     -1788.96   -6330.3837     1887.411   -243.99326    74.992154 
   33800    230.43344   -164.38787   0.20850102   -164.17937    6528.3909    4.2193247    4.2193247    4.2193247    6528.3909     10594.79    3855.0015    5135.3807   -7349.8155    2789.9968   -2429.9164    75.115377 
   33900    245.44493   -164.40084   0.22208373   -164.17876   -2286.2466    4.2189881    4.2189881    4.2189881   -2286.2466     6754.001   -15740.504    2127.7635   -12303.407   -912.60124   -1187.5361    75.097402 
   34000    167.96545   -164.33104   0.15197867   -164.17907    7312.3134    4.2157795    4.2157795    4.2157795    7312.3134    25800.605   -8859.4531    4995.7886   -10698.577    13.979972   -336.90074    74.926192 
   34100    216.48573   -164.37542   0.19588083   -164.17954    2736.7195    4.2185375    4.2185375    4.2185375    2736.7195    4141.3032     1684.459    2384.3963   -6539.9952   -608.54246   -845.20107    75.073342 
   34200    206.08674   -164.36595   0.18647161   -164.17948    3984.6723    4.2196964    4.2196964    4.2196964    3984.6723    23039.185   -15936.155    4850.9876    -6727.419   -1988.0237    2277.5277    75.135232 
   34300    293.45183   -164.44404   0.26552139   -164.17852    3952.2688    4.2163613    4.2163613    4.2163613    3952.2688    19763.476   -4693.4317   -3213.2381    217.87353   -1798.2433    2118.4485    74.957217 
   34400    376.82757   -164.51916    0.3409615   -164.17819   -2700.6621    4.2180827    4.2180827    4.2180827   -2700.6621    6939.7622      -4943.1   -10098.649   -1096.4302   -346.80829    3086.4228    75.049061 
   34500    279.39938   -164.43158   0.25280643   -164.17878    5537.0495    4.2202043    4.2202043    4.2202043    5537.0495    24816.518   -6612.7409   -1592.6286     4221.457   -5257.1283    3018.2159    75.162362 
   34600    347.00303   -164.49182   0.31397564   -164.17785   -177.51149    4.2169447    4.2169447    4.2169447   -177.51149    11149.106   -2452.6476   -9228.9925    4608.6455   -343.30842    3648.4498    74.988336 
   34700    381.77229     -164.523   0.34543559   -164.17756   -5090.5233    4.2186274    4.2186274    4.2186274   -5090.5233    2536.3244   -8612.4466   -9195.4476   -232.00581    1283.0792    2376.7758    75.078143 
   34800     288.4198   -164.43892    0.2609683   -164.17795    1457.0852    4.2210821    4.2210821    4.2210821    1457.0852    11396.692   -3746.9929    -3278.444    209.05381   -2831.0132    606.35464    75.209273 
   34900    312.56897   -164.46029   0.28281897   -164.17747   -3622.6081     4.216382     4.216382     4.216382   -3622.6081   -2436.9801   -8061.4453   -369.39904   -4439.1137    -1299.432    2697.2328     74.95832 
   35000      285.408   -164.43652   0.25824316   -164.17827    -1481.776    4.2188684    4.2188684    4.2188684    -1481.776    4074.5137   -7283.9283   -1235.9136   -6432.6926    1428.8327   -1837.5135    75.091008 
   35100    285.99603   -164.43713   0.25877522   -164.17836   -2909.7231    4.2214739    4.2214739    4.2214739   -2909.7231    11372.001   -13438.724   -6662.4458   -9559.7685     1062.837   -2175.1127    75.230221 
   35200    303.58605   -164.45292   0.27469103   -164.17823    -6449.273     4.216344     4.216344     4.216344    -6449.273   -9913.5426   -16160.458     6726.182   -13656.515   -1273.3841    457.96904    74.956294 
   35300    242.51678   -164.39821   0.21943428   -164.17877    2080.3498    4.2189348    4.2189348    4.2189348    2080.3498    11617.959   -3600.6184    -1776.291   -12082.188    4080.9335   -789.97501    75.094555 
   35400    342.10969   -164.48811   0.30954803   -164.17857   -10824.238    4.2208612    4.2208612    4.2208612   -10824.238   -7216.8431   -18872.474   -6383.3965   -8001.7477   -3674.2138   -939.82654    75.197468 
   35500    326.67119     -164.474   0.29557896   -164.17842   -2654.4773    4.2159023    4.2159023    4.2159023   -2654.4773   -176.19174   -11807.258    4020.0181   -9431.8855    2218.5307   -897.00513    74.932739 
   35600    279.06038   -164.43158    0.2524997   -164.17908    1248.4515    4.2195958    4.2195958    4.2195958    1248.4515    12493.808    652.15052   -9400.6042   -3990.2819   -873.76288    3645.8093    75.129856 
   35700    399.27685   -164.53899   0.36127409   -164.17772   -8863.3857    4.2195458    4.2195458    4.2195458   -8863.3857   -9950.5415   -13152.056   -3487.5595    -1040.843    -1762.003    2347.8082    75.127186 
   35800     379.5829   -164.52138   0.34345458   -164.17793    1677.7731    4.2155741    4.2155741    4.2155741    1677.7731    15939.204   -6306.5227   -4599.3624    5489.3404   -1734.4331     1211.076    74.915241 
   35900    355.16568   -164.49946   0.32136137    -164.1781   -3933.9919    4.2196137    4.2196137    4.2196137   -3933.9919    4797.0811   -1891.5728   -14707.484    2343.8461    506.40303    5897.5933    75.130811 
   36000     341.8042   -164.48665   0.30927162   -164.17738    461.09813    4.2194054    4.2194054    4.2194054    461.09813    2994.6076   -576.54856   -1034.7646    3267.6626   -1773.2882    3081.4405    75.119685 
   36100     307.4086   -164.45554   0.27814976   -164.17739    2730.0067    4.2159735    4.2159735    4.2159735    2730.0067    20653.335   -7383.0958   -5080.2193    2800.7506   -1566.1004    2685.4514    74.936539 
   36200    322.99064    -164.4698   0.29224872   -164.17755   -2339.5747    4.2195904    4.2195904    4.2195904   -2339.5747    9858.1528   -10166.371   -6710.5058   -3401.5252     3852.552    2094.0179    75.129566 
   36300    252.80536   -164.40656    0.2287436   -164.17782    5244.1023    4.2188984    4.2188984    4.2188984    5244.1023    4567.0532    8418.5482    2746.7056    584.52464   -1364.1616     2354.888    75.092608 
   36400    220.56459   -164.37745   0.19957148   -164.17788    4103.2085    4.2161294    4.2161294    4.2161294    4103.2085    21290.845   -10732.893    1751.6735   -9788.2223    3023.8312    1716.3009    74.944847 
   36500    314.50971   -164.46238     0.284575   -164.17781   -125.40276    4.2195614    4.2195614    4.2195614   -125.40276    10695.983   -9226.9397   -1845.2518   -10619.662    669.19434   -2900.0838    75.128017 
   36600    256.87765   -164.41103    0.2324283   -164.17861    2075.1007    4.2185311    4.2185311    4.2185311    2075.1007     6917.788    391.88238   -1084.3682   -6984.2743    361.19471    295.48959    75.073001 
   36700    228.40311   -164.38528   0.20666393   -164.17861    4328.8183     4.216909     4.216909     4.216909    4328.8183      19942.5   -11669.799    4713.7546   -7861.4401   -1653.6507   -1734.6232    74.986431 
   36800    317.95234   -164.46621   0.28768996   -164.17852   -966.96956    4.2193432    4.2193432    4.2193432   -966.96956   -537.56629    2544.7242   -4908.0666   -5417.8803   -624.46936   -41.440709    75.116365 
   36900    280.07172   -164.43238   0.25341478   -164.17897   -259.08144    4.2190312    4.2190312    4.2190312   -259.08144    15306.269   -8364.8966   -7718.6163   -506.56913   -730.93339   -1385.7714    75.099701 
   37000    308.51012   -164.45747   0.27914644   -164.17832    398.14394    4.2174594    4.2174594    4.2174594    398.14394    7051.0291   -8764.3234    2907.7262    3377.6408   -4288.0737   -1.5238233    75.015797 
   37100    276.80476   -164.42952   0.25045876   -164.17906    317.32177    4.2184478    4.2184478    4.2184478    317.32177     9404.788     38.20846   -8491.0312      3711.15    3805.9313    4659.7278    75.068555 
   37200    229.35227   -164.38704   0.20752275   -164.17952    1304.9995    4.2190623    4.2190623    4.2190623    1304.9995    14467.345   -6222.4863   -4329.8598    10593.334   -2498.4319    2659.6624    75.101364 
   37300    327.39419   -164.47481   0.29623314   -164.17858   -2879.2681    4.2185999    4.2185999    4.2185999   -2879.2681    4337.6186   -10254.354   -2721.0693    2361.8753   -287.44374    6072.7157    75.076674 
   37400    253.50555   -164.40835   0.22937715   -164.17897   -1458.8137    4.2178956    4.2178956    4.2178956   -1458.8137     17615.16   -12669.854   -9321.7467    1610.8179    903.63131    6001.9894    75.039075 
   37500    214.95325   -164.37368   0.19449422   -164.17919    2679.4293    4.2189295    4.2189295    4.2189295    2679.4293      7899.65   -794.89296    933.53079    2640.8817   -1419.9262    5465.0182    75.094272 
   37600    302.54857    -164.4524   0.27375231   -164.17865   -2933.8334     4.218364     4.218364     4.218364   -2933.8334    9467.0466   -13489.326   -4779.2211   -4993.5089    1548.8338    5996.0399     75.06408 
   37700    304.43969   -164.45392   0.27546343   -164.17846   -2901.4059    4.2183126    4.2183126    4.2183126   -2901.4059     8462.176   -13834.072   -3332.3216   -7433.6533   -649.66433    1835.6781    75.061337 
   37800    342.78956   -164.48837    0.3101632    -164.1782    848.01773    4.2184207    4.2184207    4.2184207    848.01773    1964.3216   -430.16227    1009.8938    -6034.581    2259.1144    760.06672    75.067106 
   37900    373.30759   -164.51565   0.33777656   -164.17787    -6490.391     4.218202     4.218202     4.218202    -6490.391   -1767.4888   -13195.535   -4508.1495   -6350.6427   -2784.6604    914.76798    75.055428 
   38000    362.69209    -164.5062   0.32817143   -164.17803    2906.4208    4.2174702    4.2174702    4.2174702    2906.4208    9422.2561    1982.5522    -2685.546    -5112.913    4359.1882   -2488.9512    75.016373 
   38100    430.84792   -164.56727   0.38984025   -164.17743   -7299.4422    4.2188014    4.2188014    4.2188014   -7299.4422   -2799.7087   -8678.7836   -10419.834    1878.2051   -1708.6113   -5322.6042    75.087428 
   38200    371.73172   -164.51408   0.33635067   -164.17773   -1798.9037    4.2181706    4.2181706    4.2181706   -1798.9037    2837.2506    -9855.806    1621.8443   -2585.9971   -892.20284   -1118.5225    75.053755 
   38300    300.25315   -164.45008   0.27167536   -164.17841    4056.5007     4.216841     4.216841     4.216841    4056.5007    15353.902    1790.1347   -4974.5343      5631.88    675.42571    2200.5547    74.982805 
   38400    345.98474   -164.49081   0.31305427   -164.17776   -6603.0462    4.2193071    4.2193071    4.2193071   -6603.0462   -1935.7403   -9984.9239   -7888.4745     6584.164   -2957.2113   -2300.1405    75.114438 
   38500    265.36231   -164.41876    0.2401054   -164.17865      5712.06     4.217443     4.217443     4.217443      5712.06    18200.868   -8980.4901     7915.802    4922.1272   -633.64042    2875.6277    75.014922 
   38600    199.52327   -164.35964   0.18053284   -164.17911   -356.40286    4.2169071    4.2169071    4.2169071   -356.40286    15025.092   -12653.025    -3441.275    2222.5663   -513.22197    8267.2284    74.986333 
   38700    227.37009   -164.38445   0.20572924   -164.17872    4085.1864    4.2196078    4.2196078    4.2196078    4085.1864    11859.036   -2741.3697    3137.8924    1469.5658    805.07394    6019.0323    75.130498 
   38800    229.57813    -164.3862   0.20772712   -164.17847    1117.3109    4.2177261    4.2177261    4.2177261    1117.3109    21606.933   -12179.775   -6075.2258   -1299.5989   -2321.5207     6115.055    75.030027 
   38900    245.24183   -164.40038   0.22189997   -164.17848    902.32931    4.2169379    4.2169379    4.2169379    902.32931    16221.573   -10211.451   -3303.1338   -4949.2252    3986.0485    6049.0714    74.987974 
   39000    252.60988   -164.40712   0.22856673   -164.17855    4604.4096    4.2200834    4.2200834    4.2200834    4604.4096    13412.909   -3209.2283    3609.5478   -1479.3511   -1297.7204    2897.6858    75.155904 
   39100    257.42585   -164.41136   0.23292432   -164.17844    -1048.892    4.2176824    4.2176824    4.2176824    -1048.892    19904.943   -14466.761   -8584.8584   -8873.5994    969.20446    1486.8693    75.027695 
   39200    346.52936   -164.49171   0.31354704   -164.17816    3088.9464    4.2173644    4.2173644    4.2173644    3088.9464    9472.2448    599.51275   -804.91849   -544.12953    3165.7266   -1630.4119     75.01073 
   39300      325.671   -164.47279   0.29467396   -164.17811    -4872.949    4.2204463    4.2204463    4.2204463    -4872.949    1343.9371     -12099.1    -3863.684    449.05174   -2567.8318     -5986.53    75.175292 
   39400    254.55482   -164.40884   0.23032655   -164.17852      3874.76    4.2179379    4.2179379    4.2179379      3874.76    19006.915   -13391.172    6008.5368    370.72811    784.29908   -3470.0215    75.041336 
   39500    321.24383   -164.46899   0.29066816   -164.17832   -2595.2136    4.2176704    4.2176704    4.2176704   -2595.2136   -899.24696   -1044.4205   -5841.9734    4990.5505   -128.30214   -2536.9767    75.027058 
   39600    272.48412    -164.4255   0.24654936   -164.17895   -4188.1279    4.2205143    4.2205143    4.2205143   -4188.1279    14874.297   -16350.206   -11088.474    2577.0608   -178.07634   -5464.8481    75.178929 
   39700    275.00104   -164.42734   0.24882672   -164.17852    1824.3264    4.2177378    4.2177378    4.2177378    1824.3264    9137.1141   -12058.031    8393.8961    7520.4497   -1676.5077   -501.78705    75.030652 
   39800    335.96562   -164.48218   0.30398875   -164.17819   -7231.2555    4.2181736    4.2181736    4.2181736   -7231.2555    1436.2764   -11896.754   -11233.289   -260.01486    3557.8615    5546.8475    75.053915 
   39900    305.55302   -164.45521    0.2764708   -164.17874   -339.34182    4.2203407    4.2203407    4.2203407   -339.34182    14234.365   -12736.824   -2515.5671    4383.3058   -1863.5815    3608.2827    75.169653 
   40000    384.84043   -164.52662   0.34821171    -164.1784   -3630.6979      4.21699      4.21699      4.21699   -3630.6979    1375.7216   -13911.847    1644.0314   -5033.2295   -107.20256    5441.0342    74.990752 
   40100    374.79888   -164.51734    0.3391259   -164.17822   -4716.9765    4.2182048    4.2182048    4.2182048   -4716.9765    10315.407    -15715.02   -8751.3163    859.80377    3000.6321    6801.7047    75.055578 
   40200    315.43903   -164.46382   0.28541586    -164.1784    759.29382    4.2200498    4.2200498    4.2200498    759.29382    9400.8255   -6877.8382   -245.10578   -2997.6459   -6451.6293    6003.7094    75.154107 
   40300    403.11892   -164.54212   0.36475047   -164.17737   -6751.2499    4.2167219    4.2167219    4.2167219   -6751.2499    2304.5496   -13614.472   -8943.8272   -2070.6784    2158.3929    1898.3378    74.976449 
   40400    360.73011   -164.50416   0.32639619   -164.17776   -4905.6009    4.2181904    4.2181904    4.2181904   -4905.6009    8623.2693   -9780.7974   -13559.275    405.08621   -3456.1701    260.38869    75.054811 
   40500    253.82224   -164.40843    0.2296637   -164.17877    1409.4087    4.2194476    4.2194476    4.2194476    1409.4087    19953.975   -7998.0652   -7727.6835    416.25171    44.090812   -3865.2865    75.121939 
   40600    317.14624    -164.4653   0.28696058   -164.17834   -4028.6469    4.2165436    4.2165436    4.2165436   -4028.6469    1203.1067   -15053.867     1764.819    5663.4278   -1870.7031   -3829.0008     74.96694 
   40700    309.24759   -164.45877   0.27981372   -164.17895   -1707.7084     4.218157     4.218157     4.218157   -1707.7084    13137.609   -7310.2966   -10950.437    591.47775    1367.1565   -6556.7448    75.053029 
   40800    282.88583   -164.43546   0.25596104    -164.1795   -2063.6394    4.2187318    4.2187318    4.2187318   -2063.6394    11897.808   -13094.457   -4994.2697    6392.1386   -2062.5611    -7837.015    75.083717 
   40900     263.4034   -164.41745   0.23833293   -164.17911    134.03897    4.2170776    4.2170776    4.2170776    134.03897    523.95796   -14219.136    14097.295    1052.7533   -726.04259   -2894.5687    74.995427 
   41000    224.31815    -164.3821   0.20296778   -164.17914    6059.4582    4.2177655    4.2177655    4.2177655    6059.4582    32435.492   -8670.1967   -5586.9208    4377.4522    1645.1591   -2280.4099    75.032132 
   41100    315.40067   -164.46386   0.28538115   -164.17848   -2185.1467    4.2191576    4.2191576    4.2191576   -2185.1467    3143.3987   -13641.154    3942.3148   -309.99159   -5322.0707   -1107.7851    75.106449 
   41200    325.23302   -164.47222   0.29427767   -164.17794    4543.3803    4.2177653    4.2177653    4.2177653    4543.3803    12830.591    -7226.166    8025.7158   -202.34301    3737.5325    2500.2529     75.03212 
   41300    310.02672   -164.45855   0.28051869   -164.17803    4690.8317     4.217107     4.217107     4.217107    4690.8317    26050.346   -9770.6513   -2207.1992   -2393.4327   -3500.3062    5208.7599    74.996995 
   41400    379.81214   -164.52173   0.34366201   -164.17807    3011.2848    4.2184089    4.2184089    4.2184089    3011.2848    6542.9049   -4942.1801    7433.1297   -711.90234    -733.0682    3912.4249    75.066475 
   41500     348.0827   -164.49343   0.31495254   -164.17847    4143.1367    4.2180422    4.2180422    4.2180422    4143.1367    19822.265   -7815.2049    422.34986   -80.046818    2264.3124    2513.6361    75.046903 
   41600    321.62831   -164.46949   0.29101605   -164.17848    684.05557    4.2176971    4.2176971    4.2176971    684.05557    20119.993   -11135.474   -6932.3523   -2904.4674   -599.57754    2017.8561    75.028484 
   41700    278.96041   -164.43162   0.25240924   -164.17921    622.73705    4.2187401    4.2187401    4.2187401    622.73705    6144.0279   -1414.2946   -2861.5222    4205.7052    1867.4394   -1565.0927    75.084157 
   41800    165.40524   -164.32954   0.14966214   -164.17988    1020.5599    4.2189965    4.2189965    4.2189965    1020.5599    17122.059   -15905.661    1845.2818    978.88157    1244.3106   -1327.7321    75.097848 
   41900    202.90906    -164.3631   0.18359639    -164.1795   -1608.4266    4.2175574    4.2175574    4.2175574   -1608.4266    20469.916   -11181.683   -14113.513    5326.1943    1785.4151   -7216.2597    75.021027 
   42000    192.56782   -164.35404   0.17423941    -164.1798   -4348.6643    4.2190486    4.2190486    4.2190486   -4348.6643    2942.5858   -9175.1302   -6813.4484    2798.9636   -1864.1515    -8198.307    75.100633 
   42100    123.12478   -164.29137   0.11140589   -164.17997    3410.1376    4.2195234    4.2195234    4.2195234    3410.1376    23106.662   -21494.811    8618.5618    3947.0185    4656.1897   -3681.9015    75.125988 
   42200    272.97901   -164.42659   0.24699715   -164.17959   -4311.4578    4.2171207    4.2171207    4.2171207   -4311.4578    6405.0394   -10164.474    -9174.939     649.4296   -652.24662   -7146.2631    74.997728 
   42300    319.69761   -164.46851   0.28926912   -164.17924   -1564.8676    4.2190545    4.2190545    4.2190545   -1564.8676     8942.631   -12574.516   -1062.7176    528.99932    932.26873     -5022.19    75.100946 
   42400    307.77619   -164.45752   0.27848237   -164.17904   -1066.4092     4.220686     4.220686     4.220686   -1066.4092    16797.693   -17434.706   -2562.2138   -127.72575    4670.1906   -1153.9215    75.188103 
   42500    403.76039   -164.54304   0.36533089   -164.17771   -2756.0447    4.2160754    4.2160754    4.2160754   -2756.0447    2391.5195   -6552.9671   -4106.6866   -5867.9738   -2212.5138     273.2474    74.941969 
   42600    398.57434   -164.53825   0.36063844   -164.17761    633.02403    4.2191796    4.2191796    4.2191796    633.02403    14469.184   -9952.1008   -2618.0112    1911.9813    3022.8966    958.47829    75.107628 
   42700    464.86003   -164.59776   0.42061512   -164.17715   -6092.2199    4.2204862    4.2204862    4.2204862   -6092.2199    1316.7126   -12520.398   -7072.9739   -4537.6301    1909.7553    1455.6289    75.177425 
   42800     507.3035   -164.63611   0.45901886    -164.1771   -841.15547    4.2150038    4.2150038    4.2150038   -841.15547    1767.4531   -6124.5972    1833.6777    3119.1664   -200.50934    3056.2702    74.884842 
   42900    398.24616   -164.53947   0.36034149   -164.17913   -4385.8119    4.2197723    4.2197723    4.2197723   -4385.8119    6503.4228   -12231.377   -7429.4815   -260.44973   -267.10871    705.97639    75.139282 
   43000    361.70279   -164.50643   0.32727628   -164.17915    316.26608     4.219443     4.219443     4.219443    316.26608    4487.6271   -14504.104    10965.275    5869.8349    2313.7854   -1167.3248    75.121692 
   43100    316.21573   -164.46561   0.28611864   -164.17949   -5453.3165    4.2159168    4.2159168    4.2159168   -5453.3165   -212.40521   -13031.612   -3115.9325    5247.3159   -2064.9221   -3201.8967    74.933514 
   43200     235.1245   -164.39262   0.21274559   -164.17987   -3164.2886    4.2197874    4.2197874    4.2197874   -3164.2886    12956.827   -12963.213   -9486.4793     6963.108     871.2591   -4831.8303    75.140093 
   43300    200.84947   -164.36148   0.18173282   -164.17975   -2985.4138    4.2195791    4.2195791    4.2195791   -2985.4138    3163.1255   -16756.311    4636.9446    5866.3275    842.38158   -5088.9786    75.128965 
   43400    134.55981   -164.30163   0.12175255   -164.17987    -2007.003    4.2152927    4.2152927    4.2152927    -2007.003    10880.281   -9749.8417   -7151.4483    3748.8184   -432.11272   -7368.2299    74.900241 
   43500    161.99346   -164.32646   0.14657509   -164.17988    4507.5889    4.2194233    4.2194233    4.2194233    4507.5889    22286.383   -11509.301    2745.6847    5166.6849    2770.0766   -4929.6982    75.120644 
   43600    261.85719   -164.41647   0.23693389   -164.17953   -4296.7245    4.2192721    4.2192721    4.2192721   -4296.7245    3707.2629   -12553.343   -4044.0935    -524.0296    -1848.028   -4336.5695    75.112568 
   43700    285.87876   -164.43783   0.25866911   -164.17916    8129.3402    4.2152742    4.2152742    4.2152742    8129.3402    31343.573   -5132.4402    -1823.112      382.796   -902.94712   -3004.6606    74.899253 
   43800    343.32812   -164.48907    0.3106505   -164.17842    21.754097    4.2201705    4.2201705    4.2201705    21.754097    12194.515   -11861.291   -267.96224   -4001.5745   -796.36237    1323.3419    75.160557 
   43900    326.03868   -164.47333   0.29500665   -164.17833    5041.9515    4.2183505    4.2183505    4.2183505    5041.9515    12361.555   -4418.3784    7182.6784   -639.16098   -1310.4292    97.678903    75.063358 
   44000    322.12826   -164.46929   0.29146842   -164.17782    6978.3203    4.2161103    4.2161103    4.2161103    6978.3203    26356.423   -4904.9844    -516.4775   -2532.3284   -979.15147     1362.986    74.943832 
   44100    395.60726   -164.53523   0.35795376   -164.17728   -6482.9578    4.2209945    4.2209945    4.2209945   -6482.9578    6286.7011   -12418.288   -13317.287     315.5349    931.89773    2583.2196    75.204592 
   44200    284.31932   -164.43578   0.25725809   -164.17852     6384.797    4.2177216    4.2177216    4.2177216     6384.797    10307.576   -4793.4757    13640.291    2559.9918   -2089.0847    1082.6556    75.029792 
   44300    253.92919   -164.40859   0.22976047   -164.17883    432.88025     4.216968     4.216968     4.216968    432.88025    9091.4459   -8431.5414    638.73627    2494.5588   -2301.1266   -231.64719    74.989577 
   44400    340.89858   -164.48715    0.3084522    -164.1787   -3400.4785    4.2207617    4.2207617    4.2207617   -3400.4785    3770.6516   -12379.872   -1592.2151     8822.774    4070.6425    -898.5341    75.192149 
   44500    246.97878   -164.40255   0.22347159   -164.17908   -652.48407    4.2176455    4.2176455    4.2176455   -652.48407    6814.6617   -14061.786    5289.6719    4617.1831   -2210.4884   -3156.6961     75.02573 
   44600    215.66703   -164.37443   0.19514006   -164.17929    1266.6953    4.2178594    4.2178594    4.2178594    1266.6953    14408.827   -10115.609   -493.13201     8804.099   -1920.6191   -4849.5413    75.037146 
   44700    285.98825   -164.43751   0.25876818   -164.17874   -4190.8832    4.2198007    4.2198007    4.2198007   -4190.8832   -4615.0643   -12069.113     4111.528    3517.9594    2256.1246   -3096.9618    75.140802 
   44800    277.54775   -164.42935   0.25113103   -164.17822   -5114.9777    4.2178946    4.2178946    4.2178946   -5114.9777    8215.4165   -15748.628   -7811.7211    7874.9308     -353.045   -4491.7328    75.039021 
   44900    321.84326   -164.46937   0.29121055   -164.17816   -980.92154    4.2176525    4.2176525    4.2176525   -980.92154     6649.435   -8383.8838   -1208.3158   -871.19756   -174.92635   -2606.5051    75.026104 
   45000    337.14461   -164.48346   0.30505553   -164.17841   -4113.0195    4.2193121    4.2193121    4.2193121   -4113.0195     3954.572   -10485.822   -5807.8088     601.1711    234.67162   -504.31775    75.114702 
   45100    352.50447   -164.49753   0.31895345   -164.17858   -752.84513    4.2185251    4.2185251    4.2185251   -752.84513    11653.881   -10359.844   -3552.5722   -742.24699    -902.0857    1639.0647    75.072681 
   45200    419.35172   -164.55758   0.37943825   -164.17814   -2645.3901    4.2176193    4.2176193    4.2176193   -2645.3901     120.3569   -8187.1053    130.57824   -4208.7299   -1002.9317    4184.0272    75.024329 
   45300    400.69837   -164.54149   0.36256031   -164.17893    -4301.629    4.2183502    4.2183502    4.2183502    -4301.629    8591.3216   -10892.728    -10603.48    2440.5057    6082.8719    3431.9581    75.063343 
   45400    351.27617   -164.49652   0.31784206   -164.17868   -615.93937     4.218204     4.218204     4.218204   -615.93937    2298.6212   -6581.7095    2435.2702   -3124.8814   -2977.7627    6103.9925    75.055537 
   45500    293.32751   -164.44344    0.2654089   -164.17803   -295.02586    4.2177589    4.2177589    4.2177589   -295.02586    9892.1624   -8811.5853   -1965.6547     3167.368     145.4139    3295.9449    75.031782 
   45600    261.10753   -164.41457   0.23625558   -164.17832    1125.0262    4.2182743    4.2182743    4.2182743    1125.0262    11838.299   -11212.795    2749.5752    2708.6542    2920.1878     1375.944    75.059289 
   45700    307.48871   -164.45646   0.27822225   -164.17823   -1599.6975    4.2187254    4.2187254    4.2187254   -1599.6975    6088.3216   -8693.3952   -2194.0188    7163.7577   -2140.6815   -78.073751    75.083373 
   45800    255.26731   -164.40933   0.23097122   -164.17836    1098.1306    4.2176181    4.2176181    4.2176181    1098.1306    9025.6025   -11213.251    5482.0401    4869.6337    3300.7778   -1657.9408    75.024265 
   45900     239.7507   -164.39574   0.21693147   -164.17881    6391.2006    4.2178875    4.2178875    4.2178875    6391.2006     16125.73   -8762.5547    11810.427    7726.2892   -1758.9998    -3003.453    75.038645 
   46000    281.62385   -164.43353   0.25481917   -164.17871   -41.107678    4.2197477    4.2197477    4.2197477   -41.107678    13549.922    -11563.86   -2109.3852    6220.3878   -713.46402   -6081.8603    75.137968 
   46100    242.63189   -164.39803   0.21953844   -164.17849    5221.3042     4.217743     4.217743     4.217743    5221.3042    13875.483   -7778.5449    9566.9749    3738.4473    1432.9834    -428.2903    75.030933 
   46200    307.30483    -164.4558   0.27805587   -164.17774    985.46133    4.2182177    4.2182177    4.2182177    985.46133    15689.808   -7738.1072   -4995.3164    3643.8265    2442.4661   -2939.9886    75.056269 
   46300    321.35723   -164.46918   0.29077077   -164.17841   -3289.1401    4.2193913    4.2193913    4.2193913   -3289.1401    5301.4305   -10104.461   -5064.3898   -2085.2866   -1189.3247     1521.827    75.118933 
   46400    193.09243   -164.35428   0.17471409   -164.17957    6764.2974    4.2172762    4.2172762    4.2172762    6764.2974     26654.53   -3881.2836   -2480.3546   -497.62509    922.64474    4978.6704    75.006023 
   46500    264.11587   -164.41756   0.23897759   -164.17858   -2008.2936    4.2191739    4.2191739    4.2191739   -2008.2936    10518.856   -12441.009    -4102.728   -4374.4582     3718.154    3849.6198     75.10732 
   46600     310.7799   -164.46014   0.28120018   -164.17894    -3239.107    4.2190452    4.2190452    4.2190452    -3239.107    9366.0653   -9524.4835   -9558.9027   -1097.6377    -3334.928     7980.358    75.100448 
   46700    220.60432   -164.37944   0.19960742   -164.17983    583.03026     4.217654     4.217654     4.217654    583.03026    15898.755    -9860.189   -4289.4747   -3134.8941    7090.5768    7779.1679    75.026184 
   46800    286.24141   -164.43851   0.25899724   -164.17951   -3794.0821    4.2197693    4.2197693    4.2197693   -3794.0821   -3200.5529    -17183.16    9001.4665    2093.5325    -2592.405    6128.7047    75.139126 
   46900    279.70088   -164.43222   0.25307923   -164.17914   -2952.9414    4.2191101    4.2191101    4.2191101   -2952.9414    14422.439   -11709.132   -11572.131    4034.7792   -1147.1991    3277.9196    75.103914 
   47000    253.34921   -164.40829   0.22923569   -164.17906     638.5349    4.2177387    4.2177387    4.2177387     638.5349     9140.502   -12464.832    5239.9347    3080.0349    2515.7497    4163.2261    75.030703 
   47100      352.428   -164.49709   0.31888426    -164.1782   -4202.9798    4.2190912    4.2190912    4.2190912   -4202.9798   -2553.0627   -12766.994    2711.1169    7958.5946   -4578.2569    903.08789    75.102904 
   47200    354.07303   -164.49819   0.32037272   -164.17782   -3662.0358    4.2190998    4.2190998    4.2190998   -3662.0358    7643.3359   -11948.761   -6680.6823    3397.7922    157.23583   -3177.4864    75.103364 
   47300    354.47252   -164.49911   0.32073419   -164.17838    944.97384    4.2181595    4.2181595    4.2181595    944.97384    1750.3308   -11386.143    12470.734    5780.3477   -896.45496   -2820.0787    75.053162 
   47400    412.65656   -164.55143   0.37338033   -164.17805   -6793.6205      4.21973      4.21973      4.21973   -6793.6205   -7712.1755   -11908.945   -759.74092    468.37879   -306.18028     -1360.28    75.137026 
   47500    377.24697   -164.51906   0.34134099   -164.17772    1087.1237    4.2181849    4.2181849    4.2181849    1087.1237    16337.855   -8444.5772   -4631.9065    3783.6097   -2852.9837   -1729.1028    75.054517 
   47600    361.14032   -164.50446   0.32676735    -164.1777   -2247.7538    4.2182832    4.2182832    4.2182832   -2247.7538   -666.07032    -9076.077     2998.886   -2979.0368    4812.4494   -6.6359169    75.059767 
   47700    333.44116   -164.47938   0.30170457   -164.17767   -338.12633    4.2193473    4.2193473    4.2193473   -338.12633    608.01248   -13910.866    12288.474   -1141.6245   -2026.2717    2828.1866    75.116583 
   47800    297.11013   -164.44669   0.26883149   -164.17786   -416.66953    4.2178929    4.2178929    4.2178929   -416.66953    19259.825   -9535.7471   -10974.087   -1043.0651    1341.7367    5709.2028    75.038931 
   47900     260.2209   -164.41338   0.23545334   -164.17793   -1233.7396    4.2185086    4.2185086    4.2185086   -1233.7396    7855.2179   -8900.6965   -2655.7402   -4899.7131    5450.1324    6681.7771    75.071798 
   48000    178.09159    -164.3402   0.16114102   -164.17906     6407.574    4.2183649    4.2183649    4.2183649     6407.574    19686.963   -13607.781    13143.541   -1239.1878     -4692.69    6611.6893    75.064129 
   48100    211.53192   -164.37074   0.19139853   -164.17934   -131.46262    4.2180383    4.2180383    4.2180383   -131.46262    19704.413   -10395.673   -9703.1275    -651.8214    4550.0895    8674.6045    75.046694 
   48200    248.37437    -164.4037   0.22473435   -164.17896    4157.7844    4.2183927    4.2183927    4.2183927    4157.7844    11093.237   -8533.0695    9913.1853    2587.0079   -1788.6276    5231.7245    75.065609 
   48300    238.53847   -164.39497   0.21583462   -164.17913    1130.5597    4.2181518    4.2181518    4.2181518    1130.5597    18172.687   -12157.085    -2623.923    2108.2641    -2147.201    5008.3228    75.052748 
   48400    289.27936    -164.4405   0.26174605   -164.17875    4588.6537     4.216863     4.216863     4.216863    4588.6537    21837.471   -2846.7461   -5224.7635    6775.7466   -970.90095    3321.8037    74.983976 
   48500    304.67305   -164.45441   0.27567458   -164.17873     2884.157    4.2187405    4.2187405    4.2187405     2884.157    10673.689   -7394.5579      5373.34    1167.1919   -509.67553   -3920.2964     75.08418 
   48600    305.36975   -164.45478   0.27630497   -164.17847     2483.127    4.2187387    4.2187387    4.2187387     2483.127    17056.272   -11473.948    1867.0566    2926.0995   -2187.0175   -258.21322    75.084083 
   48700    384.26466   -164.52566   0.34769074   -164.17797   -1119.2809    4.2175857    4.2175857    4.2175857   -1119.2809    4055.7548   -3704.7386    -3708.859     1303.011   -813.61358   -3354.1411    75.022537 
   48800    293.93344   -164.44472   0.26595715   -164.17877   -2084.3333    4.2193586    4.2193586    4.2193586   -2084.3333    5998.2123   -8292.4835   -3958.7286   -3585.3719    1697.8893   -3728.9622    75.117185 
   48900    232.48452   -164.38938   0.21035688   -164.17903    4784.0758    4.2186642    4.2186642    4.2186642    4784.0758    13385.693   -10129.624    11096.158   -3898.4723   -4535.6802   -2313.6725    75.080105 
   49000    323.56381   -164.47169   0.29276733   -164.17892    -7940.551    4.2188587    4.2188587    4.2188587    -7940.551   -5053.3187   -8730.0518   -10038.283   -5913.5807    7953.7879    1188.5285    75.090489 
   49100    251.14938   -164.40658   0.22724524   -164.17934    223.46121    4.2200856    4.2200856    4.2200856    223.46121    10946.792   -12778.313    2501.9048    -3535.281    -3798.229    3719.0949    75.156021 
   49200     259.7879   -164.41434   0.23506155   -164.17928   -3327.6058     4.218652     4.218652     4.218652   -3327.6058    2104.5711    -11798.95   -288.43865    -8866.325   -4465.5352    3619.2748    75.079455 
   49300    315.82902   -164.46469   0.28576874   -164.17892   -5396.5623    4.2180583    4.2180583    4.2180583   -5396.5623    9397.5687   -11853.127   -13734.129   -184.79329    993.97947    8957.1168     75.04776 
   49400    249.20278   -164.40437   0.22548391   -164.17888    86.875697    4.2203375    4.2203375    4.2203375    86.875697    11969.168   -14236.081    2527.5399   -4798.2684   -1925.7626    6576.1278     75.16948 
   49500    304.39109   -164.45349   0.27541946   -164.17807   -3982.2844    4.2184883    4.2184883    4.2184883   -3982.2844   -490.94485   -9843.1632    -1612.745   -223.55149    545.14742    6031.1625    75.070717 
   49600    392.40323   -164.53279   0.35505469   -164.17774   -4982.2965    4.2178004    4.2178004    4.2178004   -4982.2965    2451.9947   -10289.237   -7109.6467      2679.17   -1949.3898    6681.7018    75.033995 
   49700    372.72984   -164.51519   0.33725379   -164.17794   -5934.9138    4.2195734    4.2195734    4.2195734   -5934.9138    1648.8302   -12128.252   -7325.3199    560.90057     444.7954    1993.3207    75.128661 
   49800    369.96981   -164.51272   0.33475646   -164.17796    1481.1749    4.2172614    4.2172614    4.2172614    1481.1749    1379.2885   -4797.2379    7861.4741    4148.3176   -243.62345   -683.58935    75.005233 
   49900    362.87433   -164.50646   0.32833632   -164.17812   -1529.1956     4.217553     4.217553     4.217553   -1529.1956    4169.2985   -3489.1773    -5267.708    133.19869    7982.2539   -2641.7043    75.020791 
   50000    377.47188   -164.51936   0.34154449   -164.17782   -771.55193    4.2191912    4.2191912    4.2191912   -771.55193     7169.264   -7617.9234   -1865.9964    2094.9462   -2983.6311   -3593.8906    75.108245 
   50100    350.09404   -164.49471   0.31677244   -164.17794    663.60254    4.2171954    4.2171954    4.2171954    663.60254    3313.1163   -6868.5823    5546.2736    -5622.636    564.15858   -4461.0553    75.001711 
   50200    238.32743   -164.39493   0.21564366   -164.17929    3336.7559    4.2164715    4.2164715    4.2164715    3336.7559    17313.495   -3122.3079   -4180.9194   -2431.7317    2570.5668     -3881.48    74.963096 
   50300    210.08055   -164.36954   0.19008529   -164.17946    4940.6131    4.2191802    4.2191802    4.2191802    4940.6131    8858.9088   -7373.8948    13336.825   -7821.3918   -1801.7811   -364.14352    75.107657 
   50400    212.97354   -164.37199   0.19270294   -164.17929    1770.4755    4.2178267    4.2178267    4.2178267    1770.4755    15407.385   -9824.8391   -271.11977    -6389.825    2091.4537    192.22158    75.035401 
   50500    214.60466   -164.37312   0.19417881   -164.17895    5714.5549    4.2163166    4.2163166    4.2163166    5714.5549    23525.975   -3801.4822   -2580.8281   -3182.3752   -4414.1415     2754.027    74.954832 
   50600    268.33433   -164.42143   0.24279454   -164.17863    122.06729    4.2192703    4.2192703    4.2192703    122.06729    5352.6685   -8695.5255    3709.0588   -5336.6618    655.64682    6142.6681    75.112471 
   50700      227.917   -164.38482   0.20622409    -164.1786    5906.6171     4.218096     4.218096     4.218096    5906.6171     29215.94   -9128.0574   -2368.0317   -7.7926246    2601.1305    5366.9123    75.049775 
   50800    294.37154    -164.4443   0.26635355   -164.17795    4757.6518    4.2166849    4.2166849    4.2166849    4757.6518    22755.788   -3175.5344    -5307.298    737.44154    2310.4673    5386.7898    74.974475 
   50900    384.22826   -164.52526    0.3476578    -164.1776   -5465.6614    4.2197785    4.2197785    4.2197785   -5465.6614    2490.3013    -7354.166   -11533.119    2302.9106   -3084.6904    3872.4489    75.139614 
   51000    289.39638   -164.43989   0.26185193   -164.17803    3065.8641    4.2187276    4.2187276    4.2187276    3065.8641    11494.758   -8152.3779    5855.2121    -156.9286    2604.7502    2966.4804    75.083489 
   51100    299.25969   -164.44838   0.27077646    -164.1776   -651.47632    4.2167947    4.2167947    4.2167947   -651.47632    7188.2624   -2646.8251   -6495.8663    4389.3816    5708.0767   -1842.9186    74.980332 
   51200    350.03639   -164.49471   0.31672028   -164.17799   -6336.2732    4.2198008    4.2198008    4.2198008   -6336.2732   -3605.9718   -5280.0984   -10122.749   -725.03438   -3717.3847   -2182.2715    75.140805 
   51300    276.23598   -164.42888   0.24994412   -164.17894   -174.69742    4.2189604    4.2189604    4.2189604   -174.69742    9884.0072   -12229.819    1821.7194   -2653.9579    1878.4385   -5037.3107     75.09592 
   51400    303.67748   -164.45335   0.27477376   -164.17858   -5961.8253    4.2173399    4.2173399    4.2173399   -5961.8253    -4195.388   -6263.7155   -7426.3723   -577.40907   -3987.0401   -6029.1685    75.009424 
   51500      317.608    -164.4658    0.2873784   -164.17842   -2699.9915    4.2198699    4.2198699    4.2198699   -2699.9915   -5910.9884   -8530.8865    6341.9003   -8151.2782    172.86912   -3994.7011      75.1445 
   51600    291.46815   -164.44224   0.26372651   -164.17851   -5841.7719     4.218993     4.218993     4.218993   -5841.7719    8212.0352   -17997.981   -7739.3698   -4226.4986   -898.06213   -3561.4522    75.097663 
   51700    346.85333   -164.49191   0.31384019   -164.17807   -5383.6703    4.2169632    4.2169632    4.2169632   -5383.6703   -8412.5717   -8960.0121    1221.5729   -8556.4834    -3461.154   -1269.6097    74.989322 
   51800    297.07986   -164.44733    0.2688041   -164.17853   -2909.3222    4.2204095    4.2204095    4.2204095   -2909.3222   -1603.1913   -12726.672    5601.8962   -2825.6011   -869.74942     1532.545    75.173327 
   51900    325.85187   -164.47307   0.29483762   -164.17824   -5136.4712    4.2180724    4.2180724    4.2180724   -5136.4712   -1850.8558   -12222.248   -1336.3093   -8255.0827     600.5106    3363.8112    75.048514 
   52000    420.66668   -164.55868   0.38062806   -164.17806   -1425.8321    4.2165706    4.2165706    4.2165706   -1425.8321   -3148.5261   -7407.3998    6278.4297    1241.6056    1960.9288    2983.5536    74.968382 
   52100     355.4731   -164.50001   0.32163953   -164.17837   -4338.8285    4.2205955    4.2205955    4.2205955   -4338.8285    10431.621   -13441.376   -10006.731   -1309.9657   -629.92905    3500.2103    75.183265 
   52200    348.24281   -164.49306   0.31509741   -164.17797     4230.957    4.2177762    4.2177762    4.2177762     4230.957    8903.1896    -4422.266    8211.9474   -323.23043    3965.8305    3172.0719    75.032706 
   52300    370.79036   -164.51386   0.33549891   -164.17836   -520.50563    4.2172084    4.2172084    4.2172084   -520.50563    10861.199   -5566.2001    -6856.516    4000.3961   -2834.7018   -1138.4683    75.002407 
   52400    295.49096   -164.44609   0.26736643   -164.17872    612.34406    4.2200455    4.2200455    4.2200455    612.34406    21305.633   -11359.735   -8108.8656   -542.99954    4098.3775   -1509.2084     75.15388 
   52500    260.50154   -164.41398   0.23570727   -164.17827    5489.7615    4.2176358    4.2176358    4.2176358    5489.7615    11771.635    -3689.892     8387.542     1152.139    795.68114   -3951.7894    75.025213 
   52600    178.12574   -164.34023   0.16117192   -164.17906    756.53432    4.2172797    4.2172797    4.2172797    756.53432    16655.017   -3921.7502   -10463.664   -1754.8285   -6968.0369    -5749.195     75.00621 
   52700    144.10083   -164.30974   0.13038546   -164.17935    8304.1383     4.219646     4.219646     4.219646    8304.1383     27636.27   -7460.0958    4736.2404   -112.83646      1493.33   -6602.3433    75.132539 
   52800    222.32489   -164.38004   0.20116423   -164.17888   -2404.6744    4.2181778    4.2181778    4.2181778   -2404.6744    7560.8052   -11726.437   -3048.3914   -6759.7963   -3884.3767   -6404.1952    75.054138 
   52900    172.37181   -164.33549   0.15596564   -164.17952    5746.6087    4.2166027    4.2166027    4.2166027    5746.6087    22248.979   -7387.6495    2378.4966   -2177.4171    -1570.388   -3979.7698    74.970093 
   53000    232.61492      -164.39   0.21047487   -164.17953    4050.8145    4.2198081    4.2198081    4.2198081    4050.8145    14345.854   -8104.8765    5911.4658   -4833.3429   -3388.9851   -3818.6302    75.141195 
   53100    332.11207   -164.47859   0.30050198   -164.17808   -5549.2414    4.2185228    4.2185228    4.2185228   -5549.2414    3553.8834    -15095.18   -5106.4279   -5562.2267    -939.8207   -1295.0521    75.072557 
   53200    298.45853   -164.44764   0.27005155   -164.17759    7117.4832    4.2165857    4.2165857    4.2165857    7117.4832    17066.457   -5658.9351    9944.9275   -754.66841    301.45297     803.6106    74.969185 
   53300    369.11784   -164.51149   0.33398557    -164.1775   -3760.5532    4.2195743    4.2195743    4.2195743   -3760.5532   -3957.1997   -6267.3428   -1057.1171   -2148.1154    2384.0479    2550.2051    75.128705 
   53400    419.31483   -164.55733   0.37940487   -164.17792   -1768.6299    4.2180098    4.2180098    4.2180098   -1768.6299   -1774.3349    -8281.365    4749.8101      2120.42    1599.2674     1795.682    75.045172 
   53500    381.23544   -164.52331   0.34494983   -164.17836    216.30178    4.2178529    4.2178529    4.2178529    216.30178    10584.681   -5987.5991   -3948.1764    230.48015   -3593.0196    1401.9045    75.036798 
   53600    405.06374   -164.54481   0.36651019    -164.1783   -6876.8449     4.219971     4.219971     4.219971   -6876.8449    -6805.829   -9406.5706    -4418.135    5137.1925    5867.7829    1079.3936    75.149897 
   53700    351.02841   -164.49635   0.31761788   -164.17873    608.88871    4.2181028    4.2181028    4.2181028    608.88871    4701.8063   -7713.4764    4838.3362   -1689.9088   -4041.3428   -2828.0658    75.050135 
   53800    313.02562   -164.46257   0.28323216   -164.17933   -5226.0134     4.218561     4.218561     4.218561   -5226.0134    12131.206    -13237.96   -14571.286    3152.8111    4945.3656   -2764.2754    75.074597 
   53900    317.28302   -164.46684   0.28708435   -164.17975   -6884.5532    4.2197345    4.2197345    4.2197345   -6884.5532   -9011.4508   -11617.897   -24.312373   -1873.2064   -2140.3106   -7256.0748    75.137264 
   54000    181.21387   -164.34456   0.16396612   -164.18059   -1752.5897    4.2188113    4.2188113    4.2188113   -1752.5897    15250.242   -13004.324   -7503.6878   -3062.7862   -1940.7364   -8638.6433    75.087958 
   54100    197.21546   -164.35851   0.17844469   -164.18006   -4634.7215    4.2177432    4.2177432    4.2177432   -4634.7215    5360.5973   -15328.564   -3936.1981   -3528.1065    3805.0818   -7128.1768    75.030942 
   54200    269.09273   -164.42269   0.24348075   -164.17921    -4894.433    4.2195958    4.2195958    4.2195958    -4894.433   -5941.8334   -8365.0542   -376.41149   -3451.6378   -1219.0611   -8409.6797    75.129858 
   54300    234.65102   -164.39135   0.21231717   -164.17904   -2295.0911    4.2190697    4.2190697    4.2190697   -2295.0911    22040.334    -16562.72   -12362.887   -3446.5159   -118.32292   -8448.1081     75.10176 
   54400    348.95943   -164.49404   0.31574583   -164.17829   -1742.5377    4.2171875    4.2171875    4.2171875   -1742.5377    3704.8569   -13728.621    4796.1507   -5182.7262    -1397.303   -2650.9031    75.001289 
   54500    371.37084   -164.51423   0.33602414   -164.17821   -1671.8753    4.2199276    4.2199276    4.2199276   -1671.8753    7470.6405   -7247.4666   -5238.7997    1626.8429     1645.875   -546.42158    75.147579 
   54600    388.11516   -164.52902   0.35117475   -164.17784    777.29145    4.2180662    4.2180662    4.2180662    777.29145    18254.625   -11201.521   -4721.2295   -3707.7831   -4245.0181   -2109.5198    75.048181 
   54700     453.8802   -164.58836   0.41068035   -164.17768    2503.1943    4.2159536    4.2159536    4.2159536    2503.1943    8794.1135    -2692.213    1407.6822    4467.2634    1435.9947    3345.8227    74.935474 
   54800    346.77584   -164.49185   0.31377007   -164.17808    1369.3425    4.2192275    4.2192275    4.2192275    1369.3425    11214.823   -6480.8133   -625.98191    948.78349   -4554.3136    4375.1362    75.110184 
   54900    310.99714   -164.45941   0.28139675   -164.17801     7465.048    4.2179292    4.2179292    4.2179292     7465.048    20493.618   -3130.0813    5031.6071    1265.9042    -2556.468    2190.9664     75.04087 
   55000    348.32642   -164.49322   0.31517306   -164.17804     712.8801    4.2166337    4.2166337    4.2166337     712.8801    8152.5451    203.98449   -6217.8893    168.41016     748.3069    73.383399    74.971745 
   55100    229.71366   -164.38698   0.20784975   -164.17914    3219.7102    4.2193197    4.2193197    4.2193197    3219.7102    17713.422   -10530.566    2476.2751    1624.8255   -4446.2043   -889.84513     75.11511 
   55200    200.18813    -164.3602   0.18113443   -164.17907    7020.9102     4.218572     4.218572     4.218572    7020.9102    20921.413   -4353.4842    4494.8018   -2890.6394   -765.88521   -2900.0336    75.075185 
   55300    210.40266   -164.36967   0.19037675   -164.17929   -1397.7854    4.2168276    4.2168276    4.2168276   -1397.7854    9152.4186   -8315.9265   -5029.8482   -5321.7092    120.64145   -6866.2995    74.982089 
   55400    169.26517    -164.3325   0.15315468   -164.17935    3154.8239    4.2199377    4.2199377    4.2199377    3154.8239    22151.015    -6677.749   -6008.7944    -266.2736    1042.8598   -7093.3349    75.148119 
   55500    209.37762    -164.3685   0.18944927   -164.17905   -5194.9342    4.2192788    4.2192788    4.2192788   -5194.9342    1799.6119   -11524.687   -5859.7275    -7314.406   -1049.9697   -9318.8998    75.112925 
   55600    171.57347   -164.33454   0.15524328    -164.1793    2015.6022    4.2165247    4.2165247    4.2165247    2015.6022    14780.558   -8747.3647    13.612856    807.98697    399.91962   -6176.1509    74.965935 
   55700    215.89984   -164.37444   0.19535072   -164.17909    124.90244    4.2209985    4.2209985    4.2209985    124.90244    12576.391   -394.97972   -11806.704    -1197.421   -1422.3449   -4701.7096    75.204807 
   55800    353.49514   -164.49747   0.31984983   -164.17762   -8349.1317    4.2192132    4.2192132    4.2192132   -8349.1317   -1522.3198   -14853.729   -8671.3462   -1356.2638    1374.9292    -5718.619    75.109419 
   55900    333.65951   -164.47922   0.30190214   -164.17732      3404.73     4.217052     4.217052     4.217052      3404.73    16068.192   -7531.5626    1677.5608    2281.0032    2949.6796   -621.13644     74.99406 
   56000    359.58698   -164.50266   0.32536186    -164.1773   -2134.2077    4.2208952    4.2208952    4.2208952   -2134.2077    5126.2978   -2245.5322   -9283.3886    1850.5527    -4748.173    2035.9003    75.199285 
   56100    445.18763   -164.58002   0.40281512   -164.17721   -3091.2662    4.2183928    4.2183928    4.2183928   -3091.2662    2434.4056   -9523.2136   -2184.9906    2184.8577    731.75238    3360.1461    75.065618 
   56200    413.98033   -164.55218   0.37457811    -164.1776   -2153.3273    4.2176253    4.2176253    4.2176253   -2153.3273    5875.1503   -7552.0648   -4783.0674   -3080.1368    -1442.365    2664.7365    75.024648 
   56300    372.41204   -164.51485   0.33696624   -164.17789   -4306.4629    4.2203604    4.2203604    4.2203604   -4306.4629   -1629.3002   -7818.3122   -3471.7762    4368.5124   -2370.1118    3184.8338    75.170703 
   56400    319.18719   -164.46684   0.28880727   -164.17803    -1354.618    4.2174108    4.2174108    4.2174108    -1354.618   -6314.0958   -5176.1316    7426.3735   -5671.3191   -2542.1148    4216.4389    75.013207 
   56500    311.84537   -164.46034   0.28216424   -164.17817   -4684.3921    4.2176293    4.2176293    4.2176293   -4684.3921    889.47889   -11545.546   -3397.1093   -947.00355   -1482.5905   -1869.5672    75.024864 
   56600    340.51516    -164.4862   0.30810527    -164.1781   -6015.3253    4.2196447    4.2196447    4.2196447   -6015.3253   -4517.7784   -7352.2033   -6175.9942   -4201.1433   -2196.9854   -4032.6227     75.13247 
   56700    242.18291   -164.39781   0.21913219   -164.17868   -293.44294    4.2175701    4.2175701    4.2175701   -293.44294    3949.9834   -5722.0683    891.75614   -4023.6459    627.61837    -4746.989    75.021704 
   56800    229.12906   -164.38627   0.20732079   -164.17895    2640.8428    4.2171924    4.2171924    4.2171924    2640.8428    18575.663   -12936.615    2283.4804   -1987.3763    3183.2487   -6663.4855    75.001551 
   56900    305.51731   -164.45517   0.27643848   -164.17873   -2443.2911    4.2189215    4.2189215    4.2189215   -2443.2911    4602.5479   -1053.7553   -10878.666   -1407.3843   -697.80066   -7835.7312    75.093844 
   57000    244.40818   -164.40047   0.22114566   -164.17932    5375.9705    4.2167486    4.2167486    4.2167486    5375.9705    25828.769   -4382.2316   -5318.6261    132.64531    5932.1353    -7655.623    74.977875 
   57100     247.6101    -164.4028   0.22404282   -164.17875    3391.4652    4.2176597    4.2176597    4.2176597    3391.4652    19701.926   -9913.9335     386.4028   -1386.6896    2870.4253   -2277.5715    75.026488 
   57200    288.77074   -164.43943   0.26128584   -164.17814    3569.7467    4.2188689    4.2188689    4.2188689    3569.7467    15636.369    639.89109   -5567.0201    4737.1538    1553.6772   -2851.6556    75.091036 
   57300    260.41827   -164.41383   0.23563193    -164.1782    6508.9613    4.2169037    4.2169037    4.2169037    6508.9613    23901.633    -3966.609      -408.14   -536.88986    1009.1837    1443.1199    74.986149 
   57400    335.54739   -164.48118   0.30361033   -164.17756     2395.752    4.2180341    4.2180341    4.2180341     2395.752    18023.366   -7521.9627   -3314.1475    1586.9216    67.617634    3488.7492    75.046468 
   57500    324.31055   -164.47137     0.293443   -164.17792    1829.9886    4.2187039    4.2187039    4.2187039    1829.9886    12758.472   -5226.2262   -2042.2798   -2755.8696   -756.88259    2047.2938    75.082226 
   57600    259.93214   -164.41342   0.23519206   -164.17823    4388.2273    4.2179699    4.2179699    4.2179699    4388.2273    15418.195   -2490.6816    237.16825   -3851.9585   -1601.3063     6451.565    75.043042 
   57700    317.51616   -164.46457    0.2872953   -164.17728   -785.49645    4.2181955    4.2181955    4.2181955   -785.49645    4526.9665   -8586.7845    1703.3286   -2119.2493    108.59057     2309.076    75.055086 
   57800    293.19512   -164.44288   0.26528911   -164.17759   -4421.9979    4.2188841    4.2188841    4.2188841   -4421.9979   -4363.0155   -7670.5044   -1232.4739   -6223.7936   -3342.1972   -48.863802    75.091845 
   57900     215.3381    -164.3733   0.19484244   -164.17846     2405.565    4.2187347    4.2187347    4.2187347     2405.565    13382.062   -5312.1619   -853.20543    -4478.305    3891.0317   -588.14281    75.083869 
   58000    284.58079   -164.43545   0.25749468   -164.17796   -5843.2851    4.2183742    4.2183742    4.2183742   -5843.2851    -9112.768   -11425.849    3008.7615   -8271.0177    597.05586   -2748.3509    75.064625 
   58100    323.94064   -164.47096    0.2931083   -164.17785   -4990.8268    4.2188116    4.2188116    4.2188116   -4990.8268   -1925.0849   -2919.1749   -10128.221    1648.2089   -691.53069   -5084.5353    75.087973 
   58200    329.83332    -164.4765   0.29844012   -164.17806   -4423.0493    4.2189738    4.2189738    4.2189738   -4423.0493    7926.6105   -11546.425   -9649.3334   -4052.0707    2909.8897   -7664.3231    75.096634 
   58300    337.21637   -164.48354   0.30512046   -164.17842   -3299.1369     4.218107     4.218107     4.218107   -3299.1369   -1871.2506   -8282.8857    256.72571    2055.6051   -45.315034   -2239.4972    75.050361 
   58400    355.29795   -164.50013   0.32148105   -164.17864   -2532.3635    4.2188673    4.2188673    4.2188673   -2532.3635    10008.898   -5016.6224   -12589.366    2320.6909    1476.9611   -5011.6932    75.090947 
   58500    398.28289   -164.53859   0.36037473   -164.17821   -7906.5344    4.2191673    4.2191673    4.2191673   -7906.5344   -2752.4389   -8328.6975   -12638.467    518.24113   -2462.7074   -2819.7184     75.10697 
   58600    357.59383   -164.50225   0.32355842   -164.17869   -532.04135    4.2178609    4.2178609    4.2178609   -532.04135    1691.9855   -4283.3567    995.24713    5246.7187     732.7265    2879.8546    75.037226 
   58700    322.77454   -164.47035   0.29205318   -164.17829   -5279.7906    4.2184088    4.2184088    4.2184088   -5279.7906   -1547.0927   -12873.438   -1418.8414   -4403.8523   -2729.4601   -1641.0321     75.06647 
   58800     331.4023   -164.47745   0.29985976   -164.17759   -1480.6536     4.219004     4.219004     4.219004   -1480.6536    3828.2178   -2092.4072   -6177.7714   -1591.1534    3218.3488    3677.0812    75.098251 
   58900    271.09288   -164.42347   0.24529053   -164.17818   -526.44793    4.2181131    4.2181131    4.2181131   -526.44793    2077.7738   -4733.7188    1076.6012   -6218.8079    735.65733    3556.1016    75.050686 
   59000    270.06966   -164.42265   0.24436471   -164.17829    -518.0481    4.2181171    4.2181171    4.2181171    -518.0481    7361.2034   -8834.8395   -80.508182   -4382.1865   -315.53877    2118.6085      75.0509 
   59100    298.69286   -164.44807   0.27026358    -164.1778   -934.79122    4.2192806    4.2192806    4.2192806   -934.79122    6317.2861   -2714.1616   -6407.4981   -7865.8586    5481.4883   -245.66569    75.113021 
   59200    194.75166   -164.35501    0.1762154   -164.17879    3880.7116    4.2176162    4.2176162    4.2176162    3880.7116    12789.253    -7802.065    6654.9463   -6798.2713    -1727.402    283.90224    75.024167 
   59300    217.54054   -164.37555   0.19683526   -164.17871    6734.8909    4.2187128    4.2187128    4.2187128    6734.8909    21245.532    1329.5694   -2370.4285   -2392.5496   -1627.6965   -232.27733    75.082698 
   59400    311.63902   -164.45947   0.28197754   -164.17749   -3061.0302    4.2190081    4.2190081    4.2190081   -3061.0302    6761.9284   -7934.4023   -8010.6167   -4207.5341    1406.5658   -5788.4905    75.098465 
   59500     244.7745   -164.39934   0.22147711   -164.17786    7613.2206    4.2174237    4.2174237    4.2174237    7613.2206     18868.97   -5088.2863    9058.9783    2783.2572   -1462.0735    -1461.805     75.01389 
   59600     296.9572   -164.44649   0.26869311    -164.1778    3236.6814    4.2187807    4.2187807    4.2187807    3236.6814    8499.4936    2012.6459   -802.09537   -71.762744   -3062.7057   -3189.2318    75.086324 
   59700    370.02505    -164.5126   0.33480644   -164.17779   -1026.9046    4.2182907    4.2182907    4.2182907   -1026.9046    14298.507   -9492.1152   -7887.1058    3367.9047   -613.37858    -4511.397    75.060163 
   59800     320.3166   -164.46797   0.28982919   -164.17814    2686.1321    4.2180256    4.2180256    4.2180256    2686.1321    15593.526   -4066.1591   -3468.9707    4129.4924   -1148.6792    255.91955    75.046016 
   59900    311.65002   -164.46004   0.28198749   -164.17805    58.538172    4.2185966    4.2185966    4.2185966    58.538172    1237.5772   -6246.6501    5184.6874     1897.647    -853.0032    -1041.138    75.076496 
   60000    346.53131   -164.49188   0.31354881   -164.17833   -3639.8267    4.2177435    4.2177435    4.2177435   -3639.8267   -2149.2323   -5128.6593   -3641.5887    93.187843    5474.8514    1443.5673    75.030961 
   60100    344.84263   -164.49028   0.31202086   -164.17826   -6874.8519    4.2183584    4.2183584    4.2183584   -6874.8519   -7797.0059   -10371.292    -2456.258   -4820.9971   -1501.8375    1224.0268     75.06378 
   60200    282.54169   -164.43419   0.25564966   -164.17854   -2268.0128    4.2184812    4.2184812    4.2184812   -2268.0128   -4030.7271   -10264.676    7491.3647   -3856.1996    1489.9521    2771.8277    75.070335 
   60300    263.46777   -164.41701   0.23839118   -164.17862   -2874.4456    4.2185435    4.2185435    4.2185435   -2874.4456   -4827.6329   -1369.5133   -2426.1906   -9135.7336    3952.3848    1427.4753    75.073663 
   60400    324.81384   -164.47219   0.29389839   -164.17829   -3934.9838    4.2182236    4.2182236    4.2182236   -3934.9838   -5420.7767   -12912.955    6528.7805   -4530.2507   -869.80805   -7.6078407    75.056585 
   60500    331.47656   -164.47823   0.29992696    -164.1783   -4645.7216    4.2185014    4.2185014    4.2185014   -4645.7216    -6470.961   -7061.8178   -404.38602   -9161.1951    1675.6639    1819.6915    75.071416 
   60600    290.82611   -164.44191   0.26314557   -164.17876    2097.2114     4.219056     4.219056     4.219056    2097.2114    9793.2385   -1234.4095   -2267.1948   -2193.1554    226.23529   -2309.5808    75.101025 
   60700    317.02585   -164.46436   0.28685165   -164.17751   -3374.7534    4.2197717    4.2197717    4.2197717   -3374.7534    1506.3944   -11772.194    141.53912   -1135.9835    -1076.578   -1789.6234    75.139253 
   60800    314.30942   -164.46177   0.28439376   -164.17738    1212.7048    4.2183345    4.2183345    4.2183345    1212.7048    6372.3672   -2274.4194    -459.8334   -208.10708    540.30031   -2246.1876    75.062503 
   60900    340.11098   -164.48505   0.30773956   -164.17731     682.8383    4.2186495    4.2186495    4.2186495     682.8383    9413.9736   -6960.3294   -405.12927    1798.6218    2712.8158   -781.96212    75.079318 
   61000    370.54614   -164.51236   0.33527794   -164.17708   -5905.2867    4.2197316    4.2197316    4.2197316   -5905.2867   -49.276838   -9695.3568   -7971.2265    2361.2363   -2574.2215     -638.549    75.137112 
   61100    238.59295   -164.39444   0.21588392   -164.17856    6760.4137    4.2179653    4.2179653    4.2179653    6760.4137     24744.57   -3084.6204   -1378.7084    3742.7988    579.85548   -1538.5595    75.042795 
   61200    233.41852    -164.3896   0.21120198    -164.1784    1305.0637    4.2187355    4.2187355    4.2187355    1305.0637    15566.545   -6373.2057   -5278.1482   -451.30479    5123.4258    4242.9244    75.083913 
   61300    296.22492   -164.44643   0.26803053    -164.1784    -908.0063    4.2198386    4.2198386    4.2198386    -908.0063    14931.529    -9388.262   -8267.2863    2022.4574   -3380.7802    921.34814    75.142827 
   61400    216.15259   -164.37478    0.1955794    -164.1792    2317.5165    4.2165009    4.2165009    4.2165009    2317.5165    13577.595    -8479.687    1854.6418    -7235.287    1433.7505    2766.8542    74.964661 
   61500    181.54875   -164.34365   0.16426912   -164.17939    3365.3136    4.2191571    4.2191571    4.2191571    3365.3136    11690.254   -697.32474   -896.98813   -4673.8323    709.45762    3314.6985    75.106422 
   61600    224.38806   -164.38129   0.20303103   -164.17826    1702.3744       4.2189       4.2189       4.2189    1702.3744    8376.6792   -7395.3821    4125.8262   -4532.2071    -3038.697    2330.8645    75.092697 
   61700    250.46033   -164.40463   0.22662177   -164.17801   -3123.3077    4.2160193    4.2160193    4.2160193   -3123.3077    1228.8338   -10328.564   -270.19332   -11931.835    571.96616    481.82586    74.938981 
   61800    267.03288    -164.4197   0.24161696   -164.17808    2646.8264    4.2187239    4.2187239    4.2187239    2646.8264    3882.8674    2203.0268    1854.5849   -5397.9146   -1805.8449    822.47312    75.083291 
   61900    332.65245   -164.47884   0.30099093   -164.17784   -3591.9596    4.2186555    4.2186555    4.2186555   -3591.9596   -4662.4554   -8957.2183     2843.795   -5581.5871   -2298.8339    365.12711     75.07964 
   62000    421.93196   -164.56022   0.38177291   -164.17845   -2767.6852    4.2160882    4.2160882    4.2160882   -2767.6852    4447.8445   -6838.2591   -5912.6411    443.18243   -586.38039   -3648.2116    74.942651 
   62100    397.55315   -164.53827   0.35971445   -164.17855   -2225.4845    4.2195087    4.2195087    4.2195087   -2225.4845   -3459.8973   -900.93686   -2315.6194   -1950.7441    2105.4712    546.11884    75.125204 
   62200    378.35262   -164.52019    0.3423414   -164.17785   -219.64777    4.2185577    4.2185577    4.2185577   -219.64777    8594.9537   -7596.5315   -1657.3655    4059.7915   -2562.9401    405.73895    75.074417 
   62300    451.61142   -164.58602    0.4086275   -164.17739   -2301.3893    4.2163929    4.2163929    4.2163929   -2301.3893     153.0219   -6284.7792    -772.4106    1693.1431    3218.4101   -665.06004    74.958903 
   62400    398.48533   -164.53879    0.3605579   -164.17823   -5805.6209     4.220333     4.220333     4.220333   -5805.6209     488.5801   -9928.2263   -7977.2166     4335.466    2196.7976    2692.5492    75.169242 
   62500    269.35112   -164.42203   0.24371455   -164.17831    5749.6325    4.2183798    4.2183798    4.2183798    5749.6325    13534.601   -643.34904     4357.646    4480.4633   -473.80863    3969.3135    75.064919 
   62600    276.27751   -164.42786    0.2499817   -164.17788   -1795.7948     4.216971     4.216971     4.216971   -1795.7948    2453.4449   -3575.7159   -4265.1133   -3642.2475    5435.6883    3552.7714    74.989738 
   62700    208.91496   -164.36806   0.18903064   -164.17903    594.15412    4.2203355    4.2203355    4.2203355    594.15412    21804.044   -11272.308   -8749.2743   -587.99313    -2156.737    1899.8786    75.169375 
   62800    159.65959   -164.32432   0.14446336   -164.17985    2412.8892    4.2183399    4.2183399    4.2183399    2412.8892    407.96952   -2204.3157    9035.0139    -3195.529   -883.38467    4951.9117    75.062792 
   62900    173.32341   -164.33666   0.15682666   -164.17984   -1549.3288    4.2167686    4.2167686    4.2167686   -1549.3288    4869.7654   -1449.0374   -8068.7145   -5665.2721    262.84154    2697.5976    74.978942 
   63000    205.80041   -164.36604   0.18621254   -164.17982    282.46147    4.2201399    4.2201399    4.2201399    282.46147     5634.808   -4211.1934   -576.23017   -7449.5358   -2187.8911    78.253501    75.158921 
   63100    224.25257   -164.38293   0.20290844   -164.18002   -498.88112    4.2182742    4.2182742    4.2182742   -498.88112   -743.91089   -6424.7003    5671.9678   -4883.7237   -1744.3178    577.16729    75.059287 
   63200    237.51498   -164.39404   0.21490854   -164.17913    5020.0474    4.2161156    4.2161156    4.2161156    5020.0474    14430.336    83.503324     546.3026   -2330.5018    -3980.652   -214.59769    74.944113 
   63300    340.52856   -164.48603    0.3081174   -164.17791   -472.99536    4.2202062    4.2202062    4.2202062   -472.99536   -807.43641    -469.0325   -142.51718    -375.0989   -1558.5838   -2410.0686    75.162467 
   63400    405.98439   -164.54403   0.36734321   -164.17669    -2086.583    4.2186126    4.2186126    4.2186126    -2086.583    2637.5757   -8843.8311   -53.493607    1873.3159   -1129.8018   -905.65236    75.077351 
   63500     379.1576   -164.51969   0.34306976   -164.17662    5264.2956    4.2165839    4.2165839    4.2165839    5264.2956     11842.22    2014.7688    1935.8979    -2252.186     3176.492     1338.099    74.969088 
   63600    402.04598   -164.54069   0.36377965   -164.17691    -2130.438    4.2205055    4.2205055    4.2205055    -2130.438    8248.0813   -3696.4007   -10942.995    4976.2601   -3303.1865   -530.93281    75.178459 
   63700    369.14521   -164.51274   0.33401034   -164.17873     911.7147    4.2182148    4.2182148    4.2182148     911.7147   -160.18609   -7050.0437    9945.3739     3161.775    1338.9079    1349.2415    75.056112 
   63800    311.42984   -164.46173   0.28178826   -164.17994    1355.5885    4.2174269    4.2174269    4.2174269    1355.5885    10481.539   -1641.3708   -4773.4023    491.33591    1449.9704     5333.084    75.014062 
   63900    346.48755   -164.49274   0.31350922   -164.17923    -8441.839     4.219911     4.219911     4.219911    -8441.839   -7185.6135   -5160.1402   -12979.763    -3503.403   -2567.4486    3990.8535    75.146691 
   64000    239.27475   -164.39556   0.21650082   -164.17906   -2265.6969    4.2185633    4.2185633    4.2185633   -2265.6969    -3677.099   -7869.9176     4749.926    463.84524   -105.99335    3301.0734    75.074719 
   64100    156.84701    -164.3211   0.14191847   -164.17918   -611.42919    4.2175176    4.2175176    4.2175176   -611.42919    13323.243   -4023.1433   -11134.387   -3784.6449   -2333.3691    5745.9728    75.018904 
   64200    233.12802   -164.38991   0.21093913   -164.17898   -3662.9965    4.2194826    4.2194826    4.2194826   -3662.9965   -12962.608    2451.9446   -478.32635    -4270.853   -1930.5775    3104.4725    75.123811 
   64300     270.9975   -164.42408   0.24520424   -164.17888   -4239.8625    4.2187555    4.2187555    4.2187555   -4239.8625    6152.6197   -9695.0202   -9177.1871   -2316.9923   -751.21324     366.9372    75.084982 
   64400    303.69545   -164.45406   0.27479002   -164.17927   -1738.8094    4.2170313    4.2170313    4.2170313   -1738.8094    3471.7629   -3855.2563   -4832.9348   -7971.8597    -1447.825    655.46332    74.992955 
   64500    288.60779   -164.44082    0.2611384   -164.17968    5605.1131     4.218425     4.218425     4.218425    5605.1131    4538.2121    5643.1253    6634.0019    3582.6003   -4143.1887   -499.13618    75.067335 
   64600    319.03093   -164.46756   0.28866589    -164.1789    2310.5596    4.2189052    4.2189052    4.2189052    2310.5596    20141.686   -7399.7335   -5810.2739    295.86895   -521.89628   -4246.8306    75.092972 
   64700    423.00162   -164.56064   0.38274075    -164.1779    3790.6908    4.2164949    4.2164949    4.2164949    3790.6908    12459.152   -3664.0324    2576.9524     8.849805    1570.2584    -2067.316    74.964343 
   64800    374.38359   -164.51693   0.33875014   -164.17818    1716.4574    4.2193763    4.2193763    4.2193763    1716.4574    13242.056   -831.83583    -7260.848    216.51161    324.14158   -906.11986    75.118132 
   64900     312.6075   -164.46081   0.28285384   -164.17795    5467.1098    4.2192291    4.2192291    4.2192291    5467.1098    13064.237    2425.5593    911.53347    3962.6711    2416.1808   -1837.9631    75.110273 
   65000    329.25095   -164.47623   0.29791318   -164.17832    3487.2864    4.2163812    4.2163812    4.2163812    3487.2864    18637.485   -5265.3449   -2910.2808   -133.90218   -1037.9213    2474.5926     74.95828 
   65100    255.65528   -164.41083   0.23132227   -164.17951   -1100.6155    4.2197004    4.2197004    4.2197004   -1100.6155    9729.7617   -6353.5359   -6678.0723   -2157.5604    162.92602    3147.3407    75.135441 
   65200    218.86791   -164.37735   0.19803629   -164.17931    2687.1226    4.2199285    4.2199285    4.2199285    2687.1226    6436.2647    2462.9296   -837.82637    297.95203    682.73536    4160.5845     75.14763 
   65300    207.75245   -164.36719   0.18797879   -164.17921   -5615.6026    4.2168712    4.2168712    4.2168712   -5615.6026   -1541.9347   -5788.1795   -9516.6935   -8388.7623   -2106.6695    4006.9859    74.984413 
   65400    147.74892   -164.31343   0.13368633   -164.17974    1173.1697    4.2201532    4.2201532    4.2201532    1173.1697    5276.1841   -2173.3031    416.62809    1847.5293   -2588.6348    5495.7632    75.159635 
   65500    209.30183   -164.36873   0.18938069   -164.17935   -5299.8617    4.2208116    4.2208116    4.2208116   -5299.8617    4483.3789   -6535.6095   -13847.355   -3329.2819   -1241.7405    4052.3296    75.194816 
   65600    255.56747   -164.41005   0.23124282   -164.17881    -3787.235    4.2159243    4.2159243    4.2159243    -3787.235   -1107.3765   -364.19019   -9890.1383   -5875.0099   -1012.7163     964.9217    74.933914 
   65700    274.18831   -164.42687   0.24809134   -164.17878    806.96055    4.2206083    4.2206083    4.2206083    806.96055    5659.8527   -2678.2471     -560.724     2201.509   -4151.7794    324.69097    75.183952 
   65800    384.70559   -164.52558   0.34808971   -164.17749   -8538.0219    4.2204655    4.2204655    4.2204655   -8538.0219   -7584.3081   -2759.1775    -15270.58    1731.9639      1224.06   -1039.3549    75.176321 
   65900    415.57274   -164.55335   0.37601895   -164.17733    1606.1905    4.2157938    4.2157938    4.2157938    1606.1905     10423.22    269.19301   -5873.8415    1292.0427   -3461.7668    -3927.532    74.926957 
   66000    390.93241   -164.53188   0.35372386   -164.17816   -4414.4669     4.220558     4.220558     4.220558   -4414.4669    3878.6559    -11880.18   -5241.8764   -733.30822    789.65347   -3894.4377    75.181263 
   66100    404.55762   -164.54364   0.36605224   -164.17758   -2401.4068    4.2204311    4.2204311    4.2204311   -2401.4068   -8169.1468    2095.3713   -1130.4448    2745.9055   -190.75421   -1874.2083     75.17448 
   66200    394.00693   -164.53423   0.35650575   -164.17772   -301.62539    4.2158115    4.2158115    4.2158115   -301.62539    11243.818   -6184.1945   -5964.4993    -4907.425    1382.7137    -2310.013    74.927899 
   66300    394.09651    -164.5346    0.3565868   -164.17801   -7287.8023    4.2195936    4.2195936    4.2195936   -7287.8023   -3068.4618   -12065.693   -6729.2525    2129.9133   -168.98206    601.16288     75.12974 
   66400    302.75799   -164.45226   0.27394179   -164.17831    1837.5235    4.2199672    4.2199672    4.2199672    1837.5235    7060.8615   -2309.0939    760.80287   -5524.3501    1373.4184    2891.8822    75.149695 
   66500    219.04498    -164.3772    0.1981965   -164.17901      471.057    4.2157881    4.2157881    4.2157881      471.057    17265.911   -6787.7629   -9064.9774   -8184.7995    1013.7896    4252.0781    74.926651 
   66600    293.27962   -164.44431   0.26536557   -164.17894    41.924743    4.2195911    4.2195911    4.2195911    41.924743    3945.5573   -6669.3979    2849.6148   -1870.3113   -5505.5815    5106.5606    75.129606 
   66700    249.79144   -164.40502   0.22601655     -164.179   -2871.9996    4.2198199    4.2198199    4.2198199   -2871.9996    8661.0796   -7865.5745    -9411.504   -4692.1524   -478.78051    7496.3257    75.141829 
   66800    166.97938   -164.33048   0.15108646   -164.17939    6253.2162    4.2154233    4.2154233    4.2154233    6253.2162    20823.697    3892.7392   -5956.7878   -6733.1508   -7214.8993    3986.9139      74.9072 
   66900    237.26563   -164.39349   0.21468293   -164.17881    3507.0713    4.2195639    4.2195639    4.2195639    3507.0713    11923.946   -4643.0397    3240.3071   -2204.1286   -2147.1998    615.75091     75.12815 
   67000    244.22358   -164.39938   0.22097863   -164.17841   -2.1012851     4.219724     4.219724     4.219724   -2.1012851    16951.661   -9356.1287   -7601.8366    1682.0631   -1814.5077      3664.25    75.136704 
   67100    280.13092   -164.43126   0.25346834   -164.17779    10320.566    4.2156117    4.2156117    4.2156117    10320.566    23684.942    12583.477   -5306.7201   -3360.6303   -1104.4931   -1584.7126    74.917246 
   67200    350.22073   -164.49503   0.31688708   -164.17814   -2480.7491    4.2199743    4.2199743    4.2199743   -2480.7491    4769.2081   -5987.5126   -6223.9427    4823.1991    428.17463   -5662.6807    75.150074 
   67300    292.95495   -164.44379   0.26507179   -164.17872    7293.6148    4.2191462    4.2191462    4.2191462    7293.6148    22325.432   -3586.3928    3141.8047   -1681.8348     1399.982   -3915.9079    75.105841 
   67400    317.56989   -164.46548   0.28734391   -164.17814    3979.3428    4.2163777    4.2163777    4.2163777    3979.3428    15843.453     2412.545   -6317.9692    -2214.445    3419.9134   -3202.5664    74.958091 
   67500    343.92753   -164.48927   0.31119286   -164.17808   -5516.8664    4.2199103    4.2199103    4.2199103   -5516.8664    2318.8152   -10408.316   -8461.0983     2439.334   -1368.3805   -4697.3479    75.146656 
   67600    254.46328   -164.40873   0.23024372   -164.17849    5542.5906    4.2194656    4.2194656    4.2194656    5542.5906    11336.501      2348.79    2942.4802   -4088.4195    4076.3346   -753.68684    75.122899 
   67700     259.4954   -164.41298   0.23479689   -164.17818   -5093.8614    4.2172007    4.2172007    4.2172007   -5093.8614   -494.39109   -3356.1206   -11431.073   -6355.7066   -2525.1139    1836.7339    75.001993 
   67800    297.17893    -164.4472   0.26889374   -164.17831   -2023.9107    4.2194593    4.2194593    4.2194593   -2023.9107     2314.992   -5515.5053   -2871.2189    -4230.026   -378.50212    2876.7837    75.122562 
   67900    257.05141   -164.41118   0.23258552   -164.17859   -4061.0157    4.2205013    4.2205013    4.2205013   -4061.0157    2669.6159   -4928.9043   -9923.7586   -107.28792     703.0003      6780.76    75.178232 
   68000     267.3585      -164.42   0.24191159   -164.17809   -2373.9632    4.2161278    4.2161278    4.2161278   -2373.9632   -1277.5012    4309.7188   -10154.107   -6203.7265   -3977.3217     6350.002    74.944762 
   68100    324.91022   -164.47208   0.29398559   -164.17809   -1495.5195    4.2197706    4.2197706    4.2197706   -1495.5195   -1552.4826   -1364.5342   -1569.5417    2038.4372    1434.5725    4146.8477    75.139192 
   68200    360.77098    -164.5047   0.32643317   -164.17827    -9683.778    4.2208709    4.2208709    4.2208709    -9683.778    2636.9058   -13925.856   -17762.384   -3341.6321   -3911.9661    4047.9483    75.197985 
   68300    365.44331   -164.50898   0.33066079   -164.17832    276.66628    4.2163457    4.2163457    4.2163457    276.66628   -443.67465    9608.3629   -8334.6895    710.07948    2069.9282    2810.1723    74.956384 
   68400    341.15399   -164.48728    0.3086833   -164.17859   -3940.2287    4.2198601    4.2198601    4.2198601   -3940.2287    4631.5744   -5702.8357   -10749.425    6403.4178   -3532.8571   -5143.7477    75.143972 
   68500    358.49805   -164.50227   0.32437657   -164.17789   -2792.7685    4.2204681    4.2204681    4.2204681   -2792.7685     2536.279    405.15453   -11319.739    -3110.513    2658.7303   -2638.3414    75.176457 
   68600    403.61114   -164.54242   0.36519584   -164.17722    -1120.141    4.2166164    4.2166164    4.2166164    -1120.141   -898.89232    4084.8896   -6546.4203    1289.5144   -987.98541   -4124.2494    74.970825 
   68700    341.44511   -164.48663   0.30894671   -164.17768    -2880.088    4.2189196    4.2189196    4.2189196    -2880.088    14393.677   -9560.6644   -13473.276   -1313.9715   -265.42206   -7093.0852    75.093743 
   68800    267.86917   -164.42037   0.24237365   -164.17799    5348.6212    4.2201418    4.2201418    4.2201418    5348.6212    9998.0689    3743.2184    2304.5764   -2031.0244    1447.5191   -4125.8791    75.159025 
   68900    258.44425   -164.41239   0.23384579   -164.17855    1284.6006    4.2171575    4.2171575    4.2171575    1284.6006    8384.7226    459.52795   -4990.4489   -2833.2357   -3582.6358   -1499.5394    74.999691 
   69000    249.26469   -164.40438   0.22553993   -164.17884    2292.3529    4.2182359    4.2182359    4.2182359    2292.3529    20701.198   -7045.0015   -6779.1383    -2695.546    848.58325    2448.7402    75.057242 
   69100    241.68756   -164.39712   0.21868398   -164.17844    683.37279    4.2200268    4.2200268    4.2200268    683.37279    8848.9333   -5874.7061    -924.1088    -4572.858   -1871.3738      4938.49     75.15288 
   69200    159.00339    -164.3225    0.1438696   -164.17863    4222.8597    4.2170452    4.2170452    4.2170452    4222.8597    17935.855    4730.3606    -9997.636   -63.176323   -1007.8234    6746.9758    74.993698 
   69300    161.56959   -164.32493   0.14619156   -164.17874    7591.2266    4.2177588    4.2177588    4.2177588    7591.2266    27116.137    -663.4629   -3678.9946    3587.3676   -3631.7239    9046.9738    75.031773 
   69400    307.51202   -164.45624   0.27824334   -164.17799   -3737.8023    4.2206133    4.2206133    4.2206133   -3737.8023    6801.6311   -4740.9636   -13274.074   -5190.8025    516.57375    7715.0215    75.184216 
   69500    283.45835    -164.4345   0.25647907   -164.17803    634.83348    4.2167376    4.2167376    4.2167376    634.83348    14299.505     961.4159   -13356.421    5714.6022   -2324.0086    8638.4936    74.977291 
   69600     229.6577   -164.38656   0.20779912   -164.17876    5406.4734    4.2181188    4.2181188    4.2181188    5406.4734    28515.984   -7870.0255   -4426.5383    1810.6087   -2520.2158    4769.2188    75.050988 
   69700     339.8501   -164.48554   0.30750351   -164.17804   -4801.7354    4.2210348    4.2210348    4.2210348   -4801.7354   -763.08217    1309.9998   -14952.124    1336.8656    1357.0553    1054.6299    75.206743 
   69800    345.52225   -164.49056   0.31263579   -164.17792   -787.26457    4.2169782    4.2169782    4.2169782   -787.26457    17550.475   -7224.7898   -12687.479    1152.7313   -1600.8022    1241.1993    74.990122 
   69900    337.61056   -164.48364   0.30547713   -164.17817   -1948.4507    4.2181826    4.2181826    4.2181826   -1948.4507    12157.431   -8760.7792   -9242.0037   -2949.5952    2329.7197   -3486.7475    75.054393 
   70000    387.15698   -164.52784   0.35030777   -164.17753   -5636.2227    4.2211079    4.2211079    4.2211079   -5636.2227   -11464.527    4049.2008   -9493.3422   -1140.9184   -958.63385   -4824.8841    75.210651 
   70100    317.83134   -164.46591   0.28758047   -164.17833    934.91284    4.2175269    4.2175269    4.2175269    934.91284    18621.668   -4970.0069   -10846.923   -3231.4766    2642.0531   -4512.1609    75.019401 
   70200    401.94373   -164.54176   0.36368713   -164.17807   -4022.5316    4.2178316    4.2178316    4.2178316   -4022.5316    1551.1947   -3456.4131   -10162.376   -162.52213   -4056.4106   -2717.4811     75.03566 
   70300    412.75406   -164.55153   0.37346855   -164.17806    -7379.378    4.2215123    4.2215123    4.2215123    -7379.378   -6369.2754   -9347.4047   -6421.4538   -8320.3096    2845.0477   -2228.1097    75.232273 
   70400    309.18407   -164.45815   0.27975625   -164.17839    619.62649    4.2175852    4.2175852    4.2175852    619.62649     13955.68   -1170.1989   -10926.601    4539.3388    -2285.454   -1023.0698     75.02251 
   70500    381.96335   -164.52386   0.34560847   -164.17826   -4673.8006    4.2177806    4.2177806    4.2177806   -4673.8006   -380.62732   -640.17472     -13000.6   -3615.1874   -2099.6913    5745.7842    75.032941 
   70600    351.63906   -164.49697   0.31817041    -164.1788    -7314.796    4.2222261    4.2222261    4.2222261    -7314.796    1969.9602   -9714.7359   -14199.612    2812.2521    1115.9605    5876.8019    75.270441 
   70700    275.68859   -164.42884   0.24944883    -164.1794    1592.9261      4.21703      4.21703      4.21703    1592.9261    20463.707   -1088.0578   -14596.871    1233.2048   -364.70528    6923.9934    74.992887 
   70800    328.08475   -164.47563   0.29685798   -164.17877   -7279.2163    4.2177711    4.2177711    4.2177711   -7279.2163   -649.00178   -6838.0542   -14350.593    -325.4957    863.56937     10582.56    75.032433 
   70900    237.68684   -164.39431   0.21506405   -164.17924   -1295.5318    4.2224009    4.2224009    4.2224009   -1295.5318    11967.976    3718.9557   -19573.528    2369.9641    155.50483     7752.732     75.27979 
   71000    240.25039   -164.39617    0.2173836   -164.17879   -886.95122    4.2160258    4.2160258    4.2160258   -886.95122    19960.463   -10263.845   -12357.472    2780.5103    3903.8326    8671.9149    74.939323 
   71100    301.30241   -164.45094   0.27262475   -164.17832   -5989.4914    4.2182295    4.2182295    4.2182295   -5989.4914    3575.3239   -10065.329   -11478.469    806.99736    -1701.942    6832.3755    75.056898 
   71200    222.91445   -164.38055   0.20169768   -164.17885    3308.9679    4.2216749    4.2216749    4.2216749    3308.9679     25035.55    2164.1737    -17272.82   -2569.4926    2544.4566    2850.5161    75.240965 
   71300    272.04688    -164.4247   0.24615373   -164.17855   -858.89538    4.2163192    4.2163192    4.2163192   -858.89538    11219.461   -6039.9539   -7756.1934    2041.5932   -323.12924    1237.8866    74.954974 
   71400    335.95772   -164.48233   0.30398161   -164.17835    3845.1768    4.2178698    4.2178698    4.2178698    3845.1768    10962.337     9612.365   -9039.1714   -6201.9906    -826.3001   -1832.0457    75.037698 
   71500    347.77103   -164.49284   0.31467054   -164.17817   -688.25735    4.2214671    4.2214671    4.2214671   -688.25735    21164.013   -9330.5237   -13898.261    2464.1812   -386.65059   -1995.1572    75.229853 
   71600    369.32644   -164.51211   0.33417433   -164.17794    4325.2081    4.2159482    4.2159482    4.2159482    4325.2081    9858.9919    4797.5925   -1680.9601   -4072.0959    378.04798   -4192.1727    74.935188 
   71700    306.20274   -164.45507   0.27705868   -164.17801    7539.3968    4.2177073    4.2177073    4.2177073    7539.3968    20217.447    10469.482   -8068.7386   -3344.0543   -4035.4228   -2009.6926    75.029027 
   71800     326.5239   -164.47322   0.29544568   -164.17778     1217.378    4.2215191    4.2215191    4.2215191     1217.378     16508.13   -4761.4906   -8094.5049    1562.3051   -1228.6805   -585.08054    75.232636 
   71900    372.40275   -164.51475   0.33695783   -164.17779    3280.9899    4.2161006    4.2161006    4.2161006    3280.9899    10500.157    5173.8592   -5831.0466   -745.51843    744.76477     1004.336    74.943316 
   72000    246.18975   -164.40166   0.22275766    -164.1789    1590.2453    4.2179719    4.2179719    4.2179719    1590.2453    25308.045   -8720.2178   -11817.091   -506.04059   -3792.5739    5331.5793    75.043149 
   72100    191.77269   -164.35315   0.17351996   -164.17963    5807.8668    4.2216858    4.2216858    4.2216858    5807.8668     17180.26    9237.2191   -8993.8793   -198.18561    1646.5207    6699.0859    75.241547 
   72200    226.34084   -164.38446   0.20479795   -164.17966   -2366.7779    4.2156002    4.2156002    4.2156002   -2366.7779    12436.962   -6562.5677   -12974.728    1932.4352   -1080.2728    8922.7961    74.916632 
   72300     174.8858   -164.33799   0.15824034   -164.17975   -669.14198    4.2187842    4.2187842    4.2187842   -669.14198    23755.193   -9423.4357   -16339.184   -3516.5002    1119.6672    8944.2214     75.08651 
   72400    184.61797   -164.34672   0.16704622   -164.17967   -2308.8146    4.2218932    4.2218932    4.2218932   -2308.8146    8153.7959   -547.68394   -14532.556    3559.3634   -1178.5607    8507.0313    75.252639 
   72500    162.19567   -164.32603   0.14675805   -164.17927    -3452.262    4.2157901    4.2157901    4.2157901    -3452.262    18460.259   -14720.232   -14096.813   -5833.9331    687.32326    9720.0162    74.926759 
   72600    192.05635   -164.35341   0.17377662   -164.17964    4877.6745    4.2192272    4.2192272    4.2192272    4877.6745    26838.609      3152.91   -15358.495    -1329.207   -1505.1143    4491.9085    75.110169 
   72700    348.32835   -164.49376   0.31517481   -164.17859   -10449.871     4.221354     4.221354     4.221354   -10449.871   -3013.1008    -12423.19   -15913.322    616.46105   -1229.3438    3490.1427     75.22381 
   72800     332.7638   -164.47879   0.30109168    -164.1777    2839.7648    4.2158161    4.2158161    4.2158161    2839.7648    17652.695   -3575.2222   -5558.1782   -3474.3909    1052.6029    3109.2217    74.928144 
   72900    376.59534   -164.51838   0.34075138   -164.17762    2303.9525    4.2197208    4.2197208    4.2197208    2303.9525    15025.382    6009.4067   -14122.931    2560.6542   -4203.0844   -932.41673    75.136531 
   73000    486.64908   -164.61766   0.44033032   -164.17733   -7324.2228    4.2197625    4.2197625    4.2197625   -7324.2228   -5422.9394   -4119.1149   -12430.614   -2794.4722    2691.8225    -410.7053    75.138758 
   73100    396.04031    -164.5366   0.35834559   -164.17825    7361.8645    4.2162741    4.2162741    4.2162741    7361.8645    17161.962    3600.6482     1322.983    2532.6889   -237.26888   -1508.9416    74.952567 
   73200    433.43215   -164.57006   0.39217852   -164.17788   -6347.9228    4.2196162    4.2196162    4.2196162   -6347.9228    1902.7568    -6227.796   -14718.729   -3560.1424    3273.6405   -569.65556    75.130946 
   73300    435.73673   -164.57237   0.39426375   -164.17811   -3988.6564    4.2196592    4.2196592    4.2196592   -3988.6564    -3239.393    3372.9542    -12099.53    4584.7985    297.72006   -197.84107    75.133242 
   73400    283.05308   -164.43467   0.25611237   -164.17856    3592.4813    4.2162606    4.2162606    4.2162606    3592.4813    19645.086   -4642.1418   -4225.4999   -9132.1525    4492.3925    1490.1502    74.951845 
   73500    325.19682    -164.4724   0.29424491   -164.17815   -6651.4687    4.2198367    4.2198367    4.2198367   -6651.4687    5072.2064   -5873.7555   -19152.857    14.269664    1117.5795     3573.456    75.142722 
   73600    330.99819   -164.47793   0.29949412   -164.17844   -4089.0259      4.21953      4.21953      4.21953   -4089.0259    2501.8414   -1733.6056   -13035.314   -308.53648    1334.6945    3893.9464     75.12634 
   73700    201.61283   -164.36203   0.18242352   -164.17961   -1114.1612    4.2168023    4.2168023    4.2168023   -1114.1612    24315.031   -11984.542   -15672.973   -4344.9835    669.10491    7897.1477     74.98074 
   73800    223.68089   -164.38138   0.20239117   -164.17899   -1376.9375    4.2195877    4.2195877    4.2195877   -1376.9375    4414.2464    7803.9451   -16349.004   -370.36868    426.45028    7633.4631    75.129424 
   73900    236.39226   -164.39269   0.21389269    -164.1788   -3871.2381    4.2196755    4.2196755    4.2196755   -3871.2381    10779.654   -14005.862    -8387.507   -2034.1996   -1538.4619     6114.397     75.13411 
   74000    245.39761   -164.40054   0.22204091    -164.1785    177.07487    4.2174539    4.2174539    4.2174539    177.07487     27590.83   -8980.1934   -18079.412    830.84334   -861.41605    8586.9622    75.015502 
   74100    310.88354   -164.45955   0.28129396   -164.17826   -2363.5774    4.2199496    4.2199496    4.2199496   -2363.5774   -648.75386    7132.6367   -13574.615   -1032.9767     479.8106    6745.9484    75.148753 
   74200    280.90565   -164.43273   0.25416934   -164.17856    1682.8523    4.2197716    4.2197716    4.2197716    1682.8523    14039.426   -1862.8559   -7128.0134    4674.4575   -2779.4248    2449.3074    75.139249 
   74300    335.77924   -164.48164   0.30382011   -164.17782    5142.3033    4.2171579    4.2171579    4.2171579    5142.3033    19859.966    4869.4656   -9302.5216   -5681.4428    2737.3415    2082.1582    74.999708 
   74400    438.42943   -164.57388   0.39670016   -164.17718   -5286.7794    4.2204445    4.2204445    4.2204445   -5286.7794   -3660.0165   -1708.5294   -10491.792    3591.1417   -724.78138    856.31601    75.175198 
   74500    330.11669   -164.47615   0.29869652   -164.17746    4756.5655    4.2181816    4.2181816    4.2181816    4756.5655    15140.052    5259.3561   -6129.7117    9.6615327    1804.4594   -1754.2017     75.05434 
   74600    253.15365   -164.40688   0.22905874   -164.17783    3648.6391    4.2180581    4.2180581    4.2180581    3648.6391    10181.191    1167.9403   -403.21431   -6924.5188    870.99802   -4689.3307    75.047748 
   74700    294.58081   -164.44491   0.26654291   -164.17836    -569.6739    4.2204219    4.2204219    4.2204219    -569.6739   -2848.9134    11627.673   -10487.782    1269.9462      2732.18   -2227.4266    75.173988 
   74800    270.18595   -164.42304   0.24446993   -164.17857   -854.94716    4.2182655    4.2182655    4.2182655   -854.94716    19791.557   -8759.6414   -13596.757   -3848.8888    1495.7265   -917.59325    75.058821 
   74900    229.65224   -164.38671   0.20779418   -164.17891   -42.780872    4.2191549    4.2191549    4.2191549   -42.780872    6158.3727   -664.24225    -5622.473   -2894.0163   -133.99862   -1165.3577     75.10631 
   75000    243.04069    -164.3988   0.21990833   -164.17889   -365.64378    4.2190732    4.2190732    4.2190732   -365.64378    2865.2556    12326.724   -16288.911   -465.18651    3604.3278    3091.1972    75.101943 
   75100    257.75988   -164.41232   0.23322656    -164.1791   -2973.1592    4.2191471    4.2191471    4.2191471   -2973.1592    14956.505   -9716.2381   -14159.744   -637.77553   -2639.4244     3570.713    75.105889 
   75200    283.21123   -164.43502   0.25625547   -164.17877   -47.074625     4.219105     4.219105     4.219105   -47.074625    3231.5942    9201.4196   -12574.238   -1322.7756    294.58354    3735.9274    75.103642 
   75300    351.16964   -164.49604   0.31774567   -164.17829   -9254.3886    4.2188824    4.2188824    4.2188824   -9254.3886    44.771406   -10230.671   -17577.266    3390.8132   -1842.9517    10552.845    75.091757 
   75400    320.18273   -164.46821   0.28970806    -164.1785    1320.1052    4.2186968    4.2186968    4.2186968    1320.1052    6900.3943    815.29358   -3755.3722     2078.064   -2150.3359    3138.8128    75.081847 
   75500    341.65238   -164.48701   0.30913425   -164.17787   -4225.5778    4.2191115    4.2191115    4.2191115   -4225.5778   -4722.8495    5959.9202   -13913.804   -2194.2153   -1275.0897    3104.9478     75.10399 
   75600    403.68385   -164.54228   0.36526163   -164.17702   -4393.7516    4.2181365    4.2181365    4.2181365   -4393.7516   -5528.1253    4341.1286   -11994.258    6826.3784   -2256.2557    4018.2567    75.051933 
   75700    362.61089   -164.50522   0.32809795   -164.17713    1951.6757    4.2178671    4.2178671    4.2178671    1951.6757    5255.3785    2376.3976    -1776.749   -5286.1933     1475.081    1113.5812    75.037554 
   75800    359.21685   -164.50207   0.32502695   -164.17704    -4264.763    4.2197354    4.2197354    4.2197354    -4264.763   -3903.5577    4093.7687     -12984.5   -2343.4367    -95.09798   -1577.1739    75.137313 
   75900    376.32379    -164.5174   0.34050567   -164.17689    2024.6245    4.2179688    4.2179688    4.2179688    2024.6245    693.93714    11869.203   -6489.2665   -1442.2775    3663.3973    -2655.137    75.042982 
   76000    239.17191   -164.39476   0.21640777   -164.17835    651.50813    4.2181956    4.2181956    4.2181956    651.50813    11437.779   -2389.5255   -7093.7295   -6549.0041    2477.5458   -1770.1499    75.055091 
   76100    183.05176   -164.34477   0.16562908   -164.17914    7556.3388     4.219391     4.219391     4.219391    7556.3388    4981.6064    20868.196   -3180.7856   -2154.8775    2141.4837   -4446.1072    75.118915 
   76200    285.50425   -164.43708   0.25833025   -164.17875   -2883.7861    4.2183858    4.2183858    4.2183858   -2883.7861    12401.309   -11374.338     -9678.33     -1727.25    2900.3374    429.05746    75.065243 
   76300     202.3668   -164.36233   0.18310573   -164.17922    2330.4275    4.2188414    4.2188414    4.2188414    2330.4275    11961.886    9734.4965     -14705.1   -2222.9684   -136.02963    25.421015    75.089564 
   76400     208.2728   -164.36745   0.18844961     -164.179     4491.925    4.2192652    4.2192652    4.2192652     4491.925    6043.6615    9329.7229   -1897.6094   -1847.8855   -1055.2342   -2534.0233    75.112199 
   76500    321.58459    -164.4694   0.29097649   -164.17842   -3537.7562    4.2182944    4.2182944    4.2182944   -3537.7562    3170.4695   -2085.1223   -11698.616    4715.7926   -2456.2563    6430.1256    75.060364 
   76600    290.06387   -164.44101   0.26245588   -164.17855    1897.2706    4.2188998    4.2188998    4.2188998    1897.2706     3754.114    13111.677   -11173.979    2212.4209   -1333.0193    2359.9727    75.092686 
   76700    354.56021   -164.49875   0.32081353   -164.17794   -2263.7643    4.2191672    4.2191672    4.2191672   -2263.7643    1493.0128    -2616.828   -5667.4776   -329.03879   -3816.7825   -522.79639    75.106964 
   76800    399.28089   -164.53841   0.36127774   -164.17713   -4810.2755     4.217964     4.217964     4.217964   -4810.2755   -7073.5385    514.61442   -7871.9023    5899.5337   -1219.8883    1235.0334    75.042726 
   76900    326.25463   -164.47235   0.29520205   -164.17715    231.13694    4.2192688    4.2192688    4.2192688    231.13694    3121.1349     493.1179   -2920.8419   -4274.1842   -811.33123    1730.5522    75.112389 
   77000    348.50482   -164.49202   0.31533448   -164.17669   -1409.0179    4.2196115    4.2196115    4.2196115   -1409.0179   -2344.2528    10756.587   -12639.388    2176.0959   -843.59356   -1488.0817    75.130692 
   77100    372.94066   -164.51411   0.33744454   -164.17666   -4629.1916    4.2181294    4.2181294    4.2181294   -4629.1916    3342.1282   -7966.8217   -9262.8813   -828.03596    1268.8895   -4355.1524    75.051556 
   77200    265.32342   -164.41834   0.24007021   -164.17827    5130.2322    4.2193325    4.2193325    4.2193325    5130.2322    8330.4131    10412.602    -3352.319   -6053.5982    2172.3474   -1453.5174     75.11579 
   77300    331.60447   -164.47825    0.3000427    -164.1782   -4894.6998    4.2202791    4.2202791    4.2202791   -4894.6998   -1296.1576    2784.0156   -16171.958    -1788.294    2200.4685   -4670.6962    75.166361 
   77400    311.62777   -164.46001   0.28196736   -164.17804   -1560.2498    4.2186961    4.2186961    4.2186961   -1560.2498    10583.311   -7861.3144   -7402.7456   -1421.4774    2337.8301   -2923.3396    75.081807 
   77500     148.9342    -164.3139   0.13475879   -164.17914     6473.962    4.2184041    4.2184041    4.2184041     6473.962     7901.632    16282.061   -4761.8068    1405.7323    4006.6186    1364.2813    75.066217 
   77600    214.91385   -164.37331   0.19445857   -164.17885   -926.25562    4.2194129    4.2194129    4.2194129   -926.25562     12134.45   -8210.6247   -6702.5925    -1389.711   -777.80032   -5635.4834    75.120084 
   77700      279.758   -164.43161   0.25313092   -164.17848    1056.3259    4.2177046    4.2177046    4.2177046    1056.3259    4508.4567    3619.3708   -4958.8497    4440.2309    -160.5327      2142.09    75.028884 
   77800    238.62829   -164.39421   0.21591589   -164.17829    -1474.976    4.2187435    4.2187435    4.2187435    -1474.976     1142.078    4528.4031   -10095.409      2257.42   -596.30908    5167.1792    75.084337 
   77900      296.307     -164.446    0.2681048   -164.17789    2624.4893    4.2190644    4.2190644    4.2190644    2624.4893    5738.0317    2790.7708   -655.33462    4084.2382   -4235.4788   -801.91008    75.101473 
   78000    325.51008   -164.47247   0.29452836   -164.17795   -2314.8128    4.2177177    4.2177177    4.2177177   -2314.8128   -1881.9935    1517.2083   -6579.6532    7087.5097   -3961.1104    583.65686    75.029583 
   78100    339.48257   -164.48526   0.30717096   -164.17809    776.22842    4.2184782    4.2184782    4.2184782    776.22842   -1989.9656    13009.035   -8690.3843   -4935.5827    -5415.669    2591.3364    75.070172 
   78200    426.87782   -164.56393   0.38624802   -164.17768   -7127.2365    4.2198117    4.2198117    4.2198117   -7127.2365   -11168.704    786.50532    -10999.51    4283.7527   -4601.3668    183.13135    75.141388 
   78300     357.4933   -164.50112   0.32346745   -164.17765   -4815.8315    4.2184778    4.2184778    4.2184778   -4815.8315    2966.8144   -7440.6051   -9973.7039   -2838.9249   -3666.4105   -2247.1721    75.070151 
   78400    241.89257   -164.39747   0.21886948    -164.1786    5433.9188    4.2185919    4.2185919    4.2185919    5433.9188   -1193.1837    20328.525   -2833.5845   -1458.9468    39.700339   -282.12315    75.076245 
   78500    371.00797   -164.51357   0.33569581   -164.17788   -9583.3177    4.2199826    4.2199826    4.2199826   -9583.3177   -2158.3944   -8634.4024   -17957.156   -109.13101   -1289.3437   -3991.0532    75.150518 
   78600    348.48681   -164.49347   0.31531819   -164.17815    489.86631    4.2179619    4.2179619    4.2179619    489.86631    7935.2053    5573.7151   -12039.321    -3677.658    1076.1321   -3420.3992    75.042617 
   78700    247.60779   -164.40274   0.22404073    -164.1787     407.6792    4.2185631    4.2185631    4.2185631     407.6792     1943.854    4006.2236     -4727.04   -905.22731    4425.2602    2681.9289    75.074709 
   78800    299.98581   -164.44899   0.27143346   -164.17756    627.40925    4.2196029    4.2196029    4.2196029    627.40925    14888.016   -5519.1588   -7486.6292     588.4788    990.78666   -3853.0685    75.130236 
   78900    280.89372   -164.43119   0.25415854   -164.17703    992.66416    4.2181933    4.2181933    4.2181933    992.66416    6146.5951    5064.7006   -8233.3033    5281.2733    2446.7392   -1345.8859    75.054965 
   79000    218.97238   -164.37553   0.19813081    -164.1774    2582.4556    4.2179711    4.2179711    4.2179711    2582.4556    10489.261    4786.2853     -7528.18   -2030.1878     2677.278    4110.4516    75.043104 
   79100     275.9714   -164.42694   0.24970472   -164.17723    3259.6237    4.2191708    4.2191708    4.2191708    3259.6237    7345.7106    67.391852    2365.7687    5549.8057   -1416.9366    1682.9916    75.107156 
   79200    281.03042   -164.43157   0.25428223   -164.17729   -3459.6149    4.2183016    4.2183016    4.2183016   -3459.6149    3664.4574   -4182.8341    -9860.468    5740.1961   -3963.1075   -1050.2446    75.060749 
   79300    270.12699    -164.4225   0.24441658   -164.17808    4490.1782    4.2182305    4.2182305    4.2182305    4490.1782    6922.4334    17215.288   -10667.187    108.78262   -4665.1072    2477.2792    75.056953 
   79400    334.45787   -164.48052   0.30262451    -164.1779   -4436.3779    4.2195411    4.2195411    4.2195411   -4436.3779   -8940.0407   -2536.7704   -1832.3227    5047.0506   -5537.5559    2769.1866    75.126935 
   79500    335.67453   -164.48242   0.30372537   -164.17869   -1535.6868    4.2178131    4.2178131    4.2178131   -1535.6868    51.750653    9015.2583   -13674.069   -4736.1569   -9039.0743   -3470.8422    75.034671 
   79600    356.79063   -164.50184   0.32283166   -164.17901   -5013.9166    4.2186748    4.2186748    4.2186748   -5013.9166   -7617.7782    6322.1595   -13746.131    307.99925   -3542.7913   -1110.0337    75.080669 
   79700    359.57038    -164.5038   0.32534684   -164.17845   -6052.8141    4.2192482    4.2192482    4.2192482   -6052.8141   -212.93488   -9705.0843    -8240.423   -497.82852   -4861.4046   -2157.4465    75.111292 
   79800    273.74291   -164.42602   0.24768834   -164.17834    -12.21354    4.2180628    4.2180628    4.2180628    -12.21354   -1498.5178    10507.071   -9045.1934     86.17782   -4132.5217   -3322.5671    75.048003 
   79900    310.03777   -164.45851   0.28052869   -164.17798   -3063.4486    4.2179949    4.2179949    4.2179949   -3063.4486   -1132.7469    2378.3241   -10435.923   -243.90688     2761.919   -127.72599    75.044374 
   80000    364.67623    -164.5073   0.32996671   -164.17733   -453.25693    4.2196899    4.2196899    4.2196899   -453.25693    10860.791   -3397.6825   -8822.8794    691.73708    826.17346   -1007.6828    75.134882 
   80100    311.73118   -164.45927   0.28206093   -164.17721    449.06672    4.2184979    4.2184979    4.2184979    449.06672    5323.2241   -2475.7166   -1500.3074    4726.1123     984.5138   -3766.0822    75.071224 
   80200    313.10048   -164.46036    0.2832999   -164.17706    6005.3917    4.2181551    4.2181551    4.2181551    6005.3917    10788.517    11789.666   -4562.0073    1975.0544    2011.4365    590.49168    75.052929 
   80300     340.5259   -164.48522   0.30811499    -164.1771   -2600.4902     4.220865     4.220865     4.220865   -2600.4902     2424.643   -3089.9819   -7136.1315    8274.9463    796.18562    3951.2469    75.197668 
   80400    280.98237   -164.43182   0.25423875   -164.17759    3220.7318    4.2181927    4.2181927    4.2181927    3220.7318    8580.2791    4178.8788   -3096.9624   -1405.2211   -2845.0363    -1812.379    75.054933 
   80500    254.07913   -164.40795   0.22989613   -164.17805    1463.9455    4.2191062    4.2191062    4.2191062    1463.9455    2556.5759     9985.627   -8150.3666    3778.2974   -4049.9832   -1040.5486    75.103706 
   80600    266.63893   -164.41898   0.24126051   -164.17772    -5763.833     4.221246     4.221246     4.221246    -5763.833    4882.5672   -13194.895   -8979.1708    7002.3204   -3488.3589    3068.2841    75.218037 
   80700    238.73093   -164.39434   0.21600877   -164.17833    2993.8911    4.2182569    4.2182569    4.2182569    2993.8911    1813.7824    19771.384   -12603.493   -3181.4599   -9363.2318    545.75668     75.05836 
   80800    257.08968    -164.4111   0.23262014   -164.17848   -4662.0366    4.2187062    4.2187062    4.2187062   -4662.0366   -9562.3967    6982.4366    -11406.15    1399.3722   -7171.4741   -2981.1075    75.082348 
   80900    301.87101   -164.45209   0.27313924   -164.17895   -1480.5541    4.2206305    4.2206305    4.2206305   -1480.5541    8516.7353   -561.08078   -12397.317   -2742.5661   -5387.4557   -70.665764    75.185136 
   81000    338.82299   -164.48511   0.30657416   -164.17853   -6695.4502    4.2186024    4.2186024    4.2186024   -6695.4502    -7960.727    5881.5328   -18007.156   -1094.0916   -9312.3068   -393.37502    75.076804 
   81100    301.83787   -164.45125   0.27310924   -164.17814    1429.0596    4.2183408    4.2183408    4.2183408    1429.0596    3274.1724    4627.1326   -3614.1262   -68.934143   -2212.5174   -4844.3066    75.062841 
   81200    334.90731   -164.48089   0.30303117   -164.17785   -2933.9669    4.2204079    4.2204079    4.2204079   -2933.9669   -3368.9368    5053.8978   -10486.862     1082.887   -408.34569    293.93486     75.17324 
   81300    389.63038   -164.52989   0.35254576   -164.17734   -3780.0754    4.2163847    4.2163847    4.2163847   -3780.0754   -3625.8831     2871.806   -10586.149    526.95075   -912.13969   -2724.8182    74.958466 
   81400    323.73373   -164.47054   0.29292108   -164.17762    4053.7766    4.2191436    4.2191436    4.2191436    4053.7766    6987.2153    5358.3526   -184.23805    3101.7923    1974.9317   -2396.0417    75.105701 
   81500    323.75303   -164.47031   0.29293855   -164.17737   -950.67924    4.2202511    4.2202511    4.2202511   -950.67924    3085.6768   -4469.9117   -1467.8028    5326.1337     4763.985   -79.726188    75.164862 
   81600    368.07743   -164.51034   0.33304419    -164.1773    2333.0563     4.216725     4.216725     4.216725    2333.0563    8.4543571    12896.201    -5905.486   -801.38165    857.47407    577.33222    74.976615 
   81700     300.7634   -164.45064   0.27213704    -164.1785   -1512.2715    4.2191756    4.2191756    4.2191756   -1512.2715     3414.326    397.80314   -8348.9437    5973.6777    775.47834   -1204.2344    75.107413 
   81800    288.14854   -164.43994   0.26072286   -164.17922   -74.468744     4.219701     4.219701     4.219701   -74.468744    7304.1091   -8543.7622    1016.2469    -880.9823    1321.5943   -735.13539    75.135472 
   81900    266.60023   -164.42049   0.24122549   -164.17926   -2233.7513    4.2188974    4.2188974    4.2188974   -2233.7513    -2970.012    5351.7254   -9082.9674    1843.6769   -7127.3479    3143.0334    75.092557 
   82000    155.34647   -164.31976   0.14056075    -164.1792    1999.5111    4.2198394    4.2198394    4.2198394    1999.5111    27334.982   -5101.4714   -16234.977    5467.0055   -4158.7165   -2747.5316    75.142867 
   82100    249.99653   -164.40482   0.22620211   -164.17862   -68.026486    4.2189108    4.2189108    4.2189108   -68.026486   -2532.1758    4611.3699   -2283.2736   -3080.4387   -3507.2853    -1599.612     75.09327 
   82200    310.90466   -164.45955   0.28131307   -164.17824   -2816.3417    4.2191244    4.2191244    4.2191244   -2816.3417    4641.2225   -3753.5311   -9336.7165    -204.0004   -9953.6514    991.05343    75.104677 
   82300     282.5329   -164.43427   0.25564171   -164.17863    1146.9895    4.2205517    4.2205517    4.2205517    1146.9895    21811.282   -2277.0857   -16093.228   -355.74018   -5035.6705   -607.09322    75.180927 
   82400    335.92536   -164.48118   0.30395233   -164.17722    1798.4498    4.2187221    4.2187221    4.2187221    1798.4498    1975.3455    9619.7592   -6199.7553    300.41136   -1761.8265   -1786.1895    75.083199 
   82500    316.73514   -164.46354   0.28658861   -164.17696    1095.4647    4.2197725    4.2197725    4.2197725    1095.4647    17952.873   -7291.9802   -7374.4989   -3186.7384   -3953.8802   -1212.0088    75.139292 
   82600    354.30494   -164.49779   0.32058255    -164.1772    1316.6436    4.2195865    4.2195865    4.2195865    1316.6436    8292.2403    1458.8299   -5801.1394    3097.0326    206.52327    2728.3577    75.129359 
   82700    414.75488   -164.55232   0.37527893   -164.17704   -4755.2324    4.2181679    4.2181679    4.2181679   -4755.2324    -3593.968   -1937.1686   -8734.5607    -494.3443    3516.6409   -1939.9351    75.053609 
   82800    289.07323   -164.43977   0.26155953   -164.17821   -239.67069    4.2204906    4.2204906    4.2204906   -239.67069    4304.8774    150.69675   -5174.5862   -251.61348     749.9885    102.25894    75.177663 
   82900    261.15533    -164.4143   0.23629883     -164.178    4331.7927    4.2193537    4.2193537    4.2193537    4331.7927    9621.5587    5789.0994   -2415.2801    6398.3862    1881.5341    2782.4939    75.116923 
   83000    386.21406   -164.52686    0.3494546   -164.17741   -10089.073    4.2191874    4.2191874    4.2191874   -10089.073   -15786.679   -1363.5833   -13116.955   -3269.3567    5381.9452     -1642.82    75.108041 
   83100     320.3571    -164.4679   0.28986584   -164.17803   -1186.3256    4.2204196    4.2204196    4.2204196   -1186.3256     5429.159    1584.4964   -10572.632    3045.4161     -2493.46    763.04968    75.173865 
   83200    246.13036    -164.4016   0.22270392   -164.17889   -2414.2038    4.2193883    4.2193883    4.2193883   -2414.2038   -5716.7063    6305.7837   -7831.6887    1833.9016   -6015.0806    2.6428391    75.118771 
   83300    296.17739   -164.44626   0.26798753   -164.17828   -3598.3017    4.2197606    4.2197606    4.2197606   -3598.3017   -11512.576     12461.13   -11743.459   -334.03188   -1591.5566   -674.35109    75.138659 
   83400    304.85889   -164.45377   0.27584273   -164.17793   -5791.0885    4.2204808    4.2204808    4.2204808   -5791.0885    9637.7653   -7939.5825   -19071.448    2190.2805   -8017.3946   -3313.1028    75.177135 
   83500    285.93348   -164.43664   0.25871862   -164.17792   -4265.1273    4.2184483    4.2184483    4.2184483   -4265.1273   -11755.235    4038.1442    -5078.291     544.1035   -9062.8702    2686.3354    75.068579 
   83600     312.2016   -164.46053   0.28248657   -164.17805    733.94523    4.2195984    4.2195984    4.2195984    733.94523   -132.10913    10273.843   -7939.8985   -383.20901   -4126.5508    195.87012    75.129997 
   83700    346.62613   -164.49164   0.31363461   -164.17801   -5004.0582    4.2203077    4.2203077    4.2203077   -5004.0582    4550.0145    -885.1053   -18677.084    249.74976   -5599.3768   -4632.6453    75.167887 
   83800    351.59617   -164.49587   0.31813161   -164.17773    3562.0037    4.2180232    4.2180232    4.2180232    3562.0037   -3679.0245    10523.603    3841.4321    4482.2938   -3060.6544    2510.6602    75.045885 
   83900    362.84738   -164.50593   0.32831194   -164.17761   -1632.4998    4.2198881    4.2198881    4.2198881   -1632.4998    1474.8015   -562.27892    -5810.022   -2695.2924    5045.5992    1327.2225     75.14547 
   84000    342.24503   -164.48709   0.30967049   -164.17742    2240.0041    4.2187227    4.2187227    4.2187227    2240.0041    10775.698    6811.3327   -10867.018    3292.5218    3597.4745    125.15949    75.083228 
   84100    272.80706   -164.42469   0.24684156   -164.17785    3668.3881    4.2174569    4.2174569    4.2174569    3668.3881    792.10536    9434.1779    778.88093    2956.5667    2753.7491   -636.00567    75.015664 
   84200    219.78603    -164.3773   0.19886702   -164.17844    3137.7097    4.2201107    4.2201107    4.2201107    3137.7097    2795.0944    9109.0525   -2491.0178    -3202.935    9282.9096     1710.517     75.15736 
   84300    253.70484   -164.40807   0.22955748   -164.17851    3441.7524    4.2186607    4.2186607    4.2186607    3441.7524    15472.113    1149.4948    -6296.351    3692.1214    5509.5262   -1955.2266    75.079917 
   84400    275.32322   -164.42741   0.24911823   -164.17829   -2161.8569    4.2177803    4.2177803    4.2177803   -2161.8569   -7858.6183    12183.892   -10810.845   -1801.5505   -1148.0916    1518.5413     75.03292 
   84500    208.38859   -164.36745   0.18855438    -164.1789    5339.5894    4.2200589    4.2200589    4.2200589    5339.5894    6672.3492    14226.134    -4879.715   -2320.1962    1866.9831   -509.99065    75.154594 
   84600    240.34019   -164.39672   0.21746485   -164.17926     2913.291    4.2183586    4.2183586    4.2183586     2913.291    5336.1225    12024.865   -8621.1151    1035.3419   -3739.0404   -4596.6692    75.063792 
   84700    353.75591   -164.49843   0.32008578   -164.17834   -3288.6919    4.2193138    4.2193138    4.2193138   -3288.6919   -11642.739    17604.091   -15827.428   -1730.8349   -7906.8344    177.82611    75.114793 
   84800    375.46316   -164.51748   0.33972695   -164.17775   -6680.4271     4.221078     4.221078     4.221078   -6680.4271   -1244.0125   -6362.5663   -12434.702   -3976.0935   -6685.9543    1543.8028    75.209053 
   84900    265.15754   -164.41825   0.23992011   -164.17833    3162.3454     4.217035     4.217035     4.217035    3162.3454   -1000.3287    21913.604   -11426.239    967.28701   -7554.4574   -3939.4188    74.993152 
   85000    295.95731   -164.44563    0.2677884   -164.17784   -245.76702     4.219129     4.219129     4.219129   -245.76702   -5777.0212    13783.365   -8743.6449   -964.57482   -5827.9552    -1841.351    75.104926 
   85100    365.57665   -164.50814   0.33078144   -164.17736   -5619.5295    4.2218051    4.2218051    4.2218051   -5619.5295   -4532.0885    4079.6295   -16406.129   -2604.6318   -3149.8179    3888.9336    75.247929 
   85200    296.15102   -164.44537   0.26796367   -164.17741    2694.2342    4.2170153    4.2170153    4.2170153    2694.2342    2326.3323    12336.945   -6580.5744    4431.8968    1509.8725   -51.523752    74.992104 
   85300    330.00177    -164.4761   0.29859254   -164.17751    154.27318    4.2194936    4.2194936    4.2194936    154.27318   -5930.6033    6293.0206    100.40219   -1892.5004    2059.8874   -1891.1461    75.124399 
   85400     336.1261   -164.48196   0.30413396   -164.17783   -2020.8358    4.2208674    4.2208674    4.2208674   -2020.8358    115.01641    9061.7345   -15239.258    1660.5344    5117.8505    1199.4239    75.197801 
   85500     226.3716   -164.38347   0.20482578   -164.17865    6038.7215    4.2170613    4.2170613    4.2170613    6038.7215    6782.7267    15774.944   -4441.5064     5419.101    8049.7229   -463.14069    74.994556 
   85600    287.58567   -164.43833   0.26021356   -164.17811    397.42722    4.2204038    4.2204038    4.2204038    397.42722   -7800.5595    11265.176   -2272.3352    1873.6129    5543.6905    693.25338    75.173024 
   85700    320.29263   -164.46752    0.2898075   -164.17771   -6606.8493    4.2206422    4.2206422    4.2206422   -6606.8493   -3716.5071   -6264.5817   -9839.4592    54.159145    3866.6889   -196.11414    75.185764 
   85800    235.23247   -164.39107   0.21284328   -164.17823    3752.6915    4.2162826    4.2162826    4.2162826    3752.6915   -2492.5068    21314.641   -7564.0591    4768.3021    773.13099   -1968.0304     74.95302 
   85900    318.60946    -164.4662   0.28828453   -164.17791    -6409.096    4.2209509    4.2209509    4.2209509    -6409.096   -8781.7426    860.11322   -11305.659   -417.32238     141.9776   -1250.7652     75.20226 
   86000    342.79118   -164.48829   0.31016466   -164.17813   -2604.7593    4.2201044    4.2201044    4.2201044   -2604.7593    -6494.142    4748.2486   -6068.3844    85.925287   -4811.2578     6144.856    75.157026 
   86100    287.30235   -164.43839   0.25995721   -164.17843    1232.8009    4.2168882    4.2168882    4.2168882    1232.8009   -326.81992    17383.002    -13357.78    3544.9895     -6208.68    365.19409    74.985321 
   86200    344.69437   -164.48972   0.31188671   -164.17783   -3173.2395    4.2207504    4.2207504    4.2207504   -3173.2395   -4169.6352   -727.46206   -4622.6212   -2934.9355   -5490.4912   -1365.6935    75.191548 
   86300    323.13066    -164.4703   0.29237541   -164.17792   -3188.5561    4.2196594    4.2196594    4.2196594   -3188.5561   -5384.4035    5311.6604   -9492.9251    204.29642   -9349.0117    3141.3553    75.133254 
   86400    229.46231   -164.38622   0.20762232   -164.17859     3002.224    4.2168754    4.2168754    4.2168754     3002.224    5423.5312    13810.526   -10227.385     3031.072   -3773.4402    2362.3782    74.984641 
   86500    280.19635   -164.43139   0.25352755   -164.17787    288.77013    4.2213269    4.2213269    4.2213269    288.77013   -9259.7907    4381.2735    5744.8276    1796.6271   -956.72364   -206.52327    75.222362 
   86600    295.77819   -164.44529   0.26762632   -164.17766   -3274.2112    4.2197477    4.2197477    4.2197477   -3274.2112   -3588.6366    3123.6241   -9357.6211   -3054.1632   -1251.8473   -389.13483    75.137969 
   86700    251.27902   -164.40522   0.22736254   -164.17786    8878.7366    4.2170445    4.2170445    4.2170445    8878.7366    6113.5323    25014.368   -4491.6906    6723.3041    3214.3245   -192.79908    74.993662 
   86800    339.13963   -164.48477   0.30686066   -164.17791   -3067.9805    4.2218607    4.2218607    4.2218607   -3067.9805   -5290.2736   -1243.8149    -2669.853    238.86348    5568.3949   -1959.2849    75.250898 
   86900    327.16834   -164.47423   0.29602879   -164.17821    2086.4974    4.2183737    4.2183737    4.2183737    2086.4974    227.46484    13007.336   -6975.3087    169.52889    5624.9432    3754.4488    75.064597 
   87000    275.00056   -164.42678   0.24882629   -164.17795     4329.563    4.2176444    4.2176444    4.2176444     4329.563    2742.3446    19481.052   -9234.7074    4540.6892    3248.1377   -1519.8995    75.025671 
   87100    328.99744   -164.47511    0.2976838   -164.17743   -5719.5695    4.2220665    4.2220665    4.2220665   -5719.5695    5611.6867    -7090.787   -15679.608   -5210.7018    5763.4639   -1531.5528    75.261903 
   87200    257.08503   -164.41052   0.23261593   -164.17791    1712.8355    4.2179306    4.2179306    4.2179306    1712.8355   -5586.8032    12531.199    -1805.889   -1139.5469     877.7998    3972.1585    75.040944 
   87300    217.02429   -164.37459   0.19636814   -164.17823   -138.50561    4.2179257    4.2179257    4.2179257   -138.50561   -3830.3894     18208.53   -14793.657    382.79932   -4536.8793    2399.4833    75.040683 
   87400    343.44816   -164.48873   0.31075911   -164.17797   -8030.0975    4.2213198    4.2213198    4.2213198   -8030.0975   -5609.9392   -1942.9224   -16537.431   -1876.1062   -3638.9611   -128.97035    75.221979 
   87500    309.80536   -164.45862    0.2803184    -164.1783     -1191.02    4.2186554    4.2186554    4.2186554     -1191.02   -8904.3275    8130.1954    -2798.928   -2805.7325   -6350.5793    944.06588    75.079638 
   87600    249.94216   -164.40434   0.22615292   -164.17819    2342.4231    4.2186585    4.2186585    4.2186585    2342.4231    1536.7241    21322.844   -15832.299    1917.9472   -8512.7103    5579.4489      75.0798 
   87700    370.62325   -164.51275   0.33534771    -164.1774   -5253.5859    4.2206621    4.2206621    4.2206621   -5253.5859   -6705.5024   -3463.7691   -5591.4861   -464.60045    -5592.438   -841.19512    75.186827 
   87800    322.65918   -164.46988    0.2919488   -164.17794    729.88389    4.2180311    4.2180311    4.2180311    729.88389   -4318.8738    15704.587   -9196.0618    594.35073    -3787.508    1055.3272    75.046306 
   87900    271.00935   -164.42341   0.24521495    -164.1782    567.31665     4.218548     4.218548     4.218548    567.31665    4650.4552    7921.8843    -10870.39    9172.3346   -2478.4224   -601.23094    75.073899 
   88000    340.97591   -164.48571   0.30852217   -164.17719    -524.5662    4.2206231    4.2206231    4.2206231    -524.5662    3298.7367   -10647.842    5775.4069   -2848.6032    2519.2724   -1149.4313    75.184742 
   88100    324.54246   -164.47102   0.29365284   -164.17737   -1232.5062    4.2187966    4.2187966    4.2187966   -1232.5062   -7405.2992    16337.874   -12630.093    2994.8984    4723.1342    120.73024    75.087177 
   88200    316.87751    -164.4643   0.28671743   -164.17759    3497.1899    4.2181086    4.2181086    4.2181086    3497.1899    9577.0864    7979.5164   -7065.0331    4706.8973    4157.1842   -1422.6201    75.050445 
   88300    372.94286   -164.51506   0.33744654   -164.17761   -793.76736    4.2199745    4.2199745    4.2199745   -793.76736    3858.2832   -2932.1953     -3307.39    -1695.313    5459.9633   -1994.2941    75.150083 
   88400    319.03009   -164.46699   0.28866513   -164.17833   -4479.4786    4.2195389    4.2195389    4.2195389   -4479.4786   -10628.218    7586.1951   -10396.413   -1033.4177    7791.2577    75.948696    75.126815 
   88500    269.10088   -164.42133   0.24348813   -164.17784    7485.9669    4.2178653    4.2178653    4.2178653    7485.9669    17450.307    10997.891   -5990.2973    691.09617    2343.9671    4745.7765     75.03746 
   88600    319.35555   -164.46606   0.28895961    -164.1771   -8127.5414    4.2199857    4.2199857    4.2199857   -8127.5414   -7000.2794   -2885.5785   -14496.766   -2755.5845   -809.79269   -637.81609    75.150682 
   88700    242.55605   -164.39739   0.21946981   -164.17792    2665.3879    4.2192266    4.2192266    4.2192266    2665.3879   -6328.8894    14553.673   -228.61967   -1227.9083    732.89305    2890.8196    75.110138 
   88800    221.09756   -164.37861   0.20005372   -164.17856    2907.4124    4.2179893    4.2179893    4.2179893    2907.4124    9549.5776     8103.355   -8930.6955    5769.5136    -5773.665    2922.1445    75.044076 
   88900    340.25519   -164.48635   0.30787005   -164.17848    -6882.506    4.2199965    4.2199965    4.2199965    -6882.506   -6548.7594   -5117.5495    -8981.209   -3512.0603   -4199.8055     1936.986    75.151264 
   89000    306.06365   -164.45504   0.27693283   -164.17811     3547.747    4.2199767    4.2199767    4.2199767     3547.747   -4163.5164    18793.327   -3986.5698    4432.8268   -2536.8714    1443.0523    75.150205 
   89100    253.21939   -164.40732   0.22911823    -164.1782   -1846.2905    4.2182077    4.2182077    4.2182077   -1846.2905    5305.8174    520.48211   -11365.171    6561.4943   -7625.2432   -1530.7524    75.055737 
   89200    337.73243   -164.48301    0.3055874   -164.17743    1038.6246    4.2194092    4.2194092    4.2194092    1038.6246    114.01813   -1378.6768    4380.5325     180.9843   -291.40643   -437.92836    75.119889 
   89300    345.25364   -164.48935   0.31239275   -164.17695   -6337.2529    4.2204734    4.2204734    4.2204734   -6337.2529   -9826.5173    3912.8652   -13098.107    3677.0362    1229.7981   -2453.9829    75.176741 
   89400    274.91872   -164.42627   0.24875223   -164.17752   -600.91884    4.2181033    4.2181033    4.2181033   -600.91884    10651.163    -3709.312   -8744.6077    3395.0895    1553.7481     1042.708    75.050159 
   89500    297.58501   -164.44719   0.26926117   -164.17793     819.8498    4.2192542    4.2192542    4.2192542     819.8498   -5459.4751   -1335.2532    9254.2777   -2821.6038      859.716   -2729.5345    75.111609 
   89600    313.66934     -164.462   0.28381461   -164.17818   -4690.9297    4.2212426    4.2212426    4.2212426   -4690.9297   -5832.7372    4831.2691   -13071.321   -1435.2704    6447.0179   -3459.0196    75.217852 
   89700    347.96065   -164.49245   0.31484211   -164.17761    2516.6087    4.2176525    4.2176525    4.2176525    2516.6087    15311.641    2127.1209   -9888.9358    237.07568    2792.1028    1440.0405    75.026101 
   89800     355.3637   -164.49925   0.32154054   -164.17771   -5051.9473    4.2193264    4.2193264    4.2193264   -5051.9473   -6011.0281    -4884.951   -4259.8627   -7629.8486   -2744.2376   -1276.1614    75.115466 
   89900    247.37541   -164.40139   0.22383047   -164.17756    4416.9244    4.2216043    4.2216043    4.2216043    4416.9244    3796.1873    12225.342   -2770.7556   -1768.3361    2726.2764    54.586017     75.23719 
   90000    260.76312   -164.41297   0.23594395   -164.17703    2891.8475    4.2171976    4.2171976    4.2171976    2891.8475    17937.737    1308.8444   -10571.039    1485.4187   -2962.3679    -171.3186    75.001827 
   90100    337.00281   -164.48222   0.30492723   -164.17729   -7613.7033    4.2198567    4.2198567    4.2198567   -7613.7033   -1087.8944   -10928.026    -10825.19   -2637.2313   -2525.1262    3969.8552    75.143794 
   90200    223.13964   -164.37981   0.20190143   -164.17791    1590.5922    4.2214052    4.2214052    4.2214052    1590.5922    1083.1575    474.76756    3213.8514    5824.3097   -1869.5821    90.454292    75.226546 
   90300    169.63622   -164.33192   0.15349041   -164.17843    1670.1034    4.2167168    4.2167168    4.2167168    1670.1034    18120.633   -3974.3343   -9135.9885    6010.6162   -5384.9835    148.50673    74.976179 
   90400    319.44589   -164.46728   0.28904136   -164.17823   -2195.5866    4.2199587    4.2199587    4.2199587   -2195.5866   -2477.8982   -4557.4521     448.5905      2750.15   -2578.8032     1939.679    75.149244 
   90500    315.90833   -164.46379   0.28584049   -164.17795   -3021.6022    4.2217707    4.2217707    4.2217707   -3021.6022     2181.175   -4690.6648   -6555.3168    8205.3095     2707.819    -1424.402    75.246087 
   90600    268.37907   -164.42098   0.24283502   -164.17815    4732.9192    4.2166436    4.2166436    4.2166436    4732.9192     20719.96   -14.335004   -6506.8674    7960.3118    752.30543    1038.3406    74.972274 
   90700    371.51462   -164.51354   0.33615424   -164.17739    -985.8343    4.2197285    4.2197285    4.2197285    -985.8343   -7445.2163   -799.95306    5287.6665    1148.3869   -2244.6645   -1122.0412    75.136942 
   90800    313.71527   -164.46157   0.28385617   -164.17771   -2989.0576    4.2221032    4.2221032    4.2221032   -2989.0576    10351.425   -7261.2628   -12057.335     897.8741    4513.3616   -2669.6079    75.263869 
   90900     336.4848   -164.48137   0.30445852   -164.17691    5682.5465    4.2151532    4.2151532    4.2151532    5682.5465    13841.934    5279.5649   -2073.8591      3663.12     3083.628    -170.6586    74.892804 
   91000    435.76825   -164.57125   0.39429227   -164.17696   -7711.0759    4.2206536    4.2206536    4.2206536   -7711.0759   -6212.1003   -10714.812    -6206.316   -4584.0209    333.99838    264.92381    75.186372 
   91100     342.0607    -164.4884   0.30950371    -164.1789   -696.13414    4.2217516    4.2217516    4.2217516   -696.13414    10634.005   -9620.1066   -3102.3006    203.81159   -1204.9932   -89.865909    75.245066 
   91200    358.81395   -164.50319    0.3246624   -164.17852    3633.2992    4.2141657    4.2141657    4.2141657    3633.2992    9656.8018    6696.0009    -5452.905     1257.428    255.67864    -2504.676    74.840181 
   91300    413.72423    -164.5524   0.37434638   -164.17805   -11346.358    4.2214679    4.2214679    4.2214679   -11346.358   -3228.2479   -12616.589   -18194.238   -3886.1335   -4354.6605    2869.5084    75.229899 
   91400    254.43143   -164.40849    0.2302149   -164.17828    3205.9002    4.2213399    4.2213399    4.2213399    3205.9002    15047.776    -10059.41    4629.3356     2880.754    715.47044    546.86083    75.223056 
   91500    195.69349   -164.35482   0.17706759   -164.17775    1273.6923    4.2149215    4.2149215    4.2149215    1273.6923    7413.1345    1646.1789   -5238.2366    6443.6726   -2150.2718   -1845.2874    74.880456 
   91600    263.80078   -164.41648   0.23869249   -164.17779   -3487.9251    4.2209981    4.2209981    4.2209981   -3487.9251   -1726.8652     -4566.88   -4170.0301     3035.151   -3330.4364    1083.3297    75.204784 
   91700    226.53188   -164.38374   0.20497081   -164.17877   -1087.9903    4.2211033    4.2211033    4.2211033   -1087.9903    8834.3781   -11724.204   -374.14476    4952.7896    1984.2892   -615.80869    75.210407 
   91800    200.61909   -164.36041   0.18152437   -164.17889    3235.5938    4.2146845    4.2146845    4.2146845    3235.5938    3510.3836    5775.9933    420.40455    10396.843   -164.16557   -684.21945    74.867827 
   91900    261.85984   -164.41586   0.23693628   -164.17892    5438.6253    4.2212534    4.2212534    4.2212534    5438.6253    6133.6307    1167.8428    9014.4025    538.52823    1503.3284   -2994.4258    75.218429 
   92000    345.35201   -164.49078   0.31248176    -164.1783   -4358.6944    4.2205221    4.2205221    4.2205221   -4358.6944    7111.3168   -11719.986   -8467.4144    2675.1336   -155.51009    529.34484    75.179343 
   92100    347.01102   -164.49155   0.31398286   -164.17757    7724.8295    4.2151232    4.2151232    4.2151232    7724.8295    5635.2181    15629.949    1909.3212    3509.9238    2790.7463   -1546.7399    74.891205 
   92200     312.8909   -164.46088   0.28311027   -164.17777   -435.92981    4.2217965    4.2217965    4.2217965   -435.92981    4161.0635   -459.34952   -5009.5034   -5155.4825    -31.07771    377.87247    75.247466 
   92300    311.68351   -164.45953   0.28201779   -164.17751    522.96343    4.2200957    4.2200957    4.2200957    522.96343    10614.102   -11024.962    1979.7498    1041.1217   -867.19077    2096.4371    75.156561 
   92400    313.91291   -164.46179     0.284035   -164.17776    4527.2364    4.2155894    4.2155894    4.2155894    4527.2364    3721.7576    14344.911    -4484.959    760.87192   -459.88863   -1234.6533    74.916055 
   92500    328.18927   -164.47516   0.29695255   -164.17821   -7139.5592    4.2216939    4.2216939    4.2216939   -7139.5592   -2553.7506   -1782.1657   -17082.761   -3351.7449   -6604.2184    4717.8362    75.241984 
   92600    299.28087   -164.44952   0.27079562   -164.17873    203.89809    4.2196409    4.2196409    4.2196409    203.89809    2778.6837   -6725.9515    4558.9621    2485.4656   -811.51569    2204.9968    75.132265 
   92700    235.59281   -164.39233   0.21316933   -164.17916    -1961.662    4.2160586    4.2160586    4.2160586    -1961.662   -4080.7923    8036.3827   -9840.5764     6857.425    -5432.861    634.19212    74.941077 
   92800    285.87454   -164.43756    0.2586653    -164.1789   -2549.8779    4.2217414    4.2217414    4.2217414   -2549.8779   -3338.5405   -295.16489   -4015.9285    3061.4667   -3625.7871   -953.25552    75.244521 
   92900    341.68257   -164.48716   0.30916157     -164.178   -9286.0098    4.2201636    4.2201636    4.2201636   -9286.0098   -4033.5252   -14469.537   -9354.9676    3730.2042   -1750.5021   -538.31423    75.160191 
   93000    264.70777   -164.41747   0.23951316   -164.17796    335.50832    4.2161067    4.2161067    4.2161067    335.50832   -2567.1099    7500.5699    -3926.935     9969.679    552.83054   -1871.1245    74.943641 
   93100    282.41863   -164.43365   0.25553831   -164.17811    907.82328    4.2216755    4.2216755    4.2216755    907.82328   -5150.2925    301.13284    7572.6295   -705.95367    2495.3134   -4490.4772    75.240998 
   93200    383.96944   -164.52469   0.34742362   -164.17727   -7755.8295    4.2201921    4.2201921    4.2201921   -7755.8295   -1598.5839   -16003.487   -5665.4173    5369.5313   -2143.8778   -257.36286    75.161712 
   93300    369.63355    -164.5119    0.3344522   -164.17744     5476.799    4.2159321    4.2159321    4.2159321     5476.799   -733.38782    18727.693   -1563.9082    2511.8947    2936.6925    -4790.544    74.934329 
   93400    367.90234   -164.51082   0.33288577   -164.17793    -3753.776    4.2217943    4.2217943    4.2217943    -3753.776   -6272.8461    2717.3538   -7705.8358   -4496.0777   -1659.9406   -1549.4039    75.247349 
   93500    323.92034   -164.47157   0.29308993   -164.17848    3876.3875    4.2192306    4.2192306    4.2192306    3876.3875    415.38017   -622.34819    11836.131    655.43436   -671.48806    1430.4367    75.110351 
   93600     233.1705   -164.39017   0.21097757   -164.17919    5280.4452    4.2158021    4.2158021    4.2158021    5280.4452   -6255.6594    28588.032   -6491.0369     -302.193    -5665.301    849.28258    74.927395 
   93700    288.69059   -164.43936   0.26121332   -164.17815   -3959.6753    4.2224573    4.2224573    4.2224573   -3959.6753   -6279.1978    4676.2024   -10276.031   -3142.1096   -6942.5021    1758.6165    75.282805 
   93800    275.63173   -164.42659   0.24939738   -164.17719    681.75941    4.2192412    4.2192412    4.2192412    681.75941   -2740.2329    1506.8842    3278.6269   -968.77649   -3865.7951    2742.7689    75.110917 
   93900    133.41274   -164.29877   0.12071465   -164.17806    3824.5018     4.216144     4.216144     4.216144    3824.5018   -7316.1862    28285.359   -9495.6676    5952.6536   -8113.9699    2278.5803    74.945631 
   94000    242.08923   -164.39714   0.21904742   -164.17809    2428.6667    4.2224199    4.2224199    4.2224199    2428.6667   -7648.1941    5624.8215    9309.3726    697.65994   -4204.8364     -1949.31    75.280805 
   94100    339.76003   -164.48522   0.30742202    -164.1778   -9029.0492    4.2197062    4.2197062    4.2197062   -9029.0492   -10660.819   -3777.4349   -12648.893    4798.8754   -3993.3624    3700.5302    75.135752 
   94200    248.59361   -164.40339   0.22493272   -164.17846    5792.8697    4.2160506    4.2160506    4.2160506    5792.8697   -4791.2292    25564.099   -3394.2604    8052.3583   -1102.4097   -3303.5321    74.940647 
   94300     304.8259   -164.45443   0.27581288   -164.17862   -3080.9118    4.2226756    4.2226756    4.2226756   -3080.9118   -12742.934   -4192.3306    7692.5297    2163.0835    2475.4797   -3145.6583    75.294484 
   94400    333.30705    -164.4796   0.30158323   -164.17802   -4961.6681    4.2194633    4.2194633    4.2194633   -4961.6681   -10941.138   -4117.5183     173.6523    3025.5142   -2038.9513     1003.063     75.12278 
   94500    285.36756   -164.43584   0.25820656   -164.17764    8567.1779    4.2157878    4.2157878    4.2157878    8567.1779    1890.2464    21037.222    2774.0649    4841.6976    4220.2122   -2475.4902    74.926635 
   94600    393.68713   -164.53334   0.35621639   -164.17712   -11083.443    4.2232976    4.2232976    4.2232976   -11083.443   -12514.117    -9323.864   -11412.348   -857.78486    3354.4209    878.09298    75.327763 
   94700    369.96531   -164.51146   0.33475239   -164.17671    1263.7107    4.2191315    4.2191315    4.2191315    1263.7107   -5572.4103   -377.87178    9741.4141    -3074.475    712.16551   -1133.1892    75.105058 
   94800     254.1403   -164.40748   0.22995148   -164.17753     5466.098    4.2165061    4.2165061    4.2165061     5466.098    628.37987    22142.685   -6372.7707    2753.5288   -843.57533    3505.6987    74.964938 
   94900    368.97588   -164.51123   0.33385713   -164.17737   -4795.6269    4.2222883    4.2222883    4.2222883   -4795.6269     -7567.83   -4620.9114   -2198.1395   -3141.7072   -2621.9833   -935.37514    75.273768 
   95000    375.93222   -164.51821   0.34015137   -164.17806   -4125.1419    4.2190566    4.2190566    4.2190566   -4125.1419   -7716.1237    3428.6519   -8087.9539    -1993.688   -3750.3369    1740.4013    75.101056 
   95100    228.08044   -164.38523   0.20637197   -164.17885   -282.40563     4.217361     4.217361     4.217361   -282.40563   -9741.9495    22470.983    -13576.25    827.58812    -8470.102   -992.49327    75.010549 
   95200    251.68319   -164.40602   0.22772824   -164.17829     -79.9529    4.2216374    4.2216374    4.2216374     -79.9529   -4491.2499   -10339.956    14591.347    3385.5112   -5178.3141   -2133.6434    75.238959 
   95300    276.21713   -164.42843   0.24992706   -164.17851   -7531.4584    4.2189388    4.2189388    4.2189388   -7531.4584   -10438.246   -356.69555   -11799.434   -1032.0886   -7754.5573    1967.9819    75.094768 
   95400    269.84168   -164.42295   0.24415842   -164.17879    1851.2534    4.2166748    4.2166748    4.2166748    1851.2534   -8634.7848    14760.216   -571.67133    6274.2391   -5025.6543    -5919.392    74.973937 
   95500    311.97785    -164.4608   0.28228411   -164.17852   -5403.7113    4.2220911    4.2220911    4.2220911   -5403.7113   -1703.4683   -12362.552   -2145.1136    4825.3715    -650.6472    5.4315376    75.263221 
   95600    283.05272   -164.43426   0.25611205   -164.17815    505.42277    4.2180179    4.2180179    4.2180179    505.42277   -6202.8655    4099.4428    3619.6911   -407.64417    -3637.266   -2675.2835    75.045604 
   95700    278.77236   -164.43039   0.25223909   -164.17815    6674.6636    4.2158682    4.2158682    4.2158682    6674.6636   -53.362814    13445.638     6631.716    7440.6069    3110.4869    654.37167    74.930921 
   95800    369.24119   -164.51148   0.33409719   -164.17739   -4408.5458    4.2220076    4.2220076    4.2220076   -4408.5458    -1342.961   -6056.4757   -5826.2007    1567.7931    5259.2695    2371.1605    75.258755 
   95900    356.94039   -164.50002   0.32296717   -164.17705    3356.4802    4.2172272    4.2172272    4.2172272    3356.4802   -567.29899    9825.6888    811.05069   -271.71715    3721.3273    2622.3578    75.003408 
   96000     263.7839   -164.41611   0.23867721   -164.17744    4467.2861    4.2168835    4.2168835    4.2168835    4467.2861   -1164.6083    18491.678    -3925.211    529.00637    2027.6466    278.67682    74.985072 
   96100    289.88326   -164.43953   0.26229247   -164.17724    4024.6159    4.2219003    4.2219003    4.2219003    4024.6159   -973.56694   -4810.7374    17858.152    1444.2916    2509.7879    566.59154    75.253019 
   96200    346.25034   -164.49089   0.31329458    -164.1776   -729.03725    4.2175129    4.2175129    4.2175129   -729.03725   -2310.1472    11338.027   -11214.991   -3316.5076    -668.8479    4990.6034    75.018652 
   96300    324.67348   -164.47148   0.29377139   -164.17771    1061.6146    4.2175919    4.2175919    4.2175919    1061.6146   -9430.3107    17752.902   -5137.7478    859.83833   -4141.4433   -4636.6783    75.022867 
   96400    299.83781   -164.44937   0.27129955   -164.17807   -144.16617    4.2228958    4.2228958    4.2228958   -144.16617   -3969.5813   -3253.1367    6790.2195    3347.8015   -2200.4801   -629.54169    75.306263 
   96500    286.48059   -164.43738   0.25921366   -164.17817   -874.58382     4.216771     4.216771     4.216771   -874.58382   -4115.9014    9013.6802   -7521.5303   -3082.4798   -8636.9538   -268.39214    74.979068 
   96600    277.89341   -164.42952    0.2514438   -164.17808    1511.1075    4.2184045    4.2184045    4.2184045    1511.1075   -12073.669    7424.8297    9182.1619    4248.8859   -4557.1834   -4244.2136    75.066242 
   96700    293.68185   -164.44371   0.26572951   -164.17798   -7245.5335    4.2233934    4.2233934    4.2233934   -7245.5335   -4287.8523    -6188.504   -11260.244    3559.2668    296.78104   -144.31703    75.332886 
   96800    272.70538   -164.42421   0.24674956   -164.17746    1301.7361     4.215391     4.215391     4.215391    1301.7361    1522.5861    3798.9642   -1416.3419    242.26883   -3067.7588    -1849.901     74.90548 
   96900    237.02362   -164.39224   0.21446395   -164.17778     88.63989    4.2194173    4.2194173    4.2194173     88.63989   -9709.9987    8159.0537    1816.8647    2798.6294    1895.9539   -463.20401    75.120322 
   97000    300.40744   -164.44876   0.27181497   -164.17695   -4416.9221    4.2230977    4.2230977    4.2230977   -4416.9221   -10590.993   -6666.8085    4007.0352    2696.0529    4741.6324   -980.07513    75.317062 
   97100    319.34902   -164.46574   0.28895371   -164.17679    833.00984    4.2162406    4.2162406    4.2162406    833.00984    2759.5489    6656.1978   -6916.7172   -33.080868    6256.5105    2574.8953     74.95078 
   97200     316.9613   -164.46411   0.28679325   -164.17731   -1455.9836    4.2194552    4.2194552    4.2194552   -1455.9836   -9351.6987    15368.849   -10385.101   -2154.1291    2580.5077   -4548.9036    75.122347 
   97300    356.05777   -164.49968   0.32216855   -164.17752   -4194.4791    4.2224799    4.2224799    4.2224799   -4194.4791   -14423.288   -9381.8401    11221.691    3077.5464    4200.1729   -1527.8171    75.284014 
   97400     318.7479   -164.46638    0.2884098   -164.17797   -627.37691    4.2173509    4.2173509    4.2173509   -627.37691     3059.197    5250.3064   -10191.634   -4392.7989    1852.1022    2017.6211     75.01001 
   97500    312.13543   -164.46021   0.28242669   -164.17778   -154.93903    4.2200431    4.2200431    4.2200431   -154.93903   -7414.4786    3132.5069    3817.1546   -1400.5815   -2110.1417   -6444.4038    75.153748 
   97600    366.22145   -164.50879   0.33136486   -164.17743   -7577.0275    4.2220518    4.2220518    4.2220518   -7577.0275   -11986.761   -5551.7573   -5192.5638    1623.1579   -1412.2146    642.40941    75.261121 
   97700    292.82054     -164.443   0.26495017   -164.17805      1680.88    4.2155776    4.2155776    4.2155776      1680.88    3893.9413    5807.8664   -4659.1677   -565.82912   -4723.4826    -3627.041    74.915427 
   97800    237.95585   -164.39405   0.21530745   -164.17875    3114.2573    4.2204117    4.2204117    4.2204117    3114.2573   -9907.9983    5127.9175    14122.853    2396.2858    -5223.807   -3517.6679    75.173443 
   97900    307.70706   -164.45603   0.27841982   -164.17761   -3463.7655    4.2216183    4.2216183    4.2216183   -3463.7655   -12091.849    4928.7291   -3228.1763    4486.4415   -1423.9153    2646.5135    75.237938 
   98000    264.63326   -164.41704   0.23944573    -164.1776    2791.1494    4.2146256    4.2146256    4.2146256    2791.1494   -2132.4941    11849.883   -1343.9412    4302.4405    -1489.841    4345.5921    74.864687 
   98100    177.44494   -164.33917   0.16055591   -164.17861    3382.1086    4.2200077    4.2200077    4.2200077    3382.1086   -7277.1769    14202.479    3221.0237    1598.7768   -1646.5303    1423.2177    75.151861 
   98200    235.68481   -164.39191   0.21325257   -164.17865     1448.113    4.2203734    4.2203734    4.2203734     1448.113   -9467.1106    1330.8236    12480.626    5861.7754    2087.3621    2887.7608      75.1714 
   98300    267.14659   -164.42009   0.24171985   -164.17837    1624.7616    4.2158324    4.2158324    4.2158324    1624.7616   -5569.6767    16247.837   -5803.8759   -356.26578    6383.8488    4827.9419    74.929013 
   98400     257.1537    -164.4108   0.23267808   -164.17813    1010.5338    4.2209494    4.2209494    4.2209494    1010.5338    -2170.983    4012.6614     1189.923   -297.38497    1846.1875   -2242.9421     75.20218 
   98500    322.51259   -164.46982   0.29181617     -164.178    322.55342    4.2192901    4.2192901    4.2192901    322.55342    -8301.217    4954.8164    4314.0609   -28.635891    2504.7556    3356.2665    75.113529 
   98600    365.75803    -164.5089   0.33094555   -164.17795   -1394.6473    4.2158863    4.2158863    4.2158863   -1394.6473   -6384.8718    13237.999   -11037.069   -1907.3297    6198.3883   -5509.6104    74.931888 
   98700    355.25525   -164.49919   0.32144242   -164.17775   -2061.8499    4.2223186    4.2223186    4.2223186   -2061.8499   -5844.0682   -8123.6456    7782.1643   -2593.3352    432.33091   -7131.7293    75.275386 
   98800    380.39246   -164.52111    0.3441871   -164.17693   -2025.2425    4.2186943    4.2186943    4.2186943   -2025.2425    -3119.853    2723.2535   -5679.1281   -59.449139   -987.11956    6.5150276    75.081714 
   98900    350.04683   -164.49355   0.31672973   -164.17682   -236.08668    4.2156362    4.2156362    4.2156362   -236.08668   -2241.4274    6828.2016   -5295.0343    3063.1313    766.16233   -4158.6071    74.918554 
   99000    299.54219    -164.4483   0.27103207   -164.17727   -143.15056    4.2222047    4.2222047    4.2222047   -143.15056    -7330.228    5380.1563      1520.62   -1824.3448   -2912.4829   -4968.5595    75.269294 
   99100    299.89555   -164.44828    0.2713518   -164.17693    288.43552    4.2184716    4.2184716    4.2184716    288.43552     3989.549   -6546.7982    3422.5558    6221.7633   -2552.9385   -1881.6256    75.069824 
   99200    308.35423    -164.4561   0.27900539    -164.1771    2047.9146    4.2162221    4.2162221    4.2162221    2047.9146   -4202.3473    13090.031   -2743.9399     2743.966     782.4976    3564.4112    74.949791 
   99300    281.68849    -164.4324   0.25487767   -164.17752    81.959515    4.2225717    4.2225717    4.2225717    81.959515   -6332.2389    10533.513   -3955.3957    1748.5468   -1795.6242   -415.59418    75.288923 
   99400    231.41247   -164.38758   0.20938687   -164.17819    4087.9604    4.2186819    4.2186819    4.2186819    4087.9604    1585.1858    2969.4098    7709.2855    7674.9349   -533.86222    4437.9597    75.081052 
   99500    261.73115   -164.41474   0.23681985   -164.17792    968.49595     4.216719     4.216719     4.216719    968.49595   -10547.744    21326.633   -7873.4012    3015.0411     4219.247    1854.9592    74.976295 
   99600    287.81978   -164.43884   0.26042539   -164.17841   -4660.3643    4.2225868    4.2225868    4.2225868   -4660.3643   -4053.9122   -10338.821     411.6406     1135.975    3394.1917   -1477.2336    75.289732 
   99700      202.738   -164.36295    0.1834416   -164.17951    1168.1692    4.2184826    4.2184826    4.2184826    1168.1692   -3340.0183    11098.903   -4254.3776    672.90111    809.78902    4588.9449    75.070411 
   99800    262.65773   -164.41666   0.23765823     -164.179   -2208.9514    4.2170617    4.2170617    4.2170617   -2208.9514   -3215.1889    9189.6563   -12601.322    2111.6396    3515.0707   -5078.2053    74.994579 
   99900    307.43639   -164.45665   0.27817491   -164.17848   -2166.1726    4.2225695    4.2225695    4.2225695   -2166.1726   -3739.4883   -1985.1999   -773.82953   -3489.1285    4038.2229   -6625.7634    75.288805 
  100000    249.31327   -164.40358   0.22558388   -164.17799    358.32316    4.2173358    4.2173358    4.2173358    358.32316    701.98454    6131.9464   -5758.9614   -865.40666    -450.5499   -4115.7233    75.009201 
Loop time of 29.5865 on 1 procs for 100000 steps with 8 atoms

Pair  time (%) = 9.82254 (33.1995)
Kspce time (%) = 7.09532 (23.9816)
Neigh time (%) = 0 (0)
Comm  time (%) = 1.44258 (4.87583)
Outpt time (%) = 0.0342948 (0.115914)
Other time (%) = 11.1917 (37.8272)

Nlocal:    8 ave 8 max 8 min
Histogram: 1 0 0 0 0 0 0 0 0 0
Nghost:    2189 ave 2189 max 2189 min
Histogram: 1 0 0 0 0 0 0 0 0 0
Neighs:    2472 ave 2472 max 2472 min
Histogram: 1 0 0 0 0 0 0 0 0 0

Total # of neighbors = 2472
Ave neighs/atom = 309
Neighbor list builds = 0
Dangerous builds = 0
unfix 20
unfix 21
print "seeds:5622738"
seeds:5622738
