LAMMPS (10 Feb 2015)
# ---- initialize simulations
clear
units metal
dimension 3
boundary p p p
atom_style charge
atom_modify map array
# ---- create atoms
read_data /Users/eugeneragasa/pyflamestk_git/pypospack/tests/tests_integration/workflow/WorkflowLammpsThermalExpansion/param_5861/MgO_NaCl_unit.npt.T1700/lammps.structure
  triclinic box = (0 0 0) to (4.2565 4.2565 4.2565) with tilt (0 0 0)
  1 by 1 by 1 MPI processor grid
  reading atoms ...
  8 atoms
# ---- define interatomic potential
include potential.mod
mass 1 24.305
mass 2 15.999

group Mg type 1
4 atoms in group Mg
group O type 2
4 atoms in group O

set group Mg charge 1.63577302612
  4 settings made for charge
set group O charge -1.63577302612
  4 settings made for charge

variable R_cut equal 10.0

pair_style buck/coul/long ${R_cut}
pair_style buck/coul/long 10
pair_coeff 1 1 0.0 0.5 0.0 ${R_cut}
pair_coeff 1 1 0.0 0.5 0.0 10
pair_coeff 1 2 1558.72850733 0.278190610155 0.0 ${R_cut}
pair_coeff 1 2 1558.72850733 0.278190610155 0.0 10
pair_coeff 2 2 26609.5495557 0.148782776904 9.00084075824 ${R_cut}
pair_coeff 2 2 26609.5495557 0.148782776904 9.00084075824 10

kspace_style pppm 1.0e-5

neighbor 1.0 bin
neigh_modify every 1 delay 0 check yes
# ---- define settings
compute eng all pe/atom
compute eatoms all reduce sum c_eng
# ---- run minimization
reset_timestep 0
fix 1 all box/relax iso 0.0 vmax 0.001
thermo 10
thermo_style custom step pe lx ly lz xy xz yz press pxx pyy pzz pxy pxz pyz c_eatoms
min_style cg
minimize 1e-25 1e-25 5000 10000
PPPM initialization ...
  G vector (1/distance) = 0.352653
  grid = 8 8 8
  stencil order = 5
  estimated absolute RMS force accuracy = 3.87471e-05
  estimated relative force accuracy = 2.69083e-06
  using double precision FFTs
  3d grid and FFT values/proc = 3375 512
Neighbor list info ...
  1 neighbor list requests
  update every 1 steps, delay 0 steps, check yes
  master list distance cutoff = 11
Memory usage per processor = 4.06549 Mbytes
Step PotEng Lx Ly Lz Xy Xz Yz Press Pxx Pyy Pzz Pxy Pxz Pyz eatoms 
       0   -109.00108       4.2565       4.2565       4.2565            0            0            0    61252.417    61252.417    61252.417    61252.417 -3.6848803e-11 -3.3369169e-11 3.6549969e-10   -109.00108 
      10    -109.0509     4.299065     4.299065     4.299065            0            0            0    8703.9294    8703.9294    8703.9294    8703.9294 1.5032756e-10 -1.0327816e-11 -1.1009458e-10    -109.0509 
      15   -109.05203    4.3066964    4.3066964    4.3066964            0            0            0 0.0034250328 0.0034250327  0.003425033 0.0034250328 -1.8553982e-10 4.3823803e-11 -1.4551403e-10   -109.05203 
Loop time of 0.00786996 on 1 procs for 15 steps with 8 atoms

Minimization stats:
  Stopping criterion = linesearch alpha is zero
  Energy initial, next-to-last, final = 
        -109.001077098     -109.052033723     -109.052033723
  Force two-norm initial, final = 8.84488 3.43431e-05
  Force max component initial, final = 8.84488 7.26821e-06
  Final line search alpha, max atom move = 0.5 3.63411e-06
  Iterations, force evaluations = 15 22

Pair  time (%) = 0.00212431 (26.9926)
Kspce time (%) = 0.001266 (16.0865)
Neigh time (%) = 0 (0)
Comm  time (%) = 0.000235319 (2.99009)
Outpt time (%) = 1.90735e-05 (0.242358)
Other time (%) = 0.00422525 (53.6884)

Nlocal:    8 ave 8 max 8 min
Histogram: 1 0 0 0 0 0 0 0 0 0
Nghost:    2189 ave 2189 max 2189 min
Histogram: 1 0 0 0 0 0 0 0 0 0
Neighs:    2344 ave 2344 max 2344 min
Histogram: 1 0 0 0 0 0 0 0 0 0

Total # of neighbors = 2344
Ave neighs/atom = 293
Neighbor list builds = 0
Dangerous builds = 0
unfix 1
# ---- define output variables ----
variable natoms equal "count(all)"
variable tot_energy equal "c_eatoms"
variable length_x equal "lx"
variable length_y equal "ly"
variable length_z equal "lz"
variable tilt_xy equal "xy"
variable tilt_xz equal "xz"
variable tilt_yz equal "yz"
variable tot_press equal "press"
variable press_xx equal "pxx"
variable press_yy equal "pyy"
variable press_zz equal "pzz"
variable press_xy equal "pxy"
variable press_xz equal "pxz"
variable press_yz equal "pyz"

# ---- output ----
print "pypospack:output_section:begin"
pypospack:output_section:begin
print "tot_energy = ${tot_energy}"
tot_energy = -109.052033723467
print "num_atoms = ${natoms}"
num_atoms = 8
print "xx = ${length_x}"
xx = 4.30669636930156
print "yy = ${length_y}"
yy = 4.30669636930156
print "zz = ${length_z}"
zz = 4.30669636930156
print "xy = ${tilt_xy}"
xy = 0
print "xz = ${tilt_xz}"
xz = 0
print "yz = ${tilt_yz}"
yz = 0
print "tot_press = ${tot_press}"
tot_press = 0.00342503281246904
print "pxx = ${press_xx}"
pxx = 0.00342503266517326
print "pyy = ${press_yy}"
pyy = 0.00342503296687446
print "pzz = ${press_zz}"
pzz = 0.00342503280535941
print "pxy = ${press_xy}"
pxy = -1.85539817051957e-10
print "pxz = ${press_xz}"
pxz = 4.38238030577261e-11
print "pyz = ${press_yz}"
pyz = -1.45514027090344e-10
print "pypospack:output_section:done"
pypospack:output_section:done
print "pypospack:lammps_sim:done"
pypospack:lammps_sim:done
#------------------------------------------------------------------------------
# RUN THERMOSTAT
# running using an NPT Nose-Hoover style thermostat
#------------------------------------------------------------------------------
variable tempdamp equal 0.1
variable pressdamp equal 1.0
# set initial velocities
velocity all create 1700 7173222 mom yes dist gaussian loop all
# fix for Nose-Hoover style thermostat
fix 20 all npt temp 1700 1700 0.1 aniso 0.0 0.0 1.0 drag 1.0 couple xyz
variable boxx equal lx
variable boxy equal ly
variable boxz equal lz
variable boxp equal press
variable boxt equal temp
# calculate averages every 10000 steps
reset_timestep 0
fix 21 all ave/time 10 10 100 v_boxx v_boxy v_boxz v_boxp v_boxt file lattice.out
thermo_style custom step temp pe ke etotal press lx ly lz press pxx pyy pzz pxy pxz pyz vol
thermo_modify flush yes
thermo 100
run 100000
PPPM initialization ...
  G vector (1/distance) = 0.352152
  grid = 8 8 8
  stencil order = 5
  estimated absolute RMS force accuracy = 3.96483e-05
  estimated relative force accuracy = 2.75342e-06
  using double precision FFTs
  3d grid and FFT values/proc = 3375 512
Memory usage per processor = 3.06549 Mbytes
Step Temp PotEng KinEng TotEng Press Lx Ly Lz Press Pxx Pyy Pzz Pxy Pxz Pyz Volume 
       0         1700   -109.05204    1.5381957   -107.51385    20566.823    4.3066964    4.3066964    4.3066964    20566.823     30088.72    19918.794    11692.957   -604.08992   -2280.5787     6156.527    79.879026 
     100     593.1946   -107.86565   0.53673494   -107.32891    20116.403    4.3381526    4.3381526    4.3381526    20116.403    36715.251    21824.273    1809.6841   -9527.3788    8909.6572   -6640.2068    81.642159 
     200    860.51541   -107.67806   0.77861243   -106.89945   -17241.274    4.3849944    4.3849944    4.3849944   -17241.274    11743.886   -25177.621   -38290.088   -9244.0265    10074.466   -1911.3896    84.315444 
     300    1812.0809    -108.1679    1.6396089   -106.52829   -25985.404    4.3910457    4.3910457    4.3910457   -25985.404    24035.256   -42057.522   -59933.948    17278.506    9888.7108    4253.7461    84.664992 
     400    1513.6265   -107.58817     1.369561   -106.21861   -7533.1678    4.3696444    4.3696444    4.3696444   -7533.1678    25459.332   -16410.398   -31648.437   -22082.085   -4872.4588   -6443.3156    83.433081 
     500    1754.2505   -107.61477    1.5872827   -106.02748    30676.006    4.3682122    4.3682122    4.3682122    30676.006    94162.074    17546.095   -19680.153    1575.8917    23447.732    18861.978    83.351071 
     600    1673.1321   -107.45983    1.5138851   -105.94595   -20280.523    4.3901543    4.3901543    4.3901543   -20280.523   -17634.546   -7774.0645   -35432.957   -13606.328   -9935.4438   -25807.257    84.613442 
     700    1443.7188   -107.20658    1.3063071   -105.90027    2951.7397    4.4050249    4.4050249    4.4050249    2951.7397    70971.842   -10910.404   -51206.219   -39359.685    3872.5975     18925.17    85.476182 
     800    2033.4229   -107.71464    1.8398838   -105.87476   -7872.7793    4.3986902    4.3986902    4.3986902   -7872.7793   -15652.686    6794.1526   -14759.805    7345.8398    16915.568   -1073.0196    85.107951 
     900    1471.9069   -107.20598    1.3318123   -105.87416    10221.116    4.3668169    4.3668169    4.3668169    10221.116    1364.0629   -41259.162    70558.445   -647.02881   -7766.1556    2343.0105    83.271223 
    1000    1742.3385   -107.48786    1.5765045   -105.91135    3827.4598    4.3693081    4.3693081    4.3693081    3827.4598   -3279.0864    45723.431   -30961.965   -9381.1902   -3652.3127    15986.212     83.41382 
    1100    1392.2659    -107.1849    1.2597515   -105.92515    4822.5834    4.4020535    4.4020535    4.4020535    4822.5834   -44342.624   -3069.4603    61879.835    4278.0454    8521.8979    3957.7043    85.303322 
    1200    1919.0697   -107.63205    1.7364145   -105.89564   -44002.333    4.4017668    4.4017668    4.4017668   -44002.333   -58594.568   -47473.964   -25938.467    -3842.129   -5191.2256    12118.758    85.286657 
    1300    1449.2861   -107.19514    1.3113445   -105.88379    30152.784    4.3745903    4.3745903    4.3745903    30152.784    -17922.39    80658.464    27722.279   -11508.488   -14203.985    20288.034    83.716713 
    1400    1974.8294   -107.70218    1.7868671   -105.91531   -7027.4698    4.3691835    4.3691835    4.3691835   -7027.4698   -44525.593   -15286.695    38729.879   -21320.307    11024.963   -13968.176    83.406685 
    1500    1667.3173   -107.46463    1.5086238   -105.95601    11000.058    4.3865509    4.3865509    4.3865509    11000.058   -40454.385    65055.363    8399.1957     12551.19   -11726.262    22454.533    84.405259 
    1600    1717.9342   -107.49272     1.554423   -105.93829   -27927.529     4.397603     4.397603     4.397603   -27927.529   -62790.075   -18086.677   -2905.8347   -6696.2305    16076.546    6881.4992    85.044856 
    1700    1842.5805   -107.56448    1.6672055   -105.89727    3643.9545    4.3769523    4.3769523    4.3769523    3643.9545   -52072.946    66506.127   -3501.3172   -31683.525    2122.6875    4289.3638    83.852388 
    1800    1476.5827   -107.23291     1.336043   -105.89686    25585.008    4.3744952    4.3744952    4.3744952    25585.008    17056.765    49843.956    9854.3033    20599.876     4133.785    9599.4502    83.711251 
    1900    1818.5636   -107.55448    1.6454746   -105.90901   -45085.598    4.3913641    4.3913641    4.3913641   -45085.598   -78729.968     2718.223   -59245.049   -25223.529    8378.1535   -7217.7085     84.68341 
    2000    1792.1109   -107.51922    1.6215396   -105.89768    26317.073    4.3954561    4.3954561    4.3954561    26317.073    -19715.07    23922.968     74743.32   -1623.8159   -5659.1902   -19100.734    84.920363 
    2100    1111.4701   -106.93081    1.0056815   -105.92513   -1875.9237    4.3815638    4.3815638    4.3815638   -1875.9237   -26925.135   -43189.895    64487.259   -10111.001   -742.35459    14721.167    84.117708 
    2200     1444.496   -107.25644    1.3070103   -105.94943    11406.472    4.3643183    4.3643183    4.3643183    11406.472   -36020.209    36740.094    33499.532   -16486.753    24275.832   -18192.987    83.128369 
    2300    2365.3738   -108.10292      2.14024   -105.96268   -5342.2011    4.3799853    4.3799853    4.3799853   -5342.2011   -32328.878    18238.891   -1936.6164   -1780.7482   -5213.5563    9166.5708    84.026828 
    2400    1425.5625    -107.2505    1.2898789   -105.96062   -27337.629    4.3921863    4.3921863    4.3921863   -27337.629   -80158.541   -13311.114    11456.769   -26184.623    22258.786    12901.754    84.730987 
    2500    1458.1782   -107.25078    1.3193903   -105.93139    27777.407    4.3856834    4.3856834    4.3856834    27777.407   -34544.348    77514.373    40362.196    18561.284    1546.9379   -3447.3495    84.355195 
    2600    2325.9692   -108.02789    2.1045858   -105.92331   -32363.736    4.3806091    4.3806091    4.3806091   -32363.736   -53114.958    170.40081    -44146.65    579.21302    24060.035   -2201.7339    84.062733 
    2700    1513.4297   -107.31264     1.369383   -105.94326    8091.9714    4.3807043    4.3807043    4.3807043    8091.9714   -28138.981    81208.824   -28793.928    293.85341    1552.8889    12207.196    84.068211 
    2800    1509.7494   -107.30114     1.366053   -105.93508   -14176.368    4.3961719    4.3961719    4.3961719   -14176.368   -9901.4412   -22015.291   -10612.371   -10646.308   -10327.702   -11664.531    84.961855 
    2900    2080.9179   -107.79209    1.8828583   -105.90923    10572.406    4.3787838    4.3787838    4.3787838    10572.406   -28332.974    94542.571    -34492.38     10690.57    8042.0767    6716.4999    83.957694 
    3000    1387.0105   -107.17228    1.2549962   -105.91728    38581.534    4.3663232    4.3663232    4.3663232    38581.534    20750.622     44479.35    50514.631     12907.41    98.642965    2526.2054    83.242982 
    3100    1572.2076   -107.35027    1.4225665   -105.92771   -11661.867    4.3752849    4.3752849    4.3752849   -11661.867    26833.518    10818.221   -72637.339    653.71114    13002.674    9209.9458    83.756595 
    3200     1897.928   -107.64472    1.7172851   -105.92744   -5592.6566    4.3824341    4.3824341    4.3824341   -5592.6566    705.83745   -24167.419    6683.6112    10804.182    703.38743   -7198.0158    84.167841 
    3300    1655.3682   -107.43416     1.497812   -105.93635   -10941.345    4.3825366    4.3825366    4.3825366   -10941.345    30346.105   -37827.238   -25342.903    4148.9215    1224.2742   -8345.2385    84.173747 
    3400    1458.2175   -107.25643    1.3194258   -105.93701    8025.0766    4.3721212    4.3721212    4.3721212    8025.0766    11938.601    46951.519   -34814.891    9032.0205    7049.6007   -12469.875    83.575038 
    3500      2163.55   -107.88803    1.9576255   -105.93041    7960.6817    4.3642797    4.3642797    4.3642797    7960.6817    7699.5704    20829.127   -4646.6517    22053.012   -15501.374    13082.301    83.126159 
    3600    1680.4592   -107.46015    1.5205148   -105.93963   -5533.0104    4.3691831    4.3691831    4.3691831   -5533.0104    48169.109   -23860.103   -40908.037   -6465.0896    26991.942   -14137.141    83.406663 
    3700    1261.1859   -107.08588    1.1411475   -105.94474   -28353.959    4.3846042    4.3846042    4.3846042   -28353.959   -62120.908    14010.617   -36951.586    8135.9657   -481.12592   -6491.0289    84.292939 
    3800    1629.1043   -107.39752    1.4740478   -105.92347     14511.54    4.3802993    4.3802993    4.3802993     14511.54    6129.0478    36284.581     1120.991    -6528.161   -13991.256    14780.777      84.0449 
    3900    1891.9578   -107.62728    1.7118832   -105.91539    6179.0387    4.3703831    4.3703831    4.3703831    6179.0387    49183.474    2731.1521    -33377.51   -8095.4769    17428.867   -11124.831    83.475401 
    4000    1523.5605   -107.30682    1.3785496   -105.92827    20424.385    4.3759712    4.3759712    4.3759712    20424.385   -9792.2536    81025.883   -9960.4746   -7897.1406   -11985.888    3706.7703    83.796016 
    4100    1848.3195   -107.58609    1.6723983   -105.91369     4634.405    4.3902605    4.3902605    4.3902605     4634.405    37634.425   -2967.9589   -20763.251    26274.711    8307.0676   -1382.4232     84.61958 
    4200     1200.066     -106.987    1.0858449   -105.90115   -28318.524    4.4059064    4.4059064    4.4059064   -28318.524    -80181.69     31098.97   -35872.853    -6502.846   -22911.893   -9503.1234    85.527506 
    4300    2522.2239   -108.15571    2.2821612   -105.87355    -26976.09    4.3845375    4.3845375    4.3845375    -26976.09   -19164.277    3113.5057   -64877.498    6757.8794   -926.27048    13203.445    84.289088 
    4400    1326.8297    -107.0739    1.2005434   -105.87336    67708.865    4.3502881    4.3502881    4.3502881    67708.865    55155.325    105165.69    42805.582   -3890.5357   -26351.496    -9632.857    82.329228 
    4500    1421.6355   -107.24373    1.2863256   -105.95741   -19464.664    4.3797531    4.3797531    4.3797531   -19464.664   -38279.566    38427.994    -58542.42    14188.857   -17264.202    22010.448    84.013461 
    4600    2025.1502   -107.75427    1.8323985   -105.92187   -8961.3683    4.4074437    4.4074437    4.4074437   -8961.3683   -40080.476    32385.431   -19189.061   -1078.3927    6586.5253    3831.2902    85.617063 
    4700     1479.965   -107.23084    1.3391035   -105.89174    13646.279    4.4128661    4.4128661    4.4128661    13646.279   -5194.1202    77004.734   -30871.776   -2105.8405   -35470.504   -3868.0201     85.93345 
    4800    2009.1918   -107.67469    1.8179589   -105.85673   -32868.869    4.4132045    4.4132045    4.4132045   -32868.869   -4776.3024   -47564.487   -46265.817    2967.7472   -3262.3761    15307.495    85.953222 
    4900    1638.9546   -107.34053    1.4829605   -105.85757   -23561.332    4.3739463    4.3739463    4.3739463   -23561.332   -75226.114    65983.416   -61441.299    11048.531   -47806.597   -1040.4435    83.679742 
    5000    1610.3887   -107.32342    1.4571135   -105.86631    77726.961    4.3465666    4.3465666    4.3465666    77726.961    100725.48    73524.283     58931.12   -11218.872    3162.2404   -603.71597    82.118124 
    5100    2033.4113   -107.79676    1.8398733   -105.95689   -44758.154    4.3906393    4.3906393    4.3906393   -44758.154    -29345.36   -16407.063    -88522.04    21178.803   -19864.293     22473.52    84.641484 
    5200    1744.6903   -107.48171    1.5786324   -105.90308   -29812.935    4.4260938    4.4260938    4.4260938   -29812.935   -24119.924    -26632.92   -38685.961   -10140.594   -4741.9152   -13030.651    86.708535 
    5300    1477.6344   -107.19408    1.3369946   -105.85708   -22284.328    4.4090506    4.4090506    4.4090506   -22284.328   -25303.761   -1793.4017   -39755.821   -4975.2548   -401.92181   -7086.5151    85.710739 
    5400     1809.083   -107.45173    1.6368963   -105.81484    24521.606    4.3685563    4.3685563    4.3685563    24521.606    38697.882    36850.023    -1983.086   -18496.233   -22366.188   -5664.3904    83.370768 
    5500    1956.9507   -107.64761    1.7706902   -105.87692    5267.2353    4.3623237    4.3623237    4.3623237    5267.2353    37300.529   -4685.8285   -16812.995    4773.4887     19780.65   -4.6954496    83.014446 
    5600    1305.9307   -107.12125    1.1816335   -105.93962    31352.245    4.3811188    4.3811188    4.3811188    31352.245    112099.24    4076.6643   -22119.169    14809.664   -28249.906    12820.114    84.092076 
    5700    1769.1239   -107.52247    1.6007405   -105.92173    -13946.54    4.4080701    4.4080701    4.4080701    -13946.54   -5376.2096   -20103.322    -16360.09    11563.355    3149.8349   -10541.306    85.653571 
    5800     1662.783   -107.39998     1.504521   -105.89546   -5802.5939    4.3884666    4.3884666    4.3884666   -5802.5939    37594.777   -2277.7245   -52724.834   -19566.528   -4349.1921    10184.813    84.515893 
    5900    1860.5331   -107.55445    1.6834494     -105.871    30037.035     4.365723     4.365723     4.365723    30037.035    12668.862    28341.119    49101.123    15318.718   -14398.441     9397.553    83.208662 
    6000    1558.4236    -107.3186    1.4100944    -105.9085   -21863.956       4.3764       4.3764       4.3764   -21863.956   -4644.2233   -18969.398   -41978.245    4390.8261    16546.911   -14636.103    83.820652 
    6100    1617.3913   -107.39113    1.4634496   -105.92768    22023.108    4.3920057    4.3920057    4.3920057    22023.108    31569.463    59405.971   -24906.109    2312.3025   -14475.848    15599.479    84.720534 
    6200     1817.758   -107.55692    1.6447456   -105.91218   -45968.449     4.408393     4.408393     4.408393   -45968.449   -12387.821   -22818.256   -102699.27    8628.9544    15030.671    1354.8839    85.672393 
    6300    1800.8084   -107.51868    1.6294093   -105.88928    7914.5654    4.3849054    4.3849054    4.3849054    7914.5654    -17385.89     122381.5   -81251.914    16467.206   -6663.3415     31037.44    84.310309 
    6400    2259.5945   -107.94502    2.0445286    -105.9005   -18478.879    4.3773951    4.3773951    4.3773951   -18478.879   -16591.696   -12777.906   -26067.034   -16473.984    11619.302   -17892.364    83.877841 
    6500    916.28349   -106.76185   0.82907256   -105.93277    38167.573    4.3734082    4.3734082    4.3734082    38167.573     20499.66       158904   -64900.945    5509.2555    64.432826    9065.3719    83.648865 
    6600    2236.1261   -107.95493    2.0232939   -105.93164    4102.3514    4.3827242    4.3827242    4.3827242    4102.3514   -19270.377    54223.318   -22645.887    1627.0027    10124.902   -2949.0889    84.184555 
    6700    1643.2049   -107.42909    1.4868064   -105.94229   -108.89144    4.3898492    4.3898492    4.3898492   -108.89144   -26056.168    21670.884    4058.6098   -662.57199    11095.193    2702.9819    84.595802 
    6800    1725.3951    -107.4817    1.5611738   -105.92052   -40330.103    4.3860291    4.3860291    4.3860291   -40330.103   -27355.691   -29095.698   -64538.918   -7985.0629    9327.6204    37889.476    84.375146 
    6900    1670.9732   -107.40508    1.5119316   -105.89314    27382.173    4.3472579    4.3472579    4.3472579    27382.173   -29598.783    93808.563     17936.74    12832.924    17046.103    11165.027    82.157312 
    7000    1559.0441   -107.33892    1.4106558   -105.92827    2768.1059    4.3617848    4.3617848    4.3617848    2768.1059    16058.711     23897.21   -31651.604   -6505.7581    1202.0417   -22358.987    82.983681 
    7100    1103.5101   -106.93139   0.99847917   -105.93291   -11293.581    4.3834767    4.3834767    4.3834767   -11293.581   -63089.058    92275.587   -63067.274    19165.927    20896.457    13567.475    84.227924 
    7200    2031.0039    -107.7535     1.837695   -105.91581   -24903.429    4.3784527    4.3784527    4.3784527   -24903.429   -42005.591    2032.3113   -34737.009    5330.2921   -3011.7313   -28011.312    83.938649 
    7300     1221.312   -107.02925    1.1050688   -105.92418   -5305.3224    4.3699989    4.3699989    4.3699989   -5305.3224    -31440.66     52100.04   -36575.347   -14237.588    -1393.137   -195.96596    83.453387 
    7400    2319.5169   -108.01005    2.0987477    -105.9113    1192.8907    4.3565329    4.3565329    4.3565329    1192.8907   -20565.535    32359.507      -8215.3    21729.898    4008.4294   -1000.8327    82.684291 
    7500    1582.7669   -107.36113    1.4321207   -105.92901    2594.0819    4.3563892    4.3563892    4.3563892    2594.0819   -11863.501    17218.725    2427.0219     711.4023   -21583.858   -15211.634    82.676109 
    7600     1187.187   -107.00916    1.0741917   -105.93496    23172.223    4.3643009    4.3643009    4.3643009    23172.223    1654.2469    119174.47   -51312.048    2608.0813    6262.5594    21393.299    83.127373 
    7700    2178.4789   -107.88716    1.9711335   -105.91602    1524.3017    4.3704306    4.3704306    4.3704306    1524.3017    8777.8808   -10964.196    6759.2204     8262.363    2229.8366   -7846.2905    83.478126 
    7800    1016.2995   -106.85008   0.91956914   -105.93051    12533.888    4.3637599    4.3637599    4.3637599    12533.888   -18688.981     90014.21   -33723.564     784.7265   -14334.277   -20178.381    83.096461 
    7900    2602.5385   -108.26526    2.3548315   -105.91043   -2434.7088    4.3574931    4.3574931    4.3574931   -2434.7088   -18055.563     26908.35   -16156.914   -4162.5448    4717.8455    21227.856    82.738973 
    8000     1217.596   -107.03116    1.1017065   -105.92946    12726.682    4.3603394    4.3603394    4.3603394    12726.682   -6800.3251    86862.316   -41881.945    -3710.798    379.83348   -23383.871    82.901213 
    8100    1719.0672   -107.48158    1.5554482   -105.92613   -18422.865    4.3652078    4.3652078    4.3652078   -18422.865   -53398.713    29002.767   -30872.648    346.84476    7657.4362   -306.62262    83.179207 
    8200    2127.4612   -107.84021    1.9249716   -105.91524    -1387.578    4.3592233    4.3592233    4.3592233    -1387.578   -55377.654    28912.913    22302.007   -17755.113    1190.8208    5852.8281    82.837569 
    8300     1237.608   -107.05356    1.1198137   -105.93375    5837.1811    4.3479055    4.3479055    4.3479055    5837.1811   -7841.6092    97298.691   -71945.539    9255.1404   -5416.0962   -26943.648    82.194034 
    8400    2011.8304   -107.75951    1.8203464   -105.93917   -10314.342    4.3612328    4.3612328    4.3612328   -10314.342   -29726.487    9517.7027   -10734.242     1775.919   -39.716539   -5387.8621    82.952179 
    8500    1680.3596   -107.46373    1.5204247    -105.9433   -19352.742     4.357869     4.357869     4.357869   -19352.742   -72609.378    24835.444   -10284.293   -8017.3265     7815.173   -2200.1531    82.760386 
    8600    1308.9014   -107.12969    1.1843215   -105.94537    22402.265    4.3502049    4.3502049    4.3502049    22402.265    -19235.34    67631.794     18810.34    7540.0132   -2737.9427   -23087.187    82.324507 
    8700    2317.1211   -108.02012    2.0965798   -105.92354    9464.4527    4.3643851    4.3643851    4.3643851    9464.4527   -259.21119   -4474.3718    33126.941   -290.11529    3524.5967    24473.692    83.132186 
    8800    973.04787   -106.81192   0.88043416   -105.93148   -12879.467    4.3660128    4.3660128    4.3660128   -12879.467   -35350.342    22973.141   -26261.199   -3440.7792    858.70525   -31015.052    83.225234 
    8900    2201.5558   -107.91341    1.9920139   -105.92139    7837.8501    4.3498326    4.3498326    4.3498326    7837.8501   -1093.6054   -11523.348    36130.504    6064.6639   -3124.1157   -266.21819     82.30337 
    9000    1841.2017   -107.59066     1.665958    -105.9247    45781.725    4.3420712    4.3420712    4.3420712    45781.725   -2300.7067    83953.352    55692.529   -2822.8036    6430.2884    11689.309    81.863596 
    9100    1447.2524   -107.24813    1.3095044   -105.93862   -39110.734    4.3634158    4.3634158    4.3634158   -39110.734   -57772.177   -20801.424   -38758.602    5846.8471   -21080.609   -17927.842    83.076808 
    9200    1454.7433   -107.23506    1.3162823   -105.91877    324.69254     4.369502     4.369502     4.369502    324.69254   -19782.394    10349.112     10407.36    4421.5266    4319.7577    20678.428    83.424923 
    9300    1900.2099   -107.62722    1.7193498   -105.90787   -11333.282    4.3578831    4.3578831    4.3578831   -11333.282    -31758.69    27587.631   -29828.787    419.19799    3214.8275   -2041.9503    82.761189 
    9400    1851.2154   -107.58853    1.6750186   -105.91351    23927.752    4.3486476    4.3486476    4.3486476    23927.752   -8293.4585    48147.835    31928.878    10706.844   -15847.589   -23947.879    82.236127 
    9500    1826.6476   -107.57738    1.6527891   -105.92459    16017.261    4.3587193    4.3587193    4.3587193    16017.261   -30268.078    51261.015    27058.846   -7564.9409    4587.5849    15074.057    82.808842 
    9600    1194.6765   -107.00193    1.0809684   -105.92096   -15091.254    4.3750109    4.3750109    4.3750109   -15091.254   -18522.594    39624.927   -66376.095   -2089.2435   -17071.602   -19854.607    83.740859 
    9700    1939.1793   -107.65324    1.7546102   -105.89863   -1492.5263    4.3604486    4.3604486    4.3604486   -1492.5263    4380.2505   -19725.476    10867.647    6448.1199    -3021.871   -2720.7458    82.907441 
    9800    2304.5722   -107.97826    2.0852254   -105.89303    19119.739    4.3474455    4.3474455    4.3474455    19119.739   -10588.589     43827.27    24120.537    11.753493   -18504.004    10686.494    82.167948 
    9900    1597.7476   -107.37197    1.4456756   -105.92629   -4465.0399    4.3624633    4.3624633    4.3624633   -4465.0399    16443.503   -19044.426   -10794.197   -4387.6962   -9800.1311    -21147.23    83.022412 
   10000    1399.8606   -107.19493    1.2666233   -105.92831   -11741.029    4.3793594    4.3793594    4.3793594   -11741.029    158.76761   -51480.227    16098.373    6589.0615    7181.6149    28712.912    83.990811 
   10100    1984.3465   -107.70793    1.7954784   -105.91246    9419.1326    4.3691394    4.3691394    4.3691394    9419.1326   -51226.893    40757.065    38727.226   -630.11765   -33710.369    5687.8029    83.404156 
   10200    1674.5054   -107.43521    1.5151276   -105.92008    16449.422     4.344058     4.344058     4.344058    16449.422     39453.57   -4541.2157    14435.912   -7681.3212    11682.331    24441.452    81.976026 
   10300    1569.8034   -107.35906    1.4203911   -105.93867    39991.598    4.3430805    4.3430805    4.3430805    39991.598    13488.944    73900.727    32585.122    5360.9061   -18472.245    7888.4651    81.920697 
   10400    2056.5857   -107.79811     1.860842   -105.93727   -29282.536    4.3738046    4.3738046    4.3738046   -29282.536   -28143.199   -25148.588   -34555.822   -1145.2407   -13306.925   -3426.1391    83.671613 
   10500    1326.7437   -107.12706    1.2004656   -105.92659   -3722.4092    4.3760404    4.3760404    4.3760404   -3722.4092   -352.47713    23025.765   -33840.515    8231.3333    12543.511    19291.917    83.799991 
   10600    1752.2873   -107.49015    1.5855064   -105.90464    17308.118     4.360958     4.360958     4.360958    17308.118    25886.663    -20455.68    46493.371    1253.9532   -16710.442   -7905.8157    82.936504 
   10700    1956.7126    -107.6776    1.7704747   -105.90712    -26491.84    4.3569783    4.3569783    4.3569783    -26491.84   -4994.0991   -22725.519   -51755.902   -2159.2498   -2156.8611    27782.509    82.709652 
   10800    1856.5803   -107.58801    1.6798729   -105.90814    29276.822    4.3549042    4.3549042    4.3549042    29276.822    61145.481   -7801.8313    34486.816    16192.027    5062.3238   -13324.476    82.591591 
   10900    1416.6902   -107.20661    1.2818511   -105.92475   -13021.814    4.3703965    4.3703965    4.3703965   -13021.814   -37080.738   -18151.714    16167.011   -7423.2623   -6071.3244   -2604.8751    83.476173 
   11000    2056.4455   -107.77143    1.8607151   -105.91071   -10119.674    4.3673254    4.3673254    4.3673254   -10119.674   -35651.233   -30617.578    35909.788   -12705.217    4939.6736   -817.89696    83.300318 
   11100    1345.1462   -107.13968    1.2171165   -105.92256    2844.8371    4.3530492    4.3530492    4.3530492    2844.8371    47407.932    -20218.14   -18655.281    19657.295   -2662.0866   -30266.075    82.486094 
   11200    2095.4414   -107.83053    1.8959994   -105.93453   -20807.236    4.3643166    4.3643166    4.3643166   -20807.236    54.463347   -25025.012    -37451.16   -22208.332   -5717.0416   -6529.7295    83.128268 
   11300     1841.236   -107.59185    1.6659891   -105.92586    6505.9335    4.3757045    4.3757045    4.3757045    6505.9335    47454.262   -25258.664   -2677.7976    16266.891     4895.016   -18421.472    83.780692 
   11400    1046.8176   -106.87095   0.94718258   -105.92377   -32223.081    4.3784809    4.3784809    4.3784809   -32223.081   -68338.023   -60255.195    31923.975    10838.845    -20054.83   -4968.7744    83.940271 
   11500    2194.4035      -107.88    1.9855424   -105.89445    32625.802    4.3559158    4.3559158    4.3559158    32625.802    72708.427    33183.817   -8014.8369   -10131.165    417.56474    -2656.828    82.649156 
   11600    1217.6292   -107.03416    1.1017365   -105.93243    24301.725    4.3634336    4.3634336    4.3634336    24301.725    45156.408    1755.8975     25992.87     26365.59   -9438.2568    -25336.82    83.077824 
   11700    2511.4815   -108.17845    2.2724413   -105.90601   -10632.929    4.3834474    4.3834474    4.3834474   -10632.929   -9494.1323   -18903.206   -3501.4475    -17473.33    -11438.64    3550.4092    84.226236 
   11800    984.87877   -106.81245   0.89113901   -105.92131   -16150.968    4.3857418    4.3857418    4.3857418   -16150.968    2050.2845   -39921.789     -10581.4    5333.0888    1258.4707   -23724.038    84.358567 
   11900    1703.4874    -107.4423    1.5413512   -105.90095    13355.159    4.3667145    4.3667145    4.3667145    13355.159    18848.714    4529.7697    16686.992     10413.92   -25939.929    4883.2899    83.265365 
   12000    1995.7145   -107.71812    1.8057645   -105.91236    4361.9012    4.3670282    4.3670282    4.3670282    4361.9012    106159.36   -64445.428   -28628.225   -200.03903   -1148.9424    -23504.33     83.28331 
   12100    1766.1694   -107.52707    1.5980672     -105.929   -23704.344      4.37558      4.37558      4.37558   -23704.344   -16602.164   -34989.322   -19521.548    21357.004   -9203.3243   -5616.7773    83.773542 
   12200    1609.8958   -107.37345    1.4566676   -105.91678    3416.0117    4.3804877    4.3804877    4.3804877    3416.0117     73553.52   -26531.928   -36773.557    7053.0218     -14885.8   -8730.7047    84.055742 
   12300    1545.3292   -107.31384    1.3982464    -105.9156   -32395.804    4.3773473    4.3773473    4.3773473   -32395.804   -47176.425   -57759.919    7748.9316    29232.473    3300.3101     -20634.1     83.87509 
   12400    1701.2076   -107.45182    1.5392884   -105.91254    29083.355    4.3573494    4.3573494    4.3573494    29083.355    110004.42   -41039.075     18284.72   -8621.4227   -5958.6044    7502.9883    82.730786 
   12500    1533.0487   -107.32867    1.3871347   -105.94153    15852.014     4.362848     4.362848     4.362848    15852.014    26367.383   -44205.045    65393.703    2740.9864   -5474.3494   -33937.025    83.044383 
   12600    2058.0321   -107.80314    1.8621507   -105.94099    -17949.61     4.388639     4.388639     4.388639    -17949.61   -14076.604   -58073.202    18300.976    3395.0399   -22352.725    17407.173    84.525858 
   12700    1384.1607    -107.1681    1.2524177   -105.91568    -20448.59    4.3887706    4.3887706    4.3887706    -20448.59    290.27561   -56384.304   -5251.7414     215.7841   -15677.888   -20946.277    84.533461 
   12800    1710.5557   -107.44754    1.5477468   -105.89979    3134.0501    4.3714415    4.3714415    4.3714415    3134.0501    53120.506   -57425.542    13707.187    7365.0617   -2781.7334    -15747.88    83.536064 
   12900    2344.5457    -108.0417    2.1213942   -105.92031   -4407.5991    4.3580848    4.3580848    4.3580848   -4407.5991   -2744.7072   -29125.403    18647.313    13877.219    15453.098    5044.9311    82.772684 
   13000    1704.4562   -107.49585    1.5422278   -105.95362    9605.8386    4.3578337    4.3578337    4.3578337    9605.8386    18917.188    8972.9268    927.40117    6913.9923    7926.8291   -43230.255    82.758376 
   13100    1851.7708   -107.63017    1.6755212   -105.95464   -30281.826    4.3896772    4.3896772    4.3896772   -30281.826   -21441.343   -49449.043   -19955.092    14313.055    6851.4096     20399.58    84.585856 
   13200    1478.4823   -107.24637    1.3377619   -105.90861   -9303.3201    4.3915798    4.3915798    4.3915798   -9303.3201    34513.636    -49356.86   -13066.737    2121.3752    -6894.979   -21038.353    84.695892 
   13300    2121.2635   -107.79114    1.9193638   -105.87178    13005.244    4.3804411    4.3804411    4.3804411    13005.244   -28097.018    24009.649    43103.102   -10436.897   -1954.9995    3064.7089    84.053062 
   13400     1456.325   -107.19938    1.3177134   -105.88167    -3908.318    4.3697983    4.3697983    4.3697983    -3908.318    52813.393   -20037.096   -44501.251   -79.948898    11748.028   -29553.569      83.4419 
   13500    1981.8216    -107.6838    1.7931938   -105.89061    18254.289    4.3633376    4.3633376    4.3633376    18254.289    32708.465    34125.408   -12071.007   -2394.1323   -21531.062   -7129.8897    83.072343 
   13600    1553.6376   -107.31367    1.4057639    -105.9079     10492.59    4.3887722    4.3887722    4.3887722     10492.59   -9289.6879    9652.5163    31114.943   -15834.594    4874.9907   -21037.806    84.533551 
   13700    1233.5347   -106.99954    1.1161282   -105.88342   -13395.695    4.3989656    4.3989656    4.3989656   -13395.695    27330.414   -30964.247   -36553.252   -1389.0796    2582.7114   -33080.375    85.123934 
   13800    1905.9048   -107.57361    1.7245027    -105.8491    13855.202    4.3758808    4.3758808    4.3758808    13855.202    16904.892    39383.996   -14723.282   -13126.077   -23568.757    530.57396    83.790822 
   13900    1709.7179   -107.42025    1.5469887   -105.87326    -11222.29    4.3689952    4.3689952    4.3689952    -11222.29    25211.517   -51315.919   -7562.4677   -641.38721    558.23494   -50573.971    83.395899 
   14000    2245.9483    -107.9144    2.0321812   -105.88222   -4922.1145    4.3797157    4.3797157    4.3797157   -4922.1145   -42744.958    17988.713    9989.9019   -28012.681   -10630.404     16955.56    84.011311 
   14100    1248.6459   -107.03018    1.1298011   -105.90038   -28216.072    4.3757179    4.3757179    4.3757179   -28216.072    1593.7168   -57954.237   -28287.697   -10690.749   -4444.8478   -51172.849    83.781464 
   14200    1895.2996   -107.60769    1.7149069   -105.89279    19962.456    4.3648047    4.3648047    4.3648047    19962.456    13735.027    230.95559    45921.384   -3546.5442    6718.1033     -701.791    83.156167 
   14300    2027.3248    -107.7437    1.8343661   -105.90933   -7300.6213     4.366003     4.366003     4.366003   -7300.6213   -7587.0768   -39582.776    25267.989   -21125.774   -2998.1954   -28798.739     83.22467 
   14400    1333.2936   -107.13299     1.206392    -105.9266    24387.926    4.3730598    4.3730598    4.3730598    24387.926    20808.266   -5794.4371    58149.948    1616.3955   -13674.904   -37025.497    83.628874 
   14500    2117.0534   -107.83593    1.9155544   -105.92038   -12885.714    4.3833653    4.3833653    4.3833653   -12885.714   -59828.818    34824.652   -13652.975   -10980.963    2066.3011    25977.184    84.221504 
   14600    1284.8364    -107.1006     1.162547   -105.93805   -1279.1398    4.3668724    4.3668724    4.3668724   -1279.1398    16120.583   -25934.946    5976.9434    2426.9043   -205.81798   -58699.373    83.274397 
   14700    2265.1589   -107.99528    2.0495634   -105.94571    7891.9103    4.3575386    4.3575386    4.3575386    7891.9103   -7967.7497    2205.4978    29437.983   -884.37695   -7236.8326    17558.812    82.741562 
   14800    1820.4469   -107.60042    1.6471786   -105.95324    962.84239    4.3775034    4.3775034    4.3775034    962.84239   -16900.734     15164.31    4624.9514    4030.7721      2054.32   -36343.882    83.884066 
   14900    1619.0171   -107.39926    1.4649207   -105.93434   -9240.4178    4.3928526    4.3928526    4.3928526   -9240.4178   -42040.766   -8222.8205    22542.333    10073.835   -2904.1237   -21652.046    84.769553 
   15000     1984.585   -107.69947    1.7956942   -105.90378   -24313.405    4.3922121    4.3922121    4.3922121   -24313.405   -41435.015   -43970.217    12465.018    4041.9033   -1186.6887    3444.9555    84.732477 
   15100    1652.0652    -107.4039    1.4948233   -105.90908   -13876.655    4.3875776    4.3875776    4.3875776   -13876.655    12179.709   -42436.102   -11373.573   -1142.1289    -322.0827   -31690.936    84.464545 
   15200    1844.3489   -107.57635    1.6688057   -105.90755   -7527.2134    4.3726629    4.3726629    4.3726629   -7527.2134   -26067.126   -15010.789    18496.274    16459.867   -5551.2422    8513.6641    83.606107 
   15300      1281.67   -107.08573    1.1596819   -105.92605    11972.672    4.3732559    4.3732559    4.3732559    11972.672    143.60168    3980.4651    31793.949   -7899.3767   -6599.4713   -35317.739    83.640125 
   15400    1767.9784   -107.51835     1.599704   -105.91864   -8786.2105    4.3876092    4.3876092    4.3876092   -8786.2105     25300.02    -22007.62   -29651.032    8452.1024   -332.23029   -5025.6176    84.466364 
   15500    1253.1726   -107.04352    1.1338969   -105.90962   -17185.209    4.3971684    4.3971684    4.3971684   -17185.209   -41770.776   -21076.117    11291.265    257.99359     16727.32   -12106.105    85.019647 
   15600    1856.6037   -107.56429     1.679894    -105.8844   -249.09676    4.3958472    4.3958472    4.3958472   -249.09676     5598.638   -44151.734    37805.805     -7267.44    1904.8822   -22657.638    84.943033 
   15700    2345.0673   -108.01042    2.1218662   -105.88856    -1238.253    4.3816689    4.3816689    4.3816689    -1238.253   -42280.276   -18512.239    57077.756   -2447.3964    4183.2658    16853.714    84.123761 
   15800    1498.4629   -107.28716    1.3558407   -105.93132   -13484.382    4.3673904    4.3673904    4.3673904   -13484.382    33457.866   -33814.133   -40096.879   -1688.0226    -4693.009   -52985.961    83.304034 
   15900     2292.452   -108.04161    2.0742588   -105.96735     10861.67    4.3742352    4.3742352    4.3742352     10861.67    -16736.72    25266.377    24055.354   -2831.1182    685.14868    9553.5155    83.696328 
   16000     1910.193   -107.72405    1.7283827   -105.99567     -54718.9    4.3917079    4.3917079    4.3917079     -54718.9   -63065.348   -68789.888   -32301.462   -8118.4341   -1366.5261   -26759.856      84.7033 
   16100     1131.039   -107.00727    1.0233878   -105.98388   -3162.6117    4.3785133    4.3785133    4.3785133   -3162.6117    7062.3448   -24072.375    7522.1951    3924.5457    4901.6371   -44335.038    83.942136 
   16200     1783.021   -107.56486    1.6133149   -105.95155     60079.65     4.362499     4.362499     4.362499     60079.65    9971.7243    21513.732    148753.49   -1011.7878   -5725.9592    15921.888    83.024451 
   16300    651.59394   -106.57392   0.58957589   -105.98434    2894.5735    4.3770471    4.3770471    4.3770471    2894.5735   -14140.275   -34770.009    57594.005   -1266.6343    3860.0264   -38531.621     83.85784 
   16400    1450.5729   -107.28636    1.3125089   -105.97385    4644.4559    4.3882463    4.3882463    4.3882463    4644.4559   -61896.386    10950.496    64879.257      10624.1   -5667.6073   -9368.8579    84.503168 
   16500    1620.7532   -107.42468    1.4664915   -105.95818     25267.62    4.3868017    4.3868017    4.3868017     25267.62    25317.096   -19532.596    70018.361    4209.8866    2145.3539   -6902.7496    84.419742 
   16600    1833.5576   -107.60699    1.6590414   -105.94795   -11885.562    4.3831955    4.3831955    4.3831955   -11885.562   -27029.688   -16534.056    7907.0569    6213.5653    11292.778   -23435.874    84.211718 
   16700    1331.7817   -107.13561    1.2050241   -105.93059    39160.892    4.3829401    4.3829401    4.3829401    39160.892    20933.344    18576.904    77972.429    19007.238    8883.7958    7484.6495    84.196996 
   16800    2125.0095   -107.83925    1.9227533   -105.91649   -32913.859    4.3818167    4.3818167    4.3818167   -32913.859   -12164.067    -27200.46    -59377.05   -1894.6186   -5265.4876   -61786.575    84.132274 
   16900    1287.7364   -107.08724     1.165171   -105.92207    662.77353    4.3786197    4.3786197    4.3786197    662.77353   -5896.8745    3371.9789    4513.2162    21576.277    4266.4862    4659.1905    83.948257 
   17000    1732.4255   -107.48519     1.567535   -105.91765   -30019.642     4.387302     4.387302     4.387302   -30019.642    1246.9001   -32071.487    -59234.34   -67.271979     15027.68   -43666.857    84.448626 
   17100    1778.6183   -107.51392    1.6093312   -105.90458   -1902.9966    4.3825544    4.3825544    4.3825544   -1902.9966   -10942.129    570.32558     4662.814    1857.7428    3548.2839   -18704.096    84.174771 
   17200    1469.3413   -107.24893    1.3294909   -105.91944    16035.397    4.3746915    4.3746915    4.3746915    16035.397    33890.242   -34716.376    48932.326    33246.364    4910.7175    6884.9238    83.722519 
   17300    1974.8115   -107.72173     1.786851   -105.93488   -43267.691    4.3809958    4.3809958    4.3809958   -43267.691   -37480.253   -29244.782   -63078.037   -6777.8878    3070.4423   -38758.597    84.084998 
   17400     1367.862   -107.18484    1.2376703   -105.94717    39981.235    4.3733419    4.3733419    4.3733419    39981.235     42037.56    20109.809    57796.336    18812.076   -8003.8121    16391.747    83.645058 
   17500    1982.4567   -107.73661    1.7937685   -105.94284   -2100.4388    4.3803934    4.3803934    4.3803934   -2100.4388   -22797.072   -30339.365    46835.121    5258.1945   -3778.4161   -14324.493    84.050316 
   17600    1458.0634   -107.26301    1.3192864   -105.94373    11171.511     4.382831     4.382831     4.382831    11171.511    30612.589   -44069.819    46971.763    3704.3705    12421.211   -18943.175     84.19071 
   17700    1766.6469   -107.53866    1.5984993   -105.94016    9662.1319     4.378615     4.378615     4.378615    9662.1319    28095.085   -10414.042    11305.352    221.14229   -1758.8965    21767.688    83.947988 
   17800    1729.3815   -107.51992    1.5647807   -105.95514    6399.8477    4.3758126    4.3758126    4.3758126    6399.8477     2484.367   -26614.012    43329.188   -8357.8207    5487.2095    -24816.56    83.786904 
   17900    1525.6436   -107.34913    1.3804344    -105.9687    24731.835    4.3824868    4.3824868    4.3824868    24731.835    13479.033   -21108.046    81824.519    19853.328    14785.257    13820.692    84.170874 
   18000    1932.5648   -107.70122    1.7486252    -105.9526   -5176.7632    4.4005581    4.4005581    4.4005581   -5176.7632   -12700.041    30350.332   -33180.581    801.31652   -12906.173    4385.2505    85.216417 
   18100    1337.2872   -107.12992    1.2100056   -105.91991    1158.7615    4.4012789    4.4012789    4.4012789    1158.7615   -48891.528   -29287.708    81655.521    7766.2836   -4983.3773    4219.7975    85.258302 
   18200    1955.0701   -107.66224    1.7689885   -105.89325    8935.3752    4.3785265    4.3785265    4.3785265    8935.3752    52577.934   -50560.229    24788.421     14980.85   -11271.566    24925.358    83.942893 
   18300    2022.8134   -107.74121     1.830284   -105.91093    -15486.52    4.3814738    4.3814738    4.3814738    -15486.52   -50641.885     2634.238    1548.0861    4191.5725    15437.408   -4875.9659    84.112524 
   18400    1155.7834   -106.97188    1.0457771    -105.9261    21530.541    4.3913311    4.3913311    4.3913311    21530.541    49905.925   -48041.302    62726.999    14076.011   -5312.5708    18838.039      84.6815 
   18500    2396.6315   -108.09608    2.1685226   -105.92756   -24218.322    4.3920609    4.3920609    4.3920609   -24218.322   -26209.456   -13318.024   -33127.486    12605.933    19812.825    7900.2636    84.723729 
   18600    1247.0897    -107.0604    1.1283929   -105.93201    31876.597    4.3813851    4.3813851    4.3813851    31876.597    23023.922    50466.776    22139.093   -28627.969    23137.399   -5029.2971    84.107415 
   18700    2064.2136   -107.79439    1.8677438   -105.92665   -12545.403    4.3916765    4.3916765    4.3916765   -12545.403   -6757.3604   -23470.299   -7408.5494    26859.765   -16942.928    21224.274    84.701485 
   18800     1175.473   -106.98009    1.0635927    -105.9165    12184.725    4.3967113    4.3967113    4.3967113    12184.725   -16219.553    89602.368   -36828.641   -21773.435    17764.933   -12265.839    84.993135 
   18900    2279.2695   -107.95484     2.062331   -105.89251   -20618.892    4.3893998    4.3893998    4.3893998   -20618.892    21119.388   -24346.074    -58629.99   -13579.757   -3696.1855    22463.478    84.569824 
   19000    1605.9477   -107.35825    1.4530952   -105.90515    31.910994    4.3930471    4.3930471    4.3930471    31.910994   -34349.733    95365.849   -60920.383   -8709.6473    18993.675   -4268.6741    84.780813 
   19100     1784.339   -107.52744    1.6145075   -105.91293   -33064.573    4.4022035    4.4022035    4.4022035   -33064.573   -5553.2796   -35136.404   -58504.035   -13221.989   -13588.027    360.53375    85.312041 
   19200    1790.0468   -107.52057     1.619672    -105.9009    12803.928     4.381778     4.381778     4.381778    12803.928    4879.8359      25154.8    8377.1468      31752.8    14926.552     22144.34    84.130043 
   19300    1966.3993   -107.68545    1.7792394   -105.90621   -13051.302    4.3772977    4.3772977    4.3772977   -13051.302   -45547.887    28044.279   -21650.298   -19614.236    18591.349   -5837.6687     83.87224 
   19400    1328.4068    -107.1254    1.2019704   -105.92343    11952.395    4.4049921    4.4049921    4.4049921    11952.395   -13657.041   -16665.853    66180.077    5567.2569   -24098.392    8017.0366    85.474271 
   19500    1758.9452   -107.47779    1.5915306   -105.88626   -28144.732    4.4125486    4.4125486    4.4125486   -28144.732   -41592.562   -51881.589    9039.9537    16246.595    5982.7537    11776.696    85.914903 
   19600    1859.8973   -107.54094    1.6828742   -105.85806   -6234.8899    4.3896437    4.3896437    4.3896437   -6234.8899   -47895.755    12544.856    16646.229    -12925.16    8676.4766   -7062.1094    84.583922 
   19700    1712.5126   -107.41446    1.5495174   -105.86494    24576.303    4.3764941    4.3764941    4.3764941    24576.303    72763.471   -25084.292    26049.732    18049.851   -20893.155    3707.0476    83.826055 
   19800    1490.4836   -107.27321    1.3486209   -105.92459   -9294.1704    4.3969367    4.3969367    4.3969367   -9294.1704   -8414.9386    3382.2992   -22849.872   -19355.966    32323.771    1229.1474    85.006207 
   19900    2176.9417   -107.86587    1.9697426   -105.89613   -47285.945    4.4262143    4.4262143    4.4262143   -47285.945   -77899.358    -17092.85   -46865.626   -10217.158   -12766.832   -12424.047    86.715618 
   20000    1601.9018   -107.31323    1.4494344    -105.8638   -34597.724    4.4102695    4.4102695    4.4102695   -34597.724    -55466.49   -50006.523    1679.8391   -22216.615    30330.937    -2768.417    85.781844 
   20100    1870.8613   -107.52023    1.6927946   -105.82743    26547.476    4.3752387    4.3752387    4.3752387    26547.476   -8106.5069    46039.906     41709.03    5997.4428    9771.1781    2204.3991    83.753944 
   20200    1673.7961   -107.39103    1.5144859   -105.87655    14444.143    4.3909783    4.3909783    4.3909783    14444.143   -47033.605    39126.292    51239.742   -4969.7721    6918.8161   -6173.0774    84.661093 
   20300    1570.6284   -107.30664    1.4211376    -105.8855   -24614.249    4.4139138    4.4139138    4.4139138   -24614.249   -41373.924   -68922.293     36453.47   -26992.552    31459.582     6787.276    85.994669 
   20400    2364.4903   -108.00653    2.1394406   -105.86709   -36860.638     4.411827     4.411827     4.411827   -36860.638   -51560.843   -15346.594   -43674.478    15135.072   -8220.2566    1078.8821    85.872763 
   20500    1370.0997   -107.11401     1.239695   -105.87432   -21451.662    4.3882811    4.3882811    4.3882811   -21451.662   -92537.494   -53152.011    81334.518   -51025.289    10527.687     1619.935    84.505176 
   20600    2000.1571   -107.68595    1.8097842   -105.87616    24333.188    4.3624515    4.3624515    4.3624515    24333.188    13160.362   -1647.5173     61486.72    15675.076     24448.37   -1242.3048    83.021743 
   20700    1382.4397   -107.19076    1.2508605    -105.9399    14496.091    4.3765768    4.3765768    4.3765768    14496.091   -30343.379   -35041.777    108873.43   -27304.382   -15100.239    33287.833    83.830811 
   20800    1496.8268   -107.29457    1.3543604   -105.94021    -39041.81    4.4091941    4.4091941    4.4091941    -39041.81   -83388.168   -14067.188   -19670.075    5790.4959    37295.781    5343.7795    85.719112 
   20900    1549.7453   -107.29142    1.4022422   -105.88917    22566.478     4.391614     4.391614     4.391614    22566.478   -7742.3872   -6622.9774    82064.797   -22621.375   -5015.3562    5828.7699    84.697871 
   21000    2051.2438   -107.72134    1.8560085   -105.86534   -261.67106    4.3712965    4.3712965    4.3712965   -261.67106    3747.7481   -1851.5444   -2681.2169   -20299.751    13618.833    12459.508    83.527755 
   21100    1413.6237   -107.16545    1.2790764   -105.88638    26551.851    4.3616707    4.3616707    4.3616707    26551.851   -82.087906    44388.876    35348.764   -2534.7678    13858.436   -20639.008    82.977172 
   21200    1636.1465   -107.39262    1.4804197    -105.9122    33087.203    4.3663358    4.3663358    4.3663358    33087.203     85491.87   -52639.262        66409   -36034.779   -191.64443   -1902.3734    83.243704 
   21300    2217.7848    -107.9144    2.0066983    -105.9077   -22949.983    4.3933945    4.3933945    4.3933945   -22949.983   -36645.278   -22740.705   -9463.9654    11043.147    22101.978    3585.8783     84.80093 
   21400    940.54259   -106.74715    0.8510227   -105.89613    6614.6062    4.3848757    4.3848757    4.3848757    6614.6062   -2668.6604   -37551.534    60064.013   -46696.397    22048.544   -13659.667    84.308596 
   21500    2034.0925   -107.70839    1.8404896    -105.8679    27711.236    4.3621016    4.3621016    4.3621016    27711.236    60254.644    7635.0414    15244.022    19851.353   -4004.1771   -8338.1314    83.001767 
   21600    1554.6813   -107.30837    1.4067083   -105.90166   -15209.158    4.3748115    4.3748115    4.3748115   -15209.158   -34189.172   -45072.492     33634.19   -47169.785    2925.6854    844.64601     83.72941 
   21700    1907.8789   -107.62053     1.726289   -105.89424    616.47617    4.3840508    4.3840508    4.3840508    616.47617    15754.928   -13170.474   -735.02539   -1213.6671   -4893.9144    -12945.11    84.261026 
   21800    1233.8024   -107.03415    1.1163704   -105.91778   -18933.893    4.3780082    4.3780082    4.3780082   -18933.893   -11501.997   -35235.594   -10064.088    9566.6372    7766.4598    17225.029    83.913087 
   21900     1987.726   -107.71586    1.7985363   -105.91732    4826.4304    4.3646543    4.3646543    4.3646543    4826.4304   -13648.379    6612.0764    21515.594   -37994.608    9172.2373   -11444.775    83.147568 
   22000    1660.5067   -107.42478    1.5024614   -105.92232   -12377.858    4.3805854    4.3805854    4.3805854   -12377.858   -30719.629   -27825.711    21411.767    43062.645    -7962.976   -2499.2878    84.061366 
   22100    1758.3046   -107.50026    1.5909509   -105.90931   -23040.892    4.3734899    4.3734899    4.3734899   -23040.892   -26188.176   -48503.919    5569.4174    -39558.68    20270.228   -6945.1025    83.653553 
   22200    1773.7425   -107.50504    1.6049195   -105.90012    20115.757    4.3720844    4.3720844    4.3720844    20115.757    14778.343   -2441.7598    48010.689    28501.436   -5856.8013    8183.9157    83.572926 
   22300    980.92065   -106.80289   0.88755762   -105.91533   -11667.199    4.3864962    4.3864962    4.3864962   -11667.199   -67098.287   -35855.737    67952.426   -27054.653    9803.3485    20614.108    84.402104 
   22400    2397.7452   -108.06553    2.1695303     -105.896   -20948.703    4.3862995    4.3862995    4.3862995   -20948.703   -45000.841   -20910.457    3065.1884    8890.9384   -3399.5108   -3563.4258     84.39075 
   22500    1540.5134     -107.306    1.3938889   -105.91211    -39978.08    4.3939309    4.3939309    4.3939309    -39978.08   -65195.813   -28827.525   -25910.902    -9388.268   -22488.306   -11673.526    84.831993 
   22600    1786.1405    -107.5288    1.6161375   -105.91266    9353.8371    4.3782438    4.3782438    4.3782438    9353.8371   -44259.099    22216.234    50104.377   -22799.375   -4735.0544    4607.9804    83.926639 
   22700    1325.8212   -107.13479    1.1996309   -105.93516    17634.647    4.3757111    4.3757111    4.3757111    17634.647   -41861.422     10940.17    83825.194    11546.264   -20200.438   -4911.9868    83.781071 
   22800     1679.563   -107.45741    1.5197039    -105.9377    -19238.82    4.3980541    4.3980541    4.3980541    -19238.82   -59051.987    406.84757    928.67817   -44283.806    5762.3935   -16940.088    85.071035 
   22900    2292.0021   -107.98037    2.0738517   -105.90652   -38463.797    4.3994989    4.3994989    4.3994989   -38463.797   -69771.515    -41225.62   -4394.2547     25554.17   -509.82743    17232.769    85.154902 
   23000    1154.3464   -106.96427    1.0444768   -105.91979   -2818.4287    4.3754868    4.3754868    4.3754868   -2818.4287    -58130.27    1686.0798    47988.904   -41099.291    -10907.54    5038.0197    83.768189 
   23100    2365.1822   -108.05296    2.1400666   -105.91289     13306.56    4.3676414    4.3676414    4.3676414     13306.56   -12157.429    22195.856    29881.253    25606.518    10210.466    7788.6835    83.318398 
   23200    1388.8029   -107.19995    1.2566181   -105.94333   -52362.839    4.3881522    4.3881522    4.3881522   -52362.839   -106511.72   -47618.412   -2958.3817     -33513.6   -15341.394    475.35357    84.497734 
   23300    1770.7274   -107.51902    1.6021914   -105.91683    22181.961    4.3767501    4.3767501    4.3767501    22181.961   -3542.1272     34692.95    35395.062   -2068.8611    4480.5547   -21317.224     83.84077 
   23400    1670.7191   -107.43377    1.5117017   -105.92207    282.33617     4.368423     4.368423     4.368423    282.33617   -26064.759     4803.033    22108.735   -9261.4098   -2690.0489    3618.0397    83.363139 
   23500    1798.5566   -107.55305    1.6273718   -105.92568    4425.9056    4.3731229    4.3731229    4.3731229    4425.9056   -39460.758    36239.761    16498.714   -18597.041   -1927.7219   -27530.977    83.632492 
   23600    1827.3904   -107.57215    1.6534612   -105.91869    17760.154    4.3846055    4.3846055    4.3846055    17760.154   -73.195058    55406.149   -2052.4906    6810.4158    11595.092   -112.60075    84.293013 
   23700    1923.7178    -107.6511    1.7406203   -105.91048   -7080.6162    4.3818536    4.3818536    4.3818536   -7080.6162   -54246.124    52152.941   -19148.666   -26792.609   -17868.868    10322.868    84.134396 
   23800    1808.6736   -107.55474    1.6365259   -105.91822    5628.6219    4.3715323    4.3715323    4.3715323    5628.6219   -29881.321    22029.585    24737.602   -3411.3752    9756.5295    -16915.01    83.541268 
   23900     1792.117   -107.54632    1.6215451   -105.92478    6658.6404    4.3591904    4.3591904    4.3591904    6658.6404   -19804.066    67021.274   -27241.287   -323.36581    16180.549    13261.135    82.835694 
   24000    1741.7705   -107.51281    1.5759906   -105.93682    22798.069     4.372435     4.372435     4.372435    22798.069   -29432.376    66520.284    31306.301   -36805.023     -18250.6    8375.0314    83.593031 
   24100    2226.2787   -107.94191    2.0143837   -105.92753   -43021.492    4.3891968    4.3891968    4.3891968   -43021.492   -71789.938   -12628.645   -44645.895    5652.9549    31921.141    111.16383     84.55809 
   24200    1600.6323   -107.35403    1.4482857   -105.90575    22940.424    4.3777673    4.3777673    4.3777673    22940.424   -41340.358    82610.929    27550.701   -13745.958   -25041.109   -8169.7597    83.899236 
   24300    1518.1496   -107.28079    1.3736537   -105.90714    -39329.63    4.3801109    4.3801109    4.3801109    -39329.63   -41351.225   -11700.647   -64937.019   -14823.488     32827.52    36697.314    84.034055 
   24400    1926.1253   -107.64267    1.7427986   -105.89987   -5075.3408    4.3624122    4.3624122    4.3624122   -5075.3408   -43777.458    57410.165    -28858.73    6735.6286    2562.0498   -23174.257    83.019499 
   24500     1658.449    -107.4175    1.5005995    -105.9169   -444.87747    4.3652851    4.3652851    4.3652851   -444.87747   -51038.011    169.03052    49534.348   -33324.646   -753.53581    28224.643    83.183625 
   24600    1486.3674   -107.28041    1.3448964   -105.93552    -46912.88    4.3805617    4.3805617    4.3805617    -46912.88   -72104.402    22267.779   -90902.017    1939.8003    39757.567    21316.542    84.060004 
   24700    2255.1403    -107.9563    2.0404984    -105.9158    11524.013    4.3640804    4.3640804    4.3640804    11524.013   -11795.505    23262.303    23105.242    -15740.27   -13336.354   -11603.668    83.114773 
   24800    1281.0718   -107.10392    1.1591407   -105.94478    3605.1779    4.3610105    4.3610105    4.3610105    3605.1779   -28659.643    54330.027    -14854.85   -13762.714    42589.536    20918.013    82.939499 
   24900    2042.3099   -107.78427     1.847925   -105.93634    6090.3867    4.3819942    4.3819942    4.3819942    6090.3867   -5776.3091    56977.348   -32929.879    10036.106   -19501.154   -17277.423    84.142494 
   25000     1422.513   -107.20505    1.2871196   -105.91793   -4644.0231    4.3872393    4.3872393    4.3872393   -4644.0231   -47609.703    42038.256   -8360.6216    -11761.34    37937.021    399.28312    84.445004 
   25100    1314.1733   -107.09729    1.1890916   -105.90819    10736.992    4.3759496    4.3759496    4.3759496    10736.992    24363.616   -3043.4068    10890.766   -1228.7769    23597.155    18778.194    83.794773 
   25200    2005.4676   -107.71193    1.8145892   -105.89734    9517.5239    4.3710009    4.3710009    4.3710009    9517.5239   -11606.717    45454.942   -5295.6529   -978.22249    13859.648    1151.5433    83.510811 
   25300    1630.0183   -107.40386    1.4748748   -105.92898   -16144.658    4.3698941    4.3698941    4.3698941   -16144.658   -58846.162   -25438.648    35850.837   -24597.008    40323.007   -4810.7102    83.447386 
   25400     1816.543   -107.57647    1.6436463   -105.93282    4300.1111    4.3694785    4.3694785    4.3694785    4300.1111    21041.692    26543.096   -34684.454   -1827.8982    -6893.308    20504.699    83.423582 
   25500     1460.956   -107.26669    1.3219037   -105.94479    29745.914    4.3760132    4.3760132    4.3760132    29745.914   -23351.653    18213.414    94375.982   -5290.3397     31224.57    4916.3699    83.798427 
   25600    1761.7956   -107.53354    1.5941097   -105.93943   -31186.371    4.3851226    4.3851226    4.3851226   -31186.371   -41388.822    -43291.82   -8878.4699   -12851.492     9741.856    17038.893    84.322837 
   25700    1826.0486   -107.56944    1.6522471   -105.91719    12573.891    4.3814264    4.3814264    4.3814264    12573.891   -12596.071    23322.234    26995.511    8386.6693    22194.886    7182.8705    84.109795 
   25800     1395.953   -107.17272    1.2630876   -105.90963   -17269.582    4.3849031    4.3849031    4.3849031   -17269.582   -37446.524    -1342.351   -13019.873   -4201.3671    12087.524    1585.6287    84.310175 
   25900     1870.854   -107.60387     1.692788   -105.91108   -21023.052    4.3819459    4.3819459    4.3819459   -21023.052    10722.959   -53989.443   -19802.671   -3501.1085   -3032.2922    25351.416    84.139716 
   26000    1909.7571   -107.63683    1.7279883   -105.90884    18706.506    4.3800893    4.3800893    4.3800893    18706.506   -32501.706    55016.787    33604.437    17235.557    1515.3911   -931.63559    84.032809 
   26100     1306.424   -107.10453    1.1820799   -105.92245    2869.6245     4.382504     4.382504     4.382504    2869.6245    23822.057    19915.092   -35128.275    -12325.19   -240.63193    30060.113    84.171865 
   26200    1686.4338   -107.43338    1.5259207   -105.90746    27898.257    4.3858958    4.3858958    4.3858958    27898.257   -34341.184    84126.732    33909.224    11626.648   -16353.235    11730.188    84.367449 
   26300     1840.047   -107.58276    1.6649132   -105.91785   -42141.621    4.3908296    4.3908296    4.3908296   -42141.621   -33163.303   -47551.969   -45709.591   -19178.617    16756.789    11655.846    84.652492 
   26400    1386.3955   -107.16849    1.2544398   -105.91405   -3464.8236    4.3779662    4.3779662    4.3779662   -3464.8236    16317.573   -3034.7699   -23677.274    5182.3423   -13863.837     20221.97    83.910676 
   26500    1951.2544   -107.67276     1.765536   -105.90723    9809.0386    4.3670386    4.3670386    4.3670386    9809.0386   -18529.077    50864.295   -2908.1016    7728.4123    4563.9692   -6057.3643    83.283909 
   26600    1487.3453   -107.29399    1.3457812   -105.94821    -7858.127    4.3746952    4.3746952    4.3746952    -7858.127    36927.105   -46937.275   -13564.211   -17744.469   -5305.0725    19256.528    83.722731 
   26700    1649.5402   -107.43297    1.4925386   -105.94043   -8889.9545    4.3882883    4.3882883    4.3882883   -8889.9545   -43562.335    1384.8058    15507.666   -3236.7598   -32757.393    3593.0055    84.505593 
   26800    2209.7283   -107.91429    1.9994086   -105.91488   -15938.507     4.380957     4.380957     4.380957   -15938.507   -58965.228    22528.231   -11378.525    6541.2143    7133.1672    4291.4067    84.082763 
   26900    1165.2058   -106.97239    1.0543027   -105.91808    20523.459    4.3756542    4.3756542    4.3756542    20523.459   -8088.2896    37030.716    32627.951    -24581.74   -14071.016     10805.99    83.777805 
   27000    2141.5398   -107.84934    1.9377102   -105.91163   -11576.653    4.3765984    4.3765984    4.3765984   -11576.653    15653.126   -19951.461   -30431.623     8937.521   -28457.914    4012.7705    83.832051 
   27100    1426.5911   -107.20369    1.2908096   -105.91288    35165.935    4.3698314    4.3698314    4.3698314    35165.935    22107.555    30712.186    52678.064   -16244.355    8995.4681   -1127.5244    83.443792 
   27200    1523.6373   -107.30104     1.378619   -105.92242     4932.093    4.3814958    4.3814958    4.3814958     4932.093   -8655.1765    34454.922   -11003.466   -6192.1971   -25246.935   -11437.887    84.113787 
   27300     2010.164   -107.71199    1.8188386   -105.89316   -12703.488    4.3904539    4.3904539    4.3904539   -12703.488   -46666.806   -11701.442    20257.783    14197.221     3704.183   -8514.0077    84.630762 
   27400    1747.2778   -107.47348    1.5809736   -105.89251    -15967.38    4.3687825    4.3687825    4.3687825    -15967.38    5401.7704   -15697.007   -37606.902   -18118.309    -18580.47    5358.0576    83.383719 
   27500    1208.7259   -106.99724    1.0936806   -105.90356    36119.504    4.3587809    4.3587809    4.3587809    36119.504    5513.1276     94670.74    8174.6445     3497.556   -10387.155    18362.227    82.812352 
   27600    1915.5279    -107.6462    1.7332099   -105.91299     -22695.5    4.3810902    4.3810902    4.3810902     -22695.5   -59623.038    19248.281   -27711.745   -6508.3957    10369.218   -27625.279    84.090433 
   27700    1635.2755   -107.37851    1.4796316   -105.89888    -23882.65     4.391883     4.391883     4.391883    -23882.65   -35958.741    11798.522   -47487.731    -2797.265   -35554.633    22329.453    84.713434 
   27800    2250.0428   -107.91081     2.035886   -105.87492   -13945.447    4.3777553    4.3777553    4.3777553   -13945.447   -43036.485      21735.9   -20535.757   -244.72097    17740.272    2862.0084    83.898549 
   27900    1165.9716   -106.96919    1.0549956    -105.9142   -17968.091    4.3656983    4.3656983    4.3656983   -17968.091   -89466.119    9241.1641    26320.681   -17585.209   -17794.255    5840.1693     83.20725 
   28000    1947.4167    -107.6837    1.7620635   -105.92164    32367.173    4.3494534    4.3494534    4.3494534    32367.173   -15329.905    51857.795    60573.629    2355.6568   -1691.9211    20655.291    82.281848 
   28100    1465.2113   -107.28231     1.325754   -105.95656   -16980.707     4.372026     4.372026     4.372026   -16980.707    -64123.77   -19426.006    32607.657   -3339.5422   -2082.1599   -15628.128    83.569577 
   28200    1833.7332   -107.58295    1.6592003   -105.92375   -21100.441    4.3790625    4.3790625    4.3790625   -21100.441   -88979.162    30215.263   -4537.4229   -26904.208   -6267.3491    25041.331    83.973727 
   28300    1269.8125   -107.07375    1.1489531    -105.9248    19888.429    4.3657407    4.3657407    4.3657407    19888.429   -57218.223    77984.353    38899.156    17124.794    21689.323    15485.254    83.209675 
   28400    1466.0953   -107.26261    1.3265538   -105.93606    20698.047    4.3691279    4.3691279    4.3691279    20698.047   -21766.357    18173.601    65686.896   -17561.114    1732.1331    78.515891    83.403501 
   28500    1907.2008   -107.64919    1.7256753   -105.92351    4722.3941    4.3918208    4.3918208    4.3918208    4722.3941   -60489.053    63255.917    11400.319   -3413.2055    30887.686   -12326.002    84.709833 
   28600    1047.4649   -106.84813   0.94776825   -105.90036   -32914.533    4.3880814    4.3880814    4.3880814   -32914.533   -104369.92    -55753.89    61380.216   -27688.398    13144.082    335.19474    84.493639 
   28700    1882.9753   -107.55819    1.7037556   -105.85444    48907.217    4.3563567    4.3563567    4.3563567    48907.217     4911.197    109731.87    32078.587    5116.9054    16603.069   -23841.219    82.674256 
   28800    1884.4797   -107.60023    1.7051168   -105.89511   -5969.7947     4.371922     4.371922     4.371922   -5969.7947   -24002.175    2833.4255    3259.3654   -9329.8781    26999.079   -4248.1972    83.563613 
   28900    1591.5982   -107.35291    1.4401115   -105.91279   -11140.557    4.3886592    4.3886592    4.3886592   -11140.557   -25759.003   -5165.2591   -2497.4097    4533.4714   -1516.6769    8886.3128    84.527024 
   29000    1561.8631   -107.32157    1.4132066   -105.90836   -1634.6834    4.3971223    4.3971223    4.3971223   -1634.6834   -22309.284    38311.559   -20906.325   -3448.5678    16837.779    14221.957    85.016975 
   29100    1421.8431   -107.19248    1.2865135   -105.90596   -21450.546    4.3716569    4.3716569    4.3716569   -21450.546   -21981.469   -59247.794    16877.625   -24289.059    8614.5214    23010.548    83.548414 
   29200      2074.41   -107.75455    1.8769698   -105.87759    41454.992    4.3450107    4.3450107    4.3450107    41454.992    35915.101     64820.56    23629.315    18767.256   -12565.032   -16368.878     82.02997 
   29300    1475.9943   -107.26255    1.3355106   -105.92703   -21702.506    4.3754831    4.3754831    4.3754831   -21702.506   -46322.492   -10369.442   -8415.5849   -19769.352    7347.0646    15365.383    83.767976 
   29400    1298.6874   -107.08246    1.1750797   -105.90738   -14351.423    4.3916696    4.3916696    4.3916696   -14351.423   -74141.684    23299.377    7788.0389     1775.653    646.90535    10848.811    84.701088 
   29500    2134.0679   -107.80661    1.9309495   -105.87566   -5411.2912    4.3932089    4.3932089    4.3932089   -5411.2912   -34918.815    10017.211    8667.7304    5993.6847   -12040.644    3352.6702    84.790182 
   29600    1753.7746   -107.45178    1.5868521   -105.86493   -37713.229    4.3869263    4.3869263    4.3869263   -37713.229   -65313.201    -43986.81   -3839.6756   -22528.596   -11276.812     11123.38    84.426932 
   29700    1747.3864   -107.43879     1.581072   -105.85771    16088.872    4.3620849    4.3620849    4.3620849    16088.872   -43135.468    46375.992    45026.091    11950.798   -2029.5621   -19115.786    83.000814 
   29800    1658.5257   -107.39674    1.5006689   -105.89607    8199.5134     4.359603     4.359603     4.359603    8199.5134   -7225.7277     35008.53   -3184.2625   -18635.613   -8189.5632    16161.627    82.859217 
   29900    1871.6516   -107.62216    1.6935097   -105.92865   -15433.814    4.3764172    4.3764172    4.3764172   -15433.814   -19630.949   -53958.158    27287.666   -7900.7698     3008.921   -10379.366    83.821641 
   30000    1599.4039   -107.37239    1.4471743   -105.92521   -33196.176     4.387951     4.387951     4.387951   -33196.176   -11241.724   -19512.939   -68833.865    19367.346   -4430.5457    -11858.72     84.48611 
   30100    1230.9316   -107.02964    1.1137727   -105.91587   -21893.808    4.3713914    4.3713914    4.3713914   -21893.808   -84455.246   -21278.202    40052.023   -43359.454     1385.532    10510.736    83.533195 
   30200    2078.1883   -107.77915    1.8803885   -105.89876    15445.586    4.3493586    4.3493586    4.3493586    15445.586    29073.819   -26097.763      43360.7     4273.129   -5836.7207   -793.93815    82.276471 
   30300    1348.0842   -107.15988    1.2197749    -105.9401   -1683.3155    4.3746326    4.3746326    4.3746326   -1683.3155     -13303.7   -28474.822    36728.575   -11770.144    14984.867   -8509.5502     83.71914 
   30400    1897.6108   -107.60943    1.7169982   -105.89244     -45686.1    4.4039029    4.4039029    4.4039029     -45686.1   -63575.422   -74499.711    1016.8319   -27620.391    4233.4016    7422.9668    85.410881 
   30500    1494.1691   -107.23373    1.3519556   -105.88177    12719.046    4.3716244    4.3716244    4.3716244    12719.046    76048.661   -36150.559   -1740.9634    14536.036    20384.057   -32266.513    83.546549 
   30600    1660.5569   -107.38119    1.5025068   -105.87868    20634.424    4.3383297    4.3383297    4.3383297    20634.424    19894.034     20866.08    21143.159   -44046.152    2108.3433    3368.6092    81.652158 
   30700    2461.3623   -108.16724    2.2270924   -105.94015   -11778.214    4.3689814    4.3689814    4.3689814   -11778.214    27059.636    -36774.52   -25619.758    20885.198   -9039.8458    -3567.852    83.395108 
   30800    1640.9765    -107.3973      1.48479   -105.91251    -56283.65    4.4071941    4.4071941    4.4071941    -56283.65   -73318.315   -47991.178   -47541.457   -27695.899   -8647.1353   -5819.8399    85.602515 
   30900    1718.8304   -107.42719    1.5552339   -105.87196   -61554.305    4.3967915    4.3967915    4.3967915   -61554.305   -97531.245   -40792.386   -46339.284   -7570.4757    13777.016    1810.8523    84.997785 
   31000    1866.7478   -107.55844    1.6890726   -105.86937    4186.2549    4.3582867    4.3582867    4.3582867    4186.2549    65828.771   -38771.889   -14498.117     18804.03   -23947.657   -19382.148    82.784184 
   31100     2119.665   -107.80422    1.9179175    -105.8863    23101.233    4.3415098    4.3415098    4.3415098    23101.233    63048.819   -5060.0694    11314.949   -21117.751    21308.948    4232.7291    81.831848 
   31200    1258.6228   -107.10662    1.1388283    -105.9678   -324.61967    4.3690251    4.3690251    4.3690251   -324.61967    47298.583   -44297.079   -3975.3628    27392.518    16873.825   -16421.638    83.397614 
   31300    1845.7131   -107.60262      1.67004   -105.93258   -30283.056    4.4026434    4.4026434    4.4026434   -30283.056   -35048.907   -39127.387   -16672.874   -3889.2741    5975.2964    5849.4821    85.337621 
   31400    1501.2207   -107.25883    1.3583361   -105.90049     5097.553    4.3870733    4.3870733    4.3870733     5097.553   -9696.3104   -46537.325    71526.295    7370.4939    38588.564   -9992.2207    84.435421 
   31500    1606.6374   -107.32803    1.4537193   -105.87431    27925.261    4.3723564    4.3723564    4.3723564    27925.261    584.97476      19452.4    63738.409    10367.568   -13025.097   -18407.264    83.588524 
   31600    1975.3114   -107.67314    1.7873033   -105.88584   -10938.425      4.37754      4.37754      4.37754   -10938.425   -66822.845    27023.758    6983.8126    10242.821    11952.181   -16218.668    83.886172 
   31700    1387.7032   -107.15683     1.255623    -105.9012   -9205.5943    4.3919749    4.3919749    4.3919749   -9205.5943   -68596.949    42446.861   -1466.6951    10270.891    5844.8547   -15777.587    84.718754 
   31800    2003.0282   -107.69959     1.812382   -105.88721   -2293.8221    4.3909319    4.3909319    4.3909319   -2293.8221   -40932.242    16822.563    17228.212     -16259.8   -23400.903    970.89979    84.658409 
   31900    1610.1421    -107.3658    1.4568904   -105.90891   -31131.295    4.3711587    4.3711587    4.3711587   -31131.295    -92790.75    30512.097   -31115.232    29788.816    50372.053    10446.335    83.519856 
   32000    1814.2909   -107.54543    1.6416085   -105.90382    51083.472    4.3443359    4.3443359    4.3443359    51083.472   -5.6105666    84169.056    69086.969   -11377.812   -22757.297    4132.6732    81.991755 
   32100    1720.4834   -107.50786    1.5567295   -105.95113    -29950.26    4.3710125    4.3710125    4.3710125    -29950.26   -34539.011   -2034.7781   -53276.991    32756.336    35123.985   -6670.6731    83.511473 
   32200    1806.4678   -107.53405      1.63453   -105.89952   -20943.164    4.4052986    4.4052986    4.4052986   -20943.164   -66921.663    35367.616   -31275.445    6489.7638    9129.5519    10884.515    85.492115 
   32300    1818.1487   -107.51903    1.6450992   -105.87393    4794.8153    4.3822441    4.3822441    4.3822441    4794.8153   -55435.306    12938.802    56880.949   -8266.3723    4104.4859   -5296.5175    84.156895 
   32400    1821.9422   -107.51671    1.6485316   -105.86818    6844.2973    4.3617866    4.3617866    4.3617866    6844.2973   -21252.517     34411.79    7373.6192    38944.134    27761.497    4572.9839    82.983784 
   32500    2016.5654   -107.71295    1.8246308   -105.88832    38803.293    4.3714186    4.3714186    4.3714186    38803.293    -6522.498     11070.23    111862.15   -5833.8384   -959.30742  -0.71835053    83.534754 
   32600    1100.8187   -106.90884   0.99604385   -105.91279   -16345.816    4.3911553    4.3911553    4.3911553   -16345.816   -61136.175    19521.754   -7423.0281    29974.995    11380.721   -13105.472    84.671334 
   32700    2233.5351   -107.90351    2.0209495   -105.88256   -22276.463    4.3918783    4.3918783    4.3918783   -22276.463   -53022.584   -26624.342    12817.538   -4374.2912    -2429.756    13265.148    84.713162 
   32800    1856.4175   -107.55307    1.6797256   -105.87334    29152.616    4.3684722    4.3684722    4.3684722    29152.616    14975.683    27084.338    45397.826    12873.534    11472.653   -1703.5947    83.365953 
   32900    1581.0687   -107.33547    1.4305842   -105.90488   -19695.958    4.3748311    4.3748311    4.3748311   -19695.958   -10851.599   -18009.076     -30227.2    15347.147    16277.982   -24744.701    83.730536 
   33000    2317.3246   -107.99496     2.096764    -105.8982    451.06024    4.3819127    4.3819127    4.3819127    451.06024    14910.743   -31734.954    18177.392   -32050.552   -86.818209     9969.857    84.137804 
   33100    1475.5304   -107.24114    1.3350909   -105.90605   -11698.342    4.3843475    4.3843475    4.3843475   -11698.342    -55721.58   -24420.111    45046.664    24810.516    32368.642   -32941.508    84.278133 
   33200    1898.1619   -107.60466    1.7174968   -105.88716    14857.358    4.3903646    4.3903646    4.3903646    14857.358   -4194.2409     -32880.2    81646.515   -5330.7176    1585.5971   -10110.683    84.625603 
   33300    1749.0196   -107.48122    1.5825497   -105.89867   -8913.6169    4.3771215    4.3771215    4.3771215   -8913.6169   -17003.038   -28610.041    18872.228    5647.0191    378.57918    -23770.37    83.862114 
   33400    1336.0652   -107.11838    1.2088999   -105.90948   -1710.4016    4.3627843    4.3627843    4.3627843   -1710.4016    -26387.31    34079.505     -12823.4    16860.802    36491.571   -34457.205    83.040743 
   33500    2016.2713   -107.73971    1.8243646   -105.91535    17390.003    4.3747691    4.3747691    4.3747691    17390.003    8041.9108   -777.69306    44905.791   -1667.4599   -10460.282    24111.732    83.726977 
   33600    1215.1519   -107.01968     1.099495   -105.92019   -28996.175    4.3994162    4.3994162    4.3994162   -28996.175   -48761.918    12873.814    -51100.42    26102.739    27827.684   -23514.826    85.150099 
   33700    1933.2117   -107.62998    1.7492106   -105.88077    8407.8055    4.3979423    4.3979423    4.3979423    8407.8055   -19939.641    26114.228     19048.83   -13236.389   -11557.749    1695.9077    85.064543 
   33800    1634.6351   -107.35301    1.4790522   -105.87396    8648.0387    4.3661537    4.3661537    4.3661537    8648.0387   -38866.264    40673.356    24137.024    29795.368    20280.843   -1345.5849    83.233287 
   33900    1230.3444   -107.02227    1.1132415   -105.90903    14455.043    4.3576917    4.3576917    4.3576917    14455.043    7489.7902     41948.99   -6073.6511    12911.669    26988.168    2398.0954    82.750287 
   34000     1848.466    -107.5879    1.6725309   -105.91537    27456.684    4.3749839    4.3749839    4.3749839    27456.684   -936.79543    39454.399    43852.447   -14779.842   -14702.311    8291.2942    83.739308 
   34100    1196.8545    -107.0135    1.0829391   -105.93056   -43949.017    4.3973944    4.3973944    4.3973944   -43949.017    -33347.26   -43630.493   -54869.298    32201.965    46676.112   -248.95368    85.032758 
   34200    2064.1088   -107.75636     1.867649   -105.88872   -6252.5496    4.3924993    4.3924993    4.3924993   -6252.5496    19926.061   -24710.879    -13972.83   -13326.833   -12509.183    -2747.833    84.749101 
   34300    1562.2585   -107.28548    1.4135643   -105.87192    63994.559    4.3529595    4.3529595    4.3529595    63994.559    66107.381    91239.955     34636.34   -4522.4596     26880.61   -7078.5571    82.480995 
   34400    1537.7186   -107.30864    1.3913601   -105.91728    14734.583    4.3685093    4.3685093    4.3685093    14734.583   -6905.9635    22762.236    28347.476    35885.637    14192.596   -10492.282    83.368077 
   34500    2286.9192   -107.94656    2.0692526    -105.8773   -26950.049    4.4003306    4.4003306    4.4003306   -26950.049    -32909.19   -23358.877   -24582.078   -3861.5417   -654.23947   -5967.1711    85.203205 
   34600     1229.291   -106.98642    1.1122883   -105.87414    16023.995    4.3804654    4.3804654    4.3804654    16023.995   -25485.402    36672.215    36885.173    26055.468    27434.616   -9778.2634    84.054462 
   34700    1850.2291   -107.54978    1.6741261   -105.87566    15599.228    4.3630597    4.3630597    4.3630597    15599.228   -20668.305    70846.386   -3380.3981    6330.8438   -19719.871   -32809.166    83.056471 
   34800    1527.4494   -107.29682    1.3820683   -105.91476    12259.086    4.3661948    4.3661948    4.3661948    12259.086   -36347.259    54811.285    18313.231    1034.7165    37066.805   -4755.9035     83.23564 
   34900    1600.6358   -107.37188    1.4482889   -105.92359   -4780.6596    4.3851514    4.3851514    4.3851514   -4780.6596   -1964.1947   -20760.546    8382.7617    39382.933   -14654.206   -9614.2963    84.324503 
   35000    1495.2424   -107.25448    1.3529267   -105.90156   -32034.265    4.3890887    4.3890887    4.3890887   -32034.265   -71804.263    27743.145   -52041.677   -5799.3439    51109.067   -11035.966    84.551844 
   35100    2252.9139   -107.91807    2.0384838   -105.87959   -7444.0916    4.3708688    4.3708688    4.3708688   -7444.0916   -11929.682   -14748.561    4345.9688    38537.628   -381.87622    2826.2927    83.503238 
   35200    1416.5375   -107.17087    1.2817129   -105.88916   -795.96995    4.3639231    4.3639231    4.3639231   -795.96995    40835.827   -3278.1386   -39945.599    4203.4037    47803.115   -10401.203    83.105786 
   35300     1893.421   -107.61917    1.7132072   -105.90596    2104.5919    4.3742205    4.3742205    4.3742205    2104.5919   -1441.7696    45399.507   -37643.962   -36076.629    17516.499    12163.132    83.695483 
   35400    1021.5225      -106.83   0.92429502    -105.9057    30511.196    4.3826207    4.3826207    4.3826207    30511.196    33280.953    54465.122    3787.5136   -12426.421    16324.832    11190.858    84.178591 
   35500    1306.1169   -107.07761     1.181802   -105.89581    27882.187    4.3911343    4.3911343    4.3911343    27882.187   -8617.7387    117529.15    -25264.85    -18594.99    17329.592    421.27398    84.670115 
   35600    1881.6837   -107.55814    1.7025869   -105.85555    17827.144    4.3872234    4.3872234    4.3872234    17827.144    27060.275    67715.856     -41294.7   -32227.997    1983.7357    9858.4292    84.444085 
   35700    914.77556    -106.6939   0.82770815   -105.86619   -387.05773     4.374015     4.374015     4.374015   -387.05773    -11619.17   -9629.8139    20087.811    15317.959    58201.485    3544.2434    83.683689 
   35800    1932.4856   -107.60775    1.7485536   -105.85919    37684.941    4.3680162    4.3680162    4.3680162    37684.941    34157.076     27560.75    51336.998   -27305.526   -16074.049    13881.891    83.339853 
   35900    1624.4058    -107.3619    1.4697965    -105.8921   -5358.7515    4.3742918    4.3742918    4.3742918   -5358.7515    -8960.368    52972.372   -60088.258    501.01223    52731.666   -2732.2953    83.699574 
   36000    1598.4879   -107.35309    1.4463454   -105.90675   -20230.657    4.3735206    4.3735206    4.3735206   -20230.657   -38102.449    -31168.34     8578.817    13238.414    1443.0845   -26439.128    83.655314 
   36100    1817.2391   -107.53905    1.6442761   -105.89477    34335.884    4.3573282    4.3573282    4.3573282    34335.884    8284.4062    74236.955    20486.292   -24973.913    15423.176   -6458.0707    82.729581 
   36200    1375.8094   -107.17152    1.2448612   -105.92666   -6953.8917    4.3678692    4.3678692    4.3678692   -6953.8917   -13632.188    -35630.89    28401.403    25616.961    36681.013   -3914.7372    83.331437 
   36300    1769.8968   -107.51386    1.6014398   -105.91242    -15881.17    4.3816219    4.3816219    4.3816219    -15881.17   -33197.179   -23418.856    8972.5246   -17120.997   -8856.9242   -29993.861    84.121052 
   36400    1487.7793    -107.2534     1.346174   -105.90723   -9561.7004    4.3596662    4.3596662    4.3596662   -9561.7004   -48978.286    42717.057   -22423.872    4339.4379    51420.076    7111.4915    82.862819 
   36500    1442.9048   -107.22667    1.3055705    -105.9211    5247.6312    4.3543106    4.3543106    4.3543106    5247.6312   -21745.865   -52442.166    89930.925     14990.34   -8965.8649   -11422.848    82.557817 
   36600    2213.3605   -107.92201    2.0026951   -105.91932    1603.1042    4.3643368    4.3643368    4.3643368    1603.1042   -8378.1601    44080.259   -30892.786   -9681.1617   -232.25665   -986.49444    83.129426 
   36700    993.34934   -106.83129   0.89880336   -105.93248    22812.226    4.3682333    4.3682333    4.3682333    22812.226   -56714.987    26028.687    99122.976    22065.381    27093.304    23020.318    83.352278 
   36800    2554.6989   -108.21981    2.3115452   -105.90826   -37324.295    4.3862147    4.3862147    4.3862147   -37324.295   -51200.413   -45597.302   -15175.171   -5984.9787   -15847.949    818.24686    84.385856 
   36900    1324.6867    -107.0999    1.1986044   -105.90129     28617.82    4.3734897    4.3734897    4.3734897     28617.82   -7534.8132   -8454.5803    101842.85    13860.081    29613.228    5829.6971    83.653543 
   37000      2229.28   -107.91015    2.0170994   -105.89305   -19288.638    4.3725292    4.3725292    4.3725292   -19288.638   -13342.232   -8591.0852   -35932.598    13282.877   -12311.765    25236.957    83.598436 
   37100    1793.6042   -107.50535    1.6228908   -105.88246    13047.004    4.3732893    4.3732893    4.3732893    13047.004    6391.3362    11592.786     21156.89   -28925.458     10438.74   -6347.9074    83.642039 
   37200    1204.9944   -106.97897    1.0903043   -105.88867    26245.914    4.3789955    4.3789955    4.3789955    26245.914     55711.45    10341.602     12684.69    17895.011    10569.966    4056.1749    83.969872 
   37300    1996.2913   -107.68231    1.8062864   -105.87602   -14076.565    4.3846787    4.3846787    4.3846787   -14076.565   -3058.0964   -18634.767   -20536.831   -7451.4944     4003.704    24193.035    84.297236 
   37400    1616.0422    -107.3285    1.4622289   -105.86627    13735.857    4.3693248    4.3693248    4.3693248    13735.857    18032.055    17033.216    6142.3004    9799.8469    34929.549   -11745.596    83.414776 
   37500    1518.5795   -107.26499    1.3740427   -105.89094    2851.1353    4.3823033    4.3823033    4.3823033    2851.1353    45932.619   -5529.6529    -31849.56    34487.614   -4142.4906    12301.008    84.160306 
   37600    1281.1158   -107.04293    1.1591805   -105.88375   -22474.301    4.3906699    4.3906699    4.3906699   -22474.301   -35347.488    3812.0958   -35887.511   -16130.894    23450.729   -330.34088    84.643259 
   37700    1708.3145   -107.40623    1.5457189   -105.86051    13026.007    4.3721502    4.3721502    4.3721502    13026.007    31363.011   -27142.569    34857.579     17481.95    3715.9626   -4786.8785    83.576698 
   37800    1785.9879   -107.49618    1.6159994   -105.88018   -15255.948    4.3678204    4.3678204    4.3678204   -15255.948   -6005.6111   -28290.277   -11471.956    6295.5005     -463.025    31772.757    83.328643 
   37900      1427.81   -107.19752    1.2919125   -105.90561   -25659.228      4.37251      4.37251      4.37251   -25659.228   -74261.532    2677.3343   -5393.4858   -33248.069    3908.1365   -7103.9208    83.597337 
   38000    1961.0084   -107.68318    1.7743616   -105.90882    8319.1424    4.3716349    4.3716349    4.3716349    8319.1424   -11549.314   -30290.345    66797.086    11833.156   -2906.4759    24699.896    83.547154 
   38100    1835.1432   -107.58637    1.6604762   -105.92589   -21535.239    4.3745011    4.3745011    4.3745011   -21535.239   -59488.945   -36435.182    31318.409   -25369.407    15612.877    14918.225    83.711591 
   38200    1884.4357   -107.62349     1.705077   -105.91842    3136.0043    4.3789149    4.3789149    4.3789149    3136.0043   -32898.029    19444.082    22861.959    741.33251    8675.0657   -23123.876    83.965234 
   38300    2162.6355   -107.86524     1.956798   -105.90845   -30787.746     4.387019     4.387019     4.387019   -30787.746   -62312.683   -41686.485    11635.931    -12638.55    7053.3785    21781.168    84.432283 
   38400    1167.9836   -106.97024    1.0568161   -105.91342   -13406.589    4.3800922    4.3800922    4.3800922   -13406.589   -20005.179   -44106.415    23891.826   -22466.124   -4466.6217   -14937.114    84.032976 
   38500    1887.0322   -107.62773    1.7074264    -105.9203   -4642.5373    4.3615065    4.3615065    4.3615065   -4642.5373   -17636.584   -28973.478    32682.449    7140.4237    8914.3773   -24123.138    82.967799 
   38600    1912.4113   -107.66043      1.73039   -105.93004    12245.994    4.3543357    4.3543357    4.3543357    12245.994    1918.8554   -48333.744    83152.871    -34743.67    4003.5683    10860.495    82.559245 
   38700    1578.0214   -107.37434    1.4278269   -105.94652   -29400.501    4.3827385    4.3827385    4.3827385   -29400.501   -50341.198   -39537.112    1676.8087    9305.9133   -21121.665   -37211.759    84.185377 
   38800    1511.0207   -107.29669    1.3672032   -105.92949   -14995.085    4.3970835    4.3970835    4.3970835   -14995.085   -52045.496   -84837.665    91897.906   -25226.008   -2876.1277    7894.2751    85.014721 
   38900    2309.3218   -108.01977    2.0895229   -105.93025    -8217.504    4.3591105    4.3591105    4.3591105    -8217.504    2714.4029   -30962.096    3595.1811   -5771.9192   -30709.032    -76.08187    82.831137 
   39000    1795.9065   -107.53209    1.6249739   -105.90712     25080.15    4.3177344    4.3177344    4.3177344     25080.15   -21866.706    39712.442    57394.714   -14572.432   -9324.4422   -12941.805    80.494789 
   39100    1042.1488   -106.91476   0.94295816    -105.9718    18663.551    4.3438805    4.3438805    4.3438805    18663.551   -16819.306   -31014.521    103824.48   -25684.148    17880.899    45424.335    81.965973 
   39200    2163.5476   -107.90162    1.9576234     -105.944   -15111.461    4.3835957    4.3835957    4.3835957   -15111.461   -25653.932   -23842.025    4161.5759    4128.5485   -8382.1347    14741.635    84.234788 
   39300    1224.8916   -107.04045    1.1083077   -105.93214   -23931.883    4.3858767    4.3858767    4.3858767   -23931.883   -1538.5405   -31973.718    -38283.39   -29662.249   -9970.1846    17007.272     84.36635 
   39400     1994.752   -107.71479    1.8048935    -105.9099   -1242.2221    4.3409044    4.3409044    4.3409044   -1242.2221    30129.735   -46629.252    12772.851    15582.654    4252.1844    54784.684    81.797619 
   39500    2141.3663   -107.84191    1.9375532   -105.90435    71956.685    4.3265743    4.3265743    4.3265743    71956.685    67561.417    80579.838      67728.8   -24758.248   -4958.6353   -15266.281    80.990202 
   39600    1273.6698   -107.11123    1.1524432   -105.95878   -12104.771    4.3605601    4.3605601    4.3605601   -12104.771    3481.2732   -54494.381    14698.795   -11771.816    5879.6034    45590.717      82.9138 
   39700     1548.443   -107.33291    1.4010637   -105.93185   -31329.354    4.3806986    4.3806986    4.3806986   -31329.354   -21345.648   -5437.6425   -67204.771    17595.067    6499.8189   -9116.9617    84.067885 
   39800    1816.2254    -107.5575    1.6433589   -105.91414     3494.316    4.3575908    4.3575908    4.3575908     3494.316   -3093.1172    9960.0767    3615.9884   -16185.762    7986.6543   -1321.3442    82.744536 
   39900    1927.6962    -107.6651      1.74422   -105.92088    2441.6904    4.3348211    4.3348211    4.3348211    2441.6904    23931.361   -25307.822    8701.5315    2380.3272    1833.4389    47123.754    81.454209 
   40000    1781.1561   -107.54564    1.6116275   -105.93401    11462.838    4.3472707    4.3472707    4.3472707    11462.838   -12589.428    58920.563   -11942.621   -1745.4294     8080.675   -14104.696    82.158038 
   40100    1475.9211    -107.2774    1.3354445   -105.94196   -24604.199    4.3763183    4.3763183    4.3763183   -24604.199   -23662.381   -52470.624    2320.4091   -6937.1415   -1617.0998    38649.951    83.815955 
   40200    1653.0583   -107.39601    1.4957219   -105.90029   -12794.283    4.3853753    4.3853753    4.3853753   -12794.283   -6054.3754   -19312.736   -13015.738    4718.2548     16781.18    4934.8865    84.337417 
   40300    2257.0771   -107.92494    2.0422508   -105.88269   -13683.075    4.3603204    4.3603204    4.3603204   -13683.075   -25113.858      13844.3   -29779.665    7767.2653   -10004.648    7537.5602    82.900131 
   40400    1980.7557   -107.68201    1.7922294   -105.88978    18938.794    4.3416692    4.3416692    4.3416692    18938.794    48345.986    3282.3127    5188.0826   -1187.3849     20517.54    23151.985    81.840859 
   40500    1446.3412    -107.2411    1.3086799   -105.93242   -3144.4416    4.3678396    4.3678396    4.3678396   -3144.4416   -31866.925     79381.47    -56947.87    1599.0559    36703.114   -1451.1593    83.329742 
   40600    1729.9952   -107.47216     1.565336   -105.90682         2557    4.3811372    4.3811372    4.3811372         2557    10759.578    49243.466   -52332.044    7253.9755   -19811.303    21281.878    84.093139 
   40700     1262.086   -107.05457    1.1419619   -105.91261   -11758.206    4.3650259    4.3650259    4.3650259   -11758.206    21269.929    12047.256   -68591.803   -9027.8789    66302.234    7951.9627    83.168807 
   40800    2057.6224   -107.75949      1.86178   -105.89771    41701.124    4.3339982    4.3339982    4.3339982    41701.124    59604.956    52557.293    12941.123    1649.1044   -13740.332   -14733.818    81.407832 
   40900    1677.6942   -107.45074    1.5180129   -105.93273   -7154.0575    4.3328267    4.3328267    4.3328267   -7154.0575    -28344.49    69355.988   -62473.671    805.36348    50930.073     28484.41    81.341835 
   41000    1671.6255   -107.45196    1.5125218   -105.93944   -30734.982    4.3680102    4.3680102    4.3680102   -30734.982   -23155.049    3600.4201   -72650.319   -13673.158     16927.58   -10391.445    83.339507 
   41100    1828.3301   -107.55839    1.6543115   -105.90407   -14281.315    4.3786509    4.3786509    4.3786509   -14281.315    1546.9265   -5117.6632   -39273.209   -15696.686    2750.7967    1831.8612     83.95005 
   41200    1377.6512   -107.14877    1.2465278   -105.90224    -36743.68    4.3693012    4.3693012    4.3693012    -36743.68   -49817.276    11495.794   -71909.557    12318.029    69108.098    4995.2469    83.413427 
   41300     2308.505   -107.98372    2.0887839   -105.89493    14067.114    4.3406598    4.3406598    4.3406598    14067.114    37230.838   -8081.1841    13051.688   -9084.1913   -19451.662   -5195.8657    81.783792 
   41400    1208.9028    -107.0208    1.0938407   -105.92696    17861.829    4.3329955    4.3329955    4.3329955    17861.829    22042.606     69883.31   -38340.429    19547.001    49259.057    7429.9843    81.351341 
   41500    2154.4833   -107.90881    1.9494218   -105.95939   -8459.2117    4.3660392    4.3660392    4.3660392   -8459.2117   -34524.303    20097.346   -10950.678    17849.353    -4181.483    8921.4067    83.226739 
   41600      1881.22    -107.6224    1.7021674   -105.92023   -28789.786    4.3921811    4.3921811    4.3921811   -28789.786   -48946.058   -11968.807   -25454.493   -8874.5706    14913.019    2649.6444    84.730683 
   41700    1185.7211    -106.9943    1.0728654   -105.92143   -42512.583    4.3612831    4.3612831    4.3612831   -42512.583   -56870.805   -10541.282   -60125.663    10100.758    54362.725     9353.112     82.95505 
   41800    1927.9349   -107.62447     1.744436   -105.88003    70996.798    4.3238866    4.3238866    4.3238866    70996.798    69499.997    22665.445    120824.95    5577.2599   -19072.553    21944.365    80.839366 
   41900     1705.782   -107.48356    1.5434274   -105.94013    -20163.05    4.3501628    4.3501628    4.3501628    -20163.05   -69996.767    40472.508   -30964.891   -18942.152    44544.509   -10829.269    82.322116 
   42000    1474.0361   -107.25951    1.3337388   -105.92578   -30723.942    4.3745432    4.3745432    4.3745432   -30723.942   -41123.835   -24145.769   -26902.221    10877.076   -4223.6269      26486.7    83.714007 
   42100    1992.5778   -107.70619    1.8029263   -105.90327   -19954.277    4.3649113    4.3649113    4.3649113   -19954.277   -20927.805   -47567.313    8632.2869   -24140.719     16832.15    -10808.04    83.162255 
   42200    1552.4397   -107.31863    1.4046801   -105.91395   -14731.177    4.3531719    4.3531719    4.3531719   -14731.177   -42522.031    25850.929   -27522.428   -4179.8982    16141.788    19181.489     82.49307 
   42300    1508.2439    -107.2795    1.3646908   -105.91481    44877.457    4.3443466    4.3443466    4.3443466    44877.457    8965.2819    8739.7882     116927.3   -4571.6611   -21301.566    -3717.068    81.992364 
   42400     1870.898   -107.63695    1.6928279   -105.94412   -27662.961    4.3681618    4.3681618    4.3681618   -27662.961   -51549.633   -27548.384    -3890.866   -20814.548    27936.796   -20874.418    83.348188 
   42500    1737.8254   -107.48682    1.5724209    -105.9144    10083.249    4.3729791    4.3729791    4.3729791    10083.249   -46374.257   -8986.7571    85610.763    13388.661   -6165.0486    18983.528    83.624242 
   42600    1623.2533   -107.38116    1.4687537    -105.9124    -15633.83    4.3557058    4.3557058    4.3557058    -15633.83   -12981.061   -30987.123   -2933.3039   -14870.195   -23689.282   -28949.491    82.637206 
   42700    1736.5237   -107.48155    1.5712432    -105.9103    22327.658    4.3480416    4.3480416    4.3480416    22327.658   -23607.618    24106.089    66484.502   -6594.6495    15325.171   -5246.7455    82.201752 
   42800    2112.7067   -107.83525    1.9116214   -105.92363   -18804.239    4.3537399    4.3537399    4.3537399   -18804.239   -32764.493   -16541.249    -7106.976    20741.557   -18300.102   -9895.9331    82.525361 
   42900    1482.5186   -107.28552     1.341414   -105.94411     2349.981    4.3604799    4.3604799    4.3604799     2349.981   -12441.013    7752.9343    11738.022   -37808.618    8542.5663   -35620.359    82.909226 
   43000    2004.5833   -107.75039    1.8137891    -105.9366   -11089.948     4.370997     4.370997     4.370997   -11089.948   -61406.208    -11963.37    40099.733    34399.687   -9064.3824   -3612.1282    83.510586 
   43100    1346.1518   -107.15312    1.2180264    -105.9351    2702.6904    4.3600712    4.3600712    4.3600712    2702.6904    17036.711   -10903.156    1974.5161    5504.8818   -1092.4113   -25399.468    82.885919 
   43200    1976.9669   -107.71294    1.7888012   -105.92414    6518.5123    4.3530228    4.3530228    4.3530228    6518.5123   -6155.7288   -25698.314    51409.579   -21232.719    2394.5322   -17716.941    82.484594 
   43300    1771.9354   -107.53432    1.6032844   -105.93104    22137.313    4.3586858    4.3586858    4.3586858    22137.313   -24255.301     63617.04      27050.2    27213.467     1334.777    15243.719    82.806929 
   43400    1257.3265   -107.08996    1.1376554    -105.9523    6797.0041    4.3584354    4.3584354    4.3584354    6797.0041    24187.018   -4764.1981    968.19277   -11401.132   -8796.0628   -46567.349     82.79266 
   43500    2202.6692   -107.94594    1.9930214   -105.95292   -22806.083    4.3610935    4.3610935    4.3610935   -22806.083   -35896.247   -18950.292   -13571.711   -12473.925    2026.9796   -1475.9487    82.944232 
   43600    1239.2602   -107.07468    1.1213087   -105.95338    11358.773    4.3704809    4.3704809    4.3704809    11358.773   -7155.4674    11692.236    29539.549    22265.411   -1485.7743    3354.4217    83.481008 
   43700    1384.6518   -107.18747    1.2528621   -105.93461   -22744.056    4.3682845    4.3682845    4.3682845   -22744.056   -4093.4085   -46491.364   -17647.395   -39466.209   -15901.709   -38037.009    83.355212 
   43800    2345.1263   -108.02276    2.1219196   -105.90084    23614.449    4.3672552    4.3672552    4.3672552    23614.449   -25268.152    61256.409     34855.09    14193.952    3707.3538    38040.796    83.296299 
   43900    1492.4318   -107.27264    1.3503836   -105.92226   -42122.062    4.3608688    4.3608688    4.3608688   -42122.062   -41761.041   -32619.859   -51985.284   -20754.197   -26272.956    -55988.29    82.931411 
   44000    1718.6024   -107.48523    1.5550275    -105.9302    25304.078     4.348923     4.348923     4.348923    25304.078   -5233.9864    55917.299     25228.92   -12723.677   -4248.7466    569.52049    82.251753 
   44100    1704.5616   -107.49554    1.5423231   -105.95321   -9045.4891     4.365936     4.365936     4.365936   -9045.4891    -53515.97    2597.4602    23782.043    16618.395   -9853.9479    6471.2737    83.220842 
   44200    998.99959   -106.87127   0.90391583   -105.96736    6480.6994    4.3627387    4.3627387    4.3627387    6480.6994   -22405.067   -3500.6136    45347.779   -31890.934   -13845.018   -43667.826    83.038139 
   44300    2430.3539   -108.14862    2.1990353   -105.94959    2806.9048     4.357643     4.357643     4.357643    2806.9048   -32663.312    15856.155    25227.872    33364.198    20807.631    25862.436     82.74751 
   44400    1512.8563   -107.31336    1.3688642    -105.9445    1586.3062    4.3683404    4.3683404    4.3683404    1586.3062   -12217.197   -1748.5807    18724.696    -983.4886    -13290.54   -22039.003    83.358412 
   44500    1422.1372   -107.22533    1.2867796   -105.93855    17213.807    4.3706941    4.3706941    4.3706941    17213.807   -13635.877    9595.8707    55681.427   -9618.2904    14303.088   -36576.967    83.493228 
   44600    2096.2558   -107.80846    1.8967363   -105.91173    17906.929    4.3746802    4.3746802    4.3746802    17906.929   -6258.6582    28515.071    31464.374    20982.036   -1438.7883    16152.413    83.721874 
   44700     1453.818   -107.24022    1.3154451   -105.92477   -6877.9118    4.3733661    4.3733661    4.3733661   -6877.9118   -14965.478   -53436.472    47768.215   -19391.008   -20552.409   -31083.544    83.646448 
   44800    2098.4673   -107.82707    1.8987373   -105.92834   -6831.5938    4.3717558    4.3717558    4.3717558   -6831.5938   -38032.249   -132.00566    17669.473   -1794.8842   -2220.2185   -11176.669    83.554083 
   44900    1992.3435   -107.72388    1.8027142   -105.92117    28852.666    4.3593894    4.3593894    4.3593894    28852.666   -767.61314    10463.464    76862.147    3819.8897     3431.708    4566.4773    82.847041 
   45000    1068.7863   -106.90663   0.96706029   -105.93957    242.92019    4.3742821    4.3742821    4.3742821    242.92019   -6724.8547    27319.777   -19866.162   -39159.738   -9601.7957   -18646.378    83.699018 
   45100     2458.763   -108.11439    2.2247404   -105.88965   -3132.2191    4.3890175    4.3890175    4.3890175   -3132.2191   -1013.0698   -21010.254    12626.667   -5621.6391    5955.3793    6254.3441    84.547725 
   45200    1227.3698   -106.99978      1.11055   -105.88923    31335.273    4.3744495    4.3744495    4.3744495    31335.273    64306.495   -1534.2084    31233.532   -43734.384    -17741.19   -13868.427    83.708627 
   45300     1694.695   -107.40685    1.5333957   -105.87346    15867.855    4.3745162    4.3745162    4.3745162    15867.855     34667.14     16043.45   -3107.0251   -12288.326   -7939.5025   -2432.5952    83.712454 
   45400    1558.9379   -107.29066    1.4105598    -105.8801    12244.402    4.3658585    4.3658585    4.3658585    12244.402    25317.488   -22577.431    33993.148    9265.5514   -25519.715   -438.05933    83.216408 
   45500    1404.2707   -107.16096    1.2706136   -105.89035    62231.911    4.3642184    4.3642184    4.3642184    62231.911    78746.311     65741.66    42207.761   -21814.144   -10483.052   -15038.191     83.12266 
   45600    1525.8115   -107.28302    1.3805863   -105.90243     -28756.9    4.3864111    4.3864111    4.3864111     -28756.9   -47625.504   -29774.291   -8870.9038    29218.381   -6412.2924   -19266.318     84.39719 
   45700    1547.9535   -107.28279    1.4006209   -105.88217   -6728.7681     4.378221     4.378221     4.378221   -6728.7681    902.93218   -15048.307   -6040.9297   -5296.3521   -8432.2638   -2154.3412    83.925326 
   45800    1769.5391   -107.46672    1.6011161   -105.86561    26866.602    4.3606995    4.3606995    4.3606995    26866.602    9078.3646    34469.169    37052.272    15150.371   -3075.5212   -19284.481    82.921753 
   45900     1259.162   -107.04405    1.1393163   -105.90473   -18968.152    4.3770315    4.3770315    4.3770315   -18968.152   -6690.4485   -34283.381   -15930.627     28276.73     14652.91   -9821.5887    83.856943 
   46000    2283.1356   -107.93429    2.0658291   -105.86846    5393.5852    4.3874346    4.3874346    4.3874346    5393.5852    39586.562   -2438.9489   -20966.858    -1871.075    7252.4562    11924.117    84.456284 
   46100    1057.3431   -106.84985   0.95670626   -105.89315   -60119.101    4.3877724    4.3877724    4.3877724   -60119.101   -59618.936   -36786.716   -83951.652        37991    17114.882   -18408.629    84.475796 
   46200    2241.1854   -107.91265    2.0278716   -105.88478    20892.051    4.3460974    4.3460974    4.3460974    20892.051    59260.949     13556.14   -10140.934   -9517.1859    -13008.81    53.957684    82.091533 
   46300    1452.8996   -107.21877    1.3146141   -105.90416    8008.1103    4.3315164    4.3315164    4.3315164    8008.1103   -27541.913    33217.763    18348.481   -15189.789    14990.432    2878.2469    81.268061 
   46400    1891.3704   -107.63684    1.7113517   -105.92549    533.79666    4.3693948    4.3693948    4.3693948    533.79666   -28.362693     21380.26   -19750.507     44679.62    6519.6543    3142.3065    83.418787 
   46500    1538.0936   -107.30698    1.3916994   -105.91528   -18299.881    4.3845911    4.3845911    4.3845911   -18299.881   -31379.152    22566.047   -46086.539   -53192.375    2404.5495     7758.213    84.292179 
   46600    1508.9688    -107.2759    1.3653467   -105.91055   -8763.1499     4.375496     4.375496     4.375496   -8763.1499     25621.12   -26252.958   -25657.611     18894.43    18049.966   -7392.6263    83.768721 
   46700    2000.7697   -107.70512    1.8103385   -105.89478    28707.192    4.3574971    4.3574971    4.3574971    28707.192    67111.467    51893.248   -32883.139   -34091.432   -775.08757    19978.657    82.739199 
   46800    1302.9079   -107.10146    1.1788985   -105.92256   -16083.016    4.3703715    4.3703715    4.3703715   -16083.016   -605.00284   -14170.307   -33473.739    -21610.45    17588.269   -16685.811    83.474738 
   46900    2408.9118   -108.06902     2.179634   -105.88939    -1768.271     4.370425     4.370425     4.370425    -1768.271   -12874.311    22925.522   -15356.024    28165.187    4017.4218    8855.4727    83.477803 
   47000    1317.8821   -107.10315    1.1924474   -105.91071   -6492.2523    4.3632907    4.3632907    4.3632907   -6492.2523    20952.153   -12811.242   -27617.669   -49526.787   -8823.0403    18422.965    83.069664 
   47100    2076.8754   -107.79333    1.8792005   -105.91413   -6509.7757    4.3735402    4.3735402    4.3735402   -6509.7757    3284.7647   -18504.325   -4309.7669    7027.2514    20056.239   -18480.868     83.65644 
   47200    1950.2146   -107.67877    1.7645952   -105.91418    24909.582    4.3583573    4.3583573    4.3583573    24909.582    31139.275    30780.602    12808.868   -9921.5836   -8595.0489     15235.96    82.788208 
   47300    1493.6382   -107.29398    1.3514753   -105.94251   -4437.1199    4.3635246    4.3635246    4.3635246   -4437.1199    12432.587   -28985.797    3241.8503   -49253.511    6858.8032    6015.9726     83.08302 
   47400    2001.8134   -107.73298    1.8112828    -105.9217   -1251.7992    4.3775018    4.3775018    4.3775018   -1251.7992   -4763.4982     13657.15    -12649.05     25837.15    15630.032    6289.8237    83.883977 
   47500    1242.8574   -107.04084    1.1245635   -105.91627    32726.556    4.3687715    4.3687715    4.3687715    32726.556    70200.173    28672.596   -693.10238   -26085.807    428.46003    10538.864    83.383094 
   47600    2270.1352   -107.95768     2.054066   -105.90362   -20130.508    4.3733442    4.3733442    4.3733442   -20130.508   -24464.101   -24059.682    -11867.74    7051.6777    1026.3326    858.78806    83.645189 
   47700    1261.9509   -107.05639    1.1418397   -105.91455   -5007.0259    4.3603429    4.3603429    4.3603429   -5007.0259    15253.547   -37310.926    7036.3008    36371.771    8583.0982    11391.373    82.901412 
   47800    2381.8248   -108.05595    2.1551251   -105.90082    20307.079    4.3615883    4.3615883    4.3615883    20307.079    30946.773    5002.5952    24971.869   -27507.123   -21939.647    5820.9366    82.972469 
   47900    815.84184   -106.67022   0.73819084   -105.93203   -33884.866    4.3778229    4.3778229    4.3778229   -33884.866    42783.666   -98849.072   -45589.192    55351.045   -6874.2905    -1419.014    83.902435 
   48000    1880.1643   -107.61745    1.7012122   -105.91624    17228.077    4.3571495    4.3571495    4.3571495    17228.077    101283.84   -39940.439   -9659.1728    5281.2695    2974.0382    3363.6998    82.719402 
   48100    2077.4014   -107.80895    1.8796764   -105.92928   -38633.499    4.3668843    4.3668843    4.3668843   -38633.499   -15100.783   -40017.784    -60781.93   -4684.9786   -29664.595     3778.645     83.27508 
   48200    1242.4439    -107.0606    1.1241893   -105.93641   -14441.583    4.3816316    4.3816316    4.3816316   -14441.583    79978.964   -74948.276   -48355.438    43109.933    7742.0623   -503.51152    84.121613 
   48300    1845.1189   -107.58578    1.6695023   -105.91628    23306.248    4.3632089    4.3632089    4.3632089    23306.248     70980.03   -28383.716    27322.428   -28640.416   -6006.6843   -3036.2202    83.064992 
   48400    1451.3809   -107.23174    1.3132399    -105.9185    4958.9618    4.3512003    4.3512003    4.3512003    4958.9618   -26042.973    53042.826   -12122.968    8088.7542   -20105.943    4504.5907    82.381031 
   48500    2321.9893   -108.01285    2.1009847   -105.91187    2690.8034    4.3623585    4.3623585    4.3623585    2690.8034    44504.385   -30381.004   -6050.9708   -1249.7066    9163.3599    5740.0008    83.016429 
   48600    690.91518    -106.5578   0.62515458   -105.93264     31891.44    4.3608718    4.3608718    4.3608718     31891.44      78558.7    7284.2129    9831.4064   -38603.145   -6252.4014    1682.0687    82.931586 
   48700    2234.5658   -107.94021    2.0218821   -105.91833   -2149.6234    4.3859909    4.3859909    4.3859909   -2149.6234    27662.948   -2431.0368   -31680.782   -5289.3875   -11188.381   -4811.4579    84.372942 
   48800    1491.9838   -107.25552    1.3499783   -105.90554   -42274.351    4.3851719    4.3851719    4.3851719   -42274.351   -4283.8387   -72714.655    -49824.56       -36042    18224.827    18898.817     84.32568 
   48900    1672.3676   -107.38225    1.5131933   -105.86906    56642.985    4.3440471    4.3440471    4.3440471    56642.985    51113.931    51766.752    67048.274    -34495.41   -2217.3636   -25460.204    81.975408 
   49000    1928.6708   -107.63593    1.7451019   -105.89083    15763.202    4.3539016    4.3539016    4.3539016    15763.202     22238.94      25262.1    -211.4341    1602.3797    4805.4883    15977.325     82.53456 
   49100    1320.6737    -107.1018    1.1949733   -105.90682    721.13772    4.3828818    4.3828818    4.3828818    721.13772   -37481.429    21364.425    18280.418   -31657.412   -2662.0829    6627.5591    84.193637 
   49200    2063.6569   -107.74752    1.8672402   -105.88028   -5705.5986     4.390739     4.390739     4.390739   -5705.5986    22865.609   -32529.993   -7452.4124    18515.575   -2567.3718   -13919.511     84.64725 
   49300    1056.9662   -106.84783    0.9563652   -105.89146   -13607.604     4.367497     4.367497     4.367497   -13607.604   -17870.023   -47165.753    24212.965   -34068.466    4608.4187    20713.683    83.310135 
   49400    2504.5857   -108.13271    2.2662018   -105.86651    23012.276    4.3390105    4.3390105    4.3390105    23012.276   -10253.319    54784.719    24505.428   -6029.5446   -4784.0441    -5053.904    81.690606 
   49500    1092.1602   -106.90844   0.98820952   -105.92023     29105.33    4.3503056    4.3503056    4.3503056     29105.33   -1719.5106    81412.807    7622.6923    19523.866    11256.904   -6584.9689    82.330225 
   49600    1582.1938   -107.36094    1.4316022   -105.92934   -10078.296    4.3923037    4.3923037    4.3923037   -10078.296   -16323.264   -14296.356    384.73129   -28781.958    5133.7296    5654.1805     84.73778 
   49700    1532.2392   -107.28464    1.3864022   -105.89824   -34367.048    4.3900951    4.3900951    4.3900951   -34367.048    -50784.34   -41479.003     -10837.8    60558.066   -5520.3697    -17997.64    84.610017 
   49800     1734.918   -107.43055    1.5697902   -105.86076   -3748.6847    4.3500462    4.3500462    4.3500462   -3748.6847    28609.592    -12116.38   -27739.266    -4063.686    18270.931    15278.809    82.315496 
   49900    2199.4051   -107.85307     1.990068     -105.863    7886.9367    4.3468474    4.3468474    4.3468474    7886.9367    4920.6251    1468.4405    17271.744    18877.003   -27285.032   -8922.5467    82.134037 
   50000    639.11267   -106.49748   0.57828257    -105.9192   -14220.755    4.3695989    4.3695989    4.3695989   -14220.755    1524.9668   -32641.817   -11545.414    48154.057    19415.735    6861.8505    83.430476 
   50100    2311.3968   -107.99566    2.0914004   -105.90426    4429.0475    4.3688509    4.3688509    4.3688509    4429.0475   -6398.0353    13681.777    6003.4012    3527.8122    8930.6195    14337.237     83.38764 
   50200    1577.8154   -107.34429    1.4276405   -105.91665   -2288.7984    4.3577963    4.3577963    4.3577963   -2288.7984    14321.568   -23519.802    2331.8395    14393.202   -4066.6904   -22170.583    82.756245 
   50300    1410.6522   -107.19435    1.2763877   -105.91796    19829.856    4.3670695    4.3670695    4.3670695    19829.856   -1099.9468    26877.754     33711.76     31201.03    8011.2002    6192.5197    83.285676 
   50400    1807.9488   -107.54029    1.6358701   -105.90442   -1847.1973    4.3739301    4.3739301    4.3739301   -1847.1973   -35154.789    18540.181    11073.016   -30260.486   -3853.2588   -16124.883    83.678812 
   50500    1550.8392   -107.30444    1.4032319    -105.9012   -32458.602    4.3782482    4.3782482    4.3782482   -32458.602   -35308.618   -52143.176   -9924.0106    44145.243    7733.1816    273.56703     83.92689 
   50600    2192.0922   -107.86649    1.9834511   -105.88304    19717.287    4.3567926    4.3567926    4.3567926    19717.287   -20922.934    62435.042    17639.753   -25395.446    1953.4473   -2260.0534    82.699074 
   50700    1027.4841   -106.83403    0.9296892   -105.90434     35418.33      4.34126      4.34126      4.34126     35418.33     10905.67    64007.777    31341.545    24263.756   -5822.5464    3146.4095    81.817726 
   50800    2472.0913   -108.14481    2.2368001   -105.90801   -10470.707    4.3740079    4.3740079    4.3740079   -10470.707   -6265.2844   -3750.4372   -21396.401    3167.6014   -515.18367    10077.288    83.683281 
   50900     1566.978   -107.30733    1.4178346   -105.88949   -4374.2866    4.3832119    4.3832119    4.3832119   -4374.2866   -45316.876    49539.435   -17345.419    717.17916   -6657.2826    9280.4433    84.212664 
   51000    1342.4878   -107.09699    1.2147112   -105.88228     24767.27    4.3685638    4.3685638    4.3685638     24767.27    31451.614    48012.345   -5162.1502    31654.991   -14738.991   -3525.7141    83.371201 
   51100    2353.9393   -108.02334    2.1298937   -105.89345    2275.6508     4.350948     4.350948     4.350948    2275.6508    17714.908    7634.1831   -18522.138   -6322.5931   -803.87524    26996.021    82.366701 
   51200    1149.2474   -106.97238    1.0398632   -105.93251    44977.387    4.3336783    4.3336783    4.3336783    44977.387    7359.5814    54784.838     72787.74    41433.623    -5050.597    10745.672    81.389804 
   51300    2246.8687   -107.97243     2.033014   -105.93941    1893.8121    4.3656357    4.3656357    4.3656357    1893.8121   -243.84929     12798.99   -6873.7041    -25069.97    2923.7879    2977.5142    83.203671 
   51400    1833.5191   -107.56886    1.6590066   -105.90985   -24183.064    4.3768426    4.3768426    4.3768426   -24183.064   -26994.188   -18673.014   -26881.989    36245.158    10256.603    18069.236    83.846082 
   51500    1422.0572   -107.16883    1.2867072   -105.88212    31223.502    4.3711488    4.3711488    4.3711488    31223.502    25257.231    68574.222   -160.94889    7012.1629   -2333.6458   -5627.2283    83.519287 
   51600    1788.2961   -107.50632    1.6180879   -105.88823   -17872.634    4.3660177    4.3660177    4.3660177   -17872.634   -43095.986    4624.5779   -15146.494   -1063.9806    26392.801   -6651.2879    83.225512 
   51700    1573.9213   -107.31981     1.424117    -105.8957    25031.869    4.3347027    4.3347027    4.3347027    25031.869    1925.0699    30506.112    42664.425    53009.973    18282.695    12381.738    81.447533 
   51800    2183.0492   -107.89305    1.9752687   -105.91778    38470.282    4.3452496    4.3452496    4.3452496    38470.282    33874.031    51950.375    29586.441   -8312.0029   -2123.3486   -18020.389    82.043499 
   51900    1231.6356   -107.05795    1.1144098   -105.94354   -41913.322    4.3629517    4.3629517    4.3629517   -41913.322   -64901.921   -46171.157   -14666.888    61975.673    15042.025   -8107.7424    83.050304 
   52000    1652.8322   -107.43206    1.4955173   -105.93654    36984.942    4.3579364    4.3579364    4.3579364    36984.942     14389.45     47675.22    48890.155    16073.088   -2579.8331    9906.4061    82.764226 
   52100    1758.5703   -107.51912    1.5911914   -105.92793   -18931.187    4.3735378    4.3735378    4.3735378   -18931.187   -49567.739    2842.8813   -10068.702    20616.489    1445.6081   -5731.2446    83.656302 
   52200    1293.3639   -107.08405    1.1702628   -105.91378   -12035.924    4.3611691    4.3611691    4.3611691   -12035.924   -64518.449    14265.198    14145.479    53353.802    13217.806   -8437.1101    82.948545 
   52300    2302.5863   -107.97707    2.0834285   -105.89364    18559.114    4.3514995    4.3514995    4.3514995    18559.114    7541.5015    39383.068    8752.7722   -9179.6705   -12149.285    28693.469    82.398028 
   52400    925.74679    -106.7645   0.83763515   -105.92686   -22303.474    4.3511598    4.3511598    4.3511598   -22303.474   -78552.659    -5493.804     17136.04    73747.492    16204.467   -14821.731     82.37873 
   52500    2033.1377    -107.7635    1.8396257   -105.92388    38766.935    4.3568765    4.3568765    4.3568765    38766.935    40034.525    62386.678    13879.603   -12426.281   -7383.9949    4756.7216    82.703856 
   52600    1914.2972   -107.66493    1.7320964   -105.93284   -46245.704    4.3743333    4.3743333    4.3743333   -46245.704   -91129.118   -50441.819     2833.826    41791.163   -5509.8672    15902.833    83.701959 
   52700    1046.4331    -106.8798   0.94683465   -105.93296   -8846.6062    4.3643846    4.3643846    4.3643846   -8846.6062   -742.28739   -10317.471    -15480.06    27615.858    21011.724    -35925.72    83.132154 
   52800    2475.6749   -108.15563    2.2400427   -105.91558     5083.185    4.3475571    4.3475571    4.3475571     5083.185   -1748.4403    39234.622   -22236.626   -11242.109   -19289.764   -4139.7926    82.174278 
   52900    1103.8079   -106.93169   0.99874863   -105.93294    16841.015    4.3440057    4.3440057    4.3440057    16841.015   -8222.3716    33377.086    25368.332    57156.777     15389.58    2894.8937    81.973062 
   53000    2058.5437   -107.79243    1.8626136   -105.92981   -19237.489    4.3695026    4.3695026    4.3695026   -19237.489   -18693.638   -20831.071   -18187.759   -4257.1388    -4663.988   -38480.148    83.424959 
   53100    1578.0265   -107.33685    1.4278315   -105.90902   -20761.651    4.3794597    4.3794597    4.3794597   -20761.651    2081.3071   -34895.831    -29470.43    23980.774   -21412.208    11730.101    83.996578 
   53200    1603.1184   -107.34723    1.4505352    -105.8967   -10776.516    4.3610688    4.3610688    4.3610688   -10776.516   -46121.586    4430.0889    9361.9498    32641.012    25907.478   -14072.319    82.942824 
   53300    2250.7437   -107.92885    2.0365202   -105.89233    18286.678    4.3501486    4.3501486    4.3501486    18286.678    66758.804   -8720.0588   -3178.7095   -970.74965   -22296.952   -6327.2829    82.321311 
   53400    1290.1958   -107.09226    1.1673962   -105.92486   -16639.332    4.3531739    4.3531739    4.3531739   -16639.332   -38621.683   -9359.6144   -1936.6976    41369.587     9839.472    14014.818    82.493181 
   53500    1942.3622   -107.68274    1.7574901   -105.92525    30635.924    4.3735764    4.3735764    4.3735764    30635.924    46167.205    50446.114   -4705.5463   -7055.4025    14797.068    -10133.26    83.658517 
   53600    1566.6824   -107.32784    1.4175671   -105.91028   -34033.358    4.3823183    4.3823183    4.3823183   -34033.358   -45448.458   -39382.197    -17269.42    15155.605   -14942.833    -3527.843     84.16117 
   53700    1359.7022   -107.12706    1.2302871   -105.89677    984.73921    4.3526515    4.3526515    4.3526515    984.73921    2253.4181    20704.405   -20003.606     19860.16    36375.654    12211.996    82.463484 
   53800    2415.5986    -108.0698    2.1856844   -105.88412    44537.376    4.3307799    4.3307799    4.3307799    44537.376    22428.945    94874.528    16308.657   -11738.364   -9061.8607   -7960.1172    81.226614 
   53900    1252.7116   -107.08386    1.1334797   -105.95038    9976.4615    4.3510522    4.3510522    4.3510522    9976.4615   -1813.8241    10355.706    21387.503    36467.796    4118.7382    5981.6907    82.372618 
   54000    2076.8407   -107.81345    1.8791691   -105.93428   -17520.261    4.3763508    4.3763508    4.3763508   -17520.261   -27123.883     27707.21   -53144.109   -3154.1326    35693.388   -10281.917    83.817822 
   54100    1628.8208   -107.38654    1.4737913   -105.91275   -4265.8071    4.3678305    4.3678305    4.3678305   -4265.8071   -6697.6584   -10072.602    3972.8392    14745.909   -19215.384   -2175.6702    83.329223 
   54200    1577.5384   -107.32931    1.4273899   -105.90192    8557.7006    4.3616303    4.3616303    4.3616303    8557.7006   -36880.223    9490.3014    53063.023    31677.723    14966.032    11125.032    82.974863 
   54300    2143.6453   -107.83779    1.9396153   -105.89818    9111.9255    4.3573959    4.3573959    4.3573959    9111.9255    6749.9458    21761.052   -1175.2209   -19261.531   -17320.301   -24958.692    82.733438 
   54400    792.72417   -106.65158   0.71727349   -105.93431    10702.899    4.3645256    4.3645256    4.3645256    10702.899    -54135.57    15823.145    70421.123    43879.184    14665.555   -4988.2713    83.140215 
   54500    2209.0162   -107.90032    1.9987642   -105.90156    6283.9225    4.3740444    4.3740444    4.3740444    6283.9225   -7462.2834    16796.825    9517.2264   -16081.907    8402.4306   -8376.7112    83.685373 
   54600    1239.8375   -107.02614     1.121831   -105.90431   -18766.678    4.3709206    4.3709206    4.3709206   -18766.678    -44667.04     -46737.8    35104.806    34072.027   -4993.9573   -17489.911    83.506205 
   54700    2174.8729   -107.85575    1.9678707   -105.88788    -10660.74    4.3625621    4.3625621    4.3625621    -10660.74   -29062.597   -20762.433    17842.808    19628.019   -17056.998    11667.344    83.028055 
   54800    1474.3251   -107.23324    1.3340004   -105.89924     9030.242     4.352129     4.352129     4.352129     9030.242     52941.48   -12022.937   -13827.817   -1852.8702     7730.569    23068.684     82.43379 
   54900    1522.0648   -107.29671    1.3771962   -105.91952   -25285.199    4.3564301    4.3564301    4.3564301   -25285.199   -51205.339   -47153.409    22503.151    46548.373    5042.0391   -18697.948    82.678437 
   55000    1870.6473    -107.6076     1.692601     -105.915   -13656.142    4.3661746    4.3661746    4.3661746   -13656.142    20839.671   -17162.229   -44645.868   -10218.265   -126.15424    56280.709    83.234484 
   55100    1903.7344   -107.62686    1.7225389   -105.90432   -19255.644    4.3694751    4.3694751    4.3694751   -19255.644   -50570.118   -11824.792    4627.9787    33446.259    1221.6467   -13262.907    83.423385 
   55200    1380.2119   -107.15151    1.2488447   -105.90266   -13600.092    4.3605729    4.3605729    4.3605729   -13600.092    -10160.17   -39282.483    8642.3758    8995.6698    4725.8329    36314.987    82.914534 
   55300    2140.7236   -107.83626    1.9369717   -105.89929    15150.619    4.3473997    4.3473997    4.3473997    15150.619    14067.356      34952.3   -3567.8008    10093.542    4384.7004    17961.307     82.16535 
   55400    1749.4697    -107.4996     1.582957   -105.91664   -21604.502    4.3615565    4.3615565    4.3615565   -21604.502   -28746.542   -33658.744   -2408.2208    42075.116    1892.0004    8038.4842    82.970651 
   55500    1173.5145   -106.98752    1.0618206    -105.9257    2683.3589     4.368417     4.368417     4.368417    2683.3589    51049.645   -52444.039    9444.4708   -11302.259    7274.6378    29089.083    83.362792 
   55600    2368.4694   -108.04601    2.1430409   -105.90297    -6154.978    4.3710216    4.3710216    4.3710216    -6154.978   -8415.7204    23529.189   -33578.402    15701.233   -2971.3112   -17510.654    83.511994 
   55700    1328.7061   -107.11189    1.2022412   -105.90965   -12513.182    4.3675819    4.3675819    4.3675819   -12513.182    32668.756   -65090.165   -5118.1369    2652.1167    2152.0911     48701.06    83.314993 
   55800    1846.1633   -107.56582    1.6704473   -105.89537   -9553.6306    4.3571458    4.3571458    4.3571458   -9553.6306    6094.4027     -41692.2    6936.9054    -18868.19   -3205.0215   -28919.516    82.719192 
   55900    1701.3536   -107.43848    1.5394205   -105.89905   -12379.205    4.3674962    4.3674962    4.3674962   -12379.205    397.94906    5685.7636   -43221.328    3551.4409   -12360.368    34596.309    83.310091 
   56000    1643.9698    -107.3853    1.4874984   -105.89781   -31968.708    4.3737311    4.3737311    4.3737311   -31968.708    28745.828   -68327.081   -56324.872    4589.5258    10086.095    11479.012    83.667393 
   56100    1548.3469   -107.29679    1.4009768   -105.89581    7957.4516    4.3649538    4.3649538    4.3649538    7957.4516    62733.572   -34688.569   -4172.6483   -44468.789   -1321.0285   -21092.649    83.164687 
   56200    1677.5192   -107.41696    1.5178546    -105.8991    5622.0341    4.3613477    4.3613477    4.3613477    5622.0341    37194.467    33205.665   -53534.029    5288.0922   -8930.1908    42851.936    82.958737 
   56300    1600.8264   -107.35497    1.4484614   -105.90651    9043.8597    4.3548416    4.3548416    4.3548416    9043.8597    6144.4146    12649.994    8337.1701   -41928.871    4490.3097   -33395.476    82.588026 
   56400    1550.3226   -107.32691    1.4027645   -105.92415   -2786.9633    4.3733686    4.3733686    4.3733686   -2786.9633    14975.782   -1127.0028   -22209.669    -15868.74   -4103.5373    12601.689    83.646591 
   56500    2194.7934   -107.87911    1.9858952   -105.89322   -13365.946    4.3726868    4.3726868    4.3726868   -13365.946   -46700.678    1871.4426    4731.3973    -11678.91   -5112.9931   -10456.561    83.607474 
   56600    1362.9337   -107.12099    1.2332111   -105.88778    19581.441    4.3609831    4.3609831    4.3609831    19581.441   -27678.217    42737.113    43685.427   -30717.731   -5166.7464    -16333.59    82.937935 
   56700     2177.007   -107.84119    1.9698017   -105.87139    -22650.89    4.3714922    4.3714922    4.3714922    -22650.89       -54536   -20627.281    7210.6104   -12866.395   -558.25954   -20258.026    83.538969 
   56800    1242.8001   -107.00912    1.1245116    -105.8846    -7402.693    4.3652169    4.3652169    4.3652169    -7402.693   -59907.239   -38213.455    75912.615   -51276.015    7531.4527    -6292.364    83.179724 
   56900    2035.2149   -107.71788    1.8415052   -105.87638   -4476.5615    4.3744999    4.3744999    4.3744999   -4476.5615   -33787.048   -26364.295    46721.658    11696.546   -18971.385   -36416.535    83.711519 
   57000    1260.3728   -107.02321    1.1404118   -105.88279   -32267.209    4.3805551    4.3805551    4.3805551   -32267.209   -97045.924   -72599.504      72843.8    -76830.77     1022.572   -4334.4912    84.059623 
   57100    1788.6127   -107.47321    1.6183744   -105.85484    35606.248    4.3528745    4.3528745    4.3528745    35606.248    69986.612   -12565.285    49397.418    19482.894    5186.0359   -13725.169    82.476163 
   57200    1101.6741    -106.8859   0.99681788   -105.88908    5271.4471    4.3534113    4.3534113    4.3534113    5271.4471   -1250.3859   -34712.266    51776.993   -67211.767   -25121.999   -17623.916    82.506677 
   57300    2429.1108   -108.07266    2.1979105   -105.87474   -386.11197    4.3661627    4.3661627    4.3661627   -386.11197   -9893.3566    -10466.61    19201.631    23120.135    26107.485   -2361.9687    83.233803 
   57400    638.20924   -106.47643   0.57746514   -105.89897    14404.384    4.3732868    4.3732868    4.3732868    14404.384    6513.7536   -13181.002      49880.4   -62596.926   -3960.2835   -30323.938    83.641896 
   57500    2792.4964    -108.4008    2.5267094   -105.87409   -15132.326    4.3727632    4.3727632    4.3727632   -15132.326   -17730.677   -28126.991    460.69069    12706.559    3059.4463   -13985.195    83.611858 
   57600    885.00131   -106.69363   0.80076778   -105.89287    21874.853    4.3561667    4.3561667    4.3561667    21874.853   -5232.6155    24901.556     45955.62   -45454.516    14612.164    14299.059     82.66344 
   57700    2125.9646   -107.82139    1.9236175   -105.89778     474.3061    4.3550769    4.3550769    4.3550769     474.3061    37075.565   -26792.934   -8859.7127   -14514.527   -11465.312   -24732.075    82.601417 
   57800    1578.1714   -107.33724    1.4279626   -105.90927   -15531.463    4.3669379    4.3669379    4.3669379   -15531.463   -45069.249    -63529.14    62003.999   -8527.6809    9530.6308    4962.6319    83.278145 
   57900    1225.2717   -107.03528    1.1086516   -105.92663    14776.702    4.3639507    4.3639507    4.3639507    14776.702    41498.232   -25228.738    28060.611   -50754.122    9377.7575    6247.9475    83.107361 
   58000    2722.4266   -108.36958    2.4633088   -105.90627   -397.12574    4.3661717    4.3661717    4.3661717   -397.12574     9032.356   -20826.351    10602.618    12520.124   -19867.756   -16978.896    83.234317 
   58100    487.99394   -106.37034   0.44154717   -105.92879    5000.0791    4.3573564    4.3573564    4.3573564    5000.0791   -19315.537   -52392.063    86707.837   -63195.755    22020.914    10308.408    82.731187 
   58200    2727.1178   -108.37501    2.4675535   -105.90746    282.72765    4.3607624    4.3607624    4.3607624    282.72765     17598.22   -5607.9935   -11142.044    19679.957   -593.21155   -7523.3624     82.92534 
   58300    1262.8712   -107.06832    1.1426724   -105.92564   -37507.455       4.3727       4.3727       4.3727   -37507.455   -62249.735   -59177.217    8904.5874   -55294.274    7099.1241   -7443.3268    83.608235 
   58400    1337.8034   -107.12179    1.2104727   -105.91132    6106.0968    4.3627191    4.3627191    4.3627191    6106.0968    21843.886    720.26293   -4245.8582   -13445.788    33829.895    6083.4393    83.037018 
   58500    2374.0697   -108.04913    2.1481082   -105.90102   -4305.3625    4.3530663    4.3530663    4.3530663   -4305.3625    660.35975   -6918.2405   -6658.2068   -15767.521   -16642.129   -21686.172    82.487064 
   58600    1015.7989   -106.84932   0.91911622   -105.93021   -23814.304    4.3640059    4.3640059    4.3640059   -23814.304   -30456.045   -39893.397    -1093.469   -51166.921    10610.638    5928.3547    83.110515 
   58700    2478.7659   -108.13838    2.2428395   -105.89554    3160.6086    4.3717385    4.3717385    4.3717385    3160.6086   -5066.3003    1744.7245    12803.402    18885.968    11114.041   -8949.8004    83.553094 
   58800     876.5089   -106.70682   0.79308367   -105.91373   -29634.567    4.3712437    4.3712437    4.3712437   -29634.567     -53642.4   -60912.028    25650.727   -90932.995    -19813.02   -2563.2994    83.524724 
   58900    2445.9371   -108.08748    2.2131353   -105.87435     28165.24    4.3570237    4.3570237    4.3570237     28165.24    66600.657   -8146.2851    26041.348    14165.973    8404.0579     -1233.61    82.712235 
   59000    1125.1382   -106.92314    1.0180487   -105.90509   -13249.608    4.3649858    4.3649858    4.3649858   -13249.608    -51134.84    2742.6062    8643.4088   -59469.353   -16905.771   -15588.298    83.166516 
   59100    2088.1296   -107.76958    1.8893836    -105.8802   -15413.195    4.3835565    4.3835565    4.3835565   -15413.195    -17165.46   -33518.771    4444.6468   -15485.696   -2555.9248   -3755.8769    84.232524 
   59200     1398.982   -107.14483    1.2658284     -105.879    263.07727    4.3806939    4.3806939    4.3806939    263.07727   -52084.529    38658.013    14215.749   -19799.348     2900.194   -13458.133    84.067616 
   59300    1488.6211   -107.22981    1.3469357   -105.88287   -23057.497    4.3647264    4.3647264    4.3647264   -23057.497   -24137.955   -37730.615   -7303.9204   -41910.083   -5310.0645   -11412.279    83.151689 
   59400    2217.6239   -107.87592    2.0065527   -105.86937    35125.711    4.3544638    4.3544638    4.3544638    35125.711     39890.67    52707.734     12778.73    12040.373     -6228.54     4598.547    82.566532 
   59500    950.71189   -106.78027    0.8602241   -105.92005   -18215.781     4.373975     4.373975     4.373975   -18215.781   -53537.917   -30349.428        29240   -57050.028   -1166.6807   -16916.731    83.681393 
   59600    2228.8154   -107.89325     2.016679   -105.87657     7509.755    4.3879534    4.3879534    4.3879534     7509.755    2880.2838   -36600.119    56249.101    21294.657   -175.10295   -12504.554    84.486245 
   59700    964.57573    -106.7457   0.87276839   -105.87293    6885.0751    4.3813762    4.3813762    4.3813762    6885.0751   -33263.494   -16859.126    70777.845   -60522.917    5854.3027   -7985.1501    84.106901 
   59800    2238.6519    -107.8702    2.0255793   -105.84462    11052.825    4.3752623    4.3752623    4.3752623    11052.825   -14591.468    -14269.81    62019.754    21321.827   -11326.708   -33943.638    83.755296 
   59900    1040.3715   -106.81932   0.94135004   -105.87797   -7312.3173    4.3650525    4.3650525    4.3650525   -7312.3173   -32732.859   -63557.003     74352.91    -74791.57     11562.77   -6701.7792    83.170327 
   60000    2233.6197   -107.88357    2.0210261   -105.86254    12247.281    4.3691129    4.3691129    4.3691129    12247.281   -8637.5295   -19211.519    64590.893    26709.854   -11498.072   -3206.2118    83.402643 
   60100    964.00372   -106.76391   0.87225082   -105.89166   -40580.714    4.3759855    4.3759855    4.3759855   -40580.714   -97313.741   -73545.986    49117.586   -106721.64    9593.4385   -10908.649    83.796835 
   60200    2379.7866   -108.01721    2.1532809   -105.86393    13020.921    4.3554175    4.3554175    4.3554175    13020.921    1997.4059    5185.6547    31879.701    33567.825   -9853.3444    6205.9427    82.620796 
   60300    1178.3892   -106.96557    1.0662313   -105.89933   -26248.081    4.3495654    4.3495654    4.3495654   -26248.081    -85785.97   -23296.651    30338.378   -85096.789    1894.1359     9467.939    82.288205 
   60400    1941.9763   -107.65457     1.757141   -105.89743    6229.8043    4.3623312    4.3623312    4.3623312    6229.8043   -9756.4193   -229.97594    28675.808    4154.1898    750.52692   -6980.3555    83.014872 
   60500    1329.7633   -107.10763    1.2031978   -105.90443   -11085.273    4.3678956    4.3678956    4.3678956   -11085.273   -16423.349    -30405.29     13572.82   -55887.951    1676.5718    12202.219    83.332948 
   60600    2339.9359   -108.00034    2.1172232   -105.88311   -8826.8943    4.3712699    4.3712699    4.3712699   -8826.8943   -47439.098   -32258.471    53216.886   -4448.6466   -2612.6969   -6186.0979    83.526226 
   60700    1126.9498   -106.90933    1.0196879   -105.88964    10141.465    4.3664675    4.3664675    4.3664675    10141.465    25508.213   -15264.862    20181.045   -46791.065    13758.697   -3850.9577    83.251235 
   60800    1803.5418    -107.5149    1.6318825   -105.88301    14445.975    4.3654012    4.3654012    4.3654012    14445.975    -5764.178   -22712.786     71814.89     -5093.26    9331.9515    552.43172    83.190264 
   60900    1547.2692   -107.28066    1.4000017   -105.88066   -5959.7537    4.3668508    4.3668508    4.3668508   -5959.7537   -46699.927    -7968.574     36789.24   -49757.898   -994.35591   -10295.932    83.273162 
   61000    1447.2607   -107.19601    1.3095119    -105.8865   -9492.6716    4.3710493    4.3710493    4.3710493   -9492.6716   -231.16951   -30940.988     2694.143   -37126.482    5176.2368    3973.7144    83.513583 
   61100    2254.5801   -107.91113    2.0399915   -105.87114    23814.334     4.364129     4.364129     4.364129    23814.334    11737.048    31468.735     28237.22   -3280.7993    6127.4904   -3380.0576    83.117549 
   61200    788.21835    -106.6188   0.71319653    -105.9056    22015.035    4.3671297    4.3671297    4.3671297    22015.035   -21666.936   -4352.3671    92064.407   -71179.267    8242.7578   -28110.388    83.289122 
   61300    2401.3678   -108.04043     2.172808   -105.86762     2596.321    4.3837367    4.3837367    4.3837367     2596.321     3333.614   -16303.231     20758.58    26979.157    4706.4444    14693.015    84.242916 
   61400    614.01984   -106.45069   0.55557806   -105.89511   -43518.709    4.3743666    4.3743666    4.3743666   -43518.709   -83044.621   -53453.416    5941.9102   -83647.293     -3227.79   -24861.183    83.703869 
   61500    2883.1055   -108.46067    2.6086944   -105.85198    20604.998    4.3436978    4.3436978    4.3436978    20604.998    9226.4146    34500.058    18088.521     13178.01    13527.653   -5946.6584    81.955632 
   61600    1133.9695   -106.93733    1.0260394   -105.91129    -7341.156    4.3571571    4.3571571    4.3571571    -7341.156   -58044.528   -28686.807    64707.867   -72290.855    3615.4336    660.37508    82.719837 
   61700    2048.0385     -107.756    1.8531083   -105.90289   -22074.463    4.3840467    4.3840467    4.3840467   -22074.463   -52141.959    4838.7551   -18920.185   -4716.7263    4177.8704   -9400.1659    84.260788 
   61800    1591.3459   -107.33043    1.4398832   -105.89054   -38959.475    4.3840578    4.3840578    4.3840578   -38959.475   -98795.056   -57379.891    39296.523   -56747.722     16070.41    9526.5417    84.261429 
   61900    1568.5963   -107.27992    1.4192989   -105.86063    21852.712    4.3652508    4.3652508    4.3652508    21852.712   -19391.042    52881.193    32067.986   -9358.1463   -2787.8557   -15164.405    83.181663 
   62000    1478.4692   -107.20861      1.33775   -105.87086   -1486.7957    4.3694604    4.3694604    4.3694604   -1486.7957   -52692.923   -2755.6986    50988.235   -48660.205    3801.2529    11822.727    83.422541 
   62100    1715.2405   -107.41991    1.5519856   -105.86792   -16004.856     4.375701     4.375701     4.375701   -16004.856   -60746.973   -9118.4845    21850.889   -31612.856   -6642.0001    9915.5704    83.780494 
   62200    1811.8375   -107.49809    1.6393886    -105.8587    -17438.28    4.3768659    4.3768659    4.3768659    -17438.28   -11768.067   -12859.028   -27687.744    2175.8922    17135.146   -6129.7657    83.847422 
   62300    1858.2844   -107.55477    1.6814147   -105.87336   -29563.588    4.3638057    4.3638057    4.3638057   -29563.588   -59626.191   -38273.087    9208.5134   -71080.714    130.70257   -1632.0601    83.099079 
   62400    1884.7568   -107.57909    1.7053676   -105.87373    40740.186    4.3531873    4.3531873    4.3531873    40740.186    19818.914    38508.329    63893.316    31967.864   -14359.685    14915.356    82.493943 
   62500    1225.7793   -107.02457    1.1091109   -105.91546   -27179.628     4.365245     4.365245     4.365245   -27179.628   -55607.019     -69679.8    43747.933   -75153.109    3807.7855    136.31833    83.181331 
   62600    2508.0223   -108.15455    2.2693113   -105.88524    10533.762    4.3754869    4.3754869    4.3754869    10533.762    35086.548   -32933.074    29447.811     17924.37   -9876.6005   -4430.2764    83.768198 
   62700    1152.7812   -106.94211    1.0430607   -105.89905   -38941.587    4.3777226    4.3777226    4.3777226   -38941.587   -42865.768   -95013.541    21054.549   -65632.234   -4665.0679    7422.2548    83.896667 
   62800    2370.1278   -108.01307    2.1445414   -105.86853    29524.531    4.3579667    4.3579667    4.3579667    29524.531    50630.403   -3918.0547    41861.244    6630.9923   -6969.8473    -6998.989    82.765951 
   62900    921.91915   -106.72386   0.83417182   -105.88969    47103.869    4.3463716    4.3463716    4.3463716    47103.869    39947.365   -38318.219    139682.46   -44410.323    296.72913   -3307.1699    82.107072 
   63000    2367.6745   -108.05226    2.1423216   -105.90994   -28931.579    4.3746526    4.3746526    4.3746526   -28931.579   -18711.065   -70668.331    2584.6583   -17879.698   -11887.529   -5063.5303    83.720285 
   63100    2123.0404   -107.80529    1.9209716   -105.88432   -33247.552    4.3780524    4.3780524    4.3780524   -33247.552    -41877.72   -85225.967    27361.031   -35774.202   -22878.986    -2278.794     83.91563 
   63200    1536.8234   -107.26958    1.3905501   -105.87903    8062.8833    4.3640558    4.3640558    4.3640558    8062.8833    9892.4608   -45761.758    60057.947   -27299.892   -11322.727    4232.3196    83.113369 
   63300    1913.4731   -107.60584    1.7313506   -105.87448    20888.991    4.3594812    4.3594812    4.3594812    20888.991   -167.19479   -28801.646    91635.814   -11464.843    4771.0384   -25739.789    82.852271 
   63400    1130.3016   -106.92958    1.0227206   -105.90686   -4274.0363     4.356728     4.356728     4.356728   -4274.0363   -139.14063   -45461.156    32778.188   -48871.165   -13032.586   -5981.2813    82.695398 
   63500    2495.5721   -108.15288    2.2580461   -105.89483    -3841.229    4.3708307    4.3708307    4.3708307    -3841.229   -6147.7647    -22861.51    17485.588    5117.1006    3849.3186    11970.875    83.501054 
   63600    1029.1292   -106.83706   0.93117772   -105.90588   -2428.1216    4.3757303    4.3757303    4.3757303   -2428.1216    5594.4177   -30925.277    18046.494   -72236.342    2533.5062   -26347.131    83.782179 
   63700    1776.6941   -107.47939    1.6075902    -105.8718    32134.988    4.3723996    4.3723996    4.3723996    32134.988    9688.0938    29242.764    57474.107     28553.44   -12780.206     6936.787    83.591004 
   63800    1604.7638   -107.33031     1.452024   -105.87828   -46599.661    4.3701774    4.3701774    4.3701774   -46599.661   -88554.914    -73659.13    22415.061   -83446.227     18201.38   -16237.504    83.463616 
   63900    1805.9338   -107.50007    1.6340469   -105.86603    47257.686    4.3514814    4.3514814    4.3514814    47257.686    24277.667    31546.278    85949.113    26916.365    5300.0254   -2795.7939    82.397001 
   64000    1343.6831   -107.11197    1.2157927   -105.89618   -21578.153    4.3558999    4.3558999    4.3558999   -21578.153    -58147.09   -50524.471    43937.102   -73533.755    7766.2119    5436.0615    82.648252 
   64100    1856.1428   -107.57621     1.679477   -105.89673    19443.019    4.3617881    4.3617881    4.3617881    19443.019   -4077.3064   -7056.7653     69463.13   -7868.5904    5665.3897   -11132.833    82.983872 
   64200    1560.4442   -107.32309    1.4119227   -105.91117   -24591.726    4.3753527    4.3753527    4.3753527   -24591.726   -71747.851    -15296.31    13268.984   -43149.224    9381.7689    20593.979    83.760486 
   64300    1588.8231   -107.33769    1.4376005   -105.90009   -43363.274     4.383748     4.383748     4.383748   -43363.274   -88489.783   -38033.438   -3566.6006   -45438.051   -10408.031   -17191.632    84.243563 
   64400    1816.5981    -107.5129    1.6436961   -105.86921    31546.171    4.3613156    4.3613156    4.3613156    31546.171    -6332.077    85226.086    15744.503   -18268.014   -6184.3766    7.9952063    82.956907 
   64500    1233.1833   -107.01066    1.1158101   -105.89485   -35178.869    4.3622279    4.3622279    4.3622279   -35178.869   -91270.496   -61242.572    46976.461   -43896.368   -17337.632    -2248.604    83.008974 
   64600     2375.039   -108.03451    2.1489852   -105.88553    15473.617    4.3666531    4.3666531    4.3666531    15473.617    5210.7982    34632.529     6577.522    18220.381   -12051.184    -7280.974    83.261851 
   64700    861.21838   -106.69934   0.77924849   -105.92009   -11137.755    4.3828944    4.3828944    4.3828944   -11137.755    -52887.88   -31697.937    51172.551   -54166.172    -7733.508     7608.286    84.194362 
   64800    2039.6251   -107.72985    1.8454957   -105.88435    2850.5663    4.3713299    4.3713299    4.3713299    2850.5663   -30029.242    22504.668    16076.273        33220   -3037.9859   -1670.8409    83.529667 
   64900    1599.7607   -107.32993    1.4474971   -105.88243   -2031.1046    4.3624815    4.3624815    4.3624815   -2031.1046   -4152.1101    -8669.507    6728.3033   -53640.218    3482.8397   -10744.349    83.023455 
   65000     1586.546   -107.32963    1.4355402   -105.89409    5050.2604    4.3583572    4.3583572    4.3583572    5050.2604   -26681.068     28712.41    13119.439    31856.184   -1330.5468    9619.7369    82.788204 
   65100    1842.4507   -107.56474    1.6670881   -105.89765    -2028.589    4.3576992    4.3576992    4.3576992    -2028.589   -4843.2136    22557.431   -23799.984    8055.7348    760.72402   -23252.913    82.750712 
   65200    1492.1324   -107.26215    1.3501127   -105.91204   -15531.177      4.36692      4.36692      4.36692   -15531.177    15438.916   -63508.864    1476.4187    -23666.26    6402.5775    529.16101    83.277121 
   65300     1740.275   -107.48355    1.5746374   -105.90892   -12592.566    4.3726431    4.3726431    4.3726431   -12592.566   -39133.011    34746.869   -33391.555    40404.758    2699.1846    18052.398     83.60497 
   65400    1547.5766   -107.30779    1.4002798   -105.90751    4977.0898    4.3549558    4.3549558    4.3549558    4977.0898    2126.0474    9510.2753    3294.9467   -53477.994    1574.2271   -35798.679    82.594523 
   65500    1996.7658   -107.71016    1.8067157   -105.90344    12696.462    4.3470346    4.3470346    4.3470346    12696.462    14734.375    16756.073     6598.939    10313.892    10403.183    31823.995    82.144649 
   65600    1542.2341   -107.32146    1.3954458   -105.92602    8666.8469    4.3635186    4.3635186    4.3635186    8666.8469    26202.534    8415.0316   -8617.0245    -355.6304     658.5929   -22589.417    83.082677 
   65700    1377.2259   -107.18415    1.2461429   -105.93801   -16141.756    4.3720947    4.3720947    4.3720947   -16141.756   -7212.4357   -63703.299    22490.468   -44905.971    11046.834    3685.2107    83.573518 
   65800     2200.802   -107.89936    1.9913319   -105.90803     -9912.26    4.3690904    4.3690904    4.3690904     -9912.26   -5592.3918   -22560.527    -1583.861    25965.765   -939.01982    11305.033    83.401351 
   65900    1034.5626   -106.84687   0.93609403   -105.91078   -4896.8045    4.3640671    4.3640671    4.3640671   -4896.8045    26328.016   -44259.172    3240.7426   -41569.548    11001.408   -41307.518    83.114016 
   66000    2081.9932   -107.78829    1.8838312   -105.90446   -7201.0982    4.3614313    4.3614313    4.3614313   -7201.0982   -6765.8491   -39181.817    24344.372   -2654.5233   -5496.8527    35207.164    82.963506 
   66100    1789.1147   -107.54451    1.6188286   -105.92568    15912.683     4.363136     4.363136     4.363136    15912.683    7350.6024    13694.982    26692.466    3868.1639     5862.936   -27496.575     83.06083 
   66200    1007.8988    -106.8599   0.91196798   -105.94793    12172.041    4.3678681    4.3678681    4.3678681    12172.041     2190.157    20975.509    13350.458   -39016.659    2595.2643    -10792.61    83.331372 
   66300    2184.5396   -107.89826    1.9766173   -105.92165   -5315.0013     4.373693     4.373693     4.373693   -5315.0013   -1742.0233   -26950.409    12747.428    14250.684    9454.7446    40369.764    83.665205 
   66400    1523.8801   -107.30822    1.3788387   -105.92939   -5838.4453    4.3554587    4.3554587    4.3554587   -5838.4453   -23953.591    4418.7768    2019.4781   -31805.811    9685.1486   -50269.288     82.62314 
   66500    1471.0719   -107.27813    1.3310568   -105.94707    20746.167    4.3462818    4.3462818    4.3462818    20746.167    3796.6028    57059.957      1381.94    -9971.734    452.57043    11595.602    82.101981 
   66600    1796.9404   -107.58329    1.6259094   -105.95739   -14493.761    4.3699091    4.3699091    4.3699091   -14493.761   -34355.247    13962.427   -23088.463   -13166.749    3974.6568    11411.346    83.448246 
   66700    913.25885    -106.7828    0.8263358   -105.95647   -41816.764    4.3698275    4.3698275    4.3698275   -41816.764   -47213.295   -68667.946   -9569.0522   -47362.674    604.42563   -43729.404    83.443569 
   66800    2704.7677   -108.36433    2.4473306     -105.917    23492.801    4.3538672    4.3538672    4.3538672    23492.801     11721.82     56314.24     2442.344    3355.5032    6724.0671    21241.263    82.532599 
   66900    1362.9346   -107.16072    1.2332119   -105.92751   -6768.2975    4.3509883    4.3509883    4.3509883   -6768.2975   -5210.3138   -8466.7397   -6627.8388   -34444.575   -8338.9598   -13023.616    82.368992 
   67000    1511.3672   -107.28992    1.3675168    -105.9224   -10318.297    4.3707832    4.3707832    4.3707832   -10318.297   -1098.5383   -42108.967    12252.613   -8725.7682   -3672.4438   -21333.531    83.498331 
   67100    2105.7474   -107.80308    1.9053245   -105.89775   -35262.548    4.3786599    4.3786599    4.3786599   -35262.548    -12524.66   -35574.681   -57688.302   -4958.8829    1331.5843    31842.894    83.950566 
   67200    1087.6245   -106.88569   0.98410555   -105.90158   -9747.1249    4.3590414    4.3590414    4.3590414   -9747.1249   -63.952391   -22111.308   -7066.1146   -25033.946   -4405.7037   -45635.363    82.827203 
   67300     2423.265   -108.07814    2.1926211   -105.88552    19181.359     4.341469     4.341469     4.341469    19181.359   -4924.8319    24253.507    38215.403    4407.8446   -3485.5195    28156.679    81.829539 
   67400    1032.5725   -106.86708    0.9342933   -105.93278   -2524.0805    4.3471461    4.3471461    4.3471461   -2524.0805    40620.667   -6643.2387   -41549.669   -13038.395    12932.452    3598.8318    82.150973 
   67500    1783.5116   -107.54748    1.6137588   -105.93372   -29278.624    4.3663957    4.3663957    4.3663957   -29278.624   -13102.603   -75537.696    804.42682   -21174.178   -10026.819   -51112.669    83.247128 
   67600    1929.3067   -107.66392    1.7456773   -105.91824   -2159.5188    4.3633893    4.3633893    4.3633893   -2159.5188     237.9018    15731.276   -22447.734    11818.498   -3778.6773    43630.143    83.075294 
   67700    1070.1668    -106.8928   0.96830944   -105.92449   -6419.9447    4.3535114    4.3535114    4.3535114   -6419.9447    27425.593   -12625.885   -34059.542   -18679.208    4173.2332   -55518.327    82.512369 
   67800    2175.7638   -107.88145    1.9686768   -105.91277    13531.416    4.3515201    4.3515201    4.3515201    13531.416    11722.742    5388.1112    23483.394    4578.5161   -8371.6971     11255.36    82.399198 
   67900    1460.9164   -107.25244    1.3218679   -105.93057   -27803.201    4.3612767    4.3612767    4.3612767   -27803.201    2704.7522   -74803.778   -11310.576   -4220.9457    8046.6169   -21162.803    82.954685 
   68000    1624.1815   -107.39847    1.4695935   -105.92888   -605.19755    4.3610333    4.3610333    4.3610333   -605.19755   -5510.7816    35813.609    -32118.42   -14292.474   -2535.3808   -22596.386    82.940799 
   68100    1933.1477   -107.67266    1.7491527   -105.92351     16941.42    4.3490989    4.3490989    4.3490989     16941.42    5844.6006    8781.6041    36198.054    26476.097   -6941.4988     17518.11     82.26173 
   68200    1278.7417   -107.09352    1.1570323   -105.93649    2512.1689    4.3594677    4.3594677    4.3594677    2512.1689    27763.301   -5150.1426   -15076.651   -5161.2548    11217.289    -58252.68    82.851503 
   68300    2008.1957   -107.72757    1.8170577   -105.91051   -15092.585    4.3680781    4.3680781    4.3680781   -15092.585   -45184.551   -2092.6382    1999.4335    20408.062   -11458.007    11398.845    83.343393 
   68400    1382.8677   -107.17029    1.2512478   -105.91904   -8103.2898    4.3513965    4.3513965    4.3513965   -8103.2898   -5127.6991    2056.3492    -21238.52    24164.816    5573.9859   -48575.036    82.392177 
   68500     1993.027   -107.73107    1.8033327   -105.92774    15878.597    4.3495058    4.3495058    4.3495058    15878.597    5201.7921    37374.427    5059.5722   -13716.559   -5283.2469   -10467.587    82.284823 
   68600    2079.8526   -107.81076    1.8818943   -105.92887   -23483.995    4.3576324    4.3576324    4.3576324   -23483.995   -54100.862    -19526.15    3175.0261    39875.952   -1194.4771    7457.7793    82.746906 
   68700    1037.2991   -106.87453   0.93857006   -105.93596   -9350.1386    4.3644245    4.3644245    4.3644245   -9350.1386     3725.689   -9540.4134   -22235.691    914.45856    6171.5075   -48485.086    83.134439 
   68800    2591.1048   -108.24731    2.3444861   -105.90283    -1162.696    4.3660945    4.3660945    4.3660945    -1162.696    1928.6473   -1230.8212   -4185.9142    191.77469      1856.93    29468.019    83.229906 
   68900    763.64181   -106.61272   0.69095916   -105.92176   -11780.685     4.357971     4.357971     4.357971   -11780.685   -22919.314   -5257.3829   -7165.3589    34573.047    5142.3737   -61229.148    82.766201 
   69000    2425.6013   -108.10591     2.194735   -105.91118    18533.663    4.3488171    4.3488171    4.3488171    18533.663   -14935.529    4982.0481    65554.471   -10102.598   -5772.9037    1406.0648    82.245745 
   69100    1774.1642   -107.52751    1.6053011   -105.92221    3314.9591    4.3532667    4.3532667    4.3532667    3314.9591   -3409.2837   -45194.708    58548.869    18435.814   -8791.2478   -11889.479    82.498454 
   69200    1558.7384   -107.34565    1.4103793   -105.93527    18268.187    4.3713796    4.3713796    4.3713796    18268.187    -5588.845    2291.7851     58101.62    7126.9842    3481.1786   -38653.156    83.532519 
   69300    2178.3859   -107.86625    1.9710493    -105.8952   -31690.799    4.3926772    4.3926772    4.3926772   -31690.799   -55874.912     10557.61   -49755.096    5977.6559   -4116.4345    1663.7957    84.759402 
   69400    1290.3512    -107.0555    1.1675369   -105.88797    -36139.87     4.361711     4.361711     4.361711    -36139.87   -24624.617   -67921.911    -15873.08     29872.93    1094.2964    -53186.71    82.979468 
   69500     2709.557   -108.31036    2.4516641   -105.85869    32052.505    4.3488635    4.3488635    4.3488635    32052.505    -8567.082    52265.554    52459.044   -8408.6557   -11969.661    -6486.997    82.248378 
   69600    665.87102   -106.50562   0.60249409   -105.90312   -26112.608    4.3677174    4.3677174    4.3677174   -26112.608   -5130.1086   -21661.824   -51545.892    24429.621   -2113.2227   -58574.809     83.32275 
   69700     2403.486   -108.05727    2.1747246   -105.88255   -9633.4723    4.3733163    4.3733163    4.3733163   -9633.4723   -10168.154   -1034.1941   -17698.069   -2220.5854    2299.8379    339.45588    83.643591 
   69800    1775.1284   -107.49969    1.6061735   -105.89352   -29239.057    4.3763728    4.3763728    4.3763728   -29239.057   -18088.627   -61383.556   -8244.9867    4498.5357    -8306.045   -26472.375    83.819091 
   69900    1008.4896   -106.81441   0.91250259   -105.90191   -8053.4426    4.3530956    4.3530956    4.3530956   -8053.4426   -268.67406   -23425.979   -465.67464    23667.874   -3620.7458   -59170.072    82.488729 
   70000    2568.8261   -108.22054    2.3243278   -105.89621    248.50194    4.3378486    4.3378486    4.3378486    248.50194   -34806.802    27562.375    7989.9328   -16645.102   -5244.8272    25922.873    81.624996 
   70100    932.60308   -106.78509   0.84383887   -105.94125    -19098.83    4.3634197    4.3634197    4.3634197    -19098.83    3099.0381   -24435.682   -35959.845    23699.844    10179.069    -75228.31     83.07703 
   70200    2088.6163   -107.79836    1.8898239   -105.90854     -7747.43    4.3790948    4.3790948    4.3790948     -7747.43   -42570.937    16517.781    2810.8657   -511.64516   -22038.658    8164.4267    83.975584 
   70300    1382.8642    -107.1602    1.2512446   -105.90895   -31340.415    4.3718926    4.3718926    4.3718926   -31340.415   -14608.786   -61565.994   -17846.466    17302.521   -8143.4252   -30784.466    83.561926 
   70400    1377.2823   -107.15364    1.2461939   -105.90744    9759.0777    4.3538025    4.3538025    4.3538025    9759.0777   -17179.199    11540.775    34915.657    16534.973     9561.407   -24564.285    82.528921 
   70500    2509.5994   -108.17383    2.2707383   -105.90309     46462.73      4.34082      4.34082      4.34082     46462.73   -4310.7344    69719.666    73979.259   -15202.681   -4962.5892   -11738.534    81.792846 
   70600    1067.4997   -106.92465   0.96589613   -105.95875   -12947.049    4.3623489    4.3623489    4.3623489   -12947.049   -7852.2063   -44027.136    13038.195    22368.504    703.68146   -33884.494    83.015881 
   70700    2203.7101   -107.89538    1.9939632   -105.90142   -7479.7723    4.3842278    4.3842278    4.3842278   -7479.7723    -58847.96   -6310.0896    42718.733   -7937.0046   -16904.623    -825.4042    84.271228 
   70800    1000.4234   -106.79671   0.90520407   -105.89151    14793.217    4.3794209    4.3794209    4.3794209    14793.217   -25657.684    90058.435   -20021.102    14426.766     2667.731   -46066.452    83.994349 
   70900    2074.8038   -107.75786     1.877326   -105.88054   -21702.362    4.3717806    4.3717806    4.3717806   -21702.362   -70478.351     15081.69   -9710.4247     6762.688    -1827.634    19658.179    83.555506 
   71000    1631.9644   -107.37675    1.4766357   -105.90011    29765.401    4.3465781    4.3465781    4.3465781    29765.401    -1561.672    109277.06   -18419.185   -10863.161   -12398.487   -29812.359    82.118775 
   71100    1394.1566   -107.20554    1.2614622   -105.94407    15712.912    4.3389967    4.3389967    4.3389967    15712.912    24173.914    11779.995    11184.826    24937.483    4226.0736   -23545.706    81.689822 
   71200    1996.6493   -107.77453    1.8066102   -105.96792   -8022.9733    4.3605899    4.3605899    4.3605899   -8022.9733   -48993.822    43313.037   -18388.135    25126.771   -16847.064    2385.0036      82.9155 
   71300    1630.2801   -107.41795    1.4751117   -105.94284   -10434.883    4.3808763    4.3808763    4.3808763   -10434.883   -4726.7016   -11632.025   -14945.922   -6262.3123    430.96164    -41340.14    84.078113 
   71400    1739.7725   -107.48747    1.5741827   -105.91328     7893.152    4.3593935    4.3593935    4.3593935     7893.152   -28089.308    6170.3264    45598.437    41353.237   -6688.8906    4066.4902     82.84727 
   71500    1651.5202   -107.40247    1.4943302   -105.90814    27943.962    4.3481676    4.3481676    4.3481676    27943.962   -16537.766    60956.799    39412.852   -652.41463   -15977.555   -2988.7627      82.2089 
   71600    2074.3671   -107.80654     1.876931   -105.92961   -3932.6508    4.3548071    4.3548071    4.3548071   -3932.6508   -10364.118   -3834.1934    2400.3594    8309.4512   -4121.8253   -18776.317    82.586065 
   71700     1010.547     -106.873   0.91436415   -105.95864   -9593.6051    4.3654015    4.3654015    4.3654015   -9593.6051   -49604.159    741.79385    20081.549    28977.438   -4786.7982    26970.495    83.190277 
   71800    2505.2827    -108.1954    2.2668324   -105.92856    1926.4082    4.3625063    4.3625063    4.3625063    1926.4082    16038.206    3477.4111   -13736.393   -15096.752   -23551.113     1133.832    83.024867 
   71900    1089.7722   -106.92542   0.98604881   -105.93937    24605.931     4.355506     4.355506     4.355506    24605.931   -1698.6236    11278.999    64237.418    18821.728   -127.79112    -772.7242    82.625833 
   72000    1697.6746   -107.45976    1.5360916   -105.92366    10347.874    4.3553885    4.3553885    4.3553885    10347.874    22456.499    148.86731    8438.2551   -256.69871   -35105.394    20399.957    82.619146 
   72100    1872.4367   -107.60834      1.69422   -105.91412   -391.28202    4.3737847    4.3737847    4.3737847   -391.28202   -24480.534   -10510.168    33816.856    11780.632    10127.534   -20238.816    83.670466 
   72200    1459.3873   -107.22341    1.3204843   -105.90293   -50766.578    4.3754885    4.3754885    4.3754885   -50766.578   -79802.908   -46948.874   -25547.952      18492.9   -33293.878    4746.6163    83.768286 
   72300    2037.2637   -107.73029     1.843359   -105.88693    36316.673    4.3458895    4.3458895    4.3458895    36316.673     22518.84    71270.001    15161.176    1703.5781   -8284.7229    9083.8871    82.079754 
   72400    1427.1358    -107.2163    1.2913025     -105.925   -20785.388    4.3461023    4.3461023    4.3461023   -20785.388   -54580.062   -59505.751    51729.648    49022.491   -7003.0258   -11563.306    82.091808 
   72500    1711.9828   -107.47884     1.549038   -105.92981    19021.331    4.3533231    4.3533231    4.3533231    19021.331   -34062.174    91483.006   -356.83872   -17220.847   -32213.591    6576.1639    82.501663 
   72600    1511.9696   -107.29754    1.3680619   -105.92948   -6194.7943    4.3791555    4.3791555    4.3791555   -6194.7943   -66487.836   -15942.824    63846.278    49223.759    19528.226    11834.513    83.979078 
   72700    1471.6572   -107.22592    1.3315863   -105.89433   -18401.956    4.3873554    4.3873554    4.3873554   -18401.956   -75792.993    17815.442    2771.6821   -14627.087   -12881.803    63.936761    84.451708 
   72800    1494.2094   -107.22681     1.351992   -105.87482    23383.492    4.3555653    4.3555653    4.3555653    23383.492   -12660.465    20553.856    62257.084    20796.332    13433.614     13983.13    82.629208 
   72900    1778.6388   -107.49594    1.6093497   -105.88659     16300.56    4.3434263    4.3434263    4.3434263     16300.56    -15721.84    48320.343    16303.178    14241.168   -16723.366    11402.386    81.940267 
   73000    1382.1675   -107.18442    1.2506142    -105.9338   -39815.201    4.3611348    4.3611348    4.3611348   -39815.201   -41601.004   -28444.816   -49399.783   -17149.596    -18446.94   -14592.894    82.946587 
   73100    2335.3216   -108.02973     2.113048   -105.91668   -14455.985    4.3668169    4.3668169    4.3668169   -14455.985   -40912.565   -223.14614   -2232.2427    10868.783     23316.74   -7775.6397    83.271223 
   73200    1146.8519   -106.96593    1.0376957   -105.92824   -21514.389     4.364042     4.364042     4.364042   -21514.389   -46910.499    30326.501   -47959.171   -4765.7576    -50553.47    251.14026     83.11258 
   73300    1769.4699   -107.51842    1.6010536   -105.91737   -19404.839    4.3638582    4.3638582    4.3638582   -19404.839    -21011.34   -12580.779   -24622.397   -22981.178    17366.198   -28562.438    83.102081 
   73400    1895.4328   -107.62248    1.7150274   -105.90745    15415.414    4.3656555    4.3656555    4.3656555    15415.414   -14408.951    74284.173   -13628.981      10099.1   -26394.464    18340.245    83.204804 
   73500    1108.7844   -106.92158    1.0032514   -105.91833   -26916.449    4.3778575    4.3778575    4.3778575   -26916.449   -28712.293   -30219.608   -21817.447   -41997.201   -6978.5705    -3228.838    83.904424 
   73600    2188.7132    -107.8696    1.9803937    -105.8892   -6604.6166    4.3660631    4.3660631    4.3660631   -6604.6166   -26916.917    22597.096   -15494.028   -14411.081   -8266.0904   -10213.731    83.228106 
   73700    1565.6344   -107.31952    1.4166189    -105.9029    17537.058    4.3474736    4.3474736    4.3474736    17537.058    85380.462   -3990.9207   -28778.368    3092.5214   -30432.541     4035.588    82.169541 
   73800    2041.5157   -107.76659    1.8472063   -105.91938   -803.30012    4.3569593    4.3569593    4.3569593   -803.30012    25746.219   -17909.405   -10246.714   -16821.771    15039.831    -18318.92    82.708571 
   73900    1530.0659   -107.30319    1.3844358   -105.91875    1152.1121    4.3720138    4.3720138    4.3720138    1152.1121    35615.756    11664.006   -43823.426    31480.327   -43176.168   -8458.4647    83.568879 
   74000    1685.2668   -107.43535    1.5248648   -105.91048   -18719.428    4.3868586    4.3868586    4.3868586   -18719.428   -6178.6463    18877.918   -68857.556    23863.128    2972.0162   -26084.278    84.423025 
   74100    2218.9367   -107.88933    2.0077405   -105.88159    2056.4429    4.3759206    4.3759206    4.3759206    2056.4429    13473.497    2687.3328   -9991.5013    12529.165   -13201.575   -15622.029     83.79311 
   74200    1291.7843   -107.05551    1.1688336   -105.88668    24677.004    4.3529154    4.3529154    4.3529154    24677.004    46142.892    33117.653   -5229.5315    22740.113    -24731.57   -15490.042    82.478488 
   74300    2084.9715   -107.78987     1.886526   -105.90334   -2366.5049    4.3592536    4.3592536    4.3592536   -2366.5049    39482.284   -28629.208    -17952.59    18118.678    15097.676   -33673.272    82.839299 
   74400     1812.059   -107.54515    1.6395891   -105.90557    30201.158    4.3641902    4.3641902    4.3641902    30201.158    70150.058    58134.908   -37681.491   -11969.323   -27052.046     6040.109    83.121051 
   74500    1306.9581   -107.11075    1.1825631   -105.92819   -25117.864     4.358542     4.358542     4.358542   -25117.864   -15774.123   -24670.111   -34909.359    30783.799    9949.1579   -28814.471    82.798734 
   74600    1560.7923   -107.34112    1.4122377   -105.92888   -2681.3015     4.350751     4.350751     4.350751   -2681.3015    7431.9852   -17331.143     1855.253   -10137.254    12685.332    21.922169    82.355515 
   74700     2342.451   -108.04697    2.1194989   -105.92747   -1844.8732    4.3479448    4.3479448    4.3479448   -1844.8732    47781.019   -23657.209    -29658.43   -11851.066   -5639.3913   -20386.414    82.196262 
   74800    1126.0859   -106.96205    1.0189062   -105.94314    -34483.05    4.3661514    4.3661514    4.3661514    -34483.05   -17881.713   -49179.926   -36387.511    20024.497    15191.007   -26436.257    83.233159 
   74900      1793.48   -107.54179    1.6227784   -105.91901   -24911.204    4.3679672    4.3679672    4.3679672   -24911.204   -14425.177    -44938.45   -15369.987   -25974.449    9271.2647    5729.4072    83.337046 
   75000    1825.4842   -107.56437    1.6517365   -105.91263    6457.4229    4.3531343    4.3531343    4.3531343    6457.4229     85958.58    -34607.51   -31978.801   -10479.882   -11449.607   -41776.997     82.49093 
   75100     1620.867   -107.38062    1.4665945   -105.91403    24112.939    4.3514954    4.3514954    4.3514954    24112.939    55493.995     6923.892    9920.9288    -6995.246    21016.618    18300.778    82.397796 
   75200    1250.2332   -107.06638    1.1312373   -105.93515   -44659.959    4.3676891    4.3676891    4.3676891   -44659.959    23840.391   -76440.706   -81379.563   -14551.613   -20407.166   -49444.032    83.321128 
   75300    2137.0268    -107.8563    1.9336268   -105.92268   -11436.892    4.3629161    4.3629161    4.3629161   -11436.892    11775.016   -1060.5195   -45025.171     10500.82   -25863.722   -14253.331    83.048268 
   75400    1892.4981   -107.64269     1.712372   -105.93032    1899.8613    4.3468956    4.3468956    4.3468956    1899.8613    33765.404   -58330.661     30264.84   -8799.1544    7069.2463   -17258.817     82.13677 
   75500    1058.8385   -106.90882   0.95805929   -105.95077    5538.1023    4.3478141    4.3478141    4.3478141    5538.1023    65399.641   -24116.942   -24668.393   -9955.8572   -33640.894   -29673.133    82.188848 
   75600    2219.2506    -107.9409    2.0080245   -105.93287    9629.7866    4.3589735    4.3589735    4.3589735    9629.7866    49873.963   -13429.954    -7554.649    6182.6393    -22438.12    16910.986    82.823328 
   75700    1584.8061   -107.37278    1.4339658   -105.93881   -16690.872    4.3643285    4.3643285    4.3643285   -16690.872      36010.4   -59450.198   -26632.818   -13929.488    7878.9048   -48451.842    83.128949 
   75800    1138.3276   -106.97184    1.0299827   -105.94186   -20037.574    4.3543852    4.3543852    4.3543852   -20037.574   -20419.102   -5950.2526   -33743.366   -13481.165   -65673.695    1934.0997    82.562064 
   75900    2222.5987    -107.9363     2.011054   -105.92524    21240.854     4.342578     4.342578     4.342578    21240.854    45322.232   -10949.493    29349.822    12258.522    19131.538    10009.232    81.892264 
   76000    1571.2214   -107.36665    1.4216742   -105.94497   -17254.745    4.3582079    4.3582079    4.3582079   -17254.745   -7291.1444   -28270.414   -16202.675   -11507.535   -28953.945   -42039.753      82.7797 
   76100    1557.9789   -107.34611    1.4096921   -105.93642   -24234.433    4.3659205    4.3659205    4.3659205   -24234.433   -56043.973   -6539.2357   -10120.091   -971.57881   -34347.997    27837.177    83.219954 
   76200    1891.3576   -107.62744    1.7113401    -105.9161    35.791189    4.3652958    4.3652958    4.3652958    35.791189    1277.8675   -10820.495    9650.0008    6071.2709    16489.932   -16212.411    83.184238 
   76300    1924.4875   -107.65892    1.7413167   -105.91761   -25401.637     4.356313     4.356313     4.356313   -25401.637   -45515.847   -15120.516   -15568.547   -13523.596   -47954.043   -1789.9886     82.67177 
   76400    1495.0332   -107.27782    1.3527374   -105.92508    28593.085    4.3425761    4.3425761    4.3425761    28593.085   -11412.207    53200.173    43991.289    2538.7522   -13400.311    25883.593    81.892157 
   76500    2251.5342   -107.96882    2.0372355   -105.93159    14129.575    4.3590074    4.3590074    4.3590074    14129.575   -4829.9659    25968.599     21250.09    4249.1309    8961.3483   -17371.466    82.825264 
   76600    1385.1958   -107.18509    1.2533543   -105.93173    -27211.88    4.3721453    4.3721453    4.3721453    -27211.88   -60931.644   -36372.554    15668.558   -21672.257   -24183.909    7081.5214    83.576421 
   76700    1672.4535   -107.42527    1.5132711     -105.912    2733.8439    4.3595685    4.3595685    4.3595685    2733.8439     -11029.2    11900.145    7330.5865   -2766.3576   -295.75121    19805.759     82.85725 
   76800    2297.9853   -107.98347    2.0792654    -105.9042    11238.009    4.3513086    4.3513086    4.3513086    11238.009   -19276.449    21255.464    31735.011    7464.9442    8446.5778   -16615.165    82.387182 
   76900    1216.9919   -107.04014    1.1011599   -105.93898     176.4396    4.3576804    4.3576804    4.3576804     176.4396   -7726.1927   -11881.445    20136.957   -27725.877   -32415.705     45338.73    82.749642 
   77000    2175.4055   -107.89465    1.9683527   -105.92629    8110.4201    4.3679509    4.3679509    4.3679509    8110.4201    34380.752    6011.9222   -16061.414    13259.123    17576.556    20817.614    83.336114 
   77100    1716.6989   -107.47932    1.5533053   -105.92601   -6279.2696    4.3661834    4.3661834    4.3661834   -6279.2696    6117.9044   -23695.124   -1260.5891    15516.322   -20734.592    11445.296    83.234989 
   77200    1106.5207   -106.92395    1.0012032   -105.92275      1531.56    4.3555317    4.3555317    4.3555317      1531.56    15563.706    2436.0654   -13405.091   -28870.428   -8653.0619    34744.826    82.627297 
   77300    2604.1551   -108.26244    2.3562943   -105.90614   -5270.6097    4.3570618    4.3570618    4.3570618   -5270.6097   -11538.791     12511.69   -16784.728    14057.446   -4635.0351   -8457.2881    82.714409 
   77400    1294.5113   -107.10139     1.171301   -105.93009   -36378.432    4.3643922    4.3643922    4.3643922   -36378.432   -1762.9198   -46465.305   -60907.071   -14311.406   -14084.066     47028.59     83.13259 
   77500    1528.7664   -107.31493      1.38326   -105.93167    17256.888    4.3584554    4.3584554    4.3584554    17256.888    41183.477    8150.8611     2436.325   -37506.861   -2835.8323   -11389.539    82.793798 
   77600    2388.6937   -108.08909    2.1613403   -105.92775    2911.4911    4.3518557    4.3518557    4.3518557    2911.4911    14187.015   -10063.494    4610.9519    17007.354    5884.4114    6575.6357    82.418263 
   77700    698.07652   -106.58848   0.63163431   -105.95684   -5060.7504    4.3487086    4.3487086    4.3487086   -5060.7504    39246.154   -29363.494   -25064.912   -30494.184   -7301.0525    26342.945    82.239585 
   77800    2215.3843   -107.95329    2.0045263   -105.94876    9042.9775    4.3555914    4.3555914    4.3555914    9042.9775   -35515.777   -384.22728    63028.937   -26636.601   -11157.321   -17253.115    82.630695 
   77900    1563.6449   -107.35941    1.4148188   -105.94459    29252.622    4.3664521    4.3664521    4.3664521    29252.622    60279.586   -19984.861    47463.141   -198.24688    9078.5768    33182.324    83.250353 
   78000    1247.9481   -107.05493    1.1291697   -105.92576    5396.0386    4.3695552    4.3695552    4.3695552    5396.0386   -39783.649    7898.4007    48073.365   -32611.166   -27731.814    9140.8058    83.427975 
   78100    2009.4873   -107.71491    1.8182263   -105.89668     798.9487    4.3614906    4.3614906    4.3614906     798.9487   -35515.326   -23642.196    61554.368    2518.0985   -3552.0605   -24845.851     82.96689 
   78200    1429.2379   -107.21113    1.2932045   -105.91793    -15935.86     4.342545     4.342545     4.342545    -15935.86    11572.293   -55354.012   -4025.8601   -48918.931   -2238.3169     28366.56      81.8904 
   78300     2288.589    -107.9982    2.0707634   -105.92744    41583.328    4.3481967    4.3481967    4.3481967    41583.328   -16433.453   -12656.348    153839.79    13580.706   -8709.4539   -3429.2116    82.210548 
   78400     887.8153   -106.75205   0.80331394   -105.94874   -23217.566    4.3747208    4.3747208    4.3747208   -23217.566   -76120.516   -91029.876    97497.696   -29538.281     18799.62    6674.1033    83.724201 
   78500    1748.5627   -107.51947    1.5821363   -105.93734    -30716.13    4.3624461    4.3624461    4.3624461    -30716.13   -29623.878   -60650.183   -1874.3292   -2927.7238    10900.193    38504.743    83.021432 
   78600    2317.5893   -108.02401    2.0970035     -105.927    11465.055    4.3447126    4.3447126    4.3447126    11465.055   -43140.838   -24640.331    102176.33   -14190.201   -17509.716   -13645.971    82.013085 
   78700    1484.8049    -107.2908    1.3434827   -105.94731    3156.3048     4.352094     4.352094     4.352094    3156.3048   -6425.0494   -59626.651    75520.615   -15483.602    11454.274    43559.256    82.431802 
   78800    1409.4472   -107.22703    1.2752974   -105.95173   -34934.097    4.3597792    4.3597792    4.3597792   -34934.097   -24168.198   -30728.589   -49905.503    4365.4856    13977.937    26001.818    82.869263 
   78900    1868.6625   -107.63022    1.6908051   -105.93941   -2087.8013    4.3472239    4.3472239    4.3472239   -2087.8013   -40485.207   -5575.8724    39797.676   -10017.022   -23974.856   -16236.652    82.155382 
   79000    1423.0764   -107.23572    1.2876294   -105.94809    24842.096    4.3495698    4.3495698    4.3495698    24842.096    55334.286     -40219.9    59411.903    121.21145   -14853.648    59673.701    82.288457 
   79100    1934.8875   -107.68909    1.7507269   -105.93836    22514.943    4.3594122    4.3594122    4.3594122    22514.943   -13543.592    7688.4213    73399.998   -5965.4987   -16190.961   -26278.551    82.848339 
   79200     1540.567   -107.33054    1.3939374    -105.9366   -39566.427    4.3739617    4.3739617    4.3739617   -39566.427   -31598.616    -50906.98   -36193.685    392.20206   -27511.985    41494.408    83.680625 
   79300    1996.3608   -107.72348    1.8063492   -105.91713    2884.2258    4.3649884    4.3649884    4.3649884    2884.2258    12326.679   -22729.863    19055.861    4187.6647    2538.6588    39094.571    83.166666 
   79400    1981.0788   -107.70468    1.7925217   -105.91216    18580.163    4.3452449    4.3452449    4.3452449    18580.163    1316.3352    21883.068    32541.086   -1938.4574   -6893.7706   -15041.032    82.043233 
   79500    772.58249   -106.64238   0.69904887   -105.94333   -701.83762    4.3452003    4.3452003    4.3452003   -701.83762    9146.4641   -50237.808    38985.831    9963.2531   -12387.753    59724.082    82.040711 
   79600    2329.2269   -108.04242    2.1075334   -105.93488    2303.4727    4.3562134    4.3562134    4.3562134    2303.4727   -48336.545    38529.597    16717.366    26543.504    3251.0327   -14850.562    82.666098 
   79700    1703.2097   -107.48443       1.5411   -105.94333   -39088.048    4.3711352    4.3711352    4.3711352   -39088.048   -8429.5325   -54259.029   -54575.582   -12681.823   -9998.6443    25252.586    83.518504 
   79800    1450.3953   -107.23055    1.3123481   -105.91821   -66955.137    4.3777242    4.3777242    4.3777242   -66955.137   -82610.037   -92014.557   -26240.817     27889.33   -11742.832    31331.051    83.896759 
   79900    2380.8154   -108.05079    2.1542118   -105.89658    6451.9418    4.3508966    4.3508966    4.3508966    6451.9418   -2701.5226    37.145354    22020.203   -3638.3981    14710.659   -12506.305    82.363786 
   80000    1428.2139   -107.21336    1.2922779   -105.92108   -2873.0226    4.3390605    4.3390605    4.3390605   -2873.0226    9081.3242   -16887.257   -813.13454    15800.863   -18268.717    58959.826    81.693425 
   80100    1635.3228   -107.42807    1.4796744    -105.9484   -284.24432     4.350142     4.350142     4.350142   -284.24432   -63594.032   -37612.877    100354.18     34435.12   -3966.6749   -3253.3455    82.320935 
   80200    2021.4318   -107.76785    1.8290339   -105.93882    12932.147    4.3643443    4.3643443    4.3643443    12932.147    16027.631    23705.844   -937.03452   -12178.448    5102.0161    12791.366    83.129852 
   80300    1302.4075   -107.12394    1.1784456    -105.9455   -31774.627    4.3647358    4.3647358    4.3647358   -31774.627    -16727.45   -62756.899   -15839.532    46015.403   -11652.301    48982.055    83.152227 
   80400    2272.6762   -107.97606    2.0563651   -105.91969    27462.349    4.3428752    4.3428752    4.3428752    27462.349    -19461.47    19340.918    82507.598   -6971.0157     -3554.45   -22164.772    81.909079 
   80500     1205.511   -107.03022    1.0907717   -105.93944    9996.7668    4.3422743    4.3422743    4.3422743    9996.7668    17435.258   -34017.377    46572.419    35482.446    4111.0672    13058.767    81.875083 
   80600    1374.6138   -107.19558    1.2437795    -105.9518     5051.545    4.3668559    4.3668559    4.3668559     5051.545    12349.086   -54969.526    57775.075    21437.748   -3788.0527      22146.7    83.273455 
   80700    2280.3202   -107.97126    2.0632816   -105.90798   -32226.965     4.381269     4.381269     4.381269   -32226.965   -54376.587    -61424.48    19120.171    9068.7086    6395.0148   -11550.092     84.10073 
   80800    995.91336   -106.80205   0.90112333   -105.90093   -18338.692    4.3636458    4.3636458    4.3636458   -18338.692    9994.9264   -50789.122   -14221.881    43135.194   -1096.6303    48915.204    83.089946 
   80900    1912.9623   -107.59424    1.7308885   -105.86335    56184.721    4.3348043    4.3348043    4.3348043    56184.721    72453.695    36019.899    60080.569   -25062.469   -1805.6851    4782.1591    81.453262 
   81000    1445.0502    -107.2161    1.3075118   -105.90859   -21237.991    4.3479433    4.3479433    4.3479433   -21237.991   -44881.801   -44272.164    25439.991    54384.451    523.73211    19072.176    82.196179 
   81100    2323.3312   -107.99171    2.1021989   -105.88951   -24023.494    4.3785991    4.3785991    4.3785991   -24023.494     11360.75   -31341.208   -52090.024   -14403.382   -2058.9641    15475.836    83.947074 
   81200    1533.7276   -107.27017     1.387749   -105.88242   -1509.3698    4.3685408    4.3685408    4.3685408   -1509.3698   -46621.415   -41676.743    83770.049    16115.861   -7203.1083   -3059.2459    83.369883 
   81300    1694.7954   -107.39655    1.5334865   -105.86306    34000.047    4.3475433    4.3475433    4.3475433    34000.047    21162.208    40865.288    39972.646    20778.382   -1727.6329    35910.729    82.173494 
   81400    1809.1922   -107.51815    1.6369951   -105.88115    3953.4727    4.3623401    4.3623401    4.3623401    3953.4727    17877.997   -370.70509   -5646.8739   -1621.8154    292.07233   -19766.731    83.015382 
   81500     1438.277   -107.19446    1.3013833   -105.89308   -21283.631    4.3817026    4.3817026    4.3817026   -21283.631   -24481.516   -53850.018    14480.641    38160.778   -7288.4393    14591.911    84.125703 
   81600    2065.2689   -107.72914    1.8686987   -105.86044    20882.904    4.3742393    4.3742393    4.3742393    20882.904    27202.024    54170.265   -18723.576    2101.4581     8456.139   -11733.009    83.696561 
   81700    1017.8209   -106.80509   0.92094577   -105.88414   -26138.476    4.3593104    4.3593104    4.3593104   -26138.476   -28410.324   -79666.029    29660.924    30034.799    4111.5364   -6632.5621    82.842535 
   81800    2386.8366   -108.03007    2.1596599   -105.87041    48523.222    4.3366621    4.3366621    4.3366621    48523.222    18247.231    106736.19    20586.243   -19845.231   -18037.109   -1579.2304    81.558033 
   81900    1050.3941   -106.88013    0.9504187   -105.92971   -26127.351    4.3569085    4.3569085    4.3569085   -26127.351   -28127.991   -74773.072    24519.009    39220.593     2933.214   -19693.308    82.705674 
   82000    2244.4669   -107.92352    2.0308408   -105.89268   -29102.416     4.370161     4.370161     4.370161   -29102.416   -62391.386   -30835.031    5919.1682    10717.787    -11031.13    14051.084    83.462674 
   82100     1872.531   -107.57914    1.6943054   -105.88483   -10018.184    4.3554449    4.3554449    4.3554449   -10018.184    9932.1168   -20205.681   -19780.988    675.37535   -5355.1797   -16786.276    82.622354 
   82200    1475.7704   -107.23149    1.3353081   -105.89618   -20948.767     4.362774     4.362774     4.362774   -20948.767   -19614.619   -80934.236    37702.554    56628.042    7911.5595   -912.11988    83.040155 
   82300     1866.126   -107.56828      1.68851   -105.87977   -4641.9932    4.3618692    4.3618692    4.3618692   -4641.9932     17277.75    13201.171   -44404.901   -19367.215    -3456.694     4702.687    82.988501 
   82400    1327.3289    -107.1015    1.2009951    -105.9005   -24255.775    4.3595052    4.3595052    4.3595052   -24255.775   -6050.1065   -52447.952   -14269.267     63206.26   -568.14824   -15124.989    82.853643 
   82500    2407.2962   -108.06641    2.1781722   -105.88824   -7406.7529     4.358706     4.358706     4.358706   -7406.7529   -42324.198    33944.089    -13840.15    14389.092    2079.0824    11406.501    82.808082 
   82600    1018.0111   -106.82914   0.92111782   -105.90803   -25141.315    4.3642442    4.3642442    4.3642442   -25141.315    13234.738   -53783.794   -34874.889    33016.814    2324.9735   -9397.1126    83.124131 
   82700    1849.4458   -107.56158    1.6734174   -105.88816    11375.913    4.3612776    4.3612776    4.3612776    11375.913    14109.181   -5196.5822     25215.14    28689.424   -11052.165   -7379.3638    82.954735 
   82800    1732.4717    -107.4591    1.5675768   -105.89152    969.15236    4.3505879    4.3505879    4.3505879    969.15236    -11835.11       -22686    37428.567   -11331.026    5103.8977    3882.9447    82.346253 
   82900    1916.2736   -107.63403    1.7338846   -105.90015   -7856.9683    4.3559765    4.3559765    4.3559765   -7856.9683     22951.03   -48301.473    1779.5383    38860.857    581.51648    12150.922    82.652613 
   83000    1421.0691   -107.18804    1.2858131   -105.90223    9948.3519    4.3625727    4.3625727    4.3625727    9948.3519   -19096.275   -11635.837    60577.167   -40182.688    4036.7431   -10971.676    83.028658 
   83100    1909.2178   -107.63002    1.7275004   -105.90252   -22248.691    4.3706861    4.3706861    4.3706861   -22248.691   -15158.888   -47197.803   -4389.3827   -3734.8324   -3301.2416    10526.623    83.492765 
   83200    2414.9691    -108.0728    2.1851148   -105.88768   -10040.201    4.3637951    4.3637951    4.3637951   -10040.201    4786.3501   -23538.636   -11368.316   -7205.9424   -5007.3751    239.71189    83.098475 
   83300    1228.6024   -107.01772    1.1116653   -105.90606   -15380.719    4.3440529    4.3440529    4.3440529   -15380.719    -56079.77   -2797.2273    12734.841   -43981.802   -115.47009    2117.3636    81.975734 
   83400    2182.1042   -107.88146    1.9744138   -105.90705    22142.658    4.3467752    4.3467752    4.3467752    22142.658    26171.953    5835.8345    34420.188    28270.092    610.33184    8188.7234    82.129945 
   83500    1447.4159   -107.22856    1.3096523   -105.91891   -21790.476    4.3677071    4.3677071    4.3677071   -21790.476   -26464.203    9962.8416   -48870.068   -889.97837   -12244.575    3046.5531    83.322161 
   83600    1644.5003   -107.39488    1.4879785    -105.9069   -7557.9514    4.3684593    4.3684593    4.3684593   -7557.9514   -14865.829    10136.019   -17944.044   -11812.655    6731.6423    2059.5461    83.365216 
   83700    1619.8484   -107.36115    1.4656729   -105.89548    4738.6263    4.3604904    4.3604904    4.3604904    4738.6263    14281.549   -6226.5561    6160.8857     55845.03   -12506.648    1370.3564    82.909827 
   83800    1649.6186   -107.38875    1.4926096   -105.89614   -16933.884    4.3567283    4.3567283    4.3567283   -16933.884   -21123.227     14360.77   -44039.194   -23626.163   -28004.575    2919.2107    82.695416 
   83900    1209.2006   -107.00385    1.0941101   -105.90974   -6996.0815    4.3438913    4.3438913    4.3438913   -6996.0815   -41091.561    8374.9683    11728.348     47073.12    2607.6237    -4577.151    81.966586 
   84000    2063.1459   -107.79825    1.8667778   -105.93147   -3318.1512    4.3488245    4.3488245    4.3488245   -3318.1512    14175.085   -18173.603   -5955.9348    20736.726   -10780.495    -2299.485    82.246164 
   84100     1929.995   -107.67721    1.7463001   -105.93091   -6600.8163    4.3596792    4.3596792    4.3596792   -6600.8163   -12011.742    19139.998   -26930.705    11845.208   -12250.227    1194.4938    82.863562 
   84200    1109.1483    -106.9384    1.0035807   -105.93481    19210.437    4.3562937    4.3562937    4.3562937    19210.437    96589.453   -36484.727   -2473.4155    63865.386     8222.778    7495.9069    82.670668 
   84300    2279.4045   -107.97622    2.0624531   -105.91376    8911.9088    4.3576895    4.3576895    4.3576895    8911.9088    40841.911    12880.454   -26986.639   -27919.364   -7808.5124   -1352.8801    82.750162 
   84400    1273.3468   -107.07133    1.1521509   -105.91918    30855.443    4.3510666    4.3510666    4.3510666    30855.443    32663.939    17487.511     42414.88    81378.067   -1192.8151    14496.652    82.373437 
   84500    2161.0788   -107.85857    1.9553895   -105.90318    1467.2279    4.3651383    4.3651383    4.3651383    1467.2279   -9859.2104    20582.102   -6321.2077   -29552.704   -775.63094    18620.597    83.175234 
   84600    1508.2862    -107.2665    1.3647291   -105.90177    6002.8653     4.368419     4.368419     4.368419    6002.8653    -5563.134    17502.141    6069.5888    10790.591   -12745.086    5606.3387     83.36291 
   84700    1938.8008   -107.64743    1.7542677   -105.89317    5815.2844    4.3618312    4.3618312    4.3618312    5815.2844    12737.377    19229.785   -14521.309    44621.604   -3310.6169    18297.447    82.986329 
   84800    1667.6322    -107.4066    1.5089087    -105.8977   -4152.7422    4.3541538    4.3541538    4.3541538   -4152.7422    11811.557   -19706.616   -4563.1682   -27644.193   -8551.3195    7286.3789    82.548899 
   84900    1665.8948   -107.41073    1.5073366    -105.9034     17051.64    4.3574683    4.3574683    4.3574683     17051.64    -45043.68    68253.567    27945.033    42722.057   -2571.9046    1713.5772     82.73756 
   85000    1434.3067   -107.19938    1.2977908   -105.90159   -8256.6979    4.3757256    4.3757256    4.3757256   -8256.6979    21177.626   -8263.8318   -37683.888   -9613.6782     267.1696    44709.017    83.781909 
   85100    1846.7722   -107.55026    1.6709983   -105.87927    11031.645    4.3719397    4.3719397    4.3719397    11031.645    12579.067    14662.264    5853.6039   -8458.6265   -5638.5058   -2861.6947    83.564628 
   85200    1488.5176   -107.22484     1.346842     -105.878    6474.1281    4.3660697    4.3660697    4.3660697    6474.1281    1480.0701   -10317.332    28259.647    17566.446    4715.1759    48321.656    83.228485 
   85300    1669.8345   -107.39731    1.5109013   -105.88641   -7393.6293    4.3587593    4.3587593    4.3587593   -7393.6293   -20326.814   -28080.074        26226   -30816.128    15063.208     4880.535    82.811118 
   85400    1937.0544   -107.64576    1.7526875   -105.89307    27823.883    4.3443286    4.3443286    4.3443286    27823.883    9393.3428    1092.3329    72985.973    7911.2439   -10296.784    7932.8703    81.991346 
   85500    1785.4947   -107.53774    1.6155531   -105.92218    -6900.418    4.3492991    4.3492991    4.3492991    -6900.418    5390.1963   -23638.287   -2453.1636   -11896.516    19845.921    59265.516    82.273093 
   85600    1807.7044   -107.56058    1.6356489   -105.92493    6906.1995    4.3644628    4.3644628    4.3644628    6906.1995   -13151.891   -8018.5181    41889.008   -20576.966    1686.0292   -29668.592    83.136627 
   85700     1729.841   -107.48325    1.5651965   -105.91806    -5049.745    4.3572583    4.3572583    4.3572583    -5049.745    20790.064   -16566.671   -19372.628    8663.3401    11464.621    66321.697    82.725597 
   85800    1856.7379   -107.60184    1.6800155   -105.92182    1805.4501    4.3435633    4.3435633    4.3435633    1805.4501   -25908.274    11976.237    19348.387   -21470.905    7938.3821    4927.4633    81.948021 
   85900    1680.1122   -107.45406    1.5202008   -105.93386    19667.276    4.3328557    4.3328557    4.3328557    19667.276    28429.211    16728.736    13843.882   -5810.5718    6313.1319    18718.424    81.343467 
   86000    1251.3669   -107.10417    1.1322631   -105.97191    2808.6143    4.3487347    4.3487347    4.3487347    2808.6143    31244.823    48151.958   -70970.938      2781.48   -8271.5786    37893.448    82.241068 
   86100    2584.8248   -108.27841    2.3388038    -105.9396   -5248.5622    4.3630999    4.3630999    4.3630999   -5248.5622   -44061.633    23433.399    4882.5472    2086.2367    11046.403   -24768.892    83.058764 
   86200    1503.3188   -107.30506    1.3602344   -105.94483    11604.962     4.347979     4.347979     4.347979    11604.962    31582.428    30161.271   -26928.814   -2166.3962   -9218.1804    72397.402    82.198202 
   86300     1378.835   -107.19008    1.2475989   -105.94249   -8562.5129    4.3545329    4.3545329    4.3545329   -8562.5129   -9386.5263   -8797.7646   -7503.2479    5418.8104   -16441.209   -37114.003    82.570463 
   86400    2129.3301   -107.85005    1.9266626   -105.92339   -104.73068    4.3494498    4.3494498    4.3494498   -104.73068   -16303.217    47618.243   -31629.218   -4770.6097    5334.4679    19472.576    82.281646 
   86500    1356.7377    -107.1666    1.2276047     -105.939    11054.511    4.3505248    4.3505248    4.3505248    11054.511    20132.327    44329.585   -31298.379   -186.95322   -17078.943    47294.184    82.342669 
   86600    1601.4196   -107.38356    1.4489981   -105.93456   -12952.528     4.357996     4.357996     4.357996   -12952.528    20049.172   -13917.002   -44989.752   -4850.8382    1455.9697   -63348.464    82.767625 
   86700    2065.3723   -107.78577    1.8687923   -105.91697   -4116.8111     4.361889     4.361889     4.361889   -4116.8111   -16518.539    41126.474   -36958.368   -5088.7888    14408.482    36226.979    82.989632 
   86800    1440.5647   -107.23352    1.3034532   -105.93007   -33465.708    4.3520653    4.3520653    4.3520653   -33465.708    -20778.43   -22023.199   -57595.493    8902.4787   -39155.077   -35034.218    82.430175 
   86900    1292.6325   -107.10942    1.1696011   -105.93982   -2978.5491    4.3419033    4.3419033    4.3419033   -2978.5491   -5319.8253    27474.806   -31090.628   -2123.3542    32995.798   -34085.582    81.854103 
   87000    2459.7683   -108.15197      2.22565   -105.92632    19905.649    4.3546165    4.3546165    4.3546165    19905.649    4462.2962     47648.29     7606.361    5910.2348   -1927.2402    13424.957    82.575218 
   87100    1166.5602   -107.00399    1.0555282   -105.94847    14070.851    4.3580448    4.3580448    4.3580448    14070.851    76545.714   -13692.381    -20640.78    7952.0556    822.94491   -34450.916    82.770406 
   87200    1621.8046   -107.40937    1.4674429   -105.94193   -19510.719    4.3605336    4.3605336    4.3605336   -19510.719   -1091.3481   -15346.128   -42094.681    1285.5133     23585.86    15371.279    82.912291 
   87300    2072.3149   -107.80182     1.875074   -105.92675    7228.2798    4.3520018    4.3520018    4.3520018    7228.2798    72484.095   -27848.843   -22950.413    -10841.33   -2650.3926    24092.144    82.426567 
   87400    1498.8493   -107.28484    1.3561903   -105.92865    12498.296    4.3459944    4.3459944    4.3459944    12498.296    57723.344   -20223.151   -5.3047813    13175.052    16131.292   -35419.278    82.085697 
   87500    1309.9639   -107.13088    1.1852828    -105.9456    -42777.28    4.3590266    4.3590266    4.3590266    -42777.28    16099.718   -69455.185   -74976.374   -9224.9288    -3958.575    81957.902    82.826359 
   87600    2521.7384   -108.20377    2.2817219   -105.92205      6419.61    4.3477358    4.3477358    4.3477358      6419.61    29546.922    3.6509299   -10291.743   -2358.7012   -11721.999    6803.9957    82.184409 
   87700    1436.3675   -107.24029    1.2996555   -105.94063    15076.259    4.3467093    4.3467093    4.3467093    15076.259    38040.247    575.95605    6612.5744      24862.2    23664.838    17445.797     82.12621 
   87800    1080.8657   -106.92721   0.97799002   -105.94922   -40041.596    4.3573284    4.3573284    4.3573284   -40041.596    11199.456   -61714.974   -69609.271   -4477.9094   -17181.855    66417.646    82.729591 
   87900    2159.9447   -107.88369    1.9543634   -105.92933    12204.284    4.3522965    4.3522965    4.3522965    12204.284   -38135.439    28395.258    46353.034   -7008.5689   -16365.226   -28452.018    82.443312 
   88000    1521.3483    -107.3203     1.376548   -105.94375   -23588.288    4.3545143    4.3545143    4.3545143   -23588.288    13195.194   -32783.489   -51176.571    19442.456    11971.999    54712.825    82.569407 
   88100    1476.0354    -107.2826    1.3355478   -105.94705   -1985.2852    4.3462959    4.3462959    4.3462959   -1985.2852   -10254.837   -13022.315    17321.297    -3723.464     -17890.5    21277.777    82.102779 
   88200    2232.5934   -107.95785    2.0200975   -105.93775    5156.5827    4.3452151    4.3452151    4.3452151    5156.5827    9942.1552   -6417.3273     11944.92   -1197.8505   -4643.4769   -22324.144    82.041549 
   88300    1170.6331   -107.01059    1.0592134   -105.95138    7772.3974    4.3494467    4.3494467    4.3494467    7772.3974    1904.2894   -23075.905    44488.808    25698.419    4266.5169    51472.945    82.281472 
   88400    1866.3749   -107.62723    1.6887353    -105.9385   -1171.8797    4.3517466    4.3517466    4.3517466   -1171.8797    4980.6974    -4297.454   -4198.8824    4980.0409   -24474.443   -10509.741    82.412065 
   88500    1929.0878   -107.68315    1.7454792   -105.93767   -8283.3483    4.3504495    4.3504495    4.3504495   -8283.3483    31948.969   -53373.067   -3425.9471    2524.0954   -2112.6462   -7108.0452    82.338393 
   88600    1296.5006   -107.11787     1.173101   -105.94476    12210.984    4.3479912    4.3479912    4.3479912    12210.984    29602.287    -15249.85    22280.515    11319.968   -20400.224    42674.287    82.198893 
   88700     2231.884    -107.9504    2.0194555   -105.93094   -7455.4104    4.3558171    4.3558171    4.3558171   -7455.4104   -20687.244   -14717.013    13038.026   -8234.3527   -30574.589   -22907.016    82.643538 
   88800    1293.2259   -107.10904     1.170138    -105.9389    10265.327    4.3528202    4.3528202    4.3528202    10265.327    88368.241   -56579.517    -992.7439    403.41862    24454.403    13064.398    82.473072 
   88900    1836.7084   -107.59642    1.6618924   -105.93453    5140.2009    4.3504581    4.3504581    4.3504581    5140.2009   -23525.622    2671.0706    36275.154   -5390.1394    -44439.65     23073.72    82.338882 
   89000    1708.0747   -107.47482    1.5455019   -105.92931   -8370.9064    4.3570233    4.3570233    4.3570233   -8370.9064    27252.359   -39902.078   -12463.001   -21343.198   -1167.8776   -13988.559    82.712216 
   89100    1318.8781   -107.12327    1.1933486   -105.92993    7502.6329    4.3514298    4.3514298    4.3514298    7502.6329    38775.063   -35366.033    19098.868    4821.9482   -332.57591    23309.658    82.394066 
   89200    2426.1772   -108.11891    2.1952561   -105.92365    3241.8155    4.3595908    4.3595908    4.3595908    3241.8155   -18792.759   -15437.668    43955.873   -17204.835   -34014.088   -9616.1211    82.858525 
   89300    1280.7673    -107.0943    1.1588652   -105.93543    2751.6392    4.3584769    4.3584769    4.3584769    2751.6392    44752.293   -60523.314    24025.938   -967.03054    11246.838    33889.604    82.795027 
   89400    1778.2279   -107.53895     1.608978   -105.92997   -24744.178    4.3672351    4.3672351    4.3672351   -24744.178    11297.494   -87793.578    2263.5505    10234.523   -18306.842   -18580.012    83.295153 
   89500    2247.0044   -107.92585    2.0331368   -105.89271    6607.7871     4.371421     4.371421     4.371421    6607.7871    16956.197   -48195.395    51062.559   -10195.677   -16371.599    23333.846    83.534889 
   89600    824.18834   -106.65261   0.74574293   -105.90687   -19934.025    4.3615247    4.3615247    4.3615247   -19934.025    43480.512   -99960.473   -3322.1149    15119.406    14539.809      16793.3    82.968837 
   89700    2365.7607   -108.04752      2.14059   -105.90693    4779.8747    4.3476352    4.3476352    4.3476352    4779.8747    24114.022   -42970.462    33196.064   -2809.8153   -27084.516   -26830.591    82.178705 
   89800    1724.0311     -107.483    1.5599396   -105.92306     51411.39    4.3347257    4.3347257    4.3347257     51411.39    70765.754    -4912.703    88381.121   -1197.6739    8694.4249    12669.776    81.448835 
   89900    1327.9548   -107.16221    1.2015614   -105.96065   -41196.415    4.3565011    4.3565011    4.3565011   -41196.415    27830.113    -82997.25   -68422.108    4437.6072   -2642.5356   -18900.843    82.682479 
   90000    1703.8027   -107.48134    1.5416365   -105.93971    9023.7517    4.3613022    4.3613022    4.3613022    9023.7517    9006.2707   -22355.606    40420.591   -15983.275   -25989.998    10670.294    82.956141 
   90100    1957.5278   -107.70042    1.7712123   -105.92921    -20998.85    4.3546543    4.3546543    4.3546543    -20998.85    6588.5783   -33619.352   -35965.777    1576.7043    11226.915   -26775.617    82.577372 
   90200    1039.4533    -106.8848   0.94051922   -105.94428   -16404.964    4.3527548    4.3527548    4.3527548   -16404.964    69717.157   -70557.242   -48374.807   -10529.589   -5928.0908   -25052.555    82.469354 
   90300    2236.2035   -107.95168    2.0233639   -105.92832    8571.3126    4.3388092    4.3388092    4.3388092    8571.3126   -40183.315    24923.197    40974.056   -8711.6968   -547.22263    6238.1336    81.679235 
   90400    1400.7126    -107.2234    1.2673942   -105.95601   -15000.905    4.3597047    4.3597047    4.3597047   -15000.905     59349.16   -59000.243   -45351.633    7963.8628   -4389.7997   -31094.603    82.865015 
   90500     1334.469   -107.14261    1.2074556   -105.93515   -39133.128    4.3729163    4.3729163    4.3729163   -39133.128    21041.307   -85191.545   -53249.146   -1087.9603     8450.807    34612.043    83.620642 
   90600    2142.9475   -107.84539    1.9389839   -105.90641   -3329.0867    4.3565256    4.3565256    4.3565256   -3329.0867    -30856.66   -14137.413    35006.813    15788.544   -9895.0658   -14859.164     82.68387 
   90700    1418.8639   -107.20928    1.2838179   -105.92546   -47480.902    4.3537695    4.3537695    4.3537695   -47480.902    32975.622   -99747.224   -75671.105    7045.4397     1379.995    22993.678    82.527046 
   90800    1835.2242   -107.58725    1.6605494    -105.9267   -7084.2465    4.3519594    4.3519594    4.3519594   -7084.2465    14343.194   -30900.158   -4695.7759    2029.6811    10840.448    19959.796    82.424153 
   90900    1758.0232   -107.51419    1.5906963   -105.92349   -12552.833    4.3606027    4.3606027    4.3606027   -12552.833   -32216.066   -39717.207    34274.773     26638.53   -22565.877     6841.132    82.916233 
   91000    1034.1102   -106.87679    0.9356846    -105.9411   -33024.279    4.3578299    4.3578299    4.3578299   -33024.279    47628.083   -71367.703   -75333.217   -9805.4053    5320.5336    35936.623    82.758158 
   91100    2252.2032   -107.95929    2.0378408   -105.92145    19330.392    4.3563088    4.3563088    4.3563088    19330.392     220.4055     15283.12     42487.65    1535.7614   -3768.1378   -17842.395    82.671528 
   91200     1639.405   -107.41057    1.4833681    -105.9272   -21332.016    4.3697156    4.3697156    4.3697156   -21332.016   -13364.179   -71803.802    21171.932    11658.057   -4701.0062    37329.406    83.437161 
   91300    1187.7088   -107.00081    1.0746638   -105.92614   -16812.832    4.3664962    4.3664962    4.3664962   -16812.832    22173.763   -68900.859   -3711.4012   -13631.985    4903.5721   -14486.077    83.252881 
   91400    2615.7567   -108.27812    2.3667916   -105.91132    10706.213    4.3503844    4.3503844    4.3503844    10706.213   -27014.038    138.32722     58994.35   -9545.7609    468.98821   -6336.1841    82.334699 
   91500    1321.5741   -107.13517     1.195788   -105.93938    44658.098    4.3389428    4.3389428    4.3389428    44658.098    62141.918   -1707.3669    73539.742   -4242.1282   -1385.9277     19613.03    81.686782 
   91600    1364.6858   -107.19856    1.2347964   -105.96376   -15035.796    4.3611489    4.3611489    4.3611489   -15035.796    1505.1778   -35165.112   -11447.455   -30168.852    1678.0655   -32245.569    82.947396 
   91700    2173.9733   -107.88902    1.9670567   -105.92196   -4219.7403    4.3684754    4.3684754    4.3684754   -4219.7403   -42859.961    4815.7068    25385.033   -5344.9075    8099.2616    14151.338    83.366141 
   91800    1378.8544   -107.17328    1.2476164   -105.92567   -14348.265    4.3561161    4.3561161    4.3561161   -14348.265    37542.194   -78951.155   -1635.8329   -6915.7331   -9529.7142   -17510.104    82.660559 
   91900    1714.3154   -107.47166    1.5511486   -105.92051   -11946.858    4.3614505    4.3614505    4.3614505   -11946.858   -26051.199   -9578.5183   -210.85688   -23417.538    24979.175   -3964.1053    82.964607 
   92000    2063.6436   -107.77797    1.8672281   -105.91074   -21947.662    4.3553448    4.3553448    4.3553448   -21947.662   -34402.051   -41334.499    9893.5651    7180.2649   -12598.476   -4643.5599     82.61666 
   92100    1061.5594   -106.89183   0.96052125   -105.93131   -7918.3289    4.3553589    4.3553589    4.3553589   -7918.3289    11771.483   -32826.017   -2700.4529   -11141.064    2358.4975   -15836.762    82.617462 
   92200    2473.6954   -108.15772    2.2382516   -105.91947   -3993.1295    4.3539178    4.3539178    4.3539178   -3993.1295   -45372.254   -2418.6226    35811.488    734.62939    1746.0375     -2283.25     82.53548 
   92300    942.03748   -106.79926   0.85237531   -105.94688    19869.799    4.3536868    4.3536868    4.3536868    19869.799    30594.915   -7105.4981    36119.981    20358.489   -16655.444   -18178.902    82.522342 
   92400    1885.8955   -107.64059    1.7063978   -105.93419   -28553.394     4.362734     4.362734     4.362734   -28553.394    31166.291   -79228.235   -37598.238   -10282.194    15933.533    10385.565    83.037869 
   92500    2165.8482   -107.87541    1.9597049   -105.91571    23061.178    4.3574843    4.3574843    4.3574843    23061.178    -23198.42    24242.532    68139.423    15428.277    -14390.34   -4145.6693     82.73847 
   92600    1176.5204    -107.0072    1.0645403   -105.94266    -6116.809    4.3518107    4.3518107    4.3518107    -6116.809     56206.01   -46378.907    -28177.53   -2920.9018   -2344.1134     -14164.6    82.415704 
   92700    1653.0943    -107.4333    1.4957545   -105.93754   -369.53805    4.3561345    4.3561345    4.3561345   -369.53805    13773.351    -20858.62    5976.6549   -10195.557    7203.8231    10516.863    82.661605 
   92800    2114.6937   -107.83742    1.9134193     -105.924    7024.3772    4.3618838    4.3618838    4.3618838    7024.3772   -20899.473    23317.591    18655.014    11273.255   -7858.9502   -16748.536    82.989334 
   92900    1343.1752   -107.15213    1.2153332    -105.9368   -37813.564    4.3616657    4.3616657    4.3616657   -37813.564    30777.638   -86611.632   -57606.699   -1131.1636    4613.3923    2590.4181    82.976887 
   93000    1839.2592   -107.58825    1.6642003   -105.92405    20422.139    4.3438219    4.3438219    4.3438219    20422.139    2057.1674    48374.264    10834.986   -20035.614    4543.9457    12703.761    81.962658 
   93100    1630.2653   -107.40847    1.4750983   -105.93337    -2052.229    4.3587473    4.3587473    4.3587473    -2052.229    59988.725   -33757.561   -32387.851    6572.5967    5469.7608   -4470.6932    82.810436 
   93200    1668.0824   -107.43403     1.509316   -105.92472   -26378.011    4.3630387    4.3630387    4.3630387   -26378.011    55082.878   -82954.314   -51262.596   -10482.028   -5082.6763    15464.551    83.055268 
   93300    2074.2124   -107.78836     1.876791   -105.91157     9734.948    4.3595619    4.3595619    4.3595619     9734.948    5064.9909   -2136.1069     26275.96   -30195.993    24812.833   -5311.9023    82.856874 
   93400    1348.2643   -107.14026    1.2199378   -105.92032   -34293.417     4.363694     4.363694     4.363694   -34293.417      49658.9   -90873.474   -61665.678    18758.975   -4206.8639    18461.291    83.092697 
   93500    1801.1426   -107.54486    1.6297117   -105.91515    19168.819    4.3447509    4.3447509    4.3447509    19168.819    36693.323   -29267.095    50080.229   -15176.156   -2823.1607    209.27083    82.015255 
   93600    1802.2662   -107.55699    1.6307283   -105.92626    27091.312    4.3478789    4.3478789    4.3478789    27091.312   -2730.4528    7156.1873    76848.202    7751.2386    11351.021    17993.441    82.192526 
   93700    872.73381   -106.73987    0.7896679   -105.95021   -5314.7782     4.361909     4.361909     4.361909   -5314.7782    33233.633   -48113.591   -1064.3768    11034.725   -1027.0065    21668.954    82.990773 
   93800     2338.931      -108.04    2.1163139   -105.92369    1885.4954    4.3647145    4.3647145    4.3647145    1885.4954   -16316.745    8213.3164    13759.915   -347.18202   -1819.7781   -3508.9357    83.151007 
   93900    1593.8953    -107.3644    1.4421899   -105.92221   -16.188199    4.3566312    4.3566312    4.3566312   -16.188199    10393.482    614.14498   -11056.191    29310.352    10855.206    21501.623    82.689885 
   94000     1111.544   -106.92949    1.0057484   -105.92375    3786.0971    4.3545553    4.3545553    4.3545553    3786.0971    65085.805   -37817.137   -15910.377    10520.632   -11779.291   -24965.944     82.57174 
   94100    2413.9427   -108.08393    2.1841861   -105.89975    -15600.11    4.3593576    4.3593576    4.3593576    -15600.11   -24705.825   -52352.674     30258.17   -16449.502    375.14293    -3986.835    82.845229 
   94200    1245.5243   -107.04427    1.1269766    -105.9173   -21.353208    4.3574747    4.3574747    4.3574747   -21.353208    27237.593   -50696.145    23394.492    6527.0745    8624.8119    23000.419    82.737926 
   94300    1888.9468   -107.62164    1.7091587   -105.91248   -6031.0801    4.3584636    4.3584636    4.3584636   -6031.0801    13964.457   -33512.263    1454.5662   -6850.8629    1216.1375   -32784.417    82.794267 
   94400    1643.9122   -107.40253    1.4874463   -105.91508    20.656608    4.3482481    4.3482481    4.3482481    20.656608   -7604.3676   -35295.128    42961.466   -16910.575    11232.831    32593.304    82.213466 
   94500    1807.2452   -107.56349    1.6352334   -105.92825   -7347.1104    4.3472771    4.3472771    4.3472771   -7347.1104    38636.366   -15414.319   -45263.377    9445.0203   -14931.414    6681.4816    82.158397 
   94600    1708.7466   -107.46467    1.5461099   -105.91856    14490.832    4.3613582    4.3613582    4.3613582    14490.832   -16926.277    38676.389    21722.386   -36080.233    12050.477   -16371.951    82.959334 
   94700    1445.6735   -107.22608    1.3080757     -105.918   -24140.853    4.3737718    4.3737718    4.3737718   -24140.853    16009.081   -26937.084   -61494.556   -7206.6874    1579.6339    54762.219    83.669728 
   94800    2187.7772   -107.87057    1.9795468   -105.89103    -8642.895    4.3624106    4.3624106    4.3624106    -8642.895   -14967.689   -1130.9895   -9830.0068   -9961.1185   -5927.7659   -26787.859    83.019408 
   94900    1226.4798   -107.00498    1.1097447   -105.89523    17126.767     4.338467     4.338467     4.338467    17126.767    29333.761    13405.353    8641.1869   -32252.293    10094.119    47332.708    81.659912 
   95000    1905.8284   -107.64144    1.7244336   -105.91701    15128.378     4.347016     4.347016     4.347016    15128.378    63812.705    5251.3503   -23678.921    23060.334   -16575.929    26211.458    82.143596 
   95100    1924.9788   -107.65247    1.7417613    -105.9107   -20671.626    4.3646046    4.3646046    4.3646046   -20671.626   -25762.536   -54914.617    18662.274   -38183.711    14118.613    9081.7392    83.144731 
   95200     883.1811   -106.72193   0.79912082   -105.92281   -10300.293    4.3668599    4.3668599    4.3668599   -10300.293    31323.057   -46602.067   -15621.869   -9144.0789   -9478.0096     63226.93    83.273686 
   95300    2432.1999   -108.08578    2.2007055   -105.88507    29188.531     4.355329     4.355329     4.355329    29188.531    27469.333    45084.325    15011.937   -831.11716   -3150.0744   -29045.264    82.615757 
   95400    1002.4726    -106.8206   0.90705824   -105.91355    -31888.88    4.3495824    4.3495824    4.3495824    -31888.88    38182.612    -100030.3   -33818.952    -35690.49       1998.3    84410.306    82.289173 
   95500    2098.8996   -107.80135    1.8991285   -105.90222    8577.7136    4.3530337    4.3530337    4.3530337    8577.7136     19703.22    17199.596   -11169.675   -7643.5344    7531.3476   -19464.734     82.48521 
   95600    1316.5525   -107.10858    1.1912443   -105.91734   -7986.7082    4.3625772    4.3625772    4.3625772   -7986.7082    16103.159   -37281.184   -2782.0995   -12907.767   -2189.9333    46561.987    83.028916 
   95700     1544.897   -107.30158    1.3978553   -105.90373   -9312.8748    4.3626586    4.3626586    4.3626586   -9312.8748   -15249.958   -51788.958    39100.292   -27979.595    13416.282    16318.439    83.033567 
   95800    2110.5533   -107.79532     1.909673   -105.88565    3538.0769    4.3590231    4.3590231    4.3590231    3538.0769    12181.192   -5633.7685    4066.8077    19226.052    6121.0463     16195.62    82.826159 
   95900    921.32633    -106.7477   0.83363543   -105.91406    -42990.36    4.3576295    4.3576295    4.3576295    -42990.36   -6378.3411   -104006.16    -18586.58   -59439.008    9686.9401    67330.005    82.746742 
   96000    2222.9825   -107.90297    2.0114013   -105.89156    14515.336    4.3478506    4.3478506    4.3478506    14515.336    12795.334    14643.227    16107.448    -7153.337    3589.3245   -23459.491    82.190921 
   96100    1563.9114   -107.33123    1.4150599   -105.91617   -41364.097    4.3599992    4.3599992    4.3599992   -41364.097    19619.568   -77773.753   -65938.105   -8538.4548    14743.867    69401.151    82.881811 
   96200    1367.5115   -107.15095    1.2373532    -105.9136   -74.803719    4.3638442    4.3638442    4.3638442   -74.803719   -3410.0596   -35251.821    38437.469   -75635.845   -3698.4605    -14375.23    83.101278 
   96300    1923.5769   -107.64734    1.7404928   -105.90684    9941.4593    4.3596607    4.3596607    4.3596607    9941.4593     78759.55   -797.22191   -48137.951    7364.4191    9866.6533    31377.468     82.86251 
   96400    1409.5295   -107.19031    1.2753719   -105.91494   -27031.121      4.36746      4.36746      4.36746   -27031.121   -11449.594   -63505.331   -6138.4386    -62402.18    12207.559    22117.572    83.308017 
   96500    1933.2226   -107.63691    1.7492204   -105.88769    31243.945    4.3591632    4.3591632    4.3591632    31243.945    53182.028   -10676.184     51225.99   -13313.831   -6916.1382   -8833.9217    82.834142 
   96600    1481.3159   -107.24794    1.3403258   -105.90761    -14204.77     4.355499     4.355499     4.355499    -14204.77   -3533.3013   -34885.712   -4195.2952   -9562.7776     17458.29    40708.274    82.625435 
   96700    1701.0256   -107.44713    1.5391238     -105.908    4868.4267    4.3634167    4.3634167    4.3634167    4868.4267    9912.2586   -46601.964    51294.986   -29442.528    7.6619221   -13526.211    83.076857 
   96800    1702.9532    -107.4501    1.5408678   -105.90924    6672.1668    4.3611545    4.3611545    4.3611545    6672.1668    85945.414    -35046.03   -30882.884    21032.574    12464.671    29889.953    82.947714 
   96900    1531.5446   -107.29322    1.3857738   -105.90745   -2066.2235    4.3634394    4.3634394    4.3634394   -2066.2235    46242.796    -75231.96    22790.494   -39711.929   -3315.9782    16201.817    83.078158 
   97000    1623.9403    -107.3665    1.4693753   -105.89713    19100.586    4.3625424    4.3625424    4.3625424    19100.586    111865.61   -58325.266    3761.4091    4294.1071    1945.2977   -3057.4121    83.026929 
   97100    1363.9978    -107.1352    1.2341739   -105.90102   -1023.6935    4.3652878    4.3652878    4.3652878   -1023.6935    46204.241   -23902.649   -25372.673    -23500.17   -11888.835    35057.261    83.183779 
   97200    2157.4394   -107.83542    1.9520965   -105.88332    3961.2945    4.3701963    4.3701963    4.3701963    3961.2945    23548.869    -4565.877   -7099.1082   -20140.332   -6315.4554   -15408.582      83.4647 
   97300    1657.4731   -107.38318    1.4997165   -105.88346   -37724.912    4.3709863    4.3709863    4.3709863   -37724.912    23519.139   -90020.235    -46673.64    247.71934    49.764845    44237.279    83.509971 
   97400    2348.5927   -107.99838    2.1250561   -105.87332    4017.6399    4.3628388    4.3628388    4.3628388    4017.6399    2284.7467   -28321.769    38089.942   -17257.379    2304.0124   -7839.0134    83.043856 
   97500    1304.4446   -107.07883    1.1802889   -105.89854    -33096.02    4.3607822    4.3607822    4.3607822    -33096.02    15338.624   -52553.807   -62072.878   -3388.5226    1547.9844    31790.682    82.926475 
   97600    1890.2266   -107.62113    1.7103168   -105.91081    14828.142    4.3568417    4.3568417    4.3568417    14828.142    54814.827   -52500.953     42170.55    24894.568   -3244.4757   -3952.1606    82.701873 
   97700      1987.26   -107.69925    1.7981146   -105.90114   -5244.2229    4.3670309    4.3670309    4.3670309   -5244.2229    1259.3955     -49343.9    32351.836   -56.370663   -6482.0134    36216.486    83.283465 
   97800    1163.8932   -106.96721     1.053115    -105.9141   -23814.363    4.3699564    4.3699564    4.3699564   -23814.363    28617.482   -71912.676   -28147.895    15387.996   -4959.4275    10784.568    83.450954 
   97900    2109.0211   -107.80044    1.9082866   -105.89216   -4646.6999    4.3676128    4.3676128    4.3676128   -4646.6999    -10201.47   -29632.214    25893.584    37006.121    2918.2085    -4919.222    83.316765 
   98000    1886.9665   -107.59183    1.7073669   -105.88446   -9853.8593    4.3602815    4.3602815    4.3602815   -9853.8593    54310.791   -68884.017   -14988.352    -7131.129    5648.4539    22427.457    82.897913 
   98100    1357.6902   -107.12426    1.2284666    -105.8958     9825.521    4.3609894    4.3609894    4.3609894     9825.521    65171.671   -44509.938    8814.8308    38042.234   -4759.5777   -26235.898    82.938291 
   98200    1823.4468   -107.55154     1.649893   -105.90165   -14836.975     4.368747     4.368747     4.368747   -14836.975     17683.49   -53551.413   -8643.0021   -3532.4418      -7686.9     20361.05    83.381687 
   98300    1590.5136   -107.34428    1.4391301   -105.90515   -6108.0264     4.360561     4.360561     4.360561   -6108.0264    84128.059   -73557.561   -28894.578   -2028.6305   -6565.4455   -34993.727    82.913851 
   98400    2366.9676   -108.04244     2.141682   -105.90076   -8685.6789     4.362039     4.362039     4.362039   -8685.6789   -8696.7285   -49211.899     31851.59    -8359.524   -12277.696    16983.725    82.998189 
   98500    1115.4664   -106.92905    1.0092975   -105.91975   -27734.134      4.35885      4.35885      4.35885   -27734.134    12179.079   -73822.123   -21559.359    -35598.94     -14338.3   -40404.622    82.816291 
   98600    2376.8561     -108.059    2.1506293   -105.90837    4502.3671    4.3599328    4.3599328    4.3599328    4502.3671     20602.47   -31956.722    24861.353     1183.891    10028.194    16385.816    82.878024 
   98700    1644.1704   -107.39628      1.48768    -105.9086   -27628.585    4.3785634    4.3785634    4.3785634   -27628.585   -25607.197    -21343.65   -35934.909   -28882.166   -8363.0328   -33506.213    83.945016 
   98800    1402.7024   -107.18423    1.2691946   -105.91503    -24946.15    4.3550763    4.3550763    4.3550763    -24946.15     11283.54   -53793.918   -32328.072   -29353.983   -5609.9693   -23668.353    82.601381 
   98900    2065.2534   -107.77064    1.8686846   -105.90195    38691.338    4.3414273    4.3414273    4.3414273    38691.338    26949.306    55994.129    33130.578    33119.706    2082.8407    16221.477     81.82718 
   99000    1487.6439   -107.27944    1.3460515   -105.93339   -34551.577    4.3584561    4.3584561    4.3584561   -34551.577   -13571.582   -38264.472   -51818.676   -19965.899   -15335.465   -62144.539    82.793843 
   99100     2171.582   -107.88831     1.964893   -105.92341   -10112.804    4.3631637    4.3631637    4.3631637   -10112.804   -14880.945   -982.30548   -14475.163   -19305.589    3419.5366    11319.509    83.062412 
   99200    1598.4108   -107.37466    1.4462757   -105.92838    12543.346    4.3635608    4.3635608    4.3635608    12543.346    52698.812    22090.984   -37159.757    35692.907   -5771.3226   -18081.354    83.085091 
   99300    1424.7992   -107.22965    1.2891883   -105.94046   -34471.352     4.360386     4.360386     4.360386   -34471.352   -23661.855   -51211.729   -28540.472   -57829.899   -5821.6308   -22982.027    82.903871 
   99400    2080.1383   -107.80357    1.8821529   -105.92142    33392.056    4.3473569    4.3473569    4.3473569    33392.056    48679.499    40941.371    10555.297    6284.1723    1481.7796    17237.247    82.162922 
   99500    1667.9105   -107.45184    1.5091605   -105.94268   -10396.863    4.3595772    4.3595772    4.3595772   -10396.863    21299.605    -8813.744    -43676.45    18397.009   -4813.6303   -44984.569    82.857749 
   99600    1429.2834   -107.22747    1.2932457   -105.93423    -11166.54     4.362969     4.362969     4.362969    -11166.54   -32083.839   -2376.3547    960.57431   -60433.584   -5951.8438    2906.3498    83.051287 
   99700     1938.065   -107.66842     1.753602   -105.91481    21518.046    4.3535372    4.3535372    4.3535372    21518.046    49154.518   -11462.045    26861.667    7360.7554   -6453.0572    14609.147    82.513835 
   99800    1743.3215   -107.50803    1.5773939   -105.93064   -16599.222    4.3657221    4.3657221    4.3657221   -16599.222   -43136.938    9403.2343   -16063.963   -21896.793   -11003.629   -43015.455    83.208608 
   99900    1726.7361   -107.48465    1.5623871   -105.92227   -6784.5952    4.3651131    4.3651131    4.3651131   -6784.5952   -17212.873    3110.3342   -6251.2474   -26959.478    -4155.473    50160.176    83.173793 
  100000    1606.7196   -107.36661    1.4537937   -105.91282    14272.341    4.3536726    4.3536726    4.3536726    14272.341     55557.12   -9209.9477   -3530.1491    4177.8348    3671.5649   -17014.662    82.521538 
Loop time of 21.9254 on 1 procs for 100000 steps with 8 atoms

Pair  time (%) = 6.64642 (30.3137)
Kspce time (%) = 5.32797 (24.3004)
Neigh time (%) = 0.209496 (0.955496)
Comm  time (%) = 1.02279 (4.66487)
Outpt time (%) = 0.02615 (0.119268)
Other time (%) = 8.6926 (39.6462)

Nlocal:    8 ave 8 max 8 min
Histogram: 1 0 0 0 0 0 0 0 0 0
Nghost:    2014 ave 2014 max 2014 min
Histogram: 1 0 0 0 0 0 0 0 0 0
Neighs:    2121 ave 2121 max 2121 min
Histogram: 1 0 0 0 0 0 0 0 0 0

Total # of neighbors = 2121
Ave neighs/atom = 265.125
Neighbor list builds = 2557
Dangerous builds = 0
unfix 20
unfix 21
print "seeds:7173222"
seeds:7173222
