LAMMPS (10 Feb 2015)
# ---- initialize simulations
clear
units metal
dimension 3
boundary p p p
atom_style charge
atom_modify map array
# ---- create atoms
read_data /Users/eugeneragasa/pyflamestk_git/pypospack/tests/tests_integration/workflow/WorkflowLammpsThermalExpansion/param_1902/MgO_NaCl_unit.npt.T1500/lammps.structure
  triclinic box = (0 0 0) to (4.2565 4.2565 4.2565) with tilt (0 0 0)
  1 by 1 by 1 MPI processor grid
  reading atoms ...
  8 atoms
# ---- define interatomic potential
include potential.mod
mass 1 24.305
mass 2 15.999

group Mg type 1
4 atoms in group Mg
group O type 2
4 atoms in group O

set group Mg charge 1.69754800024
  4 settings made for charge
set group O charge -1.69754800024
  4 settings made for charge

variable R_cut equal 10.0

pair_style buck/coul/long ${R_cut}
pair_style buck/coul/long 10
pair_coeff 1 1 0.0 0.5 0.0 ${R_cut}
pair_coeff 1 1 0.0 0.5 0.0 10
pair_coeff 1 2 1340.93810979 0.285979914483 0.0 ${R_cut}
pair_coeff 1 2 1340.93810979 0.285979914483 0.0 10
pair_coeff 2 2 11096.6994948 0.145827000496 3.24328494634 ${R_cut}
pair_coeff 2 2 11096.6994948 0.145827000496 3.24328494634 10

kspace_style pppm 1.0e-5

neighbor 1.0 bin
neigh_modify every 1 delay 0 check yes
# ---- define settings
compute eng all pe/atom
compute eatoms all reduce sum c_eng
# ---- run minimization
reset_timestep 0
fix 1 all box/relax iso 0.0 vmax 0.001
thermo 10
thermo_style custom step pe lx ly lz xy xz yz press pxx pyy pzz pxy pxz pyz c_eatoms
min_style cg
minimize 1e-25 1e-25 5000 10000
PPPM initialization ...
  G vector (1/distance) = 0.353134
  grid = 8 8 8
  stencil order = 5
  estimated absolute RMS force accuracy = 4.09436e-05
  estimated relative force accuracy = 2.84338e-06
  using double precision FFTs
  3d grid and FFT values/proc = 3375 512
Neighbor list info ...
  1 neighbor list requests
  update every 1 steps, delay 0 steps, check yes
  master list distance cutoff = 11
Memory usage per processor = 4.06549 Mbytes
Step PotEng Lx Ly Lz Xy Xz Yz Press Pxx Pyy Pzz Pxy Pxz Pyz eatoms 
       0   -117.43599       4.2565       4.2565       4.2565            0            0            0    33717.192    33717.192    33717.192    33717.192 -3.1023281e-11 -2.4163961e-10 -2.0934262e-10   -117.43599 
       8   -117.45138    4.2835821    4.2835821    4.2835821            0            0            0   -5.0124394   -5.0124394   -5.0124394   -5.0124394 6.8970478e-11 -1.4442567e-10 -9.765937e-11   -117.45138 
Loop time of 0.00855112 on 1 procs for 8 steps with 8 atoms

Minimization stats:
  Stopping criterion = linesearch alpha is zero
  Energy initial, next-to-last, final = 
        -117.435990229     -117.451383044     -117.451383044
  Force two-norm initial, final = 4.86878 0.0018005
  Force max component initial, final = 4.86878 0.000733039
  Final line search alpha, max atom move = 0.00390625 2.86343e-06
  Iterations, force evaluations = 8 25

Pair  time (%) = 0.00233006 (27.2486)
Kspce time (%) = 0.00136852 (16.004)
Neigh time (%) = 0 (0)
Comm  time (%) = 0.000268221 (3.13668)
Outpt time (%) = 0 (0)
Other time (%) = 0.00458431 (53.6107)

Nlocal:    8 ave 8 max 8 min
Histogram: 1 0 0 0 0 0 0 0 0 0
Nghost:    2189 ave 2189 max 2189 min
Histogram: 1 0 0 0 0 0 0 0 0 0
Neighs:    2344 ave 2344 max 2344 min
Histogram: 1 0 0 0 0 0 0 0 0 0

Total # of neighbors = 2344
Ave neighs/atom = 293
Neighbor list builds = 0
Dangerous builds = 0
unfix 1
# ---- define output variables ----
variable natoms equal "count(all)"
variable tot_energy equal "c_eatoms"
variable length_x equal "lx"
variable length_y equal "ly"
variable length_z equal "lz"
variable tilt_xy equal "xy"
variable tilt_xz equal "xz"
variable tilt_yz equal "yz"
variable tot_press equal "press"
variable press_xx equal "pxx"
variable press_yy equal "pyy"
variable press_zz equal "pzz"
variable press_xy equal "pxy"
variable press_xz equal "pxz"
variable press_yz equal "pyz"

# ---- output ----
print "pypospack:output_section:begin"
pypospack:output_section:begin
print "tot_energy = ${tot_energy}"
tot_energy = -117.45138304358
print "num_atoms = ${natoms}"
num_atoms = 8
print "xx = ${length_x}"
xx = 4.28358206284588
print "yy = ${length_y}"
yy = 4.28358206284588
print "zz = ${length_z}"
zz = 4.28358206284588
print "xy = ${tilt_xy}"
xy = 0
print "xz = ${tilt_xz}"
xz = 0
print "yz = ${tilt_yz}"
yz = 0
print "tot_press = ${tot_press}"
tot_press = -5.01243937142067
print "pxx = ${press_xx}"
pxx = -5.01243937108414
print "pyy = ${press_yy}"
pyy = -5.01243937158826
print "pzz = ${press_zz}"
pzz = -5.01243937158962
print "pxy = ${press_xy}"
pxy = 6.8970477610601e-11
print "pxz = ${press_xz}"
pxz = -1.44425666326158e-10
print "pyz = ${press_yz}"
pyz = -9.76593698696591e-11
print "pypospack:output_section:done"
pypospack:output_section:done
print "pypospack:lammps_sim:done"
pypospack:lammps_sim:done
#------------------------------------------------------------------------------
# RUN THERMOSTAT
# running using an NPT Nose-Hoover style thermostat
#------------------------------------------------------------------------------
variable tempdamp equal 0.1
variable pressdamp equal 1.0
# set initial velocities
velocity all create 1500 1845942 mom yes dist gaussian loop all
# fix for Nose-Hoover style thermostat
fix 20 all npt temp 1500 1500 0.1 aniso 0.0 0.0 1.0 drag 1.0 couple xyz
variable boxx equal lx
variable boxy equal ly
variable boxz equal lz
variable boxp equal press
variable boxt equal temp
# calculate averages every 10000 steps
reset_timestep 0
fix 21 all ave/time 10 10 100 v_boxx v_boxy v_boxz v_boxp v_boxt file lattice.out
thermo_style custom step temp pe ke etotal press lx ly lz press pxx pyy pzz pxy pxz pyz vol
thermo_modify flush yes
thermo 100
run 100000
PPPM initialization ...
  G vector (1/distance) = 0.352856
  grid = 8 8 8
  stencil order = 5
  estimated absolute RMS force accuracy = 4.14735e-05
  estimated relative force accuracy = 2.88018e-06
  using double precision FFTs
  3d grid and FFT values/proc = 3375 512
Memory usage per processor = 3.06549 Mbytes
Step Temp PotEng KinEng TotEng Press Lx Ly Lz Press Pxx Pyy Pzz Pxy Pxz Pyz Volume 
       0         1500   -117.45139    1.3572315   -116.09416    18437.876    4.2835821    4.2835821    4.2835821    18437.876    16106.421    19570.858     19636.35    216.65976   -3232.3331    977.73878     78.59977 
     100    777.15037    -116.6154   0.70318198   -115.91221    15909.908    4.3058922    4.3058922    4.3058922    15909.908    -20546.44     53614.22    14661.943    -2959.312    15092.408   -2843.5417    79.834287 
     200    1004.3046   -116.45286   0.90871586   -115.54414   -25638.333    4.3330723    4.3330723    4.3330723   -25638.333   -55443.448   -21082.763    -388.7891    4540.1147     22740.07    14724.475    81.355666 
     300    1496.5586   -116.56468    1.3541177   -115.21056    13362.415    4.3350709    4.3350709    4.3350709    13362.415   -16706.487    3115.7073    53678.026    6633.3951   -8176.4064   -313.58701    81.468294 
     400    1822.0697   -116.61297     1.648647   -114.96432    16729.836    4.3306049    4.3306049    4.3306049    16729.836   -9071.1228    28876.051     30384.58   -2404.6787   -6165.4969    5530.1874    81.216765 
     500    1626.8097   -116.27424    1.4719716   -114.80227   -26744.635    4.3339124    4.3339124    4.3339124   -26744.635   -63499.226    3989.8011    -20724.48    13538.403    36239.991    14652.428    81.402997 
     600    1604.3251    -116.1762    1.4516271   -114.72457   -3581.0423    4.3384334    4.3384334    4.3384334   -3581.0423   -16479.164    19044.933   -13308.897    13775.453    7844.4893    6599.3968    81.658011 
     700    2136.8429   -116.63006    1.9334604    -114.6966   -9105.1142    4.3508515    4.3508515    4.3508515   -9105.1142    -29869.28   -28118.902    30672.839   -7841.1252      184.135   -14480.485    82.361225 
     800    1048.2653   -115.64625   0.94849251   -114.69776   -2117.8375    4.3522866    4.3522866    4.3522866   -2117.8375   -48956.413   -31158.396    73761.296    21605.838    31173.383   -2086.1615    82.442745 
     900    1071.3778   -115.65744   0.96940514   -114.68804    4217.1006    4.3297864    4.3297864    4.3297864    4217.1006    1846.1137   -42404.814    53210.002    14818.353    22587.588    8269.0817    81.170723 
    1000    1532.0445      -116.07    1.3862261   -114.68378    46077.814    4.3264747    4.3264747    4.3264747    46077.814    15857.809    57977.354    64398.278    1550.3477   -13565.226   -3797.8007    80.984611 
    1100    1820.4883   -116.35132     1.647216    -114.7041   -41718.632    4.3486838    4.3486838    4.3486838   -41718.632   -56847.523   -41592.443   -26715.931    13663.477    22714.164   -12760.872    82.238181 
    1200    976.22964    -115.5876   0.88331309   -114.70429    -24156.17    4.3455598    4.3455598    4.3455598    -24156.17   -36684.546   -15238.065   -20545.898    4901.6117    39312.956    6782.1687    82.061074 
    1300    1568.8249   -116.11146    1.4195057   -114.69195    14782.623    4.3362438    4.3362438    4.3362438    14782.623    8931.7152   -9207.9462      44624.1    5143.7998   -5157.7697    2714.7694    81.534434 
    1400    1298.4253   -115.87231    1.1748425   -114.69747    15159.376    4.3449003    4.3449003    4.3449003    15159.376   -35100.075    27149.552     53428.65   -2929.6896    9286.8268    7967.3003    82.023717 
    1500    1005.1906   -115.60578   0.90951757   -114.69626   -7078.2512    4.3424165    4.3424165    4.3424165   -7078.2512   -48290.596   -19510.522    46566.364    5385.2717    34243.602    4786.7925     81.88313 
    1600    1272.8276   -115.84759    1.1516812   -114.69591   -7484.3538    4.3454169    4.3454169    4.3454169   -7484.3538   -32308.595    8446.7043    1408.8292    11412.116    13029.565    2523.4779    82.052977 
    1700    1991.4993   -116.48702    1.8019504   -114.68507   -26232.493    4.3491247    4.3491247    4.3491247   -26232.493   -23702.579   -33457.643   -21537.256   -6164.7838    1269.4446    15023.064    82.263199 
    1800    1167.3096   -115.74868    1.0562063   -114.69248    -12586.02    4.3439046    4.3439046    4.3439046    -12586.02   -29563.954    25859.775   -34053.881    16283.293    36400.462   -11010.688    81.967338 
    1900    1561.4446   -116.10192    1.4128279   -114.68909   -3930.2781     4.333199     4.333199     4.333199   -3930.2781   -29800.299    25238.522   -7229.0573   -1612.6725    5505.4402    4954.1985    81.362802 
    2000    1518.3997   -116.07383    1.3738799   -114.69995    8114.8256    4.3382868    4.3382868    4.3382868    8114.8256   -9882.3579    17452.372    16774.462   -7059.8552   -3456.2956    14556.796    81.649734 
    2100    1198.6459   -115.79256      1.08456     -114.708   -9679.3963    4.3465445    4.3465445    4.3465445   -9679.3963   -57701.585   -9085.7213    37749.117    13015.518    23267.436    357.28579    82.116871 
    2200    729.08389    -115.3718   0.65969042   -114.71211    -4603.548    4.3474179    4.3474179    4.3474179    -4603.548   -22411.054    32145.521   -23545.111    3022.3803    31249.754   -969.29121     82.16638 
    2300    1920.3029   -116.42369    1.7375304   -114.68616   -6161.9494    4.3298636    4.3298636    4.3298636   -6161.9494   -5408.6192   -20282.073    7204.8436    4604.8176   -5038.6581   -26454.605    81.175063 
    2400    1188.5461   -115.78597    1.0754215   -114.71055    4986.5488    4.3352722    4.3352722    4.3352722    4986.5488   -26058.404    6808.5081    34209.542   -1662.1324     12066.68    25851.695    81.479644 
    2500    1073.1715   -115.68709   0.97102811   -114.71607   -45477.853    4.3568595    4.3568595    4.3568595   -45477.853   -81494.058    -24398.23   -30541.269     9734.989    43579.332   -10052.306    82.702884 
    2600    1767.4765   -116.27996    1.5992498   -114.68071    4526.9229     4.344228     4.344228     4.344228    4526.9229   -23068.342   -24694.204    61343.315    5711.1517    6159.2982   -20018.756    81.985648 
    2700     2004.654   -116.49083    1.8138531   -114.67697   -6382.5081    4.3392934    4.3392934    4.3392934   -6382.5081    -11262.15   -21115.671    13230.297    -72.00062    9536.5131     14676.19    81.706584 
    2800     1536.532    -116.0805    1.3902865   -114.69021   -20335.719    4.3448883    4.3448883    4.3448883   -20335.719   -55944.274   -15433.921     10371.04    7139.2749    45646.436   -7005.2983    82.023037 
    2900    1846.6706   -116.36722    1.6709064   -114.69631    8536.4568     4.337588     4.337588     4.337588    8536.4568   -6938.6855    23332.655    9215.4012    5685.9075   -88.197521   -21185.704    81.610288 
    3000    1935.5949   -116.44559     1.751367   -114.69423    40613.856    4.3253464    4.3253464    4.3253464    40613.856     24726.28   -2133.3955    99248.683    -4808.669   -12222.724    22681.852    80.921266 
    3100    1919.5884    -116.4564    1.7368839   -114.71952   -14760.527    4.3331839    4.3331839    4.3331839   -14760.527   -33571.985   -17373.206    6663.6098    4823.4674    44167.081   -2148.2497    81.361952 
    3200    1493.3394   -116.08227    1.3512048   -114.73106   -22087.502    4.3410472    4.3410472    4.3410472   -22087.502   -35237.985   -48363.515    17338.994    4209.7183    6152.2141   -21569.497    81.805691 
    3300      2174.46   -116.67206    1.9674971   -114.70456    25764.538    4.3200464    4.3200464    4.3200464    25764.538    43555.347   -20390.955     54129.22   -11660.776    -27389.93   -2789.8581    80.624163 
    3400    1604.5461   -116.17352     1.451827   -114.72169   -3581.8317    4.3397919    4.3397919    4.3397919   -3581.8317   -24990.274   -6418.7059    20663.485    6158.7351    46518.382   -6913.6665    81.734743 
    3500    1694.4898   -116.23216      1.53321   -114.69895   -36375.981    4.3447986    4.3447986    4.3447986   -36375.981   -26632.651   -37940.544   -44554.748   -2758.7002    40033.247   -23617.903    82.017955 
    3600    1790.4348   -116.29555     1.620023   -114.67553    35640.037    4.3145704    4.3145704    4.3145704    35640.037    24931.368   -19870.781    101859.52   -811.89451   -10525.502   -25261.569    80.317963 
    3700    1708.7188   -116.25069    1.5460846   -114.70461   -790.08887    4.3280557    4.3280557    4.3280557   -790.08887    5713.3273    10829.755   -18913.349    4079.5431    18826.568    15787.599    81.073425 
    3800    1311.4071   -115.89108    1.1865887    -114.7045    9826.7226    4.3452666    4.3452666    4.3452666    9826.7226   -12405.935   -3169.5537    45055.657   -13067.553    16990.881    10082.551    82.044463 
    3900     1671.159     -116.197    1.5120998    -114.6849   -9462.5022    4.3500752    4.3500752    4.3500752   -9462.5022    7743.3689   -9195.3899   -26935.486    9185.8157   -8002.1251    -37311.24    82.317145 
    4000    1350.9575   -115.90213    1.2223747   -114.67976   -8421.8085    4.3353635    4.3353635    4.3353635   -8421.8085    12676.476   -21982.116   -15959.785   -5837.6186    11015.415     4456.649    81.484789 
    4100    1217.8499   -115.78592    1.1019361   -114.68399    17542.082    4.3271797    4.3271797    4.3271797    17542.082     46552.79    27162.226    -21088.77   -10660.364    2869.7499    13946.684    81.024206 
    4200    1230.6672   -115.81087    1.1135335   -114.69734    1017.1358    4.3494675    4.3494675    4.3494675    1017.1358   -222.55845   -22137.844     25411.81    126.21393   -13028.908   -38546.871    82.282652 
    4300    1577.3984   -116.11015    1.4272632   -114.68289   -30457.187    4.3573323    4.3573323    4.3573323   -30457.187   -14988.062   -30384.418   -45999.081    -9652.198    2066.3982    168.91794    82.729815 
    4400    1128.5863   -115.69892    1.0211686   -114.67775   -27023.504    4.3460736    4.3460736    4.3460736   -27023.504   -26919.038    1293.5346   -55445.007   -9529.5077    44030.621    8883.1851    82.090183 
    4500    1770.0286   -116.26178     1.601559   -114.66022    6901.6655    4.3259843    4.3259843    4.3259843    6901.6655     27418.94   -19348.768    12634.825    -4800.087    6979.5079   -28789.638    80.957076 
    4600    1856.6675   -116.36492    1.6799518   -114.68496   -12200.885    4.3433044    4.3433044    4.3433044   -12200.885   -16174.401   -29866.685    9438.4316    -4365.635    7167.0864    5951.3372    81.933366 
    4700    1306.8937   -115.86272    1.1825049   -114.68022   -39465.756    4.3672636    4.3672636    4.3672636   -39465.756   -63893.141   -25879.847    -28624.28   -7705.2573    41305.878    6740.6719    83.296782 
    4800    1759.8126   -116.25664    1.5923154   -114.66433   -2828.4134    4.3354667    4.3354667    4.3354667   -2828.4134   -2046.6309   -17049.126    10610.517    5587.3302    17959.102   -26302.609    81.490612 
    4900    1822.6776   -116.30698     1.649197   -114.65778    26361.671    4.3140158    4.3140158    4.3140158    26361.671    17679.636   -27807.473    89212.851   -1194.9761   -16443.336    5136.5657    80.286995 
    5000    1669.7319   -116.21001    1.5108085    -114.6992   -27202.297    4.3376111    4.3376111    4.3376111   -27202.297   -10404.025   -39177.934    -32024.93    3919.5769       9451.6    24355.998     81.61159 
    5100    1475.7879    -116.0362     1.335324   -114.70087    748.13198    4.3591357    4.3591357    4.3591357    748.13198   -27277.169   -45050.972    74572.536    9326.7739    16158.333   -12780.685    82.832576 
    5200    1610.4585   -116.12757    1.4571767   -114.67039   -21222.386    4.3622966    4.3622966    4.3622966   -21222.386    1874.8966    -34168.91   -31373.143    8676.5658     659.4276   -13454.936    83.012898 
    5300    963.80189   -115.53479    0.8720682   -114.66272   -16985.639    4.3230019    4.3230019    4.3230019   -16985.639   -27475.197    22941.346   -46423.066   -4127.5185     40635.25    20247.717     80.78975 
    5400    1187.1031   -115.73555    1.0741159   -114.66143    60776.834    4.3041555    4.3041555    4.3041555    60776.834    114693.89    57763.656    9872.9535    13938.332    13154.441   -6811.2008    79.737727 
    5500    1558.3918   -116.11358    1.4100656   -114.70352   -5304.4895     4.351025     4.351025     4.351025   -5304.4895    17634.739   -2156.4174    -31391.79    10056.956    -11888.73    8257.5223    82.371078 
    5600    735.32072   -115.34772   0.66533364   -114.68238   -7219.1102    4.3634748    4.3634748    4.3634748   -7219.1102    35878.845    14097.636   -71633.812    19747.486     9849.645    17701.398    83.080176 
    5700    1088.1704   -115.64024   0.98459941   -114.65564    17442.351     4.345985     4.345985     4.345985    17442.351    4458.4724    53726.864   -5858.2842    12583.758    16461.757    724.34499    82.085163 
    5800     1816.514   -116.29832      1.64362    -114.6547    14265.972    4.3388748    4.3388748    4.3388748    14265.972   -9989.7575    60961.168    -8173.494    5640.9347   -13326.744    11822.423    81.682939 
    5900    1387.9805   -115.94443    1.2558739   -114.68856   -288.44945    4.3420987    4.3420987    4.3420987   -288.44945   -9805.2901    26545.834   -17605.892   -6156.9866    18699.879    22903.029    81.865153 
    6000    1457.0916   -116.01689    1.3184071   -114.69848   -11389.203    4.3585407    4.3585407    4.3585407   -11389.203   -28383.776    2330.4221   -8114.2565   -3838.7552    25826.148    1406.0294    82.798661 
    6100    1946.8396   -116.43321    1.7615413   -114.67167    5109.9847    4.3521658    4.3521658    4.3521658    5109.9847    57589.881   -39145.639   -3114.2872    2381.1517     -7737.83   -10388.355    82.435885 
    6200    1229.8452   -115.78213    1.1127897   -114.66934    18359.706    4.3330782    4.3330782    4.3330782    18359.706    18913.639    24803.644    11361.836   -7071.6766    33524.555    16392.104       81.356 
    6300    1585.2252   -116.11442    1.4343451   -114.68007   -911.48638    4.3323669    4.3323669    4.3323669   -911.48638     18536.35   -6754.2245   -14516.584    1249.3493    44942.741   -105.31105    81.315941 
    6400    2019.2908   -116.50743    1.8270968   -114.68033    2479.9655    4.3389397    4.3389397    4.3389397    2479.9655   -6034.0273   -12830.833    26304.757   -1629.8137   -5255.7076   -12248.335    81.686604 
    6500    1036.1548   -115.62436   0.93753467   -114.68683   -17509.307    4.3485749    4.3485749    4.3485749   -17509.307   -12185.011   -21239.147   -19103.762   -10905.514    43976.705    602.26793       82.232 
    6600    1603.8148   -116.12709    1.4511653   -114.67593   -17460.905    4.3497918    4.3497918    4.3497918   -17460.905   -17913.605    15815.089     -50284.2    2510.5673    25781.983   -10651.166    82.301055 
    6700    1814.2275   -116.31097    1.6415512   -114.66941    5451.7972    4.3425997    4.3425997    4.3425997    5451.7972    17963.032    22882.767   -24490.408   -14417.759   -24122.754   -6904.6601    81.893492 
    6800    755.06621   -115.36368   0.68319977   -114.68048     28851.09    4.3256705    4.3256705    4.3256705     28851.09   -13128.057    72991.044    26690.284    -14863.76    47609.334   -3171.2568    80.939463 
    6900    1331.1773   -115.90235    1.2044772   -114.69787   -5452.6568    4.3354271    4.3354271    4.3354271   -5452.6568    28339.976    22014.039   -66711.985     -4018.92    14207.203    13458.633    81.488373 
    7000     1793.601   -116.30442    1.6228879   -114.68153    916.20301    4.3500792    4.3500792    4.3500792    916.20301    15465.396   -15701.441    2984.6541   -10728.064   -26648.488   -5108.2218    82.317371 
    7100    1288.0868   -115.84797     1.165488   -114.68248    9868.7221     4.337983     4.337983     4.337983    9868.7221    3946.4733    4351.4393    21308.254   -16756.169    36471.177   -17927.025    81.632583 
    7200    1191.3018    -115.7676    1.0779149   -114.68969    20322.493    4.3348415    4.3348415    4.3348415    20322.493    45567.122    7209.0952    8191.2606   -10047.861    21427.881     16963.65    81.455363 
    7300    2198.3543   -116.68176    1.9891171   -114.69264   -20028.655    4.3494127    4.3494127    4.3494127   -20028.655   -14485.647   -16670.769   -28929.549    6326.8656   -9837.7856    5789.5075    82.279537 
    7400    1811.7185   -116.32955     1.639281   -114.69027   -12888.569     4.344289     4.344289     4.344289   -12888.569    19724.994   -10166.281   -48224.419    6029.9744     21740.77    3213.7446      81.9891 
    7500    1490.8186    -116.0404     1.348924   -114.69147   -2880.2375    4.3392242    4.3392242    4.3392242   -2880.2375    9847.1364   -5239.1057   -13248.743   -15066.186     38754.51    11775.371    81.702673 
    7600    2053.6743   -116.54935    1.8582077   -114.69115   -9088.7924    4.3449076    4.3449076    4.3449076   -9088.7924    40518.739   -49849.381   -17935.735   -3907.7003   -24779.671   -20310.717    82.024129 
    7700    1370.1287   -115.93842    1.2397213    -114.6987    384.85866      4.34465      4.34465      4.34465    384.85866    16169.399    25934.098    -40948.92    11885.986    11971.957     9920.616     82.00954 
    7800    1374.4827   -115.94222    1.2436608   -114.69856   -20043.521    4.3400992    4.3400992    4.3400992   -20043.521    6483.9061    -471.6638   -66142.805    6780.7356    54596.838    13259.796    81.752107 
    7900    1912.3687     -116.416    1.7303514   -114.68565   -3756.5399    4.3385878    4.3385878    4.3385878   -3756.5399    3885.2855    10793.189   -25948.095   -8260.9151   -17455.871   -5135.4899    81.666732 
    8000    1251.9946   -115.83314     1.132831   -114.70031   -28939.132    4.3570043    4.3570043    4.3570043   -28939.132   -10751.457    8697.5236   -84763.461   -7789.6145    28660.976    10835.511    82.711131 
    8100    1322.2915   -115.88985    1.1964371   -114.69341   -23617.865    4.3397299    4.3397299    4.3397299   -23617.865   -24025.151    7701.6735   -54530.118    11528.495    44953.105   -2587.9948    81.731241 
    8200    1481.0902   -116.01424    1.3401216   -114.67412    32395.471     4.317262     4.317262     4.317262    32395.471    54025.568    30891.873    12268.971   -21451.848   -18054.483    4430.2687    80.468374 
    8300    1112.7487   -115.71283    1.0068384   -114.70599   -30877.347    4.3554133    4.3554133    4.3554133   -30877.347   -38084.458   -17304.413    -37243.17   -33595.789    16988.628    2473.0957    82.620555 
    8400    1243.3666   -115.80372    1.1250243    -114.6787   -29875.943    4.3535249    4.3535249    4.3535249   -29875.943   -35506.795    23415.773   -77536.808    1019.1749     19045.79   -12935.899    82.513139 
    8500    1579.4242   -116.08774    1.4290962   -114.65865    12809.278    4.3300341    4.3300341    4.3300341    12809.278   -24484.665   -16470.854    79383.353   -25576.595    3333.6422    25469.554    81.184653 
    8600    1251.2718   -115.82541     1.132177   -114.69323   -3542.4599    4.3462619    4.3462619    4.3462619   -3542.4599   -34780.137   -1724.0666    25876.824   -23608.411    16569.455    9843.8866    82.100854 
    8700    1413.4879    -115.9555    1.2789536   -114.67655    7787.1099    4.3471814    4.3471814    4.3471814    7787.1099   -13024.218    12267.306    24118.241    1662.8204    23590.199   -1282.4396    82.152971 
    8800    1530.0931   -116.06518    1.3844604   -114.68072   -6719.3095    4.3545096    4.3545096    4.3545096   -6719.3095   -41647.463    24258.114   -2768.5795   -11290.557   -6969.5068    6322.7801    82.569142 
    8900    1410.8593   -115.94733    1.2765752   -114.67075   -45864.713    4.3738568    4.3738568    4.3738568   -45864.713   -65413.813   -42853.712   -29326.614   -33257.425   -4058.1408   -8033.1598    83.674609 
    9000    1673.7546   -116.18855    1.5144483    -114.6741    17656.768    4.3287383    4.3287383    4.3287383    17656.768   -4784.7649     73205.55   -15450.482    -8300.202    29447.002    2951.4806    81.111791 
    9100    1598.6306   -116.11682    1.4464745   -114.67034    38792.818    4.3062218    4.3062218    4.3062218    38792.818    50894.141   -1823.5416    67307.854   -14548.493   -1839.7476    6590.6537    79.852622 
    9200    803.83629   -115.45168   0.72732797   -114.72435   -32319.855    4.3546663    4.3546663    4.3546663   -32319.855   -24040.176   -54639.747   -18279.644   -38200.637   -7195.6201    14943.046    82.578051 
    9300    1686.1428   -116.21473    1.5256574   -114.68907   -8228.3955    4.3503817    4.3503817    4.3503817   -8228.3955    12774.733   -19477.685   -17982.235   -13492.418   -5916.7891   -4611.4704    82.334544 
    9400    1574.5136   -116.10106     1.424653   -114.67641    38747.079    4.3322657    4.3322657    4.3322657    38747.079    61704.676    23528.009    31008.552    301.13076   -9686.3977   -4023.2324    81.310239 
    9500     922.9647   -115.53295   0.83511786   -114.69783   -10116.869    4.3600955    4.3600955    4.3600955   -10116.869    435.74212   -37504.226    6717.8782   -52204.269   -14011.338   -139.59642    82.887305 
    9600    1865.2486    -116.3444    1.6877161   -114.65668   -5011.2465    4.3563191    4.3563191    4.3563191   -5011.2465    38138.201   -17232.301   -35939.639   -16081.086   -9121.6641    2846.6332    82.672117 
    9700    1718.5779   -116.21198    1.5550054   -114.65697    4945.1261    4.3397672    4.3397672    4.3397672    4945.1261    10101.062    27898.939   -23164.623   -5845.1255    -293.1317   -2857.2954    81.733352 
    9800    1163.3378   -115.73402    1.0526125   -114.68141   -18079.043    4.3393545    4.3393545    4.3393545   -18079.043   -15516.484   -38502.337   -218.30948   -66272.376   -4929.6111     9772.654    81.710036 
    9900    1505.2221   -116.03635    1.3619566    -114.6744    8973.0415     4.337838     4.337838     4.337838    8973.0415    -20161.65    30438.707    16642.068   -17644.685   -16494.961   -4943.8055    81.624396 
   10000    1899.1462   -116.39954    1.7183874   -114.68115   -26635.552    4.3510107    4.3510107    4.3510107   -26635.552   -19830.715   -3195.1295   -56880.811    6023.7617   -10566.445    4070.0014    82.370264 
   10100    1289.1197   -115.84816    1.1664226   -114.68174    -39816.47    4.3502355    4.3502355    4.3502355    -39816.47   -15742.566   -87582.597   -16124.247   -46885.613    13421.747    22933.544    82.326246 
   10200     1415.054    -115.9489    1.2803706   -114.66853    21172.737    4.3261392    4.3261392    4.3261392    21172.737    9105.4754    22385.483    32027.253   -13475.538   -3173.4053   -7191.5187    80.965776 
   10300    1576.9132   -116.13211    1.4268242   -114.70528   -8561.1779    4.3459308    4.3459308    4.3459308   -8561.1779    -29065.09   -7721.5524    11103.108    13438.886   -9666.7543    10126.783    82.082095 
   10400    1261.7807   -115.83359    1.1416857   -114.69191   -55921.839    4.3638953    4.3638953    4.3638953   -55921.839   -80715.484   -102233.68     15183.65   -38681.587   -2006.0766      6238.41      83.1042 
   10500    1309.5632   -115.85499    1.1849203   -114.67007    612.71809    4.3394187    4.3394187    4.3394187    612.71809   -47474.906    788.04417    48525.016   -1736.7536   -8940.5696    13309.442    81.713664 
   10600    1235.0828   -115.78272    1.1175289   -114.66519    24476.147    4.3235584    4.3235584    4.3235584    24476.147   -13114.372     55939.86    30602.954    4421.0694   -15166.616      20786.3    80.820959 
   10700    1264.3001   -115.83501    1.1439653   -114.69104   -17118.458    4.3316905    4.3316905    4.3316905   -17118.458   -9824.2064   -22184.257   -19346.911   -26215.349    6423.9731   -7965.7204    81.277862 
   10800    1374.4845   -115.93608    1.2436624   -114.69242    -14438.28    4.3519758    4.3519758    4.3519758    -14438.28   -49359.097    7026.1371   -981.88092   -424.26902   -4718.0167    3090.8181    82.425088 
   10900    1242.3597   -115.79905    1.1241132   -114.67493    1590.6666    4.3555328    4.3555328    4.3555328    1590.6666   -42275.092   -10413.138    57460.229    13291.903   -10297.677    17560.215    82.627359 
   11000     1179.168   -115.73347     1.066936   -114.66653     10523.49    4.3282521    4.3282521    4.3282521     10523.49    37447.286    -34693.52    28816.702   -25119.859    1421.8819     17603.27    81.084466 
   11100    1674.0665   -116.17975    1.5147305   -114.66502    29111.346    4.3206553    4.3206553    4.3206553    29111.346   -1090.8966    6576.5062    81848.427    -1747.785    3202.1211    12597.965    80.658262 
   11200     1872.768   -116.37989    1.6945198   -114.68537   -19488.446    4.3550251    4.3550251    4.3550251   -19488.446   -61668.013   -10551.063    13753.739    16781.775    5043.1018   -610.13701    82.598468 
   11300    1440.3571   -115.98319    1.3032654   -114.67993   -2021.9687    4.3492943    4.3492943    4.3492943   -2021.9687    -12930.51   -8729.3919    15593.996   -7704.9415    786.40007    23208.174     82.27282 
   11400    1242.6297   -115.78968    1.1243574   -114.66533    54004.401    4.3161424    4.3161424    4.3161424    54004.401    85281.414    10546.948    66184.841   -15897.014    -5341.435    28891.511    80.405787 
   11500    2032.0091   -116.53756    1.8386046   -114.69895   -11081.755    4.3297129    4.3297129    4.3297129   -11081.755   -3729.1659   -9163.7793   -20352.321    17731.886    12604.448   -16469.465     81.16659 
   11600    1262.2781   -115.84654    1.1421358   -114.70441   -1667.2902    4.3542913    4.3542913    4.3542913   -1667.2902    10239.459   -24154.852    8913.5224    15840.338   -631.95687   -12269.625    82.556725 
   11700    1289.2581   -115.85658    1.1665478   -114.69004    4086.0914     4.347429     4.347429     4.347429    4086.0914    26068.285   -25591.454    11781.443   -14832.505    3224.8429    35918.607    82.167013 
   11800    1886.9446   -116.39245    1.7073471    -114.6851   -3903.7112    4.3367474    4.3367474    4.3367474   -3903.7112   -3595.0921    17996.625   -26112.667   -5528.2427    1956.5534    2388.2334    81.562847 
   11900     1789.739   -116.31116    1.6193935   -114.69176    6293.5949    4.3257319    4.3257319    4.3257319    6293.5949    18393.731    16486.377   -15999.323   -10762.082    24439.039   -11619.445    80.942908 
   12000    1145.1722   -115.75261    1.0361759   -114.71643    14387.374    4.3263898    4.3263898    4.3263898    14387.374    36175.033   -10786.576    17773.666   -6032.7906   -16547.716    25417.688    80.979846 
   12100    1595.5264   -116.16193    1.4436658   -114.71826   -25311.308    4.3532238    4.3532238    4.3532238   -25311.308   -10063.765   -47481.138   -18389.021   -19934.356    11254.132    16829.305     82.49602 
   12200    1796.2217   -116.31597    1.6252591   -114.69072    -33409.32    4.3566541    4.3566541    4.3566541    -33409.32   -19017.742    -23532.25   -57677.969    8858.1463    6364.0901   -10621.288     82.69119 
   12300    1316.8398   -115.87183    1.1915044   -114.68032    8668.8919    4.3224699    4.3224699    4.3224699    8668.8919    62031.959   -20160.695   -15864.588   -2680.1056    4700.9252    16437.562    80.759929 
   12400    1748.1733   -116.26664     1.581784   -114.68485    8306.8514     4.308696     4.308696     4.308696    8306.8514    32105.212   -31551.771    24367.113   -9124.4399   -1608.2101    20358.704    79.990341 
   12500     1344.164   -115.94755    1.2162278   -114.73132   -23068.665    4.3566739    4.3566739    4.3566739   -23068.665   -7974.2723   -17293.818   -43937.906    2392.1994    12412.774   -12111.975    82.692316 
   12600    1529.8247    -116.0651    1.3842176   -114.68088   -55107.475      4.37938      4.37938      4.37938   -55107.475   -11338.624   -58567.785   -95416.017    21124.704    8391.6399    5126.3816    83.991997 
   12700    1706.2624   -116.20361    1.5438621   -114.65974    7783.3011    4.3310186    4.3310186    4.3310186    7783.3011     29037.93   -11136.263    5448.2372    7384.6791   -4876.2404    8018.8178    81.240043 
   12800    1484.4225   -116.00181    1.3431367   -114.65868    23955.251    4.3058187    4.3058187    4.3058187    23955.251   -11369.039    76382.727    6852.0654   -8951.8796    22361.161    -5317.007    79.830202 
   12900    1650.3765   -116.21023    1.4932953   -114.71693   -25009.818    4.3571533    4.3571533    4.3571533   -25009.818   -12764.148   -8464.4797   -53800.827    7369.8989    -16363.53   -8615.7297    82.719616 
   13000    1400.1209   -115.91926    1.2668588    -114.6524   -50306.522    4.3845695    4.3845695    4.3845695   -50306.522   -71485.663   -25816.001   -53617.901   -12231.853   -479.38282    11191.604    84.290933 
   13100    1360.4689   -115.87898    1.2309808     -114.648     27276.46     4.326746     4.326746     4.326746     27276.46    49835.662    31137.669    856.04923   -1276.0327    19828.426   -2195.2163     80.99985 
   13200    1821.2853   -116.28344    1.6479372   -114.63551    29627.656    4.2961077    4.2961077    4.2961077    29627.656    26583.762    39712.577    22586.629    8508.0705    6234.1505   -19547.906    79.291292 
   13300    1390.7965   -115.96062    1.2584219    -114.7022    13402.764    4.3317413    4.3317413    4.3317413    13402.764    54154.902    4609.6691    -18556.28    6646.9451    4665.5628    11242.793    81.280717 
   13400    1178.1127    -115.7595    1.0659811   -114.69352    17423.715    4.3651689    4.3651689    4.3651689    17423.715    36466.606   -6305.8708    22110.411   -6464.1327     23374.91    10942.758    83.176984 
   13500    1682.3314   -116.17444    1.5222088   -114.65223   -15071.885    4.3639965    4.3639965    4.3639965   -15071.885   -32838.758    9465.1773   -21842.074    1406.6157    9953.9476   -31793.619    83.109981 
   13600    1596.5138   -116.09881    1.4445592   -114.65425    -2471.741    4.3242476    4.3242476    4.3242476    -2471.741    574.63444    213.90007   -8203.7576   -8318.4213   -11507.657    1590.8549    80.859613 
   13700    1401.3048     -115.921    1.2679301   -114.65307    53356.104    4.2939718    4.2939718    4.2939718    53356.104    73685.479    53585.464    32797.368   -17366.182     21760.07    27866.535    79.173083 
   13800    1408.5116   -116.00069    1.2744509   -114.72624    3158.6992    4.3337263    4.3337263    4.3337263    3158.6992    8029.1058   -11502.093    12949.085    12839.973    7726.3077   -35545.396    81.392508 
   13900    1387.0185   -115.93659    1.2550035   -114.68159    -55434.95    4.3724731    4.3724731    4.3724731    -55434.95   -46167.497    -71001.73   -49135.622   -16392.909   -20251.629   -28874.893    83.595218 
   14000    1604.9548   -116.13101    1.4521968   -114.67881    8443.1517    4.3223525    4.3223525    4.3223525    8443.1517   -8340.3881   -961.27839    34631.122   -20654.811    12905.278    28085.521    80.753349 
   14100    1424.1016   -115.94067    1.2885571   -114.65211    25008.658    4.2880835    4.2880835    4.2880835    25008.658     103758.6   -8406.8419    -20325.78    7805.1439    8439.0011   -43266.934    78.847821 
   14200    1476.2932   -116.04193    1.3357811   -114.70615   -27917.674    4.3339238    4.3339238    4.3339238   -27917.674   -467.38139   -52848.894   -30436.746    2295.9522    14826.812   -43064.397    81.403637 
   14300    1910.9536   -116.40039     1.729071   -114.67132   -19610.021    4.3646918    4.3646918    4.3646918   -19610.021    19273.111   -45785.446   -32317.727   -4727.9162    6472.8143     21176.09    83.149712 
   14400    1279.6324   -115.82268    1.1578383   -114.66484   -47522.337    4.3593506    4.3593506    4.3593506   -47522.337    32693.852    -89800.48   -85460.384    1529.6226    6730.2808   -54309.218    82.844825 
   14500    1644.5698   -116.15612    1.4880413   -114.66808   -248.21944     4.320256     4.320256     4.320256   -248.21944    43611.771   -16531.525   -27824.904    -280.4047    15754.907    -28429.31    80.635904 
   14600    1952.0594   -116.43514    1.7662643   -114.66888    56578.368     4.302998     4.302998     4.302998    56578.368    70019.118    56300.975    43415.012   -14276.234   -11207.764    13520.649    79.673415 
   14700    1420.6286   -116.01053    1.2854146   -114.72512   -29004.749    4.3472435    4.3472435    4.3472435   -29004.749    5603.9804   -42081.456    -50536.77   -16219.084    5716.2659   -43178.405    82.156494 
   14800    1305.0375   -115.87441    1.1808254   -114.69359   -25401.489    4.3611126    4.3611126    4.3611126   -25401.489   -4854.4901    -5167.376     -66182.6    4870.2052    26902.775   -4257.7827    82.945322 
   14900    1776.7607   -116.26674    1.6076504   -114.65909    13518.498    4.3353669    4.3353669    4.3353669    13518.498     -1585.91    8039.2307    34102.174    2836.2547    3488.1468    9434.7218    81.484979 
   15000    1796.0801   -116.28986     1.625131   -114.66473   -12132.242    4.3343865    4.3343865    4.3343865   -12132.242    43222.215   -47984.826   -31634.115   -9147.9827   -6539.8433   -26583.468    81.429711 
   15100    1556.6106   -116.08069    1.4084539   -114.67223   -2151.0416    4.3335098    4.3335098    4.3335098   -2151.0416    18558.958   -19358.193   -5653.8902    2194.6645     17870.12   -3309.9929    81.380311 
   15200    1272.9285   -115.84477    1.1517724     -114.693    21732.437    4.3397228    4.3397228    4.3397228    21732.437    22949.463    4951.8595    37295.988    6060.5667   -3896.3456    13835.374    81.730842 
   15300    1663.4342   -116.18828    1.5051102   -114.68317   -4263.8568     4.353012     4.353012     4.353012   -4263.8568    36580.887   -42976.374   -6396.0837   -5116.1956   -29249.912   -155.75039     82.48398 
   15400    1890.7715   -116.39983    1.7108098   -114.68902    6437.8635    4.3210174    4.3210174    4.3210174    6437.8635    8718.8509   -18991.876    29586.616   -6972.4435    1327.2926    3683.2298    80.678545 
   15500     886.4667    -115.5068    0.8020937    -114.7047    37750.248    4.3101272    4.3101272    4.3101272    37750.248    59831.624     20856.76    32562.359    8908.5394    23481.485    16003.983    80.070077 
   15600    1679.5492   -116.22722    1.5196915   -114.70753   -625.34949    4.3522842    4.3522842    4.3522842   -625.34949    82210.362   -54249.001    -29837.41     5278.355   -17889.916    5459.7366    82.442612 
   15700    1558.8836   -116.11023    1.4105107   -114.69972   -18486.418    4.3493875    4.3493875    4.3493875   -18486.418    22730.696   -38966.097   -39223.854   -12537.084    21370.412   -1944.7257    82.278112 
   15800    563.52997   -115.21504   0.50989376   -114.70515    6328.8653    4.3074868    4.3074868    4.3074868    6328.8653   -5472.9513    34265.535   -9805.9882   -14928.844    50237.253    13150.072    79.923016 
   15900    1864.9823    -116.3963    1.6874752   -114.70882    20187.733    4.3033097    4.3033097    4.3033097    20187.733    59572.556   -5630.2199    6620.8617    13769.921     172.5266   -2814.5713    79.690731 
   16000    1619.1026   -116.18569     1.464998   -114.72069   -8587.3333    4.3429385    4.3429385    4.3429385   -8587.3333    53358.778   -41133.968    -37986.81    126.28522     -6505.09   -11708.224    81.912662 
   16100    1216.4592   -115.81351    1.1006779   -114.71283   -19991.442    4.3406422    4.3406422    4.3406422   -19991.442   -8063.7256   -7989.8875   -43920.714   -29123.019    30319.399    12914.943    81.782799 
   16200     1329.745   -115.89797    1.2031813   -114.69479   -735.41357    4.3173776    4.3173776    4.3173776   -735.41357    6088.7727   -2771.0757   -5523.9377   -5167.2067    10266.573    1344.8025    80.474838 
   16300    1470.5308   -116.03843    1.3305672   -114.70786   -11555.703    4.3159914    4.3159914    4.3159914   -11555.703    9649.2918   -40272.442   -4043.9607    22377.971   -10268.371   -22054.366    80.397344 
   16400    1353.6506   -115.95082    1.2248115     -114.726    1679.1701    4.3261824    4.3261824    4.3261824    1679.1701    37445.308    2120.7982   -34528.596    437.96672     7801.488   -889.06511    80.968202 
   16500    1547.6266   -116.12271    1.4003251   -114.72238   -26890.286    4.3395488    4.3395488    4.3395488   -26890.286   -24812.995   -16459.575   -39398.287    -14650.47    30768.876   -62.299534    81.721012 
   16600    1000.7416   -115.62189   0.90549206    -114.7164    -15502.23    4.3263122    4.3263122    4.3263122    -15502.23    3652.7974   -48953.354   -1206.1347    1988.3118   -14628.615   -29700.931     80.97549 
   16700     1165.334   -115.76333    1.0544187   -114.70891    2356.7637    4.3106272    4.3106272    4.3106272    2356.7637    19330.017   -14179.766    1920.0407    15475.111   -20154.645   -10938.675    80.097948 
   16800    1699.9141   -116.25652     1.538118    -114.7184   -4637.3405    4.3243527    4.3243527    4.3243527   -4637.3405    3953.6164   -10841.807    -7023.831   -4008.8984    14610.715    6840.1059    80.865512 
   16900    1401.9563   -115.98267    1.2685196   -114.71415   -17786.459    4.3397452    4.3397452    4.3397452   -17786.459    7216.7512   -73806.972    13230.843   -16001.939    11139.765   -12141.788    81.732106 
   17000      929.305    -115.5469   0.84085469   -114.70604   -6969.9202    4.3319679    4.3319679    4.3319679   -6969.9202     34088.77   -46796.805   -8201.7261    3056.5996   -18376.401   -13603.496    81.293476 
   17100    1597.4534   -116.14394    1.4454094   -114.69853   -12907.546    4.3237932    4.3237932    4.3237932   -12907.546   -3801.3272   -28002.756   -6918.5548    10611.029   -19900.449    13730.869    80.834124 
   17200    1570.1865   -116.11629    1.4207378   -114.69556    24210.976    4.3223099    4.3223099    4.3223099    24210.976    88701.422   -35666.763    19598.269   -12271.946   -585.26635    8341.1134    80.750964 
   17300    1796.9458   -116.33047    1.6259143   -114.70455   -18764.086     4.327499     4.327499     4.327499   -18764.086   -24240.779   -39725.152    7673.6725   -8106.9001   -8336.1854   -15573.806    81.042147 
   17400      845.381   -115.48465   0.76491849   -114.71973   -32097.648     4.334899     4.334899     4.334899   -32097.648   -57379.274   -37837.634   -1076.0366    19997.843   -26453.564    10603.645    81.458599 
   17500    1368.7727    -115.9539    1.2384943    -114.7154   -22420.125    4.3157356    4.3157356    4.3157356   -22420.125    9912.6828   -43908.182   -33264.874    10248.133   -25226.819    56725.095    80.383053 
   17600    1755.2918   -116.30408    1.5882249   -114.71586    34085.733    4.3104626    4.3104626    4.3104626    34085.733    52422.617   -6026.8235    55861.405   -14024.197    26580.978    9318.5514    80.088774 
   17700    1821.5512   -116.36828    1.6481778   -114.72011   -23879.859     4.334847     4.334847     4.334847   -23879.859    -28832.01   -30406.535   -12401.032   -323.94351   -8920.1454   -7582.2985     81.45567 
   17800    529.06554   -115.19996   0.47870962   -114.72125   -12745.807    4.3339749    4.3339749    4.3339749   -12745.807    71588.606   -55612.429   -54213.598     11311.58   -15796.039    55871.408    81.406518 
   17900    1428.5439   -115.99108    1.2925766    -114.6985    27142.203    4.3233892    4.3233892    4.3233892    27142.203    41829.334   -9442.9215    49040.196    5003.3862     7290.262    14521.328    80.811469 
   18000    2281.3474   -116.75106     2.064211   -114.68685   -592.35321    4.3260127    4.3260127    4.3260127   -592.35321    8104.0118   -36857.267    26976.196    1657.6393     1172.766   -2086.2007     80.95867 
   18100    695.31104   -115.34575   0.62913204   -114.71662   -12293.493    4.3222934    4.3222934    4.3222934   -12293.493    60708.361   -53965.812   -43623.027    7086.0705   -6369.9247    57253.883    80.750036 
   18200    1136.8892   -115.73787    1.0286813   -114.70919    375.23409     4.318263     4.318263     4.318263    375.23409    48689.869   -20767.122   -26797.045    7732.4522   -25432.515    12252.958    80.524356 
   18300     1778.179   -116.31131    1.6089337   -114.70237   -841.78054    4.3378993    4.3378993    4.3378993   -841.78054   -18580.323   -12992.214    29047.195   -6035.3474    10467.492   -17966.884    81.627856 
   18400    1244.3007   -115.81918    1.1258694   -114.69331   -30716.703    4.3436831    4.3436831    4.3436831   -30716.703    27877.838   -53873.131   -66154.816    1995.6776    3125.7205    45638.018    81.954798 
   18500    1341.5274   -115.90287    1.2138422   -114.68903   -1347.4416    4.3102036    4.3102036    4.3102036   -1347.4416    1987.2553    5399.6874   -11429.268   -7241.1499   -21432.955    21417.414    80.074335 
   18600    1526.3141   -116.07984     1.381041    -114.6988    16115.302    4.2993029    4.2993029    4.2993029    16115.302     33168.25    5813.3938    9364.2612    14918.265   -22116.212   -26967.336     79.46834 
   18700    1138.4062   -115.75343    1.0300539   -114.72338    3000.0817    4.3335213    4.3335213    4.3335213    3000.0817     70647.11       -52445   -9201.8652   -8986.4927    7809.2515    14357.212    81.380962 
   18800    1680.6134   -116.21622    1.5206543   -114.69557   -22655.498    4.3446815    4.3446815    4.3446815   -22655.498   -39137.849   -21915.759   -6912.8867    10674.613   -9975.2491     26881.14    82.011325 
   18900    1305.3175   -115.86925    1.1810787   -114.68817   -3890.9344    4.3251359    4.3251359    4.3251359   -3890.9344    27115.581   -20410.458   -18377.926    14767.711   -18401.034   -16100.414    80.909455 
   19000    1485.8762   -116.03903     1.344452   -114.69457   -11875.447    4.3105691    4.3105691    4.3105691   -11875.447    23442.744   -45446.824   -13622.262    4560.7186   -2452.1347   -20574.749     80.09471 
   19100     1810.777    -116.3418    1.6384291   -114.70337    18640.817    4.3082621    4.3082621    4.3082621    18640.817    19916.875    12700.776    23304.801   -3930.4565    8441.4953    21431.213    79.966179 
   19200    1258.9055   -115.86532    1.1390842   -114.72624   -39136.171    4.3417316    4.3417316    4.3417316   -39136.171   -48764.049   -28102.202   -40542.261    -4323.593      5740.22    -13420.72    81.844393 
   19300    1162.4893   -115.75995    1.0518447   -114.70811   -30322.275    4.3405031    4.3405031    4.3405031   -30322.275    15093.647   -58001.847   -48058.626    19085.189   -20090.661   -46070.077    81.774938 
   19400    2034.4363   -116.51634    1.8408007   -114.67554    23347.059    4.3043832    4.3043832    4.3043832    23347.059    260.69658    17709.816    52070.663   -5547.2137    8215.4845   -649.84249    79.750383 
   19500    1805.2824   -116.32748    1.6334574   -114.69402    3471.3203    4.3122625    4.3122625    4.3122625    3471.3203    -23971.97    14377.665    20008.265    -7829.969    16522.215   -2956.5102    80.189141 
   19600     1027.237   -115.63669   0.92946558   -114.70722   -17873.002    4.3324469    4.3324469    4.3324469   -17873.002   -23146.673   -45392.467    14920.133    10225.555   -10050.901   -51107.559    81.320446 
   19700    1428.3847   -115.99821    1.2924325   -114.70578   -6080.3393    4.3303498    4.3303498    4.3303498   -6080.3393     2722.558   -22259.456    1295.8802    3185.7488   -3778.7663   -12065.841    81.202414 
   19800    2000.6529   -116.50385    1.8102328   -114.69362    15278.933    4.3197445    4.3197445    4.3197445    15278.933    2850.5056    5414.8328     37571.46   -3370.6934    9043.4571     35630.64    80.607265 
   19900    1687.8282   -116.22446    1.5271825   -114.69727     1029.638    4.3160766    4.3160766    4.3160766     1029.638   -13995.423   -11272.051    28356.388   -4330.2225    6020.8811   -41175.022    80.402105 
   20000    959.93119   -115.58489   0.86856592   -114.71633   -29192.002    4.3276893    4.3276893    4.3276893   -29192.002   -13874.917   -38723.614   -34977.473    6498.2582   -23939.092   -33044.431    81.052839 
   20100    1621.2765   -116.17726    1.4669651    -114.7103    -31717.15    4.3268818    4.3268818    4.3268818    -31717.15    -15983.79   -48989.216   -30178.446    4884.8759   -16051.463    63012.061    81.007475 
   20200    1825.5723   -116.35751    1.6518162   -114.70569     12038.24    4.3168208    4.3168208    4.3168208     12038.24    29562.361    -25103.71    31656.068   -10218.773    17060.064   -10122.686    80.443707 
   20300    1684.0934    -116.2358    1.5238031     -114.712    1105.5994    4.3108209    4.3108209    4.3108209    1105.5994    3191.5688   -25582.205    25707.434    18125.781    -943.8527   -30806.699    80.108747 
   20400    1208.6626   -115.81937    1.0936233   -114.72575    3501.6983    4.3212333    4.3212333    4.3212333    3501.6983    24596.572   -41645.048    27553.571    10637.277   -9216.8952    27619.577    80.690636 
   20500    1439.2622   -116.01281    1.3022747   -114.71053   -24702.427    4.3382216    4.3382216    4.3382216   -24702.427   -16777.981   -47366.275   -9963.0257   -12162.622    8225.3748    25023.755    81.646056 
   20600    1755.8015   -116.29003    1.5886861   -114.70135    4438.4759    4.3150999    4.3150999    4.3150999    4438.4759     3524.593   -15880.684    25671.519   -5912.8763    16649.876   -11139.918    80.347534 
   20700     1654.383   -116.19444    1.4969205   -114.69752    25386.279    4.3045101    4.3045101    4.3045101    25386.279    39477.328   -21178.402     57859.91    10154.847   -4964.2735     3897.217    79.757436 
   20800    1038.1152   -115.65391   0.93930842    -114.7146   -39175.132    4.3291431    4.3291431    4.3291431   -39175.132   -1283.4038   -72220.245   -44021.746    2849.3627   -1733.9835    39784.642    81.134547 
   20900    1097.9508   -115.70379   0.99344893   -114.71034   -17018.629    4.3231572    4.3231572    4.3231572   -17018.629   -9355.9503   -38345.194   -3354.7442   -21133.283    40870.742    7262.9618     80.79846 
   21000    1715.9788   -116.26135    1.5526537   -114.70869    16747.357    4.3189147    4.3189147    4.3189147    16747.357    36302.107   -18494.212    32434.177    9537.6359    11037.618   -8368.6175    80.560822 
   21100    1877.5042    -116.4103    1.6988053    -114.7115   -17997.325    4.3222594    4.3222594    4.3222594   -17997.325    11296.125   -57123.829   -8164.2723    19524.632   -22688.322    19345.618    80.748131 
   21200    982.62878   -115.60224   0.88910317   -114.71314    27839.258    4.3054229    4.3054229    4.3054229    27839.258     58570.55   -3165.4022    28112.627   -18625.078    47624.415    26004.638    79.808185 
   21300    1453.0236   -116.04455    1.3147263   -114.72982     3130.622    4.3292514    4.3292514    4.3292514     3130.622     9661.425   -23555.672    23286.113    6744.4834    18846.392   -17140.836    81.140638 
   21400    1821.3721   -116.33697    1.6480157   -114.68895   -29676.559    4.3450972    4.3450972    4.3450972   -29676.559    5418.2025   -53204.188   -41243.691     13499.17   -21326.683   -12868.532    82.034869 
   21500    1254.0192    -115.8211    1.1346629   -114.68644    31460.225      4.29787      4.29787      4.29787    31460.225    57628.832    10736.544    26015.301    11291.158    43263.097    28762.002    79.388907 
   21600    1081.3113   -115.68649   0.97839319    -114.7081    12650.975    4.2991814    4.2991814    4.2991814    12650.975    40686.739   -2983.7844    249.97057   -13745.151    35354.583   -1431.9294    79.461599 
   21700     1868.359   -116.38633    1.6905305    -114.6958   -21409.832    4.3283787    4.3283787    4.3283787   -21409.832    12700.597    -47226.89   -29703.204   -20436.405   -5721.0563   -26697.856    81.091576 
   21800     1440.871   -116.00435    1.3037304   -114.70062    17839.469    4.3234443    4.3234443    4.3234443    17839.469    58481.202   -2986.0267   -1976.7692    10335.299    10536.183    4632.6254    80.814556 
   21900    905.10052   -115.52753   0.81895397   -114.70857   -35732.804    4.3327029    4.3327029    4.3327029   -35732.804   -17044.429   -23884.594   -66269.391   -8273.8965    41073.626    22450.805    81.334863 
   22000    1542.5205   -116.10018     1.395705   -114.70448   -21523.078    4.3150375    4.3150375    4.3150375   -21523.078   -2016.0666   -32218.343   -30334.826   -17569.705   -4105.7728    -17961.47    80.344049 
   22100    1599.9787   -116.14346    1.4476944   -114.69577    57642.876    4.2949263    4.2949263    4.2949263    57642.876    134244.39    5806.9082    32877.327   -5586.8804   -5975.2379   -3902.5168    79.225894 
   22200    1399.0737   -115.98644    1.2659112   -114.72053   -28849.022    4.3271213    4.3271213    4.3271213   -28849.022   -17149.346     4651.846   -74049.568      3302.25    43882.275    28107.883    81.020927 
   22300    1314.8943   -115.89626     1.189744   -114.70651   -9254.7068    4.3303645    4.3303645    4.3303645   -9254.7068    53682.541   -20497.132   -60949.529    9503.9887   -4486.3449   -9078.8085     81.20324 
   22400    1992.7083   -116.49263    1.8030444   -114.68958    3659.5807    4.3191298    4.3191298    4.3191298    3659.5807    28683.033   -4104.7319   -13599.559    -10446.47   -10858.862   -8792.5108     80.57286 
   22500    1279.2353   -115.86008     1.157479    -114.7026   -22824.969    4.3241213    4.3241213    4.3241213   -22824.969   -10913.296   -20292.458   -37269.154     890.2855     29571.43    30727.414    80.852527 
   22600    1102.1491   -115.70685   0.99724764    -114.7096    3551.2044    4.3083971    4.3083971    4.3083971    3551.2044    35393.301    14273.099   -39012.787     11231.77    12327.241     -1196.73    79.973695 
   22700     2150.388   -116.65919    1.9457163   -114.71348    16403.634    4.3195069    4.3195069    4.3195069    16403.634    28594.583     6448.547    14167.772   -9465.8515   -18860.623   -12326.021    80.593964 
   22800    1926.7929   -116.44825    1.7434027   -114.70485   -22926.315    4.3381618    4.3381618    4.3381618   -22926.315    4991.5206   -30205.937   -43564.529    1127.1742    8521.0652     32884.94    81.642679 
   22900     1150.926   -115.75254     1.041382   -114.71116     33214.84    4.3044344    4.3044344    4.3044344     33214.84    64993.862    2691.6199    31959.037    16062.302    23119.505    2441.8795    79.753228 
   23000      1746.65    -116.2917    1.5804056   -114.71129    31034.819    4.3095376    4.3095376    4.3095376    31034.819    53436.734    11619.862    28047.862   -6898.0115    -3512.783   -25175.881    80.037224 
   23100    2089.2857   -116.58594    1.8904296   -114.69551   -6883.9987     4.331628     4.331628     4.331628   -6883.9987   -20991.577   -21914.829     22254.41   -28941.134   -967.85165    10530.909    81.274341 
   23200    1584.6319   -116.12835    1.4338083   -114.69454    28618.962    4.3163322    4.3163322    4.3163322    28618.962    87560.512   -11869.348    10165.722   -6831.2614    11453.677    -3185.732    80.416394 
   23300    1552.0798   -116.10615    1.4043544   -114.70179   -8033.9494    4.3252946    4.3252946    4.3252946   -8033.9494    7150.1832   -26213.026   -5039.0056    12664.861    21420.475   -23444.513    80.918364 
   23400    1853.3711   -116.37507    1.6769691    -114.6981   -17893.764    4.3239173    4.3239173    4.3239173   -17893.764   -39110.334   -35889.103    21318.144   -17059.983   -2379.2866    8348.1843    80.841088 
   23500    1483.5591   -116.03883    1.3423555   -114.69647    35834.292    4.3040523    4.3040523    4.3040523    35834.292    94886.657   -14601.652     27217.87   -17569.223   -11634.063    16896.585    79.731991 
   23600    1437.9363   -116.01752     1.301075   -114.71645   -30329.166    4.3269967    4.3269967    4.3269967   -30329.166    15359.753   -43363.144   -62984.107    3666.7238    34706.381    -17651.28     81.01393 
   23700     1628.072   -116.18061    1.4731137    -114.7075   -7573.5649    4.3239682    4.3239682    4.3239682   -7573.5649    14692.688   -10978.396   -26434.987   -7878.6231    27924.978   -9511.8082     80.84394 
   23800    1976.8147   -116.48349    1.7886635   -114.69483    24544.584      4.30053      4.30053      4.30053    24544.584    45134.069    14229.098    14270.585     124.6331   -24358.483    6118.4267      79.5364 
   23900    887.94551   -115.52606   0.80343175   -114.72263   -41963.669    4.3236486    4.3236486    4.3236486   -41963.669   -32965.745   -51370.744   -41554.517    6854.9939    23306.794   -28635.075    80.826016 
   24000      1248.14   -115.84378    1.1293433   -114.71443   -19951.754    4.3250699    4.3250699    4.3250699   -19951.754   -14009.863   -19352.911   -26492.488    7963.6359    42824.679   -17238.794    80.905748 
   24100      1754.01   -116.28638    1.5870651   -114.69932    28765.739    4.3175507    4.3175507    4.3175507    28765.739    77819.836    17174.379   -8696.9986    5062.7951   -26917.798    9991.4712    80.484514 
   24200    1050.3613   -115.65703   0.95038897   -114.70664   -10647.727     4.331487     4.331487     4.331487   -10647.727    48099.662   -42430.427   -37612.417   -10296.653    3551.0895    -15535.96    81.266402 
   24300    1180.2928   -115.75745    1.0679537   -114.68949   -22152.545    4.3291317    4.3291317    4.3291317   -22152.545    14290.095   -62534.193   -18213.535    16966.547    31125.977   -12294.572     81.13391 
   24400    1513.8475   -116.05311    1.3697611   -114.68335     11025.14    4.3223287    4.3223287    4.3223287     11025.14    25818.186   -5179.6277    12436.863    7143.1492   -11123.152    11664.145    80.752015 
   24500      1478.06   -116.03647    1.3373798   -114.69909   -9665.4648     4.311162     4.311162     4.311162   -9665.4648    17603.891   -27573.104   -19027.181   -10348.156    2704.0427   -9824.6745    80.127763 
   24600    949.96226    -115.5768   0.85954581   -114.71726    22736.304    4.3090297    4.3090297    4.3090297    22736.304    91976.364    11746.937   -35514.387    5390.1493    38710.941   -18076.795    80.008927 
   24700    1816.9936   -116.35225     1.644054    -114.7082   -7199.0905    4.3330311    4.3330311    4.3330311   -7199.0905   -3468.3013   -3408.4972   -14720.473   -2074.3887    1169.4017    13778.943    81.353346 
   24800    1507.3666   -116.06953     1.363897   -114.70564    10976.295    4.3220346    4.3220346    4.3220346    10976.295    57626.554   -16437.968   -8259.7026   -4274.5463   -11166.857   -6660.8568    80.735534 
   24900    1127.6667   -115.72592    1.0203365   -114.70559    5038.9165    4.3048162    4.3048162    4.3048162    5038.9165    38235.138   -17063.953   -6054.4356   -10154.412    48752.445    -30650.17    79.774454 
   25000    1888.8605   -116.42028    1.7090807    -114.7112   -1067.6682    4.3191105    4.3191105    4.3191105   -1067.6682   -18191.817   -3130.1684    18118.981    826.93148    25106.912      3668.92    80.571778 
   25100    2157.5152   -116.64991    1.9521651   -114.69774   -4753.8048    4.3304609    4.3304609    4.3304609   -4753.8048    8453.6797   -32060.263    9345.1684     10436.81   -28668.969   -11466.756    81.208662 
   25200    1216.3923   -115.80398    1.1006173   -114.70336   -5785.9915     4.328893     4.328893     4.328893   -5785.9915    9361.9459   -15019.505   -11700.415   -2039.2264    12752.047   -23704.873    81.120486 
   25300    1333.3082   -115.90147    1.2064053   -114.69507     15620.26    4.3237133    4.3237133    4.3237133     15620.26    65354.449   -12956.519   -5537.1487   -2519.3355     28072.53    10512.072    80.829642 
   25400    1666.5568   -116.19716    1.5079356   -114.68923    13059.387    4.3229821    4.3229821    4.3229821    13059.387    95673.937   -41487.669   -15008.106    4300.1498   -21111.638   -8866.6564    80.788645 
   25500    1276.1725   -115.85434    1.1547077   -114.69963    -18582.08    4.3278379    4.3278379    4.3278379    -18582.08    25074.078   -46806.294   -34014.025    3242.1998     3606.086   -25974.164    81.061184 
   25600     1830.638   -116.35155    1.6563997   -114.69515   -20808.968    4.3221256    4.3221256    4.3221256   -20808.968    -23026.77   -12358.421   -27041.712   -3840.1788    34809.902    19645.251    80.740633 
   25700    1508.0388   -116.06141    1.3645052    -114.6969    6020.5516    4.3116811    4.3116811    4.3116811    6020.5516    34746.684   -25334.101    8649.0716       462.17    8719.0275   -30998.439    80.156714 
   25800    877.26198   -115.50871   0.79376507   -114.71494   -2646.2127     4.316508     4.316508     4.316508   -2646.2127    70433.821   -47787.195   -30585.264    9872.1691   -24263.832   -21117.726     80.42622 
   25900     1518.713   -116.08424    1.3741634   -114.71008    783.70298    4.3223096    4.3223096    4.3223096    783.70298    32135.797   -18971.402   -10813.287    10385.462    11638.798    35886.876    80.750946 
   26000    1854.6916   -116.37479     1.678164   -114.69662   -947.03016    4.3259327    4.3259327    4.3259327   -947.03016    26113.472    -27182.14   -1772.4225    2776.8396   -6582.8235   -23308.562     80.95418 
   26100    1132.6442   -115.73308    1.0248403   -114.70824   -8716.6863    4.3209534    4.3209534    4.3209534   -8716.6863    66352.036   -37205.496   -55296.599    14052.569    -8799.708   -33388.093     80.67496 
   26200     1143.839   -115.73912    1.0349696   -114.70415    15517.091    4.3132682    4.3132682    4.3132682    15517.091    49626.353    20571.265   -23646.347    18169.614   -18400.485    38349.346    80.245258 
   26300    1736.5318   -116.26998    1.5712505   -114.69873    4794.6611    4.3323311    4.3323311    4.3323311    4794.6611    -23939.06   -1528.2851    39851.329   -4249.2335   -11112.942   -3141.4274    81.313923 
   26400    1521.2744   -116.06201    1.3764811   -114.68553   -23778.021    4.3414638    4.3414638    4.3414638   -23778.021   -19748.293   -32361.651    -19224.12    -10407.92    8394.3102   -11878.995    81.829247 
   26500     819.5596   -115.42794   0.74155475   -114.68639    10761.878    4.3251851    4.3251851    4.3251851    10761.878    30668.072   -7119.1852    8736.7471    13833.217   -17869.818    45251.519    80.912219 
   26600    1599.1774   -116.13406    1.4469693   -114.68709    7199.1036    4.3134591    4.3134591    4.3134591    7199.1036   -9992.6557    4961.9845    26627.982   -1420.9891    5617.4087    12933.522    80.255918 
   26700    1401.2477    -115.9636    1.2678784   -114.69573    26357.353    4.3117868    4.3117868    4.3117868    26357.353    8849.5845    18041.055    52181.421   -4295.2378    12660.739    568.46992    80.162608 
   26800    1125.3987   -115.74075    1.0182844   -114.72246    19398.719     4.329243     4.329243     4.329243    19398.719    54027.935   -18037.291    22205.514    7976.0518   -8672.2414    38441.249    81.140164 
   26900    1602.7299   -116.14324    1.4501837   -114.69306    -1165.768    4.3431884    4.3431884    4.3431884    -1165.768    31118.623    -5778.532   -28837.395    17315.425   -18026.673   -5320.0524      81.9268 
   27000    1309.8044    -115.8719    1.1851385   -114.68676    17596.682    4.3167723    4.3167723    4.3167723    17596.682    2043.0193    24108.078    26638.948   -3982.6606    21565.653    3224.2794    80.440993 
   27100    716.85942   -115.34858   0.64862947   -114.69995    25681.115    4.3084607    4.3084607    4.3084607    25681.115     39928.64    -12302.75    49417.454   -7601.0205     11121.55    41270.566    79.977239 
   27200    1957.0492   -116.46394    1.7707793   -114.69316   -5542.6134    4.3342593    4.3342593    4.3342593   -5542.6134    16306.693   -19531.674   -13402.859    14548.718   -18166.872   -6360.9613    81.422546 
   27300    1541.5946   -116.08049    1.3948672   -114.68562    4230.0622    4.3399058    4.3399058    4.3399058    4230.0622   -21727.392   -3886.1905    38303.769   -5895.4567    14170.847    1821.8427    81.741182 
   27400    698.15716   -115.32122   0.63170727   -114.68951   -22610.421    4.3363115    4.3363115    4.3363115   -22610.421   -28046.057   -22714.667   -17070.541   -18009.404    15752.722    32021.428    81.538255 
   27500    2082.6907    -116.5645    1.8844623   -114.68004   -10938.094     4.313023     4.313023     4.313023   -10938.094   -20303.642   -5467.8328   -7042.8085    7721.0071   -5020.4103   -538.38545    80.231576 
   27600    1863.8227   -116.37639     1.686426   -114.68996    37742.661    4.2927735    4.2927735    4.2927735    37742.661    51591.973    35852.907    25783.103   -1368.3858   -18949.522   -2477.8353    79.106819 
   27700    1081.4669   -115.71839     0.978534   -114.73985   -17868.157    4.3188939    4.3188939    4.3188939   -17868.157    10154.568   -46052.057   -17706.981   -32101.586    12790.235     38995.88    80.559657 
   27800     1281.556   -115.87935    1.1595788   -114.71977    -27941.27    4.3447552    4.3447552    4.3447552    -27941.27    3765.1417   -49330.779   -38258.174    1169.5995    7160.7982     8079.504      82.0155 
   27900    2161.5531    -116.6477    1.9558187   -114.69188   -10550.292    4.3240703    4.3240703    4.3240703   -10550.292   -18054.157    18796.597   -32393.315    12691.898    -29974.47   -22064.151     80.84967 
   28000    1123.6347   -115.70682    1.0166883   -114.69013    22249.117    4.2995964    4.2995964    4.2995964    22249.117    88859.972   -3661.0463   -18451.574   -14519.036    -4343.493    46471.239    79.484613 
   28100    1368.1069   -115.94819    1.2378919    -114.7103   -19226.598    4.3102213    4.3102213    4.3102213   -19226.598   -7211.9266   -25323.706   -25144.161   -23963.755    28539.857    31586.255    80.075325 
   28200    2039.2356   -116.55226    1.8451433   -114.70711    3663.5827    4.3214733    4.3214733    4.3214733    3663.5827    -1632.722    4380.1555    8243.3146   -3409.4377    6839.9999   -14318.372     80.70408 
   28300    1456.5801   -116.02901    1.3179442   -114.71107    7359.9681    4.3323308    4.3323308    4.3323308    7359.9681    49699.176     6144.899    -33764.17    5087.4934   -14139.181     26350.72    81.313905 
   28400    1132.5405   -115.72784    1.0247464   -114.70309   -38305.912    4.3311768    4.3311768    4.3311768   -38305.912   -28741.227   -61445.225   -24731.285   -32319.612    10330.885    31313.754    81.248947 
   28500    1682.4848   -116.21227    1.5223476   -114.68993    20315.502    4.3080542    4.3080542    4.3080542    20315.502   -11276.844    5342.2875    66881.062   -22346.717     8340.794   -10921.361    79.954603 
   28600    1927.5556   -116.44255    1.7440929   -114.69846    7674.4599    4.3124058    4.3124058    4.3124058    7674.4599    44887.028   -8325.8136   -13537.834    13054.675   -2671.5717    34773.078    80.197138 
   28700    1398.7787   -115.97882    1.2656444   -114.71317   -2940.7071     4.320915     4.320915     4.320915   -2940.7071    47293.632   -57514.368    1398.6143   -6912.5134   -12090.285    35985.915    80.672806 
   28800     1041.099   -115.65629   0.94200825   -114.71428    25457.972    4.3189287    4.3189287    4.3189287    25457.972    42422.828   -18034.704    51985.792   -36724.339   -2285.4108   -5384.7287    80.561606 
   28900    1404.5624   -115.97768    1.2708776    -114.7068    -3597.347    4.3326846    4.3326846    4.3326846    -3597.347    33316.365   -34896.273   -9212.1327    10187.187    6008.2482    6148.1537    81.333828 
   29000    1643.9419   -116.18276    1.4874732   -114.69528    3010.7328    4.3201907    4.3201907    4.3201907    3010.7328    67566.867   -59110.237    575.56847   -802.88627   -6492.2806    29996.322    80.632246 
   29100    1385.2732   -115.94851    1.2534243   -114.69509    18298.723    4.3046517    4.3046517    4.3046517    18298.723   -9563.7279   -17453.101    81912.997   -40931.975   -8868.8816    3424.1412    79.765307 
   29200    1368.3498   -115.94587    1.2381117   -114.70776   -11327.106    4.3213192    4.3213192    4.3213192   -11327.106   -43576.319   -13871.923    23466.925    5433.8634    14687.122   -7084.0132     80.69545 
   29300    1657.3175   -116.19976    1.4995757   -114.70018    3360.5113    4.3215038    4.3215038    4.3215038    3360.5113    25491.636   -11718.241   -3691.8608    10835.976    11060.958    13669.723    80.705789 
   29400    963.41867   -115.57891   0.87172146   -114.70718    1312.7058    4.3215182    4.3215182    4.3215182    1312.7058   -24655.108    743.57144    27849.654   -39810.822   -16529.727     9904.821    80.706597 
   29500     1439.197   -116.00288    1.3022157   -114.70067   -25723.705    4.3241102    4.3241102    4.3241102   -25723.705   -39248.824   -37984.018    61.728534   -14194.427    8421.1606    5925.4462    80.851905 
   29600    1951.4248   -116.45218    1.7656902   -114.68649    31208.987    4.3066634    4.3066634    4.3066634    31208.987    50352.183    39074.727    4200.0504    21541.199    14397.458   -2690.6964    79.877189 
   29700     1035.361   -115.65264   0.93681644   -114.71582    251.56928    4.3143749    4.3143749    4.3143749    251.56928   -23956.877    6851.9063    17859.679   -44119.309   -12742.279    72.628506    80.307043 
   29800    1140.1438   -115.74874    1.0316261   -114.71712   -31894.917    4.3281241    4.3281241    4.3281241   -31894.917   -15561.444   -48668.779   -31454.528   -33166.288   -32230.868    8225.6715    81.077267 
   29900    2224.9565   -116.70434    2.0131874   -114.69115    14161.491    4.3250703    4.3250703    4.3250703    14161.491    28576.496    6144.4637    7763.5142      26957.8    945.37787   -4554.9428    80.905773 
   30000    1664.5962    -116.2026    1.5061616   -114.69644   -30222.214    4.3297103    4.3297103    4.3297103   -30222.214   -35231.597   -48393.819   -7041.2254   -31085.508    4441.2371   -11348.148    81.166445 
   30100    805.90275   -115.43739   0.72919774   -114.70819   -20821.359    4.3139889    4.3139889    4.3139889   -20821.359   -6359.3804   -19340.117   -36764.579   -35922.715    -29579.08    16518.318    80.285491 
   30200    1974.8365   -116.48435    1.7868736   -114.69748    18392.687    4.3090808    4.3090808    4.3090808    18392.687     22810.55    43597.263   -11229.751    8859.2901   -11776.538     26604.52    80.011777 
   30300    1937.9793   -116.45058    1.7535244   -114.69706   -18822.546    4.3357869    4.3357869    4.3357869   -18822.546   -39446.301   -11476.924    -5544.413   -21225.939     3364.188   -14613.429    81.508666 
   30400     1034.261   -115.64193    0.9358211   -114.70611   -10667.033    4.3241763    4.3241763    4.3241763   -10667.033   -3595.0145   -785.87176   -27620.214   -44823.805   -17145.852   -3029.5978    80.855613 
   30500    1168.9035   -115.75233    1.0576485   -114.69468    23853.352    4.3017599    4.3017599    4.3017599    23853.352    37766.138    64241.582   -30447.665    5761.8468   -10548.754    31529.381    79.604663 
   30600    1761.6264   -116.29348    1.5939566   -114.69952   -2123.6115     4.314389     4.314389     4.314389   -2123.6115    8124.9288   -8805.2308   -5690.5327    21408.724    6782.5253   -4762.5087     80.30783 
   30700    1245.4817   -115.83357     1.126938   -114.70663     22554.07    4.3210383    4.3210383    4.3210383     22554.07    41658.796    17797.822    8205.5918   -34056.111     4537.675   -9780.7072    80.679712 
   30800     1423.157    -115.9932    1.2877024    -114.7055    -5824.647    4.3302538    4.3302538    4.3302538    -5824.647    23608.361   -29238.804   -11843.498   -25357.017   -10488.733    26489.101    81.197014 
   30900    1552.1157     -116.108    1.4043869   -114.70362    516.62932    4.3164687    4.3164687    4.3164687    516.62932    40845.932   -30562.463   -8733.5808    20683.577      11216.9    10580.055    80.424021 
   31000    1178.5556   -115.76869    1.0663819   -114.70231    20988.504    4.2947541    4.2947541    4.2947541    20988.504    37693.248   -18986.256     44258.52   -20.448677    13899.694   -8414.4731    79.216367 
   31100    994.49257   -115.62326   0.89983777   -114.72342    3536.4863    4.3189736    4.3189736    4.3189736    3536.4863   -10189.152   -31781.674    52580.285   -36156.926   -11134.058    11127.092    80.564117 
   31200    1815.7828    -116.3385    1.6429584   -114.69554   -15194.606    4.3313778    4.3313778    4.3313778   -15194.606    24031.713   -23821.923   -45793.609    1509.4672   -5293.3221     17493.07    81.260259 
   31300    1446.8327   -116.00586    1.3091247   -114.69674   -11907.499    4.3182135    4.3182135    4.3182135   -11907.499   -14946.743   -20740.894    -34.86147    13890.219    7384.7828    -3618.419     80.52159 
   31400    978.73511   -115.58696   0.88558009   -114.70138    279.77442    4.3131323    4.3131323    4.3131323    279.77442   -6535.7986   -43667.398     51042.52   -22080.751    6724.0117    1601.3926    80.237675 
   31500     1475.022   -116.03145    1.3346309   -114.69682     3953.976    4.3227152    4.3227152    4.3227152     3953.976    43009.268   -3752.9041   -27394.436   -3201.9303   -16903.522    22034.916    80.773682 
   31600    1418.3453   -115.97974    1.2833487   -114.69639    -3228.867    4.3240084    4.3240084    4.3240084    -3228.867      32220.9   -4916.4527   -36991.049    17209.315   -18618.211   -4285.4159    80.846197 
   31700    1078.3458   -115.67464   0.97570995   -114.69893    6105.3721    4.3168836    4.3168836    4.3168836    6105.3721    10743.699   -41242.864    48815.282    6360.8857    3953.5788   -18236.144    80.447215 
   31800    1589.7636   -116.13488    1.4384515   -114.69643    1747.8893    4.3264642    4.3264642    4.3264642    1747.8893    31237.486   -14542.641   -11451.177   -9051.8152   -3279.6792    6047.2315    80.984022 
   31900    1695.3762   -116.23155     1.534012   -114.69754    -20704.85    4.3268651    4.3268651    4.3268651    -20704.85   -14927.593    12345.093   -59532.049   -1642.6492   -50597.694    2659.5838    81.006536 
   32000    1154.8799   -115.74007    1.0449596   -114.69511    27351.943    4.3022008    4.3022008    4.3022008    27351.943    56345.784   -409.64415    26119.688   -2803.1287   -15220.386    -7154.762    79.629143 
   32100    1087.1517   -115.70632   0.98367767   -114.72264   -751.00451    4.3171354    4.3171354    4.3171354   -751.00451    231.39146   -33574.005      31089.6   -15855.198    17296.448   -8671.0457    80.461291 
   32200    1687.3549   -116.22369    1.5267541   -114.69693   -19086.617    4.3364171    4.3364171    4.3364171   -19086.617   -10963.173   -4760.0779   -41536.599   -2624.9679   -26411.863    1199.0878    81.544212 
   32300    1829.7451   -116.33763    1.6555918   -114.68204    12443.332    4.3150899    4.3150899    4.3150899    12443.332    22792.298    33075.157   -18537.461    1638.4389   -25854.493    9630.1549    80.346979 
   32400    1026.7876   -115.63135   0.92905903   -114.70229   -12665.861    4.3151659    4.3151659    4.3151659   -12665.861   -35678.838   -16938.539    14619.795    10553.455    14375.258   -6222.1023    80.351223 
   32500    1453.0312   -116.02385    1.3147331   -114.70912   -5041.8371    4.3210718    4.3210718    4.3210718   -5041.8371    22591.208    -18080.18   -19636.539    7087.0648    1100.6461    3587.2669    80.681592 
   32600    2169.9104   -116.66686    1.9633805   -114.70348    16105.463    4.3177866    4.3177866    4.3177866    16105.463    91253.356   -22833.755   -20103.213    2790.9695   -8514.8608    21170.443    80.497712 
   32700    1536.5346   -116.10551    1.3902888   -114.71522   -5297.8255    4.3275891    4.3275891    4.3275891   -5297.8255    9292.2825   -43279.579     18093.82    18184.628     6800.804    3895.5334     81.04721 
   32800    1389.3947   -115.96058    1.2571535   -114.70343   -24046.835    4.3296347    4.3296347    4.3296347   -24046.835   -38372.138   -48921.227     15152.86    2457.0147    11771.206    3641.6348    81.162191 
   32900    1818.9614   -116.34009    1.6458345   -114.69426    1703.3392    4.3130321    4.3130321    4.3130321    1703.3392    27028.804   -33054.297    11135.511    -18477.41   -11896.925    39459.184    80.232085 
   33000    1905.8347   -116.42611    1.7244393   -114.70167    17182.015    4.3077359    4.3077359    4.3077359    17182.015    41694.435   -8347.5201    18199.129    10411.142   -20062.932      18496.3    79.936884 
   33100    2044.4386   -116.56038     1.849851   -114.71053    11180.275    4.3136424    4.3136424    4.3136424    11180.275    22405.637   -15142.603    26277.791    275.66223    22767.979   -16279.721    80.266149 
   33200    1371.1127   -115.96074    1.2406116   -114.72013    2872.6003    4.3246436    4.3246436    4.3246436    2872.6003    27543.686   -28564.946    9639.0607   -3771.0369    8096.9521    25286.468    80.881829 
   33300     1225.962    -115.8277    1.1092762   -114.71842   -25046.323    4.3284173    4.3284173    4.3284173   -25046.323    1369.3271   -35398.875   -41109.421    -12221.56   -44158.916    41838.808    81.093749 
   33400    2090.4551   -116.59291    1.8914877   -114.70142    21395.287    4.3091458    4.3091458    4.3091458    21395.287    26968.572    32542.884    4674.4052   -94.747237   -11309.774   -6867.2122    80.015395 
   33500    2122.2489   -116.62628    1.9202554   -114.70602    3544.0719    4.3097825    4.3097825    4.3097825    3544.0719    26968.707   -12950.848   -3385.6425     4722.912    33732.524    13144.202    80.050869 
   33600    472.16578   -115.15521   0.42722552   -114.72798   -24404.944    4.3279676    4.3279676    4.3279676   -24404.944   -1080.4826   -15893.482   -56240.869   -17597.169   -28583.225    34912.732    81.068474 
   33700    1516.4662   -116.08669    1.3721305   -114.71456   -19104.292    4.3214436    4.3214436    4.3214436   -19104.292   -6098.4499   -19717.399   -31497.027    12027.224   -38751.103    15044.168    80.702418 
   33800    2229.9995   -116.72106    2.0177504   -114.70331    20514.737    4.3161816    4.3161816    4.3161816    20514.737    27870.799   -3436.5669    37109.978    10060.804    10473.039   -14299.086    80.407973 
   33900    1709.1409   -116.26942    1.5464666   -114.72296    3513.5611    4.3117516    4.3117516    4.3117516    3513.5611    19835.255    1056.9165   -10351.488   -11221.066   -28435.467     9933.238    80.160644 
   34000    880.46009   -115.53285   0.79665879   -114.73619    13306.605     4.310557     4.310557     4.310557    13306.605    28045.057   -2713.4207    14588.179   -5506.3096   -39883.382    31620.179    80.094035 
   34100    1811.7545   -116.36052    1.6393136    -114.7212   -16882.986    4.3315462    4.3315462    4.3315462   -16882.986   -16425.169   -54544.318    20320.531    4027.5083    3018.9812   -7473.3862    81.269735 
   34200    2063.9513   -116.57019    1.8675065   -114.70268    498.63066    4.3229965    4.3229965    4.3229965    498.63066    601.27528     6547.865   -5653.2483    15194.289   -133.69539    3846.3052     80.78945 
   34300    1673.5237   -116.21227    1.5142394   -114.69803    448.64841    4.3069499    4.3069499    4.3069499    448.64841    8703.5134      4863.35   -12220.918   -15634.181   -34259.244     16179.36    79.893132 
   34400    1469.2897   -116.03549    1.3294442   -114.70604   -12320.797    4.3155827    4.3155827    4.3155827   -12320.797   -31011.427   -28870.628    22919.664    -847.1017   -8343.4771    12692.582     80.37451 
   34500    1571.7762   -116.12662    1.4221762   -114.70444   -12450.683    4.3165994    4.3165994    4.3165994   -12450.683   -28405.068   -29514.686    20567.706      25351.9    22535.647   -5695.2126     80.43133 
   34600    1926.5244   -116.44869    1.7431597   -114.70553   -17706.479     4.323594     4.323594     4.323594   -17706.479    530.34553   -11430.911   -42218.872    10994.568   -4350.7588   -3136.8104    80.822955 
   34700    1772.7468   -116.30186    1.6040186   -114.69784   -15124.652    4.3321168    4.3321168    4.3321168   -15124.652    2035.9105   -44060.751   -3349.1152     -14915.1    -10079.56    16855.777    81.301858 
   34800    813.85184    -115.4293   0.73639025   -114.69291    6012.5947    4.3264658    4.3264658    4.3264658    6012.5947    26636.641   -42970.726    34371.869    9002.3079    15491.427    -8445.165     80.98411 
   34900    1441.6867   -115.99301    1.3044684   -114.68854    2721.9357    4.3274335    4.3274335    4.3274335    2721.9357    36616.042   -27491.174   -959.06079    3353.7051     27442.22   -12829.529    81.038468 
   35000    2266.9812   -116.73211    2.0512122    -114.6809    4723.3681    4.3282433    4.3282433    4.3282433    4723.3681    18968.069   -8816.2421    4018.2778    1802.7709   -598.05832   -98.802232    81.083971 
   35100    1259.9289   -115.84928    1.1400101   -114.70927   -2139.0677    4.3191092    4.3191092    4.3191092   -2139.0677   -41038.516   -33831.345    68452.658    28844.682   -7693.7474   -8246.0776    80.571704 
   35200    793.96034   -115.43179     0.718392    -114.7134   -2682.4052    4.3102603    4.3102603    4.3102603   -2682.4052   -50372.215   -8657.7786    50982.778   -45.121596    24294.018   -18894.465    80.077496 
   35300    1497.8806   -116.07106    1.3553138   -114.71575    -16590.44    4.3246602    4.3246602    4.3246602    -16590.44   -2427.1591   -19407.811    -27936.35   -17465.365   -10293.561    6955.0182    80.882761 
   35400    1754.6528   -116.29266    1.5876467   -114.70501    2261.7499    4.3250728    4.3250728    4.3250728    2261.7499    5310.1558    1268.6224    206.47144    16500.045   -35511.301    9240.3122    80.905912 
   35500    1633.2877   -116.17988    1.4778331   -114.70204    27589.568    4.3068949    4.3068949    4.3068949    27589.568    30267.372    33453.728    19047.605   -7870.8492     29555.69   -15179.779    79.890075 
   35600      1107.35   -115.72118    1.0019536   -114.71923   -22976.086    4.3190487    4.3190487    4.3190487   -22976.086   -9889.9511   -21057.686   -37980.621   -14872.663    21923.578   -7476.0366    80.568319 
   35700    1357.8565   -115.93832    1.2286171    -114.7097   -23691.964    4.3315662    4.3315662    4.3315662   -23691.964   -11711.957   -2324.6145    -57039.32    2338.3276   -33691.966    23602.178    81.270865 
   35800    2118.8996   -116.61833    1.9172249   -114.70111    8725.5521    4.3123949    4.3123949    4.3123949    8725.5521     51135.05   -1368.5813   -23589.812   -3962.9171    -11557.75   -1504.8796     80.19653 
   35900    1885.7906   -116.41619     1.706303   -114.70989     9775.409    4.3021875    4.3021875    4.3021875     9775.409    33302.115    10781.446   -14757.334    -4799.828    21284.968   -14838.655    79.628401 
   36000    1179.4412   -115.79487    1.0671832   -114.72768   -14576.572    4.3155918    4.3155918    4.3155918   -14576.572    5898.4625   -19400.591   -30227.587   -19604.037   -16324.043    19820.074    80.375018 
   36100    995.73825   -115.62494   0.90096489   -114.72398    236.40757    4.3295607    4.3295607    4.3295607    236.40757    22015.208   -21018.621   -287.36489    11158.428   -22180.324    4581.3139    81.158033 
   36200    2101.5326   -116.58995    1.9015108   -114.68844   -19116.301    4.3382078    4.3382078    4.3382078   -19116.301    6407.9791    -40418.57   -23338.313    9171.9694    26798.676   -12583.744    81.645274 
   36300    1530.0962   -116.06803    1.3844632   -114.68357   -23429.102    4.3288012    4.3288012    4.3288012   -23429.102    9001.3463   -33252.883   -46035.769   -2954.6973     -16298.8    25617.015    81.115327 
   36400    817.28583   -115.42959   0.73949739   -114.69009    13986.968     4.306505     4.306505     4.306505    13986.968    28844.045   -2302.8423    15419.701    9116.0694   -28539.924     18550.49    79.868377 
   36500    1527.3147   -116.08795    1.3819464     -114.706    11022.633    4.3035263    4.3035263    4.3035263    11022.633    6771.8364   -20748.345    47044.408   -4167.0063    3720.8146   -5238.4506    79.702763 
   36600    1843.8166   -116.38617     1.668324   -114.71784   -14052.166    4.3196296    4.3196296    4.3196296   -14052.166     12190.28   -24994.804   -29351.975   -13811.617    12653.613    9186.5125    80.600832 
   36700    1500.5882   -116.07582    1.3577637   -114.71806    -25682.86     4.325437     4.325437     4.325437    -25682.86    2498.5019   -13976.755   -65570.326    5833.3942   -926.96503    22481.223    80.926352 
   36800    830.33848   -115.46926   0.75130771   -114.71795    1484.6221    4.3147395    4.3147395    4.3147395    1484.6221    10451.369   -25961.753    19964.251    9654.9203   -22254.978    -9510.775    80.327406 
   36900    1313.6925   -115.90593    1.1886565   -114.71727   -17905.239    4.3118244    4.3118244    4.3118244   -17905.239   -2172.3234   -55615.749    4072.3541   -18187.936    13069.237   -24789.309    80.164706 
   37000    1839.3109   -116.37723    1.6642472   -114.71298   -12684.242     4.320279     4.320279     4.320279   -12684.242   -4167.1209    14188.039   -48073.643   -4569.1216    23464.674    7132.6897    80.637191 
   37100    1774.7322   -116.31198     1.605815   -114.70616   -1807.2145     4.319316     4.319316     4.319316   -1807.2145    18657.544   -5873.2016   -18205.986    25119.555   -16752.236   -2580.7666    80.583277 
   37200    1058.5744   -115.67408   0.95782035   -114.71626    14814.329    4.3082059    4.3082059    4.3082059    14814.329    17472.536   -19246.379    46216.828   -6660.7231   -8533.3044    -21373.81    79.963053 
   37300    1336.7788   -115.92783    1.2095455   -114.71828   -14171.377    4.3166486    4.3166486    4.3166486   -14171.377    12598.976   -26109.799   -29003.307   -16934.942    24554.472   -12280.623    80.434076 
   37400    1555.2729   -116.11905    1.4072436   -114.71181   -1038.9218    4.3251473    4.3251473    4.3251473   -1038.9218    30945.849    7092.0794   -41154.694    10105.502     20373.31    11519.936    80.910096 
   37500    1854.1725   -116.38274    1.6776942   -114.70504    11062.735    4.3161638    4.3161638    4.3161638    11062.735   -385.25838    1000.2786    32573.183    12176.533   -13756.742    14658.123    80.406981 
   37600    1286.0162   -115.87991    1.1636145    -114.7163     15974.95    4.3112232    4.3112232    4.3112232     15974.95    23804.079   -11208.969    35329.739    3459.5244    730.56448   -10819.662    80.131175 
   37700    1083.4989   -115.70317   0.98037257    -114.7228   -14252.848    4.3220747    4.3220747    4.3220747   -14252.848    8881.2875   -23370.641   -28269.192   -9231.7723    40667.966    15214.866    80.737782 
   37800    1983.3498   -116.49717    1.7945766   -114.70259   -750.28901    4.3333597    4.3333597    4.3333597   -750.28901    19557.621   -22588.854    780.36624    11876.967    3333.2571    8524.1012    81.371858 
   37900    1645.9117   -116.17249    1.4892555   -114.68324   -5783.8542     4.339908     4.339908     4.339908   -5783.8542    8495.7507   -8479.5908   -17367.723   -918.76861     7382.745    3295.9149    81.741306 
   38000    491.00116   -115.13326   0.44426817   -114.68899   -34225.553    4.3344784    4.3344784    4.3344784   -34225.553   -30088.787   -36886.653    -35701.22   -18367.879    27359.848    28921.357    81.434892 
   38100    1550.7423    -116.0846    1.4031442   -114.68145      -2184.5    4.3067562    4.3067562    4.3067562      -2184.5    5686.7795   -30402.422    18162.143     19362.49   -10415.581    217.70491    79.882355 
   38200     1666.027   -116.20147    1.5074563   -114.69401     31432.75    4.3025757    4.3025757    4.3025757     31432.75    35321.397    9778.5225     49198.33    21727.439    7432.5791    -3936.136    79.649959 
   38300    1617.6273   -116.17616    1.4636632    -114.7125   -6597.0729    4.3240209    4.3240209    4.3240209   -6597.0729    12147.656   -9602.8632   -22336.012   -14765.962    28051.662    6337.2505    80.846897 
   38400    1285.9296   -115.88078    1.1635361   -114.71725   -3928.3331    4.3235673    4.3235673    4.3235673   -3928.3331   -8856.9485   -17244.654    14316.603    2264.5592   -2075.2168    4866.2794    80.821454 
   38500    997.21721   -115.62079   0.90230309   -114.71849    10313.211    4.3089662    4.3089662    4.3089662    10313.211   -3889.4744   -13352.173    48181.279    20087.851   -12904.631    2338.2619    80.005394 
   38600    1766.7403   -116.31517    1.5985838   -114.71659    4309.6015    4.3121752    4.3121752    4.3121752    4309.6015    19540.117   -21611.689    15000.377   -4232.8486    20199.078   -24151.517    80.184273 
   38700    1925.0015   -116.45299    1.7417818   -114.71121   -5106.9739     4.328065     4.328065     4.328065   -5106.9739   -7316.8029   -12489.368    4485.2487    8655.3008    17136.774   -5990.0817    81.073948 
   38800    1043.2193   -115.65365   0.94392677   -114.70972   -20502.145    4.3335444    4.3335444    4.3335444   -20502.145   -54534.496   -44131.454    37159.517    27496.767   -22632.816    5034.9685    81.382258 
   38900    1414.4891   -115.97794    1.2798595   -114.69808   -1168.5451    4.3160155    4.3160155    4.3160155   -1168.5451    8098.2229   -40855.494    29251.636   -16210.634    10923.043    -15443.13    80.398693 
   39000    1776.2366   -116.30414    1.6071762   -114.69697    15193.351    4.3095992    4.3095992    4.3095992    15193.351    46884.308   -14663.276     13359.02   -5625.5447    1970.1012   -12527.197    80.040658 
   39100    1700.7247   -116.24909    1.5388514   -114.71023   -4654.1297    4.3142664    4.3142664    4.3142664   -4654.1297   -6778.8819   -15947.972     8764.465    23772.029    -14314.52   -732.53017    80.300986 
   39200     1378.588   -115.96784    1.2473754   -114.72047    1522.3264    4.3147456    4.3147456    4.3147456    1522.3264   -9293.2291   -26715.142    40575.351   -10754.004   -11303.284    8279.0769    80.327746 
   39300    1395.5438   -115.98294    1.2627173   -114.72022    4926.4523    4.3203842    4.3203842    4.3203842    4926.4523    32591.569   -22638.176    4825.9638    -17125.06    3803.4387   -19155.805    80.643081 
   39400     1683.347   -116.23644    1.5231277   -114.71331   -1580.4366    4.3169037    4.3169037    4.3169037   -1580.4366     14880.06   -17452.938   -2168.4314    4084.6782    24446.025   -1983.8841    80.448339 
   39500    903.56648    -115.5365   0.81756594   -114.71893    1757.3717    4.3081866    4.3081866    4.3081866    1757.3717    -3948.472   -16396.095    25616.682   -10658.544   -12444.726    21090.409    79.961974 
   39600    1437.3731   -116.02176    1.3005654   -114.72119   -5671.0791     4.316878     4.316878     4.316878   -5671.0791   -10855.744   -16045.216    9887.7233   -21830.565   -25384.583   -6983.7613    80.446901 
   39700    1985.0155   -116.49792    1.7960837   -114.70184    10628.865    4.3253605    4.3253605    4.3253605    10628.865   -10720.004    11425.922    31180.675    4152.6192    25515.578   -4113.7143    80.922059 
   39800    1240.3589   -115.83442    1.1223028   -114.71212   -34250.042    4.3208169    4.3208169    4.3208169   -34250.042   -52392.307   -16339.796   -34018.023    2011.3826    9985.2722    16285.966    80.667312 
   39900    652.53792   -115.30689   0.59043002   -114.71646   -22115.747    4.3098653    4.3098653    4.3098653   -22115.747   -23969.003   -1984.6448   -40393.594   -22290.573   -33863.938    10722.589    80.055486 
   40000    1870.7279   -116.39982    1.6926739   -114.70714   -6710.5243    4.3056205    4.3056205    4.3056205   -6710.5243    15480.779   -28175.095   -7437.2566   -2580.7962   -1191.1329   -11704.153    79.819177 
   40100     1700.077   -116.25145    1.5382654   -114.71319    2668.3959    4.3177536    4.3177536    4.3177536    2668.3959   -24931.735    8463.3219    24473.601    3510.7056    16833.278   -16026.816    80.495866 
   40200    1464.3407   -116.03948    1.3249662   -114.71452   -17131.276    4.3213984    4.3213984    4.3213984   -17131.276   -59649.214   -3273.5557    11528.942   -29432.541   -37174.479    12398.386    80.699884 
   40300     1181.055   -115.78333    1.0686434   -114.71469     1293.297    4.3167229    4.3167229    4.3167229     1293.297    17493.538   -18419.573    4805.9261   -6469.5421   -19919.843   -3327.6749     80.43823 
   40400    1825.3583   -116.35537    1.6516226   -114.70375   -2466.6861    4.3177126    4.3177126    4.3177126   -2466.6861    46303.549   -43644.658    -10058.95    6121.0883    11316.304   -35028.476    80.493569 
   40500    1941.4339   -116.45452    1.7566501   -114.69787   -3148.5684    4.3184737    4.3184737    4.3184737   -3148.5684   -26928.251    506.91219    16975.634   -21435.549   -22953.641    1504.9219    80.536143 
   40600    1477.7653   -116.03977    1.3371131   -114.70266    1312.4674    4.3192243    4.3192243    4.3192243    1312.4674   -8386.2833   -16093.243    28416.928   -16373.147   -10198.931   -17649.228    80.578144 
   40700    1400.2176   -115.97587    1.2669463   -114.70893   -3740.5894    4.3178689    4.3178689    4.3178689   -3740.5894    45650.233   -37069.997   -19802.004   -1869.1424   -834.35056   -34840.653    80.502315 
   40800    1784.8767   -116.32719    1.6149939    -114.7122    9456.3717    4.3082035    4.3082035    4.3082035    9456.3717    24565.848   -12637.084    16440.352   -6073.4288    4633.1727    23877.416    79.962919 
   40900    1865.0441   -116.39928    1.6875311   -114.71175    31317.686     4.308466     4.308466     4.308466    31317.686    20925.773    18897.768    54129.515   -22355.912     1657.741    3703.2779    79.977535 
   41000    1626.6765   -116.19322    1.4718511   -114.72136   -22962.224    4.3295005    4.3295005    4.3295005   -22962.224    7969.0579   -50711.988   -26143.742     11892.46   -10157.524     -47739.2    81.154643 
   41100    1164.3742   -115.76921    1.0535502   -114.71566   -9027.8462    4.3232309    4.3232309    4.3232309   -9027.8462    15327.504   -23043.726   -19367.316    11001.854    5919.3358    22937.692    80.802591 
   41200    1800.9873   -116.32979    1.6295712   -114.70021    13735.128    4.3031866    4.3031866    4.3031866    13735.128    23955.905   -5468.8974    22718.375   -15613.434      15013.7    41337.863    79.683889 
   41300    1792.2352   -116.32667    1.6216521   -114.70502    9398.9015    4.3115531    4.3115531    4.3115531    9398.9015    18992.501   -4890.8455    14095.049    2913.3974    8975.3838   -37542.021    80.149571 
   41400    1426.3988   -116.00442    1.2906356   -114.71378   -27673.263    4.3268981    4.3268981    4.3268981   -27673.263    8290.7062   -77266.503   -14043.991    2202.9166   -4730.7926    24658.337    81.008389 
   41500    1096.9958   -115.70255   0.99258481   -114.70996    702.14731    4.3257038    4.3257038    4.3257038    702.14731    14331.384   -11692.376   -532.56689    4001.9914    966.88322    42571.997    80.941332 
   41600    1934.5272    -116.4489    1.7504008    -114.6985    4854.9932    4.3110058    4.3110058    4.3110058    4854.9932   -3092.7833    12641.606    5016.1571   -796.45218    37209.079   -9025.5829    80.119057 
   41700    1547.2715   -116.11191    1.4000038    -114.7119    3050.1632    4.3060609    4.3060609    4.3060609    3050.1632    4850.7395   -10583.979    14883.729    9641.1402    11721.247     18668.23    79.843671 
   41800    1381.2555   -115.97361     1.249789   -114.72382   -13468.244    4.3157547    4.3157547    4.3157547   -13468.244    5919.9986   -57864.812     11540.08    11710.112   -11050.189    30208.466     80.38412 
   41900    969.15375   -115.60147   0.87691068   -114.72456    1583.0175    4.3201202    4.3201202    4.3201202    1583.0175   -34168.224    37605.038    1312.2388    -10256.23    40468.984   -4628.5713    80.628299 
   42000    1557.4993   -116.12829    1.4092581   -114.71903   -5301.0587    4.3131806    4.3131806    4.3131806   -5301.0587   -40646.266    19535.368    5207.7227    4339.6713    10618.553   -12807.881    80.240372 
   42100    1755.1083   -116.30062    1.5880588   -114.71256    1493.5967    4.3154265    4.3154265    4.3154265    1493.5967   -24323.653    12239.366    16565.077   -4577.9039   -32296.644    30185.347    80.365779 
   42200    1630.8666   -116.18909    1.4756423   -114.71345   -14506.715      4.31827      4.31827      4.31827   -14506.715   -34986.491   -12356.879    3823.2253    11394.473    30852.571    7740.4251    80.524748 
   42300    865.41968   -115.50878   0.78304991   -114.72573    2089.7147    4.3129132    4.3129132    4.3129132    2089.7147   -37655.124    60791.763   -16867.495   -2861.0803    9568.7496   -24788.946    80.225448 
   42400    1390.1934   -115.98328    1.2578762   -114.72541   -8321.9328    4.3162429    4.3162429    4.3162429   -8321.9328   -48612.118    23947.383   -301.06285    -5608.832   -49917.277    13196.533    80.411404 
   42500     1949.841   -116.47594    1.7642571   -114.71168     6883.405    4.3153618    4.3153618    4.3153618     6883.405   -32527.976    -8136.466    61314.657    16957.761   -4152.6688    3723.5772    80.362165 
   42600    1581.8447    -116.1496    1.4312863   -114.71831    11030.195    4.3156605    4.3156605    4.3156605    11030.195   -29641.542    24807.694    37924.431    3805.0107     17017.85    -6099.538    80.378853 
   42700    1340.4073   -115.93185    1.2128287   -114.71902   -19704.874    4.3244666    4.3244666    4.3244666   -19704.874   -49921.569     22317.29   -31510.343   -2992.3121    -21812.85   -18021.529    80.871897 
   42800    1196.3617   -115.79692    1.0824932   -114.71443   -4445.9929     4.320933     4.320933     4.320933   -4445.9929   -18608.223   -7041.1805    12311.425    21784.169   -17332.553   -308.24046    80.673813 
   42900    1673.0358   -116.21969     1.513798    -114.7059   -624.05886    4.3204259    4.3204259    4.3204259   -624.05886    4775.8881   -45136.953    38488.888    21599.322    5628.2946     26426.75    80.645414 
   43000     1949.313   -116.46927    1.7637794   -114.70549   -10771.458    4.3204748    4.3204748    4.3204748   -10771.458   -31888.021    3108.7293   -3535.0808    -7350.488   -18970.682   -5431.2811    80.648156 
   43100    1590.9942   -116.15448     1.439565   -114.71491    15418.209    4.3058682    4.3058682    4.3058682    15418.209   -23032.961    35973.304    33314.283   -5879.5794   -22862.032    102.63611    79.832956 
   43200    1581.9356   -116.15724    1.4313686   -114.72587    4887.2972    4.3071483    4.3071483    4.3071483    4887.2972    13163.388   -30498.994    31997.498    35888.888    2268.0833    17463.571    79.904173 
   43300    1326.2241    -115.9299    1.1999954    -114.7299   -13245.332    4.3292463    4.3292463    4.3292463   -13245.332    -25224.66   -11949.556   -2561.7813    15145.246   -6802.0987   -5846.5482    81.140353 
   43400     1414.957   -116.00064    1.2802828   -114.72036    13550.193    4.3201992    4.3201992    4.3201992    13550.193   -31014.557    48650.315     23014.82   -25779.647   -28157.391   -7614.4236    80.632721 
   43500    1814.8523   -116.35142    1.6421165    -114.7093    10154.095    4.3077076    4.3077076    4.3077076    10154.095   -23191.739    16155.322      37498.7    527.44963    6070.5788   -8797.3703    79.935308 
   43600    1629.0858   -116.19436    1.4740311   -114.72033   -8256.8267    4.3107028    4.3107028    4.3107028   -8256.8267   -24048.991   -16740.187    16018.698    48876.246    13621.823    18959.293    80.102162 
   43700    1640.8187   -116.21251    1.4846473   -114.72787    11509.711    4.3048022    4.3048022    4.3048022    11509.711    8476.0743    6446.9356    19606.125    7386.3917   -17781.253    13456.857    79.773673 
   43800    1696.2376   -116.26604    1.5347915   -114.73125   -8562.2317    4.3235933    4.3235933    4.3235933   -8562.2317    3187.3757   -22650.594    -6223.477   -28544.718   -15057.283   -11272.456    80.822915 
   43900     1457.068   -116.04022    1.3183857   -114.72184   -37790.456    4.3272746    4.3272746    4.3272746   -37790.456   -67925.125   -54492.642    9046.3981    19574.735    10135.141   -2209.9609    81.029537 
   44000    1556.0991   -116.11729    1.4079912    -114.7093    22112.523    4.3013691    4.3013691    4.3013691    22112.523    10500.663    33859.162    21977.744    39906.749    10972.156    11678.379    79.582967 
   44100    2205.3006   -116.70123    1.9954023   -114.70583    11051.668    4.3092285    4.3092285    4.3092285    11051.668    16705.629    22879.906   -6430.5328   -10409.056   -6531.6823    17826.338    80.020005 
   44200    1689.0951   -116.23837    1.5283287   -114.71004   -1040.9384    4.3174636    4.3174636    4.3174636   -1040.9384   -35377.066   -414.75575    32669.006   -3005.8946   -220.57085    6625.5191    80.479644 
   44300    1110.8128   -115.72203    1.0050867   -114.71694   -609.44377    4.3160098    4.3160098    4.3160098   -609.44377   -62790.467    47619.779    13342.357     34133.58     22150.01    -34.81828    80.398373 
   44400    1722.9573   -116.27465     1.558968   -114.71569   -25925.105    4.3197808    4.3197808    4.3197808   -25925.105   -18985.249    -15392.45   -43397.616    3061.0861    4718.8041    28946.544    80.609295 
   44500    1994.5718   -116.51246    1.8047305   -114.70773    6853.4511    4.3070669    4.3070669    4.3070669    6853.4511    9948.0927    7463.8955    3148.3653   -17.977787     -14292.3    25326.653    79.899645 
   44600    1867.3745   -116.40608    1.6896397   -114.71644     -1757.15    4.3112643    4.3112643    4.3112643     -1757.15   -51787.173   -11988.443    58504.166    30908.912    11341.565   -21267.366     80.13347 
   44700    1356.5132    -115.9406    1.2274016    -114.7132   -23756.844    4.3240904    4.3240904    4.3240904   -23756.844   -34103.366   -34273.806   -2893.3597    9241.6264    12344.729    21296.301    80.850793 
   44800    1281.4756   -115.86894    1.1595061   -114.70943   -1213.6699      4.32022      4.32022      4.32022   -1213.6699   -22271.061    2394.3992    16235.652   -9899.8162   -20093.189    46612.813    80.633885 
   44900    1986.9375   -116.50091    1.7978228   -114.70309    9933.6324    4.3171345    4.3171345    4.3171345    9933.6324   -24607.561    37116.953    17291.506    3841.3172   -5444.7201   -9314.1901    80.461241 
   45000     1645.691   -116.20097    1.4890558   -114.71192    30480.971    4.3067009    4.3067009    4.3067009    30480.971    6798.9529    59914.689     24729.27    14219.499    12716.683    6174.2155    79.879278 
   45100    603.26906    -115.2836   0.54585052   -114.73775   -6238.4777    4.3152543    4.3152543    4.3152543   -6238.4777   -6031.1671    11303.787   -23988.054   -5727.6226   -12891.187    42203.473    80.356162 
   45200    1313.6772   -115.90892    1.1886427   -114.72028    -28355.02    4.3304993    4.3304993    4.3304993    -28355.02   -54429.183   -3259.3803   -27376.497   -18538.642   -16233.903    15726.448    81.210823 
   45300    2334.5914   -116.80329    2.1123873   -114.69091   -14952.322    4.3219179    4.3219179    4.3219179   -14952.322   -36085.103    10041.842   -18813.703    -3372.262    3200.0378   -16989.131    80.728995 
   45400    1074.9014   -115.68043    0.9725934   -114.70784   -14299.492    4.3151152    4.3151152    4.3151152   -14299.492   -3983.0641    6411.3992    -45326.81   -819.17408    -8393.015    40134.801    80.348394 
   45500    1063.4884   -115.67465   0.96226663   -114.71239    8264.5639    4.3057036    4.3057036    4.3057036    8264.5639   -14987.101    23286.133    16494.659   -13784.315   -9044.7888    15794.673    79.823797 
   45600    1762.4414   -116.30515     1.594694   -114.71046    15616.736    4.3166563    4.3166563    4.3166563    15616.736    -51029.92    71855.876    26024.253    353.83498    2626.0249   -2566.8636    80.434508 
   45700    1457.8423   -116.03181    1.3190864   -114.71273   -12304.714    4.3264532    4.3264532    4.3264532   -12304.714   -27372.595    17923.425   -27464.972    11448.603   -2936.2185    23371.304    80.983402 
   45800    1377.7134   -115.95652     1.246584   -114.70994    -1708.888    4.3170734    4.3170734    4.3170734    -1708.888   -9024.9706    13292.331   -9394.0246   -1900.5621   -10257.045    28634.137    80.457825 
   45900    2016.7936   -116.52663    1.8248372   -114.70179   -3047.4627    4.3168543    4.3168543    4.3168543   -3047.4627   -29092.146    17453.278    2496.4798    2114.9985    4061.3379    -33983.53     80.44558 
   46000    1326.2718   -115.89798    1.2000386   -114.69794   -30771.994    4.3299565    4.3299565    4.3299565   -30771.994   -58713.466   -32680.596   -921.92105    20953.358   -382.77878    21977.981    81.180288 
   46100    1320.6143   -115.88814    1.1949195   -114.69322   -12167.616    4.3204797    4.3204797    4.3204797   -12167.616   -15053.173    18663.094    -40112.77    104.61583   -12079.788    39933.388    80.648427 
   46200    1779.1797   -116.30195    1.6098392   -114.69211    12851.902    4.3077749    4.3077749    4.3077749    12851.902    5719.7097    34479.822   -1643.8263    2644.6088    -4117.873   -26565.269    79.939056 
   46300    1725.0722   -116.26608    1.5608815   -114.70519    10996.784    4.3121539    4.3121539    4.3121539    10996.784   -14627.185    10415.122    37202.415    11092.522      4311.65    4960.4777    80.183086 
   46400    730.25529   -115.38136   0.66075033   -114.72061   -7168.2719    4.3303589    4.3303589    4.3303589   -7168.2719   -39305.727   -11635.307    29436.218   -6480.1369   -9585.7689     51255.12    81.202923 
   46500    1304.3432   -115.87842    1.1801971   -114.69822   -7702.1374    4.3330004    4.3330004    4.3330004   -7702.1374   -45629.373    11342.085    11180.876   -4519.4086    3620.2563    7725.2437    81.351619 
   46600    2300.7373   -116.76216    2.0817555   -114.68041    14273.067    4.3114938    4.3114938    4.3114938    14273.067   -16110.813    31445.465    27484.549    4205.5951    3609.0569   -8671.3716    80.146265 
   46700    920.94971   -115.54572   0.83329465   -114.71242    17160.499    4.3060318    4.3060318    4.3060318    17160.499   -17967.577    71077.354   -1628.2788    303.82778   -5005.4515    39133.791    79.842051 
   46800    1054.1765   -115.67591   0.95384101   -114.72206   -13770.177    4.3187215    4.3187215    4.3187215   -13770.177   -52401.925    24514.325   -13422.931   -10747.381    4938.0298    19480.233    80.550007 
   46900    2341.5619   -116.81915    2.1186944   -114.70045    -9626.023    4.3288024    4.3288024    4.3288024    -9626.023   -50650.972   -16715.554    38488.457   -6833.3141    6534.1771   -15773.941    81.115392 
   47000      1485.54   -116.05058    1.3441478   -114.70643   -1107.9002    4.3209851    4.3209851    4.3209851   -1107.9002    1226.2772   -39666.219    35116.241    8788.2518    -9223.468    33282.236    80.676733 
   47100    1240.0425   -115.82259    1.1220165   -114.70057    2323.4161    4.3067448    4.3067448    4.3067448    2323.4161   -19193.428    11767.659    14396.017   -8538.4824   -11466.145    37038.391    79.881722 
   47200    2102.7187   -116.59954     1.902584   -114.69696    13902.667    4.3171631    4.3171631    4.3171631    13902.667    -17053.06    33045.924    25715.136   -10303.771    211.37104   -23985.091     80.46284 
   47300    1532.7703   -116.09231    1.3868828   -114.70542    6113.0167    4.3215847    4.3215847    4.3215847    6113.0167     36383.81   -30857.387    12812.627    10896.153    3687.4687      18206.1    80.710322 
   47400    1002.5856    -115.6133   0.90716052   -114.70614    6685.2585    4.3162297    4.3162297    4.3162297    6685.2585   -717.45022    73469.819   -52696.594    3017.2798   -4318.8951    41604.809    80.410662 
   47500     2177.024   -116.66192     1.969817   -114.69211    400.99418    4.3171409    4.3171409    4.3171409    400.99418   -34712.541    48726.756   -12811.232   -8973.6183   -1606.3669   -11336.163    80.461604 
   47600    1788.7126   -116.31647    1.6184647   -114.69801    29017.653    4.3034958    4.3034958    4.3034958    29017.653    21357.384    47076.801    18618.775   -3574.4041    4641.5138    6691.8822    79.701069 
   47700    939.79728      -115.57   0.85034833   -114.71965    1720.3034      4.31474      4.31474      4.31474    1720.3034    41092.384    27323.004   -63254.477     4921.951   -12214.018    45351.042    80.327432 
   47800    1937.6431   -116.45118    1.7532202   -114.69796   -23092.588    4.3271791    4.3271791    4.3271791   -23092.588   -43546.563   -888.33192   -24842.869   -9041.1828   -14850.119   -16450.837    81.024171 
   47900    1704.7647   -116.23465    1.5425069   -114.69214    30576.206    4.3054904    4.3054904    4.3054904    30576.206   -9394.9099    40214.231    60909.295   -21773.939     490.6724    13069.805    79.811941 
   48000    1157.2912   -115.75275    1.0471414   -114.70561   -4113.4209    4.3067892    4.3067892    4.3067892   -4113.4209    38849.821    5590.3984   -56780.482   -4470.2289    2890.5669    59231.232    79.884192 
   48100    1751.8866   -116.27875    1.5851438   -114.69361    -8482.445    4.3232338    4.3232338    4.3232338    -8482.445   -5783.4529    1430.8421   -21094.724    7579.1001   -7926.4531   -14733.319    80.802758 
   48200    1770.1591   -116.28784    1.6016771   -114.68616   -3661.1807    4.3243296    4.3243296    4.3243296   -3661.1807   -24668.232   -3501.1025    17185.793    -487.9605   -2526.9927    8813.5733    80.864214 
   48300    1319.6741   -115.88233    1.1940689   -114.68826   -21427.023      4.32559      4.32559      4.32559   -21427.023    17868.611   -46801.017   -35348.665   -7216.8452     13693.53    64764.214    80.934943 
   48400    1977.7524   -116.46728    1.7895119   -114.67777   -8000.9508    4.3189732    4.3189732    4.3189732   -8000.9508    10965.994   -20722.731   -14246.115    2892.5184   -11646.808   -12827.976    80.564095 
   48500    1877.8542   -116.38349     1.699122   -114.68437   -260.76646    4.3172517    4.3172517    4.3172517   -260.76646   -163.15123     1891.674   -2510.8222    2714.7177    3112.9649   -10606.208    80.467797 
   48600    953.93956   -115.56808   0.86314456   -114.70493   -25614.251     4.322908     4.322908     4.322908   -25614.251   -12912.664   -47329.152   -16600.938   -14979.821    12643.571    63494.581    80.784489 
   48700    1605.7497   -116.15793    1.4529161   -114.70501    12282.401    4.3170231    4.3170231    4.3170231    12282.401     24132.26   -1790.5504    14505.493    3152.6582   -3912.7134    5748.5077    80.455014 
   48800    2421.3026   -116.88136    2.1908454   -114.69052    17064.452    4.3124353    4.3124353    4.3124353    17064.452    13518.844    6617.4364    31057.075   -1427.9255    6765.1321   -18538.774    80.198784 
   48900    625.37577   -115.28911   0.56585314   -114.72326   -10223.395    4.3216287    4.3216287    4.3216287   -10223.395    36895.871   -53222.801   -14343.257   -14099.053    5992.6776    61478.491    80.712788 
   49000    1167.3343    -115.7652    1.0562286   -114.70897   -20818.319    4.3241634    4.3241634    4.3241634   -20818.319   -6070.5811   -50060.636   -6323.7387   -20909.481    16340.633    22546.948    80.854888 
   49100    2210.2852   -116.68312    1.9999125    -114.6832    26069.898     4.313484     4.313484     4.313484    26069.898    45884.171    24897.304    7428.2188    7339.2431   -13387.372   -24274.154    80.257307 
   49200    1058.5412   -115.65796   0.95779034   -114.70017    -21695.96    4.3212346    4.3212346    4.3212346    -21695.96    41600.395   -61907.282   -44780.994   -12658.501    5223.7183    51480.125    80.690709 
   49300     1030.921   -115.63008   0.93279898   -114.69728    -16996.29    4.3241649    4.3241649    4.3241649    -16996.29    6911.0315   -38725.073   -19174.829   -21357.686    14409.512    31094.402    80.854974 
   49400    1924.3596   -116.42105     1.741201   -114.67985    1449.1339    4.3204022    4.3204022    4.3204022    1449.1339   -8734.8587    34085.093   -21002.832    7454.2768   -20153.857   -18687.798    80.644088 
   49500    1136.8557   -115.72472     1.028651   -114.69607    10516.084    4.3133389    4.3133389    4.3133389    10516.084    38000.871    44541.061   -50993.682    11356.324    -1817.679    41706.101    80.249205 
   49600    999.06351   -115.61224   0.90397366   -114.70827   -4338.3418    4.3105918    4.3105918    4.3105918   -4338.3418    12837.843   -15283.356   -10569.512   -24405.775    13958.312    38826.751    80.095977 
   49700    1703.0164    -116.2449    1.5409251   -114.70398   -3155.5575    4.3153811    4.3153811    4.3153811   -3155.5575   -30904.713   -5102.6662    26540.707   -21710.707    -14294.26   -18316.305    80.363247 
   49800    1503.5681   -116.06427      1.36046   -114.70381   -17188.566    4.3200149    4.3200149    4.3200149   -17188.566   -4083.3816   -2750.5745   -44731.742    9512.2101   -9181.5872    31008.517    80.622404 
   49900    1207.3098   -115.79591    1.0923993   -114.70352   -11590.418    4.3205362    4.3205362    4.3205362   -11590.418    3462.3927   -8678.9346   -29554.711   -14224.289     2945.269     35679.44    80.651592 
   50000    1623.9424   -116.15763    1.4693772   -114.68825    2777.9357    4.3215915    4.3215915    4.3215915    2777.9357    -24572.37    38953.302   -6047.1255   -37583.447   -6937.3823   -19655.923    80.710702 
   50100    1514.5913     -116.051     1.370434   -114.68056    5906.8352     4.319196     4.319196     4.319196    5906.8352   -19196.615    49487.222   -12570.101     2770.238   -18800.828    23150.688    80.576565 
   50200      1402.99   -115.95672    1.2694548   -114.68726   -11870.245    4.3236244    4.3236244    4.3236244   -11870.245   -8495.1577   -3934.1386   -23181.439    2004.0352   -5354.3356    31333.662    80.824661 
   50300    2024.3357    -116.5164    1.8316615   -114.68473   -13397.599    4.3168012    4.3168012    4.3168012   -13397.599   -31651.372   -13014.043    4472.6179   -35714.269    9795.4836   -17168.578    80.442611 
   50400    1586.0954   -116.12754    1.4351325   -114.69241    23451.059    4.3032485    4.3032485    4.3032485    23451.059    21237.699    31517.994    17597.484   -19035.027   -15735.131    18474.486    79.687332 
   50500    1095.5693   -115.70892   0.99129414   -114.71763   -8997.2829    4.3180058    4.3180058    4.3180058   -8997.2829    27969.359   -20793.658   -34167.549    15142.557   -20218.261    46563.415    80.509968 
   50600    2057.3143   -116.54576    1.8615012   -114.68425   -3031.1217     4.329758     4.329758     4.329758   -3031.1217    6684.7928   -17580.102    1801.9437   -19141.738    18574.658   -15299.078    81.169127 
   50700    1434.3184   -115.98207    1.2978015   -114.68427   -6746.8659    4.3284567    4.3284567    4.3284567   -6746.8659    2674.0643   -33191.852     10277.19   -8800.4603   -10597.636    12409.917    81.095962 
   50800    747.59423   -115.37791   0.67643897   -114.70148   -24747.338    4.3187578    4.3187578    4.3187578   -24747.338    14560.842   -19111.261   -69691.597    10742.472   -17804.688     48909.14    80.552038 
   50900    1816.7118   -116.33764     1.643799   -114.69384    24627.389     4.301264     4.301264     4.301264    24627.389    38622.244    28104.857    7155.0654    12901.478    694.76892   -14813.907    79.577135 
   51000    1860.4873   -116.38896     1.683408   -114.70555    7059.8128    4.3118232    4.3118232    4.3118232    7059.8128    46410.308   -20147.834    -5083.036    4419.5902    1440.2495    7696.2923    80.164637 
   51100    906.88761   -115.53737   0.82057096    -114.7168   -18659.417    4.3245469    4.3245469    4.3245469   -18659.417    1596.8484   -1541.2118   -56033.888   -9886.9723   -29241.701    43118.197    80.876407 
   51200    1507.5423   -116.05924     1.364056   -114.69518    8634.8777    4.3213403    4.3213403    4.3213403    8634.8777   -23783.855    30758.819    18929.669    9220.9069   -24261.383   -11192.834     80.69663 
   51300    1981.6856   -116.47387    1.7930708    -114.6808   -5152.3057    4.3259625    4.3259625    4.3259625   -5152.3057    11447.788   -26008.358   -896.34785    3811.4591    11202.684    9549.5475    80.955854 
   51400    1316.5705   -115.88302    1.1912607   -114.69176   -16422.558    4.3155306    4.3155306    4.3155306   -16422.558    15969.027   -22277.324   -42959.377    4480.4389   -29820.491    53454.021    80.371596 
   51500    1544.0842   -116.09103    1.3971198   -114.69391    34270.493    4.3043628    4.3043628    4.3043628    34270.493   -8061.1876    102288.42    8584.2426    6106.2793   -20576.082    2948.7078    79.749253 
   51600    1897.6572    -116.4185    1.7170401   -114.70146    9328.7673    4.3172931    4.3172931    4.3172931    9328.7673   -16711.004    40174.905    4522.4009    11397.526    15232.776   -9089.6726    80.470111 
   51700    1486.5718    -116.0496    1.3450814   -114.70451    19474.874    4.3172707    4.3172707    4.3172707    19474.874    9106.1509    47918.058    1400.4127    6727.3153   -10703.466    44163.064    80.468858 
   51800    1769.1337   -116.30278    1.6007494   -114.70203   -4234.0584    4.3234991    4.3234991    4.3234991   -4234.0584    8.3276127    5107.7136   -17818.216   -4548.0533    -14632.77    5235.0012     80.81763 
   51900    1842.0409    -116.3623    1.6667173   -114.69558   -9499.6453    4.3169015    4.3169015    4.3169015   -9499.6453    7682.7826   -29085.473    -7096.246    4333.3098    10829.551   -37137.224    80.448216 
   52000    1787.5809   -116.30889    1.6174407   -114.69145    17823.908    4.3000672    4.3000672    4.3000672    17823.908   -4858.8272    33209.832     25120.72    11353.292   -14418.609     16538.44    79.510728 
   52100    1367.0434   -115.94292    1.2369296   -114.70599   -1162.9954    4.3162346    4.3162346    4.3162346   -1162.9954   -175.67939     8472.368   -11785.675   -237.58869   -23808.156    19132.677    80.410936 
   52200    1634.4961    -116.1736    1.4789264   -114.69468   -7760.5859    4.3283649    4.3283649    4.3283649   -7760.5859    7622.3085    11846.078   -42750.144    12659.672    21270.835   -35343.479    81.090804 
   52300    1819.4012   -116.32649    1.6462324   -114.68026    14899.985    4.3204012    4.3204012    4.3204012    14899.985   -12785.109    46811.219    10673.846    3361.5381   -1490.9993    5187.0221    80.644032 
   52400     1223.925   -115.79053     1.107433    -114.6831   -9450.2446    4.3236221    4.3236221    4.3236221   -9450.2446   -15419.994    13343.393   -26274.133    -5582.505   -29109.467    15780.206     80.82453 
   52500    1190.1845   -115.76313    1.0769039   -114.68623   -3863.1369     4.316395     4.316395     4.316395   -3863.1369   -89.844921    29677.723   -41177.288    8696.6635    24688.245   -37878.242    80.419903 
   52600    1681.7468   -116.20609    1.5216798   -114.68441    23222.183     4.302005     4.302005     4.302005    23222.183    13661.169    46531.139    9474.2423    10073.572   -4830.7609   -6618.5542    79.618272 
   52700    1402.9625   -115.97279    1.2694299   -114.70336    1617.8693    4.3199911    4.3199911    4.3199911    1617.8693   -17667.434    50595.987   -28074.946    2182.8359   -28082.708    19476.536    80.621069 
   52800    1103.9354    -115.6913   0.99886397   -114.69244   -12084.815    4.3313554    4.3313554    4.3313554   -12084.815   -5495.8635   -4394.8949   -26363.686    4748.6502    32635.916   -22864.376    81.258995 
   52900    1081.4935   -115.66352   0.97855809   -114.68496    11242.749    4.3167133    4.3167133    4.3167133    11242.749   -8776.9935    29104.713    13400.527    6046.0325    7011.6991   -25409.332    80.437696 
   53000    1513.5529    -116.0481    1.3694944    -114.6786    11263.886    4.3109412    4.3109412    4.3109412    11263.886   -26163.293    42113.293    17841.659    16810.227   -32664.203    4556.9251    80.115453 
   53100    1270.5783    -115.8455     1.149646   -114.69585    16145.355    4.3148622    4.3148622    4.3148622    16145.355    3087.9367    36504.241    8843.8885   -2684.3083    35508.779   -6076.7602     80.33426 
   53200    1015.7661    -115.6262   0.91908648   -114.70712   -1176.0696    4.3179788    4.3179788    4.3179788   -1176.0696   -40564.165   -3748.2587    40784.215    1474.3254    31253.432   -25597.255    80.508461 
   53300    1326.8493   -115.90505    1.2005611   -114.70448    9732.1121    4.3172048    4.3172048    4.3172048    9732.1121   -22630.782    11114.466    40712.652    16083.564   -22478.666   -6706.6368    80.465172 
   53400    1537.3318   -116.08999    1.3910101   -114.69898     14092.41    4.3133314    4.3133314    4.3133314     14092.41   -36746.219    66105.584    12917.864   -2681.5562    21709.292    697.93044    80.248786 
   53500    855.27885   -115.48152   0.77387428   -114.70764    10314.644     4.318922     4.318922     4.318922    10314.644   -42814.102    74959.609   -1201.5748    3759.5168    32355.954   -18660.626    80.561228 
   53600    1412.2683    -115.9641    1.2778501   -114.68625   -15517.175    4.3360609    4.3360609    4.3360609   -15517.175   -35111.112   -20330.866    8890.4519    -478.1991   -15190.441     -11135.8    81.524122 
   53700    1573.3112   -116.10449     1.423565   -114.68092   -11125.225    4.3240237    4.3240237    4.3240237   -11125.225   -25618.042    10083.892   -17841.524   -5531.3215    30217.354   -3124.4981    80.847055 
   53800    1366.4789   -115.92342    1.2364189   -114.68701    11006.123    4.2926259    4.2926259    4.2926259    11006.123   -9546.7165    51972.582   -9407.4957    3174.4903    40483.652    2198.2385    79.098658 
   53900    752.47883   -115.39859   0.68085866   -114.71773    3391.9604    4.2975057    4.2975057    4.2975057    3391.9604    23061.628   -23376.506    10490.759    6554.5166   -11699.008   -15468.954    79.368722 
   54000    1400.7152   -115.98918    1.2673966   -114.72178   -24375.091    4.3267736    4.3267736    4.3267736   -24375.091   -41351.189   -30954.923   -819.16124   -5725.2082   -21907.879    -9188.679    81.001399 
   54100    2120.7479   -116.61766    1.9188972   -114.69876      3520.02    4.3240252    4.3240252    4.3240252      3520.02   -13685.927    5927.8164    18318.171    4616.8221     3601.207    9580.7434    80.847135 
   54200    1013.1782   -115.62499   0.91674492   -114.70824    3421.4779    4.3150851    4.3150851    4.3150851    3421.4779    10039.168    -26139.36    26364.626    2947.7915   -1214.9275   -5999.0625    80.346709 
   54300     1078.658   -115.68014   0.97599244   -114.70415   -12632.633    4.3141509    4.3141509    4.3141509   -12632.633   -33932.489   -16366.356    12400.946   -2177.0313    -26842.02   -16064.114    80.294534 
   54400    1927.1312   -116.43147    1.7437088   -114.68776    25819.396    4.3077839    4.3077839    4.3077839    25819.396   -5763.9253     26853.87    56368.242    142.64418   -6407.1197    10396.251    79.939554 
   54500    1165.2811   -115.76012    1.0543708   -114.70575   -11556.778    4.3196754    4.3196754    4.3196754   -11556.778   -1891.1812   -46762.155    13983.003   -2727.2242    14594.372   -79.662231    80.603393 
   54600    1171.7285   -115.76564    1.0602046   -114.70544   -22261.268    4.3203727    4.3203727    4.3203727   -22261.268    2371.0305    -63842.43   -5312.4055    9340.8239   -7642.5225   -27263.005    80.642436 
   54700    2295.4396   -116.76634     2.076962   -114.68937    8390.9195    4.3009831    4.3009831    4.3009831    8390.9195    -10106.34    15104.564    20174.534   -2110.6265   -2434.6287    6877.7285    79.561544 
   54800    967.79979   -115.58992   0.87568559   -114.71424   -6922.0297    4.3053399    4.3053399    4.3053399   -6922.0297   -5639.9789   -15076.019   -50.090995   -9561.4271    34491.017    2724.6824     79.80357 
   54900     1005.473   -115.63422   0.90977306   -114.72445   -19374.875    4.3131813    4.3131813    4.3131813   -19374.875    4079.6758   -54650.238   -7554.0647    10971.868    6721.4211    -16460.63     80.24041 
   55000    2015.6342    -116.5293    1.8237882   -114.70551    1480.9332    4.3227686    4.3227686    4.3227686    1480.9332    -17374.28    -8521.824    30338.904    -2008.554   -15450.825    -13873.98    80.776676 
   55100    1527.3392   -116.09027    1.3819686    -114.7083   -3019.0818    4.3135233    4.3135233    4.3135233   -3019.0818   -38889.819    2798.9876    27033.586   -29755.284    927.44753    4007.4356      80.2595 
   55200    1564.0256   -116.11477    1.4151632   -114.69961    27427.036    4.2934924    4.2934924    4.2934924    27427.036    17971.883    -3046.282    67355.507   -8741.7973    13815.298   -6192.2539    79.146568 
   55300    1891.4034    -116.4184    1.7113815   -114.70702    -6575.963    4.3108176    4.3108176    4.3108176    -6575.963   -4676.7405    8125.7943   -23176.943    20185.717   -27716.762   -8279.5501    80.108564 
   55400    1150.9119   -115.75202    1.0413692   -114.71065   -15470.627    4.3192475    4.3192475    4.3192475   -15470.627   -48978.282    18837.402   -16271.002   -34619.871   -44130.978    1.2821815    80.579448 
   55500     1620.993   -116.17117    1.4667085   -114.70447    10534.197    4.3101665    4.3101665    4.3101665    10534.197    8738.9073   -25115.214    47978.899   -32706.245    6838.8093    5211.6367     80.07227 
   55600    2169.9427   -116.65856    1.9634097   -114.69515    -5134.811    4.3141127    4.3141127    4.3141127    -5134.811    2925.1331    6205.2218   -24534.788    15153.873   -5745.3805    6286.7582    80.292406 
   55700    1123.2746     -115.723    1.0163625   -114.70664   -7620.7194    4.3105675    4.3105675    4.3105675   -7620.7194   -2040.6982    20373.868   -41195.328   -28895.431   -49450.426   -160.90566    80.094619 
   55800      1217.05    -115.8154    1.1012124   -114.71418   -1832.5429    4.3080711    4.3080711    4.3080711   -1832.5429   -20546.521   -11190.561    26239.454   -56089.433    -15262.63   -918.08453    79.955546 
   55900    2360.5192   -116.83314    2.1358474   -114.69729    12910.546    4.3121931    4.3121931    4.3121931    12910.546    27702.061    8395.1069    2634.4692    12501.672     13558.59   -3580.1269    80.185268 
   56000    1366.3296   -115.95072    1.2362837   -114.71443   -16596.041    4.3175389    4.3175389    4.3175389   -16596.041   -18786.859    6938.5465   -37939.811    -16464.32   -34166.229    123.19275    80.483855 
   56100    698.24357   -115.35537   0.63178545   -114.72359   -38561.247    4.3109641    4.3109641    4.3109641   -38561.247   -81763.158   -22780.814    -11139.77   -83677.066   -33396.901   -4837.8031    80.116728 
   56200    2013.2549    -116.5312    1.8216354   -114.70957    24207.019    4.3046751    4.3046751    4.3046751    24207.019    55944.653    21801.186    -5124.782    -1671.509    5450.9594    1458.0612    79.766607 
   56300     1929.018   -116.45658     1.745416   -114.71116   -7698.9952    4.3153668    4.3153668    4.3153668   -7698.9952   -11992.763    4438.0917   -15542.314   -84.171952    2955.2801    13755.799    80.362447 
   56400    351.87627   -115.04164   0.31838505   -114.72326   -14643.252    4.3159892    4.3159892    4.3159892   -14643.252   -38037.475   -872.84296   -5019.4394   -79641.116   -34940.826   -6251.1382    80.397225 
   56500    1592.0554   -116.15396    1.4405252   -114.71343    246.47215    4.3160493    4.3160493    4.3160493    246.47215   -11048.443    26884.453   -15096.593   -4158.2946    -30696.09    5058.3559     80.40058 
   56600    2015.9779   -116.51853    1.8240992   -114.69443    13389.507    4.3170041    4.3170041    4.3170041    13389.507    12204.359      32080.6    -4116.437    2565.6104    14410.493    66.500135    80.453951 
   56700    768.01482   -115.40906   0.69491595   -114.71414   -22401.258    4.3133307    4.3133307    4.3133307   -22401.258    -55521.51   -15140.713    3458.4508   -76984.979   -22068.277   -6402.7038    80.248747 
   56800    1072.2627   -115.68217   0.97020585   -114.71197   -12030.733    4.3158503    4.3158503    4.3158503   -12030.733   -42246.001    13179.142   -7025.3388   -8765.7902   -46676.468    5410.9579    80.389462 
   56900    2068.3663   -116.56216    1.8715013   -114.69066     12034.25    4.3156897    4.3156897    4.3156897     12034.25     10518.88    5014.2601    20569.611    2219.4729    13864.022   -7152.2773    80.380485 
   57000    1023.0125     -115.634    0.9256432   -114.70835   -2945.6143    4.3144073    4.3144073    4.3144073   -2945.6143   -26140.304   -17301.197    34604.658   -55981.019   -9010.6732    1631.2698    80.308856 
   57100     996.1634   -115.60813   0.90134957   -114.70678   -15077.039    4.3153947    4.3153947    4.3153947   -15077.039   -46794.089    843.34938    719.62187   -18596.172   -55055.282   -2272.4791    80.364003 
   57200     2034.388   -116.52947     1.840757   -114.68871   -46.995413    4.3209296    4.3209296    4.3209296   -46.995413    12040.428    2767.4101   -14948.824    16094.134    6212.5675    4857.4246    80.673624 
   57300     1175.936   -115.75784    1.0640116   -114.69383   -21256.609     4.327827     4.327827     4.327827   -21256.609   -24823.234   -55978.633     17032.04   -43981.647    -5733.772    333.95928    81.060576 
   57400    838.43336   -115.45973   0.75863212   -114.70109   -20823.375    4.3143346    4.3143346    4.3143346   -20823.375   -58323.533   -2131.4911   -2015.1015   -42466.167    -55123.28    3224.4623    80.304792 
   57500    1895.5026   -116.40724    1.7150906   -114.69215     27484.46    4.3054284    4.3054284    4.3054284     27484.46    29652.098    46148.958    6652.3252    18333.902   -5649.0485    918.78473    79.808494 
   57600      1766.11   -116.29983    1.5980135   -114.70182   -2646.4564    4.3193695    4.3193695    4.3193695   -2646.4564   -13990.805   -14163.326    20214.762   -12581.983     3948.672    2428.3058    80.586275 
   57700    668.45581   -115.31049   0.60483286   -114.70566   -10207.307    4.3291682    4.3291682    4.3291682   -10207.307   -27460.536   -20075.679    16914.295   -33686.273   -56071.976    6462.7565    81.135958 
   57800    1981.5122   -116.47277    1.7929139   -114.67985    5768.9511    4.3247925    4.3247925    4.3247925    5768.9511   -4172.4674    7816.7193    13662.602    11923.177   -3266.1331   -952.00463    80.890186 
   57900    1740.4269   -116.24895    1.5747748   -114.67417    19333.824    4.3151702    4.3151702    4.3151702    19333.824    13300.819      13487.9    31212.752   -9316.8582    3800.8554   -6225.1403    80.351463 
   58000    762.29645    -115.3913   0.68974185   -114.70155   -40355.622     4.324097     4.324097     4.324097   -40355.622    -58975.59   -23560.231   -38531.044   -32488.133   -73612.007    1155.6792    80.851166 
   58100    1609.9696   -116.15367    1.4567343   -114.69693   -1633.7336    4.3209036    4.3209036    4.3209036   -1633.7336   -16945.677   -10584.136    22628.613    -3325.485   -13037.832    432.14168     80.67217 
   58200    1955.4033    -116.4609      1.76929   -114.69161    25542.341     4.304396     4.304396     4.304396    25542.341    29792.571    34587.667    12246.787    136.45931    25976.844    4159.5818    79.751096 
   58300    749.54638   -115.39754   0.67820532   -114.71933   -4235.3817    4.3091565    4.3091565    4.3091565   -4235.3817    -43830.19    25591.724    5532.3209   -19204.156   -69223.803   -2571.9152    80.015996 
   58400    1371.4641   -115.95222    1.2409295   -114.71129    -4904.837     4.324172     4.324172     4.324172    -4904.837    -39562.97    16340.506    8507.9531   -17630.696   -27229.045   -3020.6052    80.855371 
   58500    1860.3562    -116.3667    1.6832893   -114.68341   -6119.9585    4.3349688    4.3349688    4.3349688   -6119.9585   -11084.745    18738.485   -26013.616    13301.647    16774.241    7947.2483    81.462538 
   58600    825.73684   -115.43665   0.74714405   -114.68951    -30478.14    4.3260107    4.3260107    4.3260107    -30478.14   -71787.947    1484.8736   -21131.347   -17361.922   -67615.556   -4974.1629    80.958556 
   58700    1212.7493   -115.77863     1.097321   -114.68131    25778.354    4.3026126    4.3026126    4.3026126    25778.354    26552.731    40135.095    10647.237   -32678.384   -16208.801   -4440.4651    79.652006 
   58800    1875.8659     -116.382    1.6973228   -114.68468    13572.406    4.3066867    4.3066867    4.3066867    13572.406    15063.779    17234.119     8419.321    19158.568    12824.514    19175.598     79.87849 
   58900    985.70649   -115.59529   0.89188795    -114.7034   -6974.8941    4.3253359    4.3253359    4.3253359   -6974.8941   -19742.056    17645.562   -18828.189   -1800.2187   -58727.556   -7897.1505    80.920681 
   59000    1242.3328   -115.81408    1.1240888      -114.69    11859.363    4.3318996    4.3318996    4.3318996    11859.363   -11457.538    53877.173   -6841.5447   -32306.705   -6412.7168   -14353.603    81.289629 
   59100    1562.5284    -116.0873    1.4138085   -114.67349   -4938.1791    4.3267699    4.3267699    4.3267699   -4938.1791    29762.794   -27142.135   -17435.197    1782.7948    4677.5989    22347.996    81.001189 
   59200     980.2309   -115.57273   0.88693352    -114.6858   -3565.9157    4.3094089    4.3094089    4.3094089   -3565.9157   -2390.9102    21330.229   -29637.066    10890.625   -52735.872    10999.998    80.030055 
   59300    1589.8853   -116.12541    1.4385616   -114.68684    27281.429    4.3063513    4.3063513    4.3063513    27281.429    17639.196    38058.353    26146.737   -5538.8207   -9934.1354     -18753.1    79.859826 
   59400    1677.5025    -116.2134    1.5178395   -114.69556   -16434.855    4.3280222    4.3280222    4.3280222   -16434.855    1138.0981   -30129.428   -20313.234   -15214.612    7042.5183     17358.37    81.071541 
   59500    642.45362   -115.28577   0.58130554   -114.70447    -25990.08    4.3289171    4.3289171    4.3289171    -25990.08   -29298.598    8934.0782   -57605.719    -1707.013   -42301.464    34061.763    81.121842 
   59600    1865.0999   -116.37268    1.6875816    -114.6851    13567.005    4.3091583    4.3091583    4.3091583    13567.005    9330.2926    15436.288    15934.435    8473.5251    -19395.36   -13317.205    80.016092 
   59700    2112.0033   -116.59875     1.910985   -114.68776    5272.5127    4.3118954    4.3118954    4.3118954    5272.5127     37750.93   -20638.483    -1294.909    1427.4576    12844.701    11978.539    80.168668 
   59800    939.23194   -115.55841   0.84983679   -114.70857   -22931.287    4.3240877    4.3240877    4.3240877   -22931.287   -13112.794    3517.6706   -59198.739    5266.6494    -52823.98    36996.654    80.850646 
   59900    1649.0033   -116.18715    1.4920528    -114.6951    6926.2249     4.328097     4.328097     4.328097    6926.2249    30581.714    5187.9963   -14991.035   -5713.7711    -15659.64   -12203.031    81.075747 
   60000    2118.3794   -116.60064    1.9167542   -114.68389    13504.011    4.3185247    4.3185247    4.3185247    13504.011    64783.999   -14271.544   -10000.421   -4914.1532    14902.404    10266.479    80.538998 
   60100    1058.3862   -115.65549   0.95765006   -114.69784    14112.868    4.3066431    4.3066431    4.3066431    14112.868    89549.787   -8751.4333   -38459.749    218.01568   -45721.176    42766.897    79.876062 
   60200    1891.9368   -116.41643    1.7118642   -114.70457   -46.476441    4.3164672    4.3164672    4.3164672   -46.476441   -6116.3153    19742.726    -13765.84    2673.1018   -32522.398   -10305.025    80.423937 
   60300    2376.7562   -116.84533     2.150539   -114.69479   -2540.5473    4.3275259    4.3275259    4.3275259   -2540.5473    25448.847   -23818.097   -9252.3924    11755.614    18175.544     15858.07    81.043658 
   60400    1227.5652   -115.81772    1.1107268   -114.70699   -6593.3915     4.326229     4.326229     4.326229   -6593.3915    27491.486   -19302.303   -27969.358    2620.5036   -26802.181    38330.602    80.970817 
   60500    1396.7533   -115.95752    1.2638117   -114.69371    7590.5165    4.3241685    4.3241685    4.3241685    7590.5165    35297.823    13958.752   -26485.025    -7444.132   -40245.336   -21458.682    80.855174 
   60600    2090.6481   -116.56619    1.8916623   -114.67453    9803.8764    4.3238897    4.3238897    4.3238897    9803.8764     46632.32    4519.1334   -21739.824   -2246.6805    24744.641    2427.9508    80.839539 
   60700    1190.8234   -115.76447    1.0774821   -114.68699    1202.5032    4.3220297    4.3220297    4.3220297    1202.5032    22953.941   -888.37063    -18458.06    5735.3957   -31731.552    36462.365    80.735259 
   60800     1289.815    -115.8601    1.1670517   -114.69305   -16290.742     4.320796     4.320796     4.320796   -16290.742   -45268.139    29308.503    -32912.59    12117.192    -53687.11   -1996.3008     80.66614 
   60900    2206.8146   -116.68082    1.9967722   -114.68404    4048.1554    4.3097085    4.3097085    4.3097085    4048.1554    12923.129    5791.0555   -6569.7181    -2847.978    9645.5181   -16650.063    80.046749 
   61000    1210.4211   -115.80281    1.0952145    -114.7076   -25780.859    4.3197124    4.3197124    4.3197124   -25780.859   -10433.142   -19979.531   -46929.905    1485.6101   -36103.433      23206.6    80.605466 
   61100    835.96633   -115.46611    0.7563999   -114.70971   -17245.562    4.3301505    4.3301505    4.3301505   -17245.562    -10743.51    22014.623   -63007.801    10814.627   -52626.287    21010.136    81.191203 
   61200    2345.6356   -116.79745    2.1223804   -114.67507    526.93541    4.3212617    4.3212617    4.3212617    526.93541    12604.268    -1136.186   -9887.2758   -2309.6076    15340.485   -21265.199    80.692225 
   61300    918.62265   -115.52434   0.83118907   -114.69315    289.62664    4.3189637    4.3189637    4.3189637    289.62664    61761.631   -14266.461    -46626.29    678.84748   -36621.395    25297.822    80.563562 
   61400    1143.2528    -115.7289    1.0344392   -114.69446   -11492.851    4.3285863    4.3285863    4.3285863   -11492.851    11256.611   -1109.3133   -44625.852    1910.4295   -47006.698    21189.033    81.103248 
   61500    2184.4107   -116.65217    1.9765007   -114.67567    4697.3145    4.3349729    4.3349729    4.3349729    4697.3145    24954.011    4277.5409   -15139.609     -2610.44    33447.779   -10415.612    81.462766 
   61600    1362.2242   -115.92947    1.2325691   -114.69691   -2849.2128    4.3131459    4.3131459    4.3131459   -2849.2128   -6940.6012    32829.605   -34436.642    521.89253   -19905.432    17137.128    80.238434 
   61700    904.02566   -115.51955   0.81798142   -114.70157    14107.864    4.2954559    4.2954559    4.2954559    14107.864   -6281.5651    38069.405    10535.753    2375.1222   -59297.885    30040.287    79.255206 
   61800    2138.3809   -116.64054     1.934852   -114.70569    16748.598    4.3175334    4.3175334    4.3175334    16748.598    16167.739    21967.172    12110.884   -7262.2904    21374.537   -6660.3651    80.483549 
   61900    1761.0924   -116.28966    1.5934734   -114.69619    12195.822    4.3322863    4.3322863    4.3322863    12195.822   -16511.392    48444.019     4654.841    3927.4743    -23330.32    6009.5888    81.311399 
   62000    942.00073   -115.54754   0.85234205    -114.6952   -1070.4045    4.3345752    4.3345752    4.3345752   -1070.4045    -21054.12    34101.608   -16258.701   -1997.2268   -48985.582    38377.453    81.440346 
   62100    2182.1922   -116.63427    1.9744934   -114.65977    3197.3388    4.3305202    4.3305202    4.3305202    3197.3388    24556.279   -9736.8453   -5227.4169    266.27425    18691.433    13156.512    81.211999 
   62200    1555.0774   -116.07978    1.4070667   -114.67271    17650.096    4.3075673    4.3075673    4.3075673    17650.096   -9714.5994    52937.364    9727.5236     -12832.5   -41510.958   -10466.522    79.927496 
   62300    1014.2297   -115.60859   0.91769633    -114.6909   -8476.3323     4.305159     4.305159     4.305159   -8476.3323   -15667.919    28245.913   -38006.991    5787.7188   -54471.235    44160.187    79.793512 
   62400    1853.1508   -116.36991    1.6767698   -114.69314   -17172.239     4.328127     4.328127     4.328127   -17172.239    5814.7577   -29783.028   -27548.448    3380.8996    13755.185    14154.721    81.077435 
   62500    1498.7207   -116.04232     1.356074   -114.68625   -23968.411    4.3326488    4.3326488    4.3326488   -23968.411   -48209.676    1851.4899   -25547.047   -12126.863   -33174.971   -22630.507    81.331812 
   62600     810.5582   -115.42329   0.73341009   -114.68988   -17707.166    4.3127918    4.3127918    4.3127918   -17707.166   -29670.336     10506.98   -33958.141     736.3377   -54223.401    28522.377    80.218674 
   62700    1768.8489   -116.29159    1.6004917    -114.6911    4452.4864    4.3067546    4.3067546    4.3067546    4452.4864    30035.178   -26236.892    9559.1736   -1546.5127    14405.175    32462.615    79.882267 
   62800    1726.1437   -116.26187    1.5618511   -114.70001   -16756.521     4.315822     4.315822     4.315822   -16756.521   -42192.806    3529.3917   -11606.148    4698.5287   -18345.974   -7045.6321    80.387878 
   62900    698.80256   -115.34841   0.63229124   -114.71612    1390.6815    4.3163616    4.3163616    4.3163616    1390.6815   -42343.258    34838.182     11677.12   -5469.0668    -56815.46   -480.85818    80.418035 
   63000    1739.7285   -116.27529    1.5741429   -114.70115   -12345.744    4.3265254    4.3265254    4.3265254   -12345.744   -10414.625   -29980.236    3357.6296    5422.6836    11090.916    35276.563    80.987459 
   63100    1555.5908   -116.09207    1.4075313   -114.68453   -15247.116    4.3254211    4.3254211    4.3254211   -15247.116    -62810.59    18248.094   -1178.8518    9941.0171   -28119.301    -1436.155    80.925459 
   63200     1010.925   -115.59782   0.91470621   -114.68312   -5748.1487    4.3146982    4.3146982    4.3146982   -5748.1487   -44363.581    26079.884    1039.2501    3683.3597   -48276.701    8360.2863    80.325102 
   63300    2008.5566   -116.49432    1.8173842   -114.67693    147.04115    4.3151412    4.3151412    4.3151412    147.04115    9815.7267   -425.38078   -8949.2225   -8148.4016    24095.218    10879.717    80.349841 
   63400    1373.0453   -115.93422    1.2423602   -114.69186   -12108.413    4.3273085    4.3273085    4.3273085   -12108.413    -46505.04   -6162.5655    16342.366    12737.333   -44811.655    4620.4476    81.031446 
   63500    1035.9543   -115.63198   0.93735324   -114.69462    -38370.17    4.3293976    4.3293976    4.3293976    -38370.17   -57140.632     2541.307   -60511.186    17109.207   -50638.973     2780.792     81.14886 
   63600    2002.7583   -116.49165    1.8121378   -114.67952    1724.0932    4.3131244    4.3131244    4.3131244    1724.0932    28393.932   -15964.637   -7257.0157   -4501.9323    49118.052   -10052.561    80.237233 
   63700    1526.0767   -116.07229    1.3808263   -114.69146    4390.3245    4.3043278    4.3043278    4.3043278    4390.3245   -9811.6666      21725.7    1256.9403   -3636.8229   -50184.488    3782.3722    79.747305 
   63800    1065.4559   -115.67512   0.96404688   -114.71108   -20556.833    4.3180515    4.3180515    4.3180515   -20556.833   -14958.341    7563.9036   -54276.061    11115.132   -75188.152    7848.4606    80.512527 
   63900    2161.4472   -116.64558    1.9557228   -114.68986   -13955.306    4.3324935    4.3324935    4.3324935   -13955.306   -3754.0045   -62341.795    24229.883   -4102.8436    26589.072   -18976.363    81.323068 
   64000    1473.2086   -116.02632    1.3329901   -114.69333   -9211.2758    4.3224377    4.3224377    4.3224377   -9211.2758   -1471.7297   -956.47603   -25205.622   -4892.7417   -40450.017   -4890.5965    80.758124 
   64100    1122.4497   -115.71077    1.0156161   -114.69515    6545.9072     4.303554     4.303554     4.303554    6545.9072    10394.436    18130.586   -8887.3004    7022.7669   -71054.502     13094.78    79.704303 
   64200    2107.2201   -116.59902     1.906657   -114.69236     8109.831    4.3117909    4.3117909    4.3117909     8109.831     1717.378   -21956.024    44568.139    11279.561    23008.669    9759.6716    80.162835 
   64300    1304.7809   -115.88414    1.1805932   -114.70355   -4600.5692    4.3294862    4.3294862    4.3294862   -4600.5692   -18121.182    10823.051   -6503.5767   -3081.9941   -48097.141    -9660.441    81.153841 
   64400    1387.5398   -115.95246    1.2554752   -114.69699   -31819.681    4.3381336    4.3381336    4.3381336   -31819.681   -55335.392     6780.763   -46904.412    5934.8435   -49826.559    463.98752    81.641083 
   64500    2000.8024   -116.48311    1.8103681   -114.67274    10236.426    4.3156708    4.3156708    4.3156708    10236.426    3880.9218   -34472.625    61300.982    7025.9988    24807.159   -1287.4342    80.379432 
   64600    1117.3781   -115.69012    1.0110272   -114.67909    20488.791    4.2909487    4.2909487    4.2909487    20488.791    -23586.21    47133.881    37918.701   -4635.4408   -62070.247   -276.75972    79.005978 
   64700    1424.5247   -115.99687    1.2889399   -114.70793   -16977.327    4.3169499    4.3169499    4.3169499   -16977.327   -30650.271    13971.434   -34253.143   -5092.6665    -53585.24   -8522.8717    80.450921 
   64800     2152.232   -116.62558    1.9473848   -114.67819   -21735.495    4.3374559    4.3374559    4.3374559   -21735.495   -17118.736    -48107.07    19.321661    8906.0032    25771.281   -23373.532    81.602828 
   64900    938.22098   -115.53524   0.84892206   -114.68631   -7445.2705    4.3248913    4.3248913    4.3248913   -7445.2705   -52401.945    33610.536   -3544.4023    3015.6393     -65775.3    9224.6644    80.895731 
   65000    1553.6698   -116.07914    1.4057931   -114.67334    5686.2528    4.3093857    4.3093857    4.3093857    5686.2528   -1888.0402    20642.699    -1695.901   -6472.8172   -33309.362    199.48881    80.028761 
   65100    2030.5264    -116.5136     1.837263   -114.67634    4790.5706    4.3080444    4.3080444    4.3080444    4790.5706   -4746.6097    13842.296    5276.0255    4848.4818    24692.417    -13987.08    79.954061 
   65200    508.19908   -115.16166   0.45982921   -114.70183   -2060.1081    4.3250001    4.3250001    4.3250001   -2060.1081   -53519.113    46062.298    1276.4908     9215.385   -76027.649    682.81022    80.901832 
   65300    2018.9982   -116.50643     1.826832    -114.6796   -5535.6888    4.3264187    4.3264187    4.3264187   -5535.6888   -25308.192    16770.329   -8069.2027    8530.3058   -5371.2258    3101.8569    80.981468 
   65400     1761.017   -116.26935    1.5934051   -114.67594    15051.447    4.3137007    4.3137007    4.3137007    15051.447   -24962.338    22444.729     47671.95   -377.51013   -15521.937    5008.5891    80.269404 
   65500    839.14542   -115.45816   0.75927641   -114.69888   -35635.348    4.3172163    4.3172163    4.3172163   -35635.348   -84399.313    47594.391   -70101.123    2856.2204   -81880.848   -6674.2598    80.465816 
   65600    2070.2738   -116.55944    1.8732272   -114.68621    11295.256    4.3115432    4.3115432    4.3115432    11295.256   -13902.347   -5922.4318    53710.548    7261.2149    12975.916   -6004.7478    80.149021 
   65700    1716.7049    -116.2518    1.5533107   -114.69849    1541.7678    4.3137351    4.3137351    4.3137351    1541.7678   -24228.062    17650.531    11202.835   -3451.6006   -22711.092    20892.521    80.271322 
   65800    924.84591   -115.55251   0.83682002   -114.71569       -18232    4.3184265    4.3184265    4.3184265       -18232   -67723.178    47685.145   -34657.967    871.86075   -82036.012    5583.9713    80.533504 
   65900    2049.7651   -116.55346    1.8546705   -114.69879    12133.821    4.3222426    4.3222426    4.3222426    12133.821   -25527.131    1391.8205    60536.775    5093.3519    12577.303   -15587.348    80.747192 
   66000    1940.4009   -116.45536    1.7557155   -114.69964    5013.7403    4.3133135    4.3133135    4.3133135    5013.7403   -20273.878    6369.5263    28945.573    3617.6496   -18815.115    5874.9373    80.247786 
   66100    766.95749   -115.41259   0.69395925   -114.71863   -8308.1196    4.3073711    4.3073711    4.3073711   -8308.1196   -48034.741    47801.366   -24690.983    2502.6497   -85543.249    20459.473    79.916577 
   66200    1972.8647   -116.49112    1.7850894   -114.70603    12882.008    4.3156709    4.3156709    4.3156709    12882.008   -8327.4231    4906.7723    42066.674   -8422.4125    11721.984    3875.9343    80.379434 
   66300    1728.4166   -116.27129    1.5639076   -114.70738   -1736.4107    4.3276428    4.3276428    4.3276428   -1736.4107   -25732.241    3786.2236    16736.785   -91.179757   -18180.298   -7118.7559    81.050222 
   66400    981.68354   -115.59655    0.8882479    -114.7083   -9582.1856    4.3254819    4.3254819    4.3254819   -9582.1856   -44183.158    23946.454   -8509.8525     1230.345   -67251.475    27066.553    80.928875 
   66500    1864.2509   -116.37745    1.6868134   -114.69064    33153.882    4.3148309    4.3148309    4.3148309    33153.882    6948.0663    14863.434    77650.147   -9786.8353     22388.38    12580.526    80.332509 
   66600     1878.359   -116.39188    1.6995787    -114.6923    26061.459     4.305913     4.305913     4.305913    26061.459   -11908.321    28552.043    61540.656    9668.5593    -25928.42   -17326.005    79.835444 
   66700    1176.8019   -115.77809    1.0647951   -114.71329    7132.2132    4.3108898    4.3108898    4.3108898    7132.2132   -29361.631    15235.428    35522.842    8688.9189   -57210.598   -2679.5246    80.112588 
   66800    1636.6862   -116.18408     1.480908   -114.70317   -13969.123     4.330213     4.330213     4.330213   -13969.123   -16849.713   -5285.1842   -19772.471    -1762.117    24475.199    41889.445    81.194716 
   66900    2038.5069   -116.53449    1.8444839   -114.69001   -3498.1138    4.3174607    4.3174607    4.3174607   -3498.1138   -23067.695    10496.564    2076.7905    498.27537   -17330.652    7285.0383    80.479481 
   67000    1115.2688   -115.70985    1.0091186   -114.70073    10651.241    4.3100521    4.3100521    4.3100521    10651.241   -19508.647    31459.596    20002.773    17822.594   -46561.033   -23294.334    80.065896 
   67100    1553.6523   -116.10496    1.4057773   -114.69919   -20410.261    4.3174379    4.3174379    4.3174379   -20410.261   -7590.8191    -10319.44   -43320.524    13775.594    24085.843    23991.911    80.478207 
   67200    1558.7069   -116.10798    1.4103508   -114.69763   -2256.1188    4.3209157    4.3209157    4.3209157   -2256.1188   -20745.352    39778.857   -25801.861   -9659.6818   -9120.4498    13058.111    80.672846 
   67300    1397.9613   -115.96478    1.2649048   -114.69988   -16176.737    4.3227364    4.3227364    4.3227364   -16176.737   -39407.414    44403.069   -53525.867   -12070.028   -49756.626   -11732.073    80.774866 
   67400    1576.6982   -116.12038    1.4266296   -114.69375    17710.037    4.3122451    4.3122451    4.3122451    17710.037    3191.0925    51768.327   -1829.3078    7425.8588    17116.396    2927.1063    80.188171 
   67500    1502.0822   -116.05988    1.3591156   -114.70076   -1809.9261    4.3118355    4.3118355    4.3118355   -1809.9261   -20075.362    31416.824   -16771.241    2846.1982    3890.2776    18524.071    80.165326 
   67600    1059.0022    -115.6714    0.9582074    -114.7132    -23698.44    4.3194317    4.3194317    4.3194317    -23698.44   -32540.052   -3569.2443   -34986.025   -26183.585   -54188.886    6617.4723    80.589756 
   67700    1674.0993   -116.22256    1.5147602    -114.7078    19878.716    4.3134437    4.3134437    4.3134437    19878.716   -16452.022    41293.218    34794.952   -43.227978    5844.0416   -932.85709    80.255054 
   67800    1916.3508   -116.43743    1.7339545   -114.70347    -5085.603    4.3220446    4.3220446    4.3220446    -5085.603    -29035.06    16521.827   -2743.5756    8824.2016    17593.764   -2168.9465    80.736095 
   67900    896.09157   -115.52437   0.81080248   -114.71357   -17214.033    4.3212285    4.3212285    4.3212285   -17214.033   -39300.208   -18845.678    6503.7858   -31002.464   -46425.341    6907.2635    80.690369 
   68000    1443.6073   -116.01573    1.3062062   -114.70952   -5161.6598    4.3129274    4.3129274    4.3129274   -5161.6598   -23338.463    7282.0263    571.45724   -17999.552   -21889.201    98.816452     80.22624 
   68100    2044.3781   -116.55082    1.8497963   -114.70103    3344.9673    4.3173847    4.3173847    4.3173847    3344.9673    9742.2101    4849.1425   -4556.4507    15334.171    26111.712    9992.3242    80.475235 
   68200     878.9656   -115.50726   0.79530655   -114.71195   -15961.999    4.3233689    4.3233689    4.3233689   -15961.999   -36492.232   -22818.094    11424.329    -25543.83   -17504.954   -23211.647    80.810331 
   68300    1056.1576    -115.6618   0.95563362   -114.70617   -39958.726    4.3229084    4.3229084    4.3229084   -39958.726   -60367.784   -22139.884   -37368.511   -20062.959   -43328.828    11518.965    80.784508 
   68400    1764.3866   -116.29272    1.5964541   -114.69626    -4952.585    4.3153638    4.3153638    4.3153638    -4952.585     9230.072   -8659.7278   -15428.099    12181.328    15983.656    33376.411    80.362276 
   68500    1519.3686   -116.07783    1.3747566   -114.70307     4152.101    4.3099786    4.3099786    4.3099786     4152.101    19347.386   -14440.681    7549.5982   -3170.8537   -2257.1095   -28933.584    80.061799 
   68600    1004.7473   -115.62616   0.90911644   -114.71704   -14153.214    4.3149084    4.3149084    4.3149084   -14153.214   -55029.013    12629.377   -60.006657   -28857.315   -48094.534   -14085.289    80.336837 
   68700    1241.3708   -115.83799    1.1232184   -114.71477   -9515.4686    4.3215201    4.3215201    4.3215201   -9515.4686   -16880.738    12704.956   -24370.623   -2682.7226   -2807.0502    49448.136    80.706704 
   68800    1885.0852    -116.4069    1.7056647   -114.70124   -8651.6553    4.3170289    4.3170289    4.3170289   -8651.6553    1154.7012   -25624.093   -1485.5737    16977.876    14023.314    7693.9049    80.455339 
   68900    1252.6625   -115.84088    1.1334353   -114.70745    21304.862    4.3138804    4.3138804    4.3138804    21304.862    6522.8366    40412.885    16978.865   -12018.003   -21918.343   -40238.687    80.279433 
   69000    1430.3127   -116.00398     1.294177    -114.7098   -15627.225    4.3143036    4.3143036    4.3143036   -15627.225   -27856.926   -1569.6593   -17455.088   -17517.012   -23089.539    22331.275    80.303064 
   69100    1720.8624   -116.26409    1.5570725   -114.70702   -3669.5844    4.3123796    4.3123796    4.3123796   -3669.5844    1150.2857   -17209.432    5050.3931    3923.6404    17993.415    35680.467    80.195674 
   69200    1530.8182   -116.09667    1.3851165   -114.71155   -10195.364    4.3182611    4.3182611    4.3182611   -10195.364   -22043.114    8916.3138   -17459.291    -4226.952    7107.5039   -27598.087    80.524249 
   69300    1419.2072   -115.99612    1.2841285   -114.71199   -17558.715     4.324321     4.324321     4.324321   -17558.715   -20215.899   -21180.386   -11279.859   -14191.252   -38832.353   -20770.899    80.863733 
   69400    1999.1046   -116.50835    1.8088318   -114.69952   -310.80644    4.3216691    4.3216691    4.3216691   -310.80644   -14943.389   -21428.269    35439.239   -3442.6746   -10561.745    18093.085    80.715054 
   69500    1849.7101   -116.37844    1.6736565   -114.70479    13864.619    4.3080243    4.3080243    4.3080243    13864.619    15123.618   -10566.958    37037.196    17313.663    25023.165    1186.6683    79.952939 
   69600     1002.387   -115.63132   0.90698084   -114.72434   -3862.2965    4.3046965    4.3046965    4.3046965   -3862.2965   -17648.235    7897.4635   -1836.1184   -14302.884   -46064.153   -26383.387    79.767802 
   69700    1366.6817   -115.96447    1.2366023   -114.72787   -6936.1396    4.3259962    4.3259962    4.3259962   -6936.1396   -1630.8671   -25618.955    6441.4036   -4999.6213   -35494.923   -1147.4825    80.957743 
   69800    2163.0389   -116.65736    1.9571631    -114.7002   -20249.688    4.3315627    4.3315627    4.3315627   -20249.688   -28196.822   -41001.196    8448.9536    34374.495    26774.818    21315.946    81.270666 
   69900    1366.3622    -115.9388    1.2363132   -114.70249   -10735.242    4.3106582    4.3106582    4.3106582   -10735.242   -12157.777    15644.104   -35692.053    1598.9101   -29091.785   -31275.591    80.099678 
   70000    1270.0635   -115.85679    1.1491802   -114.70761     2516.549    4.3010048    4.3010048    4.3010048     2516.549    16853.909    23410.226   -32714.488   -3553.4729    -46902.68   -17386.904    79.562748 
   70100     1796.822   -116.33665    1.6258023   -114.71085    4631.9208    4.3152221    4.3152221    4.3152221    4631.9208    3516.0611   -12497.938     22877.64    5651.5886    10538.226    20806.087    80.354365 
   70200    1473.5212   -116.04793    1.3332729   -114.71466   -16969.316    4.3250966    4.3250966    4.3250966   -16969.316   -1938.2288   -27362.789    -21606.93     9818.134    -4382.822     7720.465    80.907249 
   70300    858.52731   -115.49422   0.77681355   -114.71741   -14755.168    4.3154382    4.3154382    4.3154382   -14755.168    5175.2895   -2906.5374   -46534.257   -389.58781   -46207.134   -29426.718    80.366433 
   70400    1358.6584   -115.94154    1.2293427    -114.7122    16330.441    4.3124949    4.3124949    4.3124949    16330.441    6651.7491    15181.381    27158.192   -19334.662    92.374087   -12554.663     80.20211 
   70500    2207.0707   -116.69771    1.9970039   -114.70071    1942.0836    4.3144347    4.3144347    4.3144347    1942.0836    19470.059   -15.193577   -13628.614    13276.327    9627.1854    27756.095    80.310382 
   70600    823.99717   -115.46663   0.74556996   -114.72106   -16209.482    4.3218761    4.3218761    4.3218761   -16209.482   -8861.9705   -8493.4706   -31273.005   -3729.4752   -46701.158   -25445.604    80.726653 
   70700    779.85347   -115.42616   0.70562781   -114.72053   -31571.389    4.3300953    4.3300953    4.3300953   -31571.389   -35591.343   -19567.878   -39554.946   -14235.832    1483.9728   -34498.304    81.188097 
   70800    1957.8234   -116.47273    1.7714798   -114.70125    11132.996    4.3112821    4.3112821    4.3112821    11132.996   -2213.0689    19486.533    16125.523   -2867.0522    29220.102    13718.406    80.134464 
   70900     1945.827   -116.46165    1.7606252   -114.70102     24207.27    4.3031638    4.3031638    4.3031638     24207.27     20117.69     41446.13     11057.99   -4897.4106   -33341.297   -5070.1101    79.682627 
   71000     1271.615   -115.86931    1.1505839   -114.71872    564.32955    4.3220458    4.3220458    4.3220458    564.32955    23739.538    11927.889   -33974.438    -1436.066   -15558.372   -34400.054     80.73616 
   71100    1527.5098   -116.09116    1.3821229   -114.70904   -9286.4373    4.3257031    4.3257031    4.3257031   -9286.4373    523.67872   -8390.9355   -19992.055   -1340.2443    19020.152   -10675.516    80.941291 
   71200    1925.7586   -116.44026    1.7424669    -114.6978    22966.164    4.3170935    4.3170935    4.3170935    22966.164    22922.354    3091.0802    42885.058   -8161.2203    16697.449    17623.531     80.45895 
   71300    1888.0618   -116.41065     1.708358   -114.70229     9710.891      4.31079      4.31079      4.31079     9710.891    44610.019   -14078.584   -1398.7626     1803.378   -9844.2011   -37473.846    80.107026 
   71400    1275.5438   -115.87006    1.1541388   -114.71592     6014.397    4.3077346    4.3077346    4.3077346     6014.397    23162.219   -36357.876    31238.848     5440.343    679.60826   -39714.445    79.936808 
   71500    1412.2562   -115.99585    1.2778391   -114.71801    3693.0271    4.3181444    4.3181444    4.3181444    3693.0271   -34773.662   -7551.3722    53404.116     10577.72    29006.273    14890.437    80.517725 
   71600    1702.6046    -116.2476    1.5405525   -114.70705    447.24395    4.3246539    4.3246539    4.3246539    447.24395    25672.837   -31066.625    6735.5205   -2819.5635   -6340.6831   -25485.489    80.882405 
   71700    1508.6324   -116.06524    1.3650423   -114.70019    6043.6287    4.3182947    4.3182947    4.3182947    6043.6287    20584.138   -42526.479    40073.227    9119.1121   -1564.2436   -49443.777     80.52613 
   71800    1582.4719    -116.1322    1.4318539   -114.70034    4100.1551    4.3094038    4.3094038    4.3094038    4100.1551    -20328.13   -5884.5372    38513.133    4451.5271    19526.467    12438.655    80.029771 
   71900    1310.7095   -115.89734    1.1859575   -114.71138    913.26203    4.3093845    4.3093845    4.3093845    913.26203   -14842.968   -11748.758    29331.512   -7593.9598    16508.784   -25469.073    80.028697 
   72000    1066.6008   -115.68743    0.9650828   -114.72235   -12128.836    4.3242838    4.3242838    4.3242838   -12128.836    39130.609   -29917.226   -45599.892    2410.9292    -6113.821   -67021.666    80.861643 
   72100    1978.5896   -116.49168    1.7902695   -114.70141   -11243.955    4.3186854    4.3186854    4.3186854   -11243.955   -17716.054   -4860.9658   -11154.844   -5660.8148   -23351.982    5897.4567    80.547991 
   72200    1453.3666   -116.01756    1.3150366   -114.70252    2113.4754    4.3092019    4.3092019    4.3092019    2113.4754   -2457.2052    7115.1266    1682.5046    14336.399    30060.362   -4722.7288    80.018524 
   72300    952.07849   -115.58041   0.86146062   -114.71895   -22255.287     4.318786     4.318786     4.318786   -22255.287    20667.651   -36601.553   -50831.958    -4594.034    2729.8921   -69034.187    80.553621 
   72400    1705.5381   -116.24661    1.5432067    -114.7034    2998.6711    4.3168309    4.3168309    4.3168309    2998.6711   -1088.5262     7378.707    2705.8324    1181.3939   -33893.499   -8532.4187    80.444268 
   72500    1836.5701   -116.36373    1.6617672   -114.70196   -3939.0181    4.3181784    4.3181784    4.3181784   -3939.0181   -17906.548   -6065.3831    12154.877    3538.4647   -2357.8936    6138.4894    80.519626 
   72600    1103.8282   -115.71074   0.99876696   -114.71197   -42333.304    4.3257376    4.3257376    4.3257376   -42333.304     11382.37   -72372.314   -66009.967   -12341.891    23188.118   -80321.112    80.943224 
   72700    1404.3589   -115.97463    1.2706935   -114.70394    14984.453    4.3114735    4.3114735    4.3114735    14984.453    39140.172   -6581.2525     12394.44    9076.3092   -4286.5835   -18471.538    80.145132 
   72800    2345.6419   -116.81842    2.1223861   -114.69603    7104.1751    4.3105236    4.3105236    4.3105236    7104.1751    12375.711    855.45448      8081.36   -184.65361   -36569.298    13123.728    80.092175 
   72900    1249.3501   -115.84026    1.1304382   -114.70982   -15307.122    4.3243007    4.3243007    4.3243007   -15307.122    16548.815   -55850.133    -6620.048    1611.4869    23831.646   -57435.331    80.862592 
   73000    1248.3927   -115.83704     1.129572   -114.70747   -10534.154    4.3203153    4.3203153    4.3203153   -10534.154    38005.747   -40194.871   -29413.337   -3792.1486    25164.863   -29933.365    80.639221 
   73100    2046.6006   -116.54512    1.8518072   -114.69331    24742.753    4.3121235    4.3121235    4.3121235    24742.753    33357.948   -17462.211    58332.522   -13867.133   -13565.147    32358.963    80.181388 
   73200    1545.4136   -116.10178    1.3983227   -114.70346     -30843.1    4.3250573    4.3250573    4.3250573     -30843.1    12548.628   -63943.923   -41134.005   -3570.4024    11720.331     -54281.7    80.905043 
   73300    1189.3791    -115.7828    1.0761752   -114.70663   -10064.845    4.3111889    4.3111889    4.3111889   -10064.845    60405.758   -40504.268   -50096.024   -3774.4007    12234.361   -30188.187    80.129267 
   73400    1605.4786   -116.15219    1.4526708   -114.69952    30556.632    4.3000025    4.3000025    4.3000025    30556.632    49132.968   -12665.161    55202.089    5535.4632    6569.3804    46631.436    79.507139 
   73500    1872.9464   -116.40126    1.6946813   -114.70658   -23425.441    4.3257265    4.3257265    4.3257265   -23425.441   -8656.2757    -60849.39   -770.65865   -6737.5063   -12542.807   -18271.337    80.942607 
   73600    1365.6429   -115.93812    1.2356624   -114.70245    843.00677    4.3209418    4.3209418    4.3209418    843.00677    18458.412   -37849.017    21919.626   -3486.6311    4659.7326   -21804.746    80.674306 
   73700    1236.3269   -115.82043    1.1186546   -114.70177    -11128.98    4.3117327    4.3117327    4.3117327    -11128.98    11104.934   -23284.515    -21207.36   -3248.0561    42993.446     44507.38    80.159588 
   73800    1608.3215   -116.15498    1.4552431   -114.69974   -5361.2027    4.3183752    4.3183752    4.3183752   -5361.2027   -5558.0619   -30055.576     19530.03   -6434.0394   -23622.975    11116.607    80.530636 
   73900    1781.8565   -116.30956    1.6122612    -114.6973   -14975.435    4.3150155    4.3150155    4.3150155   -14975.435   -22578.383   -21068.681   -1279.2415   -6393.4835   -13936.351   -14505.041    80.342821 
   74000    952.04247   -115.57396   0.86142803   -114.71253   -3329.2422    4.3103763    4.3103763    4.3103763   -3329.2422    33007.224    866.40977   -43861.361   -1811.1119    45547.053    34436.292    80.083963 
   74100    1397.1761   -115.97513    1.2641943   -114.71094    6277.5154    4.3175728    4.3175728    4.3175728    6277.5154     7478.027   -5701.7156    17056.235   -6378.1633    10013.777    21904.396    80.485752 
   74200    1865.6225   -116.38632    1.6880544   -114.69826    2527.9483    4.3214655    4.3214655    4.3214655    2527.9483    -9017.866    4646.0394    11955.671   -3635.5036   -37570.571    -11039.94    80.703646 
   74300    1058.5215   -115.66225   0.95777246   -114.70447    18865.437     4.309757     4.309757     4.309757    18865.437    42426.411    11720.822    2449.0773   -788.80691    29094.687    21692.339    80.049452 
   74400    1264.8852    -115.8504    1.1444947    -114.7059   -12210.111    4.3139813    4.3139813    4.3139813   -12210.111   -13713.955    10465.061   -33381.439   -9625.9053    45721.624     28470.96    80.285069 
   74500    1884.6627   -116.40458    1.7052824    -114.6993    21100.082    4.3131785    4.3131785    4.3131785    21100.082    10944.979     27524.77    24830.498    4898.7565    -23764.06   -7815.2964    80.240252 
   74600    1859.1094   -116.39377    1.6821613   -114.71161   -7049.0576    4.3140913    4.3140913    4.3140913   -7049.0576    7369.7833   -5989.1658    -22527.79   -2486.7452     892.6305    8690.8091    80.291208 
   74700    458.78067   -115.14694   0.41511439   -114.73183   -46727.804    4.3239077    4.3239077    4.3239077   -46727.804   -42678.547   -37391.379   -60113.486    2767.3514    60886.567    48567.501    80.840544 
   74800    1884.1205   -116.42537    1.7047919   -114.72058    560.80466    4.3022064    4.3022064    4.3022064    560.80466    12172.676   -1762.4085   -8727.8531    13975.891    3393.5469    3285.4471     79.62945 
   74900    2405.9974   -116.88342     2.176997   -114.70642     16898.19    4.3078015    4.3078015    4.3078015     16898.19    24298.002    15891.732    10504.835   -12065.488   -2933.6487   -6795.6611    79.940537 
   75000    1034.5675   -115.65376   0.93609838   -114.71766   -32214.559    4.3300181    4.3300181    4.3300181   -32214.559     335.0968   -30913.333   -66065.441    2185.1763    43080.123     38256.75    81.183753 
   75100    1537.0815   -116.08301    1.3907836   -114.69223     10763.89    4.3188581    4.3188581    4.3188581     10763.89    16470.089    -9809.735    25631.317   -3035.6653    22100.844    18956.069    80.557655 
   75200    2089.0533   -116.56652    1.8902193    -114.6763    18342.423    4.3142636    4.3142636    4.3142636    18342.423    40294.726    19386.185   -4653.6428    1434.9972   -31147.844    -12493.01    80.300831 
   75300    1082.6545   -115.67644   0.97960857   -114.69684   -16101.965     4.315862     4.315862     4.315862   -16101.965   -11700.096    -13906.07   -22699.729   -2113.1387    10082.769    38639.528    80.390115 
   75400    1167.6195   -115.76338    1.0564866   -114.70689    3311.2354    4.3077551    4.3077551    4.3077551    3311.2354    37750.448   -4847.0321    -22969.71   -10523.816    39283.447    38148.813    79.937951 
   75500    1855.8629   -116.38757    1.6792237   -114.70835    13123.712    4.3085066    4.3085066    4.3085066    13123.712    8608.1918    6657.7301    24105.215    9678.4873   -24703.545   -32091.482    79.979797 
   75600    1406.6869   -115.98573    1.2727999   -114.71293   -20623.283    4.3222577    4.3222577    4.3222577   -20623.283   -8193.8682   -10270.528   -43405.453    42.159991   -13165.663    19741.389    80.748034 
   75700    1184.7215    -115.7802    1.0719609   -114.70823   -16764.185    4.3220871    4.3220871    4.3220871   -16764.185    14831.632   -3125.3453   -61998.841    141.99957    25386.659    48946.977    80.738475 
   75800    1682.6949   -116.21692    1.5225377   -114.69439   -2586.4644    4.3109155    4.3109155    4.3109155   -2586.4644   -3709.6056    3429.9439   -7479.7314    -25352.77     4325.167   -32383.546     80.11402 
   75900    1411.8962   -115.97661    1.2775134    -114.6991   -8809.7161    4.3123681    4.3123681    4.3123681   -8809.7161    3366.8683   -16989.012   -12807.004   -3053.4112   -16910.289   -10861.792    80.195034 
   76000    1541.5567   -116.09377    1.3948329   -114.69894    4470.7417    4.3122824    4.3122824    4.3122824    4470.7417    42448.542      951.357   -29987.674    14905.163   -3959.1919    54938.323    80.190253 
   76100    1452.0266    -116.0133    1.3138241   -114.69947   -4716.3827    4.3176855    4.3176855    4.3176855   -4716.3827    5048.1277   -25736.463    6539.1871   -16527.185     9096.103   -24252.984    80.492056 
   76200    1158.3367    -115.7511    1.0480874   -114.70302    -25171.96    4.3229687    4.3229687    4.3229687    -25171.96   -18207.627   -56116.814    -1191.439   -10238.538   -3352.2105   -50825.785    80.787891 
   76300    1905.6059   -116.41757    1.7242322   -114.69334    8027.2733     4.304752     4.304752     4.304752    8027.2733     19108.53   -10452.664    15425.954    15148.833   -12364.131    24252.743    79.770883 
   76400    1470.8648   -116.03528    1.3308694   -114.70441    20063.933    4.3039655    4.3039655    4.3039655    20063.933    47296.142   -28300.079    41195.735   -8883.8771   -1382.5833   -11253.963    79.727169 
   76500    916.66128   -115.54666   0.82941439   -114.71725   -40640.378    4.3198819    4.3198819    4.3198819   -40640.378    -8858.009   -92712.836   -20350.287   -33418.823   -2216.3987   -62189.227    80.614955 
   76600    1503.5785   -116.06955    1.3604694   -114.70908    6276.8603    4.3118502    4.3118502    4.3118502    6276.8603    9170.3398   -3426.5659    13086.807    4579.3832    20778.589    4207.1475    80.166143 
   76700    1758.4196   -116.29108     1.591055   -114.70003    540.67552    4.3153565    4.3153565    4.3153565    540.67552    27520.728   -35511.365    9612.6634    15098.663   -2743.8323   -8491.8456    80.361869 
   76800    759.74336   -115.39524   0.68743176   -114.70781   -28577.108    4.3224824    4.3224824    4.3224824   -28577.108    61050.003   -93702.471   -53078.857   -20528.503   -24754.654   -71100.593    80.760633 
   76900     1693.835   -116.21581    1.5326175   -114.68319    17927.291    4.3159888    4.3159888    4.3159888    17927.291    41848.871     7621.696    4311.3048   -3922.9437    14051.201    10257.282    80.397198 
   77000    1700.2313   -116.21908     1.538405   -114.68068   -6004.2046    4.3245136    4.3245136    4.3245136   -6004.2046     37067.03   -35618.921   -19460.722    1946.0012   -12016.831   -17708.543    80.874535 
   77100    727.25229   -115.35841   0.65803315   -114.70038   -7758.4043     4.318683     4.318683     4.318683   -7758.4043     52767.33   -44980.849   -31061.694   -3465.0531   -28219.409   -51107.914    80.547856 
   77200     1607.117   -116.14761    1.4541532   -114.69345    9751.8135    4.3106661    4.3106661    4.3106661    9751.8135    10297.636    -13398.62    32356.424    -39900.95   -15946.663    8560.0297    80.100116 
   77300    1926.5742   -116.43717    1.7432048   -114.69397    18796.871    4.3177197    4.3177197    4.3177197    18796.871    39060.076   -10703.168    28033.705   -8164.8876   -2520.1228   -5339.3403    80.493967 
   77400    1327.5014   -115.89977    1.2011511   -114.69861    17097.372    4.3219448    4.3219448    4.3219448    17097.372    58495.669   -20473.611    13270.058    3648.2469   -21768.723   -43207.342    80.730499 
   77500    1472.2273   -116.01753    1.3321022   -114.68542    1788.5482    4.3344215    4.3344215    4.3344215    1788.5482   -15942.895   -8917.3411    30225.881   -27105.313   -27349.194    12032.012    81.431688 
   77600    2026.8709    -116.4861    1.8339554   -114.65214    -20394.57    4.3425597    4.3425597    4.3425597    -20394.57   -39187.732   -10594.392   -11401.588    9853.9704    14716.403    352.78056    81.891232 
   77700    1308.9814   -115.83908    1.1843939   -114.65468    -12721.01    4.3182421    4.3182421    4.3182421    -12721.01    -5670.661   -12073.134   -20419.235    2152.7064   -18361.006    -53843.75    80.523187 
   77800    1569.6045   -116.07877    1.4202112   -114.65856    20998.934    4.2989814    4.2989814    4.2989814    20998.934   -10649.294    42966.029    30680.067   -30005.612   -19637.534    779.87097    79.450511 
   77900    1766.0524   -116.28357    1.5979613   -114.68561   -12409.884    4.3180277    4.3180277    4.3180277   -12409.884   -35974.448    -5418.226    4163.0206    -15464.87    14736.869    4368.3106    80.511196 
   78000    1431.1898   -115.98753    1.2949706   -114.69256   -12951.627    4.3271408    4.3271408    4.3271408   -12951.627   -6651.1693    5467.7665   -37671.479    19613.658   -4208.2586   -34070.164    81.022025 
   78100    1398.2139   -115.95846    1.2651334   -114.69333   -18359.952    4.3223013    4.3223013    4.3223013   -18359.952   -28103.719     -27079.3    103.16255   -38196.205   -7864.4089   -4583.2377     80.75048 
   78200    1355.4051   -115.91451     1.226399   -114.68811   -9094.8817     4.316038     4.316038     4.316038   -9094.8817   -22141.611   -16746.451    11603.417   -37271.187    1748.1948    13247.323    80.399949 
   78300    1624.4609   -116.15161    1.4698464   -114.68176    6846.6369     4.305457     4.305457     4.305457    6846.6369    54403.526    -12387.56   -21476.056    24330.836    8056.7457   -28063.019    79.810086 
   78400    1061.5635   -115.65869   0.96052499   -114.69816   -15615.713    4.3174819    4.3174819    4.3174819   -15615.713   -36609.322   -31714.968     21477.15   -48222.116   -4994.0886   -11919.988     80.48067 
   78500    1249.8961   -115.82428    1.1309323   -114.69335   -27545.245    4.3272405    4.3272405    4.3272405   -27545.245   -76501.851   -26515.255    20381.372   -54040.091   -6307.1572    11067.609    81.027623 
   78600    1717.7964   -116.23809    1.5542983    -114.6838    2901.3598    4.3151754    4.3151754    4.3151754    2901.3598    54297.154   -13285.418   -32307.657    20321.869    4257.4209   -33852.455    80.351752 
   78700    1075.8868   -115.67203   0.97348503   -114.69854    443.76448    4.3041043    4.3041043    4.3041043    443.76448    23889.078   -43522.573    20964.789   -41898.171    1208.7453   -21917.129    79.734882 
   78800    1166.1484   -115.76155    1.0551556   -114.70639   -11759.374    4.3119878    4.3119878    4.3119878   -11759.374   -30970.504   -45414.131    41106.513    -63125.61   -4640.3172    12159.816    80.173821 
   78900    1462.6028   -116.01503    1.3233938   -114.69164   -10007.579    4.3293715    4.3293715    4.3293715   -10007.579    51295.045   -37582.975   -43734.806    16235.666    678.29853   -32242.713    81.147389 
   79000    1270.6121   -115.83636    1.1496765   -114.68668   -4448.5976    4.3243503    4.3243503    4.3243503   -4448.5976     37607.43   -27797.931   -23155.292   -15595.547    12449.361   -22196.773    80.865373 
   79100    1532.1033   -116.06465    1.3862792   -114.67837    953.16498    4.3105534    4.3105534    4.3105534    953.16498   -2370.9257   -36274.132    41504.553   -51325.658   -5223.4156     9592.809    80.093836 
   79200    1430.2044   -115.98056     1.294079   -114.68648   -2307.6328    4.3172614    4.3172614    4.3172614   -2307.6328    32251.374   -32431.959   -6742.3139    16137.776   -8551.5235    -27660.11    80.468341 
   79300    1415.8233   -115.97077    1.2810666    -114.6897   -12881.168     4.326999     4.326999     4.326999   -12881.168   -25.380757   -21946.117   -16672.006    6654.3699     4116.899   -27301.153    81.014058 
   79400    2132.0626   -116.60772     1.929135   -114.67858   -7078.3124    4.3225222    4.3225222    4.3225222   -7078.3124   -19738.067   -23430.721    21933.851   -32766.034    1736.0176    13911.069    80.762864 
   79500    1384.9037   -115.94015    1.2530899   -114.68706   -326.51822    4.3148624    4.3148624    4.3148624   -326.51822    37536.403   -35340.821   -3175.1366    1406.4409   -11734.187   -30385.193     80.33427 
   79600    863.30175   -115.48762   0.78113357   -114.70648   -2947.9645     4.319279     4.319279     4.319279   -2947.9645    49716.326   -39174.415   -19385.804    29769.883   -10816.355   -35785.572     80.58121 
   79700    2377.4671   -116.83822    2.1511822   -114.68704   -1005.5185    4.3203545    4.3203545    4.3203545   -1005.5185   -1775.8003   -21987.154    20746.399    13775.002    16074.922    10325.464    80.641417 
   79800    1707.2235   -116.23864    1.5447317   -114.69391    11767.511    4.3153571    4.3153571    4.3153571    11767.511    88409.293   -29026.238   -24080.523   -7093.8773    1954.9067   -27184.823    80.361906 
   79900    930.77971   -115.54712   0.84218905   -114.70493   -20706.781    4.3199731    4.3199731    4.3199731   -20706.781    18590.366    -29169.56   -51541.149    32187.479    -12498.03   -29150.873    80.620063 
   80000    1956.2425   -116.45844    1.7700494   -114.68839    9031.6539    4.3115121    4.3115121    4.3115121    9031.6539    4670.9891    10585.837    11838.136     21400.89   -6264.7571    8854.4449    80.147285 
   80100    1761.8098   -116.28962    1.5941225    -114.6955    1558.3883    4.3160653    4.3160653    4.3160653    1558.3883    53115.371   -34677.909   -13762.297   -26961.384    3161.8234   -31140.971    80.401477 
   80200      1313.17   -115.88386    1.1881838   -114.69568   -38094.705    4.3331124    4.3331124    4.3331124   -38094.705   -4723.8119   -41295.631   -68264.673    1086.4526   -10070.547   -28185.737    81.357926 
   80300    2236.7935   -116.69783    2.0238977   -114.67394    4391.2658    4.3150078    4.3150078    4.3150078    4391.2658    6783.9783    12670.148    -6280.329     12550.69   -15929.502    7928.3321     80.34239 
   80400    1497.6072   -116.04317    1.3550665   -114.68811   -7477.5144     4.311868     4.311868     4.311868   -7477.5144    34117.198   -58953.942    2404.2009   -22842.796    13178.067   -31933.156    80.167137 
   80500    1126.0715   -115.72149    1.0188932    -114.7026   -25837.217    4.3253791    4.3253791    4.3253791   -25837.217    25353.496   -50949.758   -51915.388   -24048.287   -9782.7143   -18211.434    80.923102 
   80600    2280.8249    -116.7451    2.0637383   -114.68137    10266.088    4.3187796    4.3187796    4.3187796    10266.088    22333.717    16782.152   -8317.6049    12104.384   -23438.643    17600.236    80.553258 
   80700    1499.6502   -116.04964    1.3569151   -114.69272   -7726.0634    4.3232514    4.3232514    4.3232514   -7726.0634    36820.655    -47738.04   -12260.805   -8633.9694   -298.91728   -22175.617     80.80374 
   80800    1173.9062   -115.76061     1.062175   -114.69843   -14233.901    4.3222971    4.3222971    4.3222971   -14233.901    51607.477   -56429.666   -37879.514   -30753.822     4655.133   -10839.177    80.750242 
   80900    1950.3806   -116.44757    1.7647453   -114.68282    24976.932    4.3134987    4.3134987    4.3134987    24976.932    41345.555    30907.694     2677.547    14563.973    2320.8904    17583.775    80.258125 
   81000    1310.3954   -115.88632    1.1856733   -114.70065   -4839.5023    4.3200107    4.3200107    4.3200107   -4839.5023     45969.77   -54277.163   -6211.1133    45091.784   -4217.7812   -35220.443    80.622168 
   81100    1372.7338   -115.93861    1.2420784   -114.69654   -15303.813     4.321502     4.321502     4.321502   -15303.813    8688.6565    -18760.42   -35839.676   -917.54903    9470.4932   -16081.438    80.705691 
   81200    1809.7238   -116.32897    1.6374761   -114.69149   -1710.1341    4.3163847    4.3163847    4.3163847   -1710.1341   -24155.982    21076.867   -2051.2879   -12241.985    24109.899    16766.435    80.419326 
   81300    1381.3311   -115.95347    1.2498574   -114.70361   -19985.537    4.3093501    4.3093501    4.3093501   -19985.537   -10280.235   -58914.793    9238.4186    39452.738   -3086.9559   -37870.049    80.026781 
   81400    1403.7947   -115.97792     1.270183   -114.70774   -4126.6194    4.3072896    4.3072896    4.3072896   -4126.6194    13270.396   -16929.895   -8720.3585    15886.641    4770.2416   -31262.332    79.912039 
   81500    1691.2424   -116.23428    1.5302717   -114.70401   -16134.447    4.3234386    4.3234386    4.3234386   -16134.447   -21481.053    188.48066   -27110.768   -6702.3206    38182.733    17361.205    80.814238 
   81600    1429.6456   -115.99775    1.2935734   -114.70417   -24310.863    4.3172899    4.3172899    4.3172899   -24310.863   -36029.577   -43403.244    6500.2324    27530.221    18859.816   -10358.344    80.469931 
   81700    1276.8225    -115.8581    1.1552958    -114.7028     17982.78    4.3017198    4.3017198    4.3017198     17982.78    58976.224   -24008.726    18980.841    24816.813   -8731.1138   -32525.402    79.602436 
   81800    1668.0905   -116.21376    1.5093234   -114.70444    5100.2649    4.3124707    4.3124707    4.3124707    5100.2649    13043.726    8793.8124   -6536.7434   -15295.061    8733.6832    11292.233    80.200756 
   81900    1531.7563   -116.08925    1.3859653   -114.70328   -9432.9267    4.3200091    4.3200091    4.3200091   -9432.9267   -26878.976   -3488.9732    2069.1688    16553.278    14986.733    3682.6673     80.62208 
   82000    984.82141   -115.59235   0.89108711   -114.70126    5599.2549    4.3208979    4.3208979    4.3208979    5599.2549    7858.7982    6375.2497    2563.7166    46378.635   -14078.561   -27040.774    80.671847 
   82100    1584.6647   -116.12571    1.4338379   -114.69187   -3082.3172    4.3186603    4.3186603    4.3186603   -3082.3172   -10946.158    5816.0748   -4116.8682   -8633.2695    3679.7559    15451.859    80.546584 
   82200    1957.2912   -116.46171    1.7709982   -114.69071    1309.9334    4.3068643    4.3068643    4.3068643    1309.9334   -20146.957    11199.133    12877.624   -9489.2717    17415.208     9022.004    79.888369 
   82300     906.2536    -115.5289    0.8199973    -114.7089    10860.885    4.3067388    4.3067388    4.3067388    10860.885    -7884.001    41826.907   -1360.2493    35659.372   -13758.158   -29422.348    79.881389 
   82400    1126.8354   -115.73634    1.0195844   -114.71675   -29135.185    4.3216301    4.3216301    4.3216301   -29135.185   -29420.792   -36016.444    -21968.32   -4554.1377   -17465.765    8460.0787    80.712868 
   82500    2187.3966   -116.66736    1.9792025   -114.68816   -20579.707    4.3230994    4.3230994    4.3230994   -20579.707    -37052.66    -24848.46    161.99779   -20122.169    985.38723    20334.655    80.795217 
   82600    1376.1422   -115.93249    1.2451624   -114.68732   -12556.006    4.3208469    4.3208469    4.3208469   -12556.006   -10122.355   -21849.381   -5696.2815    54922.132   -2958.6522   -26480.562     80.66899 
   82700    1125.6781    -115.7154    1.0185372   -114.69687   -25223.052    4.3158531    4.3158531    4.3158531   -25223.052   -21684.771   -27457.795    -26526.59    5260.7785   -15901.408   -7740.8071    80.389619 
   82800    1862.5136   -116.37684    1.6852414    -114.6916    3569.1983    4.3003864    4.3003864    4.3003864    3569.1983   -25309.886    24364.492    11652.989    -39987.21   -5864.9013    14548.482    79.528433 
   82900    1529.6503   -116.09498    1.3840597   -114.71092    14201.493    4.3112552    4.3112552    4.3112552    14201.493   -5750.9299    18204.379    30151.031    31036.535    8710.4163      -2787.7    80.132959 
   83000    1775.2308   -116.30771    1.6062662   -114.70144   -4522.6386    4.3262074    4.3262074    4.3262074   -4522.6386   -13720.397   -2503.7185    2656.1996    25501.628    425.52645   -15096.551    80.969601 
   83100      1299.23    -115.8811    1.1755706   -114.70553     15635.94    4.3086861    4.3086861    4.3086861     15635.94   -39321.664    32278.472    53951.013   -26928.046   -13319.672    7392.3766    79.989791 
   83200    1138.5547   -115.74076    1.0301882   -114.71057    8385.7864    4.3104681    4.3104681    4.3104681    8385.7864   -25063.576    43923.006    6297.9285    10692.102    11713.448    6816.0419    80.089079 
   83300    2193.4831   -116.67482    1.9847096   -114.69011   -961.07828    4.3202883    4.3202883    4.3202883   -961.07828   -22347.586    13367.557    6096.7938    18700.358    6382.5887   -5879.7856    80.637713 
   83400    1498.8509    -116.0573    1.3561918   -114.70111    8305.6469    4.3105904    4.3105904    4.3105904    8305.6469   -23725.714   -6620.1952     55262.85   -47349.518   -8078.7922    5891.7555    80.095897 
   83500    946.86521   -115.57117   0.85674354   -114.71443   -21268.101    4.3158573    4.3158573    4.3158573   -21268.101   -47432.975    18660.999   -35032.326   -19233.751    17176.135    8031.3443    80.389851 
   83600    1780.2994   -116.30932    1.6108523   -114.69847   -6057.8457    4.3114301    4.3114301    4.3114301   -6057.8457    7677.4686    10557.875   -36408.881    15073.399     9739.357   -2126.1648    80.142716 
   83700     1532.235   -116.09367    1.3863985   -114.70727   -1655.2114    4.3070794    4.3070794    4.3070794   -1655.2114    9424.4679    -52922.37    38532.268    -32628.29   -363.88605   -21445.128    79.900341 
   83800    1265.1503   -115.86232    1.1447345   -114.71758   -12052.095    4.3174005    4.3174005    4.3174005   -12052.095   -19096.642   -29368.196    12308.553   -31074.575   -826.90696   -8903.8784    80.476114 
   83900    1906.8108   -116.43511    1.7253224   -114.70979    2350.0022    4.3121413    4.3121413    4.3121413    2350.0022   -16452.748    16111.284    7391.4705    4509.1581    3300.0819    12217.695    80.182379 
   84000    1784.3223    -116.3242    1.6144923   -114.70971    9737.4553    4.3100531    4.3100531    4.3100531    9737.4553    39526.262   -34153.098    23839.202   -20093.345     1727.114   -12665.601    80.065951 
   84100    1216.2458   -115.82142    1.1004848   -114.72093   -23750.575    4.3159401    4.3159401    4.3159401   -23750.575   -23983.677   -78599.808    31331.759   -35041.314   -6882.5466   -18078.251    80.394478 
   84200    1503.9528   -116.07375    1.3608081   -114.71294    4995.3026    4.3117541    4.3117541    4.3117541    4995.3026    3450.9906   -10581.579    22116.496    19012.124   -713.93456    10434.235    80.160785 
   84300    1880.1495    -116.4083    1.7011988    -114.7071   -3683.8719    4.3156888    4.3156888    4.3156888   -3683.8719    8569.7853   -27416.037     7794.636   -14482.142   -2713.7143    13190.414    80.380437 
   84400    1675.8317   -116.22456    1.5163277   -114.70823   -6594.2509    4.3111794    4.3111794    4.3111794   -6594.2509   -35607.753   -42827.657    58652.656   -63490.461    4773.8625   -5836.5612    80.128737 
   84500    1542.6988   -116.10036    1.3958663    -114.7045    25699.689     4.307547     4.307547     4.307547    25699.689    36666.442    9453.6523    30978.972    9175.6585    7270.4327    -8457.394    79.926368 
   84600    1429.3008   -115.99733    1.2932614   -114.70407   -8376.1615    4.3233943    4.3233943    4.3233943   -8376.1615   -12430.997   -3828.4178   -8869.0698    17546.275     13857.91    18228.957    80.811755 
   84700    1051.5797   -115.66022   0.95149144   -114.70873   -9752.2545    4.3189468    4.3189468    4.3189468   -9752.2545     -28431.8   -19945.804    19120.841   -64017.149    5005.6242    14067.908    80.562617 
   84800    1745.8612   -116.27518    1.5796919   -114.69549    32633.138     4.300617     4.300617     4.300617    32633.138    27932.743    15335.418    54631.253   -18196.526   -7124.8835    -12309.68    79.541228 
   84900    1716.7997    -116.2609    1.5533965   -114.70751    4420.3264    4.3100321    4.3100321    4.3100321    4420.3264   -17882.366    10518.405    20624.941    21186.573    18585.519   -3028.9992     80.06478 
   85000    581.32302   -115.24623   0.52599328   -114.72024   -24007.357    4.3247835    4.3247835    4.3247835   -24007.357    -35532.56   -51345.779    14856.266   -46063.666    25579.655    9395.0402    80.889678 
   85100    1468.0152   -116.02733     1.328291   -114.69904   -6702.5549    4.3206126    4.3206126    4.3206126   -6702.5549   -28299.109   -16851.204    25042.648   -21505.433   -18903.697   -2305.7617     80.65587 
   85200    1823.1651    -116.3309    1.6496381   -114.68126   -9682.1634    4.3246382    4.3246382    4.3246382   -9682.1634   -28735.855   -1771.8261    1461.1904    9710.1177   -7756.9864   -9326.7626    80.881525 
   85300    971.27872   -115.55941   0.87883339   -114.68057   -14175.388    4.3236755    4.3236755    4.3236755   -14175.388   -22381.297   -25116.386    4971.5185   -41707.281    32176.414    10854.542    80.827522 
   85400    1187.0549   -115.75366    1.0740722   -114.67959    9055.6259    4.3139611    4.3139611    4.3139611    9055.6259   -29855.011    8934.4214    48087.467   -21113.068   -25993.466     3083.761    80.283942 
   85500    1620.7002   -116.15499    1.4664436   -114.68855    6069.9694    4.3179348    4.3179348    4.3179348    6069.9694   -10542.418    13742.996    15009.331    9321.7913    -53316.35   -7130.9548    80.505996 
   85600    1630.9392   -116.16877     1.475708   -114.69306      9812.89    4.3143704    4.3143704    4.3143704      9812.89    170.60997   -12333.392    41601.452   -23474.672    19475.638    1770.8515    80.306793 
   85700    889.30178   -115.51507   0.80465894   -114.71041   -1231.2962    4.3129145    4.3129145    4.3129145   -1231.2962   -23420.744    15286.474     4440.382   -30620.848   -9602.7686    4052.4753     80.22552 
   85800    1268.3118   -115.85707    1.1475952   -114.70947    -10259.76    4.3197394    4.3197394    4.3197394    -10259.76   -29838.795    30256.031   -31196.516   -522.46431   -56784.252   -3457.8344    80.606979 
   85900    1886.8451   -116.40362    1.7072571   -114.69637    1950.4505    4.3148714    4.3148714    4.3148714    1950.4505   -17756.102   -25406.382    49013.836    1213.1431    1723.5465   -2957.6002    80.334773 
   86000    1580.6915   -116.13237    1.4302429   -114.70212   -5894.5445    4.3093183    4.3093183    4.3093183   -5894.5445    -26915.04   -21732.463     30963.87   -14567.914    2350.3887    1729.9982    80.025009 
   86100    1298.3445    -115.8854    1.1747694   -114.71063   -14699.247    4.3150129    4.3150129    4.3150129   -14699.247   -52809.028    27471.781   -18760.494   -8852.3617   -47193.827    6309.9294    80.342677 
   86200    1616.9719   -116.16648    1.4630702   -114.70341   -8028.6631    4.3152692    4.3152692    4.3152692   -8028.6631   -24154.812   -23306.294    23375.117    25416.098    -10222.67   -10340.619    80.356993 
   86300    1770.7395   -116.30003    1.6022023   -114.69783   -9093.2922    4.3074289    4.3074289    4.3074289   -9093.2922   -11993.573   -39589.242    24302.939    9653.1961   -472.23352   -18387.986    79.919794 
   86400    1224.3593   -115.81649    1.1078261   -114.70866   -7893.9298    4.3170021    4.3170021    4.3170021   -7893.9298   -10104.314    17248.857   -30826.332   -22487.263   -61254.252    4232.8997    80.453838 
   86500    1747.2743   -116.27622    1.5809705   -114.69525   -13523.152    4.3200627    4.3200627    4.3200627   -13523.152    -15105.27    4660.3982   -30124.584    7490.2494   -19258.091   -265.31669     80.62508 
   86600    1739.3721   -116.26374    1.5738204   -114.68992    22193.083    4.3088086    4.3088086    4.3088086    22193.083    24860.981    -4780.763     46499.03    26051.917    19648.853   -9445.9837    79.996613 
   86700    924.15107   -115.53968   0.83619131   -114.70349    -15495.21    4.3218561    4.3218561    4.3218561    -15495.21   -39135.913    22988.016   -30337.733   -13033.302   -71026.948    2277.0219    80.725528 
   86800    1658.8884   -116.18758    1.5009971   -114.68658   -16249.862    4.3261639    4.3261639    4.3261639   -16249.862   -24362.743    4159.1951   -28546.038   -13294.039   -31222.136    -2459.762    80.967158 
   86900    1842.5733   -116.33998    1.6671991   -114.67278    10639.432    4.3140384    4.3140384    4.3140384    10639.432    14254.116   -17099.779     34763.96    10177.245    15964.324   -14355.448    80.288253 
   87000    951.20406   -115.55408   0.86066942   -114.69341   -20578.476    4.3168636    4.3168636    4.3168636   -20578.476   -39087.454    10725.643   -33373.616   -4586.8508   -63363.929   -11488.388      80.4461 
   87100    1270.1853   -115.84765    1.1492904   -114.69836   -9828.9278    4.3139703    4.3139703    4.3139703   -9828.9278   -19843.929    11672.297   -21315.152   -12917.548   -24042.247    1293.6456    80.284453 
   87200    1820.5313   -116.34515     1.647255    -114.6979    530.63209    4.3056902    4.3056902    4.3056902    530.63209    16080.239   -1076.8082   -13411.534    856.18393      41287.4   -707.62578    79.823055 
   87300    1341.9887   -115.92585    1.2142596   -114.71159   -15535.799    4.3124184    4.3124184    4.3124184   -15535.799   -24474.053    15522.911   -37656.256    10079.885   -42144.483   -11152.002    80.197839 
   87400    1397.3818   -115.96981    1.2643804   -114.70543   -13222.056    4.3189006    4.3189006    4.3189006   -13222.056   -32830.439    11387.736   -18223.466   -9462.1409   -47637.251    955.88847    80.560032 
   87500    1257.3198   -115.83822    1.1376493   -114.70057   -13271.454     4.319924     4.319924     4.319924   -13271.454   -30640.147    7775.5766   -16949.791   -13300.347    48162.904    6553.5112    80.617315 
   87600    1484.5212    -116.0407     1.343226   -114.69748    26.808585    4.3118237    4.3118237    4.3118237    26.808585   -1020.5772    12779.764   -11678.761   -3674.4488    22295.094   -12792.537    80.164665 
   87700    2137.4109   -116.62576    1.9339743   -114.69179    3188.0681    4.3081676    4.3081676    4.3081676    3188.0681   -4175.4119    6217.5576    7522.0585   -7899.0735   -34486.164   -6576.3225    79.960916 
   87800    1048.2774   -115.65945   0.94850344   -114.71095   -19551.615     4.315908     4.315908     4.315908   -19551.615   -21918.888   -7865.3224   -28870.635   -10615.952    42290.625    21928.351    80.392685 
   87900    998.31852    -115.6216   0.90329957    -114.7183   -12225.805    4.3137807    4.3137807    4.3137807   -12225.805   -1138.6274    6499.1126   -42037.901   -2863.4147    51872.823   -606.20012    80.273868 
   88000    2425.5307   -116.89565    2.1946712   -114.70098     3620.418    4.3094213    4.3094213    4.3094213     3620.418    23682.236   -9867.6111   -2953.3706    15616.123   -20665.768   -21491.442    80.030744 
   88100     1674.767   -116.22639    1.5153643   -114.71103   -13250.722    4.3143521    4.3143521    4.3143521   -13250.722   -7125.2963   -16508.031   -16118.838   -13164.065    9838.4923    19457.885    80.305769 
   88200    1075.7211    -115.6932   0.97333502   -114.71986   -11393.747    4.3096948    4.3096948    4.3096948   -11393.747    -17531.24      8107.91   -24757.911   -17267.534    64415.352    12337.354    80.045985 
   88300    2030.9334   -116.53979    1.8376312   -114.70216     15075.76    4.3100035    4.3100035    4.3100035     15075.76   -1621.7202    34823.202    12025.797    7545.1264   -6024.6831   -14858.104    80.063186 
   88400    1800.1167   -116.32982    1.6287834   -114.70104     -9330.06    4.3196893    4.3196893    4.3196893     -9330.06   -20662.178    1120.5463   -8448.5479   -4392.2687   -32848.978    4896.4071    80.604176 
   88500    1043.1236   -115.65202   0.94384015   -114.70818   -5217.0808     4.313571     4.313571     4.313571   -5217.0808   -16125.942   -54.185046    528.88423    -11846.09    40007.387    14090.735    80.262163 
   88600    1709.0511   -116.24468    1.5463853   -114.69829     13457.07    4.3088068    4.3088068    4.3088068     13457.07   -9951.0605    24034.231    26288.039    829.54793    17245.873    15476.842    79.996516 
   88700    2079.1652   -116.57503    1.8812724   -114.69376      19048.8    4.3053787    4.3053787    4.3053787      19048.8   -4819.0375    23894.111    38071.327    3147.4819   -35212.196   -10339.355    79.805731 
   88800    1172.7737   -115.77898    1.0611503   -114.71783    649.14374    4.3083911    4.3083911    4.3083911    649.14374   -25311.081    24713.768    2544.7444   -8564.8948    35965.052    7958.8049    79.973366 
   88900    932.46773   -115.55922    0.8437164   -114.71551   -12227.739    4.3184884    4.3184884    4.3184884   -12227.739   -23422.271    28268.159   -41529.105   -17660.207    31515.032     27999.75     80.53697 
   89000    1696.1679   -116.22368    1.5347284   -114.68895    18162.828    4.3163443    4.3163443    4.3163443    18162.828    8942.8387    2139.3371    43406.307    6463.8093   -13957.319   -18483.591    80.417067 
   89100    1298.9347   -115.87011    1.1753034   -114.69481   -19422.288    4.3154665    4.3154665    4.3154665   -19422.288   -15189.303    7148.1413   -50225.702   -327.40538    39813.683   -20120.509    80.368017 
   89200    934.51336   -115.54442   0.84556732   -114.69885   -2645.0699     4.308769     4.308769     4.308769   -2645.0699    -19134.94    47934.864   -36735.133   -20702.518    32552.098    23352.147    79.994407 
   89300    1718.6877   -116.25331    1.5551047   -114.69821    6399.7925    4.3027718    4.3027718    4.3027718    6399.7925    27297.286   -8516.1096    418.20163    10101.733   -13527.275   -4933.4316    79.660849 
   89400     1404.937   -115.97601    1.2712165   -114.70479    9256.6237    4.3124072    4.3124072    4.3124072    9256.6237    20812.005    33088.491   -26130.624    2358.2367    25015.413   -20482.697    80.197218 
   89500    1361.3584   -115.93534    1.2317857   -114.70356   -12750.272    4.3183668    4.3183668    4.3183668   -12750.272   -53186.471    34696.177    -19760.52   -19268.606    39096.957    10830.843    80.530163 
   89600     1424.057   -115.98692    1.2885167    -114.6984    213.28833    4.3126585    4.3126585    4.3126585    213.28833   -5733.3848    5137.9316    1235.3182   -22239.151   -11144.775    13095.879    80.211236 
   89700    1962.1006   -116.46866    1.7753499   -114.69331   -2272.2541     4.309028     4.309028     4.309028   -2272.2541    8804.3618    4663.0209   -20284.145    8055.0774    6100.1051   -17103.968    80.008836 
   89800    1525.8978   -116.08033    1.3806644   -114.69966   -3729.4586    4.3122363    4.3122363    4.3122363   -3729.4586   -36006.897    30210.756    -5392.235   -11378.254    33882.589   -6697.0136    80.187679 
   89900    1173.2859   -115.76873    1.0616137   -114.70711   -21575.124    4.3156395    4.3156395    4.3156395   -21575.124   -38174.077   -57793.319    31242.024   -58938.468    8057.3451    34424.489     80.37768 
   90000    1859.6845   -116.38401    1.6826816   -114.70133    2558.7291    4.3142999    4.3142999    4.3142999    2558.7291    10706.963   -13864.157    10833.382    10614.499   -17736.941    8630.6986    80.302856 
   90100     1888.301    -116.4055    1.7085744   -114.69692   -4387.5538    4.3130295    4.3130295    4.3130295   -4387.5538    1778.1277   -10951.197   -3989.5919   -9327.2226    5061.8945    -17998.54    80.231941 
   90200    751.63856   -115.39368   0.68009837   -114.71359    4040.4281    4.3092066    4.3092066    4.3092066    4040.4281    19848.167   -55067.344    47340.461   -62596.319    21001.666    13806.333    80.018784 
   90300    1598.7869   -116.15899     1.446616   -114.71238    8284.0811    4.3144495    4.3144495    4.3144495    8284.0811    48634.828   -30518.166     6735.582   -1062.4588   -4116.5464    31090.824     80.31121 
   90400    2150.8857   -116.64127    1.9461666    -114.6951    8567.5766    4.3213937    4.3213937    4.3213937    8567.5766    25438.582    13797.342   -13533.194    14403.351    2185.8867    -8200.815    80.699622 
   90500    1194.3414   -115.79847    1.0806652   -114.71781    -2382.608    4.3070253    4.3070253    4.3070253    -2382.608   -16856.364   -15323.976    25032.516   -52815.919    14266.359    1581.5024    79.897328 
   90600    1102.3701   -115.71828   0.99744759   -114.72083    3509.7077    4.3055034    4.3055034    4.3055034    3509.7077    9059.3217   -8519.5864    9989.3878   -31061.593    2504.2605    48396.701    79.812666 
   90700    2294.3184   -116.77287    2.0759475   -114.69692   -2047.6107    4.3222105    4.3222105    4.3222105   -2047.6107    10796.844    -1726.376     -15213.3    15488.272   -14189.574    11087.065    80.745391 
   90800    1459.7601   -116.01579    1.3208216   -114.69497   -18756.007    4.3284416    4.3284416    4.3284416   -18756.007   -55421.308    5889.9398   -6736.6537   -44918.107    6127.9962   -4977.3488    81.095112 
   90900    1081.6306   -115.66722   0.97868214   -114.68854   -22422.637     4.320864     4.320864     4.320864   -22422.637   -19690.667   -30226.147   -17351.098   -44423.836    7543.8465     37176.81    80.669952 
   91000    2020.0367   -116.49774    1.8277717   -114.66997     18507.93    4.3098137    4.3098137    4.3098137     18507.93    24729.568    30750.781    43.439555    19513.862   -10681.177    12179.782    80.052609 
   91100    1216.2468   -115.79008    1.1004856   -114.68959   -9255.0356    4.3195998    4.3195998    4.3195998   -9255.0356   -51916.982    12517.663    11634.213   -36915.543    11763.816   -15739.719    80.599164 
   91200    838.09083   -115.46351    0.7583222   -114.70519   -27402.643    4.3195289    4.3195289    4.3195289   -27402.643   -40298.285    -19540.02   -22369.625   -41041.152    19374.354    21709.468    80.595196 
   91300    2095.9197   -116.58451    1.8964322   -114.68808    24705.616    4.2961468    4.2961468    4.2961468    24705.616     33632.11    54527.317   -14042.579    20766.626    7482.3371    24485.098    79.293453 
   91400    1321.5632   -115.90521    1.1957782   -114.70944    -12593.41    4.3083509    4.3083509    4.3083509    -12593.41   -41278.142   -25571.388      29069.3   -37295.981   -6210.9896   -16165.673    79.971124 
   91500    1029.4111   -115.64119   0.93143278   -114.70976   -36279.341    4.3232595    4.3232595    4.3232595   -36279.341   -71110.443   -34301.007   -3426.5737   -44078.587     9388.188   -3187.5702    80.804199 
   91600    2182.9211    -116.6696    1.9751529   -114.69444    11470.862    4.3122829    4.3122829    4.3122829    11470.862   -31051.941    80034.279   -14569.752     23438.46    3767.2021    9770.0805    80.190281 
   91700     1572.812   -116.12902    1.4231133    -114.7059    25428.639    4.2956267    4.2956267    4.2956267    25428.639   -43315.248    71206.707    48394.458   -45083.347   -14662.821    2439.4085    79.264662 
   91800    1163.6277   -115.77775    1.0528748   -114.72487   -8531.4752    4.3063359    4.3063359    4.3063359   -8531.4752   -50966.311    10803.378    14568.508   -41156.823    1384.0761   -13882.937     79.85897 
   91900    2006.8899   -116.51994    1.8158762   -114.70407   -19571.082    4.3246263    4.3246263    4.3246263   -19571.082    -27063.81   -5191.9291   -26457.507     36612.51    6404.2805   -26066.856    80.880856 
   92000     1744.888   -116.27981    1.5788113     -114.701    14688.776    4.3097911    4.3097911    4.3097911    14688.776   -18309.401    40663.051    21712.678   -19570.234   -13986.333    -381.4025    80.051349 
   92100    1227.5964   -115.81731     1.110755   -114.70656    9470.6496    4.3039961    4.3039961    4.3039961    9470.6496   -35361.839    40364.357    23409.431   -51744.811   -5642.4553    7604.9467    79.728869 
   92200    1840.6352   -116.36746    1.6654454   -114.70202   -3287.0008    4.3087514    4.3087514    4.3087514   -3287.0008   -9180.4708    7894.9182   -8575.4497    20921.381    10918.734    -9106.343    79.993427 
   92300    2009.2392   -116.51839    1.8180019   -114.70039    28128.848    4.3007633    4.3007633    4.3007633    28128.848    27483.063    40829.322    16074.158    7105.5845   -11599.007    1203.1104    79.549348 
   92400    838.51822   -115.48531    0.7587089    -114.7266    -21646.29    4.3161859    4.3161859    4.3161859    -21646.29   -43224.696   -16467.184   -5246.9883   -44296.047   -13123.882     6784.746    80.408216 
   92500    1771.5649   -116.31557    1.6029492   -114.71262   -24813.884    4.3187014    4.3187014    4.3187014   -24813.884   -22057.932   -19426.212   -32957.508   -17375.547    23744.934    1385.5898    80.548887 
   92600     2547.199   -116.99641    2.3047591   -114.69165    27946.867    4.3040214    4.3040214    4.3040214    27946.867    36188.094    28655.513    18996.994    17959.936   -3568.7532   -9219.9817    79.730273 
   92700    1150.0101   -115.75861    1.0405533   -114.71806   -18289.472    4.3134988    4.3134988    4.3134988   -18289.472   -38187.759   -4134.6646   -12545.991   -32409.234   -25121.474    4496.3057    80.258129 
   92800    1332.5974   -115.91482    1.2057622   -114.70905   -5865.6431    4.3178123    4.3178123    4.3178123   -5865.6431   -19030.065    33407.645   -31974.509   -35408.201    1066.0438    10169.832    80.499148 
   92900    2132.6046   -116.62394    1.9296254   -114.69431    19825.909    4.3105813    4.3105813    4.3105813    19825.909    24206.813    27692.094    7578.8191    36627.871     7625.257   -8631.0067    80.095389 
   93000    1439.3874   -116.01043    1.3023879   -114.70804   -619.97055    4.3041193    4.3041193    4.3041193   -619.97055   -27335.342    3892.4447    21582.986    1245.2323   -8370.6888   -12120.092    79.735718 
   93100    1507.0147   -116.07723    1.3635786   -114.71365   -9386.0233    4.3057873    4.3057873    4.3057873   -9386.0233   -25164.392   -3456.6024    462.92427   -58145.856   -21093.359    10121.856    79.828456 
   93200    2132.2529   -116.63636    1.9293072   -114.70705    18250.898    4.3117006    4.3117006    4.3117006    18250.898    9561.0891    29476.577    15715.027    10454.154     2114.073    4445.7072      80.1578 
   93300    1532.5582   -116.10099    1.3866909    -114.7143    8045.5894    4.3107471    4.3107471    4.3107471    8045.5894   -28001.035    10067.713    42070.089    17454.472   -966.16682   -20123.727    80.104632 
   93400    983.49986   -115.60217   0.88989135   -114.71228    183.76585    4.3121318    4.3121318    4.3121318    183.76585   -49421.936    31388.219    18585.015   -49428.587   -27924.859     -629.843    80.181852 
   93500     1978.907   -116.48338    1.7905566   -114.69283   -6788.0134    4.3153555    4.3153555    4.3153555   -6788.0134   -35063.366    14560.782    138.54443   -16791.843    6928.3327    10217.924    80.361816 
   93600     1400.226   -115.96573     1.266954   -114.69878    25714.814    4.3009008    4.3009008    4.3009008    25714.814   -6013.2131    38835.078    44322.576    18146.052    23354.211   -9631.7107    79.556977 
   93700    1188.4695   -115.78516    1.0753522    -114.7098   -11599.118    4.3059708    4.3059708    4.3059708   -11599.118   -35246.603   -51181.831    51631.082   -37913.282   -164.86103   -12285.534     79.83866 
   93800    1924.4915   -116.43742    1.7413203    -114.6961   -10674.226     4.316803     4.316803     4.316803   -10674.226   -45044.398   -14388.198    27409.919   -11925.144   -3099.9383   -85.046229    80.442711 
   93900    1204.4586   -115.79145    1.0898194   -114.70163   -8200.7354    4.3149972    4.3149972    4.3149972   -8200.7354   -28705.065   -17332.373    21435.232    3954.3074    16845.947    25455.376    80.341798 
   94000    885.14366    -115.5064   0.80089658    -114.7055     -20920.1    4.3132749    4.3132749    4.3132749     -20920.1   -32550.368   -44358.088    14148.156   -34865.093    16309.949   -5753.2991    80.245634 
   94100    1655.2174    -116.1918    1.4976755   -114.69412    5352.9301     4.305755     4.305755     4.305755    5352.9301   -33917.775   -5019.6099    54996.175   -13156.324   -22991.552   -17095.749    79.826658 
   94200    1254.9234   -115.83977    1.1354811   -114.70429   -15375.561    4.3070443    4.3070443    4.3070443   -15375.561   -34648.198   -8808.7424   -2669.7423    14532.066   -16127.402    31616.302     79.89839 
   94300    983.04066   -115.59686   0.88947585   -114.70739   -17856.898    4.3116949    4.3116949    4.3116949   -17856.898   -22894.505   -28980.835   -1695.3539   -9288.9181    19789.196    16463.833     80.15748 
   94400    1504.5683   -116.05844     1.361365   -114.69707    1855.9347    4.3100645    4.3100645    4.3100645    1855.9347   -37989.031    26091.932    17464.903   -20531.308    -26394.49   -4220.4142    80.066586 
   94500    1016.8085   -115.61936    0.9200297   -114.69934   -10331.902    4.3138904    4.3138904    4.3138904   -10331.902   -39262.446    35646.033   -27379.293    11740.028   -50206.471    10561.433    80.279991 
   94600    1266.6112   -115.83296    1.1460565   -114.68691    -12546.53    4.3168661    4.3168661    4.3168661    -12546.53   -6454.9036   -19000.614   -12184.073    5166.2094    24639.676    19940.532    80.446238 
   94700    1134.5285   -115.71424    1.0265452   -114.68769   -15560.871    4.3136976    4.3136976    4.3136976   -15560.871   -49595.766    19153.076   -16239.923   -11312.622    -33897.36     4411.134    80.269229 
   94800    1010.0866    -115.6085   0.91394759   -114.69455   -574.75218    4.3077705    4.3077705    4.3077705   -574.75218   -57744.304    49294.192    6725.8547    1013.7974   -72749.032   -6474.6417    79.938809 
   94900     2045.407   -116.53383    1.8507272    -114.6831    12587.906    4.3012472    4.3012472    4.3012472    12587.906   -2437.5698    7914.3383    32286.951    2188.5528    24734.414    11116.443    79.576201 
   95000    886.28514    -115.5111   0.80192942   -114.70917    4024.2337    4.3095599    4.3095599    4.3095599    4024.2337   -32733.736    4346.9604    40459.477   -1120.9761   -42246.299    19259.725    80.038465 
   95100    1045.5801   -115.65486   0.94606288    -114.7088   -30987.233    4.3237769    4.3237769    4.3237769   -30987.233   -76859.639    5640.1883    -21742.25   -8334.1323   -59297.148   -3884.2135    80.833212 
   95200    2103.8194    -116.5901      1.90358   -114.68652    12864.766    4.3113069    4.3113069    4.3113069    12864.766   -11765.114    2274.8528     48084.56    1676.2762    37900.654   -14301.088    80.135846 
   95300    1286.6801   -115.86016    1.1642152   -114.69594    7963.3825    4.3024736    4.3024736    4.3024736    7963.3825   -13403.131     42308.69   -5015.4118    6350.3713   -46642.946    16963.473    79.644288 
   95400    1316.4516   -115.89243    1.1911531   -114.70127   -15365.233    4.3132559    4.3132559    4.3132559   -15365.233   -20759.366    13667.088   -39003.421   -9810.1179   -50464.684    17122.371    80.244573 
   95500    2265.5212   -116.73359    2.0498912   -114.68369    7196.1624    4.3161151    4.3161151    4.3161151    7196.1624     9861.571    8902.7573     2824.159    630.85334    34575.407    3572.5287     80.40426 
   95600    1509.5666   -116.06271    1.3658876   -114.69682   -6910.6091    4.3155454    4.3155454    4.3155454   -6910.6091   -30639.227    70488.283   -60580.883     1032.098   -50503.491   -1556.7824    80.372423 
   95700    1375.6915   -115.94013    1.2447546   -114.69538   -5082.6908    4.3130975    4.3130975    4.3130975   -5082.6908    1403.5515    15400.732   -32052.356    5563.4242   -45851.369     29099.54    80.235735 
   95800     2256.555   -116.72725    2.0417784   -114.68547    4642.4713    4.3064596    4.3064596    4.3064596    4642.4713     48645.77   -13326.003   -21392.352    2373.1437    28882.603    28638.474    79.865854 
   95900    1206.6388   -115.79758    1.0917922   -114.70579    281.31434    4.3072937    4.3072937    4.3072937    281.31434   -28096.542    60194.499   -31254.014   -10877.337    -50613.93   -9246.2516    79.912268 
   96000    1561.4059    -116.1146    1.4127928   -114.70181   -7797.3497    4.3158634    4.3158634    4.3158634   -7797.3497   -20278.224    50478.378   -53592.203    600.89508   -30866.946    7117.0447    80.390192 
   96100    2175.3991   -116.65174    1.9683468   -114.68339    1038.2355    4.3192087    4.3192087    4.3192087    1038.2355    15017.733   -5554.9128   -6348.1134   -2782.7798    13356.164    11675.431    80.577271 
   96200    1063.5695   -115.66464   0.96233999    -114.7023   -14009.514    4.3103327    4.3103327    4.3103327   -14009.514   -34069.657    30444.983   -38403.867    1154.6663    -82568.92    22.112038    80.081533 
   96300    1214.9614   -115.80176    1.0993226   -114.70244    12816.367    4.3002183    4.3002183    4.3002183    12816.367    5068.1966    62406.172   -29025.269    888.65939   -11102.328   -8264.9411    79.519108 
   96400    1955.7659   -116.46459    1.7696181   -114.69498    4528.1073    4.3116758    4.3116758    4.3116758    4528.1073   -15608.854    15034.497    14158.678    794.49601    39461.907    4953.1051    80.156415 
   96500    943.47729   -115.55352   0.85367808   -114.69984   -14888.364    4.3225169    4.3225169    4.3225169   -14888.364   -54562.515    23648.645   -13751.222    1098.9322    -78847.13    2005.8969    80.762566 
   96600    1554.8002   -116.09207    1.4068159   -114.68525   -7543.9825    4.3148271    4.3148271    4.3148271   -7543.9825    -27909.14    12422.115    -7144.923    1861.8772   -18596.677    2336.5073    80.332297 
   96700    1626.6672    -116.1484    1.4718427   -114.67656    3199.8068    4.3104211    4.3104211    4.3104211    3199.8068   -17061.825    24721.548    1939.6977    1014.3659    22511.093   -5728.6426    80.086459 
   96800    1129.6219   -115.70925    1.0221056   -114.68715   -17308.981    4.3105518    4.3105518    4.3105518   -17308.981   -58827.385    51766.266   -44865.823    833.90877   -73503.083   -6743.9066    80.093746 
   96900    1876.1708   -116.38003    1.6975988   -114.68243    7696.6869     4.311772     4.311772     4.311772    7696.6869   -30277.823    22170.338    31197.545    2779.9267   -13707.257    7740.3582     80.16178 
   97000    1344.7406   -115.90798    1.2167496   -114.69123   -14786.231     4.319904     4.319904     4.319904   -14786.231   -34029.828    4008.5815   -14337.448   -2924.1217   -7136.9922    1305.3102    80.616193 
   97100    742.94568   -115.36511   0.67223286   -114.69288   -15661.347    4.3183275    4.3183275    4.3183275   -15661.347   -66204.084    48983.116   -29763.075    3591.1143   -68101.845    -10539.11    80.527964 
   97200    2371.2056   -116.81759    2.1455166   -114.67208    8869.6155    4.3112589    4.3112589    4.3112589    8869.6155   -18805.161    18604.624    26809.384   -5464.0095    6531.2738    1200.6541    80.133168 
   97300    1233.4565   -115.81387    1.1160573   -114.69781   -12347.334    4.3120142    4.3120142    4.3120142   -12347.334   -31514.234   -3111.8139    -2415.954   -5809.0548   -25998.594    11546.349     80.17529 
   97400    643.31326   -115.29913   0.58208336   -114.71705   -15953.439     4.299606     4.299606     4.299606   -15953.439   -36801.115    25696.186   -36755.387    3518.7822   -72146.851   -10490.262    79.485147 
   97500    1752.7188   -116.29477    1.5858968   -114.70887    19901.827    4.3074631    4.3074631    4.3074631    19901.827   -12539.325    38988.848    33255.959    11294.009    11613.595   -5537.8711    79.921695 
   97600     1405.839   -115.97487    1.2720326   -114.70284   -32260.512    4.3241933    4.3241933    4.3241933   -32260.512   -69243.424   -212.18563   -27325.927    10830.141    -20888.16    13397.215    80.856566 
   97700    551.05521   -115.21047   0.49860633   -114.71186   -780.98629    4.3058216    4.3058216    4.3058216   -780.98629   -31500.082    36425.656    -7268.533   -4112.3316   -61892.008   -960.55062    79.830364 
   97800     2111.003   -116.60203    1.9100798   -114.69195    21375.332    4.3025916    4.3025916    4.3025916    21375.332    9787.8864    18794.765    35543.346    3828.1474    12054.898    10086.033    79.650845 
   97900    1507.6503     -116.066    1.3641537   -114.70184    -3090.152    4.3154215    4.3154215    4.3154215    -3090.152   -43548.588    11822.993    22455.139    2570.0152   -27392.179   -6005.5342      80.3655 
   98000    623.20274   -115.27642   0.56388694   -114.71253   -11930.521    4.3154919    4.3154919    4.3154919   -11930.521   -53617.763    33623.766   -15797.566    6840.3524   -50758.972   -533.67827    80.369433 
   98100    1885.9584    -116.3979    1.7064548   -114.69145    3761.8095     4.318792     4.318792     4.318792    3761.8095   -29195.655   -4619.1096    45100.194   -4779.7743    28033.488    5992.2856    80.553957 
   98200    1715.6862   -116.24157     1.552389   -114.68918    205.51297     4.308295     4.308295     4.308295    205.51297   -24470.176    9045.1769    16041.538   -1638.4963   -41171.933   -12492.599    79.968012 
   98300    947.32581   -115.55635    0.8571603   -114.69919    11110.259    4.3020915    4.3020915    4.3020915    11110.259   -7180.3312    43455.946   -2944.8373    3102.1661   -51494.094    9377.0284    79.623071 
   98400    1873.3151   -116.38846    1.6950149   -114.69345   -9124.6678    4.3142092    4.3142092    4.3142092   -9124.6678   -27562.874   -4258.4144    4447.2853   -7139.6644     35910.74    9046.6336    80.297789 
   98500    1625.7979    -116.1693    1.4710561   -114.69824    5502.5953    4.3067093    4.3067093    4.3067093    5502.5953   -9730.3712    11263.923    14974.234   -7289.5622   -23196.077   -8705.5638    79.879745 
   98600    740.30869   -115.38283   0.66984686   -114.71298   -1370.7176     4.309978     4.309978     4.309978   -1370.7176    18547.045    9288.2294   -31947.427   -4335.0452   -57481.249    4456.0549    80.061767 
   98700    1858.3643   -116.37427    1.6814871   -114.69278   -13143.243    4.3207395    4.3207395    4.3207395   -13143.243   -8162.3668   -25153.061   -6114.3004    5568.0825    21725.668    4031.6369    80.662975 
   98800    1636.6967   -116.17236    1.4809176   -114.69144    13648.888    4.3065083    4.3065083    4.3065083    13648.888    12624.598    25624.635    2697.4302    1625.1952   -23258.727   -1399.4212    79.868562 
   98900    691.11204   -115.33065    0.6253327   -114.70532   -13035.695    4.3070079    4.3070079    4.3070079   -13035.695   -11845.249    -9301.637     -17960.2   -9336.8878   -68297.957    -2550.502    79.896363 
   99000    1513.5155   -116.06547    1.3694607     -114.696   -12570.109    4.3144142    4.3144142    4.3144142   -12570.109    25851.822   -62503.151   -1058.9985    883.56106    15540.906    5959.3848    80.309241 
   99100    1555.0678   -116.10119     1.407058   -114.69413    11675.011    4.3029889    4.3029889    4.3029889    11675.011    15265.251     6294.248    13465.534    1236.9483   -27021.667    8688.5711    79.672912 
   99200     888.8578   -115.51175   0.80425722   -114.70749   -8679.6417     4.309072     4.309072     4.309072   -8679.6417   -35295.988    29534.672   -20277.609   -6542.2243   -75536.602    -5913.164    80.011284 
   99300    1617.7051   -116.15949    1.4637336   -114.69575   -20628.727    4.3162815    4.3162815    4.3162815   -20628.727    14277.591   -55805.749   -20358.024   -9588.4009    12747.337   -9253.7394    80.413559 
   99400    1173.4224   -115.75723    1.0617372   -114.69549    9685.3395    4.3050205    4.3050205    4.3050205    9685.3395    18549.228   -6027.5638    16534.354     43.49412   -24571.244    5760.4112    79.785813 
   99500      927.107   -115.54494    0.8388659   -114.70608   -18425.056    4.3114117    4.3114117    4.3114117   -18425.056   -49913.691    25548.137   -30909.614    14881.184   -80208.291   -431.80302    80.141691 
   99600    1819.0521   -116.33584    1.6459165   -114.68992   -169.49612    4.3119853    4.3119853    4.3119853   -169.49612    18515.892   -30287.221    11262.841    7132.6838    12109.501   -7151.8261     80.17368 
   99700    1366.3015   -115.93756    1.2362583    -114.7013   -1011.5981    4.3063015    4.3063015    4.3063015   -1011.5981    13128.926   -2333.4079   -13830.313   -7966.2721   -33270.639    3071.6876    79.857056 
   99800    755.88892   -115.39917   0.68394418   -114.71523   -16372.713    4.3120442    4.3120442    4.3120442   -16372.713   -43894.492    24975.761   -30199.408    8127.1824   -78180.198     9596.498    80.176966 
   99900     1988.151    -116.4931    1.7989208   -114.69418    5497.2722    4.3094481    4.3094481    4.3094481    5497.2722    1918.6044   -15320.455    29893.667    11964.894    19852.512    64.309235    80.032236 
  100000    1542.6673   -116.09619    1.3958378   -114.70036    -13087.16    4.3186528    4.3186528    4.3186528    -13087.16     1018.339   -17231.505   -23048.314   -9152.7174   -23006.436   -3384.4346    80.546167 
Loop time of 22.2033 on 1 procs for 100000 steps with 8 atoms

Pair  time (%) = 6.96407 (31.365)
Kspce time (%) = 5.28557 (23.8054)
Neigh time (%) = 0.124586 (0.561116)
Comm  time (%) = 1.09063 (4.91203)
Outpt time (%) = 0.0219114 (0.0986853)
Other time (%) = 8.71652 (39.2578)

Nlocal:    8 ave 8 max 8 min
Histogram: 1 0 0 0 0 0 0 0 0 0
Nghost:    2189 ave 2189 max 2189 min
Histogram: 1 0 0 0 0 0 0 0 0 0
Neighs:    2208 ave 2208 max 2208 min
Histogram: 1 0 0 0 0 0 0 0 0 0

Total # of neighbors = 2208
Ave neighs/atom = 276
Neighbor list builds = 1436
Dangerous builds = 0
unfix 20
unfix 21
print "seeds:1845942"
seeds:1845942
