LAMMPS (10 Feb 2015)
# ---- initialize simulations
clear
units metal
dimension 3
boundary p p p
atom_style charge
atom_modify map array
# ---- create atoms
read_data /Users/eugeneragasa/pyflamestk_git/pypospack/tests/tests_integration/workflow/WorkflowLammpsThermalExpansion/param_2856/MgO_NaCl_unit.npt.T1400/lammps.structure
  triclinic box = (0 0 0) to (4.2565 4.2565 4.2565) with tilt (0 0 0)
  1 by 1 by 1 MPI processor grid
  reading atoms ...
  8 atoms
# ---- define interatomic potential
include potential.mod
mass 1 24.305
mass 2 15.999

group Mg type 1
4 atoms in group Mg
group O type 2
4 atoms in group O

set group Mg charge 1.71287520642
  4 settings made for charge
set group O charge -1.71287520642
  4 settings made for charge

variable R_cut equal 10.0

pair_style buck/coul/long ${R_cut}
pair_style buck/coul/long 10
pair_coeff 1 1 0.0 0.5 0.0 ${R_cut}
pair_coeff 1 1 0.0 0.5 0.0 10
pair_coeff 1 2 1268.25800143 0.292150986054 0.0 ${R_cut}
pair_coeff 1 2 1268.25800143 0.292150986054 0.0 10
pair_coeff 2 2 34972.2762623 0.190168709461 15.9037418312 ${R_cut}
pair_coeff 2 2 34972.2762623 0.190168709461 15.9037418312 10

kspace_style pppm 1.0e-5

neighbor 1.0 bin
neigh_modify every 1 delay 0 check yes
# ---- define settings
compute eng all pe/atom
compute eatoms all reduce sum c_eng
# ---- run minimization
reset_timestep 0
fix 1 all box/relax iso 0.0 vmax 0.001
thermo 10
thermo_style custom step pe lx ly lz xy xz yz press pxx pyy pzz pxy pxz pyz c_eatoms
min_style cg
minimize 1e-25 1e-25 5000 10000
PPPM initialization ...
  G vector (1/distance) = 0.353245
  grid = 8 8 8
  stencil order = 5
  estimated absolute RMS force accuracy = 4.15075e-05
  estimated relative force accuracy = 2.88254e-06
  using double precision FFTs
  3d grid and FFT values/proc = 3375 512
Neighbor list info ...
  1 neighbor list requests
  update every 1 steps, delay 0 steps, check yes
  master list distance cutoff = 11
Memory usage per processor = 4.06549 Mbytes
Step PotEng Lx Ly Lz Xy Xz Yz Press Pxx Pyy Pzz Pxy Pxz Pyz eatoms 
       0    -118.2398       4.2565       4.2565       4.2565            0            0            0    92099.563    92099.563    92099.563    92099.563 -2.6648665e-10 1.3518399e-10 2.2028947e-10    -118.2398 
      10   -118.33067     4.299065     4.299065     4.299065            0            0            0    34673.493    34673.493    34673.493    34673.493 -1.1760899e-11 -1.3745134e-10 -5.0678772e-11   -118.33067 
      18   -118.34767    4.3277342    4.3277342    4.3277342            0            0            0    -4.391814    -4.391814    -4.391814    -4.391814 -1.1240186e-10 -1.6034703e-10 -8.891662e-11   -118.34767 
Loop time of 0.0119581 on 1 procs for 18 steps with 8 atoms

Minimization stats:
  Stopping criterion = linesearch alpha is zero
  Energy initial, next-to-last, final = 
        -118.239795936     -118.347671294     -118.347671294
  Force two-norm initial, final = 13.2992 0.00175014
  Force max component initial, final = 13.2992 0.000655584
  Final line search alpha, max atom move = 0.00390625 2.56088e-06
  Iterations, force evaluations = 18 35

Pair  time (%) = 0.00317669 (26.5651)
Kspce time (%) = 0.00188041 (15.7249)
Neigh time (%) = 0 (0)
Comm  time (%) = 0.000356674 (2.98269)
Outpt time (%) = 1.5974e-05 (0.133583)
Other time (%) = 0.00652838 (54.5937)

Nlocal:    8 ave 8 max 8 min
Histogram: 1 0 0 0 0 0 0 0 0 0
Nghost:    2189 ave 2189 max 2189 min
Histogram: 1 0 0 0 0 0 0 0 0 0
Neighs:    2344 ave 2344 max 2344 min
Histogram: 1 0 0 0 0 0 0 0 0 0

Total # of neighbors = 2344
Ave neighs/atom = 293
Neighbor list builds = 0
Dangerous builds = 0
unfix 1
# ---- define output variables ----
variable natoms equal "count(all)"
variable tot_energy equal "c_eatoms"
variable length_x equal "lx"
variable length_y equal "ly"
variable length_z equal "lz"
variable tilt_xy equal "xy"
variable tilt_xz equal "xz"
variable tilt_yz equal "yz"
variable tot_press equal "press"
variable press_xx equal "pxx"
variable press_yy equal "pyy"
variable press_zz equal "pzz"
variable press_xy equal "pxy"
variable press_xz equal "pxz"
variable press_yz equal "pyz"

# ---- output ----
print "pypospack:output_section:begin"
pypospack:output_section:begin
print "tot_energy = ${tot_energy}"
tot_energy = -118.347671293792
print "num_atoms = ${natoms}"
num_atoms = 8
print "xx = ${length_x}"
xx = 4.32773421076983
print "yy = ${length_y}"
yy = 4.32773421076983
print "zz = ${length_z}"
zz = 4.32773421076983
print "xy = ${tilt_xy}"
xy = 0
print "xz = ${tilt_xz}"
xz = 0
print "yz = ${tilt_yz}"
yz = 0
print "tot_press = ${tot_press}"
tot_press = -4.39181402043263
print "pxx = ${press_xx}"
pxx = -4.39181402021402
print "pyy = ${press_yy}"
pyy = -4.39181402042068
print "pzz = ${press_zz}"
pzz = -4.39181402066319
print "pxy = ${press_xy}"
pxy = -1.12401857084108e-10
print "pxz = ${press_xz}"
pxz = -1.60347032595802e-10
print "pyz = ${press_yz}"
pyz = -8.89166196817966e-11
print "pypospack:output_section:done"
pypospack:output_section:done
print "pypospack:lammps_sim:done"
pypospack:lammps_sim:done
#------------------------------------------------------------------------------
# RUN THERMOSTAT
# running using an NPT Nose-Hoover style thermostat
#------------------------------------------------------------------------------
variable tempdamp equal 0.1
variable pressdamp equal 1.0
# set initial velocities
velocity all create 1400 6490225 mom yes dist gaussian loop all
# fix for Nose-Hoover style thermostat
fix 20 all npt temp 1400 1400 0.1 aniso 0.0 0.0 1.0 drag 1.0 couple xyz
variable boxx equal lx
variable boxy equal ly
variable boxz equal lz
variable boxp equal press
variable boxt equal temp
# calculate averages every 10000 steps
reset_timestep 0
fix 21 all ave/time 10 10 100 v_boxx v_boxy v_boxz v_boxp v_boxt file lattice.out
thermo_style custom step temp pe ke etotal press lx ly lz press pxx pyy pzz pxy pxz pyz vol
thermo_modify flush yes
thermo 100
run 100000
PPPM initialization ...
  G vector (1/distance) = 0.352508
  grid = 8 8 8
  stencil order = 5
  estimated absolute RMS force accuracy = 4.29555e-05
  estimated relative force accuracy = 2.9831e-06
  using double precision FFTs
  3d grid and FFT values/proc = 3375 512
Memory usage per processor = 3.06549 Mbytes
Step Temp PotEng KinEng TotEng Press Lx Ly Lz Press Pxx Pyy Pzz Pxy Pxz Pyz Volume 
       0         1400   -118.34768    1.2667494   -117.08093    16686.367    4.3277342    4.3277342    4.3277342    16686.367    8677.6211    5731.0733    35650.407   -2134.6452   -4375.7415   -629.74661    81.055361 
     100    963.11169   -117.79771   0.87144369   -116.92626   -9688.8079    4.3638963    4.3638963    4.3638963   -9688.8079   -28346.485   -2209.6938    1489.7551    1011.5051    8030.1092      1827.84    83.104254 
     200    1204.7068   -117.66993     1.090044   -116.57989    -41648.81     4.398565     4.398565     4.398565    -41648.81   -73862.409   -36364.823   -14719.198    447.39869    20648.053   -2141.1415    85.100684 
     300    984.77566   -117.16332   0.89104572   -116.27228    5072.8892    4.3937996    4.3937996    4.3937996    5072.8892   -33828.162   -30517.318    79564.147   -2771.3742    -10151.47     13031.71    84.824387 
     400    1226.9209   -117.15996    1.1101438   -116.04982    4481.8625    4.3852564    4.3852564    4.3852564    4481.8625   -32792.441   -35849.903    82087.931     1697.599    11413.117    11790.188    84.330556 
     500    1100.5747   -116.92147    0.9958231   -115.92565    15965.906    4.3885084    4.3885084    4.3885084    15965.906   -28259.049   -29557.852    105714.62    2195.9642    24868.245   -1416.2962     84.51831 
     600    1259.8079   -117.01953    1.1399007   -115.87963   -1570.5492    4.4088566    4.4088566    4.4088566   -1570.5492   -55045.558   -8222.0344    58555.944    -2107.447    1054.7261   -5641.3291    85.699429 
     700    1263.4372    -116.9926    1.1431845   -115.84942    -8935.062    4.4151239    4.4151239    4.4151239    -8935.062   -59499.842   -68198.756    100893.41   -417.72804    7680.1537   -2828.6259    86.065421 
     800    992.78917   -116.73023   0.89829651   -115.83194    39221.241    4.3832454    4.3832454    4.3832454    39221.241   -15731.038   -3403.3482    136798.11    -1651.225    3030.8898    6105.2155    84.214594 
     900    1261.8606   -116.98274    1.1417579   -115.84099    20203.468    4.3828275    4.3828275    4.3828275    20203.468   -9567.2182     16095.37    54082.253    8062.5921    2214.1764   -2190.0624    84.190507 
    1000    1645.7475    -117.3243    1.4891069   -115.83519    -21418.34     4.410007     4.410007     4.410007    -21418.34   -31749.089   -44153.546    11647.616     1306.536   -7396.3091   -12186.611    85.766529 
    1100    1575.3423    -117.2261    1.4254028   -115.80069   -14137.577    4.4050985    4.4050985    4.4050985   -14137.577   -52211.507   -28612.584    38411.361   -5715.6856     23962.16    7195.0149    85.480465 
    1200    813.51856   -116.52443   0.73608869   -115.78834    38668.231    4.3865319    4.3865319    4.3865319    38668.231    54685.888   -7445.2644     68764.07    1747.7026    5987.2443    4662.1488    84.404163 
    1300    1664.2162   -117.32045    1.5058178   -115.81463   -17964.816    4.4005473    4.4005473    4.4005473   -17964.816   -26764.379   -37149.705    10019.635    4372.3531    -16411.48    3147.7937     85.21579 
    1400    1337.6201   -117.02414    1.2103067   -115.81384   -27536.578     4.417678     4.417678     4.417678   -27536.578   -10791.427   -40348.655   -31469.652    11917.105    20053.069    1488.7359    86.214866 
    1500     1727.061   -117.36903    1.5626811   -115.80635   -27622.631     4.404452     4.404452     4.404452   -27622.631   -26384.823   -39794.734   -16688.336    7163.3014   -437.87153   -10527.496    85.442834 
    1600    993.93721   -116.70373   0.89933528   -115.80439    47063.195    4.3844315    4.3844315    4.3844315    47063.195    42370.579   -4414.3045    103233.31   -2502.3612   -9483.8392    3165.3102    84.282977 
    1700    1037.3085   -116.76873   0.93857854   -115.83015   -18329.529    4.4100131    4.4100131    4.4100131   -18329.529   -23574.066    -57286.63    25872.109    3918.1327    8410.2421   -1263.1243    85.766887 
    1800    1056.9541    -116.7727   0.95635432   -115.81635   -2170.2124    4.4229795    4.4229795    4.4229795   -2170.2124   -39121.772   -48987.695    81598.829    7305.5573   -17831.156   -994.83845    86.525634 
    1900    1144.8697   -116.84823    1.0359022   -115.81233    10065.156    4.3950157    4.3950157    4.3950157    10065.156    22770.464   -2593.9007    10018.904   -537.90438    3176.2986   -10089.848    84.894842 
    2000    1806.1452   -117.44207    1.6342381   -115.80783   -346.17254    4.3753154    4.3753154    4.3753154   -346.17254    8885.8377   -20905.568    10981.213      -2946.6   -9092.2153   -17640.326    83.758344 
    2100    1650.4145   -117.34362    1.4933297   -115.85029   -8632.5122    4.4169104    4.4169104    4.4169104   -8632.5122   -6076.9719   -29921.811    10101.246    8115.0939    5506.2994    8500.3464    86.169933 
    2200    1093.4796   -116.79827   0.98940332   -115.80887   -35590.211    4.4397827    4.4397827    4.4397827   -35590.211   -52839.709   -73254.125    19323.201    1514.7929     10490.58    -10594.75    87.515532 
    2300    749.58051   -116.46903    0.6782362   -115.79079    41965.386    4.3849823    4.3849823    4.3849823    41965.386    65684.967   -50828.067    111039.26    21923.823   -10774.979   -5114.0889    84.314745 
    2400    1975.5148   -117.56974    1.7874873   -115.78225    10780.933    4.3638872    4.3638872    4.3638872    10780.933    3746.9125   -7273.3164    35869.203    10577.476    8747.1237    797.75071    83.103734 
    2500    1559.3162   -117.25416    1.4109021   -115.84325   -21241.029    4.4059408    4.4059408    4.4059408   -21241.029    -12776.26   -53244.223    2297.3973   -7213.0479   -789.34838    2271.9228    85.529508 
    2600    1156.1796   -116.86321    1.0461356   -115.81708   -35732.843    4.4250664    4.4250664    4.4250664   -35732.843   -45380.549   -87353.734    25535.756    7753.2601     -7460.86   -16516.305    86.648168 
    2700    1513.3059   -117.13915     1.369271   -115.76988    16320.029    4.3918701    4.3918701    4.3918701    16320.029    39569.292   -32886.103    42276.898   -2682.1521   -13211.854    13454.399    84.712688 
    2800    1713.7171   -117.32568    1.5506072   -115.77507    7420.4769    4.3917198    4.3917198    4.3917198    7420.4769   -26088.544   -24080.122    72430.097   -9456.2635    2873.2449     -15297.7    84.703991 
    2900    1492.8221   -117.12844    1.3507368   -115.77771   -27123.785    4.4243707    4.4243707    4.4243707   -27123.785   -27397.143   -51217.412   -2756.8009    10247.397     14940.48    -20798.61    86.607305 
    3000    1115.7432   -116.76234    1.0095479   -115.75279    33878.237    4.4114144    4.4114144    4.4114144    33878.237    12099.971   -35730.095    125264.83    4256.6889   -2914.3748    -10581.22    85.848667 
    3100    1477.1747   -117.09846    1.3365787   -115.76188    8779.9849     4.387329     4.387329     4.387329    8779.9849   -41993.093   -5788.2672    74121.315   -6261.0479    6947.1483    4384.5317    84.450186 
    3200    1524.8926    -117.1736    1.3797548   -115.79384   -694.27832    4.3912814    4.3912814    4.3912814   -694.27832   -38250.784    18760.331    17407.619    4895.8749    8644.3764   -19982.261    84.678625 
    3300    1128.8867   -116.83964    1.0214404    -115.8182   -2864.6891    4.4169599    4.4169599    4.4169599   -2864.6891   -45589.843   -49456.161    86451.936   -2387.5976   -13516.253    2549.1456    86.172834 
    3400    1388.5863   -117.05291    1.2564221   -115.79649   -7844.6092    4.4098269    4.4098269    4.4098269   -7844.6092   -51530.685   -40766.024    68762.882   -7054.8935    1689.5003    3204.3735    85.756023 
    3500    1248.9751   -116.91073    1.1300989   -115.78063    22681.769    4.3973771    4.3973771    4.3973771    22681.769   -3266.4778    16285.782    55026.003    -249.3462    8106.0664     4592.748    85.031751 
    3600    1261.2657   -116.93882    1.1412197    -115.7976    3183.3328    4.4103503    4.4103503    4.4103503    3183.3328   -21655.838   -23584.269    54790.106    -4536.564   -4463.0293     4264.901    85.786563 
    3700    1687.2667   -117.32433    1.5266743   -115.79766   -23220.211    4.4119726    4.4119726    4.4119726   -23220.211   -59710.856   -53541.329    43591.553   -304.31954   -3332.3189    5724.6831    85.881264 
    3800    1378.6265   -117.04034    1.2474102   -115.79293   -2830.3869    4.4052363    4.4052363    4.4052363   -2830.3869   -31969.738   -35196.252    58674.829   -5013.2228   -4580.9937    39528.006    85.488485 
    3900    1426.7696   -117.08645    1.2909711   -115.79548    758.83708    4.3984042    4.3984042    4.3984042    758.83708   -15294.051   -47509.089    65079.651    721.55544   -5087.6607    214.39307    85.091351 
    4000    1447.5368   -117.12919    1.3097617   -115.81943   -3680.6788    4.4000733    4.4000733    4.4000733   -3680.6788   -42843.116   -64368.707    96169.787    5917.7452    1203.1158   -9893.0446    85.188256 
    4100    1156.8412   -116.88381    1.0467342   -115.83707    -426.9227    4.4069426    4.4069426    4.4069426    -426.9227   -58178.223   -54695.374    111592.83   -13637.888   -7334.1509   -4048.7155    85.587864 
    4200    1194.7799   -116.91644     1.081062   -115.83538   -8436.5179    4.4112273    4.4112273    4.4112273   -8436.5179   -80042.834     -65729.5    120462.78    6089.4168    691.76656    -4677.303    85.837746 
    4300    1363.5455   -117.04831    1.2337646   -115.81455    4209.2806    4.3937659    4.3937659    4.3937659    4209.2806   -32785.749   -24137.725    69551.316    7505.6259   -2430.2568   -16782.395    84.822438 
    4400    1079.5948   -116.79026   0.97684009   -115.81342    130.91185    4.3875765    4.3875765    4.3875765    130.91185    -7992.138   -42188.797    50573.671   -9677.2919    4988.0358    21480.002    84.464476 
    4500    1567.5505   -117.22782    1.4183527   -115.80947    -500.8681    4.3959752    4.3959752    4.3959752    -500.8681   -31239.069   -53115.647    82852.112    9487.8005     5141.136    8925.8095    84.950455 
    4600    1426.0444   -117.10738     1.290315   -115.81706   -1281.3493    4.4053381    4.4053381    4.4053381   -1281.3493   -28393.017   -25484.268    50033.237   -6982.1753   -17549.263   -1320.9442    85.494412 
    4700    1751.2299   -117.39087    1.5845496   -115.80632   -25448.686    4.3995674    4.3995674    4.3995674   -25448.686   -49450.423   -43485.104    16589.468   -21174.728    2066.7423    5563.4808    85.158878 
    4800    1199.1878   -116.89428    1.0850504   -115.80923    9908.0975    4.4008054    4.4008054    4.4008054    9908.0975   -22303.327   -39225.452    91253.071    3531.2662     8579.772    25035.074    85.230784 
    4900    1123.3541   -116.81659    1.0164344   -115.80016    20138.953    4.4060268    4.4060268    4.4060268    20138.953    13437.114    -29792.67    76772.416   -4889.5812   -3171.4237    15825.365    85.534519 
    5000    1348.9085   -117.00683    1.2205207   -115.78631   -18381.413    4.4087395    4.4087395    4.4087395   -18381.413   -37737.088   -35513.606    18106.457   -2934.4342    14579.092   -11651.543    85.692601 
    5100    1111.5557    -116.7879    1.0057589   -115.78214    9180.1761    4.3986149    4.3986149    4.3986149    9180.1761   -21148.731    16675.459    32013.801    2612.4297   -3197.3486    26681.875    85.103579 
    5200    1554.3413   -117.18618    1.4064007   -115.77978    12474.916    4.3944283    4.3944283    4.3944283    12474.916   -1805.1217   -26060.721    65290.592   -7373.2362    12595.116   -4837.6526    84.860804 
    5300    1774.5415   -117.38222    1.6056425   -115.77658    13137.648    4.3857409    4.3857409    4.3857409    13137.648   -10572.614   -41974.444    91960.002   -9586.1069    21166.755   -13153.484    84.358514 
    5400    1486.6735   -117.14395    1.3451735   -115.79878    9040.2746      4.39486      4.39486      4.39486    9040.2746   -19918.311    14255.797    32783.337   -9175.5384   -7611.0525    30755.687    84.885817 
    5500    1514.7881   -117.17005    1.3706121   -115.79944   -19633.069    4.4253119    4.4253119    4.4253119   -19633.069   -50685.556   -33947.726    25734.076   -5668.2661    5099.8909    -22316.83    86.662588 
    5600    1350.9375   -116.99787    1.2223566   -115.77551   -2531.3052    4.4168037    4.4168037    4.4168037   -2531.3052   -60978.084   -9771.8016     63155.97    693.74631    14696.717   -15551.408     86.16369 
    5700    1340.3906    -116.9851    1.2128136   -115.77228   -2351.2073    4.3858034    4.3858034    4.3858034   -2351.2073   -33581.669   -33518.327    60046.374   -1988.3772    8794.1815    23814.598    84.362116 
    5800    1438.3641    -117.1077     1.301462   -115.80624    22337.439    4.3849819    4.3849819    4.3849819    22337.439   -33224.234    46831.098    53405.454    8182.8014    6319.7621     7617.354    84.314722 
    5900    1732.7568   -117.38759    1.5678348   -115.81975   -36804.377    4.4183581    4.4183581    4.4183581   -36804.377   -57038.177   -63004.076    9629.1214    -6263.323    7995.4201   -7030.5159    86.254696 
    6000    926.64858    -116.6351    0.8384511   -115.79664    21650.409    4.3963734    4.3963734    4.3963734    21650.409   -14558.042    5441.7268    74067.543   -9093.6317    6542.6087    29659.045    84.973543 
    6100    1616.5774   -117.23668    1.4627132   -115.77397   -1529.0853    4.3760465    4.3760465    4.3760465   -1529.0853   -23642.476   -7534.7975    26590.018    8187.9001    1022.3561    7584.1675    83.800341 
    6200    1074.3037   -116.77175   0.97205253    -115.7997     14434.37    4.3962684    4.3962684    4.3962684     14434.37   -42651.499     16410.89     69543.72    107.79794    5574.5925   -627.11893    84.967454 
    6300     1529.913   -117.17838    1.3842974   -115.79408   -21934.025    4.4127234    4.4127234    4.4127234   -21934.025   -44448.537   -19015.128   -2338.4109   -494.99088   -1400.3214    13364.461    85.925116 
    6400    958.06913   -116.64666   0.86688109   -115.77978   -906.09508    4.4122228    4.4122228    4.4122228   -906.09508   -13411.871   -20381.847    31075.432    7250.0313   -9256.0632     31438.48    85.895875 
    6500    1826.9027    -117.4187    1.6530199   -115.76568    1501.3524     4.375864     4.375864     4.375864    1501.3524   -5221.2829   -9238.7571    18964.097    1551.8911    655.63264   -11470.798    83.789856 
    6600    1411.0255   -117.06941    1.2767255   -115.79268     39457.65    4.3656567    4.3656567    4.3656567     39457.65    19763.679    36030.653    62578.617   -8319.9852    11177.131   -1229.8603    83.204871 
    6700    1727.7225   -117.37995    1.5632796   -115.81667   -29389.098    4.4070505    4.4070505    4.4070505   -29389.098   -29526.945   -55829.082    -2811.267    8065.2695   -26187.982    19630.617    85.594148 
    6800    1520.5147   -117.16091    1.3757937   -115.78512   -14016.648    4.4129193    4.4129193    4.4129193   -14016.648    -58780.64   -44646.928    61377.624    5793.1983    -5287.506   -5879.0362    85.936558 
    6900    900.29456   -116.58658   0.81460544   -115.77197     22151.82    4.3919921    4.3919921    4.3919921     22151.82   -55468.947    62686.037    59238.369    3162.8019    11958.208   -25271.783    84.719749 
    7000    1507.2904   -117.14307     1.363828   -115.77924    -3943.231     4.387205     4.387205     4.387205    -3943.231   -49456.929    2009.5694    35617.666    12332.809   -7529.1387    14283.215    84.443026 
    7100    1332.3097    -117.0091    1.2055018    -115.8036   -25468.165    4.4066305    4.4066305    4.4066305   -25468.165   -67699.094   -39938.316    31232.916    1958.4897   -5285.3039    6644.8415    85.569681 
    7200    1189.3347   -116.87534    1.0761351    -115.7992   -14296.596    4.3935129    4.3935129    4.3935129   -14296.596   -23598.546   -22956.713    3665.4717    937.03039   -1291.8711   -33852.751    84.807783 
    7300    1269.3599   -116.94508    1.1485435   -115.79654    30356.829    4.3734726    4.3734726    4.3734726    30356.829    16833.922    12441.938    61794.628    13284.608   -9936.1307   -5678.6942    83.652556 
    7400    1913.4037   -117.54242    1.7312879   -115.81113   -24311.698    4.3956417    4.3956417    4.3956417   -24311.698   -55907.199   -25960.781    8932.8856   -2039.1113    4042.9729    2561.8392    84.931121 
    7500    899.99991   -116.61565   0.81433883   -115.80131    13287.257    4.4127486    4.4127486    4.4127486    13287.257   -21249.233   -14976.064    76087.069    1669.9604    7607.6645   -17932.536    85.926583 
    7600    1597.9657   -117.21409    1.4458729   -115.76822   -33088.225    4.4153749    4.4153749    4.4153749   -33088.225   -49364.407   -47028.982   -2871.2867    5091.1903   -9429.9434    -5973.962    86.080101 
    7700    1687.2466   -117.27707    1.5266562   -115.75041    20782.607    4.3872831    4.3872831    4.3872831    20782.607    1024.6235   -14922.355    76245.552   -1843.5381   -20400.244     4490.644    84.447537 
    7800    1218.2029   -116.87845    1.1022556    -115.7762    33844.685    4.3775496    4.3775496    4.3775496    33844.685    52408.079    55319.936   -6193.9594   -8554.7789    8971.3716   -15543.084    83.886722 
    7900     1594.231   -117.25571    1.4424937   -115.81322   -32109.506    4.4171024    4.4171024    4.4171024   -32109.506   -21950.454   -44665.054    -29713.01   -5642.8034   -3192.9006   -9472.7837    86.181176 
    8000    1499.8335   -117.11393    1.3570808   -115.75685   -22121.567    4.4312329    4.4312329    4.4312329   -22121.567   -52159.728   -22834.253    8629.2803   -10663.548   -7286.5423    25957.265    87.010916 
    8100    1387.8814   -116.98374    1.2557843   -115.72795    15079.832    4.3846557    4.3846557    4.3846557    15079.832    4289.4293    12486.784    28463.282   -11408.449    1349.1413   -9686.7613     84.29591 
    8200    1072.3623   -116.73059   0.97029593   -115.76029    38263.196    4.3730759    4.3730759    4.3730759    38263.196   -34057.799    41662.154    107185.23    3826.8669   -6998.9429   -26113.895    83.629796 
    8300    1446.5872   -117.10658    1.3089025   -115.79768   -32883.409    4.4197618    4.4197618    4.4197618   -32883.409   -54526.516   -33361.494   -10762.216   -3902.7847   -6775.1162    2496.4284    86.336926 
    8400    1111.8718   -116.76287     1.006045   -115.75682   -24179.208    4.4279994    4.4279994    4.4279994   -24179.208   -11665.108   -35700.214   -25172.303   -13227.764   -9699.2735    -14498.97    86.820573 
    8500    966.18033   -116.61039   0.87422026   -115.73617    23182.347    4.3973022    4.3973022    4.3973022    23182.347   -1687.9418    54314.192     16920.79   -17707.868   -14475.366    -22670.87    85.027409 
    8600    1753.7823   -117.32964    1.5868591   -115.74278    19701.391    4.3862528    4.3862528    4.3862528    19701.391   -28173.963    47112.306     40165.83   -7188.3395    10047.816   -12924.428    84.388057 
    8700    1591.5141   -117.21988    1.4400354   -115.77985   -62.569113    4.4052915    4.4052915    4.4052915   -62.569113     -35328.1   -12313.569    47453.961   -10098.442   -13440.708   -23911.719      85.4917 
    8800    1332.5088   -116.98243    1.2056819   -115.77675   -36971.354    4.4227931    4.4227931    4.4227931   -36971.354    -58611.41    -54634.73     2332.079   -26390.349    3430.7321   -15662.067    86.514694 
    8900    1453.1231   -117.07156    1.3148163   -115.75675    8966.8192    4.3879849    4.3879849    4.3879849    8966.8192   -39194.752     27104.07     38991.14    -1146.969    19824.934   -104.08856    84.488065 
    9000    1702.7092   -117.29514    1.5406471   -115.75449    31158.999    4.3692702    4.3692702    4.3692702    31158.999    12684.093    48716.025    32076.878   -2964.5144   -3761.7513   -2537.8718    83.411646 
    9100    1045.8582   -116.75304   0.94631444   -115.80673   -34858.676    4.4101492    4.4101492    4.4101492   -34858.676   -73046.479    14399.389   -45928.939   -18913.826    1434.8962   -9687.3069    85.774825 
    9200    1333.1139   -116.98525    1.2062294   -115.77902   -38665.693    4.4073241    4.4073241    4.4073241   -38665.693   -83155.599     18993.05   -51834.531   -594.99462    2067.8856   -480.20979    85.610092 
    9300     1353.793   -116.97295    1.2249403   -115.74801    30133.902    4.3746246    4.3746246    4.3746246    30133.902    18780.493    62912.912     8708.301   -165.42763    3783.9844    3616.5619    83.718679 
    9400    917.39957     -116.601   0.83008241   -115.77092    19849.136    4.3793194    4.3793194    4.3793194    19849.136    5196.9246    46370.178    7980.3044   -3814.2866   -6745.8891    -13008.32    83.988507 
    9500     1433.821   -117.08137    1.2973514   -115.78402   -38696.024    4.3979721    4.3979721    4.3979721   -38696.024   -64881.702    -17184.79    -34021.58   -14858.427   -964.33221   -15124.203    85.066275 
    9600    1403.1584   -117.04201    1.2696072   -115.77241   -4502.3526    4.4042759    4.4042759    4.4042759   -4502.3526   -51733.056    20835.588     17390.41   -4054.4647   -972.17124     16617.97    85.432583 
    9700    1698.1195   -117.30535    1.5364942   -115.76886   -23630.373    4.3973049    4.3973049    4.3973049   -23630.373   -21288.862   -35348.996   -14253.262    15725.571   -1367.5344   -27318.111    85.027564 
    9800    1398.8076   -117.04246    1.2656705   -115.77679    19589.606    4.3745648    4.3745648    4.3745648    19589.606   -24136.089    55154.249    27750.658   -8593.8888   -6024.2468   -17516.091    83.715249 
    9900     1247.839   -116.94099     1.129071   -115.81191     19423.55    4.3994775    4.3994775    4.3994775     19423.55   -9254.0525     55710.39    11814.311   -4431.5408   -11583.837   -2567.8806    85.153654 
   10000    1223.2018   -116.88439    1.1067787   -115.77761   -37319.575    4.4342402    4.4342402    4.4342402   -37319.575   -50863.801     -21049.5   -40045.424    250.84422     4140.499   -20003.879    87.188184 
   10100    890.33167   -116.55798   0.80559081   -115.75239    12868.481    4.3947361    4.3947361    4.3947361    12868.481   -42851.538    84820.878   -3363.8985   -18471.398   -5375.6141   -28636.998    84.878638 
   10200    1578.4274   -117.14649    1.4281943    -115.7183    40565.314      4.35505      4.35505      4.35505    40565.314    6514.7233    53385.796    61795.423   -10676.402   -17116.948    -105.5681    82.599885 
   10300    1242.5907   -116.91697    1.1243222   -115.79265    7604.0931    4.3948248    4.3948248    4.3948248    7604.0931    39366.963   -9621.3928    -6933.291    2250.6841    4239.3285   -14889.406    84.883777 
   10400    1273.0136   -116.91965    1.1518494    -115.7678   -35074.288    4.4193062    4.4193062    4.4193062   -35074.288   -50302.136    -38824.49   -16096.238   -19236.744    -19161.92   -9188.3112    86.310232 
   10500    1282.5477    -116.9101    1.1604761   -115.74963    33504.779    4.3893333    4.3893333    4.3893333    33504.779    37235.969    63436.969   -158.60095    315.83566   -31553.042    9518.1238    84.565981 
   10600    1777.1964   -117.36629    1.6080447   -115.75824    -12274.32    4.3862547    4.3862547    4.3862547    -12274.32   -13050.064    9004.0244   -32776.922    18294.741    8721.0647    786.35277    84.388162 
   10700    852.67589   -116.55559   0.77151906   -115.78407    26229.216    4.3811852    4.3811852    4.3811852    26229.216    14398.539    78962.463   -14673.354    19958.282   -5533.9333    165.47765    84.095902 
   10800    1595.9907   -117.23822    1.4440859   -115.79414      4071.15    4.3900854    4.3900854    4.3900854      4071.15   -3784.0226    32638.268   -16640.795    1159.1131   -10235.805   -4573.4469    84.609455 
   10900     1185.535   -116.86132     1.072697   -115.78862   -26720.946     4.412673     4.412673     4.412673   -26720.946   -35368.888   -1229.9433   -43564.007    7477.8472    21985.617     18761.98    85.922169 
   11000    1039.8591   -116.70978   0.94088638    -115.7689   -889.48236    4.3878093    4.3878093    4.3878093   -889.48236   -23736.838    51092.726   -30024.335    31136.011   -10304.941    5168.9746    84.477922 
   11100    1850.2358   -117.43007    1.6741322   -115.75594   -198.87909    4.3710329    4.3710329    4.3710329   -198.87909     8617.384    -566.3778   -8647.6435   -16605.827    1381.5164   -10095.274    83.512641 
   11200    759.99806    -116.4785   0.68766222   -115.79083   -1139.6893    4.4052316    4.4052316    4.4052316   -1139.6893   -14952.428    50640.598   -39107.238    8593.5301    30900.127    9800.6952    85.488212 
   11300    1180.9014   -116.83057    1.0685044   -115.76206   -35315.152    4.4074675    4.4074675    4.4074675   -35315.152   -42733.774   -17752.577   -45459.107    29902.463   -17913.817    11060.948    85.618451 
   11400    1802.0831   -117.37407    1.6305627   -115.74351    5288.2406    4.3607571    4.3607571    4.3607571    5288.2406    16608.754    2504.1144   -3248.1464    5095.7264   -5523.7047   -15394.353    82.925038 
   11500    1188.5336    -116.8669    1.0754101   -115.79149    22752.782    4.3803011    4.3803011    4.3803011    22752.782    26675.108    34369.074    7214.1625    5581.4974    10528.129    4660.8906    84.045005 
   11600    1420.0972   -117.04977    1.2849338   -115.76484   -32919.475    4.4161433    4.4161433    4.4161433   -32919.475   -23336.487   -35807.507   -39614.432    8944.6902   -6509.6393    2424.1332    86.125045 
   11700    1613.4137   -117.21456    1.4598506    -115.7547   -8043.2214    4.3803158    4.3803158    4.3803158   -8043.2214   -22059.401   -15528.988    13458.725     6803.788   -10086.234    4337.3913    84.045847 
   11800    1604.8066   -117.22099    1.4520627   -115.76893    18156.226    4.3621893    4.3621893    4.3621893    18156.226    39137.796    13018.531    2312.3511   -7566.8228    31856.136    9426.1741    83.006774 
   11900    1246.1525   -116.92876    1.1275449   -115.80121   -10918.061    4.3941066    4.3941066    4.3941066   -10918.061    -23565.28    29998.625   -39187.529    -106.4424   -23087.345   -7553.0846     84.84217 
   12000    1355.8679   -117.00975    1.2268177   -115.78293   -17563.267    4.3917571    4.3917571    4.3917571   -17563.267   -31979.012   -19434.739   -1276.0515    9233.2035   -44461.918   -11794.021    84.706146 
   12100    1721.6854   -117.32033    1.5578171   -115.76251      3138.53    4.3798212    4.3798212    4.3798212      3138.53     2165.395    28661.129   -21410.934    291.73328    28721.069   -829.68335     84.01738 
   12200    1034.4448   -116.70985    0.9359874   -115.77386    -18046.02    4.3997161    4.3997161    4.3997161    -18046.02   -21120.417    23711.208   -56728.851    2769.1684   -27126.904   -5358.8169     85.16751 
   12300    920.62138   -116.59861   0.83299757   -115.76562   -14140.403    4.3920426    4.3920426    4.3920426   -14140.403   -18903.883    1930.4852   -25447.812     3495.879    -49306.24    93.478787    84.722672 
   12400    1922.0245   -117.49697    1.7390882   -115.75788    -6951.311    4.3767304    4.3767304    4.3767304    -6951.311    7535.5226   -37270.318    8880.8625    5220.1079    21243.672   -2549.9044    83.839635 
   12500    1093.7982   -116.77254   0.98969164   -115.78284   -11500.772    4.3902848    4.3902848    4.3902848   -11500.772   -17690.307    -3344.051   -13467.957   -2224.8707   -28992.677   -17507.569    84.620983 
   12600    1052.6895   -116.73438   0.95249561   -115.78189   -14621.076    4.3846239    4.3846239    4.3846239   -14621.076   -71178.415    56882.665   -29567.477   -1500.0078   -30687.683   -2571.1895    84.294071 
   12700    1297.6939   -116.95892    1.1741808   -115.78474    14739.044    4.3847499    4.3847499    4.3847499    14739.044    9991.4328   -20897.275    55122.973    -1608.468    16988.994   -1914.6141    84.301341 
   12800    1877.6697   -117.48277     1.698955   -115.78381   -24181.453    4.3935301    4.3935301    4.3935301   -24181.453   -30953.161   -30258.861   -11332.337    12027.483   -783.86401    1363.7513     84.80878 
   12900    1041.3378   -116.73113   0.94222435    -115.7889     16001.09    4.3849658    4.3849658    4.3849658     16001.09   -6628.3849   -192.53154    54824.187   -3873.6517   -32435.255    9525.4753    84.313794 
   13000    1207.5037   -116.87885    1.0925747   -115.78628    15245.554    4.3815744    4.3815744    4.3815744    15245.554    11620.067    49112.064   -14995.469    -15563.27    6005.2996     5077.552    84.118314 
   13100    1542.5907   -117.18414    1.3957685   -115.78837    6427.4559    4.3877038    4.3877038    4.3877038    6427.4559    -24566.01   -7440.6798    51289.058    10881.714    6972.1534   -6910.8046    84.471828 
   13200    1513.4562   -117.15374    1.3694069   -115.78434   -4841.8218    4.3925181    4.3925181    4.3925181   -4841.8218   -5960.8477   -13490.767    4926.1491    6381.4838   -24990.866    4278.2759    84.750187 
   13300    1335.3858   -116.98886    1.2082851   -115.78057   -6755.7825    4.3872474    4.3872474    4.3872474   -6755.7825   -43584.237     19122.44    4194.4496     55.43386     18789.15   -6996.3149    84.445474 
   13400     1330.571   -116.98826    1.2039286   -115.78433    23037.462    4.3853841    4.3853841    4.3853841    23037.462   -11840.969    44833.829    36119.525    7058.3707    28050.797   -1318.2952    84.337927 
   13500    1810.1106    -117.4197    1.6378261   -115.78187   -9761.1443    4.4016539    4.4016539    4.4016539   -9761.1443   -18401.741   -33910.387    23028.695   -2165.8924   -13215.897     10012.25    85.280096 
   13600    1245.7659   -116.90685    1.1271952   -115.77965    19230.033    4.3859654    4.3859654    4.3859654    19230.033   -44593.319    1945.3468    100338.07   -11070.553    1526.1301   -5046.3118    84.371467 
   13700    957.34073   -116.66304   0.86622201   -115.79682    13579.455    4.3686182    4.3686182    4.3686182    13579.455   -58076.219    64817.335    33997.248    5084.3915      45525.2    3038.9212    83.374313 
   13800    1554.3145   -117.22037    1.4063764   -115.81399    410.04115    4.3816728    4.3816728    4.3816728    410.04115   -28793.616   -22998.341    53022.081    7159.3636   -1187.7254   -15136.951    84.123986 
   13900    1343.9581   -117.02907    1.2160415   -115.81303   -13701.037    4.4058111    4.4058111    4.4058111   -13701.037   -58221.709   -35452.534    52571.134    -6345.836   -8664.5533    1675.0096    85.521955 
   14000    801.40555   -116.52336   0.72512858   -115.79823    -3370.906     4.398517     4.398517     4.398517    -3370.906   -76446.939    52610.751    13723.469   -8919.9904    31310.646   -11232.308    85.097896 
   14100    1649.3741   -117.26853    1.4923883   -115.77615    28575.483    4.3770433    4.3770433    4.3770433    28575.483   -43051.067    38554.979    90222.536    4522.0561   -11221.264    575.26726    83.857621 
   14200    1791.6882   -117.41018    1.6211571   -115.78902    272.12829    4.3835817    4.3835817    4.3835817    272.12829   -39709.668    3652.0972    36873.955    9429.3409    5630.8574   -1061.1612    84.233977 
   14300    1523.3514   -117.17943    1.3783603   -115.80106   -2612.5418    4.3838181    4.3838181    4.3838181   -2612.5418   -49989.162    40099.622    2051.9139   -3988.6081    34124.695    9698.9122    84.247605 
   14400     1574.716   -117.22458    1.4248361   -115.79974    -21118.25    4.3967275    4.3967275    4.3967275    -21118.25    -35470.78   -9537.5483    -18346.42    3143.1155   -15971.485   -7903.6341    84.994077 
   14500    1453.4227   -117.10077    1.3150874   -115.78569    -12415.06    4.3891797    4.3891797    4.3891797    -12415.06   -22424.954   -5276.9496   -9543.2769    262.22133   -2019.0952   -3142.9325    84.557102 
   14600    1603.7155   -117.22758    1.4510755    -115.7765    10238.357    4.3713713    4.3713713    4.3713713    10238.357   -16997.239     38896.55    8815.7601    17847.707     48302.03    9908.6983    83.532043 
   14700    1384.4964   -117.04363    1.2527214    -115.7909    9702.7993    4.3911847    4.3911847    4.3911847    9702.7993    -37572.27   -6840.8982    73521.566   -4844.0505   -6635.4495   -10840.808    84.673032 
   14800     1129.435   -116.81001    1.0219365   -115.78807   -20855.679    4.4104602    4.4104602    4.4104602   -20855.679   -59174.968     17880.52    -21272.59   -207.51565   -577.94739    -6625.508    85.792974 
   14900    1205.7191    -116.8807    1.0909599   -115.78974   -468.43804     4.374753     4.374753     4.374753   -468.43804   -23761.144    22257.864    97.966762   -10905.482    38702.582    7940.6911    83.726051 
   15000    1633.9406   -117.25669    1.4784238   -115.77827    34743.506     4.352213     4.352213     4.352213    34743.506    13929.209    59004.577    31296.733    11614.248   -1315.5185   -4422.6299    82.438566 
   15100    1363.0302    -117.0434    1.2332984    -115.8101   -29158.615    4.4017407    4.4017407    4.4017407   -29158.615   -58972.822   -11236.011   -17267.013    2168.8934   -6753.9285    2479.2702    85.285137 
   15200    1224.8444   -116.87685    1.1082649   -115.76858   -31719.063    4.4073435    4.4073435    4.4073435   -31719.063   -58018.192    4018.6049   -41157.601   -2139.5506    20049.462   -3581.4167    85.611223 
   15300     1325.839    -116.9329     1.199647   -115.73325    33674.869    4.3770573    4.3770573    4.3770573    33674.869    31170.942    47262.948    22590.718    7704.4853   -4230.3536   -3932.7044    83.858423 
   15400    1572.9901   -117.18169    1.4232745   -115.75842   -9173.4199    4.3903693    4.3903693    4.3903693   -9173.4199   -14361.128   -9783.7168   -3375.4148    9355.6746   -6948.5905    8467.3014    84.625871 
   15500    1239.2604   -116.90057    1.1213089   -115.77926   -13721.521    4.4011795    4.4011795    4.4011795   -13721.521   -39410.527    397.78797   -2151.8256   -5147.8332     22959.44    2243.6107    85.252523 
   15600    1380.6464    -117.0295    1.2492379   -115.78027   -21181.228    4.3967594    4.3967594    4.3967594   -21181.228   -22954.704   -14847.648   -25741.332   -7329.2509   -294.10932     11001.41    84.995926 
   15700    1323.0395    -116.9611    1.1971139   -115.76399    25565.003    4.3763027    4.3763027    4.3763027    25565.003    14503.821   -1258.4373    63449.626   -300.58866    -21038.15   -5104.6516    83.815063 
   15800    1331.8578   -116.97368    1.2050929   -115.76859    25234.735    4.3756049    4.3756049    4.3756049    25234.735    22456.277    20613.545    32634.384   -6577.8413    19964.636    9419.6427    83.774972 
   15900    1424.5345   -117.07269    1.2889487   -115.78374   -8209.7921    4.4108164    4.4108164    4.4108164   -8209.7921   -38221.258    18382.987   -4791.1052   -789.04508   -8695.3106    9353.6981    85.813761 
   16000    1395.8719   -117.00955    1.2630142   -115.74654   -21894.113    4.4176598    4.4176598    4.4176598   -21894.113   -65512.417    6107.2352   -6277.1563    471.69469   -11223.842    8686.9374    86.213801 
   16100    1261.0702   -116.87096    1.1410428   -115.72992    29414.422    4.3766311    4.3766311    4.3766311    29414.422   -3066.8392    70921.106        20389   -13046.998    21533.286     9836.408    83.833929 
   16200    1007.9923   -116.66686   0.91205259    -115.7548    44949.939    4.3690611    4.3690611    4.3690611    44949.939    35745.674    59387.427    39716.716    9027.6685   -1413.5651   -2063.0917    83.399673 
   16300    1558.0111   -117.18141    1.4097212   -115.77169   -24813.105    4.3918957    4.3918957    4.3918957   -24813.105   -26211.818   -2289.6316   -45937.867    1017.6621   -1183.1203    13727.818    84.714169 
   16400    1125.5166   -116.79768    1.0183911   -115.77929   -1320.0034    4.3850421    4.3850421    4.3850421   -1320.0034   -38634.129    32652.357    2021.7617   -12095.963    18558.734    8506.8103    84.318193 
   16500    1379.1505     -117.025    1.2478843   -115.77712   -4527.7562     4.377756     4.377756     4.377756   -4527.7562    3237.1735   -15225.338    -1595.104   -6437.8989    6590.9445   -2045.1685     83.89859 
   16600    994.69843   -116.68332   0.90002404    -115.7833    16327.001    4.3791271    4.3791271    4.3791271    16327.001    21841.386   -13605.627    40745.245    11609.533   -19183.441    6388.9259    83.977442 
   16700    1595.1969   -117.22925    1.4433676   -115.78588    -7941.804    4.3740857    4.3740857    4.3740857    -7941.804   -2662.2286   -5850.8237    -15312.36   -3984.7672     14385.25   -17090.458    83.687742 
   16800    1351.9358    -117.0196      1.22326   -115.79634    9115.1064    4.3931337    4.3931337    4.3931337    9115.1064   -13197.466    6351.3301    34191.455   -13201.632    16070.333    9939.8905     84.78583 
   16900    1903.5265    -117.4949    1.7223508   -115.77255    -25479.19    4.3978439    4.3978439    4.3978439    -25479.19    -10736.35   -28541.218   -37160.003    9666.3035   -16250.201    -4179.613    85.058832 
   17000     1218.973   -116.86467    1.1029524   -115.76172     24324.53    4.3642904    4.3642904    4.3642904     24324.53    25453.378    46115.034    1405.1783   -4323.3946    30480.279   -6525.5123    83.126776 
   17100    1489.4933   -117.13098    1.3477248   -115.78325    8252.9317    4.3728634    4.3728634    4.3728634    8252.9317    3650.3234    33601.897   -12493.425   -10571.486    20027.909    10223.667    83.617604 
   17200     1946.254    -117.5347    1.7610115   -115.77369   -9849.3252    4.3936181    4.3936181    4.3936181   -9849.3252   -18103.996   -13799.523    2355.5431    2665.4574    -17544.72   -10406.654    84.813876 
   17300    1232.3267   -116.88932    1.1150351   -115.77429    5137.9043    4.3858289    4.3858289    4.3858289    5137.9043   -1759.2125    45660.634   -28487.708   -373.55356    31334.562    -7651.123    84.363589 
   17400    1135.7784   -116.81468    1.0276762     -115.787   -30857.941    4.3871758    4.3871758    4.3871758   -30857.941   -30568.722   -14703.669   -47301.433     9255.776    13385.568    5122.5768    84.441339 
   17500    1444.0752   -117.08671    1.3066296   -115.78008    8310.2334    4.3783861    4.3783861    4.3783861    8310.2334   -3488.0848    10720.151    17698.634   -1995.3574   -22575.087     23436.12    83.934821 
   17600    1554.6216   -117.19481    1.4066543   -115.78815     8051.155    4.3818746    4.3818746    4.3818746     8051.155   -11338.978     68804.05   -33311.607     15445.41    20909.175    209.90589    84.135608 
   17700    911.00769   -116.61657    0.8242989   -115.79227    4944.7567    4.3951626    4.3951626    4.3951626    4944.7567   -28778.635    51699.856   -8086.9509    18583.217    13075.603    11602.404    84.903351 
   17800    1594.7362   -117.20953    1.4429508   -115.76658   -10628.968    4.3892666    4.3892666    4.3892666   -10628.968   -47122.511    46478.013   -31242.405    4099.4716   -21240.559    2312.9909    84.562124 
   17900    1343.2651    -116.9832    1.2154145   -115.76778    15275.888    4.3818263    4.3818263    4.3818263    15275.888   -23657.969     49457.84    20027.793   -2913.6919    19518.394    3858.4013    84.132826 
   18000    1592.6474   -117.21056    1.4410608    -115.7695   -4638.7051    4.3812949    4.3812949    4.3812949   -4638.7051   -22464.538    -492.2164    9040.6388    9574.3018    5487.5198    -8681.081     84.10222 
   18100     1330.258   -116.98161    1.2036454   -115.77796    3574.1583     4.377091     4.377091     4.377091    3574.1583    -29981.01    11943.885      28759.6    3517.1617   -13766.264   -16396.063    83.860359 
   18200    1795.4039   -117.41294    1.6245192   -115.78843   -2720.5238    4.3776203    4.3776203    4.3776203   -2720.5238   -28750.077     6847.489    13741.017   -8711.1778    -6614.301    11989.897    83.890787 
   18300    1286.5497   -116.96448    1.1640972   -115.80038    12124.284     4.396694     4.396694     4.396694    12124.284   -13330.494    14628.701    35074.643    20703.172    18225.784    -1288.563    84.992132 
   18400     1375.651   -117.02223    1.2447179   -115.77751   -21993.377    4.4114427    4.4114427    4.4114427   -21993.377   -60621.143   -34968.967     29609.98   -5215.6139    -14090.98    -315.4788    85.850321 
   18500     1491.842   -117.10626      1.34985   -115.75641    1011.3432    4.3861444    4.3861444    4.3861444    1011.3432   -25595.908   -13673.439    42303.377   -13675.174   -218.14457    9413.9955    84.381799 
   18600     1523.388    -117.1315    1.3783935    -115.7531    14849.152    4.3626021    4.3626021    4.3626021    14849.152    9317.5209    32884.262    2345.6734    24432.271    19248.759    7449.3735    83.030339 
   18700      1271.17   -116.94163    1.1501814   -115.79145   -8486.4332    4.3931175    4.3931175    4.3931175   -8486.4332   -13222.566   -55087.375    42850.642   -10132.814   -7022.6316   -8303.1603    84.784891 
   18800    1716.0715   -117.31424    1.5527376   -115.76151   -20909.111    4.4171084    4.4171084    4.4171084   -20909.111   -59648.549    687.62946   -3766.4139   -10435.508    5683.0589    14636.927    86.181525 
   18900    1570.8722    -117.1697    1.4213582   -115.74834   -12919.781    4.3948524    4.3948524    4.3948524   -12919.781   -35537.964   -18617.261    15395.881    24338.679    1616.1176    5090.7028    84.885378 
   19000    1210.1256   -116.84551    1.0949471   -115.75056    30153.794    4.3744149    4.3744149    4.3744149    30153.794    47150.268   -24483.899    67795.014   -4056.6379    1932.0222   -17341.548    83.706639 
   19100    1710.0032   -117.32359    1.5472468   -115.77635    -8011.914    4.3982556    4.3982556    4.3982556    -8011.914   -27596.334    6627.3911   -3066.7988   -4236.0672   -7668.3598   -2894.9184    85.082727 
   19200    1418.8644   -117.06503    1.2838183   -115.78122   -29795.679     4.396645     4.396645     4.396645   -29795.679   -58764.716    -24009.43    -6612.891    43211.396    5303.2621    -4229.267    84.989292 
   19300     1428.329   -117.05685    1.2923821   -115.76447    18236.071     4.363984     4.363984     4.363984    18236.071    26171.302    33122.339   -4585.4288    24156.494    2685.7054    485.83839    83.109265 
   19400    1808.6558   -117.40849    1.6365098   -115.77198    10174.302    4.3762861    4.3762861    4.3762861    10174.302    14409.054    23197.791   -7083.9387   -6203.0845    5433.5663   -24012.182    83.814107 
   19500    1236.7454   -116.90016    1.1190332   -115.78112   -8234.9113    4.3966168    4.3966168    4.3966168   -8234.9113   -33908.725    34305.853   -25101.861    22522.004    6521.7158    1105.6197    84.987653 
   19600    971.57376   -116.65379   0.87910035   -115.77469    11175.381      4.39323      4.39323      4.39323    11175.381    24087.591    7823.7404    1614.8118     21474.26    12473.644   -5665.2667    84.791405 
   19700    1872.7897   -117.45043    1.6945395   -115.75589    6473.7848    4.3808061    4.3808061    4.3808061    6473.7848    3608.7773    30234.462   -14421.885   -19796.162    3451.7285   -16616.286    84.074076 
   19800    1431.9362   -117.06051     1.295646   -115.76486    17624.658    4.3665646    4.3665646    4.3665646    17624.658   -5029.8105    37445.864    20457.922    29634.313    3616.1024    13372.442    83.256791 
   19900    1092.6036   -116.77405   0.98861069   -115.78544    12924.989    4.3796727    4.3796727    4.3796727    12924.989    11640.186    42547.336   -15412.556    22171.899    9846.8247   -12376.772    84.008839 
   20000     1610.049   -117.23154    1.4568061   -115.77474   -26879.601    4.4121375    4.4121375    4.4121375   -26879.601   -51671.795   -9445.3473   -19521.661   -16904.937   -9779.3671   -9702.0167    85.890893 
   20100    1267.7015   -116.90908    1.1470429   -115.76204    -28112.47    4.4019034    4.4019034    4.4019034    -28112.47   -43096.079   -54020.527    12779.196    40209.969    23251.808    10594.236    85.294598 
   20200     1279.331    -116.9083    1.1575656   -115.75073    37141.854    4.3470741    4.3470741    4.3470741    37141.854    52982.415    33692.687     24750.46    29523.855    11903.983   -7949.6229    82.146889 
   20300    1748.6496   -117.35656    1.5822149   -115.77435    42602.875    4.3504661    4.3504661    4.3504661    42602.875    57185.083    21048.971    49574.571   -17991.562   -9176.0972   -10791.521    82.339335 
   20400    1380.0058   -117.04783    1.2486583   -115.79917     -29167.4    4.4057444    4.4057444    4.4057444     -29167.4   -29819.393   -44860.159   -12822.648    23028.236   -2133.2243    1423.8767    85.518072 
   20500    1319.4828   -116.97487    1.1938958   -115.78098   -25709.117    4.3962744    4.3962744    4.3962744   -25709.117   -20145.206   -43057.939   -13924.205    29890.588   -6270.2267   -1278.8808    84.967799 
   20600    1760.7785   -117.33971    1.5931894   -115.74652    50775.861    4.3509449    4.3509449    4.3509449    50775.861    76857.641    39612.576    35857.364   -4972.0014    493.79437   -7813.0911    82.366528 
   20700    1227.7514   -116.90524    1.1108953   -115.79434    15383.414    4.3688409    4.3688409    4.3688409    15383.414    21394.255   -26058.152    50814.139      14213.5    3281.1482   -1214.2106    83.387065 
   20800    882.00848   -116.59379   0.79805981   -115.79573   -20013.452    4.3989518    4.3989518    4.3989518   -20013.452   -38011.334   -30581.512    8552.4902    25299.687    16776.254    12567.679    85.123135 
   20900    1724.5037   -117.32097    1.5603671    -115.7606   -6730.8337    4.3945857    4.3945857    4.3945857   -6730.8337    25860.476    -23390.33   -22662.647   -19872.569    4376.4662    2022.5218    84.869924 
   21000    1094.2086   -116.75576   0.99006298    -115.7657    2651.6943    4.3783067    4.3783067    4.3783067    2651.6943    6087.8177   -34726.399    36593.665    49118.861   -2821.6056    893.01627    83.930253 
   21100    1116.6975   -116.78001    1.0104114    -115.7696    13546.647    4.3618751    4.3618751    4.3618751    13546.647   -12138.292   -36411.959    89190.193    21805.099   -6735.8319    4895.7839    82.988836 
   21200    1307.8212   -116.97619    1.1833441   -115.79284    516.02801    4.3886566    4.3886566    4.3886566    516.02801    11280.523   -10607.655    875.21614     -19880.8    6632.8902    4435.0479    84.526873 
   21300     1370.112   -117.01902    1.2397061   -115.77932    -47899.99    4.4047945    4.4047945    4.4047945    -47899.99   -45608.657   -71771.832    -26319.48    40424.135    -8590.081   -3517.8055    85.462771 
   21400    1116.6021   -116.78006     1.010325   -115.76974    9341.0803    4.3684647    4.3684647    4.3684647    9341.0803    17813.202   -16251.474    26461.513    25384.654   -2004.4077   -9453.6771    83.365527 
   21500    1309.4398   -116.94736    1.1848087   -115.76255    29079.451    4.3633438    4.3633438    4.3633438    29079.451    25815.586    30694.989    30727.779   -28150.542   -12766.147    16951.919    83.072694 
   21600    1484.2124   -117.12161    1.3429466   -115.77867   -13633.473     4.392963     4.392963     4.392963   -13633.473    2891.6348   -18764.316   -25027.738     16768.61   -7129.0961   -5548.3968    84.775947 
   21700    1546.7287   -117.17167    1.3995126   -115.77216   -11040.612    4.3963118    4.3963118    4.3963118   -11040.612    9551.6773   -10311.719   -32361.795    39459.778     8830.746   -1736.9839    84.969971 
   21800    1115.0902   -116.77547    1.0089571   -115.76651     15633.87    4.3790685    4.3790685    4.3790685     15633.87    43985.265    11557.401   -8641.0554   -23433.884   -3526.1326   -4727.3094    83.974072 
   21900    1552.9682   -117.17462    1.4051583   -115.76947   -1844.0502    4.3781037    4.3781037    4.3781037   -1844.0502    9678.9904   -28159.765    12948.624   -20392.994    1022.4513   -4148.0258    83.918582 
   22000    1727.5036   -117.33799    1.5630816    -115.7749   -3957.6464     4.392208     4.392208     4.392208   -3957.6464   -14161.276    1252.9708    1035.3664     17858.31    183.95876    1901.4387    84.732243 
   22100    1143.4689   -116.80982    1.0346347   -115.77519   -13966.057     4.403913     4.403913     4.403913   -13966.057   -9992.4109   -35512.019      3606.26   -27162.738    11735.987   -5409.5133     85.41147 
   22200    1580.3285   -117.17926    1.4299144   -115.74934   -16220.249    4.3940134    4.3940134    4.3940134   -16220.249   -33908.455    -15749.19    996.89847   -34759.596    773.08494   -5556.7228    84.836773 
   22300    1610.8081   -117.19328     1.457493   -115.73579     20246.34     4.382486     4.382486     4.382486     20246.34   -13073.079    33754.203    40057.896    13444.411    3722.0161   -10320.976    84.170829 
   22400    1237.7325   -116.88432    1.1199263   -115.76439   -21333.666    4.3885272    4.3885272    4.3885272   -21333.666   -55380.044   -37044.218    28423.264   -20580.501    10404.385   -6795.2941    84.519393 
   22500    1088.6711    -116.7553   0.98505247   -115.77025    -6773.543     4.387396     4.387396     4.387396    -6773.543   -22692.371   -24420.504    26792.246   -35319.667    6750.6292     10879.07    84.454058 
   22600    1976.7943   -117.55044     1.788645   -115.76179    19670.806     4.378839     4.378839     4.378839    19670.806     3830.414    1009.3227    54172.681   -178.31877    -3025.439    4282.8475    83.960869 
   22700     1433.852   -117.08233    1.2973794   -115.78495   -5545.2112    4.3802044    4.3802044    4.3802044   -5545.2112   -8233.4261   -7750.2715     -651.936   -19149.862    7748.1199    -4938.053    84.039436 
   22800    1214.6551   -116.88846    1.0990455   -115.78941   -7736.6914    4.3738436    4.3738436    4.3738436   -7736.6914   -7315.6996   -4632.5048    -11261.87   -22383.598   -2038.9788    8484.9408    83.673849 
   22900    1604.1021   -117.23797    1.4514253   -115.78655    21875.745     4.386948     4.386948     4.386948    21875.745    54589.887   -1058.9172    12096.265    3081.5806   -240.43351    3282.8807    84.428187 
   23000    1361.3898   -117.00122    1.2318141   -115.76941   -22298.359    4.4056727    4.4056727    4.4056727   -22298.359   -39125.231    -40984.34    13214.493   -29705.229    4768.7504     474.0542    85.513895 
   23100    1279.1091    -116.9083    1.1573648   -115.75094   -19732.107    4.3785928    4.3785928    4.3785928   -19732.107   -19015.986   -26354.661   -13825.674   -40123.307    666.22451     14562.03    83.946709 
   23200    1667.2801   -117.25842    1.5085901   -115.74983    24325.706    4.3570285    4.3570285    4.3570285    24325.706    68739.582    4592.9598   -355.42321    15175.738   -7106.0178    8638.1197    82.712508 
   23300    1336.7158   -117.00366    1.2094885   -115.79417    6115.9038    4.3813085    4.3813085    4.3813085    6115.9038   -32153.703    28926.552    21574.863     2989.417    15023.489   -396.08706    84.103003 
   23400    1143.8329   -116.82922     1.034964   -115.79426   -27323.257    4.4005568    4.4005568    4.4005568   -27323.257   -16019.286   -47683.118   -18267.368   -12462.414    10714.692    6494.7618     85.21634 
   23500    1170.4048    -116.8436    1.0590068    -115.7846    -4558.657    4.3835373    4.3835373    4.3835373    -4558.657    -3889.139    33153.065   -42939.897   -3271.8438   -16459.034    18670.318     84.23142 
   23600     1733.794    -117.3366    1.5687733   -115.76783    22621.851    4.3556078    4.3556078    4.3556078    22621.851   -14851.313    67703.421    15013.445    985.49114   -8958.1327     15009.86    82.631626 
   23700    1353.6133   -117.03794    1.2247778   -115.81316   -17775.504    4.3822528    4.3822528    4.3822528   -17775.504   -40980.466   -8975.5412   -3370.5053   -12074.537    9284.2995   -12683.939    84.157393 
   23800    1039.4245   -116.72904   0.94049311   -115.78855   -55173.815    4.4131067    4.4131067    4.4131067   -55173.815   -34152.593   -58163.054   -73205.797   -16857.946   -10707.028    12598.653    85.947507 
   23900    1810.1729   -117.39825    1.6378825   -115.76036   -15403.876    4.3783858    4.3783858    4.3783858   -15403.876   -24308.985    23374.398   -45277.039    5650.5708   -26015.305    14601.457    83.934803 
   24000    1832.3359   -117.40047     1.657936   -115.74253    18148.571    4.3512209    4.3512209    4.3512209    18148.571    2079.9185    15544.506    36821.289   -24718.789   -5896.8643    -5622.092    82.382204 
   24100    1138.7995   -116.82875    1.0304097   -115.79834    2652.7451    4.3876056    4.3876056    4.3876056    2652.7451    11779.709    8253.5097   -12074.984   -19831.023   -2549.1874    20202.828    84.466161 
   24200    1593.5657   -117.20297    1.4418917   -115.76108   -30157.502    4.4080464    4.4080464    4.4080464   -30157.502   -50192.377    10610.828   -50890.957     6409.838   -15379.274    3994.8035     85.65219 
   24300    1311.2712   -116.93781    1.1864658   -115.75135    17175.278    4.3628628    4.3628628    4.3628628    17175.278   -45373.921     42087.57    54812.186   -47671.727    1657.2253   -936.73869    83.045224 
   24400    1501.0284   -117.11318    1.3581621   -115.75502    37511.874    4.3586523    4.3586523    4.3586523    37511.874    35351.243    48084.601    29099.777   -15044.829   -694.41663   -285.39144    82.805023 
   24500    1934.0837    -117.5185    1.7499995    -115.7685   -12034.397    4.3822733    4.3822733    4.3822733   -12034.397   -28790.299   -7170.8741   -142.01878    17411.799   -9793.3546    6449.9725    84.158576 
   24600    873.11439   -116.57763   0.79001225   -115.78762    4160.3183    4.3791967    4.3791967    4.3791967    4160.3183   -32210.155   -21791.645    66482.755    -50843.48    -9724.999    5684.8551    83.981446 
   24700    1711.6784   -117.32767    1.5487626   -115.77891   -6983.4735     4.377451     4.377451     4.377451   -6983.4735    5679.5974   -30829.342    4199.3238    -12654.51    4259.1943   -24833.413    83.881057 
   24800    1765.7783   -117.36933    1.5977133   -115.77161    6353.3684    4.3747058    4.3747058    4.3747058    6353.3684   -42274.396    30236.469    31098.032    5591.5346    11986.107   -3476.6153     83.72334 
   24900    1053.8679   -116.73434   0.95356184   -115.78078    4451.4617    4.3732385    4.3732385    4.3732385    4451.4617   -33884.806    5412.9516    41826.239   -43890.964    114.17328    6270.3112    83.639125 
   25000    1438.6065    -117.0769    1.3016814   -115.77522    133.88967    4.3869606    4.3869606    4.3869606    133.88967    8729.7754    3429.3639    -11757.47    5721.1911    3891.4345   -1255.7737    84.428912 
   25100    1415.8575   -117.04644    1.2810976   -115.76534   -11440.413    4.3870222    4.3870222    4.3870222   -11440.413   -22145.503   -14269.837    2094.1022     8655.979   -4969.4837   -21161.805    84.432472 
   25200    1151.8079   -116.80566      1.04218   -115.76348    5709.4789    4.3775971    4.3775971    4.3775971    5709.4789   -2638.9323   -20757.512    40524.881   -34055.684    -12868.42    8016.1889    83.889451 
   25300    1936.8884   -117.51239    1.7525373   -115.75985    2707.3715    4.3785016    4.3785016    4.3785016    2707.3715    29823.785    3163.5285   -24865.199    10792.763    2086.9335    18923.217    83.941465 
   25400    1306.7148   -116.95702     1.182343   -115.77468    12983.095    4.3743045    4.3743045    4.3743045    12983.095    29431.013    -9752.311    19270.583   -9477.2523    14044.633   -8972.1122    83.700306 
   25500    1144.8091   -116.82195    1.0358474    -115.7861    8584.6468    4.3779621    4.3779621    4.3779621    8584.6468    20035.152   -33757.274    39476.062   -46203.236   -10824.562    164.44048    83.910437 
   25600    1847.0521   -117.44962    1.6712516   -115.77837    3218.5312    4.3931113    4.3931113    4.3931113    3218.5312   -6419.0399    53561.275   -37486.641    9633.7444    8632.1691    4044.8681    84.784528 
   25700    1546.6134     -117.183    1.3994083   -115.78359    11517.778     4.373465     4.373465     4.373465    11517.778   -4463.2149    14290.441    24726.107   -7207.1415    12240.825    4165.1063    83.652123 
   25800     929.7847   -116.62257   0.84128874   -115.78128    36314.753     4.354636     4.354636     4.354636    36314.753   -19154.562    51305.897    76792.925    -52768.97   -1601.9786   -6462.5594    82.576331 
   25900    1619.4562   -117.26412     1.465318    -115.7988   -17168.746    4.3879806    4.3879806    4.3879806   -17168.746   -3707.5198   -22037.741   -25760.977    3784.2677   -1164.2226   -10760.507    84.487817 
   26000    1547.3863   -117.17237    1.4001076   -115.77226   -12143.754    4.4019642    4.4019642    4.4019642   -12143.754   -40156.124   -27050.933    30775.795   -12731.518    4200.9407   -107.34139    85.298133 
   26100    1251.9876   -116.89654    1.1328247   -115.76372   -9095.6169    4.3910898    4.3910898    4.3910898   -9095.6169    21587.353    -56778.66    7904.4567   -36034.964   -54.431302   -10974.129    84.667543 
   26200    1708.9246   -117.30308    1.5462709   -115.75681   -4140.1401    4.3739332    4.3739332    4.3739332   -4140.1401    49900.209   -32561.056   -29759.573    3022.4637    8319.9134   -16510.332    83.678994 
   26300    1476.4929   -117.10919    1.3359618   -115.77323    23541.418    4.3737099    4.3737099    4.3737099    23541.418    45856.141   -4112.0237    28880.136    9606.3554   -467.04587   -3060.5041    83.666178 
   26400    1254.7743   -116.92243    1.1353461   -115.78708    -13513.95    4.3962787    4.3962787    4.3962787    -13513.95   -30084.316   -25458.985     15001.45   -24168.318    6180.4252   -2735.7049    84.968052 
   26500     1520.974   -117.14594    1.3762093   -115.76973   -9306.5889    4.3945904    4.3945904    4.3945904   -9306.5889    14434.708    -1066.396   -41288.079    1575.5695    6721.1836   -4955.3082    84.870198 
   26600    1712.3325   -117.30683    1.5493544   -115.75747    9480.4108    4.3734731    4.3734731    4.3734731    9480.4108    9552.7127    26521.299   -7632.7789    10169.067    -9722.767   -1215.1012    83.652589 
   26700    756.83468   -116.46339   0.68479992   -115.77859    17628.199    4.3674231    4.3674231    4.3674231    17628.199   -31034.213   -4183.1964    88102.008   -40769.826   -3101.6356    14348.832    83.305909 
   26800     1605.286   -117.23685    1.4524965   -115.78435    1940.1898    4.3791597    4.3791597    4.3791597    1940.1898    15218.061   -85.800817   -9311.6903   -9941.5187   -14203.973   -11564.145     83.97932 
   26900    1509.2497   -117.14079    1.3656009   -115.77519     505.3914    4.3936604    4.3936604    4.3936604     505.3914   -11088.278   -7800.4246    20404.877    5552.7597    7211.8358   -2721.9716    84.816327 
   27000    842.48829   -116.54164   0.76230111   -115.77934   -24172.905    4.3822063    4.3822063    4.3822063   -24172.905   -58571.667   -40550.168    26603.119   -41652.221    4093.0016    5559.4208    84.154718 
   27100    1285.1829   -116.93152    1.1628605   -115.76866    34220.311    4.3590042    4.3590042    4.3590042    34220.311    55753.467   -9372.3051    56279.771    10048.017   -15761.145    -6886.243    82.825078 
   27200    1803.4708   -117.40609    1.6318183   -115.77428    24368.359    4.3730994    4.3730994    4.3730994    24368.359    34711.423    6065.4075    32328.246   -3367.6619    18210.323    2378.7649    83.631143 
   27300    1053.0595   -116.73708   0.95283034   -115.78425   -20179.465     4.391417     4.391417     4.391417   -20179.465   -10424.846   -64721.407    14607.856   -35101.109   -14000.791    8084.8276    84.686469 
   27400    1049.3977   -116.72549   0.94951713   -115.77598   -5545.8433    4.3791942    4.3791942    4.3791942   -5545.8433    9517.8191   -58621.308    32465.959    28521.159    14084.474    2426.5854    83.981306 
   27500    2052.0019   -117.61716    1.8566945   -115.76046    23441.469      4.36224      4.36224      4.36224    23441.469    36006.339    58.971492    34259.098   -2769.6379   -3794.4084   -4792.2693    83.009667 
   27600    1322.6168    -116.9745    1.1967315   -115.77777     4137.297    4.3771957    4.3771957    4.3771957     4137.297    20046.038   -14991.026    7356.8789    -24277.48    3169.0803    14072.261    83.866379 
   27700    1148.4025   -116.81533    1.0390988   -115.77623   -29226.944    4.3890106    4.3890106    4.3890106   -29226.944   -38466.063   -68286.462    19071.694    23039.975    8348.2744   -542.86384    84.547327 
   27800    1834.1035   -117.42147    1.6595354   -115.76193     9609.301    4.3750427    4.3750427    4.3750427     9609.301    23350.708    364.20222    5112.9931    15450.094   -8663.1194   -5885.2956    83.742687 
   27900    1626.2018   -117.24278    1.4714216   -115.77136    9623.1637    4.3662444    4.3662444    4.3662444    9623.1637    16130.122   -8667.6152    21406.984   -6725.0422    19823.371   -4486.0761    83.238475 
   28000    1141.9821   -116.81728    1.0332894   -115.78399   -3199.9571    4.3710835    4.3710835    4.3710835   -3199.9571     11296.85   -53880.728    32984.007    14233.383   -7756.9975    6231.0259    83.515541 
   28100    1534.6091   -117.17086    1.3885466   -115.78231    -1608.705    4.3832239    4.3832239    4.3832239    -1608.705     10209.28   -1669.5653    -13365.83    2014.9751    7417.1604   -17834.411    84.213354 
   28200    1602.9264   -117.21809    1.4503615   -115.76773   -18641.044    4.3880554    4.3880554    4.3880554   -18641.044   -9704.0996   -16873.005   -29346.027    3607.5923    13156.731   -18642.068    84.492138 
   28300    1174.6119   -116.82691    1.0628135    -115.7641    8040.9208    4.3669028    4.3669028    4.3669028    8040.9208   -21944.556   -35066.895    81134.213    22894.194   -18924.208    17252.834    83.276135 
   28400    1446.8813   -117.07724    1.3091686   -115.76807     8515.314    4.3618924    4.3618924    4.3618924     8515.314    10096.498   -1350.3257    16799.769   -4099.1806    13771.479   -16790.193    82.989825 
   28500    1408.4889    -117.0612    1.2744303   -115.78677   -24403.747    4.3849254    4.3849254    4.3849254   -24403.747   -1754.9787   -39658.024   -31798.238    6275.2658   -11851.745    -27680.13    84.311465 
   28600    1181.0209   -116.84868    1.0686125   -115.78007   -13566.459     4.379088     4.379088     4.379088   -13566.459   -51770.425    5079.8463    5991.2029    31347.964    1614.4908    8703.4446    83.975194 
   28700     1585.433   -117.20228    1.4345331   -115.76774    19410.931    4.3528845    4.3528845    4.3528845    19410.931    10459.315   -5148.7561    52922.234    11938.731    -2364.123    -7102.905    82.476731 
   28800    1172.6319   -116.85714     1.061022   -115.79612    211.63141    4.3683038    4.3683038    4.3683038    211.63141    28319.615   -11432.114   -16252.607   -7510.4726    -7601.627   -33723.175    83.356315 
   28900     1329.334   -116.99535    1.2028094   -115.79254   -34404.337    4.3857027    4.3857027    4.3857027   -34404.337   -55814.577   -32885.811   -14512.623    34542.325     12075.12   -9549.5702    84.356309 
   29000    1406.6402   -117.04665    1.2727576   -115.77389    7437.7031    4.3797047    4.3797047    4.3797047    7437.7031   -13071.654   -10901.261    46286.025   -1460.2946   -5387.3342    9963.2485    84.010676 
   29100     1703.011   -117.30189    1.5409201   -115.76097   -16825.839    4.3779284    4.3779284    4.3779284   -16825.839    1880.9635   -28746.031   -23612.448    -11670.16    8588.9995   -31247.152    83.908501 
   29200    1104.9177   -116.77422   0.99975275   -115.77446   -15773.907    4.3719084    4.3719084    4.3719084   -15773.907    -33656.29   -20767.362      7101.93    50441.228    2314.1789   -21940.145    83.562832 
   29300     1899.971   -117.50609    1.7191337   -115.78696   -4308.0328     4.368524     4.368524     4.368524   -4308.0328   -26332.212    12363.368    1044.7456    15914.463    10377.408    2931.8498    83.368919 
   29400    1650.8213   -117.28373    1.4936978   -115.79003    33552.409    4.3754564    4.3754564    4.3754564    33552.409   -12119.057    46067.879    66708.405   -11902.399   -6940.1808   -573.90468    83.766443 
   29500    948.90819   -116.65793   0.85859207   -115.79934   -26449.726    4.3855826    4.3855826    4.3855826   -26449.726   -56787.543   -7727.0516   -14834.585    52617.948    2785.7946   -17180.509    84.349377 
   29600    1334.1949   -116.99194    1.2072076   -115.78473     8494.685    4.3784712    4.3784712    4.3784712     8494.685   -8343.8279    19752.096    14075.787    15129.981     738.6852   -5803.1092    83.939713 
   29700    1809.3783   -117.40904    1.6371635   -115.77187    30619.662    4.3668758    4.3668758    4.3668758    30619.662   -8108.6652    33263.075    66704.575   -2509.6822   -3476.6822    9409.1045    83.274594 
   29800     942.6677   -116.65706   0.85294555   -115.80411   -22771.904    4.3807271    4.3807271    4.3807271   -22771.904   -31422.483   -42765.106    5871.8778    49017.382   -3044.7643   -18469.436    84.069526 
   29900    1416.1066   -117.06503     1.281323    -115.7837   -10077.741    4.3860607    4.3860607    4.3860607   -10077.741   -9933.3163   -35573.097     15273.19    5369.0683     7870.764   -10131.063    84.376968 
   30000    1674.8781   -117.27477    1.5154649   -115.75931    20014.026    4.3769592    4.3769592    4.3769592    20014.026   -3760.0262    4484.4186    59317.685   -17634.674     130.1089    535.88735    83.852787 
   30100    1161.6721   -116.82144    1.0511054   -115.77034   -17167.142    4.3735047    4.3735047    4.3735047   -17167.142    -24850.27   -47999.657    21348.502    41319.028   -10220.646   -15630.717    83.654401 
   30200    1343.0383   -116.99737    1.2152093   -115.78216    2933.8316    4.3776647    4.3776647    4.3776647    2933.8316    38858.131   -52496.076     22439.44    10291.122    3950.0528    -12376.66    83.893341 
   30300    1949.3849   -117.53171    1.7638444   -115.76786    -16431.54    4.3838644    4.3838644    4.3838644    -16431.54   -10168.926   -44726.848    5601.1552   -1598.9865    1732.7489    11918.582    84.250275 
   30400    1097.1998   -116.76696   0.99276941   -115.77419   -7540.0966    4.3710015    4.3710015    4.3710015   -7540.0966    47805.508   -72427.154    2001.3561    29703.972   -9278.1978   -12847.201    83.510844 
   30500    1410.9575   -117.04946     1.276664    -115.7728    24532.733     4.369712     4.369712     4.369712    24532.733    58946.336   -1985.8942    16637.758    3478.5992     12656.08   -16585.969    83.436956 
   30600    2033.0548   -117.60689    1.8395507   -115.76734    4491.4397    4.3789824    4.3789824    4.3789824    4491.4397    25460.497   -19433.146    7446.9683    1487.5071   -694.41775    14827.361    83.969122 
   30700    1179.3164   -116.83896    1.0670703   -115.77189    10603.045    4.3803393    4.3803393    4.3803393    10603.045    74175.065   -36195.742   -6170.1887    24079.608   -13453.623   -14544.674      84.0472 
   30800    1563.3551   -117.18361    1.4145566   -115.76905   -3417.9444    4.3798733    4.3798733    4.3798733   -3417.9444    13485.291    -18685.95   -5053.1734    7052.1635    397.53284   -22615.136    84.020378 
   30900    1629.9936   -117.24377    1.4748525   -115.76892    17757.543    4.3673859    4.3673859    4.3673859    17757.543    42684.523    -20365.66    30953.766   -9476.8832    2615.5317    28389.931    83.303781 
   31000    1234.6522   -116.90098    1.1171393   -115.78385    13344.537    4.3672408    4.3672408    4.3672408    13344.537    58061.024    -31304.59    13277.178    21751.525    6650.0556    19485.351    83.295478 
   31100    1643.4546   -117.27246    1.4870323   -115.78543   -16051.494    4.3870787    4.3870787    4.3870787   -16051.494   -39122.054   -52704.031    43671.603    10313.247    1240.0736   -16911.794     84.43573 
   31200    1303.1308   -116.95376    1.1791002   -115.77466    13722.151    4.3805512    4.3805512    4.3805512    13722.151    27278.351   -4896.6218    18784.725   -12230.097    4132.6627    24873.984    84.059398 
   31300    994.04092   -116.67519   0.89942912   -115.77576    17877.881    4.3616789    4.3616789    4.3616789    17877.881    74995.093   -33867.127    12505.677    18555.059    6380.1423    31335.404     82.97764 
   31400    1426.7218   -117.07802    1.2909278   -115.78709   -5463.3422    4.3777854    4.3777854    4.3777854   -5463.3422   -30206.944   -46965.733     60782.65    14871.304    5150.7675    -10806.39    83.900279 
   31500    1468.1915   -117.09918    1.3284505   -115.77073   -25439.602    4.3900431    4.3900431    4.3900431   -25439.602    2513.8884   -71132.935   -7699.7587   -21179.642   -4544.5487    30755.607    84.607008 
   31600    923.56061   -116.60665   0.83565705   -115.77099    12282.295    4.3662052    4.3662052    4.3662052    12282.295    45933.551   -9552.4796    465.81324    26916.344    10925.786    27521.001    83.236232 
   31700    1392.7433   -117.03754    1.2601834   -115.77735    11974.258    4.3706607    4.3706607    4.3706607    11974.258   -10713.994    9007.5821    37629.186    17703.996    8862.6426   -1396.3084     83.49131 
   31800    1482.1386   -117.11139    1.3410701   -115.77032    1532.5916    4.3875883    4.3875883    4.3875883    1532.5916   -2879.4383   -27899.559    35376.772   -24351.357    1333.2755    17396.191    84.465158 
   31900    1363.0359   -117.00106    1.2333035   -115.76776    3153.9882    4.3718601    4.3718601    4.3718601    3153.9882    7210.4885   -12367.646    14619.122    7009.9661    -2651.349     28014.91    83.560063 
   32000    1018.6596   -116.70297   0.92170464   -115.78126    4448.1884    4.3724862    4.3724862    4.3724862    4448.1884   -15542.019    522.62173    28363.962    17065.299    18137.247   -6686.2641    83.595968 
   32100    1634.5111   -117.25405      1.47894   -115.77511   -3125.9104     4.376883     4.376883     4.376883   -3125.9104   -10620.497   -4067.5242    5310.2899    -16004.71    32511.844   -1662.6614    83.848409 
   32200    1744.5259   -117.35113    1.5784837   -115.77265     10414.69    4.3706463    4.3706463    4.3706463     10414.69   -6489.4837    5822.9279    31910.625    23911.231    -11986.35    7257.3934    83.490484 
   32300    825.64001   -116.53565   0.74705643    -115.7886   -20545.479    4.3877421    4.3877421    4.3877421   -20545.479   -33446.178   -17891.373   -10298.885    33857.308    11559.367    -4407.467    84.474045 
   32400    1486.7244   -117.11753    1.3452195   -115.77231   -3225.6998    4.3712832    4.3712832    4.3712832   -3225.6998   -14378.957    32621.407   -27919.549   -24080.104    17492.415   -1236.1101    83.526991 
   32500    1858.3324   -117.44784    1.6814582   -115.76638    10731.709    4.3589887    4.3589887    4.3589887    10731.709    6256.6887    8924.3088     17014.13    15460.621   -8688.3048    2232.0846    82.824194 
   32600    893.40614   -116.59571   0.80837265   -115.78733   -31969.424    4.3915212    4.3915212    4.3915212   -31969.424    -60090.07   -25986.841   -9831.3605    34430.315   -1651.1319    2555.9801    84.692498 
   32700    1506.8306   -117.12321     1.363412    -115.7598   -24535.883    4.3862159    4.3862159    4.3862159   -24535.883    -36870.71    6364.4767   -43101.417    -14052.47   -4059.7411   -7316.1768    84.385924 
   32800    1498.5659   -117.10961    1.3559339   -115.75368    3659.5704    4.3680117    4.3680117    4.3680117    3659.5704   -21741.559    2847.4336    29872.837    23106.657    4651.7766   -12852.249    83.339595 
   32900    1259.5832   -116.91773    1.1396973   -115.77803   -10421.381    4.3703332    4.3703332    4.3703332   -10421.381   -57145.703   -26138.923    52020.482    35495.554   -19628.155    1140.7409    83.472543 
   33000    1496.0574   -117.13194    1.3536642   -115.77828    -1249.645    4.3786263    4.3786263    4.3786263    -1249.645   -14306.669   -10296.989    20854.722   -6856.5825   -8144.1448   -8716.9817    83.948634 
   33100    879.96755   -116.57616   0.79621313   -115.77995   -6841.1689    4.3964789    4.3964789    4.3964789   -6841.1689   -19928.927   -52971.324    52376.744    46422.157     19883.76   -6070.1769    84.979657 
   33200    1393.2084   -117.01741    1.2606043   -115.75681   -7315.4185    4.3866771    4.3866771    4.3866771   -7315.4185   -16680.046   -53725.773    48459.564    40521.543    7033.0363    8561.6712    84.412548 
   33300     1635.641   -117.21853    1.4799624   -115.73857    24081.654    4.3694964    4.3694964    4.3694964    24081.654     43408.17   -4506.2198    33343.012   -19315.475    1963.8435   -14716.519    83.424607 
   33400     813.5323   -116.51081   0.73610112   -115.77471    16005.817    4.3791527    4.3791527    4.3791527    16005.817    33686.516   -29919.147    44250.082    40758.493    13740.845    3039.1672    83.978914 
   33500    1567.4613   -117.17718    1.4182719   -115.75891   -4299.0851    4.3985171    4.3985171    4.3985171   -4299.0851    12172.239   -36109.663    11040.168    13308.222    16095.602    11752.254    85.097901 
   33600    1674.0575   -117.25323    1.5147224    -115.7385   -27515.774    4.3893988    4.3893988    4.3893988   -27515.774   -15797.779   -26381.769   -40367.772   -2303.2887    -7559.461   -7010.8204    84.569763 
   33700    1155.4354   -116.79239    1.0454622   -115.74692   -1675.2013    4.3668064    4.3668064    4.3668064   -1675.2013   -13455.845    -9920.689    18350.931    50474.438   -4426.1201     8998.281    83.270621 
   33800    1899.5236   -117.48017    1.7187288   -115.76144    11204.891    4.3682968    4.3682968    4.3682968    11204.891   -14077.911    5337.0856    42355.498   -2093.4723    6881.4323   -2995.0225    83.355916 
   33900    1447.0003   -117.08412    1.3092763   -115.77485    4644.5161    4.3809393    4.3809393    4.3809393    4644.5161    11697.516   -20768.793    23004.825   -7282.1612   -5345.3037    6575.8109    84.081744 
   34000    1147.3771   -116.81804    1.0381709   -115.77987   -31341.701    4.3980087    4.3980087    4.3980087   -31341.701   -54859.557     -22808.8   -16356.745    30326.703   -17854.607   -4985.6053    85.068397 
   34100    1705.9664    -117.3016    1.5435942     -115.758   -8170.6705    4.3767971    4.3767971    4.3767971   -8170.6705   -11355.914   -30025.508    16869.411   -7039.7616   -298.59308   -5994.2275    83.843471 
   34200    1149.3341   -116.78136    1.0399416   -115.74142    44126.585    4.3421156    4.3421156    4.3421156    44126.585    47873.805    14871.526    69634.424   -1263.6252    5746.2763   -21482.741    81.866106 
   34300    1290.2016   -116.95317    1.1674015   -115.78577   -3636.3392    4.3764053    4.3764053    4.3764053   -3636.3392   -21084.455   -1885.7846    12061.222    24216.116   -14227.951    6177.0756    83.820954 
   34400    1323.3752   -116.94832    1.1974177    -115.7509   -36029.881    4.4088459    4.4088459    4.4088459   -36029.881   -52812.092   -29952.081   -25325.469   -15079.581    4287.2119   -13432.627    85.698802 
   34500    878.47789   -116.54811   0.79486526   -115.75325   -5008.3958    4.3720031    4.3720031    4.3720031   -5008.3958    15250.932   -19960.105   -10316.014   -21279.286    189.44403   -44226.681    83.568263 
   34600    1705.7659   -117.27582    1.5434129   -115.73241    31899.729    4.3376117    4.3376117    4.3376117    31899.729    43917.501    37632.396     14149.29    26871.036   -1482.7153     7633.025    81.611623 
   34700    1438.1256   -117.07624    1.3012463   -115.77499    6514.2355    4.3677533    4.3677533    4.3677533    6514.2355    -25029.85    24903.183    19669.373   -17739.005   -3899.0296   -3896.7573    83.324803 
   34800    1139.8328   -116.80708    1.0313447   -115.77573   -36138.336    4.3979239    4.3979239    4.3979239   -36138.336    9426.9455   -71300.601   -46541.352   -36170.055    9421.5822   -30553.235    85.063477 
   34900    1660.4063   -117.25957    1.5023705    -115.7572   -4474.8315    4.3800824    4.3800824    4.3800824   -4474.8315     44383.45   -20150.222   -37657.722    17574.068   -5471.0983   -11147.944    84.032414 
   35000    1818.0798   -117.39502    1.6450369   -115.74998    23321.704    4.3538975    4.3538975    4.3538975    23321.704    32881.481    17475.145    19608.485   -15003.356    2950.9415   -7543.3677    82.534323 
   35100     673.6419    -116.3967   0.60952535   -115.78717    5542.4254    4.3665033    4.3665033    4.3665033    5542.4254    73236.618   -42444.839   -14164.503   -27996.181    14712.655   -27931.244    83.253284 
   35200     1815.287   -117.40626    1.6425098   -115.76375   -21855.372    4.3861135    4.3861135    4.3861135   -21855.372    6180.0845   -41249.115   -30497.087    7827.5348    4287.7772    12291.705    84.380016 
   35300    1805.5283    -117.3874      1.63368   -115.75372   -5164.2342    4.3815999    4.3815999    4.3815999   -5164.2342    20453.983   -3377.2661   -32569.419   -22584.298     3896.789    7194.7918    84.119784 
   35400     594.9614   -116.31259   0.53833358   -115.77426    1972.4676    4.3646425    4.3646425    4.3646425    1972.4676    15137.691     8247.394   -17467.682    -38589.43    8399.9013   -26368.964    83.146895 
   35500    1577.0218   -117.19976    1.4269225   -115.77283    12625.182    4.3673093    4.3673093    4.3673093    12625.182    30385.451     14327.36   -6837.2655    3153.0925     8652.476   -3424.8633    83.299393 
   35600    1490.9547   -117.11701    1.3490471   -115.76796   -9824.4458    4.3951286    4.3951286    4.3951286   -9824.4458    -5414.996   -10799.175   -13259.167   -16283.187   -13180.884    8362.5376    84.901381 
   35700    795.76847   -116.48687   0.72002804   -115.76684   -3193.7523    4.3827786    4.3827786    4.3827786   -3193.7523    16311.564   -29181.259    3288.4379   -22918.771    -544.3068   -21788.183    84.187689 
   35800    1554.8197   -117.14358    1.4068335   -115.73674    27121.892    4.3624657    4.3624657    4.3624657    27121.892    55697.721    30998.712   -5330.7559    6565.4178   -1260.5496    1194.6137    83.022552 
   35900    1198.7574   -116.84292    1.0846609   -115.75825   -6060.1426    4.3747089    4.3747089    4.3747089   -6060.1426    -11141.36     4550.659   -11589.727   -12495.468   -29424.563     5840.867    83.723519 
   36000    844.39163   -116.53592   0.76402329    -115.7719   -8036.3782     4.371266     4.371266     4.371266   -8036.3782   -20994.815   -7527.4994    4413.1797   -17229.608   -7323.8314   -11911.229    83.526002 
   36100    1908.4436   -117.49091    1.7267998   -115.76411    15151.122    4.3665064    4.3665064    4.3665064    15151.122    33491.732    17741.423   -5779.7874    8015.6621    3353.2096   -12546.994    83.253462 
   36200    1596.0177   -117.21788    1.4441104   -115.77377   -16634.373    4.3758166    4.3758166    4.3758166   -16634.373   -31714.078    3368.4302   -21557.471   -17315.189    -23122.26    9803.7282    83.787132 
   36300    949.00276   -116.64194   0.85867764   -115.78326    7207.8597    4.3693983    4.3693983    4.3693983    7207.8597    -16952.88    49555.472   -10979.013   -28592.773   -7981.3362    507.42977    83.418983 
   36400    2163.3945   -117.72725    1.9574848   -115.76976   -4093.6573    4.3778841    4.3778841    4.3778841   -4093.6573   -4577.3882    4035.5635   -11739.147    22423.819    35.711798    815.00738    83.905955 
   36500    1153.7926   -116.81388    1.0439758    -115.7699   -18180.863    4.3814495    4.3814495    4.3814495   -18180.863   -55133.608    22523.742   -21932.724   -39417.794   -9977.9963    6279.6454    84.111125 
   36600    1346.7197    -116.9798    1.2185403   -115.76126     5681.399    4.3572519    4.3572519    4.3572519     5681.399   -13439.885     25740.13    4743.9521   -29405.988   -17326.081   -490.74619    82.725236 
   36700    2060.9723   -117.62102     1.864811   -115.75621    22516.628    4.3585464    4.3585464    4.3585464    22516.628   -2282.0207    47278.021    22553.885    11935.135    3002.4261   -15227.357    82.798985 
   36800    1014.6172   -116.69921   0.91804692   -115.78116    -9602.529    4.3762998    4.3762998    4.3762998    -9602.529   -37595.081    24848.936   -16061.442   -53052.738    105.42551    8112.3991    83.814894 
   36900    1513.4646   -117.13907    1.3694146   -115.76966   -479.52441     4.377467     4.377467     4.377467   -479.52441   -15867.037    21859.961   -7431.4979   -6370.2733   -24286.615    1090.1341    83.881976 
   37000    1787.4782   -117.37406    1.6173478   -115.75672     1536.266    4.3753236    4.3753236    4.3753236     1536.266   -15624.795    -32899.24    53132.833    4297.4288    5142.6937    2844.0856    83.758818 
   37100    894.45618   -116.58074   0.80932275   -115.77141    2257.6687    4.3594317    4.3594317    4.3594317    2257.6687   -24815.621   -18739.922    50328.548    -50083.09   -678.23167    3640.1233     82.84945 
   37200     1395.363   -117.04223    1.2625538   -115.77968    16652.186    4.3607184    4.3607184    4.3607184    16652.186    2819.5181    16359.848    30777.192    -4058.095     517.9619    2586.4881    82.922831 
   37300    1468.3838   -117.10667    1.3286245   -115.77804    6004.3592    4.3812626    4.3812626    4.3812626    6004.3592   -10709.035   -28617.663    57339.776   -8878.6128   -7931.6887    148.78597    84.100357 
   37400    1138.9692   -116.80726    1.0305633    -115.7767    -7694.644    4.3800984    4.3800984    4.3800984    -7694.644   -12750.947   -56375.156    46042.171    -35106.25    2903.8336   -11463.486    84.033336 
   37500    1767.6492   -117.36169    1.5994061   -115.76228    964.20194    4.3678781    4.3678781    4.3678781    964.20194    8103.9394    16249.449   -21460.783    11071.498    1442.3373   -3372.7067    83.331945 
   37600     1331.148   -116.97186    1.2044507   -115.76741   -11302.775    4.3726179    4.3726179    4.3726179   -11302.775   -31102.181     -55448.9    52642.757   -39898.995    3226.9414    6217.6383    83.603524 
   37700    1349.9592   -116.99019    1.2214715   -115.76872   -10019.272    4.3811468    4.3811468    4.3811468   -10019.272   -23028.873   -39480.631    32451.687   -35749.922    768.61104   -15855.206    84.093693 
   37800    1878.2792   -117.45182    1.6995065   -115.75231   -18859.325    4.3822151    4.3822151    4.3822151   -18859.325   -10847.652   -21975.003   -23755.318    19956.786    -10674.67   -10605.055    84.155222 
   37900    789.35632   -116.48315   0.71422619   -115.76892   -15755.125    4.3623658    4.3623658    4.3623658   -15755.125   -55120.938   -58821.483    66677.045    -68450.95    11358.978    8883.0062    83.016848 
   38000    1452.1026   -117.09057    1.3138929   -115.77668    27043.978     4.351857     4.351857     4.351857    27043.978   -11768.359    28574.728    64325.563   -21906.088   -8854.4858   -6769.5582    82.418338 
   38100     2302.963   -117.86034    2.0837693   -115.77657   -7005.1889    4.3727307    4.3727307    4.3727307   -7005.1889   -16528.809   -17340.171    12853.414    6913.9234    12380.751    7346.9982    83.609994 
   38200    720.31048   -116.45384   0.65175206   -115.80208    -28282.87    4.3781889    4.3781889    4.3781889    -28282.87   -86139.178   -40407.515    41698.082   -74701.087    4782.2903    7041.2329    83.923483 
   38300    1527.0653   -117.16644    1.3817208   -115.78472   -12942.288    4.3615185    4.3615185    4.3615185   -12942.288   -28666.565   -2012.8303   -8147.4693   -12417.801    14127.415    18225.271    82.968486 
   38400    1605.8015   -117.22723     1.452963   -115.77426    9520.7819    4.3543514    4.3543514    4.3543514    9520.7819   -13558.571    11628.035    30492.882    11648.306   -8147.0645   -4447.8936    82.560143 
   38500    1038.6425   -116.72947   0.93978555   -115.78969   -33677.918    4.3684839    4.3684839    4.3684839   -33677.918   -58609.109   -72629.497    30204.851   -67262.474     2418.879   -14264.771    83.366626 
   38600    1624.4195   -117.24535    1.4698089   -115.77555   -14900.857    4.3718775    4.3718775    4.3718775   -14900.857    -22261.21   -14377.197   -8064.1633   -7553.1038   -835.59664   -636.23802    83.561064 
   38700    1435.8837   -117.07311    1.2992177   -115.77389    3536.0347    4.3667497    4.3667497    4.3667497    3536.0347   -17033.102   -12152.867    39794.073    6300.5397     8839.585   -1169.5462    83.267382 
   38800     1001.314   -116.68394   0.90600997   -115.77793    4703.2377    4.3678944    4.3678944    4.3678944    4703.2377   -9370.0052    -64811.88    88291.599   -40891.966   -8658.8351   -4026.6008    83.332882 
   38900    1739.7294   -117.34391    1.5741437   -115.76977    12757.183    4.3686433    4.3686433    4.3686433    12757.183    30411.224   -17532.765    25393.089   -1125.8235   -3492.2842   -8681.6776    83.375751 
   39000    1185.2443   -116.85444     1.072434   -115.78201    8242.0284     4.374977     4.374977     4.374977    8242.0284    13737.444   -29650.584    40639.225   -16584.586     169.0658   -769.35316    83.738915 
   39100    948.83333   -116.63457   0.85852434   -115.77604   -11647.781    4.3821351    4.3821351    4.3821351   -11647.781   -1756.7061   -66691.566    33504.929   -32107.018   -3777.9163    6102.3414    84.150612 
   39200    2130.7459   -117.68644    1.9279437   -115.75849     5855.897    4.3623977    4.3623977    4.3623977     5855.897    46201.215   -30982.803    2349.2797     13819.72     903.5781   -1808.8266    83.018671 
   39300     1164.902   -116.83825    1.0540278   -115.78422   -3662.4099     4.357105     4.357105     4.357105   -3662.4099   -16345.261   -35289.962    40647.993   -37355.909    8565.6008    -6552.525    82.716867 
   39400    1101.5647   -116.79527   0.99671885   -115.79855   -27004.359    4.3720602    4.3720602    4.3720602   -27004.359    -40787.76   -68645.876    28420.559   -36582.883    15235.077     3083.081    83.571541 
   39500    1953.6977   -117.53801    1.7677468   -115.77026     9444.567    4.3806697    4.3806697    4.3806697     9444.567    8563.2288   -39583.115    59353.587    15598.712    2127.6643   -4725.7709    84.066223 
   39600    1121.1591   -116.79664    1.0144483   -115.78219   -17441.457    4.3733676    4.3733676    4.3733676   -17441.457    -44414.32   -55355.574    47445.524   -42384.269    679.16992    531.57576    83.646537 
   39700    1016.7399   -116.69664   0.91996765   -115.77667    7139.1703    4.3527034    4.3527034    4.3527034    7139.1703   -14340.001   -33677.916    69435.427   -40148.602    11545.721   -4920.7666    82.466434 
   39800    2028.0115   -117.60823    1.8349874   -115.77324    25077.651    4.3590862    4.3590862    4.3590862    25077.651    30912.921    7126.3499    37193.681    9660.0858   -2935.8761    2160.5427    82.829754 
   39900    1013.9269   -116.70527   0.91742235   -115.78785   -16354.663    4.3811452    4.3811452    4.3811452   -16354.663    1249.5429   -50654.657    341.12435   -45109.145   -14757.702    1591.9604      84.0936 
   40000     1206.339   -116.86397    1.0915209   -115.77245   -15602.634    4.3741402    4.3741402    4.3741402   -15602.634   -20730.717   -50209.285    24132.098   -28654.414    4273.6456   -2879.2936    83.690874 
   40100     1995.589   -117.55929    1.8056509   -115.75364    42503.612    4.3540036    4.3540036    4.3540036    42503.612    52738.346     24090.48    50682.011    14072.496    12024.838    3981.9962    82.540358 
   40200    1187.1724   -116.86474    1.0741786   -115.79056   -9277.5527    4.3706458    4.3706458    4.3706458   -9277.5527   -35581.085   -31150.219    38898.646   -41039.452   -9652.7941   -83.305639    83.490455 
   40300    1145.8974   -116.81608     1.036832   -115.77925   -15842.847    4.3805677    4.3805677    4.3805677   -15842.847   -26664.119   -39386.404    18521.982   -24085.567    -18183.98    -6901.991    84.060348 
   40400    1814.4987   -117.39845    1.6417966   -115.75666    19764.769    4.3664051    4.3664051    4.3664051    19764.769    9068.8092    976.68036    49248.816    15768.024   -7312.9616    8278.7309    83.247668 
   40500    1024.5971   -116.70143   0.92707702   -115.77435   -6175.6125    4.3747197    4.3747197    4.3747197   -6175.6125   -42113.995   -50380.636    73967.794   -44661.412    2543.9087    3754.0898    83.724138 
   40600    1441.7885   -117.05739    1.3045606   -115.75283   -10014.482    4.3854224    4.3854224    4.3854224   -10014.482   -21005.938   -11990.113    2952.6058   -5698.9856   -25531.064   -4821.1418    84.340134 
   40700    1320.8102   -116.94676    1.1950968   -115.75166    9009.1283    4.3754984    4.3754984    4.3754984    9009.1283    17507.912    4776.2101    4743.2629   -12770.833   -19201.659    9245.7022    83.768856 
   40800    966.30314   -116.63169   0.87433138   -115.75736   -113.68699    4.3792914    4.3792914    4.3792914   -113.68699    45053.233   -62977.763    17583.469   -49997.743    -2987.608    5583.8996    83.986894 
   40900    1404.8937   -117.02531    1.2711774   -115.75414    9237.4367    4.3806614    4.3806614    4.3806614    9237.4367    57719.393   -7580.5017   -22426.581   -1001.3495   -12042.975   -3021.6373    84.065742 
   41000    1011.1476   -116.67777   0.91490757   -115.76286     24617.75    4.3670408    4.3670408    4.3670408     24617.75    33584.444    60875.534    -20606.73   -16225.361   -34031.741   -1164.5827    83.284034 
   41100     1176.854   -116.84023    1.0648422   -115.77539    -6086.791    4.3703003    4.3703003    4.3703003    -6086.791   -1015.5338   -18330.593    1085.7542   -49483.299    6214.2107    16257.165    83.470659 
   41200    1560.6177   -117.18499    1.4120797   -115.77291    861.18274    4.3769005    4.3769005    4.3769005    861.18274   -23019.443    14557.458    11045.534    -3288.316    -9275.029   -2905.0245    83.849412 
   41300    1643.7313   -117.25475    1.4872826   -115.76746   -636.16759    4.3679756    4.3679756    4.3679756   -636.16759   -18228.599    46339.957   -30019.861   -4091.5581   -33145.635   -13376.666    83.337526 
   41400    968.60349   -116.66474    0.8764128   -115.78833   -20067.123    4.3669364    4.3669364    4.3669364   -20067.123    -3153.597   -65581.066    8533.2945   -43020.486    5174.0428    16126.824    83.278058 
   41500    1576.0153   -117.21235    1.4260117   -115.78634   -11545.763    4.3647539    4.3647539    4.3647539   -11545.763   -12910.719   -10681.715   -11044.855   -12165.847   -5452.6244    5045.3754    83.153261 
   41600    1714.5236   -117.33577     1.551337   -115.78443   -1341.3485    4.3744204    4.3744204    4.3744204   -1341.3485    12098.627    18579.072   -34701.744    3565.8106   -27134.856   -13911.923    83.706958 
   41700    1133.0897   -116.79919    1.0252433   -115.77395   -26137.016    4.3902024    4.3902024    4.3902024   -26137.016   -39332.235   -29959.679   -9119.1329    -43897.36    6395.4315    19921.435    84.616223 
   41800    1608.6682   -117.22078    1.4555568   -115.76522   -1474.6951    4.3604383    4.3604383    4.3604383   -1474.6951   -13578.877    11905.603   -2750.8112   -9235.0766   -2646.8206    4585.4554    82.906854 
   41900    1662.6356   -117.26869    1.5043876   -115.76431    26443.768    4.3454617    4.3454617    4.3454617    26443.768    23768.356    52265.154    3297.7941    18486.222   -26634.823   -16690.976    82.055515 
   42000    1105.9544   -116.79873    1.0006908   -115.79804   -36258.433    4.3870154    4.3870154    4.3870154   -36258.433   -46658.753   -49421.095   -12695.452   -37277.076   -10949.814   -1582.1225    84.432078 
   42100    1712.6402   -117.30897    1.5496328   -115.75933   -31709.722    4.3970384    4.3970384    4.3970384   -31709.722   -44399.489   -44497.888     -6231.79   -10624.349    2202.3526    8628.9897    85.012107 
   42200    1776.6938   -117.34749    1.6075899    -115.7399   -2995.8394    4.3691559    4.3691559    4.3691559   -2995.8394    19921.863   -5661.1322   -23248.249    5585.0168      -9448.7   -3028.1695    83.405104 
   42300    1276.1927   -116.90818     1.154726   -115.75345   -16076.465    4.3603691    4.3603691    4.3603691   -16076.465   -34030.062   -19732.437    5533.1039   -44239.608   -8031.1243   -5274.5389    82.902905 
   42400    1420.1366   -117.05834    1.2849694   -115.77337   -15824.157    4.3671815    4.3671815    4.3671815   -15824.157   -25293.786   -24015.725    1837.0416   -6705.6482     9517.815     7312.181    83.292084 
   42500    1883.4702   -117.47936    1.7042034   -115.77516   -1219.5081    4.3735976    4.3735976    4.3735976   -1219.5081    9057.7809   -2176.3972   -10539.908    25343.148   -4527.9285    1217.3623    83.659733 
   42600    994.82893   -116.68605   0.90014212   -115.78591   -4706.0154    4.3763461    4.3763461    4.3763461   -4706.0154   -47331.095   -1069.5693    34282.618   -44789.663   -19084.096   -7254.3342    83.817552 
   42700    1413.4139   -117.05136    1.2788866   -115.77247   -6241.0364     4.364898     4.364898     4.364898   -6241.0364   -3116.2335   -20493.984    4887.1084   -25781.063     21682.99    8013.2375    83.161496 
   42800    1620.1388   -117.23378    1.4659357   -115.76784     16438.77    4.3573688    4.3573688    4.3573688     16438.77    19600.726    6922.4775    22793.108    29785.705    448.69507   -1385.1816     82.73189 
   42900    794.41548   -116.50688   0.71880382   -115.78807    4553.2054    4.3683811    4.3683811    4.3683811    4553.2054   -37158.433   -29074.284    79892.333   -39822.932   -7347.9995    1950.7089    83.360742 
   43000    1521.4874   -117.15623    1.3766738   -115.77955   -68.949928     4.372166     4.372166     4.372166   -68.949928   -5405.7738   -7721.0513    12919.975    -23616.47   -4049.2156    -18052.76    83.577606 
   43100    1370.3873    -117.0171    1.2399552   -115.77715    10354.917    4.3738825    4.3738825    4.3738825    10354.917   -10879.584   -16665.007    58609.342    19733.655    5551.6508   -2642.9493    83.676084 
   43200    1015.3704   -116.69541   0.91872851   -115.77668   -315.23625    4.3699591    4.3699591    4.3699591   -315.23625     -46306.1   -30108.887    75469.278   -23755.844     10989.23    4053.4066    83.451108 
   43300    1580.9882   -117.19206    1.4305113   -115.76155    15679.416     4.367023     4.367023     4.367023    15679.416   -4396.6248    20191.605    31243.268   -9232.0924   -1669.0879    304.69155    83.283014 
   43400     1374.823    -117.0163    1.2439687   -115.77233   -19960.099    4.3816004    4.3816004    4.3816004   -19960.099   -42470.928   -23584.423    6175.0533    5895.9219    3559.0551    -6087.981    84.119811 
   43500     1077.434   -116.74534   0.97488489   -115.77046   -24311.024     4.374388     4.374388     4.374388   -24311.024   -40186.003   -61530.028    28782.958     -25677.4    11590.535   -6099.6448    83.705095 
   43600    1723.5911   -117.31767    1.5595415   -115.75813    28387.662    4.3550945    4.3550945    4.3550945    28387.662    5899.6648    43412.927    35850.392    2014.4112   -11267.205    6511.4105    82.602416 
   43700    1335.7304   -116.98939    1.2085969   -115.78079   -27174.231    4.3755792    4.3755792    4.3755792   -27174.231   -35603.706   -10857.011   -35061.976    -16179.37   -19317.383   -12278.567    83.773497 
   43800    1246.5381   -116.90543    1.1278938   -115.77753   -23161.467    4.3715264    4.3715264    4.3715264   -23161.467   -36785.738   -52388.244    19689.582   -22515.251    15104.146    2047.3319     83.54093 
   43900    1678.5529    -117.2898    1.5187899   -115.77101    10171.061     4.357805     4.357805     4.357805    10171.061   -10524.015     52389.25   -11352.051    10266.193   -18657.734    2250.7984    82.756743 
   44000    1265.0887   -116.92685    1.1446789   -115.78217   -16886.948    4.3708736    4.3708736    4.3708736   -16886.948   -37741.693    18509.165   -31428.315   -17172.305   -26713.031    14335.016    83.503513 
   44100    1384.9146   -117.03441    1.2530998   -115.78131    285.24226    4.3602566    4.3602566    4.3602566    285.24226   -26244.025   -11276.808     38376.56   -28140.802   -213.55139    2301.7627     82.89649 
   44200    1620.8671   -117.24594    1.4665946   -115.77934    349.82444    4.3702548    4.3702548    4.3702548    349.82444    -5044.297    11979.947    -5886.177     5491.412   -11031.676   -3931.9621    83.468051 
   44300    1223.8898    -116.8871    1.1074012    -115.7797   -38802.553    4.3792632    4.3792632    4.3792632   -38802.553   -54256.858   -21693.048   -40457.751   -5752.5417   -24784.461    15476.467    83.985273 
   44400    893.57773   -116.59179   0.80852791   -115.78326    31365.872    4.3443186    4.3443186    4.3443186    31365.872    11838.025    17637.379    64622.213   -46408.768   -2166.5396    8891.9155    81.990779 
   44500    1974.0463   -117.56482    1.7861586   -115.77867    26249.884    4.3506339    4.3506339    4.3506339    26249.884    43578.425    8449.6434    26721.583   -11957.868    12749.838    1998.2433    82.348866 
   44600    1589.6234   -117.22413    1.4383247    -115.7858    7453.4558    4.3701789    4.3701789    4.3701789    7453.4558    2565.6818    -12198.18    31992.866     7950.667   -33705.102   -4832.1958    83.463701 
   44700    726.83456   -116.45468   0.65765519   -115.79703    9032.1914    4.3718339    4.3718339    4.3718339    9032.1914    19429.402   -35077.917    42745.089   -52377.628   -15640.454    490.04237    83.558565 
   44800    1878.2505   -117.47576    1.6994805   -115.77628   -14776.529     4.374362     4.374362     4.374362   -14776.529   -19301.981   -14670.777   -10356.828   -1212.7176    14309.409    1140.9151    83.703602 
   44900    1802.1806   -117.40254    1.6306508   -115.77188    35324.731    4.3450021    4.3450021    4.3450021    35324.731    27049.225    22697.976    56226.993    5332.4146   -9997.6148   -1478.1568    82.029485 
   45000    1136.5059   -116.82781    1.0283344   -115.79947   -5699.3749    4.3501215    4.3501215    4.3501215   -5699.3749   -43759.609   -16589.858    43251.342   -66334.603   -16220.524    5472.8571    82.319771 
   45100    1478.5009   -117.12645    1.3377787   -115.78867   -35591.319    4.3792777    4.3792777    4.3792777   -35591.319   -32281.329   -37489.978   -37002.651   -2361.5986   -6266.3844    34204.318    83.986106 
   45200     2031.174   -117.61115    1.8378489    -115.7733    2544.9816    4.3598488    4.3598488    4.3598488    2544.9816   -7898.9489   -4083.3409    19617.235    10612.615     19082.44    10834.862    82.873236 
   45300    1082.4757   -116.76456   0.97944679   -115.78511   -6739.5173    4.3557638    4.3557638    4.3557638   -6739.5173   -43389.843   -22259.063    45430.354   -57382.519   -3362.4349   -8212.7418    82.640505 
   45400    1181.4599   -116.85951    1.0690097    -115.7905   -34615.104    4.3640606    4.3640606    4.3640606   -34615.104   -26496.186    -36914.38   -40434.745   -23326.111   -29281.855    30011.044    83.113645 
   45500    1717.0276    -117.3371    1.5536026    -115.7835    9967.3718    4.3569012    4.3569012    4.3569012    9967.3718    48240.632    4127.8094   -22466.326    10773.481   -4552.6991    14709.978    82.705258 
   45600    1676.8302   -117.30776    1.5172312   -115.79052   -21241.966    4.3710222    4.3710222    4.3710222   -21241.966    -23245.81   -47549.738    7069.6497   -25962.869   -3354.4113   -11119.174    83.512027 
   45700    714.17253   -116.44479   0.64619831   -115.79859   -29403.547    4.3688379    4.3688379    4.3688379   -29403.547     8961.568   -56486.323   -40685.886   -14536.738    -16775.93    34059.854    83.386891 
   45800    1347.1943   -117.00708    1.2189697   -115.78811   -3857.1524    4.3553128    4.3553128    4.3553128   -3857.1524    24804.899   -11943.841   -24432.515     14069.81    -24437.82    26913.263    82.614837 
   45900    1944.7918   -117.54023    1.7596885   -115.78054   -9629.6185    4.3734148    4.3734148    4.3734148   -9629.6185   -12141.521   -16603.289   -144.04503   -27886.386    3524.0778   -16847.227    83.649244 
   46000    1145.2781   -116.82343    1.0362717   -115.78716   -13590.384    4.3720956    4.3720956    4.3720956   -13590.384   -831.15915   -38064.015   -1875.9779   -21308.029   -5482.9222    21536.837    83.573571 
   46100    1061.9007   -116.74306   0.96083005   -115.78223   -1925.6479    4.3582081    4.3582081    4.3582081   -1925.6479   -9344.8745    7000.7678   -3432.8369    20698.024   -26583.726    30061.838    82.779705 
   46200    1999.3909   -117.58876    1.8090909   -115.77967   -4217.0433    4.3649115    4.3649115    4.3649115   -4217.0433   -27371.208    7586.5619    7133.5164    7363.1971   -9908.4657   -4786.0422    83.162266 
   46300    1894.3142   -117.49581    1.7140153   -115.78179    8797.8157    4.3616357    4.3616357    4.3616357    8797.8157    7500.9092    1825.2302    17067.308   -14996.916   -5759.1137    15467.197    82.975175 
   46400      978.551   -116.68342   0.88541351   -115.79801    13073.221    4.3665291    4.3665291    4.3665291    13073.221   -13752.814    26117.536    26854.942    2797.3446   -18533.617    18125.041    83.254759 
   46500    1461.5576   -117.10253    1.3224481   -115.78008   -26612.942    4.3804641    4.3804641    4.3804641   -26612.942   -64693.916   -11671.411   -3473.4986    40154.322   -10986.915   -8606.7292    84.054385 
   46600    1801.6682   -117.40614    1.6301873   -115.77595    4185.0212      4.35167      4.35167      4.35167    4185.0212    17067.337   -4102.6029   -409.67025     6727.207    8621.3115    10600.112    82.407711 
   46700      1379.16   -117.03059    1.2478929    -115.7827    26925.513    4.3387833    4.3387833    4.3387833    26925.513    38488.852     26626.29    15661.396     4093.099   -17248.702    29082.682    81.677769 
   46800    1137.0273   -116.83111    1.0288062    -115.8023   -13030.425    4.3726703    4.3726703    4.3726703   -13030.425   -21110.481   -14819.975   -3160.8205    22823.577   -21209.327   -8145.5015    83.606528 
   46900    1337.9103   -116.98695    1.2105694   -115.77638   -11059.506    4.3807876    4.3807876    4.3807876   -11059.506    14926.856   -9122.0376   -38983.336    5652.0118    10712.438    12008.972    84.073009 
   47000     1079.718   -116.74704   0.97695156   -115.77009    13625.812    4.3589231    4.3589231    4.3589231    13625.812    31483.151    40931.435    -31537.15   -7201.5134    -526.4864    42239.004    82.820458 
   47100    1214.7716   -116.86923    1.0991509   -115.77007    12842.534    4.3498066    4.3498066    4.3498066    12842.534    28884.226    5613.6758    4029.7014    7295.2652    -14161.75   -18406.812    82.301895 
   47200    1485.6993   -117.12539     1.344292    -115.7811    18776.256    4.3564074    4.3564074    4.3564074    18776.256    26305.117    44495.908   -14472.257     16965.95   -2416.1808    8874.3376    82.677144 
   47300    989.61477   -116.68861   0.89542424   -115.79318   -12800.711    4.3762661    4.3762661    4.3762661   -12800.711    49264.833    -23268.99   -64397.975     4813.559    6429.3165    44766.415    83.812959 
   47400    1046.3129   -116.73331   0.94672587   -115.78659   -16287.418    4.3691834    4.3691834    4.3691834   -16287.418     30662.92   -29153.918   -50371.257   -7524.1069   -10510.729    -32277.07    83.406677 
   47500    1895.0537   -117.48485    1.7146844   -115.77017    4829.3799    4.3462485    4.3462485    4.3462485    4829.3799    6918.0832    24122.215   -16552.158   -4047.9311   -4733.1847   -13582.558    82.100094 
   47600     1422.322   -117.07467    1.2869468   -115.78772   -5151.9049    4.3537121    4.3537121    4.3537121   -5151.9049    43046.399   -7095.8693   -51406.244   -3016.5478    9653.5847    59557.903    82.523783 
   47700    992.43967   -116.69672   0.89798027   -115.79874   -1701.7418    4.3569587    4.3569587    4.3569587   -1701.7418    46442.847   -10739.753   -40808.319   -10329.075   -10318.349   -29631.311    82.708538 
   47800    1399.2724   -117.06704    1.2660911   -115.80095    -4406.465    4.3770509    4.3770509    4.3770509    -4406.465   -24717.349    52000.826   -40502.872   -2296.4549   -305.10091   -25927.005    83.858058 
   47900    2030.0026   -117.60521     1.836789   -115.76842   -28455.754    4.3802038    4.3802038    4.3802038   -28455.754    -31355.65   -11695.729   -42315.883    10365.184    12125.096    38123.514    84.039405 
   48000    1073.0336   -116.73056   0.97090336   -115.75966    34001.779    4.3392366    4.3392366    4.3392366    34001.779    55834.245    60809.468   -14638.376   -9922.0747   -11589.189   -41926.705    81.703376 
   48100    1412.5007   -117.06107    1.2780603   -115.78301   -9714.9904    4.3554554    4.3554554    4.3554554   -9714.9904   -4757.5783   -11483.633   -12903.759   -1028.3061    2377.8693   -33166.078    82.622954 
   48200    1649.4014   -117.26389    1.4924131   -115.77148   -14218.103    4.3721779    4.3721779    4.3721779   -14218.103   -49395.402   -668.51312    7409.6057    12461.823    10646.963    11191.646    83.578289 
   48300    1601.8049   -117.22486    1.4493467   -115.77551    3585.9396    4.3567782    4.3567782    4.3567782    3585.9396    8587.8731    14636.899   -12466.954   -1806.0295    -5173.969   -34843.984    82.698257 
   48400      1183.57   -116.86386     1.070919   -115.79295   -10532.663    4.3617753    4.3617753    4.3617753   -10532.663    4808.2888   -7048.7936   -29357.485    934.29795   -14615.757   -34505.385     82.98314 
   48500    1267.5379   -116.94261    1.1468949   -115.79572    10396.897    4.3490188    4.3490188    4.3490188    10396.897   -25136.662    25640.925    30686.428     816.8618    1071.2712    12013.568    82.257188 
   48600     1197.408   -116.88771    1.0834399   -115.80427     21137.59    4.3530063    4.3530063    4.3530063     21137.59     -4166.87    32431.821    35147.819     10077.66    9694.4052   -2377.2031    82.483652 
   48700    1215.3588   -116.89749    1.0996822   -115.79781   -30190.898    4.3765258    4.3765258    4.3765258   -30190.898   -26685.343   -16414.437   -47472.914   -5554.5703   -42032.978   -21872.788    83.827878 
   48800    1316.1253   -116.97542    1.1908578   -115.78456    9599.2119    4.3555987    4.3555987    4.3555987    9599.2119    -11115.43    16601.718    23311.348    1127.2997   -24962.773   -2969.9084    82.631108 
   48900     1436.303    -117.0827    1.2995971    -115.7831    6101.2965    4.3533419    4.3533419    4.3533419    6101.2965     -18783.3   -5837.5367    42924.726     13341.07    6008.0537    7312.2192    82.502731 
   49000    1001.4384   -116.68759   0.90612251   -115.78147    -35671.08    4.3809353    4.3809353    4.3809353    -35671.08    -46465.45    -17302.49     -43245.3   -3558.8064     -46019.2   -62.418006    84.081511 
   49100    1615.8744   -117.22488    1.4620771    -115.7628   -6363.0666    4.3698116    4.3698116    4.3698116   -6363.0666   -21722.043   -3570.0024    6202.8453   -3665.0986   -7272.1919   -7829.3644    83.442657 
   49200    1489.2358    -117.1152    1.3474919   -115.76771    3538.6939    4.3530074    4.3530074    4.3530074    3538.6939   -35952.842   -7414.4549    53983.379    83.508033    10944.191    7996.1823    82.483716 
   49300    1443.8743   -117.08787    1.3064478   -115.78142   -7009.3388    4.3526286    4.3526286    4.3526286   -7009.3388   -32598.514    7880.0593     3690.438   -11159.324   -41688.841   -255.07318    82.462182 
   49400    1310.0952   -116.97776    1.1854017   -115.79235    4245.8118    4.3639694    4.3639694    4.3639694    4245.8118   -25546.834    12807.713    25476.557   -6502.2181    3984.2816    -7710.156    83.108433 
   49500    1151.8326   -116.83531    1.0422024   -115.79311   -22640.135    4.3757482    4.3757482    4.3757482   -22640.135   -45126.495   -16172.508   -6621.4018    1969.9079    44508.589    3811.9657    83.783205 
   49600     1836.977   -117.44778    1.6621354   -115.78565     4027.526    4.3512993    4.3512993    4.3512993     4027.526   -28260.171    4378.0147    35964.735   -8213.2358   -17655.421    11977.662    82.386654 
   49700    1735.4917   -117.35324    1.5703094   -115.78293    33896.827    4.3408449    4.3408449    4.3408449    33896.827     8042.414    55392.415    38255.653   -4077.9597      11228.7   -4382.6686    81.794256 
   49800    1247.6479   -116.93227    1.1288981   -115.80338   -25762.192    4.3690372    4.3690372    4.3690372   -25762.192   -29910.166    -1335.694   -46040.715   -2542.4896    48019.993   -17602.776    83.398307 
   49900    1476.9155   -117.12571    1.3363442   -115.78936   -16054.769    4.3681512    4.3681512    4.3681512   -16054.769   -27521.783   -10549.245    -10093.28   -8314.2347   -6923.9067    9394.2583    83.347579 
   50000    1823.3078   -117.42277    1.6497672   -115.77301    3616.3789    4.3568514    4.3568514    4.3568514    3616.3789   -7837.6418    25479.731    -6792.953   -13800.568   -2189.5619    4246.6078    82.702427 
   50100     1475.424   -117.11433    1.3349946   -115.77933   -13873.923    4.3687338    4.3687338    4.3687338   -13873.923   -3162.6373    10972.502   -49431.634   -1608.9263    33524.176   -27208.979    83.380932 
   50200    1614.9536   -117.23401     1.461244   -115.77277   -13621.796    4.3681356    4.3681356    4.3681356   -13621.796    -16602.69   -12369.613   -11893.085    6630.4713   -4094.0945   -5373.4852    83.346687 
   50300    1488.2679   -117.12093    1.3466161   -115.77431    -5495.285     4.358195     4.358195     4.358195    -5495.285   -42144.663     14662.94    10995.868    -6195.333    -14541.17     16007.35    82.778962 
   50400    1436.2341   -117.08148    1.2995348   -115.78195    3209.0242    4.3502799    4.3502799    4.3502799    3209.0242    11496.237    29222.271   -31091.434   -1077.9306    7710.1603   -25009.935    82.328764 
   50500     1639.988    -117.2772    1.4838956   -115.79331     6726.759    4.3523094    4.3523094    4.3523094     6726.759    10290.122     33556.22   -23666.065    3673.9441    14122.768   -27372.356    82.444042 
   50600    1215.9862   -116.90132    1.1002499   -115.80107    5674.8526    4.3621932    4.3621932    4.3621932    5674.8526    -40866.68    36225.157    21666.081    7041.8088   -9593.4064     3432.479    83.006994 
   50700    1100.3471   -116.79445   0.99561716   -115.79883   -4239.5307    4.3674492    4.3674492    4.3674492   -4239.5307   -27185.162    15859.499   -1392.9291   -2122.7791   -16558.446   -6096.1253    83.307402 
   50800    2188.2975   -117.75875    1.9800175   -115.77873    3107.0181    4.3604194    4.3604194    4.3604194    3107.0181    20370.065    12681.163   -23730.173   -3577.2163    3102.5788   -1500.5538    82.905775 
   50900    1159.4742    -116.8417    1.0491166   -115.79258      10680.3    4.3518313    4.3518313    4.3518313      10680.3   -23917.261    30267.172    25690.989    2167.6049   -7021.9247    2127.5055    82.416877 
   51000    892.06888   -116.61171   0.80716267   -115.80454   -1814.8102    4.3598748    4.3598748    4.3598748   -1814.8102   -36296.424     9915.591    20936.402   -410.04856   -19986.696    5330.4364    82.874716 
   51100    1715.3571   -117.33965    1.5520911   -115.78756   -6216.8494    4.3709241    4.3709241    4.3709241   -6216.8494   -29689.369    36825.177   -25786.356    -6218.829    19850.731    3718.6288    83.506404 
   51200    1765.5116   -117.38548     1.597472   -115.78801    9312.5563    4.3476573    4.3476573    4.3476573    9312.5563    -24616.51    58778.792   -6224.6131    2729.2742    40546.124   -13330.007    82.179955 
   51300    1361.3122   -117.03046    1.2317438   -115.79872      15855.4    4.3485276    4.3485276    4.3485276      15855.4   -21681.563   -1023.3391    70271.104    3588.9313   -17984.871    13899.716    82.229319 
   51400    1286.7175   -116.95839     1.164249   -115.79414   -22857.042    4.3712271    4.3712271    4.3712271   -22857.042   -62458.855   -6230.4208    118.14876   -554.11186    24750.806    766.90148    83.523775 
   51500    1559.7966   -117.19432    1.4113368   -115.78298   -1153.8008    4.3671892    4.3671892    4.3671892   -1153.8008   -50765.626    25895.823    21408.401    4013.4151    41558.627   -89.234293    83.292525 
   51600    2140.9662   -117.71342    1.9371913   -115.77623     19377.37    4.3504787    4.3504787    4.3504787     19377.37   -8704.5094    1631.4142    65205.205   -920.12339   -18993.824    14080.232     82.34005 
   51700    1332.2416   -117.00091    1.2054402   -115.79547    17719.279    4.3428668    4.3428668    4.3428668    17719.279   -21809.606    27063.572    47903.871   -2050.0592    34015.068   -1005.6968    81.908605 
   51800    1254.1686   -116.94186    1.1347981   -115.80706   -3533.3398    4.3593524    4.3593524    4.3593524   -3533.3398   -55620.661    28500.987    16519.654   -9362.2879    41782.397    2824.6649     82.84493 
   51900    1530.3062   -117.17846    1.3846532   -115.79381   -25564.896    4.3739532    4.3739532    4.3739532   -25564.896   -45201.253    5131.1124   -36624.545    8845.8337   -44299.525   -6806.0002     83.68014 
   52000    1419.7073   -117.06915     1.284581   -115.78457    3951.3707    4.3551467    4.3551467    4.3551467    3951.3707    13011.191   -9133.5579    7976.4789   -4915.7374   -5225.5751    5592.6807    82.605385 
   52100    1583.4029   -117.21308    1.4326963   -115.78039    3106.9086    4.3452062    4.3452062    4.3452062    3106.9086   -10605.186    7932.0116      11993.9   -6648.1408    25768.495    14509.881    82.041042 
   52200    1158.0664   -116.84622    1.0478428   -115.79838    406.42724    4.3528579    4.3528579    4.3528579    406.42724   -28336.937    29703.086   -146.86732   -2046.7911   -43389.974   -14397.245    82.475216 
   52300    1079.3524   -116.77939    0.9766207   -115.80277    10304.313    4.3695649    4.3695649    4.3695649    10304.313    4474.5816   -2801.8789    29240.238    1566.1385    -19231.43    7913.7424    83.428526 
   52400     1571.473   -117.20345    1.4219018   -115.78155   -13731.463    4.3762238    4.3762238    4.3762238   -13731.463     -2984.58   -29097.148     -9112.66   -2100.5498    11475.285    15967.901    83.810529 
   52500    1215.7849   -116.87952    1.1000678   -115.77945     679.3355    4.3519015    4.3519015    4.3519015     679.3355   -36689.796    50331.492    -11603.69   -11698.603    -55863.47   -7597.4175    82.420866 
   52600    1541.0758   -117.17116    1.3943978   -115.77676    13634.152    4.3445607    4.3445607    4.3445607    13634.152   -13542.243    46379.497    8065.2017    1591.0082    -20763.61    9355.8219    82.004483 
   52700    1372.2258   -117.03027    1.2416187   -115.78865     16254.59    4.3615758    4.3615758    4.3615758     16254.59    27462.852    -7834.787    29135.706   -501.94716    24690.403    36159.772    82.971754 
   52800    1164.4637   -116.84385    1.0536313   -115.79022    57.582928    4.3708052    4.3708052    4.3708052    57.582928   -37600.403    22729.105    15044.046    -11481.29   -34562.543   -278.05336    83.499589 
   52900    1580.8048   -117.20732    1.4303454   -115.77698   -6772.8088    4.3682588    4.3682588    4.3682588   -6772.8088   -52356.316    15987.552    16050.338   -6882.2319   -12793.484   -4020.0336    83.353737 
   53000    1608.1241   -117.22965    1.4550645   -115.77458    9037.2147    4.3516222    4.3516222    4.3516222    9037.2147    586.62246    23757.724     2767.298    6310.3523    37136.469    21971.762    82.404995 
   53100    1119.8955   -116.79861     1.013305   -115.78531    16025.058    4.3493478    4.3493478    4.3493478    16025.058    15557.025    11216.604    21301.545    1627.9544   -27635.359    914.28536    82.275855 
   53200    1139.6898    -116.8262    1.0312153   -115.79498   -28387.766    4.3737429    4.3737429    4.3737429   -28387.766   -50199.898   -20707.365   -14256.034   -24268.105   -8131.9197   -4375.8289    83.668073 
   53300     1714.547   -117.33528    1.5513581   -115.78392   -7766.6485    4.3671008    4.3671008    4.3671008   -7766.6485    -16420.09      76.1614   -6956.0172   -3691.0335    31560.431    1070.5913    83.287469 
   53400     1905.244   -117.50348    1.7239048   -115.77958    19014.777    4.3458642    4.3458642    4.3458642    19014.777    19541.894    26116.808    11385.628    7605.0251   -14578.988   -4371.6382    82.078317 
   53500    750.00501   -116.48471   0.67862029   -115.80609   -5974.7248    4.3571446    4.3571446    4.3571446   -5974.7248     579.0466   -34600.227    16097.006   -26865.468   -22333.674    -15938.31    82.719123 
   53600    1366.7427   -117.03625    1.2366575   -115.79959   -9492.7105     4.373814     4.373814     4.373814   -9492.7105   -11429.797   -45486.079    28437.745   -4302.5071    8183.5713   -1315.9489    83.672148 
   53700    1980.3384   -117.56502    1.7918518   -115.77317   -18815.809    4.3766131    4.3766131    4.3766131   -18815.809   -8169.3211   -12971.547   -35306.559    7496.2748   -7788.2757    16804.739    83.832894 
   53800    974.00281   -116.65816   0.88129821   -115.77686   -14918.159    4.3596075    4.3596075    4.3596075   -14918.159   -26858.815   -7055.0863   -10840.576   -28120.001   -34426.593   -6579.6381    82.859475 
   53900    1566.0879   -117.19151    1.4170293   -115.77448      1539.02    4.3395447    4.3395447    4.3395447      1539.02    6678.8752   -38426.139    36364.324   -1851.4604    4731.0268   -2550.6216    81.720781 
   54000    1578.1341    -117.2201    1.4279289   -115.79217   -6061.5628    4.3576402    4.3576402    4.3576402   -6061.5628    16964.044   -23040.488   -12108.244    7615.4018   -5237.8711    8726.4415    82.747351 
   54100    1161.8561   -116.83886    1.0512718   -115.78758   -44257.149    4.3798357    4.3798357    4.3798357   -44257.149   -44517.323   -42247.462   -46006.661   -13925.128    -33139.74    24080.566    84.018214 
   54200    1352.2805   -116.99946    1.2235719   -115.77589   -4803.8255    4.3667044    4.3667044    4.3667044   -4803.8255   -32255.704   -5280.1367    23124.364    -29346.97    8152.0033    2094.9157    83.264789 
   54300    2080.5488   -117.64288    1.8825243   -115.76035   -7696.3657    4.3561506    4.3561506    4.3561506   -7696.3657   -12312.293   -14299.772    3522.9671    6406.2379    4050.9397   -1456.6638    82.662521 
   54400    872.39861   -116.57036    0.7893646     -115.781   -15118.731    4.3606818    4.3606818    4.3606818   -15118.731   -28983.253    3788.6968   -20161.638   -9849.2007   -34093.055    24239.191    82.920742 
   54500     1153.275   -116.82815    1.0435075   -115.78465   -23399.232    4.3708935    4.3708935    4.3708935   -23399.232   -42363.909   -28472.746    638.96013   -40213.193    651.12261    4578.9704    83.504654 
   54600    2211.5292   -117.76456    2.0010381   -115.76352   -7568.8691    4.3757867    4.3757867    4.3757867   -7568.8691   -10151.033    1509.1026   -14064.676     17652.32    12008.138    2907.0599    83.785415 
   54700    1157.0161   -116.82016    1.0468925   -115.77327   -22311.813    4.3676146    4.3676146    4.3676146   -22311.813   -42861.026    1798.7727   -25873.185   -15354.456   -31561.622    16451.302    83.316867 
   54800    780.78225   -116.47969   0.70646819   -115.77322    -1430.193     4.355659     4.355659     4.355659    -1430.193   -7539.2834    4447.7732   -1199.0689   -45216.275   -9388.8597    8654.2557    82.634543 
   54900    2052.2241   -117.62621    1.8568955   -115.76931    4950.1262    4.3639782    4.3639782    4.3639782    4950.1262    414.02638    12941.334    1495.0184    17813.295    15673.237    6543.0486    83.108936 
   55000    1253.4237   -116.91124    1.1341241   -115.77711   -5758.5101     4.373421     4.373421     4.373421   -5758.5101   -19620.557    8236.6537   -5891.6271   -9528.8019   -25310.194   -12477.399    83.649598 
   55100    773.07393   -116.47365   0.69949354   -115.77416      20.2347    4.3686172    4.3686172    4.3686172      20.2347    28312.441   -9839.0369     -18412.7   -38404.178   -10084.741    16755.513    83.374257 
   55200     1524.754   -117.13873    1.3796295    -115.7591    4072.4269    4.3618446    4.3618446    4.3618446    4072.4269    51237.222    -2202.021    -36817.92    984.01234    37.891323   -9684.5293    82.987094 
   55300    1168.7773   -116.83093    1.0575342   -115.77339    19086.562    4.3542605    4.3542605    4.3542605    19086.562    44832.099     -7281.44    19709.026    -18544.61   -3618.0065   -21523.526    82.554972 
   55400    715.70196   -116.43761   0.64758217   -115.79002    5480.5856     4.363249     4.363249     4.363249    5480.5856   -16930.392   -10076.742    43448.891    -47021.59   -22228.445   -3010.7382    83.067282 
   55500     1600.901   -117.21451    1.4485288   -115.76598   -6045.9536    4.3786878    4.3786878    4.3786878   -6045.9536     15012.78   -15381.367   -17769.274    8092.3548   -8983.0624   -4667.4495    83.952171 
   55600    1108.4554   -116.76426    1.0029538    -115.7613   -2984.2623    4.3756454    4.3756454    4.3756454   -2984.2623    8702.9518   -44705.515    27049.776   -32705.023   -1261.0885   -7083.6316    83.777297 
   55700     924.5749   -116.59119    0.8365748   -115.75461    8274.2756    4.3648305    4.3648305    4.3648305    8274.2756   -31499.953   -31557.667    87880.447   -41171.793   -29081.129   -4090.3606    83.157638 
   55800    1971.6331   -117.52521     1.783975   -115.74123   -7744.3151     4.366325     4.366325     4.366325   -7744.3151   -2028.0512   -15013.424   -6191.4702    25666.615    9635.0052    6705.9734    83.243089 
   55900    1026.8437   -116.68401   0.92910975    -115.7549   -31155.504    4.3775255    4.3775255    4.3775255   -31155.504   -41011.339   -69226.558    16771.386   -33351.014    2472.7486   -17609.277    83.885339 
   56000    1138.0338    -116.8003    1.0297169   -115.77058   -24789.652    4.3613609    4.3613609    4.3613609   -24789.652   -56901.971    -32645.89    15178.906   -33524.238   -19466.542    4835.5064    82.959494 
   56100    1886.4586   -117.47526    1.7069074   -115.76835    30391.581    4.3385133    4.3385133    4.3385133    30391.581    4607.6576    26924.359    59642.727     23392.24   -10579.351    2148.0208    81.662524 
   56200    1791.3505   -117.41521    1.6208516   -115.79435   -15120.583    4.3582742    4.3582742    4.3582742   -15120.583   -32759.755   -44765.027    32163.035   -25748.665    5521.4177    -6404.739    82.783475 
   56300    835.78402   -116.56052   0.75623494   -115.80429   -24311.912    4.3671074    4.3671074    4.3671074   -24311.912   -54307.933   -36925.553    18297.749   -36928.346   -24371.191   -7517.6006    83.287843 
   56400     1393.947     -117.047    1.2612725   -115.78573    5785.3561    4.3614091    4.3614091    4.3614091    5785.3561   -8525.4406    8288.2102    17593.299    17258.845   -17836.862    2094.0348    82.962239 
   56500    1556.8446   -117.18094    1.4086657   -115.77228   -18631.342    4.3728831    4.3728831    4.3728831   -18631.342   -42629.766   -43641.654    30377.393    -17511.26    22496.936    17354.673    83.618737 
   56600    995.50968     -116.666   0.90075808   -115.76525   -6009.8589    4.3596023    4.3596023    4.3596023   -6009.8589   -40785.108   -798.27778     23553.81    -41200.18   -32503.363   -10094.192    82.859176 
   56700    1522.9662   -117.13853    1.3780119   -115.76051    31613.315    4.3523067    4.3523067    4.3523067    31613.315    19490.398    40375.739    34973.808    11272.539   -24999.671   -5016.4327    82.443892 
   56800    1426.6647   -117.06141    1.2908762   -115.77054    -2577.336    4.3714799    4.3714799    4.3714799    -2577.336       -24911     -27742.8    44921.792   -26847.297     20200.17    4452.4352    83.538266 
   56900    893.28561   -116.58973   0.80826359   -115.78146    5771.7365    4.3608668    4.3608668    4.3608668    5771.7365   -11352.278    6675.1808    21992.306   -39613.555   -14912.441    4844.3543    82.931297 
   57000    1204.0848   -116.86839    1.0894812    -115.7789    30631.621    4.3548813    4.3548813    4.3548813    30631.621    33510.621     27132.91    31251.331     10933.19   -35638.487   -4906.9066    82.590286 
   57100    1476.9676   -117.11044    1.3363913   -115.77404    6331.7042    4.3722859    4.3722859    4.3722859    6331.7042    17741.784   -16217.531    17470.859   -18508.127    5531.0435   -18847.934    83.584482 
   57200     1127.526   -116.79144    1.0202092   -115.77123    5812.2677    4.3679489    4.3679489    4.3679489    5812.2677   -8839.3894    43141.576   -16865.383   -35505.163   -21529.646   -1508.1293    83.335998 
   57300    1142.0336   -116.79884     1.033336   -115.76551    20680.108    4.3589204    4.3589204    4.3589204    20680.108    3640.9727    65128.238   -6728.8855    5364.2574   -38489.998    479.43319    82.820301 
   57400    1502.3619   -117.12009    1.3593686   -115.76072    21602.488    4.3593898    4.3593898    4.3593898    21602.488      22199.8    22454.743    20152.922   -18206.366    6423.1073    -15071.76    82.847059 
   57500    776.20252    -116.4827   0.70232435   -115.78037    20592.315    4.3678123    4.3678123    4.3678123    20592.315    5877.7242    49660.443    6238.7779   -46683.299   -19966.106    712.40973     83.32818 
   57600    1640.8118   -117.24456     1.484641   -115.75992    1766.5964    4.3759459    4.3759459    4.3759459    1766.5964    3066.7684    39097.843   -36864.822   -4105.4061   -24626.664    861.81224    83.794562 
   57700    1612.3427   -117.21685    1.4588815   -115.75796    28338.508    4.3577177    4.3577177    4.3577177    28338.508    35996.409    36178.829    12840.285   -19166.537    14354.946     -12666.3    82.751768 
   57800    1048.7987   -116.72223    0.9489751   -115.77325    11345.268    4.3566093    4.3566093    4.3566093    11345.268    18884.575    17949.539   -2798.3086   -35592.515   -15608.172   -3149.5694    82.688638 
   57900    1497.5613   -117.13917    1.3550249   -115.78415   -8060.6205    4.3640611    4.3640611    4.3640611   -8060.6205    -33672.01    33128.577   -23638.429    7696.9481   -48850.346    6544.1766    83.113669 
   58000    1876.4749   -117.47352    1.6978739   -115.77564    30992.841    4.3536184    4.3536184    4.3536184    30992.841     33528.34    32350.475    27099.709   -10778.272    5173.9094    1840.3183    82.518452 
   58100    1347.0377   -117.01361     1.218828   -115.79478   -13869.296    4.3679295    4.3679295    4.3679295   -13869.296    -44540.69    12668.111   -9735.3075   -45223.456   -2911.7892   -11077.042    83.334891 
   58200    1435.4092   -117.08097    1.2987884   -115.78218   -23867.072    4.3707165    4.3707165    4.3707165   -23867.072   -57678.091    18314.117   -32237.242   -2220.2066   -35839.433    -1037.786    83.494509 
   58300    1689.7752   -117.28816    1.5289441   -115.75921    17934.024    4.3481123    4.3481123    4.3481123    17934.024    6596.3708    34381.984    12823.719   -1748.7623   -4020.3172    22812.157    82.205762 
   58400    1190.6501   -116.85441    1.0773252   -115.77709   -23705.491    4.3665245    4.3665245    4.3665245   -23705.491   -48563.527   -12969.213   -9583.7325   -39223.549    8406.9813   -13290.593    83.254499 
   58500    1584.5188    -117.1954    1.4337059   -115.76169   -22561.328    4.3751339    4.3751339    4.3751339   -22561.328   -36371.433    536.64814   -31849.199   -1876.6448   -15385.673   -12126.924    83.747925 
   58600    1528.1738    -117.1447    1.3827237   -115.76197    14219.999    4.3463402    4.3463402    4.3463402    14219.999     11132.25    36732.046   -5204.2996    1744.1249   -12824.473    34491.598    82.105293 
   58700    1015.8967   -116.70388   0.91920468   -115.78468   -20826.751    4.3487759    4.3487759    4.3487759   -20826.751   -33639.047   -42586.942    13745.735   -44826.336    13979.596    10275.301    82.243406 
   58800    1799.0736   -117.40965    1.6278396   -115.78181   -14830.321    4.3666981    4.3666981    4.3666981   -14830.321   -45446.265   -9283.2568    10238.558   -4172.0188   -607.00181   -22259.522    83.264428 
   58900    1513.2328   -117.14161    1.3692048   -115.77241   -17484.899    4.3737717    4.3737717    4.3737717   -17484.899    10716.947     -21359.6   -41812.046   -704.52717   -10941.709    27145.423    83.669726 
   59000    872.11497   -116.56176   0.78910796   -115.77265    -27701.93    4.3661892    4.3661892    4.3661892    -27701.93   -24422.255   -61684.043     3000.507   -39693.588    5515.7137    15351.199    83.235318 
   59100    1904.5619   -117.47923    1.7232876   -115.75594    2125.4156    4.3567513    4.3567513    4.3567513    2125.4156   -14708.974    10429.566    10655.655    8098.9043   -364.92035   -11874.567    82.696725 
   59200    1388.0139   -117.02366    1.2559041   -115.76776   -10615.939    4.3635992    4.3635992    4.3635992   -10615.939    28021.458   -15315.094   -44554.181    217.08175    5940.4981    31094.399    83.087285 
   59300    943.46993   -116.63352   0.85367142   -115.77985   -12159.039    4.3565736    4.3565736    4.3565736   -12159.039   -19867.936   -12564.124   -4045.0565   -33033.946    1769.7277      23803.4    82.686604 
   59400    1735.8078   -117.35194    1.5705954   -115.78135    9677.1454    4.3579482    4.3579482    4.3579482    9677.1454   -27409.364    10148.411    46292.389   -1528.5157    4863.2788   -6582.7937    82.764901 
   59500    1468.4278   -117.11097    1.3286644   -115.78231   -4177.1103    4.3642518    4.3642518    4.3642518   -4177.1103    22050.157   -25528.327   -9053.1614    4151.8318    6896.0533    12111.163    83.124569 
   59600    598.20043     -116.334   0.54126432   -115.79273    699.04995    4.3561863    4.3561863    4.3561863    699.04995    12059.012     -32122.7    22160.838   -39951.025   -14940.879    24239.265    82.664558 
   59700    1734.4659   -117.34741    1.5693812   -115.77803    5209.6934     4.363328     4.363328     4.363328    5209.6934   -18582.338    10923.158    23288.259   -13848.323   -5102.9216    373.11006    83.071794 
   59800    1605.3156    -117.2267    1.4525233   -115.77418    6179.8955    4.3595254    4.3595254    4.3595254    6179.8955     15131.13   -19743.758    23152.315    17768.776    1196.5949     1302.048    82.854794 
   59900    728.04992   -116.44301   0.65875487   -115.78426    2493.6177    4.3535744    4.3535744    4.3535744    2493.6177     18910.89   -37810.001    26379.964   -23680.665   -2892.5546    28589.673    82.515951 
   60000     1773.992   -117.37671    1.6051452   -115.77157   -7282.0872    4.3666628    4.3666628    4.3666628   -7282.0872   -9741.9821   -16067.717    3963.4373   -2567.2648   -8616.4117    5336.9888    83.262411 
   60100    1381.2841   -117.01321    1.2498149   -115.76339   -3873.4993    4.3697787    4.3697787    4.3697787   -3873.4993   -12751.007   -20535.654    21666.164    31101.474   -16298.552    552.46931    83.440774 
   60200    1131.6374    -116.7862    1.0239293   -115.76227   -14021.824      4.36731      4.36731      4.36731   -14021.824   -4030.0488   -49561.549    11526.125   -27292.492    7427.2525    21242.161    83.299436 
   60300    2079.3926   -117.62985    1.8814781   -115.74837   -6239.2494    4.3635353    4.3635353    4.3635353   -6239.2494   -18854.674   -3094.1002    3231.0257   -2267.6881     4033.679   -1053.9312    83.083631 
   60400    1156.7047   -116.81081    1.0466107    -115.7642    4403.2935    4.3519802    4.3519802    4.3519802    4403.2935   -9793.2874   -22363.623    45366.791    50955.212   -9233.4841   -6351.5688    82.425337 
   60500    1055.2805   -116.73715   0.95483999   -115.78231    5192.1504    4.3637222    4.3637222    4.3637222    5192.1504    29840.329   -27550.053    13286.175   -4016.9491    2112.4641    18937.034    83.094309 
   60600    2167.5943   -117.71729    1.9612849   -115.75601   -18517.104     4.375949     4.375949     4.375949   -18517.104   -26855.252   -23662.976   -5033.0834    704.32703    1696.7233    2779.7872    83.794738 
   60700    857.09651   -116.54816   0.77551893   -115.77264    17730.181    4.3517463    4.3517463    4.3517463    17730.181   -2255.2451   -16546.104    71991.893    51473.787     401.1865   -1450.7427     82.41205 
   60800    1339.8783   -116.98898    1.2123501   -115.77663    13759.162    4.3538619    4.3538619    4.3538619    13759.162    7881.3233    11044.975    22351.188   -6824.4457   -1724.7048    7520.5905      82.5323 
   60900    2077.2273   -117.64244    1.8795189   -115.76292    -8063.464    4.3667851    4.3667851    4.3667851    -8063.464   -12904.267   -10224.681   -1061.4439    1758.2415    2339.9602     5210.317    83.269402 
   61000    1004.8244   -116.68697    0.9091862   -115.77778    3940.6115    4.3564568    4.3564568    4.3564568    3940.6115   -32220.594   -39445.755    83488.184    48675.511    4298.0973   -5143.5716    82.679957 
   61100    1524.5773   -117.15618    1.3794696   -115.77672   -4047.4295    4.3634406    4.3634406    4.3634406   -4047.4295   -3505.5936   -11685.296    3048.6009   -10604.655   -3067.0554    975.45825    83.078226 
   61200    1947.3717   -117.52946    1.7620228   -115.76743   -5229.5546    4.3613753    4.3613753    4.3613753   -5229.5546   -24478.796    -6100.775    14890.907    15145.893    6743.5882   -6507.4966    82.960312 
   61300    1055.1267   -116.72983   0.95470084   -115.77513    13963.471    4.3468741    4.3468741    4.3468741    13963.471   -36814.757   -7604.3334    86309.503    56977.877    4903.0628   -4477.4406     82.13555 
   61400    1799.6738   -117.40355    1.6283827   -115.77517   -12174.408    4.3647266    4.3647266    4.3647266   -12174.408    1325.6233    -18545.69   -19303.157   -30804.288   -1930.7736    1222.0004    83.151702 
   61500    1365.6279   -117.00483    1.2356488   -115.76918   -9573.6777    4.3674812    4.3674812    4.3674812   -9573.6777   -19358.965    -11090.56     1728.492    36676.737   -3316.0127    10767.517    83.309235 
   61600    1352.8492   -116.99377    1.2240864   -115.76968    8574.2781     4.352741     4.352741     4.352741    8574.2781   -14540.259    7809.8732     32453.22    65589.073   -6219.5041   -3671.4388    82.468571 
   61700      2337.36   -117.87904    2.1148924   -115.76415    1155.0038    4.3609927    4.3609927    4.3609927    1155.0038    6330.0686    1497.3377    -4362.395   -32648.146    10248.577   -10083.011    82.938482 
   61800    1021.8799   -116.71489   0.92461841   -115.79027    -13434.86    4.3595771    4.3595771    4.3595771    -13434.86   -17067.227   -41262.602    18025.248    54597.583    6929.1808    3854.8537    82.857741 
   61900    934.72839   -116.64064   0.84576189   -115.79488    9704.4193    4.3557183    4.3557183    4.3557183    9704.4193    30354.179   -26513.228    25272.306    52119.875   -14203.651    6880.4957    82.637914 
   62000    2263.8143   -117.81743    2.0483468   -115.76909   -6130.0698    4.3677848    4.3677848    4.3677848   -6130.0698   -279.03026   -11594.061   -6517.1183   -21130.686    14120.421   -3172.4219    83.326609 
   62100    1109.2381    -116.7834     1.003662   -115.77974   -3676.1228    4.3552271    4.3552271    4.3552271   -3676.1228   -20952.355    -36965.77    46889.757    77688.037     2767.688    10326.935    82.609959 
   62200    1037.6267   -116.71639   0.93886642   -115.77752    23909.782    4.3530553    4.3530553    4.3530553    23909.782     24033.18    28395.199    19300.966    24450.657    -6726.016    50.965913    82.486437 
   62300    1632.1074   -117.24372     1.476765   -115.76696    -22888.71    4.3676524    4.3676524    4.3676524    -22888.71   -16679.553   -38780.594   -13205.984   -22918.039    1335.2793   -4472.2589    83.319032 
   62400    1067.1719   -116.73821   0.96559953   -115.77261   -3149.8742    4.3522788    4.3522788    4.3522788   -3149.8742   -31230.221    -21779.37    43559.969      59907.6   -2164.0118    -1375.421    82.442304 
   62500    1456.4982   -117.09196    1.3178702   -115.77409    16381.212    4.3559948    4.3559948    4.3559948    16381.212     11486.72    28610.127    9046.7896    19538.062    150.81423    757.23948    82.653654 
   62600    1377.8402   -117.02032    1.2466988   -115.77362   -9279.8633    4.3658119    4.3658119    4.3658119   -9279.8633   -2012.5832   -15221.382   -10605.625    -12080.11   -8067.2865    10229.189    83.213745 
   62700    1208.3652   -116.86544    1.0933542   -115.77209    15537.647    4.3485547    4.3485547    4.3485547    15537.647   -21332.228     18023.14     49922.03    43521.823    1635.4499   -5930.6567    82.230854 
   62800    1564.9896   -117.19207    1.4160354   -115.77604   -4724.6451    4.3647149    4.3647149    4.3647149   -4724.6451    4816.4797   -10589.823    -8400.592    10706.836    4906.0114    11742.908    83.151032 
   62900    1307.9179   -116.95967    1.1834316   -115.77624   -3923.5889    4.3624394    4.3624394    4.3624394   -3923.5889    14302.425   -5123.4311   -20949.761   -14211.461    1382.3317    24165.056    83.021053 
   63000    1303.3991   -116.95022    1.1793429   -115.77088    31433.244    4.3412681    4.3412681    4.3412681    31433.244    6817.2064    17872.926    69609.599    46155.817   -309.80081   -12979.547    81.818183 
   63100    1710.4305   -117.32243    1.5476335   -115.77479   -2380.5203    4.3638398    4.3638398    4.3638398   -2380.5203    17457.796   -29487.832    4888.4747    10320.292   -4458.1432    15581.387     83.10103 
   63200    1268.4677    -116.9217    1.1477362   -115.77397   -7046.4191    4.3678756    4.3678756    4.3678756   -7046.4191    11163.196   -37946.072    5643.6191   -10249.175    5483.5832    22163.837    83.331804 
   63300    1278.0668   -116.92996    1.1564217   -115.77354    17655.351    4.3514931    4.3514931    4.3514931    17655.351     12481.19   -13024.293    53509.156    30809.374    4577.8995   -13263.497    82.397664 
   63400    1843.0767   -117.43443    1.6676546   -115.76678    23300.709    4.3536352    4.3536352    4.3536352    23300.709    38501.671   -1153.4799    32553.934     7413.283   -6048.7803    7703.2837    82.519411 
   63500    1381.4944   -117.02902    1.2500051   -115.77902    208.30883    4.3613633    4.3613633    4.3613633    208.30883    12968.462   -32464.538    20121.002   -10976.376    2744.1854    36465.601    82.959628 
   63600    1225.5029   -116.89226    1.1088608    -115.7834   -4163.3372    4.3641841    4.3641841    4.3641841   -4163.3372    2655.1405    -31256.25    16111.098    18652.124    3263.4451   -21246.582    83.120702 
   63700    1985.6771   -117.56684    1.7966824   -115.77015    16153.529    4.3513498    4.3513498    4.3513498    16153.529     40457.84   -8063.2005    16065.946    12471.165   -4508.0811   -12466.234    82.389524 
   63800    1187.0805   -116.85726    1.0740954   -115.78317    7373.7054    4.3543429    4.3543429    4.3543429    7373.7054    17125.547   -9288.0588    14283.628   -15266.103   -8457.7832    54215.089    82.559657 
   63900    1359.8724     -117.013    1.2304412   -115.78256    -18472.83    4.3670328    4.3670328    4.3670328    -18472.83    5490.8163   -36963.843   -23945.465   -6115.4947   -4465.4456   -23773.015    83.283577 
   64000    1985.9867   -117.56142    1.7969625   -115.76445    17626.278    4.3569121    4.3569121    4.3569121    17626.278    37923.785    10567.578    4387.4706    3702.1819   -1903.9422   -13188.594    82.705881 
   64100    1182.4725   -116.85006     1.069926   -115.78013   -21214.014    4.3599413    4.3599413    4.3599413   -21214.014   -2356.7351   -49231.033   -12054.275   -16536.768   -354.46407    62242.905    82.878509 
   64200    1204.5974   -116.86957     1.089945   -115.77962   -10854.522    4.3643269    4.3643269    4.3643269   -10854.522   -10247.178   -40407.505    18091.117   -10224.995   -9266.5199   -7060.7228    83.128862 
   64300    2113.9979   -117.67874    1.9127897   -115.76595    14069.888    4.3552766    4.3552766    4.3552766    14069.888    32102.155   -13101.716    23209.226    14534.148    548.66884   -9422.2821    82.612777 
   64400    902.73665   -116.60843   0.81681509   -115.79162   -5775.2817    4.3570335    4.3570335    4.3570335   -5775.2817    26569.972   -25831.491   -18064.325    -7806.335    5304.3047     58773.87    82.712795 
   64500    1362.5479   -117.01805    1.2328619   -115.78519    -20168.02    4.3675991    4.3675991    4.3675991    -20168.02   -22018.255   -14876.924    -23608.88   -21070.342   -14732.869    15956.754    83.315981 
   64600    2112.0295   -117.67855    1.9110087   -115.76754   -1044.5453    4.3633311    4.3633311    4.3633311   -1044.5453   -8404.2894    3490.0639    1780.5895    -2230.735    3872.2223   -10474.561     83.07197 
   64700    766.99568   -116.47852   0.69399381   -115.78453   -12245.925    4.3618012    4.3618012    4.3618012   -12245.925    26280.174   -10204.818   -52813.131    10745.568    6666.6261    60059.397    82.984619 
   64800    1330.2748   -116.98758    1.2036606   -115.78392   -6327.2192    4.3623757    4.3623757    4.3623757   -6327.2192   -2884.4111   -265.19389   -15832.052   -10676.631   -4002.0639    24055.104    83.017416 
   64900    2116.5041   -117.68408    1.9150573   -115.76902    9592.1232    4.3598277    4.3598277    4.3598277    9592.1232   -6336.6423    23482.677    11630.335   -1426.3474   -2567.9479   -29399.511    82.872032 
   65000    735.79174   -116.45997   0.66575983   -115.79421   -20696.731    4.3678526    4.3678526    4.3678526   -20696.731    17842.031   -38659.461   -41272.764    19452.494    11762.807    44385.373    83.330487 
   65100    1323.8642   -116.98189    1.1978601   -115.78403   -3167.1809    4.3688498    4.3688498    4.3688498   -3167.1809    7532.3121   -30952.528    13918.674   -2209.9932    11933.445    29911.765    83.387573 
   65200    2268.0136   -117.81859    2.0521463   -115.76644    18431.113    4.3524531    4.3524531    4.3524531    18431.113    3005.0708    4551.6219    47736.646     -99.5687   -13783.617   -19362.813    82.452208 
   65300    925.71027    -116.6338   0.83760211    -115.7962   -8833.4131    4.3548942    4.3548942    4.3548942   -8833.4131    25437.471   -40176.557   -11761.154    4773.3441    5086.2034    34666.315    82.591019 
   65400    1378.9499   -117.03779    1.2477029   -115.79009   -13436.758    4.3662442    4.3662442    4.3662442   -13436.758    28827.945   -51833.775   -17304.444    17229.218    7906.6833    52764.319    83.238467 
   65500     1808.843   -117.40959    1.6366792   -115.77291    11915.807     4.365879     4.365879     4.365879    11915.807   -4333.8093    8588.3978    31492.833   -8324.6235   -17160.906   -20372.842     83.21758 
   65600     1000.666   -116.68763   0.90542365   -115.78221   -10990.341    4.3596934    4.3596934    4.3596934   -10990.341    22581.273   -43726.333   -11825.964   -9409.4776   -3081.0002    27114.642    82.864372 
   65700    1248.7751   -116.90696    1.1299179   -115.77705    1663.8107    4.3560153    4.3560153    4.3560153    1663.8107    53039.652   -30308.749   -17739.471    9271.0285    6627.8394     44505.49     82.65482 
   65800    1684.0964   -117.29686    1.5238059   -115.77306    7352.3617    4.3614075    4.3614075    4.3614075    7352.3617   -12921.973    7912.6086    27066.449   -11261.742    -16552.03   -19572.847    82.962148 
   65900    861.99121   -116.56369   0.77994776   -115.78374   -4471.1374    4.3676591    4.3676591    4.3676591   -4471.1374    2169.2001   -3195.6876   -12386.925   -5412.0546   -18600.353    18013.609    83.319412 
   66000    1293.6979    -116.9413     1.170565   -115.77074    -7904.373    4.3689497    4.3689497    4.3689497    -7904.373    18123.373   -10311.851   -31524.641    999.73196    2922.9082    39532.963    83.393295 
   66100    1407.1889   -117.03417     1.273254   -115.76092   -14825.335    4.3670624    4.3670624    4.3670624   -14825.335   -46078.911   -273.97922    1876.8863   -6579.0341   -15329.787   -11894.549    83.285267 
   66200      810.474   -116.50837   0.73333391   -115.77504   -17650.544    4.3536099    4.3536099    4.3536099   -17650.544   -27175.726   -2382.1276   -23393.779   -12448.878   -19867.273   -7020.3681     82.51797 
   66300    1230.0147   -116.89187    1.1129432   -115.77892    15551.306     4.350607     4.350607     4.350607    15551.306    33270.699    14937.264   -1554.0457   -4705.8667    13465.412    40316.626     82.34734 
   66400    1352.2079   -117.00439    1.2235061   -115.78088   -14037.867    4.3754819    4.3754819    4.3754819   -14037.867   -40482.848    8391.2519   -10022.005    9077.7785   -16607.268   -547.57541    83.767906 
   66500    1039.4096   -116.70827   0.94047967   -115.76779   -27296.915    4.3817147    4.3817147    4.3817147   -27296.915   -53266.189   -722.68224   -27901.874   -8994.1137   -22765.397    -21899.04    84.126394 
   66600    1657.3712   -117.24425    1.4996243   -115.74463    3065.8951    4.3627641    4.3627641    4.3627641    3065.8951    23932.339    1778.9911   -16513.645    3400.1309    10513.894    27018.174    83.039591 
   66700    1175.0647   -116.82126    1.0632233   -115.75803    -6015.562    4.3546544    4.3546544    4.3546544    -6015.562   -33660.483    39052.544   -23438.747    8736.8013   -15418.908    3138.5749    82.577376 
   66800    974.67678   -116.66451   0.88190804    -115.7826   -2118.0006    4.3587623    4.3587623    4.3587623   -2118.0006   -15422.462    43581.055   -34512.596   -803.45057   -16541.798   -24971.992    82.811292 
   66900    1900.7694   -117.49767    1.7198561   -115.77781    488.03593    4.3725688    4.3725688    4.3725688    488.03593    40199.017   -1698.4912   -37036.418   -7550.3174    1198.7953   -27316.622    83.600709 
   67000    1565.2754    -117.1947     1.416294    -115.7784   -5033.5566    4.3696135    4.3696135    4.3696135   -5033.5566   -9700.2183    23815.442   -29215.893    5297.2766   -16039.804    250.99972    83.431314 
   67100    916.96977   -116.60726   0.82969352   -115.77756     14865.04    4.3561668    4.3561668    4.3561668     14865.04    21904.362     47208.42   -24517.661    2589.9108   -21245.984   -14995.983    82.663447 
   67200    1836.0698   -117.42456    1.6613145   -115.76324    7485.3586     4.367039     4.367039     4.367039    7485.3586    46562.876   -5125.1633   -18981.637   -15316.276    4358.4481   -31241.715    83.283931 
   67300    1221.4081   -116.87265    1.1051557    -115.7675   -8714.8923    4.3772026    4.3772026    4.3772026   -8714.8923   -29879.135    15660.237   -11925.779    7712.9272   -12111.911    9369.2829    83.866773 
   67400    1142.1274   -116.79629    1.0334209   -115.76286   -7224.9509    4.3718801    4.3718801    4.3718801   -7224.9509   -21869.248     25252.65   -25058.254    21289.206   -22670.409   -4655.0272    83.561214 
   67500    2221.3806   -117.75677    2.0099518   -115.74682   -3745.5797    4.3606202    4.3606202    4.3606202   -3745.5797   -1458.8843    11550.355   -21328.209   -11870.447    8876.9772   -9946.8233     82.91723 
   67600    704.14158   -116.41529    0.6371221   -115.77816   -2183.7527    4.3578554    4.3578554    4.3578554   -2183.7527   -45784.545    34003.774     5229.513    2486.2032   -13104.167    5727.7724    82.759614 
   67700    981.07741   -116.68111   0.88769946   -115.79341   -8172.5109    4.3648946    4.3648946    4.3648946   -8172.5109   -42050.142    32277.795   -14745.185    13984.304    -14019.59    10216.475    83.161301 
   67800    2074.0133   -117.65192    1.8766108   -115.77531    7131.9693    4.3685243    4.3685243    4.3685243    7131.9693    11512.542    38173.976   -28290.611   -3481.3817    3295.9195   -6167.3143    83.368936 
   67900     1263.312   -116.93116    1.1430712   -115.78809    11220.553    4.3528908    4.3528908    4.3528908    11220.553   -24459.027    48921.679     9199.007   -4543.2051   -1878.9256   -18557.416    82.477088 
   68000    1041.7425   -116.73315   0.94259052   -115.79056    13407.058    4.3525922    4.3525922    4.3525922    13407.058    -24506.86    45144.124    19583.908      26423.7   -9828.3575     19307.12    82.460114 
   68100    1771.7826   -117.38143    1.6031461   -115.77828   -13845.462     4.373472     4.373472     4.373472   -13845.462    -13436.28    11348.198   -39448.305    163.19565    990.43457   -22018.095    83.652523 
   68200    1096.2151   -116.77156   0.99187849   -115.77968   -18533.032    4.3701955    4.3701955    4.3701955   -18533.032   -20510.699   -4964.9817   -30123.417   -5468.9172    7712.9365   -39751.375    83.464654 
   68300     1237.969   -116.89288    1.1201404   -115.77274    14903.758    4.3574927    4.3574927    4.3574927    14903.758   -5118.7927    32973.009    16857.057   -1248.8883   -13939.605     6298.436    82.738953 
   68400    1534.0787   -117.15848    1.3880666   -115.77042    3969.0605    4.3652628    4.3652628    4.3652628    3969.0605   -1141.0436    37436.045    -24387.82     10866.08    7782.4068   -22503.426    83.182349 
   68500    1260.0218   -116.91884    1.1400942   -115.77875    9273.1731    4.3610269    4.3610269    4.3610269    9273.1731     15666.34    40662.281   -28509.101    2899.5777     17375.02   -29391.931     82.94043 
   68600    1343.8791   -116.99505      1.21597   -115.77908    2287.2903    4.3697721    4.3697721    4.3697721    2287.2903    23.080856   -14.428326    6853.2183    12114.697   -6549.4228    131.95971    83.440397 
   68700    1458.9978   -117.10044    1.3201319   -115.78031   -9148.9983    4.3691735    4.3691735    4.3691735   -9148.9983   -25338.156    9334.4634   -11443.302    10400.755    7284.5856    7218.8097    83.406113 
   68800    1464.5531   -117.10303    1.3251584   -115.77787    22035.378    4.3433988    4.3433988    4.3433988    22035.378    7699.6638    50158.492    8247.9784    398.61601    38089.608   -16998.847     81.93871 
   68900    1728.9286   -117.35626    1.5643709   -115.79188   -250.83643    4.3621365    4.3621365    4.3621365   -250.83643   -9869.2477   -5018.9133    14135.652   -787.44836    3803.4679   -20619.209     83.00376 
   69000    1443.3917   -117.08791    1.3060112    -115.7819    -28903.12    4.3791615    4.3791615    4.3791615    -28903.12   -61271.085   -32740.705    7302.4307   -8778.4419    170.59148     11381.36    83.979425 
   69100    1368.7048   -117.01387    1.2384328   -115.77544    9872.1389    4.3593286    4.3593286    4.3593286    9872.1389   -28390.985    54631.698    3375.7035    7897.5986    36803.062    6975.2868    82.843571 
   69200    1800.9735   -117.40433    1.6295587   -115.77477   -889.22078     4.352734     4.352734     4.352734   -889.22078   -23589.328    27197.755   -6276.0895   -5955.7014   -4851.2068    -2576.155    82.468175 
   69300    1349.9973   -117.01513    1.2215059   -115.79362    5047.8729     4.346026     4.346026     4.346026    5047.8729   -50512.588    48766.576    16889.631   -7800.2475   -25689.093   -9978.8509    82.087489 
   69400    1030.8364   -116.74641   0.93272245   -115.81369    15527.254    4.3605094    4.3605094    4.3605094    15527.254   -35527.182    73963.031    8145.9147     2972.171    18928.514     15708.59    82.910909 
   69500    1769.9689   -117.38838     1.601505   -115.78687   -21907.628    4.3770348    4.3770348    4.3770348   -21907.628   -30953.916    10895.103    -45664.07     5218.202   -7444.1126    4079.0472    83.857133 
   69600    1181.6717   -116.84639    1.0692014   -115.77718    26114.504    4.3509024    4.3509024    4.3509024    26114.504   -35927.096    110091.93    4178.6733   -7820.0548   -28220.475   -16404.329     82.36411 
   69700    1323.9554   -116.97655    1.1979427    -115.7786   -4339.0414    4.3560962    4.3560962    4.3560962   -4339.0414   -34618.197    2075.9784    19525.094    5245.8759    13663.277     9219.799    82.659429 
   69800    1263.2848   -116.92421    1.1430466   -115.78116   -19111.741    4.3635752    4.3635752    4.3635752   -19111.741   -26927.318   -3281.6486   -27126.256   -1186.1882   -11654.923    947.66832    83.085912 
   69900    1111.5171   -116.79206    1.0057241   -115.78633    5755.8917    4.3518041    4.3518041    4.3518041    5755.8917   -12890.162    72759.342   -42601.505   -2169.2212    -40435.19   -17495.338    82.415332 
   70000    1379.0885   -117.03902    1.2478282   -115.79119   -18243.251    4.3691249    4.3691249    4.3691249   -18243.251   -50314.688    425.57659   -4840.6398    4456.6794    22899.352    -8120.576    83.403329 
   70100     1402.935   -117.06326     1.269405   -115.79385   -7831.5337    4.3572209    4.3572209    4.3572209   -7831.5337   -28034.072    3153.6894    1385.7812    7093.9989    11422.752    9547.4176    82.723468 
   70200    956.74029   -116.66207   0.86567872    -115.7964     23341.21    4.3385879    4.3385879    4.3385879     23341.21   -17008.521    69201.622    17830.528    66.469436   -56927.744   -19634.814    81.666738 
   70300     1429.454   -117.10044       1.2934   -115.80704    -3992.465    4.3639108    4.3639108    4.3639108    -3992.465   -14380.718    9614.8305   -7211.5072   -5853.6818   -14376.187   -19831.532    83.105085 
   70400     1838.376   -117.45397    1.6634012   -115.79057    9539.8862    4.3647106    4.3647106    4.3647106    9539.8862   -1289.4946   -5500.7961    35409.949    16279.237    23848.258    10879.271    83.150786 
   70500    898.53203   -116.61039   0.81301066   -115.79737    27248.899    4.3541001    4.3541001    4.3541001    27248.899     27546.14    46268.531    7932.0266    5610.6026   -37913.429   -9835.2987    82.545849 
   70600    1185.3838   -116.87012    1.0725601   -115.79756    2742.1071    4.3747169    4.3747169    4.3747169    2742.1071    30688.728    8212.2542   -30674.661   -7910.8092    -26644.01   -18043.244    83.723981 
   70700    2106.1184   -117.66727    1.9056601   -115.76161    3871.5572    4.3751964    4.3751964    4.3751964    3871.5572    28350.514    -20393.15     3657.307   -4326.3677    10917.518    13846.986    83.751514 
   70800    1216.4078    -116.8749    1.1006313   -115.77427    16839.307    4.3526157    4.3526157    4.3526157    16839.307    29314.927    33999.236   -12796.243    13374.263   -31059.634   -18134.862    82.461451 
   70900    923.21089     -116.629   0.83534062   -115.79366   -12978.182    4.3556161    4.3556161    4.3556161   -12978.182   -12104.621    -2513.403   -24316.521   -9961.4289   -28411.311   -26549.147      82.6321 
   71000    1858.4483   -117.47161    1.6815631   -115.79005   -2625.1135    4.3603278    4.3603278    4.3603278   -2625.1135   -11031.054   -21483.983    24639.697   -20861.224     10147.62    15684.735    82.900551 
   71100    1753.2536   -117.37491    1.5863807   -115.78853   -13712.766    4.3661389    4.3661389    4.3661389   -13712.766    -17444.67   -6801.8518   -16891.776    4750.3342    -21859.15   -12799.199    83.232442 
   71200    817.02536   -116.53231   0.73926172   -115.79305   -25297.338    4.3712102    4.3712102    4.3712102   -25297.338   -20087.091   -21080.663   -34724.259   -7964.5014   -36240.877   -32684.578    83.522803 
   71300    1558.1556   -117.18726     1.409852    -115.7774   -6959.8431    4.3591772    4.3591772    4.3591772   -6959.8431   -22291.659   -25623.194    27035.323   -9662.7171     15109.81    6747.0957    82.834941 
   71400    1728.7569   -117.33636    1.5642156   -115.77214   -1089.0675    4.3564339    4.3564339    4.3564339   -1089.0675   -2691.9616   -7828.9543    7253.7134   -1118.5136    9008.3789   -10833.961    82.678653 
   71500    973.99098   -116.67388   0.88128751   -115.79259   -9650.5369    4.3583853    4.3583853    4.3583853   -9650.5369    19415.669   -11773.178   -36594.101   -4311.5683   -20227.419   -37665.183    82.789806 
   71600    1281.5642   -116.95211    1.1595863   -115.79252   -5859.8337    4.3601157    4.3601157    4.3601157   -5859.8337   -8641.6052   -9415.9718    478.07598   -19343.295   -12489.652   -3022.9202    82.888453 
   71700    1437.2322   -117.09301    1.3004379   -115.79257   -11421.723    4.3631023    4.3631023    4.3631023   -11421.723    -7804.669   -14422.197   -12038.302   -5262.1869    30758.708    10389.429    83.058904 
   71800    1301.0595   -116.97378    1.1772259   -115.79655    11986.444    4.3515331    4.3515331    4.3515331    11986.444    27066.473    24388.876   -15496.017    5297.2599    16850.489   -30216.986    82.399936 
   71900    1571.7114   -117.21313    1.4221175   -115.79101    7397.2041    4.3552341    4.3552341    4.3552341    7397.2041    7036.4067    9000.2798    6154.9259   -3582.5493   -17030.935   -17534.452    82.610357 
   72000    878.19563   -116.59319   0.79460986   -115.79858   -10026.582    4.3666292    4.3666292    4.3666292   -10026.582   -10744.522   -21062.522    1727.2989   -7088.3995    16235.107    24959.115    83.260485 
   72100    1002.9101   -116.70335   0.90745411    -115.7959    4418.9809    4.3608074    4.3608074    4.3608074    4418.9809    2443.1709    9515.8465    1297.9254    8509.9766    29647.876   -18013.175    82.927908 
   72200    1714.9959    -117.3363    1.5517643   -115.78454    16704.825    4.3580008    4.3580008    4.3580008    16704.825    15273.778    20809.344    14031.352   -3450.1337   -2013.3948   -14224.922    82.767897 
   72300    1442.0719   -117.09848    1.3048169   -115.79366     5579.074    4.3546612    4.3546612    4.3546612     5579.074   -2461.2127    4144.7779    15053.657   -6115.8003   -7591.9013    16244.714    82.577762 
   72400    869.89037    -116.5924   0.78709509   -115.80531    9162.8448    4.3541976    4.3541976    4.3541976    9162.8448   -7297.4516    10036.461    24749.525    9485.9512    42747.891    2364.0502     82.55139 
   72500    1183.3668   -116.87037    1.0707351   -115.79964   -4899.2123    4.3694602    4.3694602    4.3694602   -4899.2123   -27979.397    30778.138   -17496.378   -273.54529   -11167.114     5242.681    83.422534 
   72600    1500.5024   -117.14169    1.3576861     -115.784    -1510.054    4.3640917    4.3640917    4.3640917    -1510.054   -21418.438     34954.18   -18065.904    3297.2836   -54457.748   -5454.5828    83.115418 
   72700    1882.6784   -117.47499    1.7034869   -115.77151    6360.3259    4.3475168    4.3475168    4.3475168    6360.3259    4229.9817   -9257.9762    24108.972     6684.384    27132.407   -4065.9884    82.171989 
   72800    912.20592   -116.62291   0.82538308   -115.79753   -18572.992    4.3551529    4.3551529    4.3551529   -18572.992   -58275.758    24620.369   -22063.586    12087.896   -21299.702     7737.575     82.60574 
   72900    1043.1843   -116.74832   0.94389508   -115.80442   -12973.963    4.3654324    4.3654324    4.3654324   -12973.963   -64291.332    29614.026    -4244.585     14.71223   -52464.823   -7635.1879    83.192043 
   73000     2406.307   -117.95813    2.1772771   -115.78086    2591.4513    4.3687069    4.3687069    4.3687069    2591.4513   -10825.962   -25396.689    43997.005   -1490.0022    15540.177    8868.1548     83.37939 
   73100     1325.941    -116.9988    1.1997393   -115.79906   -9066.3161    4.3586648    4.3586648    4.3586648   -9066.3161   -55427.869    3999.9573    24228.963    8084.2332   -48379.871    6335.7286    82.805733 
   73200    934.52615   -116.64613    0.8455789   -115.80055    -4111.887    4.3400743    4.3400743    4.3400743    -4111.887   -42414.445    25258.507    4820.2768     7632.144   -47787.476   -2225.8763    81.750701 
   73300    1615.7556   -117.26637    1.4619696    -115.8044    165.95425    4.3538759    4.3538759    4.3538759    165.95425   -12213.431    -15263.25    27974.544   -10488.013    45845.557   -1003.0216    82.533095 
   73400    1552.1161   -117.19537    1.4043873   -115.79098   -24980.669    4.3743893    4.3743893    4.3743893   -24980.669   -37542.284   -26471.557   -10928.167    -9950.461   -25461.492    512.16509    83.705169 
   73500    1318.9627   -116.97675    1.1934252   -115.78332   -7980.1377    4.3615702    4.3615702    4.3615702   -7980.1377   -36239.548   -7791.9519    20091.087    12651.108   -44480.121    6947.6895    82.971436 
   73600    842.26841   -116.54903   0.76210216   -115.78692    4135.5085    4.3493778    4.3493778    4.3493778    4135.5085   -31223.746   -3236.4495    46866.721    6863.3875     42385.16   -6573.0526    82.277557 
   73700    1178.6596   -116.86342     1.066476   -115.79695   -5891.1799    4.3491992    4.3491992    4.3491992   -5891.1799   -27562.559   -14929.328    24818.347   -23837.887    23200.434    9892.7945    82.267423 
   73800    1862.3449    -117.4779    1.6850888   -115.79281     12811.96    4.3603886    4.3603886    4.3603886     12811.96   -6739.7658   -9543.6039    54719.249   -818.31254   -21457.878    1399.9374    82.904019 
   73900    1246.1309   -116.92707    1.1275254   -115.79954   -28383.985    4.3770291    4.3770291    4.3770291   -28383.985   -71704.692   -11822.157   -1625.1044    11293.078    24471.727   -8588.8169    83.856803 
   74000    466.75452   -116.23078   0.42232929   -115.80845   -16797.131    4.3564191    4.3564191    4.3564191   -16797.131   -70662.262   -3816.3482    24087.216   -31909.423    45147.304    12695.429    82.677807 
   74100    1736.2054   -117.36595    1.5709551   -115.79499    27190.884    4.3318508    4.3318508    4.3318508    27190.884   -635.57931    44020.161    38188.069   -9143.5871   -18432.697   -2713.1702    81.286883 
   74200    2095.6668   -117.70133    1.8962034   -115.80513    2772.5014    4.3542451    4.3542451    4.3542451    2772.5014   -18417.384    23429.198    3305.6902    9626.6348   -13573.891    10761.235    82.554093 
   74300    1207.7597   -116.89841    1.0928063    -115.8056   -19821.755    4.3743431    4.3743431    4.3743431   -19821.755   -63608.764    12254.599   -8111.0989   -23792.659     39986.51   -1471.1002    83.702519 
   74400    1109.1047    -116.7935    1.0035412   -115.78996   -4640.5773    4.3599763    4.3599763    4.3599763   -4640.5773   -49843.731    41614.295   -5692.2955   -27854.318   -3520.6741   -4576.3626    82.880503 
   74500    1460.1914   -117.10785    1.3212119   -115.78664    7705.3501    4.3462841    4.3462841    4.3462841    7705.3501   -31383.109    65680.541   -11181.382    18901.773   -56756.857    8320.9549    82.102111 
   74600    1814.1383   -117.43386    1.6414705   -115.79239    5901.4729    4.3469379    4.3469379    4.3469379    5901.4729   -18977.401    21808.878    14872.941   -2521.9448    4557.6603   -9126.4834    82.139169 
   74700    1259.7429   -116.94824    1.1398418    -115.8084   -4028.1672    4.3637092    4.3637092    4.3637092   -4028.1672   -29327.561    31139.652   -13896.593   -29778.554    11632.435    4990.5729    83.093567 
   74800    696.02731   -116.43405   0.62978014   -115.80427   -34449.875    4.3735986    4.3735986    4.3735986   -34449.875   -77132.783    23864.804   -50081.646    7213.3408   -46387.788    7257.4686    83.659791 
   74900    1293.8112   -116.96429    1.1706676   -115.79363    1656.6237    4.3485564    4.3485564    4.3485564    1656.6237   -21164.158   -71.627704    26205.656    40878.478   -5989.5031    2413.9118    82.230953 
   75000     1916.189   -117.51606     1.733808   -115.78225    32473.609    4.3403782    4.3403782    4.3403782    32473.609    11926.343    36709.487    48784.997   -684.66784    2092.1877    11817.766    81.767877 
   75100    1248.9127   -116.93375    1.1300425   -115.80371   -8233.0015    4.3686367    4.3686367    4.3686367   -8233.0015   -56758.342    26714.165    5345.1723   -3904.9586   -45792.095   -5013.6041    83.375374 
   75200    679.81859   -116.40832   0.61511414   -115.79321   -18624.017    4.3761764    4.3761764    4.3761764   -18624.017   -65927.824   -18345.201    28400.976    46407.642   -11164.112    866.41976    83.807803 
   75300    1712.5973   -117.31828     1.549594   -115.76868    5656.9389    4.3582695    4.3582695    4.3582695    5656.9389   -23603.223    13567.362    27006.677   -2951.4689     29907.35   -1175.8904    82.783208 
   75400    1720.1829   -117.32375    1.5564576   -115.76729    10334.409    4.3531473    4.3531473    4.3531473    10334.409   -19092.821     24676.72    25419.329    -4796.275   -20690.799     918.2804    82.491669 
   75500    1202.4236   -116.87765    1.0879782   -115.78967    5347.0044    4.3508028    4.3508028    4.3508028    5347.0044    -31297.42   -12067.859    59406.291    55403.527   -18077.185    10986.024    82.358457 
   75600    1002.4939   -116.70969   0.90707756   -115.80261    10677.248    4.3596059    4.3596059    4.3596059    10677.248   -39688.852    24318.172    47402.424   -3795.7598    24941.348    868.18025     82.85938 
   75700      1426.16    -117.0846    1.2904195   -115.79418   -12284.299    4.3660381    4.3660381    4.3660381   -12284.299   -50455.682   -14999.798    28602.583   -24937.027    22060.097    9709.8542    83.226678 
   75800    1554.1972   -117.19112    1.4062702   -115.78485    13499.905    4.3499049    4.3499049    4.3499049    13499.905   -13609.982   -21089.126    75198.822    46030.893   -3460.2338    1322.9288    82.307479 
   75900     1319.012   -116.98426    1.1934698   -115.79079   -6873.5207     4.355048     4.355048     4.355048   -6873.5207   -31840.558     1314.573    9905.4224   -7992.6348   -3131.4476    6649.3735    82.599771 
   76000    606.88354   -116.34667   0.54912098   -115.79755   -27170.786    4.3649556    4.3649556    4.3649556   -27170.786    -70436.08   -1127.6517   -9948.6271   -42312.022    34380.583    474.29647    83.164791 
   76100    1785.8481   -117.39551    1.6158729   -115.77964    13143.806    4.3551164    4.3551164    4.3551164    13143.806   -19090.836    10970.051    47552.202    11689.253   -405.81924   -6661.3476    82.603665 
   76200    1972.1042   -117.56356    1.7844014   -115.77916   -3896.2806    4.3565602    4.3565602    4.3565602   -3896.2806       -19761   -16739.434    24811.592   -7673.3456    908.52606    14679.759    82.685843 
   76300    497.49373   -116.25888   0.45014278   -115.80873   -11356.357    4.3528951    4.3528951    4.3528951   -11356.357    -73161.05    6824.7163    32267.264   -42382.245    32340.571    2633.2651    82.477333 
   76400    1409.4405   -117.07858    1.2752914   -115.80329   -5028.8252    4.3532818    4.3532818    4.3532818   -5028.8252   -38215.991    1970.2085    21159.307    -10925.09    7819.6134    4501.1154    82.499315 
   76500    1909.6624   -117.51992    1.7279026   -115.79202    1886.4396    4.3609547    4.3609547    4.3609547    1886.4396   -18648.486   -13150.662    37458.466    32774.449   -15211.186    4441.9104    82.936313 
   76600    1146.9925   -116.83719    1.0378229   -115.79936   -1165.7098    4.3541519    4.3541519    4.3541519   -1165.7098   -37212.692   -6192.4054    39907.968   -9961.6292    28039.739    756.05841    82.548796 
   76700    1541.6753   -117.18759    1.3949402   -115.79265   -4960.7784    4.3549262    4.3549262    4.3549262   -4960.7784   -27794.739   -10362.459    23274.863   -33852.752    18035.475    3785.3136    82.592841 
   76800    1685.7457    -117.3134    1.5252982    -115.7881   -9335.7774    4.3641223    4.3641223    4.3641223   -9335.7774   -23478.161   -27555.126    23025.955    46259.721   -22774.028    301.86306    83.117167 
   76900    1348.1155   -117.00898    1.2198032   -115.78918   -1689.1355     4.355493     4.355493     4.355493   -1689.1355       -22522    1226.8997    16227.694     27250.31    17306.298   -2954.8743    82.625093 
   77000     1405.255   -117.06225    1.2715043   -115.79074   -69.269032    4.3501963    4.3501963    4.3501963   -69.269032   -20012.938    7800.7752    12004.355   -47995.976     36114.29    1392.2238     82.32402 
   77100    1590.3156   -117.22689     1.438951   -115.78794   -601.93792    4.3612527    4.3612527    4.3612527   -601.93792   -23321.991   -7067.5528     28583.73     2325.379   -6493.4152    3816.4289    82.953318 
   77200    1821.3266   -117.42896    1.6479746   -115.78099   -1439.6077    4.3600094    4.3600094    4.3600094   -1439.6077   -6745.3468    2696.0395   -269.51569    37338.391    7196.8335    8914.7047    82.882393 
   77300    969.54803   -116.67308   0.87726743   -115.79581    9248.4638    4.3489248    4.3489248    4.3489248    9248.4638   -11757.314    26617.506      12885.2   -14294.618    36930.625    -295.8966    82.251855 
   77400    1306.0751   -116.97985    1.1817642   -115.79808    5548.6479    4.3538783    4.3538783    4.3538783    5548.6479   -7499.7686    8711.3507    15434.361   -41248.746   -2792.8169   -351.40063    82.533233 
   77500    2208.9396   -117.78454    1.9986949   -115.78585    4142.1705    4.3583759    4.3583759    4.3583759    4142.1705    13157.724      4679.47   -5410.6829    10046.382   -2858.9846   -1910.0126     82.78927 
   77600    1384.3457   -117.05122    1.2525851   -115.79863    8079.3492    4.3572076    4.3572076    4.3572076    8079.3492    2850.6465    26643.442    -5256.041   -4172.6235    41637.905   -2322.3333    82.722708 
   77700    808.68162   -116.53147   0.73171213   -115.79976    -2276.406    4.3626849    4.3626849    4.3626849    -2276.406   -21458.286    6209.0518    8420.0163   -45912.094    1662.5905   -626.11299    83.035068 
   77800    1589.8199    -117.2267    1.4385024    -115.7882    464.40502    4.3555988    4.3555988    4.3555988    464.40502   -258.85378    -7260.989    8913.0578    4653.3243   -25091.839   -7404.2079    82.631114 
   77900    1686.6045   -117.30486    1.5260752   -115.77879    18484.256    4.3513408    4.3513408    4.3513408    18484.256    3228.2711    31311.013    20913.483    22815.341    21360.233    924.82695    82.389014 
   78000      994.214   -116.68929   0.89958572    -115.7897   -14546.829    4.3682904    4.3682904    4.3682904   -14546.829    -42880.73   -22688.223    21928.466   -61112.897    18575.651   -7599.0724    83.355545 
   78100    1486.8926    -117.1182    1.3453717   -115.77283   -6769.9523    4.3652921    4.3652921    4.3652921   -6769.9523   -21557.828   -107.40525     1355.376    -15463.59   -14435.558   -10342.413    83.184026 
   78200    1685.4117   -117.29368    1.5249959   -115.76868    14291.678    4.3468888    4.3468888    4.3468888    14291.678   -13414.835    53655.389    2634.4817    26706.723   -730.54137    1281.4488    82.136387 
   78300    618.72174   -116.35903   0.55983243   -115.79919   -7962.0623    4.3469854    4.3469854    4.3469854   -7962.0623   -78394.808   -904.86729    55413.488    -67226.04    15266.977    5291.3064    82.141864 
   78400    1386.2917   -117.05851    1.2543459   -115.80416      1250.19    4.3617806    4.3617806    4.3617806      1250.19   -42407.896    46094.216    64.250329   -30980.405    5365.7992    2923.1964    82.983441 
   78500     2150.325   -117.72909    1.9456592   -115.78343   -3775.4664    4.3656044    4.3656044    4.3656044   -3775.4664   -16586.902    20236.825   -14976.321    5077.2093   -5291.5097   -5680.5043     83.20188 
   78600    737.74876    -116.4713   0.66753058   -115.80377   -5294.3319    4.3491122    4.3491122    4.3491122   -5294.3319   -53852.463   -7849.3886    45818.856   -69341.651    5908.5904   -2460.2387    82.262489 
   78700    1093.8208   -116.78398   0.98971202   -115.79426    13530.975    4.3400144    4.3400144    4.3400144    13530.975   -31023.678    33317.015    38299.587    2854.2455    16751.617    -1217.335     81.74732 
   78800    1558.7609   -117.20226    1.4103996   -115.79186    -1088.916    4.3620947    4.3620947    4.3620947    -1088.916   -31445.329    22569.942    5608.6396    18221.614   -8727.9522    8028.2128    83.001372 
   78900    1321.6603    -116.9805     1.195866   -115.78463   -6603.6292    4.3677954    4.3677954    4.3677954   -6603.6292   -35989.785    7141.1202    9037.7772   -50602.659   -22777.902    849.93559    83.327215 
   79000    1457.9734   -117.09627     1.319205   -115.77707    14320.631    4.3486729    4.3486729    4.3486729    14320.631    -7742.917    30187.184    20517.626   -9110.5146     36329.62   -13950.987    82.237564 
   79100    1138.8638   -116.81957    1.0304679    -115.7891   -719.30487    4.3497297    4.3497297    4.3497297   -719.30487   -41888.509    42405.633   -2675.0395    29691.668    3947.1661      9967.61     82.29753 
   79200    1462.6677   -117.10834    1.3234525   -115.78489   -2012.4153    4.3610892    4.3610892    4.3610892   -2012.4153   -13154.311    19268.254   -12151.189   -2862.1242   -41831.098   -6972.1097    82.943986 
   79300    1726.5949   -117.34028    1.5622594   -115.77802   -7668.6688    4.3658772    4.3658772    4.3658772   -7668.6688   -4194.5274   -7419.0231   -11392.456    -10638.77    30703.777   -14822.073    83.217478 
   79400    1311.6459   -116.97304    1.1868048   -115.78624   -24441.435    4.3580473    4.3580473    4.3580473   -24441.435   -56489.565     13939.34    -30774.08    12112.772    9710.4354   -1026.3491    82.770547 
   79500     1297.629   -116.96409    1.1741219   -115.78997    6755.3861    4.3394551    4.3394551    4.3394551    6755.3861   -29825.485    46206.897    3884.7463    10540.358   -57166.679   -35.897919    81.715719 
   79600    1903.9387   -117.51533    1.7227238    -115.7926    1778.5233    4.3544427    4.3544427    4.3544427    1778.5233    -105.1265   -8980.6449    14421.341   -847.32954    7372.7921   -20308.867    82.565335 
   79700     1623.436   -117.26018     1.468919   -115.79126   -27806.507    4.3692544    4.3692544    4.3692544   -27806.507   -39852.494   -7817.4469   -35749.579   -5495.2735    14183.514   -19821.643    83.410747 
   79800    1064.5009   -116.75656   0.96318283   -115.79338    422.79472    4.3493646    4.3493646    4.3493646    422.79472    -60511.93    55969.957    5810.3571    20670.871   -50015.855    13951.782    82.276813 
   79900    1508.7831   -117.15294    1.3651787   -115.78776   -3424.3678    4.3527066    4.3527066    4.3527066   -3424.3678   -18084.041   -12551.923    20362.861    2403.3951     -7106.28   -22737.044    82.466617 
   80000    1520.3327   -117.16386     1.375629   -115.78824   -13732.116    4.3531146    4.3531146    4.3531146   -13732.116   -2618.7879   -32671.141   -5906.4201    -26541.78   -82.307201   -33236.729     82.48981 
   80100    1352.3556   -117.01757    1.2236398   -115.79393    11418.027    4.3473315    4.3473315    4.3473315    11418.027   -43888.584    70297.371    7845.2933   -684.35148   -46083.234    8112.7787    82.161484 
   80200    1787.2018   -117.40032    1.6170977   -115.78323   -13291.093    4.3672102    4.3672102    4.3672102   -13291.093   -36171.634    13368.778   -17070.422   -562.10118   -4077.7453    -5551.009    83.293724 
   80300    1397.9783   -117.05897    1.2649201   -115.79405   -7938.8589    4.3518984    4.3518984    4.3518984   -7938.8589    2348.0553    -18445.11   -7719.5224   -14438.888     6450.662   -38963.879    82.420691 
   80400    927.04558   -116.63457   0.83881033   -115.79576     17026.04    4.3358012    4.3358012    4.3358012     17026.04   -12375.345    53563.484    9889.9811     -11714.5   -44117.864    -6699.404    81.509475 
   80500    1803.8633   -117.42392    1.6321734   -115.79175   -19495.855    4.3617742    4.3617742    4.3617742   -19495.855   -29240.332     2352.558   -31599.791    12968.149   -22520.656    23257.125    82.983076 
   80600    1338.1211   -116.99433    1.2107601   -115.78356      1215.74    4.3647944    4.3647944    4.3647944      1215.74    16743.211   -16704.829    3608.8382    5201.6497    8465.9156   -42309.223    83.155577 
   80700    1093.5724   -116.76926   0.98948731   -115.77977    -3084.427    4.3650682    4.3650682    4.3650682    -3084.427   -12752.859   -7407.5075    10907.086   -16464.745   -28946.175   -25128.711    83.171226 
   80800    1814.6426   -117.40913    1.6419268   -115.76721   -9197.0169    4.3588001    4.3588001    4.3588001   -9197.0169   -16005.409   -9034.2275   -2551.4145   -5704.2383   -25992.451    18753.242    82.813449 
   80900    1316.8112   -116.96965    1.1914785   -115.77818    23067.153    4.3344646    4.3344646    4.3344646    23067.153     77118.41   -26987.534    19070.583    7662.0528    17384.315   -46718.537    81.434116 
   81000    1039.1099   -116.74174    0.9402085   -115.80153    -3752.911      4.34919      4.34919      4.34919    -3752.911    12097.106   -24483.505     1127.666   -16804.688   -16877.754   -33798.584      82.2669 
   81100    1479.6976   -117.12659    1.3388614   -115.78773   -17793.223    4.3675892    4.3675892    4.3675892   -17793.223   -41785.006   -24574.207    12979.543   -20624.951   -19629.963    14049.792    83.315416 
   81200    1399.2282   -117.04915    1.2660511    -115.7831   -4040.3416    4.3548751    4.3548751    4.3548751   -4040.3416    39293.287   -47113.669   -4300.6434    4217.8987     10909.67   -41434.481    82.589933 
   81300    1301.5278   -116.96047    1.1776497   -115.78282    5681.3787    4.3475167    4.3475167    4.3475167    5681.3787    58344.831   -37043.003   -4257.6917   -879.23868   -4615.4947   -19517.335    82.171983 
   81400    1722.7631    -117.3428    1.5587922   -115.78401   -79.575213    4.3473928    4.3473928    4.3473928   -79.575213   -7742.6344     -14163.5    21667.409   -15882.482   -6677.6444    26347.985    82.164961 
   81500    1041.1941   -116.74198    0.9420943   -115.79988    1510.9219    4.3527537    4.3527537    4.3527537    1510.9219    8785.8128   -25512.498    21259.451    6325.3572   -10970.173   -45252.733    82.469297 
   81600    958.28286   -116.66884   0.86707447   -115.80177   -9789.1907    4.3623751    4.3623751    4.3623751   -9789.1907    26969.875   -50052.066   -6285.3802    20615.938    10498.251   -18757.415     83.01738 
   81700    1653.9033   -117.28349    1.4964865     -115.787    5867.0181    4.3542047    4.3542047    4.3542047    5867.0181    31820.414   -20326.192    6106.8316    -9920.378    3308.4697    43822.363    82.551798 
   81800    1409.1423   -117.06261    1.2750215   -115.78759    3920.2286    4.3471734    4.3471734    4.3471734    3920.2286    1839.2638   -5954.0626    15875.485    8263.9637   -17821.082   -23535.468    82.152522 
   81900    789.80476   -116.51499   0.71463195   -115.80036    -18978.93    4.3554398    4.3554398    4.3554398    -18978.93    2659.0967   -26284.419   -33311.468    24282.952   -2244.9487   -41178.968    82.622065 
   82000    1602.5368   -117.24009    1.4500089   -115.79008   -2682.0698     4.353166     4.353166     4.353166   -2682.0698    29515.706    -28247.89   -9314.0246   -1661.8132     371.0947    31625.655    82.492734 
   82100    1687.3196   -117.31572    1.5267223     -115.789   -4635.0285    4.3570817    4.3570817    4.3570817   -4635.0285   -10402.018    6431.6546   -9934.7219    -14035.65   -4043.7533    381.21524    82.715539 
   82200    826.35031   -116.54271   0.74769913   -115.79501   -28786.034    4.3639086    4.3639086    4.3639086   -28786.034   -24740.494   -1973.4241   -59644.184    10479.272   -16400.719   -57444.344    83.104958 
   82300    1881.9149   -117.48659    1.7027962    -115.7838    6135.5612     4.346478     4.346478     4.346478    6135.5612    15433.073    11235.277   -8261.6663    21404.585   -3054.2968   -13314.509    82.113104 
   82400    2104.0528   -117.68919    1.9037912    -115.7854    10617.783    4.3471168    4.3471168    4.3471168    10617.783   -1472.0495    38409.605   -5084.2058    -16631.47    554.69733    12121.498    82.149314 
   82500    746.30241   -116.48162    0.6752701   -115.80635   -19851.331    4.3618718    4.3618718    4.3618718   -19851.331   -15590.203    24054.156   -68017.948   -13639.938   -15299.723   -52841.755    82.988651 
   82600    1373.0707   -117.04136    1.2423832   -115.79898   -8710.6445    4.3536765    4.3536765    4.3536765   -8710.6445    22427.038   -8129.5349   -40429.437    14207.446   -1416.2444   -23769.803    82.521755 
   82700    1774.2392   -117.38869    1.6053689   -115.78332    8496.8056    4.3512617    4.3512617    4.3512617    8496.8056    28122.772    4417.5947   -7049.9498   -10683.565   -1449.0863    44559.343    82.384517 
   82800    1222.6094   -116.89433    1.1062427   -115.78809   -25453.394    4.3603944    4.3603944    4.3603944   -25453.394    -5997.905   -22824.131   -47538.147   -12583.207   -6132.8664   -39731.945     82.90435 
   82900    1182.2635   -116.85386    1.0697368   -115.78412   -17769.204    4.3527798    4.3527798    4.3527798   -17769.204    15715.789   -43944.506   -25078.895    3780.6619   -12244.978   -34472.303    82.470776 
   83000    1353.3193   -117.00567    1.2245118   -115.78116   -5955.3844    4.3526332    4.3526332    4.3526332   -5955.3844    32925.375   -35108.012   -15683.516    1744.3894   -616.62902    66090.981    82.462443 
   83100    1311.4945   -116.96915    1.1866678   -115.78248   -15189.713    4.3617983    4.3617983    4.3617983   -15189.713     12215.99   -27972.132   -29812.998   -5964.5644     1453.723   -7334.3202    82.984453 
   83200    1397.4578   -117.05546    1.2644491   -115.79101    9435.1524     4.342249     4.342249     4.342249    9435.1524    14903.598    14324.378   -922.51845   -7551.9941   -13583.996   -51401.503    81.873654 
   83300    827.30158   -116.55251   0.74855985   -115.80395    15663.248    4.3417282    4.3417282    4.3417282    15663.248    48751.164    10675.448   -12436.868    3461.4615   -13629.163    51979.727    81.844198 
   83400    1474.8644   -117.13078    1.3344883   -115.79629   -15110.109    4.3637779    4.3637779    4.3637779   -15110.109    10258.607   -38505.961   -17082.974    11696.001    9541.5732    34221.979    83.097493 
   83500    1694.4309   -117.31472    1.5331567   -115.78156    24651.187    4.3550818    4.3550818    4.3550818    24651.187    6267.8504    49567.016    18118.694    355.46877   -1767.6842   -33192.271     82.60169 
   83600    1158.9267   -116.83316    1.0486212   -115.78454   -419.02171    4.3584891    4.3584891    4.3584891   -419.02171    48373.153   -9769.7913   -39860.426   -10588.873   -24499.014    34533.725    82.795719 
   83700    1427.7877   -117.06736    1.2918924   -115.77547    -11733.03    4.3602807    4.3602807    4.3602807    -11733.03    20304.656   -33228.177    -22275.57    8660.6585    5584.7696    36981.605    82.897863 
   83800    1793.2432   -117.38853    1.6225642   -115.76597    15018.254    4.3455711    4.3455711    4.3455711    15018.254   -21389.762    58008.023    8436.5005    23010.119    14563.711   -16998.392    82.061713 
   83900    1474.8177   -117.11527     1.334446   -115.78082   -10728.334    4.3586116    4.3586116    4.3586116   -10728.334    333.00986    12507.616   -45025.629   -4360.7518   -26458.976    22853.721    82.802702 
   84000    1594.3804   -117.21651    1.4426289   -115.77388   -15904.636    4.3631668    4.3631668    4.3631668   -15904.636   -5032.7487   -21894.416   -20786.745    2539.4434   -3406.7755    36196.967    83.062584 
   84100    1498.3948   -117.12985    1.3557791   -115.77407   -2296.7892    4.3503983    4.3503983    4.3503983   -2296.7892   -45454.407    31458.503    7105.5363    23953.408     39463.31   -8028.4142    82.335489 
   84200    1483.4131   -117.12629    1.3422233   -115.78407    -14537.28    4.3527417    4.3527417    4.3527417    -14537.28   -26627.309    17842.593   -34827.123    753.78565   -10286.567    16497.807     82.46861 
   84300    1590.0992   -117.22289    1.4387552   -115.78413    1924.7721    4.3513057    4.3513057    4.3513057    1924.7721    27410.684   -3523.4305   -18112.937    -6030.281   -18557.837    35026.231     82.38702 
   84400     1216.265   -116.89122    1.1005021   -115.79071   -4992.8012    4.3604893    4.3604893    4.3604893   -4992.8012   -31730.349    21062.949   -4311.0032     7876.806    41927.769   -6272.9175    82.909761 
   84500    1483.9378   -117.12274    1.3426981   -115.78004    -21147.38    4.3679743    4.3679743    4.3679743    -21147.38   -47101.822    8456.4092   -24796.728    20831.139    2260.6333    47.629101    83.337454 
   84600    1615.5419    -117.2299    1.4617762   -115.76812     8622.029    4.3509702    4.3509702    4.3509702     8622.029    38052.722    6525.7333   -18712.369    -7452.137   -12753.135    39143.551     82.36796 
   84700    1140.2469   -116.81067    1.0317193   -115.77895   -4107.2434    4.3521886    4.3521886    4.3521886   -4107.2434   -17852.188    3734.8368    1795.6214   -8561.3056    34546.933    8130.8247    82.437179 
   84800    1271.3016     -116.929    1.1503004    -115.7787   -12795.171    4.3604793    4.3604793    4.3604793   -12795.171   -52595.867    3269.9472    10940.406    19199.678    12753.731   -8136.3465    82.909191 
   84900    1811.6977   -117.40974    1.6392621   -115.77048     2505.521     4.355671     4.355671     4.355671     2505.521    25079.735   -8397.1776   -9165.9941    1829.8374   -5208.5828    29674.705    82.635225 
   85000    1348.9271   -117.00034    1.2205376    -115.7798   -8757.0191    4.3598217    4.3598217    4.3598217   -8757.0191   -10118.122   -12588.901   -3564.0345   -2014.5389    28503.466    8539.8591    82.871687 
   85100    1217.5084   -116.88439    1.1016272   -115.78276   -1108.3025    4.3514283    4.3514283    4.3514283   -1108.3025   -16474.365   -14845.807    27995.265    17109.314    18098.121   -10654.657    82.393982 
   85200    1541.1364   -117.17818    1.3944526   -115.78373    16124.013     4.344643     4.344643     4.344643    16124.013    39716.206   -2149.6864     10805.52    9079.4061   -14431.848    3277.9391    82.009144 
   85300    1557.5621   -117.19759    1.4093149   -115.78828   -2150.6857    4.3573674    4.3573674    4.3573674   -2150.6857    5434.5513    8581.4301   -20468.039   -4333.1381   -23331.911    13653.587    82.731815 
   85400    1340.2649   -117.00063    1.2126998   -115.78793    -2602.531    4.3584544    4.3584544    4.3584544    -2602.531   -133.18252   -22013.375    14338.964    10074.175    13987.377   -7954.3978    82.793742 
   85500    1215.7163   -116.88507    1.1000057   -115.78506   -10794.888    4.3547613    4.3547613    4.3547613   -10794.888   -861.69555    -30679.96   -843.00919    12350.946    659.86131   -34046.866    82.583459 
   85600    1320.1121   -116.97833    1.1944652   -115.78386   -7612.7299    4.3524231    4.3524231    4.3524231   -7612.7299   -18668.361    31023.333   -35193.161    842.02758     -57229.5    4314.6312    82.450504 
   85700    1737.0996   -117.34857    1.5717642    -115.7768   -10868.848    4.3541424    4.3541424    4.3541424   -10868.848   -7142.5617   -6332.3665   -19131.615    8185.6323    505.43582    554.13593    82.548251 
   85800    993.74581   -116.68543   0.89916209   -115.78627   -29366.927    4.3585413    4.3585413    4.3585413   -29366.927    -16074.23   -52644.715   -19381.836    6906.8244    1641.6321    -36969.08    82.798697 
   85900    685.92252    -116.4146   0.62063711   -115.79397   -11639.602    4.3539015    4.3539015    4.3539015   -11639.602   -15537.528    17213.268   -36594.546    4703.5518   -61508.774   -11370.136    82.534551 
   86000    1787.7533   -117.40423    1.6175967   -115.78663     5373.245    4.3512965    4.3512965    4.3512965     5373.245    31945.281    10218.426   -26043.972   -7624.0813   -9607.4937    1499.0517    82.386499 
   86100    1706.9093   -117.33554    1.5444474   -115.79109    16199.007    4.3438225    4.3438225    4.3438225    16199.007    48323.945     5754.794   -5481.7173    6272.0297    11437.358   -14857.441    81.962691 
   86200     652.8164   -116.40305     0.590682   -115.81237   -6116.8063     4.353863     4.353863     4.353863   -6116.8063    3850.4977    12121.085   -34322.002    13703.559   -64091.439   -20682.478    82.532364 
   86300    1386.5563   -117.05246    1.2545852   -115.79787    -24205.94    4.3669693    4.3669693    4.3669693    -24205.94   -34734.659   -13667.407   -24215.752    2883.0369   -16540.717    9316.2594     83.27994 
   86400    1931.6911   -117.53351    1.7478347   -115.78567    20734.921    4.3397436    4.3397436    4.3397436    20734.921    31196.233    17489.263    13519.266   -5769.4167    28659.268    6271.7952    81.732014 
   86500    1203.5494   -116.88848    1.0889968   -115.79949     396.1106    4.3392835    4.3392835    4.3392835     396.1106   -9358.9304     26592.56   -16045.297   -4344.1207   -40853.753   -28179.166    81.706026 
   86600    1250.5577   -116.93046    1.1315309   -115.79893   -27148.075    4.3597788    4.3597788    4.3597788   -27148.075   -36870.764   -20824.473   -23748.989    26286.385   -33237.626   -894.53419    82.869244 
   86700    1782.2602   -117.39793    1.6126265    -115.7853    13181.341    4.3514157    4.3514157    4.3514157    13181.341    22709.633    -6820.399    23654.789    3663.1713    17466.846     12814.92    82.393268 
   86800    1523.4464    -117.1646    1.3784463   -115.78616   -8767.9451    4.3613103    4.3613103    4.3613103   -8767.9451   -24906.929    9688.8431    -11085.75   -20712.782   -23435.144   -11434.965    82.956605 
   86900    1148.1475   -116.82058     1.038868   -115.78171    -19280.06    4.3593308    4.3593308    4.3593308    -19280.06   -45876.049   -12610.769     646.6398    29700.971   -34609.988   -5430.9918    82.843699 
   87000    1565.3398   -117.18945    1.4163524   -115.77309    29732.397    4.3346049    4.3346049    4.3346049    29732.397    27747.501    18920.729    42528.962    33039.289    9707.3645    12700.089    81.442022 
   87100    1712.2659   -117.33485    1.5492942   -115.78555   -4816.4451    4.3504049    4.3504049    4.3504049   -4816.4451   -22829.571    8830.2195   -449.98332   -27353.129   -13389.782    7536.1203    82.335862 
   87200    940.52307   -116.64743   0.85100504   -115.79642   -15997.304     4.358296     4.358296     4.358296   -15997.304   -63021.066    10395.405    4633.7498   -1357.1208   -34887.364   -16051.099    82.784719 
   87300     1239.694   -116.91407    1.1217012   -115.79237    15565.055    4.3496184    4.3496184    4.3496184    15565.055   -8854.1355    35019.665    20529.636    54216.258    4564.8858    580.04708    82.291213 
   87400    1813.4477   -117.42356    1.6408456   -115.78271    101.83602    4.3546262    4.3546262    4.3546262    101.83602   -19515.401    38942.814   -19121.904   -12894.133    11012.571    5764.3261    82.575769 
   87500    1151.7896   -116.83759    1.0421634   -115.79543    1647.0882    4.3437823    4.3437823    4.3437823    1647.0882   -35969.736    48748.372   -7837.3714   -7962.4875   -24014.628   -6713.1672    81.960414 
   87600    1076.7985   -116.77646   0.97430993   -115.80215    3666.4748    4.3476239    4.3476239    4.3476239    3666.4748   -426.14525     7685.296    3740.2737    30903.791   -15207.108   -7656.8201    82.178061 
   87700    1604.4882   -117.24113    1.4517746   -115.78935   -20435.151    4.3612258    4.3612258    4.3612258   -20435.151   -24175.618    15004.788   -52134.625    8623.3683    50191.468   -9468.2721    82.951783 
   87800    1381.3559   -117.04056    1.2498799   -115.79068    3639.2577     4.344794     4.344794     4.344794    3639.2577   -4930.0184    52840.165   -36992.373   -7312.9832    15038.258    8662.7936    82.017697 
   87900      1606.72    -117.2422     1.453794   -115.78841   -888.38537    4.3451879    4.3451879    4.3451879   -888.38537   -2006.4258   -1333.6189    674.88859    2647.1219   -42275.383   -715.15624    82.040009 
   88000    1174.3206   -116.85589    1.0625499   -115.79334   -23673.666    4.3582122    4.3582122    4.3582122   -23673.666   -44687.187    17408.341   -43742.151    21148.167    59791.687   -5581.2611    82.779944 
   88100    1610.4671     -117.248    1.4571845   -115.79081   -1285.0808     4.351983     4.351983     4.351983   -1285.0808   -17123.715    37792.082    -24523.61   -1318.7104    55149.089    8767.0562    82.425496 
   88200    2375.1805   -117.92784    2.1491132   -115.77873    4689.1677    4.3526823    4.3526823    4.3526823    4689.1677    1874.0052     1650.031    10543.467     5636.531   -33470.195   -9318.4104    82.465239 
   88300     904.6382   -116.62864   0.81853565   -115.81011   -11945.073    4.3469396    4.3469396    4.3469396   -11945.073   -57375.553    38098.329   -16557.996    10321.011    65411.806    1270.1558    82.139266 
   88400    1036.1209   -116.74942   0.93750401   -115.81191    9729.3147    4.3442173    4.3442173    4.3442173    9729.3147   -36313.231     38340.26    27160.915    4226.5576    41095.643   -3122.1245    81.985044 
   88500    2021.1902   -117.61955    1.8288153   -115.79074   -2908.2898    4.3606975    4.3606975    4.3606975   -2908.2898   -22029.864   -4398.4934    17703.488   -7185.8767    -26752.84   -3908.0931    82.921639 
   88600     1453.684   -117.10675    1.3153238   -115.79142   -6166.0718    4.3544405    4.3544405    4.3544405   -6166.0718   -26372.035    31515.224   -23641.405   -4336.7282    60898.004    8671.8582     82.56521 
   88700    1337.2231   -116.99682    1.2099476   -115.78687    10290.663    4.3439846    4.3439846    4.3439846    10290.663   -2296.9483    29154.547    4014.3904    20449.636     29914.85   -5781.4446     81.97187 
   88800     1131.981   -116.81806    1.0242402   -115.79382   -4150.7967    4.3486213    4.3486213    4.3486213   -4150.7967   -44096.539    9445.9999    22198.149     2668.008   -40144.976    2622.3346    82.234634 
   88900      1398.77   -117.05726    1.2656365   -115.79163    4074.7268    4.3529631    4.3529631    4.3529631    4074.7268   -17675.897    35152.956    -5252.878   -24304.112     6989.728   -1638.5093    82.481197 
   89000    1742.7642   -117.35959    1.5768896   -115.78271   -10404.278    4.3596613    4.3596613    4.3596613   -10404.278   -17140.638    3602.9087   -17675.106    26410.913    18426.393    280.98652    82.862541 
   89100    682.55574   -116.41426   0.61759078   -115.79667   -7514.9026    4.3520786    4.3520786    4.3520786   -7514.9026   -51345.532    8007.6693    20793.155    27115.059   -13195.561    8390.7053    82.430926 
   89200    980.44978   -116.68465   0.88713157   -115.79751   -2809.0178    4.3436904    4.3436904    4.3436904   -2809.0178   -56923.952    32258.662    16238.237   -43909.281   -24087.422   -11048.971    81.955212 
   89300    1812.5273   -117.43071    1.6400128    -115.7907    3075.0259     4.350112     4.350112     4.350112    3075.0259   -28419.874    23095.099    14549.853   -2875.2559   -816.62103    9907.1508    82.319234 
   89400    1555.0271   -117.20572    1.4070212    -115.7987    4702.4405    4.3511823    4.3511823    4.3511823    4702.4405   -29317.488    22892.608    20532.201    20818.055    9036.1434    7825.7383    82.380011 
   89500    786.05977   -116.51901   0.71124339   -115.80777   -4720.9304     4.354849     4.354849     4.354849   -4720.9304   -64091.146     14195.97    35732.385   -30396.831   -33403.627   -6851.1364    82.588446 
   89600    1369.5763   -117.03418    1.2392214   -115.79496   -8763.6418    4.3527438    4.3527438    4.3527438   -8763.6418    -49298.78    25006.649   -1998.7936   -20360.042    4609.3246    3149.4966    82.468731 
   89700    1427.3409    -117.0845    1.2914881   -115.79301    12924.347    4.3417562    4.3417562    4.3417562    12924.347   -2634.0558    36798.718    4608.3772     11724.51    44622.731   -4847.3947    81.845784 
   89800    1524.4595   -117.17593     1.379363   -115.79657    4702.6029    4.3516582    4.3516582    4.3516582    4702.6029     -20449.4   -14040.727    48597.936   -32595.417   -8704.0313    8793.9445    82.407042 
   89900    1553.3329   -117.19273    1.4054882   -115.78725   -10261.067    4.3626906    4.3626906    4.3626906   -10261.067    -30715.73   -8942.7697    8875.2999    -27774.35    13939.567    4125.6959    83.035392 
   90000    1408.8483   -117.06018    1.2747556   -115.78543    9240.8612    4.3506344    4.3506344    4.3506344    9240.8612    2515.1025    33016.784   -7809.3029    11104.154    50846.677   -18468.967    82.348894 
   90100    1159.3828   -116.83842    1.0490339   -115.78939     4899.715    4.3462301    4.3462301    4.3462301     4899.715    13594.425   -31834.787    32939.507   -30831.978   -640.41066    11558.924    82.099054 
   90200    1520.0572   -117.16188    1.3753797    -115.7865   -3299.3274    4.3536309    4.3536309    4.3536309   -3299.3274    2615.5546   -28265.781    15752.244   -21459.893   -1694.8194    13471.812    82.519163 
   90300    1820.9985   -117.42968    1.6476777   -115.78201    7993.2199     4.354395     4.354395     4.354395    7993.2199    11492.865    15001.838   -2515.0434    9352.5152    27664.955   -15078.235    82.562618 
   90400    1181.2954   -116.86029    1.0688609   -115.79142   -6778.3912    4.3545151    4.3545151    4.3545151   -6778.3912    4764.8378   -12956.525   -12143.486   -7332.9462    15506.863   -6865.1482    82.569452 
   90500    1176.9595   -116.85808    1.0649377   -115.79314    3565.9354    4.3465836    4.3465836    4.3465836    3565.9354    26605.273    -13261.92   -2645.5473   -22027.603   -17705.306    7386.7928    82.119089 
   90600    1718.4313   -117.34347    1.5548728    -115.7886    14678.129    4.3440933    4.3440933    4.3440933    14678.129    9982.1497    22432.119    11620.117   -5.1363257   -31325.662     4445.163    81.978024 
   90700    1522.1107    -117.1719    1.3772378   -115.79466   -12591.514    4.3573733    4.3573733    4.3573733   -12591.514   -3318.3295   -24847.482   -9608.7316    19826.528    23942.655   -18846.856     82.73215 
   90800    1241.2962   -116.92197    1.1231509   -115.79882    -6050.516    4.3497491    4.3497491    4.3497491    -6050.516   -7152.7151   -7805.4145   -3193.4183   -8720.0888   -5205.2436   -11511.546    82.298633 
   90900    1225.0569     -116.912    1.1084572   -115.80354    7375.3091    4.3417791    4.3417791    4.3417791    7375.3091   -36007.766    40797.272    17336.421    -15036.97   -69313.645    9612.1036    81.847078 
   91000    2102.1015   -117.69745    1.9020256   -115.79542   -112.86634    4.3500413    4.3500413    4.3500413   -112.86634   -21406.573    5347.8822    15720.092    11197.857   -5330.8224    -4761.332    82.315217 
   91100    1753.7728   -117.38255    1.5868505    -115.7957    12876.535    4.3532018    4.3532018    4.3532018    12876.535   -13669.979    6494.4815    45805.102      181.144    -11712.38    -12514.67    82.494764 
   91200    805.13564    -116.5316   0.72850365    -115.8031   -21600.934    4.3617898    4.3617898    4.3617898   -21600.934   -77792.074    25871.583   -12882.312   -17177.413   -64063.282   -541.19478    82.983967 
   91300    1695.2833   -117.32054     1.533928   -115.78661   -1872.0052    4.3511938    4.3511938    4.3511938   -1872.0052     -28153.6    21132.801    1404.7838   -3669.6143      28891.5     5943.683    82.380664 
   91400    1882.1707     -117.475    1.7030276   -115.77197     19486.52    4.3410711    4.3410711    4.3410711     19486.52    8651.8402    29426.595    20381.124    6320.6828    1418.8376    802.41611    81.807044 
   91500     1018.523   -116.70649   0.92158103   -115.78491   -24836.464    4.3641702    4.3641702    4.3641702   -24836.464   -61995.368    7667.4953   -20181.519   -11229.686   -74001.344   -5326.0517    83.119905 
   91600    1267.7405   -116.92292    1.1470782   -115.77584   -12373.816    4.3576028    4.3576028    4.3576028   -12373.816   -41050.247    6182.8935    -2254.095   -17221.194    28760.942   -247.55072    82.745219 
   91700    1439.8233   -117.07447    1.3027824   -115.77169    18783.508    4.3375399    4.3375399    4.3375399    18783.508     18235.59    32684.886    5430.0472     6136.472    22488.753    2668.8759     81.60757 
   91800    1191.8661   -116.86644    1.0784255   -115.78801    -9688.221    4.3477216    4.3477216    4.3477216    -9688.221   -26322.132    18323.112   -21065.644   -2050.7865   -58453.316   -1324.1521    82.183603 
   91900    1134.0995   -116.81879     1.026157   -115.79263     -8287.02    4.3531957    4.3531957    4.3531957     -8287.02   -19303.035    -19882.46    14324.435   -36843.985   -960.82694   -10214.755    82.494419 
   92000    1342.5577   -117.00684    1.2147744   -115.79206   -6151.0963    4.3544453    4.3544453    4.3544453   -6151.0963   -2745.7395   -8143.3913   -7564.1581    1764.8574    28665.642     5087.148    82.565482 
   92100    1380.5292   -117.03751    1.2491319   -115.78838   -8516.1857    4.3524817    4.3524817    4.3524817   -8516.1857   -5243.7038    13674.231   -33979.085    13184.839    -18200.76    19280.754    82.453837 
   92200    1227.0339   -116.89749    1.1102461   -115.78724    8656.0962    4.3435103    4.3435103    4.3435103    8656.0962    5807.9606   -2690.5727    22850.901   -45068.892   -22659.724   -16762.274     81.94502 
   92300    1428.7917   -117.08092    1.2928007   -115.78812   -8351.9847    4.3552572    4.3552572    4.3552572   -8351.9847   -2165.7652   -13413.867   -9476.3222   -19924.138    13973.724   -12730.754    82.611675 
   92400    1663.4999   -117.28424    1.5051697   -115.77907   -13498.648    4.3613148    4.3613148    4.3613148   -13498.648    6636.7184   -6942.0086   -40190.655    15305.419    2628.4224     25518.77     82.95686 
   92500    1282.5166   -116.94653     1.160448   -115.78608   -440.12158    4.3442101    4.3442101    4.3442101   -440.12158   -15257.348   -9482.4846    23419.468   -44856.883   -17058.885    5066.5806    81.984632 
   92600    1461.1776   -117.11171    1.3221042    -115.7896    2677.3477    4.3447551    4.3447551    4.3447551    2677.3477    7376.1036   -19035.408    19691.348   -31742.366   -1850.6228   -20172.409    82.015495 
   92700    1954.7805   -117.55297    1.7687265   -115.78425   -5190.4955    4.3529896    4.3529896    4.3529896   -5190.4955    36036.101   -19476.544   -32131.043     15424.15    2667.7006    16096.802    82.482703 
   92800    1126.8494    -116.8167     1.019597   -115.79711   -2229.3163    4.3497419    4.3497419    4.3497419   -2229.3163    1509.5992   -27558.179    19360.631    -53609.94   -1683.3742    22127.193    82.298226 
   92900    1419.6953    -117.0756    1.2845701   -115.79103    756.30941    4.3559135    4.3559135    4.3559135    756.30941   -9982.8061   -22720.646     34972.38   -25557.777   -11565.673   -14279.632    82.649026 
   93000    1686.2661   -117.30559     1.525769   -115.77982   -9661.7026    4.3551221    4.3551221    4.3551221   -9661.7026    13598.159   -29649.978   -12933.289    27621.276   -12838.427    10822.314    82.603989 
   93100    1053.9629   -116.73958   0.95364775   -115.78593    6712.7878    4.3420557    4.3420557    4.3420557    6712.7878    24176.048   -46051.602    42013.917   -42833.352    11014.638    35488.192    81.862722 
   93200    1481.4185   -117.12501    1.3404186    -115.7846    2896.5674     4.349028     4.349028     4.349028    2896.5674   -4779.1646   -29890.105    43358.972   -17541.412   -3605.1004   -7800.5301    82.257711 
   93300    1207.6614   -116.88121    1.0927174    -115.7885   -13253.348    4.3549524    4.3549524    4.3549524   -13253.348   -11584.761   -36981.635    8806.3508     44135.38   -14182.463   -2675.8125     82.59433 
   93400    1188.1026    -116.8628    1.0750202   -115.78778    7205.2179    4.3492871    4.3492871    4.3492871    7205.2179    29707.883   -43059.231    34967.001   -7086.2676   -4992.2803    30975.527    82.272413 
   93500    1906.6578   -117.50067     1.725184   -115.77548    3254.2951     4.352717     4.352717     4.352717    3254.2951    23006.492   -26686.808    13443.201   -10695.732    5888.5695    4996.2326    82.467209 
   93600    805.30416   -116.52745   0.72865613    -115.7988   -5637.7948    4.3481144    4.3481144    4.3481144   -5637.7948    3245.9706   -28234.706    8075.3511    31793.965   -6467.1043   -8830.5963     82.20588 
   93700    766.14505   -116.50005   0.69322414   -115.80683    2768.4646      4.34428      4.34428      4.34428    2768.4646    26088.716   -27180.864    9397.5419    16916.406   -19851.351    25097.953    81.988593 
   93800    1951.2273    -117.5524    1.7655114   -115.78689    446.55604    4.3547231    4.3547231    4.3547231    446.55604    18226.787   -26331.049      9443.93   -28310.669    12268.215    2823.9944    82.581287 
   93900    1249.2497   -116.92071    1.1303474   -115.79036   -12225.038    4.3569977    4.3569977    4.3569977   -12225.038    -16721.59   -29320.682    9367.1577       6197.4   -1075.6988   -9415.0728    82.710757 
   94000    1206.0006   -116.87731    1.0912147    -115.7861   -8830.4264    4.3487133    4.3487133    4.3487133   -8830.4264    -15594.55   -15348.965    4452.2356    41745.541   -12577.777    11178.824    82.239856 
   94100     1394.993   -117.04364     1.262219   -115.78142   -2380.5255    4.3480687    4.3480687    4.3480687   -2380.5255   -23437.188    -30887.84    47183.452   -60581.701    5034.4931    14982.891     82.20329 
   94200    1521.9281   -117.15916    1.3770725   -115.78209   -13356.693    4.3538948    4.3538948    4.3538948   -13356.693   -27862.498   -40147.064    27939.482   -44593.652   -6198.2044   -2159.1225    82.534168 
   94300    1892.9816   -117.48975    1.7128095   -115.77694   -1683.6619    4.3489532    4.3489532    4.3489532   -1683.6619    7668.0138    -12241.44   -477.55971    45056.567   -9950.3884   -8297.8187    82.253467 
   94400    731.98631   -116.46023   0.66231659   -115.79791   -13619.233    4.3484055    4.3484055    4.3484055   -13619.233   -17195.643   -70645.743    46983.685   -66946.514   -555.17593   -2107.7548    82.222393 
   94500    1400.1733   -117.06947    1.2669062   -115.80256   -1908.0368    4.3516938    4.3516938    4.3516938   -1908.0368    5419.8492    -50553.85    39409.891   -45769.578    2694.7031     1366.812    82.409065 
   94600    2416.8925   -117.96842    2.1868551   -115.78157    24609.314    4.3455469    4.3455469    4.3455469    24609.314    41895.488    18665.281    13267.171    14747.879    7957.2907    4327.0183     82.06034 
   94700    1176.9768    -116.8674    1.0649534   -115.80244   -13777.194    4.3557044    4.3557044    4.3557044   -13777.194   -29999.551   -52488.319    41156.288   -79356.514   -4819.4644     4162.278    82.637125 
   94800    1396.6555   -117.05027    1.2637233   -115.78655   -14218.105    4.3556788    4.3556788    4.3556788   -14218.105   -31656.076   -25922.762    14924.524   -7496.5236   -2958.2109    12042.349     82.63567 
   94900    1608.7126   -117.23197     1.455597   -115.77637    23461.407    4.3384701    4.3384701    4.3384701    23461.407    19266.689    25739.005    25378.528    27052.318    6972.7151   -1147.8222    81.660087 
   95000    1661.2974   -117.28481    1.5031768   -115.78164   -8350.9341    4.3543392    4.3543392    4.3543392   -8350.9341   -20767.911   -24348.726    20063.835   -53540.415     2183.548   -6892.6616    82.559447 
   95100    1587.0714    -117.2145    1.4360155   -115.77849   -10875.998    4.3580213    4.3580213    4.3580213   -10875.998    -11937.82   -10261.306   -10428.867   -12743.082   -14447.418    8103.1254    82.769067 
   95200    875.58886   -116.58308    0.7922512   -115.79082    11792.765    4.3450257    4.3450257    4.3450257    11792.765    28798.921    1873.4341    4705.9403    38784.809   -6507.5412    7257.8752    82.030817 
   95300    2066.1834   -117.65211    1.8695261   -115.78259   -973.58669    4.3523034    4.3523034    4.3523034   -973.58669    3381.5124   -20403.694    14101.422    12569.818    19305.212   -1283.7356    82.443703 
   95400     1819.465   -117.43275    1.6462901   -115.78646    10481.143    4.3511646    4.3511646    4.3511646    10481.143    26175.701    14611.496   -9343.7671   -9547.8469   -22786.485    9150.2595    82.379006 
   95500    743.09969   -116.47371   0.67237222   -115.80134   -3378.1065    4.3530669    4.3530669    4.3530669   -3378.1065    17350.527    -18469.01   -9015.8355    24025.927   -21505.584    1183.9391    82.487095 
   95600    1667.7773    -117.2917    1.5090399   -115.78266   -8298.2075    4.3584246    4.3584246    4.3584246   -8298.2075   -9949.2181   -48537.632    33592.228    18661.557    15444.574   -8463.8849    82.792043 
   95700    1631.3237    -117.2526     1.476056   -115.77655    4147.3421    4.3473896    4.3473896    4.3473896    4147.3421    2893.4928    -7802.971    17351.504   -35284.733   -16307.598    2200.6979    82.164776 
   95800    1055.0795   -116.74365   0.95465809   -115.78899   -8347.2727    4.3474703    4.3474703    4.3474703   -8347.2727    2889.5901   -3812.7665   -24118.642    10997.431   -29170.502    10439.311    82.169356 
   95900    1572.5926   -117.20244    1.4229148   -115.77953    -12946.01    4.3548452    4.3548452    4.3548452    -12946.01   -10664.139   -40218.992    12045.102    21403.566   -3265.1777    9481.4941    82.588232 
   96000    1252.8285   -116.91828    1.1335856    -115.7847   -2811.2685    4.3491301    4.3491301    4.3491301   -2811.2685     -7790.98   -32807.807    32164.982   -55993.367    5041.5066   -6367.6224    82.263501 
   96100    1075.4769   -116.76268   0.97311414   -115.78956   -15989.047    4.3510634    4.3510634    4.3510634   -15989.047     2484.211   -18934.716   -31516.637   -8340.7116   -25269.416    13003.856    82.373257 
   96200    1454.2951   -117.09967    1.3158768    -115.7838   -12572.996    4.3503668    4.3503668    4.3503668   -12572.996    12563.339   -29619.875   -20662.451    1066.6324   -20699.953    13325.226    82.333697 
   96300    1410.8756   -117.06355    1.2765899   -115.78696     9973.989    4.3435144    4.3435144    4.3435144     9973.989    16644.421   -32129.671    45407.216   -55000.517    13046.507   -4095.0471     81.94525 
   96400    1037.3693   -116.73028   0.93863357   -115.79164   -14682.865    4.3546377    4.3546377    4.3546377   -14682.865    813.02756   -26064.942   -18796.681   -2261.9593   -21969.264   -2136.4503    82.576429 
   96500    981.50303   -116.68064   0.88808457   -115.79256   -24250.259    4.3539885    4.3539885    4.3539885   -24250.259   -1451.1803    -28621.46   -42678.137    16921.679   -23825.092    17450.705    82.539497 
   96600    1664.5743   -117.28361    1.5061418   -115.77747    3854.8027    4.3465416    4.3465416    4.3465416    3854.8027    30009.038   -45123.151    26678.521     -19856.9     14962.99    7249.2243    82.116709 
   96700    1264.9449   -116.92732    1.1445487   -115.78277   -11685.397    4.3559217    4.3559217    4.3559217   -11685.397    19232.836   -27776.692   -26512.334   -14092.934   -19076.732   -24914.671    82.649491 
   96800    572.20291   -116.31249   0.51774122   -115.79475   -13723.758    4.3510468    4.3510468    4.3510468   -13723.758    4889.8667   -8476.5789   -37584.561    8574.7281   -32366.087    8366.0211    82.372313 
   96900    1669.6661   -117.29482     1.510749   -115.78407    4774.6622    4.3465069    4.3465069    4.3465069    4774.6622    24341.358   -32018.427    22001.055    25326.935    12663.177    12396.983    82.114737 
   97000    1552.3197   -117.18872    1.4045715   -115.78415   -15138.519    4.3549733    4.3549733    4.3549733   -15138.519    25071.514    -46656.89   -23830.182   -5513.6936   -6682.0866   -35969.735    82.595522 
   97100    822.96673   -116.54085   0.74463759   -115.79621   -11129.488    4.3481799    4.3481799    4.3481799   -11129.488    15893.974   -17147.753   -32134.684     6080.021   -36408.457   -7243.3891    82.209597 
   97200    1379.5878   -117.04135    1.2482801   -115.79307    1073.9249    4.3465776    4.3465776    4.3465776    1073.9249    4280.2216   -20570.588    19512.142    21595.132    1861.4265    21264.701    82.118748 
   97300    1642.2392   -117.27263    1.4859325   -115.78669   -13542.963    4.3533263    4.3533263    4.3533263   -13542.963    2626.5073   -54546.428    11291.032   -15226.732      8348.67   -26942.574    82.501842 
   97400    1013.9856    -116.7155   0.91747551   -115.79802   -12344.305    4.3458394    4.3458394    4.3458394   -12344.305     16109.71   -34861.529   -18281.097   -7925.3164    -30340.09   -13117.397    82.076916 
   97500    1332.5806   -117.00264    1.2057469    -115.7969   -2914.6336    4.3482261    4.3482261    4.3482261   -2914.6336    32921.159   -24298.901   -17366.159    14517.133   -23326.879    35581.274    82.212218 
   97600    1926.1176   -117.52589    1.7427917    -115.7831   -6322.1877    4.3557924    4.3557924    4.3557924   -6322.1877   -909.80094   -24805.817    6749.0546   -5665.8795    13320.532   -11116.705    82.642135 
   97700    1137.5648   -116.82098    1.0292925   -115.79169    3818.1738    4.3506825    4.3506825    4.3506825    3818.1738    32122.832   -6570.8169   -14097.494    -13796.21   -10698.553   -12840.131    82.351624 
   97800    1165.0968   -116.84695    1.0542041   -115.79275   -3755.4827    4.3535875    4.3535875    4.3535875   -3755.4827    32019.301   -5498.4728   -37787.277    3384.3028   -42795.017    33256.329    82.516694 
   97900    2029.8784   -117.61706    1.8366766   -115.78039    7581.8395    4.3486251    4.3486251    4.3486251    7581.8395    23838.166    1327.2441   -2419.8921    7361.8098    16289.121    6701.2031    82.234849 
   98000    1463.1852   -117.11579    1.3239207   -115.79187    12066.485    4.3429518    4.3429518    4.3429518    12066.485    16476.889    16429.112    3293.4528   -16613.045    7681.3542   -15758.073    81.913416 
   98100    1154.6681   -116.84283     1.044768   -115.79806   -11826.713    4.3566668    4.3566668    4.3566668   -11826.713   -19141.446    3254.3721   -19593.066   -9574.6906   -46170.104    12823.283    82.691911 
   98200    1862.9241   -117.46539    1.6856129   -115.77978     1712.574     4.355449     4.355449     4.355449     1712.574   -5752.8912    3506.8297    7383.7834    30710.945    4500.3402    11803.401    82.622591 
   98300    1565.5099   -117.19618    1.4165062   -115.77967    493.82425    4.3509088    4.3509088    4.3509088    493.82425   -10501.018    23798.011    -11815.52    7023.4053    29623.242   -11004.989    82.364474 
   98400    1531.7945   -117.16661    1.3859998   -115.78061   -4759.9393    4.3497821    4.3497821    4.3497821   -4759.9393    36.698873    12822.813    -27139.33   -27691.399   -28540.288    4767.3916    82.300505 
   98500     1342.391    -117.0019    1.2146236   -115.78727    9423.9121    4.3439393    4.3439393    4.3439393    9423.9121    17461.367   -11989.108    22799.478    42917.914   -16020.927     13303.61    81.969304 
   98600    1641.6606   -117.27503     1.485409   -115.78962    1224.6143     4.352384     4.352384     4.352384    1224.6143    7528.7556   -13472.673    9617.7605    37005.884     22418.65   -8247.3183    82.448285 
   98700    2043.8436   -117.63298    1.8493126   -115.78366    796.53823    4.3527058    4.3527058    4.3527058    796.53823    23533.463    4024.2745   -25168.123   -27396.441    -13387.88   -4940.1967    82.466572 
   98800    787.43913   -116.51586   0.71249148   -115.80336   -2480.9074    4.3444146    4.3444146    4.3444146   -2480.9074   -8303.8865   -33967.486     34828.65    53503.204   -20748.179    7602.2446     81.99621 
   98900    1394.4692   -117.06115     1.261745    -115.7994   -6918.8088    4.3514242    4.3514242    4.3514242   -6918.8088   -1189.8088   -50485.346    30918.728    38042.127    7810.0582   -1489.2456    82.393748 
   99000    2173.3667   -117.73775    1.9665078   -115.77125   -3413.0613    4.3625991    4.3625991    4.3625991   -3413.0613    24349.404   -16589.621   -17998.967   -17997.742    3890.4178    -1231.913    83.030167 
   99100    497.25086   -116.23173   0.44992303   -115.78181   -16043.201    4.3640216    4.3640216    4.3640216   -16043.201   -30252.851    -47584.52    29707.768    73613.209   -16383.719    8979.3501    83.111417 
   99200    1368.3642   -117.00302    1.2381246    -115.7649    7587.6566    4.3504791    4.3504791    4.3504791    7587.6566   -5675.8545   -10659.993    39098.818    9992.0597   -10284.598    3957.7285    82.340075 
   99300     1957.892   -117.52925    1.7715419   -115.75771    18319.943    4.3446058    4.3446058    4.3446058    18319.943    13649.606    2592.4522    38717.771   -12029.802    19422.516    -5756.722    82.007039 
   99400    518.63631   -116.26356   0.46927303   -115.79429   -33726.873    4.3560956    4.3560956    4.3560956   -33726.873    -75554.18   -56608.403    30981.963    83287.937    -10928.41    6905.2887    82.659393 
   99500     1246.678   -116.92274    1.1280204   -115.79472   -12726.724    4.3512768    4.3512768    4.3512768   -12726.724   -28733.635    -13326.92    3880.3825    13598.483   -36395.573    12054.669    82.385375 
   99600     2070.009   -117.65353    1.8729877   -115.78054    3463.1787    4.3472286    4.3472286    4.3472286    3463.1787   -2911.4905   -19518.597    32819.624   -583.20545    3133.5831    -1718.521    82.155651 
   99700     1080.866   -116.76863   0.97799025   -115.79064   -10536.603    4.3536853    4.3536853    4.3536853   -10536.603   -42487.797   -56252.365    67130.354     77645.53   -4076.0239    2766.9145    82.522255 
   99800    1515.4087   -117.15065    1.3711736   -115.77948    3739.6568    4.3544608    4.3544608    4.3544608    3739.6568    -5451.317    1638.3768    15031.911    1490.5989   -26922.205   -4167.9022    82.566364 
   99900    1817.1232   -117.41059    1.6441712   -115.76642   -2258.0688    4.3570399    4.3570399    4.3570399   -2258.0688     7831.595   -30205.728    15599.927    10878.235   -7061.4896     -3546.57    82.713161 
  100000    1117.1288   -116.79154    1.0108016   -115.78074   -10741.215    4.3500869    4.3500869    4.3500869   -10741.215   -12982.033   -74580.567    55338.957    76666.935    3260.4279   -9638.4224     82.31781 
Loop time of 21.717 on 1 procs for 100000 steps with 8 atoms

Pair  time (%) = 6.55584 (30.1876)
Kspce time (%) = 5.36786 (24.7173)
Neigh time (%) = 0.116273 (0.535399)
Comm  time (%) = 1.00406 (4.62338)
Outpt time (%) = 0.0258865 (0.119199)
Other time (%) = 8.6471 (39.8172)

Nlocal:    8 ave 8 max 8 min
Histogram: 1 0 0 0 0 0 0 0 0 0
Nghost:    2075 ave 2075 max 2075 min
Histogram: 1 0 0 0 0 0 0 0 0 0
Neighs:    2107 ave 2107 max 2107 min
Histogram: 1 0 0 0 0 0 0 0 0 0

Total # of neighbors = 2107
Ave neighs/atom = 263.375
Neighbor list builds = 1393
Dangerous builds = 0
unfix 20
unfix 21
print "seeds:6490225"
seeds:6490225
