LAMMPS (10 Feb 2015)
# ---- initialize simulations
clear
units metal
dimension 3
boundary p p p
atom_style charge
atom_modify map array
# ---- create atoms
read_data /Users/eugeneragasa/pyflamestk_git/pypospack/tests/tests_integration/workflow/WorkflowLammpsThermalExpansion/param_2217/MgO_NaCl_unit.npt.T400/lammps.structure
  triclinic box = (0 0 0) to (4.2565 4.2565 4.2565) with tilt (0 0 0)
  1 by 1 by 1 MPI processor grid
  reading atoms ...
  8 atoms
# ---- define interatomic potential
include potential.mod
mass 1 24.305
mass 2 15.999

group Mg type 1
4 atoms in group Mg
group O type 2
4 atoms in group O

set group Mg charge 1.63539617609
  4 settings made for charge
set group O charge -1.63539617609
  4 settings made for charge

variable R_cut equal 10.0

pair_style buck/coul/long ${R_cut}
pair_style buck/coul/long 10
pair_coeff 1 1 0.0 0.5 0.0 ${R_cut}
pair_coeff 1 1 0.0 0.5 0.0 10
pair_coeff 1 2 1445.86118726 0.28350177361 0.0 ${R_cut}
pair_coeff 1 2 1445.86118726 0.28350177361 0.0 10
pair_coeff 2 2 14001.7361193 0.0970682303871 13.3227844282 ${R_cut}
pair_coeff 2 2 14001.7361193 0.0970682303871 13.3227844282 10

kspace_style pppm 1.0e-5

neighbor 1.0 bin
neigh_modify every 1 delay 0 check yes
# ---- define settings
compute eng all pe/atom
compute eatoms all reduce sum c_eng
# ---- run minimization
reset_timestep 0
fix 1 all box/relax iso 0.0 vmax 0.001
thermo 10
thermo_style custom step pe lx ly lz xy xz yz press pxx pyy pzz pxy pxz pyz c_eatoms
min_style cg
minimize 1e-25 1e-25 5000 10000
PPPM initialization ...
  G vector (1/distance) = 0.35265
  grid = 8 8 8
  stencil order = 5
  estimated absolute RMS force accuracy = 3.8734e-05
  estimated relative force accuracy = 2.68993e-06
  using double precision FFTs
  3d grid and FFT values/proc = 3375 512
Neighbor list info ...
  1 neighbor list requests
  update every 1 steps, delay 0 steps, check yes
  master list distance cutoff = 11
Memory usage per processor = 4.06549 Mbytes
Step PotEng Lx Ly Lz Xy Xz Yz Press Pxx Pyy Pzz Pxy Pxz Pyz eatoms 
       0   -107.83625       4.2565       4.2565       4.2565            0            0            0    103722.55    103722.55    103722.55    103722.55 -7.9651797e-11 -6.6040977e-11 3.4954802e-10   -107.83625 
      10   -107.94585     4.299065     4.299065     4.299065            0            0            0    48505.206    48505.206    48505.206    48505.206 -1.814552e-10 -8.0829294e-11 -4.0355362e-11   -107.94585 
      20   -107.98099     4.341612     4.341612     4.341612            0            0            0  -0.16598057  -0.16598057  -0.16598058  -0.16598057 -1.539671e-10 -9.8603927e-12 -7.0562295e-11   -107.98099 
      24     -107.981    4.3416118    4.3416118    4.3416118            0            0            0 -0.022137581 -0.022137581 -0.022137581 -0.022137581 -7.2866315e-11 -1.1353573e-10 -3.1341588e-11     -107.981 
Loop time of 0.0125449 on 1 procs for 24 steps with 8 atoms

Minimization stats:
  Stopping criterion = linesearch alpha is zero
  Energy initial, next-to-last, final = 
        -107.836253395     -107.981002151     -107.981002151
  Force two-norm initial, final = 14.9776 3.56003e-06
  Force max component initial, final = 14.9776 3.3258e-06
  Final line search alpha, max atom move = 0.5 1.6629e-06
  Iterations, force evaluations = 24 36

Pair  time (%) = 0.00335407 (26.7366)
Kspce time (%) = 0.0020175 (16.0823)
Neigh time (%) = 0 (0)
Comm  time (%) = 0.000399828 (3.18718)
Outpt time (%) = 2.40803e-05 (0.191953)
Other time (%) = 0.00674939 (53.802)

Nlocal:    8 ave 8 max 8 min
Histogram: 1 0 0 0 0 0 0 0 0 0
Nghost:    2189 ave 2189 max 2189 min
Histogram: 1 0 0 0 0 0 0 0 0 0
Neighs:    2344 ave 2344 max 2344 min
Histogram: 1 0 0 0 0 0 0 0 0 0

Total # of neighbors = 2344
Ave neighs/atom = 293
Neighbor list builds = 0
Dangerous builds = 0
unfix 1
# ---- define output variables ----
variable natoms equal "count(all)"
variable tot_energy equal "c_eatoms"
variable length_x equal "lx"
variable length_y equal "ly"
variable length_z equal "lz"
variable tilt_xy equal "xy"
variable tilt_xz equal "xz"
variable tilt_yz equal "yz"
variable tot_press equal "press"
variable press_xx equal "pxx"
variable press_yy equal "pyy"
variable press_zz equal "pzz"
variable press_xy equal "pxy"
variable press_xz equal "pxz"
variable press_yz equal "pyz"

# ---- output ----
print "pypospack:output_section:begin"
pypospack:output_section:begin
print "tot_energy = ${tot_energy}"
tot_energy = -107.981002151143
print "num_atoms = ${natoms}"
num_atoms = 8
print "xx = ${length_x}"
xx = 4.34161184326772
print "yy = ${length_y}"
yy = 4.34161184326772
print "zz = ${length_z}"
zz = 4.34161184326772
print "xy = ${tilt_xy}"
xy = 0
print "xz = ${tilt_xz}"
xz = 0
print "yz = ${tilt_yz}"
yz = 0
print "tot_press = ${tot_press}"
tot_press = -0.0221375810241508
print "pxx = ${press_xx}"
pxx = -0.0221375810918532
print "pyy = ${press_yy}"
pyy = -0.0221375807194137
print "pzz = ${press_zz}"
pzz = -0.0221375812611855
print "pxy = ${press_xy}"
pxy = -7.28663154154814e-11
print "pxz = ${press_xz}"
pxz = -1.13535727889352e-10
print "pyz = ${press_yz}"
pyz = -3.13415884666446e-11
print "pypospack:output_section:done"
pypospack:output_section:done
print "pypospack:lammps_sim:done"
pypospack:lammps_sim:done
#------------------------------------------------------------------------------
# RUN THERMOSTAT
# running using an NPT Nose-Hoover style thermostat
#------------------------------------------------------------------------------
variable tempdamp equal 0.1
variable pressdamp equal 1.0
# set initial velocities
velocity all create 400 1101948 mom yes dist gaussian loop all
# fix for Nose-Hoover style thermostat
fix 20 all npt temp 400 400 0.1 aniso 0.0 0.0 1.0 drag 1.0 couple xyz
variable boxx equal lx
variable boxy equal ly
variable boxz equal lz
variable boxp equal press
variable boxt equal temp
# calculate averages every 10000 steps
reset_timestep 0
fix 21 all ave/time 10 10 100 v_boxx v_boxy v_boxz v_boxp v_boxt file lattice.out
thermo_style custom step temp pe ke etotal press lx ly lz press pxx pyy pzz pxy pxz pyz vol
thermo_modify flush yes
thermo 100
run 100000
PPPM initialization ...
  G vector (1/distance) = 0.3518
  grid = 8 8 8
  stencil order = 5
  estimated absolute RMS force accuracy = 4.02804e-05
  estimated relative force accuracy = 2.79732e-06
  using double precision FFTs
  3d grid and FFT values/proc = 3375 512
Memory usage per processor = 3.06549 Mbytes
Step Temp PotEng KinEng TotEng Press Lx Ly Lz Press Pxx Pyy Pzz Pxy Pxz Pyz Volume 
       0          400   -107.98101   0.36192841   -107.61909    4721.7324    4.3416118    4.3416118    4.3416118    4721.7324    5196.0113    4018.7779    4950.4081   -1771.2845   -2299.6792     1463.796    81.837618 
     100    104.90009   -107.66052  0.094915807    -107.5656   -2681.4018    4.3642625    4.3642625    4.3642625   -2681.4018    7439.7021   -13220.534    -2263.374    54.095565   -1091.4852    -2499.088    83.125181 
     200    302.75482   -107.74588   0.27393893   -107.47194    2038.8711     4.351784     4.351784     4.351784    2038.8711    5769.5494   -274.96716    622.03101    1122.0088    2503.2687    49.878547    82.414188 
     300    286.79197   -107.64332    0.2594954   -107.38382   -331.65245    4.3644786    4.3644786    4.3644786   -331.65245    8893.1429   -7362.1099   -2525.9904    444.82882   -3264.0566   -933.91511     83.13753 
     400    305.62783   -107.59459   0.27653849   -107.31805    7699.3758    4.3625776    4.3625776    4.3625776    7699.3758    10842.383    3455.3805    8800.3644    1327.4753    2516.3823   -4545.8747    83.028942 
     500    558.63785   -107.77775   0.50546726   -107.27228   -6161.0866    4.3650001    4.3650001    4.3650001   -6161.0866   -1200.9203    -5372.932   -11909.408    1336.7697    2211.3817    4229.0358    83.167331 
     600    252.58402   -107.48185   0.22854333   -107.25331    3584.6189    4.3654201    4.3654201    4.3654201    3584.6189    19497.205   -11547.189    2803.8408   -2007.4189   -3699.0456   -2504.7458    83.191341 
     700    382.30987   -107.59442     0.345922    -107.2485   -4144.6015    4.3660442    4.3660442    4.3660442   -4144.6015     7262.124   -1161.8976   -18534.031    2494.6145    3204.1799    1480.5186    83.227028 
     800    523.94057   -107.72196   0.47407244   -107.24789   -2075.5569    4.3663684    4.3663684    4.3663684   -2075.5569    12685.856   -10250.155   -8662.3722   -1682.9677   -3123.9497    4252.0062    83.245572 
     900    394.96935    -107.6078   0.35737657   -107.25042    3720.4033    4.3629222    4.3629222    4.3629222    3720.4033    2262.8399    11458.425   -2560.0553   -1664.6478    1203.2897   -4459.0275    83.048616 
    1000    319.88453   -107.54123   0.28943824   -107.25179   -5214.8073    4.3706773    4.3706773    4.3706773   -5214.8073    14788.664   -7400.3996   -23032.686    12.453093   -562.67866   -1181.1434    83.492265 
    1100    437.81849   -107.64867   0.39614737   -107.25252    3238.3272    4.3592561    4.3592561    4.3592561    3238.3272   -5293.0625     5354.633     9653.411   -3448.9628   -661.25489   -1126.6695    82.839439 
    1200     315.6056   -107.54288   0.28556658   -107.25732     1749.076    4.3703296    4.3703296    4.3703296     1749.076    21202.496    1870.0103   -17825.278   -1318.3708    224.18577   -1926.9479    83.472336 
    1300    563.18097   -107.76351   0.50957798   -107.25394   -23.129475    4.3624007    4.3624007    4.3624007   -23.129475   -847.93982    305.92829     472.6231    1690.9032   -2998.8973    101.85463    83.018841 
    1400    251.44839   -107.48194   0.22751579   -107.25442    3742.7862    4.3648245    4.3648245    4.3648245    3742.7862    13982.428    8263.2192   -11017.288    2729.2227    2008.6396    1588.5527    83.157296 
    1500    402.82319    -107.6169   0.36448289   -107.25242   -12078.563    4.3692371    4.3692371    4.3692371   -12078.563    1693.4765   -12871.137   -25058.028    -1044.764    1428.9703   -471.38596    83.409752 
    1600    502.67377   -107.70711    0.4548298   -107.25229    3748.8036    4.3605079    4.3605079    4.3605079    3748.8036   -3021.4701    9906.5952    4361.2857    2375.0299    636.23305   -3152.3202    82.910826 
    1700    364.58182   -107.58583   0.32988129   -107.25595   -875.35336    4.3700061    4.3700061    4.3700061   -875.35336    18147.421   -5555.2175   -15218.264   -162.19029     23.02723    5319.1816    83.453805 
    1800    440.05743   -107.65317   0.39817321     -107.255    3092.8334    4.3615065    4.3615065    4.3615065    3092.8334   -3492.4119    12563.697    207.21548     3112.692    -4230.324    3158.4902    82.967802 
    1900    175.10885   -107.41526   0.15844217   -107.25682    8146.3371    4.3665764    4.3665764    4.3665764    8146.3371    22777.463    2270.0036   -608.45516   -1903.0857    5113.4339    2068.5476    83.257464 
    2000    576.75888   -107.77647   0.52186356   -107.25461   -11862.335    4.3662621    4.3662621    4.3662621   -11862.335   -12026.277    -8852.352   -14708.375   -768.97439   -4338.1578    4458.7911    83.239492 
    2100     392.3149   -107.61029   0.35497477   -107.25531    9246.4949    4.3631967    4.3631967    4.3631967    9246.4949    21587.506    10156.692   -4004.7128    -2753.078    2405.3302   -3487.2451    83.064291 
    2200    439.22959   -107.65264   0.39742416   -107.25522   -9177.2172    4.3671882    4.3671882    4.3671882   -9177.2172   -6108.6328   -9678.3847   -11744.634    428.72276    2779.8573    816.85211    83.292464 
    2300    323.39059   -107.54779    0.2926106   -107.25518    1239.5991    4.3649508    4.3649508    4.3649508    1239.5991    11052.655    10554.006   -17887.864    1704.7202   -2305.1556   -112.42312    83.164516 
    2400     349.6272   -107.57056   0.31635004   -107.25421    5497.0393    4.3660828    4.3660828    4.3660828    5497.0393    5551.2861    10236.747     703.0848   -662.26051     2247.244    94.379103    83.229234 
    2500    522.10223    -107.7249   0.47240907   -107.25249   -4291.5908    4.3644188    4.3644188    4.3644188   -4291.5908   -6296.2967   -5601.2891   -977.18671   -1.4813492   -351.46631    3775.2499     83.13411 
    2600    354.40431    -107.5728   0.32067246   -107.25213     1167.337    4.3685647    4.3685647    4.3685647     1167.337    9954.0382    7828.3426    -14280.37   -3554.1895    2851.4683   -4983.4472    83.371249 
    2700    347.73869    -107.5661   0.31464128   -107.25146    1757.3805    4.3610955    4.3610955    4.3610955    1757.3805    4047.8382   -5220.0732    6444.3765     1711.029    774.31479    273.57372    82.944348 
    2800    405.59897   -107.62186   0.36699447   -107.25487   -5782.8649    4.3700262    4.3700262    4.3700262   -5782.8649    1260.0239    1080.0329   -19688.652    326.67899    2419.8163   -410.77335    83.454955 
    2900    441.23077   -107.65371   0.39923487   -107.25448    6247.4729    4.3627104    4.3627104    4.3627104    6247.4729   -100.42732    19116.063     -273.217   -6.3515764   -5120.2729    -3089.354    83.036525 
    3000    431.68702   -107.64575   0.39059949   -107.25515   -8916.3331    4.3654975    4.3654975    4.3654975   -8916.3331   -3119.5432   -8821.1788   -14808.277    1062.9968   -2961.5055    6047.1601    83.195764 
    3100    310.25544   -107.53509   0.28072564   -107.25436   -59.593954    4.3682881    4.3682881    4.3682881   -59.593954   -3133.2095    18050.331   -15095.903    -1202.993    2522.9045   -3943.0036    83.355417 
    3200    421.45428    -107.6344   0.38134069   -107.25306    2614.8338     4.361382     4.361382     4.361382    2614.8338    2755.8205   -2920.5443    8009.2251    1221.6954   -5345.8451   -1466.8355    82.960694 
    3300    427.04467   -107.64272   0.38639899   -107.25632   -3706.8611    4.3682331    4.3682331    4.3682331   -3706.8611   -6767.6689    14335.268   -18688.183     341.1009   -9.9645244    1959.8042    83.352267 
    3400    332.09795   -107.55633    0.3004892   -107.25584     7660.787    4.3628775    4.3628775    4.3628775     7660.787     7500.655    8849.6462    6632.0599    2441.2679   -202.90646     335.8208    83.046066 
    3500    462.51876   -107.67353    0.4184967   -107.25503   -12463.478    4.3666951    4.3666951    4.3666951   -12463.478   -13275.997   -2809.0123   -21305.425   -1941.4552   -3960.8613    2883.9707    83.264254 
    3600    327.34671   -107.55072   0.29619019   -107.25453    2981.3791    4.3658235    4.3658235    4.3658235    2981.3791    1455.4155    11015.322   -3526.6006    2047.8746    1892.3961   -4766.2384    83.214408 
    3700    498.40105   -107.70297   0.45096374     -107.252    1314.4984    4.3632588    4.3632588    4.3632588    1314.4984   -1710.2627    4107.7422    1546.0156    1615.5391   -843.71072    2690.1309    83.067841 
    3800    397.22686   -107.61249   0.35941921   -107.25307   -7192.8702    4.3691722    4.3691722    4.3691722   -7192.8702    -12235.67     18842.31    -28185.25    -2429.267    751.19204   -4493.2182    83.406035 
    3900    300.79658   -107.52569   0.27216707   -107.25352    5691.4443    4.3608149    4.3608149    4.3608149    5691.4443    10972.125   -2152.8891    8255.0967    5240.5719    536.37112    1255.5528    82.928339 
    4000     431.3897   -107.64397   0.39033047   -107.25364   -5768.3637    4.3691827    4.3691827    4.3691827   -5768.3637   -9827.8076    5034.9487   -12512.232   -1252.2434    384.49309    1850.9928    83.406639 
    4100    486.37484   -107.69303   0.44008218   -107.25295   -3499.3077    4.3645206    4.3645206    4.3645206   -3499.3077   -4196.2732     2850.422    -9152.072    1409.9009    4007.1791   -5142.1457    83.139928 
    4200    336.75989   -107.55841   0.30470742   -107.25371    10459.021    4.3619217    4.3619217    4.3619217    10459.021    5536.3654    22052.829    3787.8686    2405.5339   -2656.9746      8926.84    82.991498 
    4300    421.61954   -107.63453   0.38149022   -107.25304   -13496.948    4.3722091    4.3722091    4.3722091   -13496.948   -18394.032    5857.5372    -27954.35   -2487.8635    2175.2462   -659.49077     83.58008 
    4400    393.37793   -107.60892   0.35593661   -107.25298    4651.1709    4.3581525    4.3581525    4.3581525    4651.1709    5516.7214    9455.0019   -1018.2106    6173.8706    510.63006    1669.6858    82.776542 
    4500    367.80707   -107.58655   0.33279957   -107.25375    2652.9079    4.3697278    4.3697278    4.3697278    2652.9079   -4540.4537    22155.795   -9656.6176   -2143.4559   -2990.2615    8647.6207    83.437862 
    4600    461.50207   -107.67031   0.41757677   -107.25273   -5312.6119    4.3655725    4.3655725    4.3655725   -5312.6119    -13315.31    17913.082   -20535.607   -1590.1338    1102.1835   -949.93523    83.200055 
    4700    376.41794   -107.59421   0.34059086   -107.25362    6056.2835    4.3597756    4.3597756    4.3597756    6056.2835    13417.494     10433.11    -5681.753   -2890.3151   -312.35928     4382.209    82.869062 
    4800    395.98537   -107.61372   0.35829588   -107.25543   -11815.345    4.3737354    4.3737354    4.3737354   -11815.345   -16309.119    -12734.83   -6402.0857    -296.1345   -499.43413    209.64744    83.667639 
    4900     368.9607   -107.58912    0.3338434   -107.25528    12015.583    4.3573034    4.3573034    4.3573034    12015.583    3384.9819    38224.108   -5562.3425    1841.0789   -2052.1497   -1905.7046    82.728164 
    5000    453.08706   -107.66694   0.40996269   -107.25698   -5761.0298    4.3706871    4.3706871    4.3706871   -5761.0298   -8296.1801   -166.84041   -8820.0689   -342.64808    587.64566   -2222.8842    83.492826 
    5100     324.3892    -107.5489   0.29351417   -107.25538    7097.9286    4.3607809    4.3607809    4.3607809    7097.9286   -42.123742    29513.457   -8177.5476   -689.39214    317.12076   -4832.4116      82.9264 
    5200    478.63629   -107.68576   0.43308017   -107.25268   -11045.715    4.3692567    4.3692567    4.3692567   -11045.715   -8102.1089   -14991.744   -10043.293   -1760.1061   -4673.4964    2409.2515    83.410879 
    5300    363.70391    -107.5823   0.32908694   -107.25321    3079.1489    4.3617321    4.3617321    4.3617321    3079.1489    2322.0073     10181.57   -3266.1311    2690.0547    1480.9132    3212.6302    82.980674 
    5400    405.86999   -107.62131    0.3672397   -107.25407    -3934.351    4.3680599    4.3680599    4.3680599    -3934.351    -9402.143    17137.168   -19538.078   -1036.7971    1251.9137    110.62592    83.342351 
    5500    398.33098    -107.6141   0.36041824   -107.25368   -1296.5712    4.3655727    4.3655727    4.3655727   -1296.5712   -313.66476    17206.908   -20782.957    871.35131   -4450.3152   -371.81058    83.200068 
    5600    406.13001   -107.62148   0.36747497   -107.25401    4196.7004    4.3604068    4.3604068    4.3604068    4196.7004    2587.4083     7048.336     2954.357    3441.1363      3656.12    -1127.467    82.905057 
    5700    441.87011   -107.65413   0.39981336   -107.25431   -11019.123    4.3743781    4.3743781    4.3743781   -11019.123   -11353.422    284.07704   -21988.023   -4692.3093    2006.0049    1071.3125    83.704526 
    5800    312.23972   -107.53561   0.28252106   -107.25309    14408.133    4.3549111    4.3549111    4.3549111    14408.133    6300.9464    27521.173    9402.2808    5083.3528   -1922.3355     1577.147    82.591981 
    5900    489.76034   -107.69747   0.44314545   -107.25432   -14119.597    4.3735991    4.3735991    4.3735991   -14119.597   -5438.2167    -9064.592   -27855.983    3423.8831    2254.0384    4072.9179    83.659817 
    6000    309.93087   -107.53395   0.28043196   -107.25351    8315.9037    4.3613587    4.3613587    4.3613587    8315.9037    5194.6832    27961.631    -8208.603   -604.71881   -4331.6612   -3088.5349    82.959365 
    6100     429.2776   -107.64189   0.38841939   -107.25347   -715.40983    4.3628283    4.3628283    4.3628283   -715.40983    14768.137   -11897.089   -5017.2774   -1265.6891    116.06654    92.951987    83.043255 
    6200    333.10881   -107.55619   0.30140385   -107.25479   -4208.8875    4.3709724    4.3709724    4.3709724   -4208.8875     -8971.61    26019.028    -29674.08   -1193.2897   -225.57728    2569.9858    83.509176 
    6300    489.68396   -107.69644   0.44307633   -107.25336     3643.075    4.3580038    4.3580038    4.3580038     3643.075    7648.4849    7037.5006   -3756.7607    -1305.994    884.75767   -174.24154    82.768067 
    6400    436.61721   -107.64959   0.39506042   -107.25453   -4583.2864     4.371285     4.371285     4.371285   -4583.2864   -10178.643    7695.1073   -11266.324    790.52602    2199.5864    1599.3747    83.527092 
    6500    407.70728   -107.62255   0.36890211   -107.25365     11.48706    4.3617866    4.3617866    4.3617866     11.48706    123.74439    10665.348   -10754.631   -449.69302    -2648.761    -3679.155    82.983786 
    6600    319.77611   -107.54501   0.28934014   -107.25567    7866.5955    4.3630334    4.3630334    4.3630334    7866.5955    15772.148     2790.118    5037.5209   -4061.4951    2040.8775    1821.7182    83.054969 
    6700    343.96092   -107.56619   0.31122307   -107.25496    802.28796    4.3701599    4.3701599    4.3701599    802.28796    -5533.143    27821.453   -19881.446    297.40474   -564.11393    -2109.106    83.462612 
    6800    511.87133   -107.71557   0.46315193   -107.25242    7669.6274    4.3567842    4.3567842    4.3567842    7669.6274    20478.358    2221.1641    309.36033     69.08615    460.12232    -1260.079    82.698598 
    6900    346.07602   -107.56787   0.31313685   -107.25473   -2471.4029    4.3724501    4.3724501    4.3724501   -2471.4029   -12390.111    17051.542    -12075.64    2271.1463    5525.9587     4864.839    83.593902 
    7000    442.68988   -107.65349    0.4005551   -107.25293   -3177.1943    4.3597215    4.3597215    4.3597215   -3177.1943    3533.6094    1886.4493   -14951.641   -1909.1506     1307.978   -3193.7798    82.865975 
    7100    391.72722    -107.6101   0.35444302   -107.25565    2359.6779     4.365059     4.365059     4.365059    2359.6779    5523.6458    17737.683   -16182.295    277.93538    891.29117    400.49985      83.1707 
    7200    364.96192   -107.58536   0.33022522   -107.25513     1890.202    4.3693077    4.3693077    4.3693077     1890.202   -642.84509    16527.533   -10214.082   -1712.0065    2707.4453     1212.655    83.413795 
    7300    497.43006   -107.70144   0.45008517   -107.25136    5515.4578    4.3578116    4.3578116    4.3578116    5515.4578    17868.232    4464.2946   -5786.1536    3010.5841   -4031.9313   -62.173575    82.757116 
    7400    206.05293   -107.44043   0.18644102   -107.25399    2040.9662    4.3712843    4.3712843    4.3712843    2040.9662   -2089.2952    24030.721   -15818.528   -740.62837   -712.87758    4222.1457    83.527054 
    7500    502.94574   -107.70678   0.45507587   -107.25171   -2265.7053    4.3604691    4.3604691    4.3604691   -2265.7053   -2065.1887   -5401.8016    669.87455     -398.785    204.17792   -1322.5081    82.908608 
    7600    459.74085   -107.66911   0.41598318   -107.25312    1417.7162    4.3660468    4.3660468    4.3660468    1417.7162   -2857.3204    21469.704   -14359.235    422.75424   -224.67037    3850.8808    83.227179 
    7700    406.10628   -107.62152    0.3674535   -107.25407   -1048.0291    4.3657514    4.3657514    4.3657514   -1048.0291     2927.653   -4383.4628   -1688.2776     530.3338    454.43377    4561.6775    83.210281 
    7800    316.12233   -107.54051   0.28603412   -107.25447    2415.7346    4.3636211    4.3636211    4.3636211    2415.7346    3082.5253    14911.175   -10746.496    4919.7253    2489.2806   -2362.4576    83.088532 
    7900    391.92304   -107.60886   0.35462021   -107.25424   -1299.2814    4.3651147    4.3651147    4.3651147   -1299.2814     8641.784    8055.7552   -20595.383   -1756.2426   -1586.5933     6246.263    83.173882 
    8000    416.93431   -107.63129   0.37725093   -107.25404    2579.1624    4.3648866    4.3648866    4.3648866    2579.1624     -7804.15    12935.931    2605.7061    3475.8379   -571.18785    2088.9557    83.160843 
    8100    525.01787   -107.72712   0.47504721   -107.25207   -2126.1219    4.3646706    4.3646706    4.3646706   -2126.1219   -3996.5795    5932.6296   -8314.4159   -2367.3279    3123.3502   -3443.2295    83.148501 
    8200    303.45317   -107.52951   0.27457081   -107.25494   -1511.0749      4.36441      4.36441      4.36441   -1511.0749   -5333.8091    4004.0393   -3203.4548   -238.06501   -140.06347   -1118.0781    83.133605 
    8300    317.24436   -107.54164   0.28704937   -107.25459    2576.8887    4.3659666    4.3659666    4.3659666    2576.8887    -4382.086    13195.311   -1082.5593    5681.5684    2407.0499   -2482.1576    83.222591 
    8400    551.53187   -107.75136   0.49903762   -107.25233   -1928.0288    4.3635469    4.3635469    4.3635469   -1928.0288     3214.259    1845.0292   -10843.375   -3610.2658    2389.0867   -4171.3458    83.084298 
    8500    299.52333   -107.52524     0.271015   -107.25422    6594.0479     4.366471     4.366471     4.366471    6594.0479   -1669.4829    18717.915    2733.7116    6371.7989    4271.6638    479.24953    83.251435 
    8600    480.35805   -107.68584   0.43463805    -107.2512   -5662.3569    4.3646394    4.3646394    4.3646394   -5662.3569    9174.2331    -8280.029   -17881.275    581.74988   -1077.9844    4496.1796    83.146716 
    8700    299.26191     -107.524   0.27077847   -107.25322   -568.43948    4.3644619    4.3644619    4.3644619   -568.43948    317.68234    10053.948   -12076.949   -2555.9879   -973.81955   -2584.3629    83.136576 
    8800    490.60558   -107.69667   0.44391024   -107.25276   -4501.5095    4.3675923    4.3675923    4.3675923   -4501.5095   -6783.3673   -3574.2697   -3146.8914    7557.8861    1704.0409    3376.0671    83.315589 
    8900    448.54522   -107.65936   0.40585314   -107.25351    5260.9611    4.3616675    4.3616675    4.3616675    5260.9611    16992.053    4879.0719   -6088.2419   -1850.1989   -1285.3682    4150.8797    82.976986 
    9000    321.52865   -107.54635   0.29092588   -107.25543    125.54882      4.36638      4.36638      4.36638    125.54882    2772.4221   -970.67768    -1425.098   -269.61907    4351.1518   -1208.4924    83.246235 
    9100    278.55869   -107.50592   0.25204576   -107.25387    5062.1436    4.3651742    4.3651742    4.3651742    5062.1436    20178.974    4752.4407    -9744.984   -427.77854    2926.0077    3453.6183    83.177284 
    9200    488.75942   -107.69628    0.4422398   -107.25404     745.8338    4.3616831    4.3616831    4.3616831     745.8338    5185.5077    4394.9573   -7342.9637    2996.8469   -1419.4158   -1106.2608    82.977878 
    9300    470.89524   -107.68133   0.42607591   -107.25525   -4051.1543    4.3700068    4.3700068    4.3700068   -4051.1543   -4050.1913   -2835.8363   -5267.4352    525.46011     4543.203    -1464.948    83.453841 
    9400     387.5407   -107.60484   0.35065497   -107.25418    4041.1211    4.3596167    4.3596167    4.3596167    4041.1211    18223.034    8261.3977   -14361.068   -1883.4371   -1631.9993   -980.08761    82.859998 
    9500    366.00648   -107.58798   0.33117035   -107.25681   -4892.4425    4.3662537    4.3662537    4.3662537   -4892.4425     14771.71   -15216.508    -14232.53   -785.93966    3687.7849    2145.9883    83.239006 
    9600    358.69394   -107.58095   0.32455382    -107.2564    4080.3671    4.3678231    4.3678231    4.3678231    4080.3671    9220.5715    10496.511    -7475.981     1904.921    6801.0142    2378.8502    83.328798 
    9700    574.74723   -107.77281   0.52004337   -107.25277    4143.6205    4.3578978    4.3578978    4.3578978    4143.6205    13269.111   -844.52311    6.2734475    3775.4335   -2850.3899   -526.40607    82.762028 
    9800     307.6147   -107.53275   0.27833624   -107.25441    52.176874    4.3717907    4.3717907    4.3717907    52.176874    443.70393    3629.3802   -3916.5536   -1733.8767    2258.2952    602.03699    83.556084 
    9900    306.22853   -107.52829   0.27708201   -107.25121    8110.0743    4.3603291    4.3603291    4.3603291    8110.0743     17130.04    7348.4116     -148.229    1824.7294   -2191.6946    1422.3814    82.900623 
   10000     464.9795   -107.67207   0.42072322   -107.25134   -1956.5227    4.3641766    4.3641766    4.3641766   -1956.5227    16133.619   -13834.243    -8168.944   -328.73998   -1086.2403    433.31429    83.120271 
   10100    470.69848   -107.67776   0.42589788   -107.25187   -3182.8964    4.3706079    4.3706079    4.3706079   -3182.8964   -4848.6148    3066.1666   -7766.2409    1530.4843   -448.46839    4957.1903    83.488284 
   10200    432.36148   -107.64138   0.39120976   -107.25017      7309.05    4.3561342    4.3561342    4.3561342      7309.05    31710.923     -2806.33    -6977.443    542.80628   -722.65362   -466.43533    82.661591 
   10300    361.02256   -107.58012    0.3266608   -107.25345   -12000.322    4.3731635    4.3731635    4.3731635   -12000.322   -8272.3547   -8718.5219    -19010.09   -2503.1981    3706.9096    857.57783    83.634822 
   10400      282.811   -107.50901   0.25589334   -107.25311    14253.336    4.3595106    4.3595106    4.3595106    14253.336    27333.548    12171.523    3254.9367    5012.1226   -2552.3463   -366.82254     82.85395 
   10500    576.50742   -107.77353   0.52163603   -107.25189   -2550.5332    4.3644436    4.3644436    4.3644436   -2550.5332    6396.9983     -13296.7    -751.8984    -4820.643    3188.0219   -3759.0122    83.135526 
   10600    314.84921   -107.53744   0.28488218   -107.25256    521.42913     4.369297     4.369297     4.369297    521.42913    1992.3966    1745.5564   -2173.6655    4640.4565    6352.1906    511.54229    83.413182 
   10700    379.50931    -107.5944     0.343388   -107.25102    5572.5022    4.3575822    4.3575822    4.3575822    5572.5022    30898.731   -12271.266   -1909.9577    2645.5685     599.9481    -284.8678     82.74405 
   10800    401.34269   -107.61745    0.3631433    -107.2543   -7970.8356    4.3717091    4.3717091    4.3717091   -7970.8356    3458.7376   -12418.668   -14952.576   -2656.5849    6300.2959    2739.2025    83.551408 
   10900      397.508   -107.61355   0.35967359   -107.25388    8664.1955    4.3606604    4.3606604    4.3606604    8664.1955    25774.211     396.4902   -178.11462    4645.9981    2013.7939    305.90333    82.919526 
   11000    603.85407   -107.79878   0.54637986    -107.2524   -10525.782    4.3641434    4.3641434    4.3641434   -10525.782   -7761.8676   -8893.0608   -14922.417   -2926.8647    -6876.142     386.4807    83.118376 
   11100    170.32896   -107.41036   0.15411722   -107.25625    3027.2795    4.3668928    4.3668928    4.3668928    3027.2795    19961.014   -6136.4763   -4742.6992     6794.364    3732.9405    985.07452    83.275564 
   11200    475.56631   -107.68403   0.43030239   -107.25373    1188.4804    4.3612875    4.3612875    4.3612875    1188.4804    11189.435   -141.37086   -7482.6226    938.50816    104.58254   -975.82673      82.9553 
   11300    395.70154   -107.61327   0.35803907   -107.25523    4276.9701    4.3667368    4.3667368    4.3667368    4276.9701    24616.847   -11333.973   -451.96368    431.32272   -100.63789    4168.6987    83.266643 
   11400     413.4103   -107.62994   0.37406233   -107.25588    1429.8266    4.3627628    4.3627628    4.3627628    1429.8266    3813.9351     788.9267   -313.38192    3462.7092    5662.1299    961.54201    83.039517 
   11500     422.2056   -107.63652    0.3820205    -107.2545   -4828.4281     4.365151     4.365151     4.365151   -4828.4281    13948.088   -17849.086   -10584.287   -4744.5893   -1603.9951    774.67614    83.175961 
   11600    309.01645   -107.53524   0.27960457   -107.25564    2210.2635    4.3637207    4.3637207    4.3637207    2210.2635    19572.842   -5986.9849   -6955.0665    7681.6124    661.35046    3023.3251    83.094225 
   11700    471.18734   -107.68143   0.42634021   -107.25509   -331.38162    4.3661796    4.3661796    4.3661796   -331.38162    14711.608   -4532.1715   -11173.581   -1802.8324    7575.0758   -796.73774    83.234771 
   11800     468.1449   -107.67782   0.42358734   -107.25424    1024.3023    4.3620187    4.3620187    4.3620187    1024.3023    14921.392   -2741.9671    -9106.518    315.96165   -113.33798   -1080.9865    82.997033 
   11900    354.20538   -107.57568   0.32049247   -107.25519   -4590.7395    4.3681815    4.3681815    4.3681815   -4590.7395    469.16302    892.91743   -15134.299   -749.15153    4112.0041    970.13468    83.349311 
   12000    322.97383   -107.54577    0.2922335   -107.25354    10970.613     4.361839     4.361839     4.361839    10970.613    36584.153    1235.0403   -4907.3552   -2405.7497   -2326.2611   -2894.8676    82.986775 
   12100    486.92289   -107.69265   0.44057806   -107.25207    2025.1557    4.3639658    4.3639658    4.3639658    2025.1557    6329.4235    2435.7792   -2689.7357    -500.2166   -4362.8689    350.31778    83.108225 
   12200      362.771   -107.58203   0.32824282   -107.25379   -1939.2021    4.3682347    4.3682347    4.3682347   -1939.2021    9894.2165   -7074.3176   -8637.5053    1388.5136    1432.6365    260.73541    83.352359 
   12300    442.09128   -107.65585   0.40001349   -107.25584    3785.7569    4.3551741    4.3551741    4.3551741    3785.7569    16233.699    2353.8555   -7230.2833     3172.768     131.1888    71.060129    82.606945 
   12400    395.15469    -107.6168   0.35754427   -107.25926   -13690.545    4.3757426    4.3757426    4.3757426   -13690.545   -3772.7115   -16337.189   -20961.734   -1778.5992    3766.7073    3778.7225    83.782881 
   12500    372.33371   -107.59338   0.33689536   -107.25648    17393.569    4.3529406    4.3529406    4.3529406    17393.569    41684.942    10263.806    231.95842   -946.77159    3108.3798    -2478.058    82.479916 
   12600    457.93135   -107.67019   0.41434591   -107.25584   -6909.9044    4.3706458    4.3706458    4.3706458   -6909.9044    8493.5119   -9447.2334   -19775.992   -4395.8017   -1402.2389    1499.7649    83.490459 
   12700    322.13929   -107.54601    0.2914784   -107.25453   -1824.9644    4.3636174    4.3636174    4.3636174   -1824.9644     989.6096    2950.4383   -9414.9411    660.14879    1117.9556    170.77823    83.088324 
   12800    411.76507   -107.62692   0.37257369   -107.25435    4167.0878    4.3586326    4.3586326    4.3586326    4167.0878    25871.931   -3167.9391   -10202.728   -2123.2457    4470.5511    458.52214    82.803902 
   12900    414.29396   -107.63066   0.37486188   -107.25579   -5746.2789    4.3734503    4.3734503    4.3734503   -5746.2789    1557.8469   -3184.5726   -15612.111   -4227.6222   -694.76016    1720.0901    83.651279 
   13000    418.63827   -107.63273    0.3787927   -107.25394    7018.3425    4.3537622    4.3537622    4.3537622    7018.3425    17369.238    2582.5029    1103.2864    1529.0014    1081.0715    476.14687    82.526633 
   13100    367.81008   -107.58736   0.33280229   -107.25456    -7639.746    4.3724572    4.3724572    4.3724572    -7639.746   -181.96053   -19.567202    -22717.71   -1525.1194   -215.75094    1540.8077    83.594307 
   13200    334.86566   -107.55757   0.30299349   -107.25458    4372.4595     4.359905     4.359905     4.359905    4372.4595     22975.47   -1257.7057   -8600.3857    4306.6844   -1828.0582    1155.9705    82.876439 
   13300    439.21165   -107.65297   0.39740793   -107.25556    3790.3082    4.3634294    4.3634294    4.3634294    3790.3082    10216.039    7455.8368   -6300.9509    4563.2995    4319.3472   -1791.8558    83.077586 
   13400    499.27624   -107.70569   0.45175564   -107.25393   -7801.8701    4.3694152    4.3694152    4.3694152   -7801.8701    5606.7075   -5095.5007   -23916.817    1302.9519    1817.8082    721.35309    83.419954 
   13500    319.63075   -107.54367   0.28920862   -107.25446    6541.1249    4.3563542    4.3563542    4.3563542    6541.1249    2934.4771    16357.271    331.62677   -4131.1769    2761.4716    -1187.294    82.674115 
   13600    365.86453   -107.58726   0.33104192   -107.25622   -4432.7255    4.3718114    4.3718114    4.3718114   -4432.7255    23142.684   -9936.7148   -26504.146    3235.9593   -1788.4048   -320.74849     83.55727 
   13700    465.84725   -107.67709   0.42150839   -107.25558    10756.202    4.3546211    4.3546211    4.3546211    10756.202    15291.927    6544.6062    10432.073   -102.91982   -3015.6165    3191.0182     82.57548 
   13800    364.91498   -107.58736   0.33018274   -107.25718   -1202.1512    4.3721456    4.3721456    4.3721456   -1202.1512    17992.241   -3511.5456   -18087.149    144.65851    6030.9783   -4865.8562    83.576439 
   13900    421.04388   -107.63394   0.38096935   -107.25297    2030.5755    4.3589785    4.3589785    4.3589785    2030.5755    4436.6452    11604.884   -9949.8021     767.3303   -2722.4344    902.41875    82.823612 
   14000    393.11446   -107.61055   0.35569822   -107.25485     21.69042    4.3646618    4.3646618    4.3646618     21.69042    12974.731   -7021.0577   -5888.6023   -3840.3253    4224.1568   -1088.9018    83.147995 
   14100    340.11686   -107.56218   0.30774488   -107.25443    7653.6643    4.3678294    4.3678294    4.3678294    7653.6643    21206.903    15404.426   -13650.336    2360.3437    1512.3376   -3823.7777     83.32916 
   14200    551.11133   -107.75084   0.49865711   -107.25218    2954.8033    4.3553452    4.3553452    4.3553452    2954.8033    17832.032    1997.5365   -10965.159    2120.2729    -967.2227    855.38578    82.616679 
   14300    240.49321   -107.47278   0.21760331   -107.25517    738.86631    4.3726276    4.3726276    4.3726276    738.86631    11818.066    10252.092   -19853.559    825.51617    6585.5571   -2195.4898    83.604078 
   14400    529.14974   -107.73185    0.4787858   -107.25306   -3444.2577     4.357745     4.357745     4.357745   -3444.2577    2870.9562   -2698.3735   -10505.356   -2095.9972   -3284.3942     1054.784    82.753324 
   14500    295.27667   -107.52512   0.26717254   -107.25795    5591.6896    4.3654083    4.3654083    4.3654083    5591.6896    30297.197   -1153.8929   -12368.236   -1046.5791    4919.1719   -1674.5637    83.190667 
   14600    488.80843    -107.6976   0.44228414   -107.25532    -7069.284    4.3671456    4.3671456    4.3671456    -7069.284   -3913.8881   -6317.2342    -10976.73   -4718.6258    28.355175    3356.0171    83.290031 
   14700    325.63213   -107.54779   0.29463879   -107.25315     7426.586    4.3561913    4.3561913    4.3561913     7426.586    25852.631    7616.9275     -11189.8    2883.7145   -5391.1032    428.71607    82.664843 
   14800     499.1467   -107.70518   0.45163842   -107.25354   -14903.834     4.373088     4.373088     4.373088   -14903.834   -17471.503   -11205.223   -16034.777     2869.078    4233.3479    1031.2173     83.63049 
   14900    295.68647   -107.52261   0.26754333   -107.25506    17415.009    4.3555333    4.3555333    4.3555333    17415.009    34880.297    15625.845    1738.8846   -1192.5516    -3752.616    1419.4158    82.627387 
   15000    455.29083    -107.6683   0.41195671   -107.25634   -8423.9548    4.3693384    4.3693384    4.3693384   -8423.9548   -251.89831   -4127.6193   -20892.347     342.9373    2355.1932    1443.6609    83.415554 
   15100    346.36001   -107.56832   0.31339381   -107.25493    201.73923    4.3611588    4.3611588    4.3611588    201.73923    8930.6262    8662.0748   -16987.483   -820.71519    1144.8435    514.22762    82.947956 
   15200     424.7512   -107.63889   0.38432382   -107.25456   -7599.0837    4.3621754    4.3621754    4.3621754   -7599.0837   -4546.4561   -5466.9653    -12783.83    1468.1255   -3836.8448    1406.8661     83.00598 
   15300     402.3065   -107.61975   0.36401537   -107.25573   -5854.8079     4.366948     4.366948     4.366948   -5854.8079    15002.877   -14701.174   -17866.126   -1220.2263    2587.4429   -2309.6923    83.278722 
   15400    407.33949   -107.62509   0.36856933   -107.25652     2008.465    4.3599585    4.3599585    4.3599585     2008.465    13078.536    1284.7689     -8337.91    8.3272214   -1141.4751   -479.04758    82.879489 
   15500    367.78226   -107.58875   0.33277712   -107.25597   -4268.2492    4.3678705    4.3678705    4.3678705   -4268.2492    14404.861   -4727.3208   -22482.288   -7606.4378    2537.3107    1120.8821    83.331511 
   15600    421.49147   -107.63614   0.38137434   -107.25476    3246.9078    4.3594822    4.3594822    4.3594822    3246.9078    786.15627    14344.559   -5389.9917    977.75886   -843.36973   -1732.9544    82.852329 
   15700    375.92363   -107.59598    0.3401436   -107.25583     1052.987    4.3664547    4.3664547    4.3664547     1052.987    17767.539    -4519.798    -10088.78   -283.91466   -541.54345    4767.5552    83.250502 
   15800    361.16457   -107.58281    0.3267893   -107.25602    1199.4759    4.3625915    4.3625915    4.3625915    1199.4759    13518.703     4821.908   -14742.183    3245.4997    3754.4675   -1425.1962    83.029735 
   15900    446.41497   -107.65927   0.40392564   -107.25534   -2019.0167    4.3615975    4.3615975    4.3615975   -2019.0167    14413.995   -5837.3775   -14633.668     1376.734    2592.7961    2203.2928    82.972995 
   16000    417.24207   -107.63313   0.37752939   -107.25561   -8655.8771    4.3679187    4.3679187    4.3679187   -8655.8771    2517.9614   -10564.629   -17920.964   -2771.3226    1733.3649    2207.1718    83.334269 
   16100    424.24024   -107.63971   0.38386148   -107.25585    4390.2201    4.3576787    4.3576787    4.3576787    4390.2201    29152.043   -8348.6304   -7632.7522    1435.7234    1865.3562    458.45473    82.749543 
   16200    339.47039   -107.56539   0.30715994   -107.25823   -3290.4321    4.3690738    4.3690738    4.3690738   -3290.4321    6414.9521    2788.5184   -19074.767    4089.7472    -2031.834    2675.0765    83.400401 
   16300    413.32981   -107.62976    0.3739895   -107.25577    4088.6044    4.3565032    4.3565032    4.3565032    4088.6044    19183.204    5389.9519   -12307.342    302.84092   -3132.3734   -123.85898    82.682597 
   16400    401.08594   -107.61813   0.36291099   -107.25522   -3543.9148    4.3701178    4.3701178    4.3701178   -3543.9148   -575.11269     4970.765   -15027.397    -1965.192    1239.8729    2409.0245    83.460201 
   16500    429.16856   -107.64306   0.38832073   -107.25474    3212.9612    4.3584985    4.3584985    4.3584985    3212.9612     23373.97   -10390.351   -3344.7348   -1785.1847   -2882.4444   -1745.6182    82.796257 
   16600    374.05642   -107.59683   0.33845411   -107.25838   -3314.7052    4.3658924    4.3658924    4.3658924   -3314.7052      11245.8   -6165.8975   -15024.018    745.70025    2687.0257   -607.08894    83.218344 
   16700    400.79896   -107.61957   0.36265132   -107.25692   -4179.1045    4.3649201    4.3649201    4.3649201   -4179.1045    16430.649   -10533.098   -18434.865    5098.6597   -236.75199     304.5826    83.162763 
   16800    457.74443   -107.66917   0.41417678   -107.25499   -1618.4552    4.3585241    4.3585241    4.3585241   -1618.4552    819.11248    1861.4514   -7535.9295   -1344.5044   -2116.0811   -1535.7144    82.797715 
   16900    404.35502   -107.62169   0.36586892   -107.25582   -9439.2452    4.3721287    4.3721287    4.3721287   -9439.2452    11048.157   -16057.011   -23308.882   -1706.6647    5870.6337   -191.79458    83.575466 
   17000    315.40017   -107.54018    0.2853807    -107.2548    13623.135    4.3528273    4.3528273    4.3528273    13623.135    24757.953     21603.86   -5492.4087   -5532.9033   -3474.7781     1714.394    82.473479 
   17100    410.98386   -107.62708   0.37186684   -107.25521   -13015.789     4.373933     4.373933     4.373933   -13015.789    2324.3188   -11383.314   -29988.372    64.779087    1127.9776    179.47386     83.67898 
   17200    462.39111   -107.67095   0.41838119   -107.25256    7670.2618    4.3566377    4.3566377    4.3566377    7670.2618    11267.056    14945.386   -3201.6569    3622.0043    1012.4196   -247.53965    82.690257 
   17300    426.70731   -107.64149   0.38609374    -107.2554   -1395.1844    4.3661554    4.3661554    4.3661554   -1395.1844    21098.989   -12297.291   -12987.251   -247.34095    -5321.292    2496.5861    83.233385 
   17400    257.72666   -107.49181   0.23319649   -107.25861    2917.8567    4.3636689    4.3636689    4.3636689    2917.8567    18445.403    2398.9903   -12090.823   -2331.2189     377.1112   -2134.6011    83.091266 
   17500    493.88026   -107.70498   0.44687324   -107.25811      772.973    4.3587345    4.3587345    4.3587345      772.973    14022.935    1842.2773   -13546.294    -354.8529    1508.6648     1703.496    82.809705 
   17600    348.54063   -107.57204   0.31536689   -107.25667   -4345.5761    4.3716529    4.3716529    4.3716529   -4345.5761    3434.7972     3943.491   -20415.016    3713.2473   -1486.0458   -1123.2056    83.548184 
   17700    515.76089   -107.71952   0.46667129   -107.25285    4966.8875    4.3548768    4.3548768    4.3548768    4966.8875    26244.194   -6339.8167   -5003.7146    2216.7807    3708.1887    608.89865    82.590027 
   17800    313.95647   -107.53926   0.28407441   -107.25519    -3734.965    4.3718816    4.3718816    4.3718816    -3734.965    10247.221    6632.3726   -28084.488    2784.2232   -3478.7573   -933.00556    83.561296 
   17900    385.63878   -107.60306   0.34893408   -107.25412    2999.4081     4.354071     4.354071     4.354071    2999.4081    17618.622    5671.3033   -14291.701   -1889.0168   -5613.9929   -193.04645    82.544191 
   18000     432.7814   -107.64961   0.39158971   -107.25802   -4715.5415    4.3706156    4.3706156    4.3706156   -4715.5415   -3362.9525    8346.7564   -19130.428    1499.6883    1577.1144   -633.69718    83.488723 
   18100    492.20803   -107.70275   0.44536017   -107.25739   -2258.3869    4.3585345    4.3585345    4.3585345   -2258.3869    6087.7503   -1170.5004   -11692.411    3064.0771    -8242.373   -2698.7901    82.798308 
   18200    259.15502   -107.49303   0.23448891   -107.25854   -31.538768    4.3655469    4.3655469    4.3655469   -31.538768     18591.68    -5918.513   -12767.783    4066.2991    2517.4821    565.15444     83.19859 
   18300     384.4225   -107.60156   0.34783356   -107.25373   -6120.9811     4.365882     4.365882     4.365882   -6120.9811    7172.3988   -7759.9276   -17775.415    846.20303    2142.8837   -3510.4444    83.217749 
   18400    433.58556    -107.6446   0.39231733   -107.25228     4319.667    4.3553935    4.3553935    4.3553935     4319.667     6024.043    14407.372   -7472.4143   -5480.7831   -6961.4053    3551.5866    82.619429 
   18500     519.8525   -107.72369   0.47037347   -107.25331   -17241.385    4.3761811    4.3761811    4.3761811   -17241.385   -7250.6431   -23585.947   -20887.564   -2315.5143    4268.5823    312.04847    83.808073 
   18600    295.49883    -107.5205   0.26737355   -107.25313    20044.977    4.3454821    4.3454821    4.3454821    20044.977    26984.974    35740.694   -2590.7362   -923.50979   -5100.6216   -573.94731    82.056674 
   18700    352.66666    -107.5729    0.3191002   -107.25379   -22338.467    4.3810734    4.3810734    4.3810734   -22338.467   -5491.6831   -20118.239   -41405.478    97.252408    152.23004    679.94327    84.089467 
   18800    383.03653    -107.5956    0.3465795   -107.24902    14607.077     4.350547     4.350547     4.350547    14607.077     21561.34    23634.454   -1374.5627   -905.39229    4053.4445    724.73199    82.343931 
   18900    574.77295   -107.77138   0.52006665   -107.25131   -14715.259    4.3688686    4.3688686    4.3688686   -14715.259   -13673.839   -11429.535   -19042.402   -1389.0938   -5457.2951   -2894.7862    83.388653 
   19000    293.83038   -107.52025    0.2658639   -107.25438    1366.2088    4.3631762    4.3631762    4.3631762    1366.2088    23160.145   -2886.0468   -16175.472   -648.23706    2245.9578   -920.78362    83.063125 
   19100    364.04209   -107.58459   0.32939294    -107.2552    5303.7081    4.3566672    4.3566672    4.3566672    5303.7081    15978.285    4051.3793   -4118.5397    3602.5342    -4757.916    1406.5928    82.691935 
   19200    305.32554   -107.53081   0.27626496   -107.25455   -1000.2563    4.3719741    4.3719741    4.3719741   -1000.2563    16110.956    5755.6407   -24867.366    3275.0033   -3041.4195   -2187.0699    83.566599 
   19300    607.88918   -107.80077    0.5500309   -107.25074    3214.5546    4.3544503    4.3544503    4.3544503    3214.5546    1933.4164    9350.6308   -1640.3835    713.33943    4068.2577    2302.7556    82.565768 
   19400    263.78893   -107.49338   0.23868177    -107.2547    3155.2182    4.3702108    4.3702108    4.3702108    3155.2182    22753.132    7497.2411   -20784.718   -1050.3264   -2044.2105   -535.77856    83.465529 
   19500    451.89443   -107.66321   0.40888357   -107.25432   -4380.2347    4.3570433    4.3570433    4.3570433   -4380.2347    10041.224   -4815.6322   -18366.296   -1120.4709    690.38498    75.473755    82.713351 
   19600    321.34135   -107.54935   0.29075641    -107.2586    3547.0762    4.3632499    4.3632499    4.3632499    3547.0762    32364.162   -3596.9586   -18125.974    619.60422   -1417.5065   -2920.4673    83.067331 
   19700    552.19505   -107.75537   0.49963768   -107.25574   -9600.1498    4.3662288    4.3662288    4.3662288   -9600.1498   -8610.9061    -5358.411   -14831.132    4852.1749   -6934.1131    1824.5329    83.237585 
   19800    412.21363   -107.62708   0.37297955    -107.2541    2835.7353    4.3568156    4.3568156    4.3568156    2835.7353    18697.648    2739.2156   -12929.658   -603.87225   -671.69553   -395.92381    82.700384 
   19900    264.30185   -107.49406   0.23914587   -107.25492    -3617.118    4.3707836    4.3707836    4.3707836    -3617.118    10378.389    2423.1176   -23652.861   -2992.2861   -1225.8327   -1508.7248    83.498354 
   20000    371.04292   -107.58871   0.33572743   -107.25298    11297.538    4.3545304    4.3545304    4.3545304    11297.538    24902.095    10997.406   -2006.8867   -621.67473   -523.15857    3328.1898     82.57032 
   20100    496.26166   -107.70463   0.44902798   -107.25561   -6132.0593    4.3683292    4.3683292    4.3683292   -6132.0593   -89.307662   -1150.9452   -17155.925   -906.95817    3034.1535    -3247.226    83.357768 
   20200    440.88592   -107.65497   0.39892284   -107.25605   -2042.8513    4.3593549    4.3593549    4.3593549   -2042.8513    1336.0591    881.00083    -8345.614    815.02531   -7194.6316   -2045.8549    82.845073 
   20300    303.35691   -107.53039   0.27448371   -107.25591   -2371.6791    4.3623828    4.3623828    4.3623828   -2371.6791    9633.3271    2843.5701   -19591.935    228.76231   -2000.1218    389.98094    83.017817 
   20400    400.55241   -107.61667   0.36242824   -107.25424   -11492.351    4.3676814    4.3676814    4.3676814   -11492.351    5187.2159   -14437.752   -25226.517   -3456.9766   -872.84684   -1772.5493    83.320688 
   20500    342.13486   -107.56469   0.30957082   -107.25512    14334.429    4.3532528    4.3532528    4.3532528    14334.429    16150.469    32475.934   -5623.1165   -3293.1548   -6560.4613    713.16465    82.497665 
   20600    535.08954   -107.74043   0.48416026   -107.25627   -15843.132    4.3731828    4.3731828    4.3731828   -15843.132    -8182.293    -15501.53   -23845.574    4227.7204    2999.6929    2518.6071    83.635932 
   20700    269.80991   -107.49995   0.24412968   -107.25582    9351.3245    4.3547674    4.3547674    4.3547674    9351.3245    12304.251     28964.38   -13214.657     3568.685   -2351.1073    1180.7713    82.583804 
   20800    456.27043   -107.66747   0.41284307   -107.25463   -5752.9286    4.3666543    4.3666543    4.3666543   -5752.9286    8506.9974   -13886.074   -11879.709    1266.5483   -4801.8927    1560.2469    83.261922 
   20900    371.47732   -107.59005   0.33612048   -107.25393    5567.3808    4.3631143    4.3631143    4.3631143    5567.3808    14307.073    9237.5543    -6842.485   -879.79715    928.25368   -1150.7758     83.05959 
   21000    426.54965   -107.63953   0.38595108   -107.25358    1941.7113    4.3595798    4.3595798    4.3595798    1941.7113   -1836.9693    15662.818   -8000.7143   -4142.0399   -3143.9265    757.35872    82.857894 
   21100    369.86726   -107.58686   0.33466367    -107.2522   -3991.0237    4.3671434    4.3671434    4.3671434   -3991.0237    9134.7289   -2902.4659   -18205.334    106.84846    1411.3723   -2965.5149    83.289905 
   21200    360.82032   -107.57915   0.32647781   -107.25267    4760.0768    4.3578253    4.3578253    4.3578253    4760.0768   -1258.1902    25519.894   -9981.4738    2180.5431    249.35944   -1805.9906    82.757898 
   21300    431.42222   -107.64395   0.39035989   -107.25359    978.83509    4.3667314    4.3667314    4.3667314    978.83509    23967.112   -5048.0654   -15982.542   -2617.7052    -708.7375    991.81692    83.266332 
   21400      459.704   -107.67073   0.41594984   -107.25478    5026.1524    4.3580494    4.3580494    4.3580494    5026.1524    7601.4256    19604.823   -12127.791    1250.5182   -731.07293   -3926.6748    82.770664 
   21500    282.13299   -107.51259   0.25527986   -107.25731    -1459.942    4.3670269    4.3670269    4.3670269    -1459.942    12243.221    4702.7455   -21325.792   -5177.8497   -5724.3745    816.72718    83.283237 
   21600    495.50611   -107.70161   0.44834434   -107.25326    1207.3276    4.3591475    4.3591475    4.3591475    1207.3276    1780.3057    11185.962   -9344.2849   -2389.2967   -2737.4498   -805.40142    82.833247 
   21700    421.38233   -107.63612   0.38127558   -107.25484    113.05755    4.3643319    4.3643319    4.3643319    113.05755    6796.7429    2022.8331   -8480.4033    7610.9535     -3930.17   -2742.7297    83.129146 
   21800    361.55352   -107.58192   0.32714122   -107.25478    2337.0789    4.3623422    4.3623422    4.3623422    2337.0789     13663.01   -456.17507   -6195.5984    -1960.212   -256.57675    1.6222393    83.015502 
   21900    411.40828   -107.62612   0.37225086   -107.25387    1839.1109    4.3607632    4.3607632    4.3607632    1839.1109    11728.313    5433.2777   -11644.258    1415.5161    2519.0998    626.04008    82.925389 
   22000    328.76161   -107.55232   0.29747041   -107.25485   -1593.3336    4.3662286    4.3662286    4.3662286   -1593.3336    3207.7191    1616.0748   -9603.7946    1676.5127   -4069.4126    592.36095    83.237571 
   22100    529.96621   -107.73268   0.47952457   -107.25315    2022.6576    4.3575597    4.3575597    4.3575597    2022.6576    479.05842    12278.708   -6689.7941    1285.4553    998.50319    4759.0347    82.742768 
   22200    296.98229   -107.52354   0.26871582   -107.25482    311.62494    4.3680128    4.3680128    4.3680128    311.62494    15984.452    3860.3424   -18909.919    5677.3524   -3495.8006   -2964.2524    83.339655 
   22300    377.11593   -107.59502   0.34122242    -107.2538   -5926.4539    4.3597979    4.3597979    4.3597979   -5926.4539     3268.377   -1433.8002   -19613.938    4313.4029   -4774.5166    3049.2054    82.870328 
   22400    356.94711    -107.5764   0.32297325   -107.25342    2878.3651    4.3633901    4.3633901    4.3633901    2878.3651    15756.367    7351.7972   -14473.069   -4528.6265    4148.1259   -1792.1809    83.075341 
   22500    583.41242   -107.78222   0.52788382   -107.25433   -13119.012    4.3649066    4.3649066    4.3649066   -13119.012   -13854.673   -10937.414   -14564.948    1568.0836   -4100.5561   -4220.7384    83.161989 
   22600    315.81218   -107.54213   0.28575349   -107.25637    7472.4342    4.3567196    4.3567196    4.3567196    7472.4342    12550.919    17794.445   -7928.0622   -4972.6023   -2210.1991    3960.4666    82.694919 
   22700     401.1252   -107.61821   0.36294651   -107.25526    -8841.502    4.3698724    4.3698724    4.3698724    -8841.502    6779.2557   -7699.6649   -25604.097    1804.5899   -403.73073     -1519.31    83.446143 
   22800    275.87633   -107.50545    0.2496187   -107.25583    8352.8673    4.3553357    4.3553357    4.3553357    8352.8673     14285.54    20345.402   -9572.3404   -448.98699   -8188.1328    1803.8498    82.616144 
   22900    556.19696   -107.75884    0.5032587   -107.25559   -10508.305    4.3686335    4.3686335    4.3686335   -10508.305   -7916.2018    -12471.66   -11137.054   -3135.3077    1946.5876    3063.0386    83.375189 
   23000    386.34778   -107.60587   0.34957559   -107.25629    2855.8609    4.3587061    4.3587061    4.3587061    2855.8609    14709.341    5907.5175   -12049.275    789.14513    117.00862    1452.2038    82.808086 
   23100    286.62011   -107.51668    0.2593399   -107.25734   -2629.4384    4.3617303    4.3617303    4.3617303   -2629.4384    8536.9425    1813.3099   -18238.568    2042.0064   -1489.9392   -1741.3287    82.980572 
   23200    422.93225   -107.63681   0.38267798   -107.25413   -2793.8121    4.3676819    4.3676819    4.3676819   -2793.8121    17454.017   -7217.2927   -18618.161    5297.7294    3443.0722    1362.6977    83.320721 
   23300    412.02746   -107.62649    0.3728111   -107.25368    8450.0426    4.3548253    4.3548253    4.3548253    8450.0426      5563.84    21236.818   -1450.5304    88.760601   -6732.2188   -120.60235    82.587102 
   23400    517.24381   -107.72246   0.46801307   -107.25444    -13489.37    4.3721189    4.3721189    4.3721189    -13489.37    427.96139   -14288.924   -26607.148       1357.3   -4077.5397   -797.22517    83.574906 
   23500    270.56723   -107.50043   0.24481491   -107.25562    14968.419    4.3541559    4.3541559    4.3541559    14968.419    21578.004    26083.494   -2756.2404    -4783.117   -850.71376   -607.28045    82.549019 
   23600     422.1474   -107.63966   0.38196784    -107.2577   -7630.7913    4.3651072    4.3651072    4.3651072   -7630.7913    11523.784   -11720.607   -22695.551    3713.9426   -5632.2386   -510.24176    83.173452 
   23700    421.68397   -107.63769   0.38154852   -107.25615     3041.817    4.3650817    4.3650817    4.3650817     3041.817    9683.1604    8382.5566   -8940.2661   -2772.3365    3128.4585     -4102.22    83.171997 
   23800    509.60934    -107.7171   0.46110524     -107.256    4512.2159    4.3538936    4.3538936    4.3538936    4512.2159    13824.322     5078.428   -5366.1023    1064.8829   -1583.2579    1989.0922      82.5341 
   23900    234.80626   -107.46993   0.21245764   -107.25747   -9635.8434    4.3746084    4.3746084    4.3746084   -9635.8434    3313.6601    2313.7077   -34534.898   -1487.0002   -3582.6215     -3263.13    83.717753 
   24000    421.98035    -107.6336   0.38181669   -107.25179    12446.695     4.351196     4.351196     4.351196    12446.695    31513.275    10292.823   -4466.0133   -3478.0579    644.63528    -1236.245     82.38079 
   24100    368.49293   -107.58841   0.33342015   -107.25499   -3477.8035    4.3698819    4.3698819    4.3698819   -3477.8035     10849.07   -3553.9987   -17728.481    4112.4977   -5991.8541    1424.2976    83.446685 
   24200    516.93222   -107.72228   0.46773113   -107.25455   -3567.5329    4.3579577    4.3579577    4.3579577   -3567.5329   -2328.1774    4060.3334   -12434.755    153.24291    2197.0507   -2484.5832    82.765442 
   24300    351.88457   -107.57648   0.31839256   -107.25809    406.05972    4.3630989    4.3630989    4.3630989    406.05972    15920.255      634.504    -15336.58    973.99957    680.92075    2329.5933    83.058706 
   24400    294.18661   -107.52528   0.26618622   -107.25909   -2933.6994    4.3644314    4.3644314    4.3644314   -2933.6994      5960.27    4216.8277   -18978.196   -2141.2848   -5605.7687    370.02992    83.134829 
   24500    523.15598   -107.73006   0.47336252    -107.2567    2362.3662    4.3580975    4.3580975    4.3580975    2362.3662    23407.979   -7790.6788   -8530.2011   -52.945697    4799.4428   -1037.7551    82.773407 
   24600     389.2992    -107.6092    0.3522461   -107.25696   -6114.7191    4.3680803    4.3680803    4.3680803   -6114.7191     -12535.9    13592.755   -19401.013   -93.754832   -6826.8121    1014.4689    83.343521 
   24700    408.18817   -107.62397   0.36933723   -107.25463   -1505.3638    4.3535703    4.3535703    4.3535703   -1505.3638    10829.469    3717.1955   -19062.755    4775.3644   -85.860714    2117.6291    82.515716 
   24800    357.04869   -107.57854   0.32306516   -107.25547   -7689.2833    4.3724383    4.3724383    4.3724383   -7689.2833   -525.43089    4534.7149   -27077.134    166.99512    3212.9963   -945.91539    83.593221 
   24900    385.36513   -107.60365   0.34868646   -107.25496    10829.713    4.3514056    4.3514056    4.3514056    10829.713    32663.835    6103.3139   -6278.0118    131.64219   -3862.1241    3505.6953    82.392692 
   25000    412.45169   -107.62995   0.37319496   -107.25676    -11861.83    4.3725699    4.3725699    4.3725699    -11861.83   -5562.5446   -3874.4902   -26148.454   -1169.6079    2956.5243    943.64914     83.60077 
   25100    423.32965   -107.63767   0.38303756   -107.25463    -1590.514     4.356665     4.356665     4.356665    -1590.514    6495.4846    9465.3367   -20732.363   -2287.9386   -6984.4264    582.86708    82.691812 
   25200    328.15585   -107.55252   0.29692231    -107.2556   -533.68249     4.361338     4.361338     4.361338   -533.68249   -278.65729    6246.1972   -7568.5874    2789.8553   -3555.3902   -460.23964    82.958185 
   25300    455.23816   -107.66649   0.41190906   -107.25458   -2505.3322    4.3677678    4.3677678    4.3677678   -2505.3322    21976.776   -7796.7788   -21695.994   -996.25906    621.74264   -2682.5414    83.325637 
   25400    411.09143   -107.62731   0.37196416   -107.25534    10851.539    4.3530683    4.3530683    4.3530683    10851.539    16911.377    16335.529   -692.29015   -3675.3554   -3665.2886    -631.0322     82.48718 
   25500    308.49041   -107.53547   0.27912861   -107.25634   -7502.5679    4.3718586    4.3718586    4.3718586   -7502.5679    5312.1013    1435.5655   -29255.371    53.481103    3636.8884   -2296.9172    83.559978 
   25600    543.64798   -107.74504   0.49190412   -107.25314   -3202.2003    4.3557824    4.3557824    4.3557824   -3202.2003   -1372.5237    6807.4423    -15041.52    3792.0497   -1403.2788   -1005.8933    82.641563 
   25700    301.11714   -107.53007   0.27245712   -107.25761    3061.8371    4.3652997    4.3652997    4.3652997    3061.8371    18164.614    4779.9259   -13759.029    3339.0796   -1937.4792    -1182.046    83.184461 
   25800    442.77215   -107.65746   0.40062955   -107.25683   -1391.9143    4.3602438    4.3602438    4.3602438   -1391.9143    20470.831   -8839.2851   -15807.289    4864.2868    1499.3709    3174.1278     82.89576 
   25900    327.94541   -107.55327    0.2967319   -107.25654    1643.6578    4.3615168    4.3615168    4.3615168    1643.6578     19980.31    11193.878   -26243.214    2333.1962     -2089.69    422.11981    82.968386 
   26000     475.8333   -107.68603   0.43054397   -107.25549   -7638.9673    4.3647793    4.3647793    4.3647793   -7638.9673   -3024.2539   -7056.3452   -12836.303   -189.07861    1354.6571    1579.9075    83.154714 
   26100    429.68522   -107.64548   0.38878822   -107.25669    9014.9175    4.3572869    4.3572869    4.3572869    9014.9175    18245.023    14330.917   -5531.1878    1013.4078   -1416.6144    3749.0536    82.727226 
   26200    372.17178   -107.59389   0.33674885   -107.25714   -5503.1214    4.3691498    4.3691498    4.3691498   -5503.1214    19535.651   -11454.555    -24590.46    945.69123   -1865.4738    1407.6016    83.404755 
   26300    283.84516   -107.51197   0.25682907   -107.25514    8403.6649    4.3533891    4.3533891    4.3533891    8403.6649      16123.6    11318.766   -2231.3716    2691.1861   -674.86126   -246.98408    82.505415 
   26400    487.31655   -107.69422   0.44093426   -107.25329   -11884.189    4.3698674    4.3698674    4.3698674   -11884.189   -3862.7668   -6878.8538   -24910.945   -1748.5206   -2330.4759    4333.7579    83.445855 
   26500    490.63742   -107.69764   0.44393905   -107.25371   -361.27344    4.3578162    4.3578162    4.3578162   -361.27344    -294.9978    4495.3442   -5284.1667   -1250.2343   -1144.7116   -2272.4452    82.757379 
   26600    364.58142   -107.58767   0.32988093   -107.25779      1894.91    4.3618644    4.3618644    4.3618644      1894.91    16824.407    2137.0345   -13276.712     1589.309     2858.619   -1442.5045    82.988224 
   26700    296.45557   -107.52513   0.26823923    -107.2569   -5184.4756    4.3683464    4.3683464    4.3683464   -5184.4756    14178.425    917.51396   -30649.365    3825.4616   -1691.8511    -470.2707    83.358752 
   26800    396.24121   -107.61335   0.35852737   -107.25482    7230.4132     4.351481     4.351481     4.351481    7230.4132    15366.177     17144.51   -10819.447    621.90297    636.67533   -1577.3287    82.396976 
   26900    526.06944   -107.73007   0.47599869   -107.25407   -14833.554    4.3730361    4.3730361    4.3730361   -14833.554   -18855.963   -8867.3096    -16777.39    1511.5856   -1076.1197    1758.8842    83.627516 
   27000    396.30219   -107.61224   0.35858255   -107.25365    5186.9669    4.3526349    4.3526349    4.3526349    5186.9669    20696.085     7581.758   -12716.943   -1086.6054   -2044.2639   -1585.2782     82.46254 
   27100    280.27053   -107.51057   0.25359467   -107.25698   -3892.0068    4.3670898    4.3670898    4.3670898   -3892.0068    16321.452   -5708.3094   -22289.163    1113.5363    4180.9429    3974.2576    83.286837 
   27200    390.46342   -107.60828   0.35329951   -107.25498    4892.8124     4.361375     4.361375     4.361375    4892.8124    23108.589    2294.5104   -10724.662   -1145.2273    2267.0474   -1070.7171    82.960297 
   27300     577.7212   -107.77609   0.52273428   -107.25336   -4901.4854    4.3604222    4.3604222    4.3604222   -4901.4854   -4275.3811   -80.189465   -10348.886    2407.3834     2548.171     2655.447    82.905937 
   27400    305.00094     -107.531   0.27597126   -107.25502    511.89497    4.3663075    4.3663075    4.3663075    511.89497    11606.437    5374.4507   -15445.203    3220.2616    2196.5793    1884.6786    83.242087 
   27500    417.01896    -107.6301   0.37732752   -107.25277    2815.5046    4.3554269    4.3554269    4.3554269    2815.5046    18524.255    2620.7815   -12698.523   -4146.3298    -5469.356   -742.51045    82.621329 
   27600    207.91373   -107.44491   0.18812472   -107.25679    4187.3659    4.3677236    4.3677236    4.3677236    4187.3659    31109.683     7030.734   -25578.319   -1745.7312    474.82164    83.108909    83.323103 
   27700    652.46482   -107.84541   0.59036388   -107.25504   -2336.6139    4.3558592    4.3558592    4.3558592   -2336.6139    3385.3559   -5954.2276     -4440.97   -642.58249    496.38224   -573.36939    82.645938 
   27800    314.55772    -107.5425   0.28461844   -107.25788    16.948084    4.3668305    4.3668305    4.3668305    16.948084    15074.912    8180.6696   -23204.737    839.39149    341.01351   -1068.2683    83.272001 
   27900    373.59435   -107.59439   0.33803602   -107.25635   -4798.2196    4.3608578    4.3608578    4.3608578   -4798.2196    14810.277   -5686.5951    -23518.34    133.56702    7689.0119    504.19073    82.930785 
   28000    367.59363   -107.58848   0.33260644   -107.25587    13730.622    4.3564294    4.3564294    4.3564294    13730.622    36539.123    14281.955   -9629.2118    1003.2676   -924.02233   -1517.8469    82.678394 
   28100    507.43856   -107.71454   0.45914107    -107.2554   -13199.221    4.3709776    4.3709776    4.3709776   -13199.221   -8871.0337   -5143.0009   -25583.627   -863.92614    1494.9881   -1290.9839    83.509474 
   28200    424.18684   -107.63766   0.38381316   -107.25385    7553.1914    4.3515017    4.3515017    4.3515017    7553.1914    15797.679    14749.134   -7887.2389    2555.7901     1956.216    1438.4624    82.398152 
   28300    336.28348    -107.5588   0.30427636   -107.25452   -8651.9876     4.371315     4.371315     4.371315   -8651.9876    12727.505   -6770.2303   -31913.237    4258.2914   -2458.0218   -2997.7802    83.528814 
   28400    326.73568      -107.55   0.29563731   -107.25436    4884.7717    4.3553451    4.3553451    4.3553451    4884.7717    26402.198    3822.3215   -15570.204   -1383.9169    7212.5751     1811.925    82.616678 
   28500    560.03826   -107.76168   0.50673438   -107.25495    -5673.035    4.3647694    4.3647694    4.3647694    -5673.035    3059.0409   -4422.6466   -15655.499    2547.4478    20.200328   -294.86094    83.154145 
   28600    363.91526   -107.58623   0.32927817   -107.25695   -5739.9453    4.3609615    4.3609615    4.3609615   -5739.9453   -4850.1651    6440.8663   -18810.537   -2290.9417    642.06852   -1104.6293    82.936701 
   28700    305.33625   -107.53486   0.27627466   -107.25858   -2168.5227    4.3589629    4.3589629    4.3589629   -2168.5227     4710.365    8244.0212   -19459.954    1923.9476    4121.4441    2384.5058    82.822726 
   28800    351.58417    -107.5758   0.31812074   -107.25767    3940.6701    4.3657613    4.3657613    4.3657613    3940.6701    29843.975   -2487.4418   -15534.523    2190.7639   -6915.2574    540.59824    83.210848 
   28900    429.08103   -107.64605   0.38824153    -107.2578    3171.2014    4.3567983    4.3567983    4.3567983    3171.2014    12656.322     4059.757   -7202.4747    1506.9447    4997.2767    -628.8278    82.699398 
   29000    453.18979   -107.66559   0.41005564   -107.25554   -7813.7382    4.3674455    4.3674455    4.3674455   -7813.7382    2023.9067   -5308.3838   -20156.737   -1109.1601    2185.0395    1985.2232    83.307187 
   29100    362.42311   -107.58225   0.32792804   -107.25432    1646.5027    4.3548831    4.3548831    4.3548831    1646.5027    10104.964    5702.2812   -10867.737   -2250.6001     1847.067   -1189.8294     82.59039 
   29200    344.65374   -107.56919   0.31184995   -107.25734   -6273.4784    4.3671641    4.3671641    4.3671641   -6273.4784    16316.889   -8193.8208   -26943.503    2110.7146    8452.0524    -793.6397    83.291088 
   29300    479.72835   -107.68918    0.4340683   -107.25512    9723.9336    4.3572263    4.3572263    4.3572263    9723.9336    27116.514    10974.883   -8919.5961    -440.8504   -4058.7372    2762.8486    82.723776 
   29400    441.50859   -107.65708   0.39948625   -107.25759   -2158.0874    4.3615873    4.3615873    4.3615873   -2158.0874    15151.174    -340.3089   -21285.127    1940.0198    1371.4511   -282.54622     82.97241 
   29500    307.63983   -107.53577   0.27835899   -107.25741   -6273.9792    4.3654641    4.3654641    4.3654641   -6273.9792    1231.0202     9091.091   -29144.049   -372.59842    2703.2274    395.81679    83.193858 
   29600     496.6347   -107.70406   0.44936551   -107.25469    8443.8655    4.3527061    4.3527061    4.3527061    8443.8655    32208.747   -1589.0066   -5288.1437    2384.9606   -1511.3257    1602.6226     82.46659 
   29700    294.24401   -107.52337   0.26623816   -107.25713   -4891.9786     4.372819     4.372819     4.372819   -4891.9786    9356.8119    456.81616   -24489.564   -1427.9907    11398.835    2037.3323    83.615061 
   29800    480.54974   -107.68757   0.43481151   -107.25276    10193.451     4.347118     4.347118     4.347118    10193.451    20617.721    7439.9339    2522.6973    2177.7665    3390.0521   -3219.0596    82.149382 
   29900    426.45163   -107.64038    0.3858624   -107.25452   -16023.645    4.3735678    4.3735678    4.3735678   -16023.645   -13635.191   -8049.6954   -26386.048   -491.16126    28.224079    809.99313    83.658024 
   30000    270.44349   -107.50104   0.24470296   -107.25634    13030.993    4.3514435    4.3514435    4.3514435    13030.993    22534.866     17601.02   -1042.9076   -5203.7662    4082.4448   -1297.8525    82.394845 
   30100    531.40177   -107.73548   0.48082349   -107.25466   -4334.6261    4.3677528    4.3677528    4.3677528   -4334.6261    13919.556   -12893.085   -14030.349   -2477.9302   -7026.9985   -3212.9213    83.324778 
   30200    286.18945   -107.51386   0.25895022   -107.25491    3495.3924    4.3603014    4.3603014    4.3603014    3495.3924    14961.142    13072.062   -17547.027   -6375.7243    3192.9048   -70.585609    82.899045 
   30300    389.82601   -107.60647   0.35272277   -107.25375   -5158.5165    4.3548641    4.3548641    4.3548641   -5158.5165     5021.408   -980.53314   -19516.424   -2854.5402    4704.3656    1035.1802    82.589309 
   30400    489.54796   -107.69727   0.44295328   -107.25432   -13032.963    4.3711292    4.3711292    4.3711292   -13032.963   -6983.7616   -6825.3659   -25289.761    1222.2665   -293.53255   -1904.1674     83.51816 
   30500    397.51262   -107.61591   0.35967777   -107.25623    7861.5829      4.34877      4.34877      4.34877    7861.5829    23134.934    6425.9434   -5976.1288   -4887.0298    10231.525    1449.5606    82.243071 
   30600    377.22708   -107.59779   0.34132299   -107.25647   -7780.2889    4.3720798    4.3720798    4.3720798   -7780.2889    17004.946   -11620.101   -28725.712    653.27959    -956.2414     937.2645    83.572663 
   30700    372.08232   -107.59006    0.3366679    -107.2534    4072.5942      4.35484      4.35484      4.35484    4072.5942    14882.221    10874.553   -13538.991    -2130.052    1645.1443   -1746.1646    82.587936 
   30800    382.81944   -107.60144   0.34638307   -107.25506   -4906.4316    4.3606219    4.3606219    4.3606219   -4906.4316   -4903.0813    3081.5615   -12897.775    1757.3013    7237.4547     1346.945    82.917325 
   30900     500.3766   -107.70574   0.45275126   -107.25299   -2606.7504    4.3668693    4.3668693    4.3668693   -2606.7504    15276.528   -9369.0778   -13727.701    766.18995   -322.84651    1771.3104    83.274224 
   31000    319.92732   -107.54255   0.28947697   -107.25307    10816.718    4.3522952    4.3522952    4.3522952    10816.718    21932.251    16062.411   -5544.5088    442.57448     7684.777   -0.1181519    82.443236 
   31100    312.39688   -107.53745   0.28266326   -107.25478   -8993.6939     4.367859     4.367859     4.367859   -8993.6939    13036.495    -9285.255   -30732.322    2197.7856    4394.0241   -1391.2273    83.330853 
   31200    485.15437   -107.69213   0.43897787   -107.25315    4388.9576    4.3544777    4.3544777    4.3544777    4388.9576    13850.475    8366.6465   -9050.2491   -1937.9733   -2825.6621    759.43467    82.567324 
   31300    427.65773   -107.64212    0.3869537   -107.25517   -10200.411    4.3677308    4.3677308    4.3677308   -10200.411   -5527.3142   -4983.5201     -20090.4    689.31666    5598.2149   -550.99894    83.323514 
   31400      455.481   -107.66513   0.41212878   -107.25301    2699.7243    4.3552436    4.3552436    4.3552436    2699.7243    18860.532    3347.1262   -14108.486   -6608.8826   -704.43976   -422.49974    82.610898 
   31500    267.45992   -107.49754   0.24200336   -107.25553   -169.91161    4.3657166    4.3657166    4.3657166   -169.91161    18448.188      7504.24   -26462.163     5592.515    3679.7935    1272.3323    83.208296 
   31600     415.7477   -107.63327   0.37617726   -107.25709   -2708.5516    4.3550748    4.3550748    4.3550748   -2708.5516   -4301.4826    7539.6004   -11363.773   -2124.6202    9268.2838   -263.52201    82.601298 
   31700    466.48032   -107.67951    0.4220812   -107.25743   -116.70077    4.3622709    4.3622709    4.3622709   -116.70077     472.4632     7494.631   -8317.1965    207.12075   -1689.6412   -4693.6685    83.011428 
   31800     409.1288   -107.62519   0.37018834     -107.255   -8835.3254    4.3642376    4.3642376    4.3642376   -8835.3254   -11346.736    4438.1232   -19597.363   -554.62373    5503.2221    2267.6676    83.123754 
   31900      351.206   -107.57062   0.31777857   -107.25284    5051.7517    4.3510838    4.3510838    4.3510838    5051.7517    13117.912    11032.179   -8994.8359   -3338.7432   -988.94881   -1031.7397    82.374413 
   32000    326.58548   -107.54853   0.29550141   -107.25303   -7253.6077    4.3733314    4.3733314    4.3733314   -7253.6077   -4190.6508    10534.968    -28105.14    8640.1471   -1211.9151    812.20064    83.644455 
   32100    469.64074   -107.67686   0.42494082   -107.25192    6421.5352    4.3473515    4.3473515    4.3473515    6421.5352    5646.7669    15819.385   -2201.5464   -250.78011    4600.3569    6899.1729    82.162618 
   32200    355.31437   -107.57541   0.32149591   -107.25392   -4674.4279    4.3692049    4.3692049    4.3692049   -4674.4279    -15011.58    22011.553   -21023.257    2585.9827   -3247.9346    196.86654    83.407909 
   32300    414.65236   -107.62768   0.37518617    -107.2525   -6405.5645    4.3583013    4.3583013    4.3583013   -6405.5645    -5398.791    12221.121   -26039.024   -1205.5258    7405.8996   -71.672627    82.785018 
   32400    416.29062   -107.63062    0.3766685   -107.25396    3386.8158    4.3551205    4.3551205    4.3551205    3386.8158   -3082.1227    22007.931   -8765.3605   -2669.9291     2099.688    464.75149    82.603895 
   32500    422.33693   -107.63421   0.38213933   -107.25207    -5284.421    4.3705728    4.3705728    4.3705728    -5284.421   -5978.2408    5571.1169   -15446.139    1366.4243   -642.77596   -2461.0707    83.486276 
   32600    373.52879   -107.58933    0.3379767   -107.25136    10512.052    4.3490403    4.3490403    4.3490403    10512.052    7741.5773    29515.163   -5720.5842    2495.2132    7889.0686   -1199.0836    82.258409 
   32700    297.04334   -107.52337   0.26877106    -107.2546   -4084.1208    4.3688779    4.3688779    4.3688779   -4084.1208   -5540.4109    12931.585   -19643.537    2145.6605   -4084.3163    3644.8913    83.389182 
   32800    465.16764   -107.67463   0.42089345   -107.25373   -3481.1573    4.3540983    4.3540983    4.3540983   -3481.1573   -4570.5154     7984.555   -13857.512   -3247.3578    6221.2951   -764.20613    82.545744 
   32900    439.93542   -107.65367   0.39806281   -107.25561   -2583.6467    4.3601947    4.3601947    4.3601947   -2583.6467    -10499.34    11048.251   -8299.8504   -788.68834    4872.9943   -274.79579    82.892959 
   33000    443.24317   -107.65548   0.40105573   -107.25442   -6528.6855     4.363471     4.363471     4.363471   -6528.6855   -655.43455   -5376.3524    -13554.27   -498.33726   -1405.7908    735.36958    83.079962 
   33100    269.41485   -107.49944   0.24377222   -107.25567    4170.6156    4.3548437    4.3548437    4.3548437    4170.6156    4832.9908    31054.027   -23375.171    2372.3326    7600.5551   -1391.2641    82.588147 
   33200     363.6879    -107.5846   0.32907246   -107.25553   -1849.3786     4.366836     4.366836     4.366836   -1849.3786    10100.967    2439.1082   -18088.211    5577.5321   -2045.6903    1718.3104    83.272314 
   33300    441.56293   -107.65409   0.39953542   -107.25455    1889.5286    4.3542176    4.3542176    4.3542176    1889.5286   -2095.7488    8455.4257   -691.09109   -7556.0476   -653.91966    2578.4671    82.552531 
   33400     454.6415   -107.66491   0.41136918   -107.25354   -10701.748    4.3635008    4.3635008    4.3635008   -10701.748   -6900.3012   -7120.7923   -18084.151    2561.4009    2803.9162   -2050.2287    83.081665 
   33500    363.77596   -107.58196   0.32915214   -107.25281     1261.254    4.3594829    4.3594829    4.3594829     1261.254    9946.9315   -1678.4189   -4484.7505    -3500.135   -2013.5817    1744.8454    82.852371 
   33600    361.21747   -107.58105   0.32683715   -107.25421   -2507.3243    4.3588422    4.3588422    4.3588422   -2507.3243    -976.8324    8925.3944   -15470.535    809.43334    3438.4244   -2804.3819    82.815848 
   33700    400.68586   -107.61588   0.36254899   -107.25333     4180.607    4.3630715    4.3630715    4.3630715     4180.607    15983.277    7385.7214   -10827.177      4314.99   -395.91552   -2319.6228    83.057143 
   33800     422.9729   -107.63543   0.38271476   -107.25272   -394.22298    4.3574847    4.3574847    4.3574847   -394.22298   -3874.9715    7212.2653   -4519.9628   -6018.1395    4529.2625   -1462.8947    82.738492 
   33900    310.36847   -107.53472   0.28082792   -107.25389   -3436.0909     4.361396     4.361396     4.361396   -3436.0909    11722.056    1648.0248   -23678.354    1415.6759    4303.7655   -28.338823    82.961495 
   34000    484.51198   -107.69086   0.43839662   -107.25246   -3826.5211    4.3616634    4.3616634    4.3616634   -3826.5211    11488.672   -4549.7847    -18418.45   -4128.9278   -1825.3864    2673.8859    82.976756 
   34100    477.41782   -107.68525   0.43197768   -107.25327    1048.1766    4.3560237    4.3560237    4.3560237    1048.1766    1332.3718    3622.6381   -1810.4801    913.18492    9311.2676   -117.70952    82.655299 
   34200     305.1207   -107.53031   0.27607962   -107.25423    1094.6133    4.3652881    4.3652881    4.3652881    1094.6133    17020.111    4614.8196    -18351.09    2356.4617    545.92348    3419.3288    83.183798 
   34300    418.01938   -107.63088   0.37823272   -107.25265    2766.4967    4.3551932    4.3551932    4.3551932    2766.4967    -1667.442    16724.008   -6757.0758   -802.78898   -3350.9339    -2027.934    82.608033 
   34400    239.07519   -107.47159   0.21632025   -107.25527    5882.3888    4.3630149    4.3630149    4.3630149    5882.3888    20864.822    12355.407   -15573.063   -3208.3049     6589.566   -849.48622    83.053912 
   34500    576.08337   -107.77372   0.52125234   -107.25247   -2658.4371    4.3605244    4.3605244    4.3605244   -2658.4371    6130.3959   -2176.6334   -11929.074   -464.19742   -7288.2772    1495.1764    82.911767 
   34600    448.11875   -107.65945   0.40546726   -107.25398    5972.7177    4.3547202    4.3547202    4.3547202    5972.7177    10860.426    5657.3672    1400.3598    3295.3469   -1740.7054   -2824.3953    82.581119 
   34700    251.79685   -107.48265   0.22783108   -107.25481   -4266.0578    4.3680843    4.3680843    4.3680843   -4266.0578    12144.453    967.99217   -25910.619   -4209.5699    3742.2078    955.19676     83.34375 
   34800     484.6407    -107.6895   0.43851309   -107.25099    4625.3728    4.3510931    4.3510931    4.3510931    4625.3728    1516.5066    24914.272    -12554.66    1120.4014   -4999.2748    1508.0478    82.374942 
   34900    321.22729    -107.5454    0.2906532   -107.25475     4412.097    4.3662384    4.3662384    4.3662384     4412.097    17009.028    9833.2279   -13605.965   -6074.2224    4012.5177   -4661.7977    83.238133 
   35000    488.23918   -107.69503   0.44176907   -107.25326   -600.08166    4.3583136    4.3583136    4.3583136   -600.08166   -2184.3315    11798.897    -11414.81   -3604.1267   -337.25892    418.58218    82.785718 
   35100    400.46509   -107.61562   0.36234923   -107.25327    1323.5187    4.3562726    4.3562726    4.3562726    1323.5187    7851.6376    7350.1251   -11231.207    5696.4597    -590.1805   -1370.2439    82.669468 
   35200    293.53592   -107.51881   0.26559747   -107.25322    68.011864    4.3675507    4.3675507    4.3675507    68.011864    1394.3684    13444.656   -14634.989   -6259.7579    2972.4168   -1273.4501    83.313211 
   35300    552.60165   -107.75008   0.50000559   -107.25008    6153.9942    4.3521412    4.3521412    4.3521412    6153.9942   -3061.6664    28774.044   -7250.3946   -444.31597   -3573.8142    3688.6123    82.434487 
   35400    354.38196    -107.5755   0.32065224   -107.25485    4830.3034    4.3634645    4.3634645    4.3634645    4830.3034    8392.1903    13852.988   -7754.2683   -6267.4077    5931.8513    1991.1181    83.079589 
   35500    311.76132     -107.536   0.28208819   -107.25391   -450.80733    4.3616482    4.3616482    4.3616482   -450.80733    1769.6425    12904.339   -16026.403   -5449.0389    -2432.186    1250.5763    82.975886 
   35600    448.95747   -107.65831   0.40622616   -107.25208    363.66725     4.353978     4.353978     4.353978    363.66725    8271.0363    10675.623   -17855.657     7166.806   -1646.8989   -1151.6115    82.538905 
   35700    360.72203   -107.58059   0.32638888    -107.2542    24.778963    4.3674943    4.3674943    4.3674943    24.778963   -4811.1958    22045.814   -17160.281   -4070.6615    4908.0433   -920.37514    83.309982 
   35800    594.96319   -107.79216    0.5383352   -107.25383   -1997.2047    4.3536963    4.3536963    4.3536963   -1997.2047   -6250.7874    9017.2381   -8758.0649    1409.5885   -9530.2416    -5099.196    82.522885 
   35900    250.61294    -107.4843   0.22675986   -107.25754    5976.9217    4.3601211    4.3601211    4.3601211    5976.9217    14699.227    21629.732   -18398.195   -7233.3535    2472.7834    121.99325    82.888762 
   36000    306.71758   -107.53303   0.27752451   -107.25551    -2670.705    4.3645273    4.3645273    4.3645273    -2670.705    7695.4535    326.41072   -16033.979   -2704.3217    132.86382   -2456.1876     83.14031 
   36100    507.25862   -107.71052   0.45897826   -107.25154    6651.5415    4.3521519    4.3521519    4.3521519    6651.5415    17357.793    8168.7327    -5571.901    2535.8157   -4954.4226   -2477.0403    82.435095 
   36200    407.42405   -107.62201   0.36864585   -107.25337   -1790.4024    4.3658077    4.3658077    4.3658077   -1790.4024   -7003.2595     14141.21   -12509.157   -5492.8292    7746.0519   -913.92701    83.213502 
   36300    477.06075    -107.6844   0.43165459   -107.25275   -8317.0084    4.3579956    4.3579956    4.3579956   -8317.0084   -9983.3839   -4529.7963   -10437.845   -41.213975    -3465.959    2916.5056    82.767602 
   36400    239.88496   -107.47283   0.21705295   -107.25577    7896.4934    4.3557033    4.3557033    4.3557033    7896.4934    21778.791    20893.878   -18983.189   -3987.7991   -330.09623   -1146.9125    82.637063 
   36500    463.84002   -107.67523    0.4196922   -107.25554   -7154.8916    4.3666247    4.3666247    4.3666247   -7154.8916    1900.4716   -4381.5551   -18983.591    2910.2298    5355.4573    3327.9807    83.260231 
   36600    373.11916   -107.59155   0.33760606   -107.25394    11542.825    4.3534365    4.3534365    4.3534365    11542.825    25855.006    16789.499   -8016.0297   -3496.2085   -5035.7111    834.20787     82.50811 
   36700    446.77324   -107.65813   0.40424981   -107.25388   -10588.802    4.3622416    4.3622416    4.3622416   -10588.802   -9718.5839    1932.1823   -23980.005    468.17116    2509.3139   -1053.9514    83.009756 
   36800    359.84206   -107.57924   0.32559266   -107.25364   -10105.287    4.3629426    4.3629426    4.3629426   -10105.287   -8117.1554   -2794.0234   -19404.681   -1418.0001   -172.32018    444.13196    83.049785 
   36900    400.71333   -107.61551   0.36257384   -107.25293    8414.4277    4.3532944    4.3532944    4.3532944    8414.4277    14610.657    16420.074   -5787.4484   -1068.4773    -4737.364   -2952.4961    82.500033 
   37000    516.45101   -107.72049   0.46729573    -107.2532   -7721.4433    4.3663949    4.3663949    4.3663949   -7721.4433     7383.014     -9716.15   -20831.194   -3103.9942    499.69422   -1861.9965    83.247084 
   37100    206.49191   -107.44164   0.18683822   -107.25481    12334.433    4.3553493    4.3553493    4.3553493    12334.433    22952.824    21764.314   -7713.8384   -6229.0122   -5814.2013     -3874.18    82.616913 
   37200    465.64084   -107.67446   0.42132162   -107.25314   -9855.4704    4.3602066    4.3602066    4.3602066   -9855.4704   -2400.1415   -7835.1165   -19331.153    959.07083   -1624.2982   -3754.9653    82.893641 
   37300    365.65938   -107.58656    0.3308563   -107.25571   -3793.9878    4.3626734    4.3626734    4.3626734   -3793.9878   -6303.0786    10458.702   -15537.586   -5116.5989   -505.38826     2144.004    83.034412 
   37400    543.52289   -107.74611   0.49179093   -107.25432   -2470.6417    4.3557353    4.3557353    4.3557353   -2470.6417   -70.582016    1619.6301   -8960.9731     536.4577   -3300.7449   -3222.7556    82.638881 
   37500    359.93873   -107.58031   0.32568013   -107.25463   -3271.5547    4.3634127    4.3634127    4.3634127   -3271.5547    11460.147     181.8942   -21456.706    348.95033    5274.3425    1836.8995     83.07663 
   37600    238.09343   -107.47012   0.21543194   -107.25468    1080.1553    4.3577246    4.3577246    4.3577246    1080.1553    11590.585     14201.15   -22551.269   -2694.0232   -2833.9438    826.98811    82.752162 
   37700    424.27288   -107.63784   0.38389101   -107.25395   -142.46261    4.3588295    4.3588295    4.3588295   -142.46261    7767.9127    2627.5336   -10822.834    736.11325   -3433.2872   -1286.3371    82.815123 
   37800    475.35323   -107.68348    0.4301096   -107.25337   -1399.2512    4.3620524    4.3620524    4.3620524   -1399.2512   -7388.1767    15517.242   -12326.818    -1970.644    1664.1573    2501.5298    82.998956 
   37900     515.6524   -107.71975   0.46657312   -107.25318   -7138.1516    4.3574065    4.3574065    4.3574065   -7138.1516   -10974.466    2345.9631   -12785.952   -1004.3662   -8080.3683   -5113.2444    82.734037 
   38000    253.31927   -107.48433    0.2292086   -107.25512    984.97765    4.3621093    4.3621093    4.3621093    984.97765    1973.2655     17272.94   -16291.272   -40.751358    1762.1582   -106.65098    83.002208 
   38100    461.84278   -107.67283   0.41788505   -107.25494   -670.90737    4.3557018    4.3557018    4.3557018   -670.90737    8506.4637    31.866617   -10551.052   -381.26413   -2082.4745   -3336.1589    82.636975 
   38200    320.01268   -107.54624    0.2895542   -107.25669    4030.4477    4.3638629    4.3638629    4.3638629    4030.4477    5941.1689    22732.489   -16582.315   -8566.4751    -4540.593   -50.849219    83.102347 
   38300    444.70597    -107.6558   0.40237931   -107.25342    4570.5977    4.3554386    4.3554386    4.3554386    4570.5977    14449.808    10974.383   -11712.398   -3564.7755    4715.0597    610.30039    82.621997 
   38400    330.38844   -107.55368   0.29894241   -107.25474   -5031.9699    4.3613934    4.3613934    4.3613934   -5031.9699   -10487.981    20601.562    -25209.49   -1857.4059   -7211.8143    564.21637    82.961348 
   38500    429.94247   -107.64131   0.38902098   -107.25229   -7238.6885    4.3625582    4.3625582    4.3625582   -7238.6885   -1029.0791   -3770.4448   -16916.542   -734.48972   -1198.6849   -117.52529    83.027832 
   38600     535.8086   -107.73683   0.48481088   -107.25202    3772.4997     4.352456     4.352456     4.352456    3772.4997   -2177.1873    13724.539   -229.85266    4719.2124     2509.547    872.64071    82.452374 
   38700    370.47618   -107.59083   0.33521464   -107.25561   -8072.7955    4.3678782    4.3678782    4.3678782   -8072.7955   -1791.5477    4211.7078   -26638.547   -6497.3531   -6034.4137   -1477.9865    83.331954 
   38800    336.84479   -107.55926   0.30478425   -107.25447    10809.048    4.3511574    4.3511574    4.3511574    10809.048    24935.274    14186.241   -6694.3697    1126.0171    2782.7463   -2763.9151    82.378595 
   38900    324.19198   -107.54924   0.29333572   -107.25591    -211.4694    4.3629784    4.3629784    4.3629784    -211.4694   -162.63815    15782.832   -16254.602   -4682.8112   -1025.0926    -1184.041    83.051825 
   39000    470.21229   -107.67841   0.42545796   -107.25295   -7027.9995    4.3620421    4.3620421    4.3620421   -7027.9995    7062.0279   -15239.198   -12906.829    1147.0984   -4784.2626   -3601.3202    82.998372 
   39100    517.02094   -107.71928   0.46781141   -107.25146    4349.7325    4.3519681    4.3519681    4.3519681    4349.7325    6581.3969    15236.364    -8768.563    2433.0874   -1626.4157   -4960.1579    82.424651 
   39200    320.74039   -107.54491   0.29021264    -107.2547    -10108.21    4.3666447    4.3666447    4.3666447    -10108.21    8335.3004   -11194.512   -27465.419   -1078.3842   -7422.3158    683.70461    83.261375 
   39300    396.81997   -107.61342   0.35905105   -107.25437    270.26881    4.3556478    4.3556478    4.3556478    270.26881    12768.919    3967.0682   -15925.181   -5136.5243   -945.02726   -4467.5478    82.633906 
   39400    362.96339   -107.58346    0.3284169   -107.25505    9616.5493    4.3578243    4.3578243    4.3578243    9616.5493    18321.969    12975.879      -2448.2   -3754.6028   -3214.3355    98.770759    82.757839 
   39500    408.19894   -107.62451   0.36934698   -107.25516    -10281.13    4.3659485    4.3659485    4.3659485    -10281.13   -6066.9242   -2344.5157   -22431.951    -1036.198   -1995.6193   -224.78717    83.221553 
   39600     438.6906   -107.64974   0.39693647    -107.2528    10367.399    4.3503903    4.3503903    4.3503903    10367.399    19610.461    14948.336   -3456.5998    3526.6025    3153.9729   -3674.6161    82.335033 
   39700    381.97831       -107.6   0.34562201   -107.25437   -8324.4649     4.365677     4.365677     4.365677   -8324.4649    7260.5241   -16682.618     -15551.3    1761.7121    -4211.489    2192.5472    83.206032 
   39800    369.20297   -107.58851    0.3340626   -107.25445   -1441.7214    4.3564208    4.3564208    4.3564208   -1441.7214    9741.1736   -7786.4328   -6279.9049   -4856.5855    1810.1331   -4704.6633    82.677905 
   39900      481.939   -107.68921   0.43606854   -107.25314     3935.559    4.3567071    4.3567071    4.3567071     3935.559    18203.223     240.8524   -6637.3986    601.16602    824.19392   -29.135585    82.694209 
   40000    347.86009   -107.56944   0.31475112   -107.25469   -9682.8211    4.3655621    4.3655621    4.3655621   -9682.8211   -7193.6098    1967.6415   -23822.495   -2237.2703   -6242.7837   -272.19028    83.199462 
   40100    370.21801   -107.58813   0.33498104   -107.25315    9080.2755    4.3517126    4.3517126    4.3517126    9080.2755    30453.316    5169.0354   -8381.5254    3164.2261    1545.3173   -3040.5106    82.410131 
   40200    456.48617   -107.66673   0.41303828   -107.25369   -6730.6991    4.3650619    4.3650619    4.3650619   -6730.6991   -36.649418   -8092.6661   -12062.782    4122.9995   -7048.4828    929.42287    83.170867 
   40300    279.95747    -107.5085   0.25331141   -107.25519    2027.5889    4.3550111    4.3550111    4.3550111    2027.5889      18823.5   -8469.3897   -4271.3438   -5995.4087   -6002.8049   -486.48916     82.59767 
   40400    557.27438   -107.75829   0.50423357   -107.25406   -3957.6358    4.3596417    4.3596417    4.3596417   -3957.6358    2076.5088   -3033.4789   -10915.937     745.0159    1802.4415   -2359.4593    82.861423 
   40500    385.81633   -107.60488   0.34909473   -107.25579   -2986.9772    4.3607037    4.3607037    4.3607037   -2986.9772    4395.3518   -3827.9843   -9528.2993     -2124.46    -7249.099   -1159.7765    82.921996 
   40600    272.66352   -107.50312   0.24671168   -107.25641    4264.1775    4.3545239    4.3545239    4.3545239    4264.1775    18766.951   -2880.5726   -3093.8459    2503.6511    3488.2113   -3396.6812    82.569955 
   40700    484.49412   -107.69258   0.43838046    -107.2542   -4854.4155     4.364714     4.364714     4.364714   -4854.4155   -1818.6088    1100.1066   -13844.744    533.82171    891.79113   -903.58967     83.15098 
   40800    280.03616   -107.51001    0.2533826   -107.25662    2563.5407    4.3526011    4.3526011    4.3526011    2563.5407    11982.558    5602.8748   -9894.8111   -1782.0062   -5755.7455   -2388.1935    82.460623 
   40900    540.44942   -107.74582   0.48900999   -107.25681    -10262.12    4.3647236    4.3647236    4.3647236    -10262.12   -9064.8128   -494.25858   -21227.287    -5391.727    1956.0577   -1672.0888    83.151528 
   41000    450.61231   -107.66488   0.40772349   -107.25715    4057.6821    4.3551437    4.3551437    4.3551437    4057.6821    13890.789    854.05706      -2571.8   -237.22551   -1807.8122    350.10349    82.605213 
   41100    263.89765   -107.49655   0.23878014   -107.25777     657.8548    4.3568434    4.3568434    4.3568434     657.8548    4099.7622    4845.9011   -6972.0989    4203.9879   -4229.3999   -7514.1156    82.701968 
   41200    395.17805   -107.61025    0.3575654   -107.25268   -1768.6024    4.3668644    4.3668644    4.3668644   -1768.6024    6391.0407    6756.2319    -18453.08    550.24462    2021.9728      1422.65    83.273941 
   41300    381.54474   -107.59783    0.3452297    -107.2526    12147.958    4.3462502    4.3462502    4.3462502    12147.958    13766.402    15578.796    7098.6742    3886.6033   -3287.5791   -2622.9774    82.100192 
   41400    465.12143   -107.67444   0.42085164   -107.25359   -13784.148    4.3720042    4.3720042    4.3720042   -13784.148   -18420.628    -1624.269   -21307.547   -3584.9317   -3712.1681    -3899.828    83.568329 
   41500    501.14287   -107.70383    0.4534446   -107.25038    9542.8585    4.3499596    4.3499596    4.3499596    9542.8585    12246.671     10139.78    6242.1247    -566.3555   -960.18807    6284.3818    82.310582 
   41600    236.39545   -107.46805   0.21389557   -107.25415   -653.66996    4.3596039    4.3596039    4.3596039   -653.66996   -9106.9856    21057.839   -13911.863    3592.2325   -3398.8728   -3687.6222    82.859269 
   41700    407.87281   -107.62225   0.36905189    -107.2532   -3063.2977    4.3652008    4.3652008    4.3652008   -3063.2977    6909.8569    7569.7539   -23669.504    337.07171    422.02714   -2039.3832    83.178805 
   41800    476.80118   -107.68385   0.43141972   -107.25243      13829.3    4.3465938    4.3465938    4.3465938      13829.3    16476.017    22066.127    2945.7566    2289.6625   -768.52794    1927.7253    82.119663 
   41900    330.33365   -107.55305   0.29889283   -107.25415   -10894.794    4.3710274    4.3710274    4.3710274   -10894.794   -12555.702   -2651.4886   -17477.191   -6880.3129    871.18318   -7848.5648    83.512326 
   42000    456.87421   -107.66321   0.41338939   -107.24982     4754.733    4.3525521    4.3525521    4.3525521     4754.733    4384.2461    14567.404   -4687.4507    -2443.864    2446.6883   -224.99614    82.457835 
   42100    316.09628    -107.5393   0.28601056   -107.25329    5252.0337    4.3574052    4.3574052    4.3574052    5252.0337   -9399.3272    30690.962   -5535.5338    613.18145   -3944.7992   -2085.3625    82.733968 
   42200      526.415   -107.73173   0.47631135   -107.25542   -10145.164    4.3658577    4.3658577    4.3658577   -10145.164   -2365.2938   -10739.872   -17330.327   -241.56532    157.08475   -7061.9062    83.216363 
   42300     445.0413   -107.65631   0.40268272   -107.25363    15686.798    4.3476135    4.3476135    4.3476135    15686.798    9862.6801    28208.172    8989.5411    6548.0925   -2973.9334     1506.782    82.177473 
   42400    261.90963   -107.49223   0.23698134   -107.25525   -11685.954     4.369015     4.369015     4.369015   -11685.954    659.40792   -11554.859   -24162.411   -6873.5485   -5125.3136   -6253.5863    83.397033 
   42500    336.83083   -107.55758   0.30477161   -107.25281    6713.2503    4.3526746    4.3526746    4.3526746    6713.2503    13820.294    16790.047    -10470.59    495.17864    2933.2007    1825.5635    82.464799 
   42600    527.69881   -107.73226   0.47747298   -107.25479   -1297.1028    4.3583125    4.3583125    4.3583125   -1297.1028   -2155.2479    12889.582   -14625.642   -565.23935   -3989.0754    1300.3429    82.785656 
   42700    425.92717   -107.64268   0.38538785   -107.25729   -7408.5771    4.3641171    4.3641171    4.3641171   -7408.5771     -566.211   -9684.9001    -11974.62    4135.1925    207.35998   -2311.9172    83.116873 
   42800    458.92494   -107.66897   0.41524493   -107.25373    4529.2302    4.3500437    4.3500437    4.3500437    4529.2302    3680.8274    14351.533   -4444.6695   -1618.9178    1623.8845   -1040.2108    82.315358 
   42900    234.01018   -107.46757   0.21173733   -107.25583   -6171.9623    4.3683533    4.3683533    4.3683533   -6171.9623    7374.9069   -4407.7043   -21483.089    -1865.716   -4673.5121   -4150.9075    83.359146 
   43000    363.36084    -107.5832   0.32877653   -107.25443    10195.969    4.3509299    4.3509299    4.3509299    10195.969    15018.243    16640.342    -1070.678   -7557.5857    2531.8743   -4680.2802    82.365677 
   43100    558.17826   -107.75924   0.50505142   -107.25419   -3414.0188    4.3611012    4.3611012    4.3611012   -3414.0188    4386.4849   -2519.2652   -12109.276   -973.72057   -1873.8941   -3492.9507    82.944672 
   43200    325.20318     -107.549   0.29425067   -107.25475    -6560.634    4.3623427    4.3623427    4.3623427    -6560.634   -5238.2097   -4278.2255   -10165.467    5371.8825   -3611.7564   -5623.4263    83.015527 
   43300    416.73628   -107.63036   0.37707175   -107.25329    2601.1901    4.3502036    4.3502036    4.3502036    2601.1901    5360.8197    9959.8482   -7517.0977   -4408.6947    3681.2175    1132.4235    82.324436 
   43400    341.31823   -107.56541   0.30883191   -107.25658   -4147.8956    4.3668029    4.3668029    4.3668029   -4147.8956    2240.1035    8620.9399    -23304.73    2934.5457   -3414.0699   -2869.6184    83.270423 
   43500    470.28694   -107.68066   0.42552551   -107.25514    6792.2584     4.352544     4.352544     4.352544    6792.2584    12604.324    11223.105    -3450.654   -8167.6516   -2361.0329   -2760.6405    82.457378 
   43600    400.50137   -107.61651   0.36238206   -107.25413    -46.64403    4.3605272    4.3605272    4.3605272    -46.64403     7909.317    5547.0872   -13596.336    3802.3984    1017.7064    3253.7884    82.911925 
   43700    356.75083   -107.57711   0.32279565   -107.25432   -10195.507    4.3600805    4.3600805    4.3600805   -10195.507   -9255.4353   -4161.8493   -17169.237    1934.2865   -3749.4977   -5666.5501    82.886449 
   43800    399.07532   -107.61644   0.36109174   -107.25535    3362.8227    4.3549119    4.3549119    4.3549119    3362.8227     4021.606    6126.9415   -60.079549    261.10371    2200.3005    2540.3446    82.592029 
   43900     459.6962   -107.67167   0.41594278   -107.25572    1001.5676    4.3616115    4.3616115    4.3616115    1001.5676    88.690074    16975.325   -14059.312   -2467.7161    2767.4585    1530.4949    82.973794 
   44000    378.51953   -107.59778   0.34249243   -107.25529    4732.7336    4.3568921    4.3568921    4.3568921    4732.7336    14172.319    5848.7152   -5822.8332   -4151.8786    1452.7714   -5938.0323    82.704742 
   44100     326.6555   -107.54914   0.29556476   -107.25357    3781.3049    4.3583314    4.3583314    4.3583314    3781.3049    7307.4348    15342.657   -11306.177    1050.7838     1968.206    1801.2425    82.786734 
   44200    428.14922   -107.64148   0.38739841   -107.25408   -11387.275    4.3596582    4.3596582    4.3596582   -11387.275   -6849.0937   -8615.3836   -18697.348    71.254196   -2692.4128   -3992.6211    82.862363 
   44300    443.66598   -107.65669   0.40143831   -107.25525    1946.4041    4.3575596    4.3575596    4.3575596    1946.4041    3603.3481    7799.5379   -5563.6737    4512.8328   -455.29617   -5427.4445    82.742761 
   44400    480.72245    -107.6896   0.43496777   -107.25463   -195.50977    4.3590796    4.3590796    4.3590796   -195.50977    2779.3276    10677.596   -14043.453   -7455.6524   -3401.7596    3245.1376    82.829377 
   44500    233.82262   -107.46796   0.21156762   -107.25639    3312.5522    4.3569466    4.3569466    4.3569466    3312.5522    20080.871    6920.9011   -17064.115   -2301.1053   -2690.0236   -6439.0785    82.707848 
   44600    385.29259   -107.60366   0.34862084   -107.25504    1252.9141    4.3607006    4.3607006    4.3607006    1252.9141    6178.7928    3661.7286   -6081.7793   -2819.2049     463.8359     494.2161    82.921818 
   44700    443.94752   -107.65778   0.40169304   -107.25609   -1333.3593    4.3554947    4.3554947    4.3554947   -1333.3593    5738.7425   -2819.0758   -6919.7447    4612.5583   -3283.1177    289.44114    82.625189 
   44800    528.20255    -107.7341   0.47792876   -107.25617   -4889.5542    4.3613853    4.3613853    4.3613853   -4889.5542   -570.37446   -5578.1598   -8520.1283    2911.1989    148.99185   -8004.1748     82.96088 
   44900    419.59405   -107.63405   0.37965751   -107.25439    3431.2494    4.3579193    4.3579193    4.3579193    3431.2494     18794.82    1868.1084    -10369.18     -1688.79    1467.6188    3591.2029    82.763252 
   45000      209.982   -107.44621   0.18999613   -107.25621    1462.0145    4.3552585    4.3552585    4.3552585    1462.0145    13756.762    7692.1021   -17062.821   -3097.0168    -527.5668   -5965.6709    82.611747 
   45100     419.0105   -107.63432    0.3791295   -107.25519   -3567.3306    4.3653024    4.3653024    4.3653024   -3567.3306    8898.7827   -4358.3775   -15242.397   -1226.4128    1306.7687    378.88618    83.184616 
   45200    465.88143    -107.6756   0.42153931   -107.25406    7731.8017    4.3504512    4.3504512    4.3504512    7731.8017    12950.515    13150.314   -2905.4239    4555.4226   -151.24646    1337.9219    82.338494 
   45300    428.23817   -107.64299    0.3874789   -107.25551   -11420.645    4.3648226    4.3648226    4.3648226   -11420.645    7679.9806   -15580.307   -26361.607    993.79978   -2281.3772   -3882.1862     83.15719 
   45400    389.65322   -107.60571   0.35256642   -107.25314    6168.7221    4.3571175    4.3571175    4.3571175    6168.7221    23143.526   -1071.6107   -3565.7485   -613.32438   -953.42102    3197.6603    82.717582 
   45500     349.0021   -107.57013   0.31578443   -107.25435   -322.42598    4.3544924    4.3544924    4.3544924   -322.42598    8977.2022   -1632.8378   -8311.6423   -4991.7003   -629.32443   -4279.8012    82.568159 
   45600    427.99095   -107.64253   0.38725521   -107.25528   -7558.4823    4.3663345    4.3663345    4.3663345   -7558.4823   -1635.2562   -5507.8156   -15532.375   -3226.2607   -2845.3329   -1704.1958     83.24363 
   45700    507.88159   -107.71251   0.45954193   -107.25297    8837.1888     4.350691     4.350691     4.350691    8837.1888    12314.688    16737.447   -2540.5678   -535.93952    3255.2986     1612.292     82.35211 
   45800    256.28162   -107.48849     0.231889    -107.2566   -8692.9424    4.3644157    4.3644157    4.3644157   -8692.9424    12277.146   -9620.7707   -28735.203     6370.315    -3479.569   -5906.3385    83.133932 
   45900    387.63466   -107.60487   0.35073998   -107.25413    3050.9624    4.3569964    4.3569964    4.3569964    3050.9624    21175.698   -4493.7204   -7529.0908    2073.5591   -1660.3617    443.71223    82.710682 
   46000    438.01263   -107.65096   0.39632303   -107.25464   -1403.7321    4.3557112    4.3557112    4.3557112   -1403.7321    5477.1289   -1257.1631   -8431.1622   -2410.2586    4638.3646   -697.59531    82.637513 
   46100    457.13271   -107.67079   0.41362328   -107.25717   -11771.837    4.3618033    4.3618033    4.3618033   -11771.837   -6095.1861    -6727.195    -22493.13     1534.995   -6566.0294   -7485.1749    82.984737 
   46200    425.74013   -107.64164   0.38521861   -107.25642    4843.5625    4.3561252    4.3561252    4.3561252    4843.5625    16251.122    7821.1096   -9541.5441   -574.39933    2605.1693    3070.0845     82.66108 
   46300     288.7657   -107.51911   0.26128127   -107.25783   -4677.1934    4.3596782    4.3596782    4.3596782   -4677.1934    10691.925   -7777.5543   -16945.951    2989.3936   -1175.0018   -6908.9512    82.863503 
   46400     292.7446   -107.52106   0.26488147   -107.25618    1644.3561    4.3586772    4.3586772    4.3586772    1644.3561    17110.328    1231.5746   -13408.834    2236.4048   -7192.2897   -1275.6193    82.806441 
   46500    550.88128   -107.75188   0.49844896   -107.25343   -4964.3219    4.3589149    4.3589149    4.3589149   -4964.3219   -2092.6762   -3354.4199   -9445.8695    -5228.014    1895.9773    2689.4531    82.819989 
   46600    373.80537   -107.59416   0.33822695   -107.25593   -5326.2564    4.3579032    4.3579032    4.3579032   -5326.2564      10626.5   -2543.5341   -24061.736   -3100.0045    -4524.867   -6950.0312    82.762334 
   46700    468.19776   -107.67813   0.42363517   -107.25449   -1534.5384    4.3587021    4.3587021    4.3587021   -1534.5384    7727.8592   -2139.8364   -10191.638    2416.5578   -1107.0511    4147.0978     82.80786 
   46800    290.04143   -107.51832   0.26243558   -107.25588    794.52731    4.3594536    4.3594536    4.3594536    794.52731    18385.914    2.0332828   -16004.365    2300.0485     2952.479   -4744.4061    82.850698 
   46900    344.35078   -107.56807   0.31157582   -107.25649   -846.89072     4.354793     4.354793     4.354793   -846.89072    168.12709    11382.951    -14091.75    3481.5747   -5406.1864   -3370.3754    82.585262 
   47000    539.26165   -107.74205   0.48793527   -107.25412    -5438.461    4.3642781    4.3642781    4.3642781    -5438.461    5692.3278    50.176193   -22057.887    1715.4895    1936.2808    823.26269    83.126072 
   47100    361.42482   -107.58234   0.32702477   -107.25531    3639.6966     4.352694     4.352694     4.352694    3639.6966    17440.329    2097.4844   -8618.7232   -6483.0254   -2799.4466   -5902.0931      82.4659 
   47200    423.32532   -107.63727   0.38303365   -107.25424   -5782.1996    4.3613237    4.3613237    4.3613237   -5782.1996    11701.188   -14770.789   -14276.998    93.496635   -4580.1024   -463.87806     82.95737 
   47300    332.66844   -107.55574    0.3010054   -107.25473    3303.3142    4.3597496    4.3597496    4.3597496    3303.3142    16885.457    4413.8617   -11389.377    2778.7413    2451.7866   -1068.0105    82.867579 
   47400    447.50803   -107.66172   0.40491467   -107.25681   -309.82182    4.3527718    4.3527718    4.3527718   -309.82182    4480.2059    6352.4624   -11762.134   -759.21011   -1645.9376   -3860.0339    82.470324 
   47500    460.49513   -107.67218   0.41666567   -107.25551   -2717.0437    4.3670156    4.3670156    4.3670156   -2717.0437     5783.453    6957.1996   -20891.784   -1400.1783   -2089.5077    931.55083    83.282592 
   47600    413.01964   -107.62719   0.37370885   -107.25348    6315.6217    4.3495981    4.3495981    4.3495981    6315.6217    16524.439    6055.9912   -3633.5653   -1475.7297    1796.7787   -3425.3736    82.290061 
   47700    206.54993   -107.44298   0.18689071   -107.25608   -3133.7882    4.3640889    4.3640889    4.3640889   -3133.7882    24345.471   -12593.344   -21153.491   -2906.7346   -5851.6138     -581.415    83.115259 
   47800    545.80412   -107.74666   0.49385504    -107.2528   -4188.7839    4.3565655    4.3565655    4.3565655   -4188.7839    169.54369   -500.88134   -12235.014    4868.0911   -1715.2064    463.87637    82.686146 
   47900    433.46103   -107.64753   0.39220465   -107.25533   -1325.9328    4.3565527    4.3565527    4.3565527   -1325.9328    12957.488   -1599.9381   -15335.349    2950.6925    1543.2362   -4377.3263    82.685419 
   48000    472.60017   -107.68143   0.42761856   -107.25381   -8379.5755    4.3629082    4.3629082    4.3629082   -8379.5755   -5655.2377   -6781.8807   -12701.608   -1804.9182   -4981.0551    5322.7835    83.047819 
   48100    267.08176     -107.495   0.24166119   -107.25334    9190.0871     4.354028     4.354028     4.354028    9190.0871    24857.862    11854.479   -9142.0796   -2368.7785     4781.927   -4456.0446    82.541745 
   48200    303.61511   -107.52992   0.27471733   -107.25521   -3091.0733    4.3609536    4.3609536    4.3609536   -3091.0733    7597.1816   -1541.6816    -15328.72   -7282.2188    -5641.814    -1274.863    82.936248 
   48300     496.3721   -107.70309   0.44912791   -107.25396    1297.8697    4.3567506    4.3567506    4.3567506    1297.8697    3241.2996     11524.54   -10872.231   -422.89999   -2453.6758    1484.7507    82.696683 
   48400    507.07433   -107.71311   0.45881151   -107.25429   -6655.7948     4.359339     4.359339     4.359339   -6655.7948    2226.2492   -11195.753   -10997.881    479.54134    4124.3601   -5496.4044    82.844165 
   48500     295.6002   -107.52381   0.26746527   -107.25635   -7473.2797    4.3580073    4.3580073    4.3580073   -7473.2797   -578.75832   -8220.5228   -13620.558    2111.0441   -9585.6469    1286.9941    82.768268 
   48600    377.97121   -107.59734   0.34199629   -107.25534    481.66728    4.3574906    4.3574906    4.3574906    481.66728    15172.319    -2499.371   -11227.947   -2185.3062    3615.4223   -2558.5735    82.738832 
   48700    420.15835   -107.63563   0.38016811   -107.25546   -6060.1719    4.3617277    4.3617277    4.3617277   -6060.1719    1604.6292    2030.1301   -21815.275   -2210.5048   -4173.5482   -244.81559    82.980425 
   48800    403.53506   -107.61902     0.365127    -107.2539    6627.0588    4.3530448    4.3530448    4.3530448    6627.0588     5669.465    19414.238   -5202.5265   -1656.2522   -8490.8957   -298.84829    82.485844 
   48900    477.05938   -107.68452   0.43165335   -107.25287   -10171.668    4.3644556    4.3644556    4.3644556   -10171.668   -5103.1356   -5657.3715   -19754.497    4964.4634    2740.2049   -159.74924    83.136211 
   49000     165.1882   -107.40554   0.14946576   -107.25608       6687.4    4.3531844    4.3531844    4.3531844       6687.4    17578.139    9269.6484   -6785.5871    2593.2198   -9927.1264   -325.99589    82.493775 
   49100     544.5965   -107.74727   0.49276236   -107.25451   -5633.7171    4.3602314    4.3602314    4.3602314   -5633.7171    4061.6402   -10277.153   -10685.638   -1920.4109    158.11423    730.99209     82.89505 
   49200    462.87946   -107.67344   0.41882306   -107.25462   -5497.8665     4.361009     4.361009     4.361009   -5497.8665    5098.5446   -6446.3177   -15145.826   -1031.7878   -4705.0385   -161.09852     82.93941 
   49300    371.77097   -107.59023   0.33638618   -107.25385   -1778.1661    4.3521443    4.3521443    4.3521443   -1778.1661   -4913.5863     4456.977    -4877.889   -3786.7943   -6906.6231    974.74761    82.434661 
   49400    391.82198   -107.60821   0.35452876   -107.25369   -7144.7028    4.3659865    4.3659865    4.3659865   -7144.7028    3312.4688   -6071.1161   -18675.461    3500.9105    3373.9597   -821.43863     83.22373 
   49500    270.39549   -107.50013   0.24465952   -107.25547    11029.512    4.3508759    4.3508759    4.3508759    11029.512    18838.633    24636.895   -10386.992    5121.8404   -7156.8644   -1577.2724    82.362605 
   49600    458.78006   -107.67055   0.41511384   -107.25544   -3014.5864    4.3627305    4.3627305    4.3627305   -3014.5864    5603.6515   -1039.6516   -13607.759    3692.9146    62.779187    2000.8153    83.037672 
   49700     460.2439    -107.6689   0.41643835   -107.25246   -2717.5642    4.3585041    4.3585041    4.3585041   -2717.5642    6979.7994     -924.072    -14208.42   -2940.2314   -424.96889   -3631.1342    82.796575 
   49800    361.22043   -107.57939   0.32683983   -107.25255   -9212.1147    4.3567283    4.3567283    4.3567283   -9212.1147   -12965.673   -3251.4034   -11419.268   -2697.0604   -6323.8153    710.17628    82.695417 
   49900    452.96793    -107.6628    0.4098549   -107.25294   -1889.1096    4.3611075    4.3611075    4.3611075   -1889.1096    7360.8656   -7051.3587   -5976.8356    -507.3304    1779.0315   -2913.0568    82.945034 
   50000    402.47142   -107.61949    0.3641646   -107.25532    5185.8689    4.3550246    4.3550246    4.3550246    5185.8689    12546.896    16244.325   -13233.615    1601.6157   -3019.7355   -398.78787    82.598437 
   50100    338.90613   -107.56359   0.30664939   -107.25694    4356.7335    4.3593816    4.3593816    4.3593816    4356.7335    19039.844    3843.0347   -9812.6787    3847.2898   -3624.4981   -656.66361    82.846594 
   50200    419.89098   -107.63377   0.37992618   -107.25385    2989.1171    4.3582797    4.3582797    4.3582797    2989.1171    843.85217    17829.617   -9706.1175    2119.9224    615.06189   -1478.9515     82.78379 
   50300    381.76328   -107.59978   0.34542744   -107.25435   -5452.1492    4.3580959    4.3580959    4.3580959   -5452.1492     -4258.28    1285.5979   -13383.766   -3950.4348   -5897.7772    1859.7875    82.773317 
   50400    478.95308   -107.68664   0.43336681   -107.25327   -528.38477    4.3592864    4.3592864    4.3592864   -528.38477    2407.7423    5646.7456   -9639.6422    1090.3191   -1778.8851    331.03445    82.841166 
   50500    409.08087   -107.62352   0.37014497   -107.25338    3686.9806    4.3570611    4.3570611    4.3570611    3686.9806    18332.223     6698.478   -13969.759    4133.7546   -2231.5835   -775.24093    82.714366 
   50600    337.81991   -107.56094   0.30566655   -107.25527   -3748.9162    4.3597559    4.3597559    4.3597559   -3748.9162    5506.7979    3350.1365   -20103.683    1274.2161   -5873.5964     1878.329    82.867938 
   50700    389.66871   -107.60712   0.35258044   -107.25454    9182.7759    4.3554324    4.3554324    4.3554324    9182.7759    4564.8892    21161.966    1821.4729    5228.0579    1665.0583   -465.94782    82.621642 
   50800    420.90315   -107.63582   0.38084201   -107.25498   -7484.1471    4.3620145    4.3620145    4.3620145   -7484.1471   -9227.5776    6364.5835   -19589.447   -4258.2231   -3844.3049   -2741.9347    82.996792 
   50900    450.32138   -107.66142   0.40746025   -107.25396    4884.8825    4.3546781    4.3546781    4.3546781    4884.8825    3600.0743    14238.036   -3183.4632   -5143.6701   -4665.8382      1186.67    82.578722 
   51000     442.2165    -107.6534   0.40012678   -107.25327    224.66219    4.3595769    4.3595769    4.3595769    224.66219    20582.233   -8236.4648   -11671.781    2246.7084    1420.6728   -2220.0114    82.857732 
   51100    274.04027   -107.50514    0.2479574   -107.25718   -7273.9124    4.3596646    4.3596646    4.3596646   -7273.9124   -11021.354    6075.1775   -16875.561    4049.8571   -8916.8828    565.11115    82.862728 
   51200     456.1593   -107.66894   0.41274252    -107.2562    5909.3605    4.3533791    4.3533791    4.3533791    5909.3605    7396.8157    11046.569   -715.30346   -1256.6942    374.73991   -1447.2938    82.504847 
   51300    384.37511   -107.60398   0.34779068   -107.25619   -8810.3587     4.364552     4.364552     4.364552   -8810.3587   -14973.305    8140.7306   -19598.502     3660.512   -3486.4425    664.10828    83.141725 
   51400    429.96907   -107.64272   0.38904505   -107.25368    2894.5379      4.35272      4.35272      4.35272    2894.5379    10387.697    10870.085   -12574.169   -4060.6994   -6060.1285   -2206.5923    82.467381 
   51500    441.35707   -107.65199   0.39934915   -107.25264   -1938.3898    4.3617926    4.3617926    4.3617926   -1938.3898    8950.1106   -8387.0559    -6378.224   -2126.7314    460.43588    649.07581    82.984125 
   51600    241.57996   -107.47375   0.21858663   -107.25517    -2047.375    4.3559007    4.3559007    4.3559007    -2047.375   -7401.4596    8287.2264   -7027.8917    7841.3581   -10214.776   -2808.0014    82.648298 
   51700    510.33938   -107.71543   0.46176579   -107.25366   -2939.1386     4.359767     4.359767     4.359767   -2939.1386   -7001.5231    6660.7987   -8476.6914    -298.0024   -93.903659    1770.7752    82.868568 
   51800    386.69139   -107.60521   0.34988649   -107.25532    4101.2331    4.3561539    4.3561539    4.3561539    4101.2331   -3418.3843    15153.713    568.37045    1455.7305   -3235.9906    1267.6978    82.662712 
   51900    378.56471    -107.5986   0.34253331   -107.25606   -8295.0682     4.360222     4.360222     4.360222   -8295.0682   -6302.6332    -3743.104   -14839.467   -1297.4324   -6984.7688   -1817.2593    82.894519 
   52000    429.11094   -107.64034   0.38826859   -107.25207    5058.4589    4.3578492    4.3578492    4.3578492    5058.4589    11018.201    2958.7483    1198.4271   -1628.0798    4082.0134    2545.7442    82.759258 
   52100    289.44551   -107.51684   0.26189638   -107.25494    -3734.377    4.3563948    4.3563948    4.3563948    -3734.377   -1989.6969    1124.1859    -10337.62    3540.1454    -6878.526   -2232.2619    82.676426 
   52200    475.86483   -107.68693    0.4305725   -107.25636   -3063.3057    4.3611269    4.3611269    4.3611269   -3063.3057   -10339.698    16168.682   -15018.902    4847.9411   -4453.6087   -368.63483    82.946139 
   52300    474.83339   -107.68733   0.42963923   -107.25769    5821.4514    4.3528067    4.3528067    4.3528067    5821.4514    8723.8504    11902.699   -3162.1951   -1246.7852    147.00134   -1764.2173    82.472307 
   52400    259.52093   -107.49368   0.23481999   -107.25886   -5879.1455    4.3611864    4.3611864    4.3611864   -5879.1455   -19022.777    10653.798   -9268.4579   -3225.6261   -10193.829    1368.3678    82.949536 
   52500    430.05142   -107.64182   0.38911957    -107.2527    4388.0252    4.3589381    4.3589381    4.3589381    4388.0252    14439.445    5650.7788   -6926.1484   -1282.0635    1083.9869    -552.2342    82.821313 
   52600    416.83813   -107.63091    0.3771639   -107.25375    4911.2467    4.3520017    4.3520017    4.3520017    4911.2467     6400.925    7571.5322     761.2828   -2114.5223   -3392.8298   -441.79026    82.426557 
   52700     435.0691   -107.64868   0.39365966   -107.25502   -5836.0126    4.3672708    4.3672708    4.3672708   -5836.0126   -4488.5395    7507.5518    -20527.05    4749.2045   -4937.4578   -406.22353    83.297193 
   52800    522.50516   -107.72445   0.47277365   -107.25168    10714.438    4.3480936    4.3480936    4.3480936    10714.438    10637.071    14129.965    7376.2789    4024.4845    2184.2676   -745.59961    82.204701 
   52900    165.80408   -107.40743   0.15002302   -107.25741   -6063.4034    4.3639443    4.3639443    4.3639443   -6063.4034   -23030.506    21110.733   -16270.437   -2026.0004   -8819.5498   -3080.5797    83.106996 
   53000    455.29462   -107.66616   0.41196014    -107.2542    2578.9304    4.3574321    4.3574321    4.3574321    2578.9304    11216.854    5800.4353   -9280.4982    -28.14453    855.36921    2163.9614    82.735499 
   53100    504.42189   -107.71052   0.45641153    -107.2541    8646.8432    4.3503453    4.3503453    4.3503453    8646.8432    15749.131    15529.189   -5337.7911    1256.9402   -2138.6455   -150.68243    82.332479 
   53200    378.45473    -107.5974   0.34243379   -107.25496   -12751.714    4.3697928    4.3697928    4.3697928   -12751.714   -6613.7438   -10253.176   -21388.223    3949.5022   -5987.7591    762.19446    83.441582 
   53300    504.52982   -107.70677   0.45650919   -107.25026     11467.27    4.3459801    4.3459801    4.3459801     11467.27    8360.7549     20121.62    5919.4368    1789.5411    1978.9149    441.01923    82.084886 
   53400    201.32393   -107.43902   0.18216212   -107.25685   -7393.1458    4.3679842    4.3679842    4.3679842   -7393.1458   -13010.801    12079.661   -21248.297    -1799.957   -6732.2105   -1407.4833    83.338022 
   53500    488.34462   -107.69651   0.44186447   -107.25465    5616.8713    4.3526583    4.3526583    4.3526583    5616.8713    5852.2428    14391.662   -3393.2907   -7327.0582   -3047.9432   -540.80633    82.463871 
   53600    433.00719   -107.64603   0.39179401   -107.25423    7616.5497    4.3563038    4.3563038    4.3563038    7616.5497    18610.766    11656.747   -7417.8642   -656.36262   -1344.6305   -3951.3931    82.671242 
   53700    341.50665   -107.56386    0.3090024   -107.25486   -15570.537    4.3653494    4.3653494    4.3653494   -15570.537   -15342.373   -16109.698   -15259.541    3077.2272   -7186.8862   -1129.2676    83.187301 
   53800     406.1224   -107.62013   0.36746808   -107.25266    9014.6814    4.3482471    4.3482471    4.3482471    9014.6814    8124.0825    13913.233    5006.7286     4803.867    2631.9289   -306.78859    82.213409 
   53900    438.16964   -107.65055    0.3964651   -107.25409   -10868.279    4.3668732    4.3668732    4.3668732   -10868.279   -6773.7852   -2656.0016    -23175.05    2050.6898   -4776.1518     562.6343    83.274442 
   54000    383.39549    -107.6017    0.3469043   -107.25479    7431.6016    4.3536442    4.3536442    4.3536442    7431.6016    7709.7494    20641.839   -6056.7831   -474.95963   -896.89285   -1308.0463    82.519918 
   54100    411.50753   -107.62593   0.37234066   -107.25359    2593.4414    4.3571801    4.3571801    4.3571801    2593.4414    7323.7696    6925.1502   -6468.5958   -2687.0487    1913.5374    1669.6063    82.721144 
   54200    265.47077   -107.49579   0.24020353   -107.25559   -15058.163    4.3631407    4.3631407    4.3631407   -15058.163   -22100.556   -2733.1215   -20340.812   -165.57879   -9363.9731   -172.89088    83.061094 
   54300    468.46053   -107.67728   0.42387293   -107.25341    4626.3986    4.3506499    4.3506499    4.3506499    4626.3986    5248.9632    508.68796    8121.5447    7088.1362    2433.6117   -1218.8748    82.349773 
   54400    582.77352   -107.78121   0.52730572    -107.2539   -11296.594    4.3650123    4.3650123    4.3650123   -11296.594   -12144.672    -487.9934   -21257.117   -3098.0031   -5150.8697    3026.3515    83.168028 
   54500    285.02581    -107.5146   0.25789734    -107.2567    10751.432     4.352417     4.352417     4.352417    10751.432     12391.22    20357.458   -494.38072     -275.046   -3655.6604    955.20603    82.450156 
   54600    368.50414   -107.58758   0.33343029   -107.25414    165.48524    4.3614154    4.3614154    4.3614154    165.48524    142.24821    10976.887    -10622.68   -4763.3345    1677.8744   -924.57072    82.962601 
   54700    200.78899   -107.43739    0.1816781   -107.25571   -1282.3046    4.3579654    4.3579654    4.3579654   -1282.3046   -6900.9738    17623.405   -14569.345   -1848.6863   -8184.9025    1077.6509    82.765879 
   54800    627.23495   -107.82224   0.56753536    -107.2547   -4251.2156    4.3552436    4.3552436    4.3552436   -4251.2156   -2207.1891   -4457.0253   -6089.4324    5120.9168    884.15579   -3792.8748    82.610898 
   54900    490.10502   -107.69867   0.44345732   -107.25521   -6543.6241    4.3645915    4.3645915    4.3645915   -6543.6241   -13921.553    8281.6386   -13990.958    4223.4917   -4779.6661    -90.84507    83.143977 
   55000    353.78362   -107.57334   0.32011086   -107.25323     931.6067    4.3492973    4.3492973    4.3492973     931.6067   -3434.9314    13476.363    -7246.612   -2303.2537   -7242.6655   -1748.7615    82.272991 
   55100    253.10729   -107.48253   0.22901679   -107.25351      6146.14    4.3651193    4.3651193    4.3651193      6146.14    5280.5166     19092.31   -5934.4064   -1655.6558    2480.9402   -1811.3564    83.174145 
   55200    410.42149   -107.62628   0.37135799   -107.25492    3722.7209    4.3529581    4.3529581    4.3529581    3722.7209    6324.6142    15234.845   -10391.297   -3628.3771   -6909.9839    2746.4969    82.480916 
   55300    473.42859   -107.68536   0.42836814   -107.25699    2316.8122    4.3583407    4.3583407    4.3583407    2316.8122    2804.4871    11365.138   -7219.1882   -1945.6624    -1045.006   -1979.7148    82.787265 
   55400    505.12853    -107.7097   0.45705091   -107.25265   -6856.4983    4.3621481    4.3621481    4.3621481   -6856.4983   -16651.048    4745.9077   -8664.3545    6315.3123    705.84744   -1138.5267    83.004422 
   55500    282.80379   -107.50867   0.25588681   -107.25278   -4789.1121     4.352171     4.352171     4.352171   -4789.1121   -18949.567    14191.677   -9609.4464   -304.16544   -8522.1362   -598.86391    82.436177 
   55600    413.06693   -107.62789   0.37375164   -107.25414   -395.57628    4.3638734    4.3638734    4.3638734   -395.57628   -1870.9951    14066.528   -13382.262   -91.666128    2025.1621   -1086.6838    83.102946 
   55700    452.97262   -107.66536   0.40985914    -107.2555    6707.6405    4.3527647    4.3527647    4.3527647    6707.6405    11418.391    15454.125   -6749.5945   -3326.9229   -5833.8239    -2223.122    82.469922 
   55800    337.06276   -107.56197   0.30498147   -107.25698    1458.7495    4.3601547    4.3601547    4.3601547    1458.7495    6620.6801    14662.334   -16906.766   -1206.4942   -1589.6592    162.31671    82.890678 
   55900    485.40397   -107.69181   0.43920371    -107.2526   -4138.9363    4.3576859    4.3576859    4.3576859   -4138.9363    408.87493   -9063.9896   -3761.6941    2155.8924    1213.4057   -1819.1493    82.749956 
   56000     250.6185   -107.48361   0.22676489   -107.25685   -3331.0355     4.355829     4.355829     4.355829   -3331.0355   -19256.976    17299.678   -8035.8083    2446.8581   -8350.9269    277.88231    82.644217 
   56100    572.27425   -107.77274   0.51780577   -107.25494     -8212.03    4.3621047    4.3621047    4.3621047     -8212.03   -8891.4647   -85.936441   -15658.689   -3989.1589    3229.2695   -2223.0468    83.001945 
   56200    367.02412   -107.58664   0.33209114   -107.25455    8414.3597     4.353748     4.353748     4.353748    8414.3597    4131.6565    23058.778   -1947.3558   -2575.7704   -5928.6203    2626.5108    82.525822 
   56300    338.51282   -107.56128   0.30629351   -107.25498   -10434.625    4.3612006    4.3612006    4.3612006   -10434.625   -5883.7759   -3270.3577    -22149.74   -1313.5418    -3921.254   -969.36902    82.950342 
   56400    321.42481   -107.54401   0.29083192   -107.25318    5428.3271     4.356139     4.356139     4.356139    5428.3271    17698.388    3433.0122    -4846.419    1198.6157    3257.8925    -1520.012    82.661863 
   56500    464.64536   -107.67438   0.42042089   -107.25396   -7097.9425    4.3588722    4.3588722    4.3588722   -7097.9425    -12150.76    5519.3826    -14662.45    7778.8774   -7389.6856    902.68579    82.817555 
   56600    454.57048   -107.66606   0.41130493   -107.25475     -430.536    4.3585119    4.3585119    4.3585119     -430.536   -3581.7199    16817.694   -14527.582    694.23011    424.37317   -2909.6487    82.797021 
   56700    444.65184   -107.65627   0.40233033   -107.25394    192.86413     4.355281     4.355281     4.355281    192.86413   -7649.8426     14106.92   -5878.4855   -2889.2977   -1672.0416    189.48985    82.613027 
   56800       247.71   -107.48002   0.22413322   -107.25589   -11329.355    4.3635091    4.3635091    4.3635091   -11329.355   -11678.764   -6515.4656   -15793.836   -2189.4783   -6774.8522   -1833.4341    83.082139 
   56900    396.02968   -107.61148   0.35833598   -107.25314    10527.989    4.3510768    4.3510768    4.3510768    10527.989    21587.594    14199.267   -4202.8938    716.84835    2753.9687   -1748.9482    82.374015 
   57000    514.00647   -107.71857   0.46508385   -107.25349   -6988.2335     4.364123     4.364123     4.364123   -6988.2335   -3898.4436   -4248.5832   -12817.674    1627.2501   -7238.3144   -571.84838    83.117208 
   57100    340.97024   -107.56411   0.30851704   -107.25559    7224.5514    4.3542791    4.3542791    4.3542791    7224.5514   -27.780645    32927.178   -11225.743    2007.1156    905.79642   -3546.0927    82.556025 
   57200    443.76559   -107.65626   0.40152843   -107.25474   -3349.6474    4.3568798    4.3568798    4.3568798   -3349.6474   -8390.5546    5389.4613   -7047.8491   -4202.9676    539.21524   -3029.7167     82.70404 
   57300      280.254   -107.50982   0.25357971   -107.25624   -6680.1317    4.3636015    4.3636015    4.3636015   -6680.1317   -10760.621    6899.7776   -16179.552   -3420.7914   -6743.5474    439.38068    83.087417 
   57400    519.70971   -107.72367   0.47024426   -107.25343    3685.0989     4.351723     4.351723     4.351723    3685.0989     17244.98   -342.62926   -5847.0542    1823.9058    4914.5057   -4565.8693    82.410724 
   57500    385.63351   -107.60312    0.3489293   -107.25419    1219.8921    4.3623836    4.3623836    4.3623836    1219.8921    1046.8967    17255.656   -14642.877    3664.1236   -5014.6255    1565.6764    83.017862 
   57600    340.27105   -107.56198   0.30788439   -107.25409   -1392.4891    4.3576354    4.3576354    4.3576354   -1392.4891   -9473.3766    14591.328   -9295.4184    4360.3268   -1191.9281    967.00115    82.747079 
   57700    334.64427   -107.55615   0.30279317   -107.25336    7181.3524    4.3545897    4.3545897    4.3545897    7181.3524     3086.484    20718.117   -2260.5442   -1860.6011    2221.2957    -717.8005    82.573693 
   57800    502.68205   -107.70858   0.45483729   -107.25374   -10419.891    4.3635993    4.3635993    4.3635993   -10419.891   -14480.791   -985.98956   -15792.893   -3696.4744   -3745.3177    386.53424     83.08729 
   57900    483.09315   -107.69131   0.43711283    -107.2542    4984.2738    4.3534034    4.3534034    4.3534034    4984.2738    12972.119    7414.1808   -5433.4786   -3086.8334    2773.9681   -227.09452    82.506229 
   58000    350.27906   -107.57134   0.31693986    -107.2544   -340.17813    4.3597236    4.3597236    4.3597236   -340.17813   -5197.5059    17259.662   -13082.691    3516.7938   -2631.1088   -1817.2375    82.866096 
   58100    264.38681   -107.49404   0.23922274   -107.25482    -1215.041    4.3592942    4.3592942    4.3592942    -1215.041   -7806.7819    16205.922   -12044.263    4514.2499     -4600.02    439.31655    82.841613 
   58200    395.06269   -107.61143   0.35746102   -107.25397    7219.7955    4.3546165    4.3546165    4.3546165    7219.7955    6006.3764     23777.34   -8124.3298    2637.7527    980.35224   -1788.4124    82.575223 
   58300    504.12074   -107.71149   0.45613904   -107.25535   -7376.9077    4.3621804    4.3621804    4.3621804   -7376.9077   -7447.0535   -3298.0093    -11385.66   -1568.0625    -8156.979    -353.6329    83.006265 
   58400    486.55573   -107.69379   0.44024585   -107.25355   -1034.9292    4.3569445    4.3569445    4.3569445   -1034.9292   -5189.2312    10305.623   -8221.1796   -4592.6574    1594.4333   -1422.7761    82.707729 
   58500    367.16776   -107.58527   0.33222111   -107.25305    646.61508    4.3568961    4.3568961    4.3568961    646.61508    910.90699    4436.1593   -3407.2211   -460.59612     447.5728   -4768.7276    82.704972 
   58600    256.53762   -107.48701   0.23212063   -107.25489    2820.8998    4.3605435    4.3605435    4.3605435    2820.8998   -1277.6204    24054.079    -14313.76    3775.5221   -4763.6969   -246.34819    82.912856 
   58700    486.54742   -107.69419   0.44023833   -107.25395    5751.2251    4.3551523    4.3551523    4.3551523    5751.2251    9333.8904    13216.005   -5296.2198    1707.1111      5052.35   -989.43441    82.605704 
   58800    386.65173   -107.60486   0.34985061   -107.25501   -1130.4061    4.3591064    4.3591064    4.3591064   -1130.4061   -2627.4727    13439.994   -14203.739    -4244.711   -5740.1738   -2486.4026    82.830905 
   58900    460.12529   -107.66954   0.41633103   -107.25321   -8972.2418    4.3591886    4.3591886    4.3591886   -8972.2418   -21072.073    3175.7831   -9020.4358    984.45601    350.52857    1956.1616    82.835594 
   59000    380.42461   -107.59784   0.34421618   -107.25362    5369.3353    4.3552401    4.3552401    4.3552401    5369.3353    8480.3084    14901.646   -7273.9486   -4386.0401    1093.8432   -2122.8724    82.610699 
   59100    363.06101   -107.58343   0.32850523   -107.25493    -2625.838    4.3622636    4.3622636    4.3622636    -2625.838   -5025.4274    11925.675   -14777.762    4645.2651   -4567.5724    -3463.977    83.011013 
   59200    418.08718   -107.63162   0.37829407   -107.25333    9813.2522    4.3546419    4.3546419    4.3546419    9813.2522     17610.61    19086.902   -7257.7551    8737.3182     6429.239   -8.1776719    82.576664 
   59300    364.35154    -107.5842   0.32967293   -107.25453   -4804.3157    4.3601818    4.3601818    4.3601818   -4804.3157   -3327.2554    -976.5037   -10109.188    666.21755   -2380.5866   -5018.3055    82.892226 
   59400    332.65826   -107.55664   0.30099618   -107.25565   -1810.8466    4.3563406    4.3563406    4.3563406   -1810.8466   -12508.561    11799.377   -4723.3564   -5250.7151   -1207.9082    2647.6314     82.67334 
   59500    542.30016   -107.74413   0.49068458   -107.25345   -4284.8624    4.3592283    4.3592283    4.3592283   -4284.8624   -2267.4017   -607.06028   -9980.1253   -3643.4854    2853.0971    -2209.186    82.837854 
   59600    388.14494   -107.60596    0.3512017   -107.25475   -2091.0117    4.3574891    4.3574891    4.3574891   -2091.0117   -11932.026    16539.612   -10880.621     -4480.47   -8049.7644    1288.0603    82.738745 
   59700    350.87555    -107.5716   0.31747957   -107.25412    1483.8882    4.3585518    4.3585518    4.3585518    1483.8882   -2247.1473    18843.223   -12144.411    2403.4085    2440.9105   -187.08965    82.799297 
   59800    397.44895   -107.61396   0.35962016   -107.25434   -2061.9898    4.3574331    4.3574331    4.3574331   -2061.9898     6695.737    -3586.284   -9295.4224    1806.6189    -2413.261   -2343.0177    82.735555 
   59900    328.84832   -107.55452   0.29754887   -107.25697    239.77816    4.3562894    4.3562894    4.3562894    239.77816   -1434.3541    11523.498   -9369.8095   -8661.2613   -3839.5025    119.88158    82.670423 
   60000    534.32419   -107.73752   0.48346775   -107.25405   -2727.1445     4.360349     4.360349     4.360349   -2727.1445   -615.95328    1972.5068    -9537.987    2886.7762    4799.2876    258.33533    82.901762 
   60100    315.90832   -107.54058   0.28584049   -107.25474    72.003655    4.3558103    4.3558103    4.3558103    72.003655   -20285.653    28661.826   -8160.1617    -2907.845   -7686.2927   -562.40509    82.643155 
   60200    364.82628   -107.58455   0.33010249   -107.25445   -5225.3543     4.359483     4.359483     4.359483   -5225.3543    -17662.93    7133.9403    -5147.073    3631.8568    1302.0545    868.90297    82.852374 
   60300    480.51447   -107.68682   0.43477959   -107.25204    448.84635    4.3581898    4.3581898    4.3581898    448.84635    4887.8498    4339.2962   -7880.6069    5624.5595    -3098.579   -1743.9986    82.778665 
   60400    398.40698   -107.61374   0.36048701   -107.25325    -2539.929    4.3578561    4.3578561    4.3578561    -2539.929      4724.39   -2948.0815   -9396.0955   -4878.8214   -6575.3142   -1165.6832    82.759654 
   60500     398.8613   -107.61427   0.36089808   -107.25338     5209.176    4.3578743    4.3578743    4.3578743     5209.176    5094.3315    19877.872    -9344.675   -3309.4335    4926.9376   -1426.4744    82.760688 
   60600    355.71061   -107.57706   0.32185444   -107.25521    -1510.612    4.3575091    4.3575091    4.3575091    -1510.612   -11539.869    16554.967   -9546.9348    -3739.173   -5246.7221   -2367.3172    82.739882 
   60700    356.15995   -107.57875   0.32226101   -107.25649    -565.7237    4.3565674    4.3565674    4.3565674    -565.7237   -12785.051    19514.057    -8426.177    849.40655    8.0890894    1773.3878    82.686256 
   60800    560.29569   -107.76026   0.50696732   -107.25329   -2804.7887    4.3596777    4.3596777    4.3596777   -2804.7887   -594.45504   -470.06794    -7349.843    1276.2013    1817.0062   -1803.8017     82.86348 
   60900    368.39855   -107.58858   0.33333475   -107.25525   -3308.9068    4.3560486    4.3560486    4.3560486   -3308.9068    2224.0256    79.513232   -12230.259    99.040273   -6814.4014   -59.306223    82.656719 
   61000    289.48172   -107.51812   0.26192914   -107.25619    1831.1877    4.3606676    4.3606676    4.3606676    1831.1877   -12119.131    23166.164   -5553.4703   -7080.8248    3123.1904   -1117.6431    82.919933 
   61100     411.9768   -107.62712   0.37276527   -107.25436    4732.1604    4.3556157    4.3556157    4.3556157    4732.1604    9915.5489    12551.862   -8270.9294    -986.6805   -2409.1438   -1454.5382    82.632076 
   61200    384.57974   -107.60316   0.34797583   -107.25519    610.90641    4.3581688    4.3581688    4.3581688    610.90641   -9457.6955    21147.832   -9857.4174     1039.728   -3026.3725   -1117.8197     82.77747 
   61300    555.23125   -107.75474   0.50238491   -107.25235   -5641.0558    4.3602828    4.3602828    4.3602828   -5641.0558    1028.5077   -6225.5005   -11726.174    244.83057    6250.4139    2371.5552    82.897984 
   61400    288.07024   -107.51459   0.26065201   -107.25394    76.712307     4.354406     4.354406     4.354406    76.712307   -1223.4155    9051.5779   -7598.0255    4100.6967   -6771.6865   -88.833879    82.563247 
   61500    376.16474   -107.59505   0.34036176   -107.25469   -9105.2106    4.3626118    4.3626118    4.3626118   -9105.2106   -12566.252    2312.1611   -17061.541   -6996.1777    2004.0644    857.57662    83.030891 
   61600    434.19399   -107.64679   0.39286785   -107.25392    8249.4073    4.3538796    4.3538796    4.3538796    8249.4073    14557.099    14663.718   -4472.5955   -1724.9045   -243.83414   -480.49765    82.533308 
   61700    410.59454   -107.62698   0.37151457   -107.25547   -6090.8507    4.3606148    4.3606148    4.3606148   -6090.8507   -14638.592    13687.572   -17321.533    987.63922   -6470.8247   -4038.7641    82.916924 
   61800    387.94531   -107.60448   0.35102107   -107.25346   -1228.7415    4.3593324    4.3593324    4.3593324   -1228.7415    444.08306     2065.955   -6196.2625    1988.6102    5962.0214   -1232.7206    82.843791 
   61900    330.79525   -107.55242   0.29931049   -107.25311    5298.9665    4.3530085    4.3530085    4.3530085    5298.9665    8437.7282    7646.5427   -187.37143    5600.4326   -4558.3021   -2595.5418    82.483777 
   62000    429.56502   -107.64309   0.38867946   -107.25442    -8426.046    4.3639508    4.3639508    4.3639508    -8426.046    4773.0862   -10289.072   -19762.152   -4528.3507    890.93899    -1354.716    83.107372 
   62100    482.89369   -107.69025   0.43693235   -107.25331    7721.5116    4.3524803    4.3524803    4.3524803    7721.5116    14560.681    9339.5607   -735.70701   -5349.5655    454.39024    1384.7254    82.453757 
   62200    393.40122   -107.61085   0.35595769   -107.25489   -11853.204     4.362375     4.362375     4.362375   -11853.204   -19985.035    4218.3769   -19792.955   -2890.6602   -6990.4704   -1465.1638    83.017374 
   62300    295.96875    -107.5222   0.26779875    -107.2544    829.27803    4.3583908    4.3583908    4.3583908    829.27803   -1241.3192    12421.139   -8691.9855    2200.4115    2697.7106   -771.50233    82.790116 
   62400    442.36047   -107.65317   0.40025705   -107.25292    5547.0359    4.3525211    4.3525211    4.3525211    5547.0359    18829.271    4049.4375   -6237.6007    2247.9983   -4073.5741    569.99432    82.456077 
   62500    385.85577   -107.60426   0.34913041   -107.25513   -3549.3597     4.364747     4.364747     4.364747   -3549.3597     16443.08   -6627.0559   -20464.103   -2024.1053   -2363.6941   -1754.8375    83.152868 
   62600    489.82592   -107.69597   0.44320479   -107.25277     3788.548    4.3516668    4.3516668    4.3516668     3788.548     6760.067     7776.321   -3170.7439     -1845.14    5154.1456    2105.6265    82.407529 
   62700    316.16538   -107.54127   0.28607308    -107.2552   -7470.7776    4.3602184    4.3602184    4.3602184   -7470.7776   -15995.559    77.620818   -6494.3943   -1967.1807   -6167.1335   -361.58593    82.894313 
   62800    386.77451   -107.60391    0.3499617   -107.25395   -3939.5114    4.3608721    4.3608721    4.3608721   -3939.5114   -8012.5829    11399.325   -15205.276     4660.085    383.92196    2408.5389    82.931598 
   62900    427.06417   -107.63873   0.38641664   -107.25231    13163.762    4.3513228    4.3513228    4.3513228    13163.762    28658.139    10631.143    202.00389    3381.0831    186.99475    765.33913     82.38799 
   63000    403.18747   -107.61892   0.36481249   -107.25411   -7808.8835     4.365096     4.365096     4.365096   -7808.8835    7415.7165   -6325.8689   -24516.498     6364.931   -6288.4283   -1643.2976    83.172815 
   63100    355.78928   -107.57372   0.32192562    -107.2518    6349.4943    4.3526253    4.3526253    4.3526253    6349.4943    7600.4141    12420.068   -971.99915   -5204.9289    3627.3291   -161.87289    82.461994 
   63200    466.56361   -107.67505   0.42215656    -107.2529   -11480.817    4.3593957    4.3593957    4.3593957   -11480.817   -16733.212   -5038.0706   -12671.168   -2899.9232   -3012.9959   -2933.9115    82.847399 
   63300    400.85271   -107.61885   0.36269995   -107.25615   -1219.8072    4.3596959    4.3596959    4.3596959   -1219.8072   -2194.4395    12755.906   -14220.888   -1527.3487   -2992.6217   -1454.7687    82.864514 
   63400    516.13091   -107.72111   0.46700609    -107.2541    8062.4114    4.3515193    4.3515193    4.3515193    8062.4114    22277.067    7318.2735    -5408.106   -3254.1752    912.09986   -565.62607     82.39915 
   63500    229.00243   -107.46434   0.20720621   -107.25713   -5415.6194    4.3651199    4.3651199    4.3651199   -5415.6194   -5795.1797    8957.5775   -19409.256    4503.6129   -8488.9579    412.07272    83.174181 
   63600     346.7164   -107.56658   0.31371629   -107.25286    9511.8065    4.3508654    4.3508654    4.3508654    9511.8065     11662.85    14705.445    2167.1249   -4165.0749    463.50231   -1173.6009    82.362012 
   63700    532.84292   -107.73584   0.48212747   -107.25371   -6102.1946    4.3593764    4.3593764    4.3593764   -6102.1946   -11993.253    4702.8801   -11016.211   -2331.3948   -1426.4855    2200.1891    82.846297 
   63800    395.37022   -107.61379   0.35773928   -107.25605   -608.83149    4.3602606    4.3602606    4.3602606   -608.83149   -513.28742    12226.735   -13539.942    2950.0123   -6263.6423   -2903.7858     82.89672 
   63900    526.74442   -107.72988   0.47660943   -107.25327    5220.6344    4.3510386    4.3510386    4.3510386    5220.6344    12961.699     7368.682   -4668.4782    6392.6486    5494.1572    1776.9508     82.37185 
   64000    110.77566   -107.35755   0.10023215   -107.25732    342.92884    4.3638619    4.3638619    4.3638619    342.92884   -3745.3241    21078.791    -16304.68   -477.35661   -6851.4456   -1073.1422    83.102289 
   64100    451.25153   -107.66135   0.40830186   -107.25304   -811.30852    4.3548515    4.3548515    4.3548515   -811.30852    5993.8624   -683.16878   -7744.6192    6258.7572   -2921.6197   -1341.6778    82.588592 
   64200    528.65338   -107.73028   0.47833669   -107.25195    7218.8655    4.3546686    4.3546686    4.3546686    7218.8655    8817.3074    19807.136   -6967.8469   -1289.0513     613.5785    2406.3701    82.578182 
   64300    446.12767   -107.65864   0.40366569   -107.25498   -12026.862    4.3640486    4.3640486    4.3640486   -12026.862   -10799.089   -3676.3205   -21605.177   -3791.5738   -7375.8693   -2303.7409    83.112956 
   64400     360.0578   -107.57967   0.32578786   -107.25388    13193.497    4.3491315    4.3491315    4.3491315    13193.497    17767.713     14345.78    7466.9987   -906.75098    2684.6032    -326.4697    82.263581 
   64500    256.36563   -107.48762   0.23196501   -107.25566   -4040.5802    4.3634193    4.3634193    4.3634193   -4040.5802   -5673.2757    13072.598   -19521.063    1930.8005   -3632.3227   -579.95871    83.077005 
   64600    406.20461   -107.62253   0.36754246   -107.25498    1148.5735    4.3552541    4.3552541    4.3552541    1148.5735     10920.54   -1666.6216   -5808.1975   -2387.8806   -2935.7993    -2177.762    82.611497 
   64700    582.44503   -107.77904    0.5270085   -107.25203    4740.8748    4.3547032    4.3547032    4.3547032    4740.8748    7484.3468    14563.478   -7825.2001   -1404.7134    268.29957    1182.3727    82.580155 
   64800    384.07321   -107.60325   0.34751751   -107.25573   -11494.777    4.3630785    4.3630785    4.3630785   -11494.777   -12080.934   -5235.6307   -17167.767   -67.277187   -8629.0247   -139.35479    83.057544 
   64900    322.31796   -107.54738   0.29164006   -107.25574    6211.8101     4.351886     4.351886     4.351886    6211.8101    13833.424    6481.3511    -1679.345     1926.628    161.88204   -505.27076    82.419982 
   65000    397.91337   -107.61476   0.36004038   -107.25472    1236.8728    4.3600584    4.3600584    4.3600584    1236.8728    7976.2058     8231.746   -12497.333    5907.9479   -1338.9842    1259.1573    82.885185 
   65100     365.5839   -107.58632   0.33078799   -107.25553   -3003.0202    4.3599057    4.3599057    4.3599057   -3003.0202     14644.67   -4629.9764   -19023.755    6030.6863   -5770.4514   -3029.7647    82.876481 
   65200    481.88728   -107.68792   0.43602174   -107.25189    7320.7717    4.3504892    4.3504892    4.3504892    7320.7717     1621.185    15450.212    4890.9183    4721.3787    2624.2337    1844.8503    82.340649 
   65300    380.50915   -107.59816   0.34429267   -107.25387   -17263.868    4.3669191    4.3669191    4.3669191   -17263.868   -24265.197   -7127.7225   -20398.685   -5398.9935   -5674.7341   -1450.7931    83.277072 
   65400    321.63045    -107.5454   0.29101799   -107.25438    6459.7711    4.3503041    4.3503041    4.3503041    6459.7711    13481.678    2954.8221     2942.813    2764.8372   -2859.3651    298.73754    82.330138 
   65500    529.77086   -107.73231   0.47934781   -107.25296    1150.9326    4.3600273    4.3600273    4.3600273    1150.9326    16932.391   -1074.6134    -12404.98   -1382.4467    1790.5317    330.56287     82.88341 
   65600    315.37692   -107.54077   0.28535966   -107.25541   -93.654691    4.3600551    4.3600551    4.3600551   -93.654691    17749.105   -222.59241   -17807.477     302.5975   -4730.1171   -1933.3593       82.885 
   65700    380.31441   -107.59706   0.34411647   -107.25294    4200.1895    4.3503931    4.3503931    4.3503931    4200.1895   -1941.9023    9052.3982    5490.0727    3874.5016    1626.4291    1102.7215     82.33519 
   65800    430.32623   -107.64265   0.38936822   -107.25328   -15787.122    4.3656394    4.3656394    4.3656394   -15787.122   -27617.229   -1448.4917   -18295.644   -2789.3071   -2334.4694    -1605.712    83.203881 
   65900    366.35323   -107.58679    0.3314841   -107.25531    3174.1811    4.3509093    4.3509093    4.3509093    3174.1811    15889.848   -1292.6864   -5074.6185   -2461.5829   -4884.6377    1.0027331    82.364505 
   66000    552.58044    -107.7535   0.49998639   -107.25352   -3369.3606    4.3617017    4.3617017    4.3617017   -3369.3606    11621.494   -11112.603   -10616.973    4654.5108    130.86328   -794.38677    82.978939 
   66100    285.11599   -107.51333   0.25797894   -107.25535    4944.2907    4.3563397    4.3563397    4.3563397    4944.2907    13233.451    11589.431   -9990.0102    6099.3095   -8154.3275    553.61386    82.673288 
   66200    320.76832   -107.54455   0.29023792   -107.25431    1169.9023    4.3550133    4.3550133    4.3550133    1169.9023   -1788.9946    6007.1893   -708.48776    4755.5041   -51.992086   -2956.4905    82.597797 
   66300    447.76261    -107.6576   0.40514502   -107.25246   -6054.4727    4.3629658    4.3629658    4.3629658   -6054.4727   -18814.257    10152.251   -9501.4117    2847.6079   -1796.0719    822.39367    83.051109 
   66400    417.24021   -107.63135   0.37752771   -107.25383    1595.6341    4.3514161    4.3514161    4.3514161    1595.6341    10841.386    4556.9979   -10611.482   -2486.5804   -8998.4811   -602.31932    82.393292 
   66500    473.72824   -107.68176   0.42863927   -107.25312     -5553.63    4.3616838    4.3616838    4.3616838     -5553.63   -2960.6474   -8914.6191   -4785.6234   -2854.3808       2278.4   -1730.9027     82.97792 
   66600    330.45205   -107.55363   0.29899996   -107.25463   -2214.4883    4.3571787    4.3571787    4.3571787   -2214.4883   -762.01586    7596.8323   -13478.281    2272.0834   -5950.3325    3666.2827    82.721066 
   66700     306.0534    -107.5318   0.27692354   -107.25488    6867.7652    4.3519182    4.3519182    4.3519182    6867.7652    16720.044    5798.8527   -1915.6014     2875.962   -2781.5084   -1624.6339    82.421817 
   66800    535.75628     -107.738   0.48476354   -107.25323    -7756.052    4.3663047    4.3663047    4.3663047    -7756.052   -14287.302    9022.3696   -18003.224   -265.61635    1456.8034   -93.461098    83.241923 
   66900    355.03382   -107.57496   0.32124206   -107.25371    11635.786    4.3488181    4.3488181    4.3488181    11635.786    18498.634    18226.117    -1817.391   -1461.9994   -4984.4432    629.56134    82.245798 
   67000    424.36259   -107.63674   0.38397219   -107.25277   -7933.9702    4.3618474    4.3618474    4.3618474   -7933.9702   -12814.589   -58.067982   -10929.253   -2621.7126   -301.94785   -3048.3685    82.987255 
   67100    331.34619   -107.55297   0.29980899   -107.25316   -823.11639    4.3587482    4.3587482    4.3587482   -823.11639   -1765.3351    5378.3763   -6082.3904    3435.0238   -2030.7381    249.94193    82.810489 
   67200    450.22849   -107.66139    0.4073762   -107.25401    4013.8473    4.3515732    4.3515732    4.3515732    4013.8473    17439.173    2791.9667   -8189.5981     3830.752   -3800.9936   -2665.5908    82.402214 
   67300    460.47062   -107.67071   0.41664349   -107.25406    -4458.457    4.3670365    4.3670365    4.3670365    -4458.457   -8823.1043    8203.4693   -12755.736    6030.9441    698.90199   -2198.6164    83.283785 
   67400    336.79649   -107.55827   0.30474054   -107.25353    11911.665    4.3474509    4.3474509    4.3474509    11911.665    13587.373    25087.696   -2940.0743   -4184.5101   -4368.9419   -445.39917    82.168253 
   67500    330.79068   -107.55282   0.29930636   -107.25351   -3641.4905    4.3627357    4.3627357    4.3627357   -3641.4905   -9310.2294    10381.982   -11996.224    -2324.971   -838.84928   -4912.4445    83.037966 
   67600    456.11805    -107.6653    0.4127052    -107.2526   -1218.1743    4.3575497    4.3575497    4.3575497   -1218.1743    7500.2966   -3059.0471   -8095.7723    407.71514    199.00269    122.56028    82.742199 
   67700    465.35603   -107.67633   0.42106391   -107.25527    2624.2328    4.3521561    4.3521561    4.3521561    2624.2328    8407.7448    5899.9181   -6434.9645    -222.1537     -6901.84   -2976.7197    82.435334 
   67800    434.59059   -107.64691    0.3932267   -107.25369   -7599.6317    4.3664793    4.3664793    4.3664793   -7599.6317   -9858.5787    927.78916   -13868.106    6704.9851    871.95229   -770.18733    83.251914 
   67900    308.32101   -107.53118   0.27897533    -107.2522    9311.1137    4.3487957    4.3487957    4.3487957    9311.1137    -3632.289    28793.769    2771.8613   -3576.9824   -3603.2324    2528.1567    82.244531 
   68000    325.84106   -107.54809   0.29482784   -107.25326   -284.02765    4.3627367    4.3627367    4.3627367   -284.02765    2074.0344    11465.855   -14391.972   -1788.6602   -3281.0873   -1214.3645    83.038026 
   68100    524.98064   -107.72673   0.47501352   -107.25171     627.7538    4.3568709    4.3568709    4.3568709     627.7538    12710.485   -6599.2796   -4227.9445   -2498.9139    1689.4956    1624.9472    82.703534 
   68200    368.25526   -107.58781    0.3332051    -107.2546    3028.8173    4.3534313    4.3534313    4.3534313    3028.8173    8410.6702    7248.0498   -6572.2681    1081.0083   -4739.2248   -191.81031    82.507817 
   68300    432.92725    -107.6446   0.39172168   -107.25287   -9353.2287    4.3624902    4.3624902    4.3624902   -9353.2287   -9367.3806   -5438.2028   -13254.103    2202.0386   -873.61084   -3381.8984    83.023948 
   68400    338.44366   -107.55938   0.30623094   -107.25315    1389.9241     4.354259     4.354259     4.354259    1389.9241    -12687.46    22166.244   -5309.0124    718.03342     -685.144    93.481246    82.554887 
   68500    418.66762   -107.63439   0.37881926   -107.25557   -2247.3205    4.3574228    4.3574228    4.3574228   -2247.3205    91.424281    6387.8732   -13221.259   -1675.7341   -3644.5721   -1719.3261    82.734969 
   68600    439.18845   -107.65164   0.39738694   -107.25425   -981.13447    4.3611903    4.3611903    4.3611903   -981.13447    8334.7425   -3885.0605   -7393.0853   -5812.6965    2641.7593    -3980.009    82.949758 
   68700    346.58807   -107.56743   0.31360017   -107.25383    3965.0234    4.3522563    4.3522563    4.3522563    3965.0234    8372.1002     7482.381   -3959.4109    2656.6117   -3790.4535     1612.297    82.441025 
   68800    356.61588   -107.57725   0.32267354   -107.25458    -3378.587    4.3597423    4.3597423    4.3597423    -3378.587    3250.4492   -6212.8596   -7173.3506    1190.5287   -718.32244   -6396.5452    82.867161 
   68900    470.37986   -107.67929   0.42560958   -107.25368   -1226.7385    4.3585818    4.3585818    4.3585818   -1226.7385   -5556.7196    8545.6905   -6669.1865    5300.4373    1616.7341    -1167.788    82.801001 
   69000    444.49438   -107.65737   0.40218786   -107.25518   -1365.9565    4.3540581    4.3540581    4.3540581   -1365.9565   -2632.8565     7022.402   -8487.4148   -894.99375   -9016.9274   -1217.2636    82.543456 
   69100    329.32924   -107.55264   0.29798401   -107.25465    -2929.528    4.3624009    4.3624009    4.3624009    -2929.528    -3850.217    8323.6844   -13262.051   -6203.3786    -58.89561   -4671.9564     83.01885 
   69200    383.35001   -107.59876   0.34686314    -107.2519   -1442.8953    4.3559347    4.3559347    4.3559347   -1442.8953    -1607.563    6404.0476   -9125.1704   -3504.4741    -4480.868    2588.0921    82.650233 
   69300    307.84943   -107.53297   0.27854864   -107.25442     3236.781    4.3557717    4.3557717    4.3557717     3236.781    22115.553   -1507.1366   -10898.074    -981.9413   -4079.4349   -2522.0411    82.640953 
   69400    543.15684   -107.74432   0.49145973   -107.25286   -4358.9406    4.3619826    4.3619826    4.3619826   -4358.9406   -2318.5026    -2498.582   -8259.7373   -610.20411    817.70691   -1847.1099    82.994972 
   69500    456.90888   -107.66677   0.41342076   -107.25335    4167.3614     4.351737     4.351737     4.351737    4167.3614    7451.6116    11217.644   -6167.1712    1635.7699   -4154.7884   -377.88054    82.411519 
   69600    272.95943   -107.50221   0.24697943   -107.25524   -2945.5054     4.360737     4.360737     4.360737   -2945.5054   -11369.533    9393.1631   -6860.1458   -2751.1405   -599.75694   -4729.1076    82.923892 
   69700    425.03615   -107.63781   0.38458164   -107.25323    181.59031    4.3575993    4.3575993    4.3575993    181.59031    4052.8101    6602.3012    -10110.34   -2052.8136     -1845.85   -532.53306     82.74502 
   69800     354.6951   -107.57618   0.32093558   -107.25524    6051.8577    4.3532287    4.3532287    4.3532287    6051.8577    21300.336    3678.3687   -6823.1319   -495.79241   -3715.0463   -3923.6132    82.496298 
   69900    461.18025   -107.67148   0.41728558   -107.25419   -7767.9991    4.3642558    4.3642558    4.3642558   -7767.9991   -1964.9547   -4821.2068   -16517.836    3228.3178    2829.8825   -3115.7224    83.124795 
   70000    438.02033   -107.64849      0.39633   -107.25216    5276.4021     4.351599     4.351599     4.351599    5276.4021    5404.2225    17375.004   -6950.0205     4279.366   -2650.7321    1044.1274     82.40368 
   70100      335.881   -107.55872   0.30391219   -107.25481   -5754.6566    4.3593114    4.3593114    4.3593114   -5754.6566   -9848.6063    8367.0013   -15782.365   -3501.2291   -1566.4419   -7133.9548    82.842594 
   70200    420.61814   -107.63566   0.38058413   -107.25508     2924.955    4.3596049    4.3596049    4.3596049     2924.955     11937.13    4970.3932   -8132.6583   -3053.7795    1619.6105    673.24399    82.859324 
   70300    453.02079   -107.66454   0.40990273   -107.25464    6917.6749    4.3514163    4.3514163    4.3514163    6917.6749    20978.826    9386.8477   -9612.6487   -4901.3271   -7165.6892   -2538.8539      82.3933 
   70400     278.0494   -107.50745   0.25158494   -107.25587   -4642.3692    4.3649892    4.3649892    4.3649892   -4642.3692    1079.1797   -2425.5353   -12580.752    536.15636   -2046.7968    -5648.548    83.166708 
   70500    499.74459   -107.70421   0.45217941   -107.25203    1639.3041    4.3517778    4.3517778    4.3517778    1639.3041   -1957.5309     7278.314   -402.87086    976.61172    -4630.188    3031.4164    82.413837 
   70600    350.12975   -107.57191   0.31680476    -107.2551    2689.5222    4.3565183    4.3565183    4.3565183    2689.5222    3336.0793    11209.743   -6477.2554   -334.50927   -2359.2895   -3500.1116    82.683455 
   70700    462.70427   -107.67298   0.41866455   -107.25432   -4288.3709    4.3635491    4.3635491    4.3635491   -4288.3709    6235.9601   -6305.3621   -12795.711   -4341.7822    891.26596   -2842.4743    83.084419 
   70800    402.62937   -107.61713   0.36430751   -107.25282    12536.822    4.3471541    4.3471541    4.3471541    12536.822    26216.102    16388.714   -4994.3501    2957.4243   -1682.1889   -644.12652    82.151426 
   70900    252.46511    -107.4837   0.22843574   -107.25527   -8796.3219    4.3653625    4.3653625    4.3653625   -8796.3219   -5487.2086    1410.0791   -22311.836    533.78071   -1761.1064   -4817.6528    83.188048 
   71000    501.70889   -107.70554   0.45395675   -107.25158   -2527.7566     4.354371     4.354371     4.354371   -2527.7566   -6666.2412    781.25754    -1698.286    2646.4109   -441.79341   -2970.4179    82.561255 
   71100    444.70181   -107.65554   0.40237555   -107.25317    4217.0991    4.3533194    4.3533194    4.3533194    4217.0991    8088.6245    11976.054   -7413.3813     2564.039   -3964.9686   -133.11043    82.501455 
   71200    452.30961   -107.66344   0.40925924   -107.25418   -8287.1214     4.365508     4.365508     4.365508   -8287.1214   -2943.3569   -5094.8393   -16823.168   -1691.3211    3391.3313   -2959.8789    83.196368 
   71300    322.83176   -107.54486   0.29210496   -107.25276    14478.181    4.3496625    4.3496625    4.3496625    14478.181    30362.363    9188.2153    3883.9632   -3149.1307    170.47269    1425.0252    82.293716 
   71400    264.79901   -107.49452   0.23959571   -107.25492   -1565.7299    4.3587006    4.3587006    4.3587006   -1565.7299    2171.9534    7015.5968    -13884.74   -2002.4387   -1403.5041   -2869.7988    82.807776 
   71500    470.93164   -107.67893   0.42610884   -107.25282   -8223.1676    4.3623088    4.3623088    4.3623088   -8223.1676   -4341.9386   -12434.633    -7892.931    1035.5684    2264.5461   -993.26292    83.013592 
   71600    508.23823    -107.7126   0.45986463   -107.25273    4327.1591    4.3485459    4.3485459    4.3485459    4327.1591    7025.2307    10271.223   -4314.9766   -713.98347    -4287.384    1530.5919    82.230356 
   71700    413.25059   -107.62901   0.37391781   -107.25509   -11725.625    4.3650581    4.3650581    4.3650581   -11725.625   -8211.7303   -3139.9773   -23825.168   -1126.8062   -3911.4277   -7129.2681    83.170648 
   71800    348.67097   -107.56826   0.31548482   -107.25278    5769.1604    4.3551681    4.3551681    4.3551681    5769.1604    23596.821   -3233.3375   -3056.0022   -913.42202    843.47166    3433.3176    82.606605 
   71900    291.44991   -107.51717      0.26371   -107.25346    4868.3819    4.3528379    4.3528379    4.3528379    4868.3819    13937.693    7446.2091   -6778.7567   -2704.5072   -2772.0287   -2572.3355    82.474081 
   72000    458.79367   -107.66928   0.41512616   -107.25416   -7995.0896    4.3646591    4.3646591    4.3646591   -7995.0896    3771.7949   -11810.741   -15946.322   -325.39423    1280.9059   -4348.8856    83.147844 
   72100    543.33045   -107.74372   0.49161681    -107.2521   -589.43212    4.3515936    4.3515936    4.3515936   -589.43212   -4422.4679   -1042.0793    3696.2508    3679.9801    88.022255    2487.3793    82.403375 
   72200    317.92294   -107.54192   0.28766336   -107.25426   -6029.7511    4.3584608    4.3584608    4.3584608   -6029.7511   -8912.0594    4661.8766   -13839.071   -1162.7218   -4968.8219   -6503.0557    82.794107 
   72300    362.61143    -107.5813   0.32809844   -107.25321   -1751.9231    4.3618976    4.3618976    4.3618976   -1751.9231    11632.425   -10614.566   -6273.6282    628.72384   -404.49744   -1182.7946    82.990124 
   72400    375.39783   -107.59324   0.33966784   -107.25357    8121.1569    4.3497998    4.3497998    4.3497998    8121.1569     27052.67    4051.0878   -6740.2876   -4038.7846   -6189.8571   -3533.3943    82.301511 
   72500    399.39267   -107.61836   0.36137888   -107.25699   -5207.7941    4.3633204    4.3633204    4.3633204   -5207.7941    6284.0703    346.42519   -22253.878   -2230.9226    1656.9953   -3671.4497    83.071356 
   72600    552.01212   -107.75197   0.49947216    -107.2525   -7414.7147    4.3557746    4.3557746    4.3557746   -7414.7147   -10697.563   -6279.9524   -5266.6282     110.1022     -341.091    141.45601    82.641121 
   72700    265.00879   -107.49395   0.23978553   -107.25417    261.93066    4.3523414    4.3523414    4.3523414    261.93066   -5158.0553    8837.2283    -2893.381    2737.1135   -4310.5506   -2173.6404     82.44586 
   72800    435.71134   -107.64808   0.39424077   -107.25383   -10882.825     4.365309     4.365309     4.365309   -10882.825    1291.8639   -16097.298    -17843.04   -1508.8651   -104.02698   -316.51174    83.184991 
   72900    359.08076   -107.57955   0.32490382   -107.25465    11510.294    4.3495406    4.3495406    4.3495406    11510.294    28510.319    809.35095    5211.2128   -253.79817   -2957.3097    1469.4488    82.286799 
   73000    411.15003   -107.62803   0.37201719   -107.25602   -3999.1768    4.3596566    4.3596566    4.3596566   -3999.1768    571.61446    6142.5455    -18711.69   -2586.4168   -3820.0302   -3659.2924    82.862272 
   73100    434.33808   -107.64542   0.39299822   -107.25242   -6134.9533     4.360025     4.360025     4.360025   -6134.9533   -8936.2323   -6608.9913   -2859.6362   -1555.5801    2350.0919   -127.95895    82.883281 
   73200    357.64041   -107.57624   0.32360056   -107.25264   -2284.7569    4.3518286    4.3518286    4.3518286   -2284.7569   -8976.6846    3666.3792   -1543.9653    5514.1239    -1397.828     1811.431    82.416722 
   73300    413.30448   -107.62849   0.37396658   -107.25453   -6864.2848    4.3612187    4.3612187    4.3612187   -6864.2848    7936.6329   -6565.0058   -21964.482     1004.193    2662.2422   -4888.4657    82.951375 
   73400    426.60942   -107.63984   0.38600517   -107.25384   -2106.9738    4.3570003    4.3570003    4.3570003   -2106.9738    14901.212   -13015.063   -8207.0708    313.61842   -113.59264    2912.2788    82.710903 
   73500    362.69404   -107.58219   0.32817319   -107.25401    -1043.493    4.3539804    4.3539804    4.3539804    -1043.493   -1043.4014    2610.9145    -4697.992   -1041.8779   -3045.8222   -2356.0222    82.539037 
   73600    414.12422    -107.6281   0.37470829   -107.25339   -6700.6833    4.3615155    4.3615155    4.3615155   -6700.6833   -2233.2159   -5254.4104   -12614.424   -3261.0758    1656.2396   -3870.4101    82.968314 
   73700    425.36124   -107.63895   0.38487579   -107.25407   -2454.4707    4.3550167    4.3550167    4.3550167   -2454.4707   -8983.1843   -2024.4711    3644.2432    1384.4099   -3346.6247   -896.63659     82.59799 
   73800    386.22891   -107.60552   0.34946804   -107.25606    2750.2735    4.3554112    4.3554112    4.3554112    2750.2735    21226.086    2636.1077   -15611.373    4258.2845    2256.5782   -6295.1196    82.620436 
   73900    402.22282   -107.61861   0.36393966   -107.25467   -5371.2939    4.3610503    4.3610503    4.3610503   -5371.2939     5455.877   -14124.747   -7445.0115   -2425.8144     2827.493   -77.066487    82.941768 
   74000    332.99706   -107.55539   0.30130273   -107.25408   -2650.8949    4.3521371    4.3521371    4.3521371   -2650.8949   -2385.4253   -5813.7076    246.44815    2902.1473   -14.780731   -3021.6069    82.434251 
   74100    408.43179   -107.62431   0.36955766   -107.25475   -6639.4397    4.3588265    4.3588265    4.3588265   -6639.4397    2188.5012   -5804.7156   -16302.105   -3137.5697    667.51495   -1564.9579    82.814949 
   74200    544.57616   -107.74644   0.49274395   -107.25369   -11297.023     4.360379     4.360379     4.360379   -11297.023   -8259.7481   -15142.324   -10488.997    1242.8637    1028.9974    2079.9879    82.903473 
   74300    313.90453    -107.5388   0.28402742   -107.25477    11460.418    4.3499168    4.3499168    4.3499168    11460.418    31674.578    4356.4786   -1649.8034    5664.6394   -611.43911   -3844.9763    82.308154 
   74400    387.27067    -107.6047   0.35041064   -107.25429   -8485.4485    4.3625868    4.3625868    4.3625868   -8485.4485    484.19369   -10914.501   -15026.038      1429.06    3228.4091    1397.8071    83.029465 
   74500     311.2279   -107.53507   0.28160554   -107.25347    -3306.299    4.3565626    4.3565626    4.3565626    -3306.299   -4230.3152   -10687.673    4999.0914    2592.0075    1645.0487    -137.2137    82.685977 
   74600    471.06815   -107.67986   0.42623237   -107.25363   -254.49614    4.3514243    4.3514243    4.3514243   -254.49614    1283.9678    5253.2527   -7300.7089    1019.5335   -189.18801   -3770.2558    82.393755 
   74700    505.64386   -107.71168   0.45751719   -107.25416   -12427.568    4.3658987    4.3658987    4.3658987   -12427.568   -6977.4349   -18140.446   -12164.823   -3916.2232   -2350.6446    1227.9542    83.218709 
   74800    309.60806   -107.53392   0.28013988   -107.25378    8736.4835    4.3497994    4.3497994    4.3497994    8736.4835    28158.358   -7318.3693    5369.4617     523.2115   -4238.7182   -131.92261     82.30149 
   74900    322.13378   -107.54609   0.29147341   -107.25461   -4018.0583    4.3581202    4.3581202    4.3581202   -4018.0583    7403.7033   -4775.0312   -14682.847    532.27669   -1071.3513   -1421.9664    82.774702 
   75000    418.22464   -107.63215   0.37841844   -107.25373   -12250.035    4.3627325    4.3627325    4.3627325   -12250.035    -10271.21   -14348.271   -12130.626    2514.4925    1815.2861    503.18264    83.037785 
   75100    510.61629   -107.71512   0.46201635   -107.25311    3316.5609    4.3475437    4.3475437    4.3475437    3316.5609    1929.8138     6900.156    1119.7131    1057.0388   -277.24064   -3014.8873    82.173516 
   75200    448.80722   -107.66079   0.40609021    -107.2547   -10923.947    4.3655791    4.3655791    4.3655791   -10923.947   -4901.1814   -9850.6859   -18019.973   -1788.4772    3785.7044   -1969.3507    83.200435 
   75300    269.28035   -107.49808   0.24365052   -107.25443    6602.9168    4.3526375    4.3526375    4.3526375    6602.9168    18342.898    -8775.266    10241.118    1032.8152   -3627.8472   -3695.7758    82.462689 
   75400     319.4123   -107.54377   0.28901096   -107.25476    3007.1368    4.3530318    4.3530318    4.3530318    3007.1368    15977.197    420.40015   -7376.1868   -572.14748   -2293.2555   -4278.0855    82.485104 
   75500    496.03359   -107.70282   0.44882162     -107.254    -13332.76    4.3655296    4.3655296    4.3655296    -13332.76   -11993.663   -14459.977   -13544.639    3645.7001    2678.3538    1508.4848    83.197603 
   75600    496.46944   -107.70225   0.44921598   -107.25303    804.86892     4.348192     4.348192     4.348192    804.86892    4975.0672   -6385.4315    3824.9711    964.93214   -2952.5623   -4739.7335    82.210284 
   75700    342.95678   -107.56506    0.3103145   -107.25475   -6950.6746    4.3607844    4.3607844    4.3607844   -6950.6746    122.64106   -6896.3684   -14078.296    -2534.134    4506.6099    757.08566    82.926596 
   75800    348.16037   -107.56871   0.31502282   -107.25369   -3959.9147     4.358823     4.358823     4.358823   -3959.9147    7421.7924   -10309.722   -8991.8144   -2345.6897    59.203705    1061.3115    82.814752 
   75900    316.16799   -107.54021   0.28607545   -107.25413     8457.635    4.3501688    4.3501688    4.3501688     8457.635    22558.992    1503.1428    1310.7699   -3181.3977   -5067.9034   -4103.1245    82.322457 
   76000    567.50075   -107.76696    0.5134866   -107.25347    -10658.81    4.3633723    4.3633723    4.3633723    -10658.81   -13285.535   -4421.3387   -14269.557    -3866.499    1449.4285    1301.1127    83.074325 
   76100    400.54795   -107.61545    0.3624242   -107.25302    1305.5373    4.3546735    4.3546735    4.3546735    1305.5373    4584.8772   -10246.992    9578.7261     2250.837    84.589475   -2900.1966    82.578465 
   76200     288.7004   -107.51501   0.26122219   -107.25378   -2104.2652     4.352861     4.352861     4.352861   -2104.2652    510.20984   -1161.9098   -5661.0955    1481.9751    2941.9029    -1176.978    82.475391 
   76300    384.18887    -107.6021   0.34762217   -107.25448    -8989.962    4.3633594    4.3633594    4.3633594    -8989.962    1211.8003   -10952.156    -17229.53    845.60919    4438.6275    553.65325    83.073586 
   76400    407.97557   -107.62393   0.36914487   -107.25478    3628.9462    4.3506968    4.3506968    4.3506968    3628.9462     22713.25   -9438.9624   -2387.4488    1509.6951   -53.536833   -2197.6972    82.352436 
   76500    525.66448   -107.73017   0.47563227   -107.25453   -10180.473    4.3586497    4.3586497    4.3586497   -10180.473   -9745.6533   -7125.7603   -13670.005    2508.3783    2177.1443    906.39504    82.804874 
   76600     412.9623   -107.62749   0.37365697   -107.25383   -1961.2742    4.3590845    4.3590845    4.3590845   -1961.2742    9598.4333   -6994.9524   -8487.3035   -789.34225   -169.99071   -3006.7018    82.829655 
   76700    231.86751   -107.46589    0.2097986   -107.25609     1675.862    4.3521238    4.3521238    4.3521238     1675.862    11158.044   -3908.0477   -2222.4107    5730.7391     2817.656   -4859.6969    82.433497 
   76800    451.77978   -107.66538   0.40877984    -107.2566   -2548.0871    4.3588006    4.3588006    4.3588006   -2548.0871    6170.7835   -1443.5624   -12371.482   -993.10606    3717.6968    127.01733    82.813476 
   76900    401.61372   -107.61934   0.36338854   -107.25595    98.551799    4.3583226    4.3583226    4.3583226    98.551799    11563.239   -14555.273    3287.6896     2395.146    3986.9215   -6941.8386    82.786234 
   77000    405.84164   -107.62145   0.36721405   -107.25424   -4529.7175    4.3513952    4.3513952    4.3513952   -4529.7175   -7088.1923   -6991.7003    490.74011    141.14421   -2116.9094   -1990.1538      82.3921 
   77100    408.91608   -107.62258   0.36999586   -107.25259   -8373.1673     4.364042     4.364042     4.364042   -8373.1673   -673.63341   -9585.6001   -14860.268   -3413.5536   -2414.8018    1127.4904    83.112582 
   77200    353.82073   -107.57427   0.32014443   -107.25413    117.52097    4.3516442    4.3516442    4.3516442    117.52097    13960.782   -9782.7152   -3825.5034    5775.7169   -405.60935   -4065.2349    82.406248 
   77300    435.14998   -107.64851   0.39373284   -107.25478   -1420.8121    4.3559679    4.3559679    4.3559679   -1420.8121    9899.3809   -6695.9558   -7465.8614    363.03253   -364.45202    2103.3787    82.652124 
   77400    474.61578   -107.68197   0.42944233   -107.25253   -5959.8575    4.3626066    4.3626066    4.3626066   -5959.8575    1473.0608    -13930.57   -5422.0634     2698.436    4152.1537   -2356.4339    83.030598 
   77500    245.30574    -107.4758   0.22195779   -107.25384    1920.2963    4.3484804    4.3484804    4.3484804    1920.2963   -6695.8037   -1364.0008    13820.693     4987.845    176.73747   -2909.4623    82.226638 
   77600    462.04821   -107.67229   0.41807093   -107.25422   -9311.5423    4.3624801    4.3624801    4.3624801   -9311.5423   -11617.786   -3539.6001   -12777.241   -400.81714   -1316.6761    -73.89743    83.023373 
   77700    392.51018   -107.60988   0.35515146   -107.25473    2599.0316    4.3555368    4.3555368    4.3555368    2599.0316    14721.672   -10270.592    3346.0155   -1399.3104   -1065.8762   -5402.8874    82.627587 
   77800    404.47798   -107.62027   0.36598018   -107.25429   -1631.1389    4.3514697    4.3514697    4.3514697   -1631.1389    13506.467   -11018.208   -7381.6757     3122.832    1224.8338    2006.9897    82.396333 
   77900    437.80462   -107.64873   0.39613482    -107.2526   -6209.4825    4.3637266    4.3637266    4.3637266   -6209.4825    3190.3707   -12825.136   -8993.6826     -1112.16    4693.2628   -1366.2416    83.094563 
   78000    319.78723   -107.54414    0.2893502   -107.25479   -121.41783    4.3502489    4.3502489    4.3502489   -121.41783   -5514.6052   -6018.1841    11168.536    2400.2326    445.58838   -4283.9126    82.327006 
   78100    445.38528   -107.65854   0.40299396   -107.25555   -6173.5842    4.3578512    4.3578512    4.3578512   -6173.5842   -10904.489   -9146.6654    1530.4016    580.67875    279.74496    2315.3575    82.759374 
   78200    483.55942   -107.69142   0.43753473   -107.25389    -930.0402    4.3601599    4.3601599    4.3601599    -930.0402   -261.51682   -8821.0207    6292.4169   -433.14876   -3137.5314   -5895.0868    82.890977 
   78300    310.79803   -107.53538   0.28121659   -107.25416    4525.0281    4.3493065    4.3493065    4.3493065    4525.0281     17033.94   -1385.9425   -2072.9136     -991.349    -4051.987   -1919.5626    82.273512 
   78400    366.28358   -107.58514   0.33142108   -107.25371   -4002.3228    4.3634961    4.3634961    4.3634961   -4002.3228    3922.8073    -4631.701   -11298.075   -2285.3824    5042.1395    4223.4325    83.081393 
   78500    392.67657   -107.60856   0.35530202   -107.25326     2891.175     4.353283     4.353283     4.353283     2891.175    10160.271   -5033.9929    3547.2467    2721.9393    -1387.306    -5817.316    82.499381 
   78600    434.42727   -107.64746   0.39307892   -107.25438   -2741.1396    4.3531267    4.3531267    4.3531267   -2741.1396    1159.5258   -11228.413    1845.4687    583.35349    2690.5984    409.51463    82.490496 
   78700    497.31001    -107.7024   0.44997655   -107.25242   -8774.4808    4.3639702    4.3639702    4.3639702   -8774.4808   -10990.956   -15480.347    147.86081    1656.6876   -1078.1442   -142.35898    83.108478 
   78800    320.24758   -107.54279   0.28976674   -107.25302     5251.334    4.3484078    4.3484078    4.3484078     5251.334    15233.223   -2316.9082    2837.6868    493.03494   -4169.4113   -8048.1155    82.222525 
   78900    370.40793   -107.58958   0.33515287   -107.25442   -3958.5806    4.3601779    4.3601779    4.3601779   -3958.5806    2216.8455   -7903.1735   -6189.4136   -1199.0203    3738.6796    1471.6966    82.892005 
   79000    374.26505   -107.59204   0.33864288    -107.2534    4564.5129    4.3582737    4.3582737    4.3582737    4564.5129    18029.098   -8964.2207    4628.6615   -4640.5402    96.015565   -3900.0723    82.783443 
   79100    475.38522   -107.68365   0.43013854   -107.25351    2021.9754    4.3486872    4.3486872    4.3486872    2021.9754    6965.2605   -1576.2635    676.92929    2454.7258    2484.8276   -3206.8047    82.238375 
   79200    394.47276   -107.61102   0.35692724   -107.25409   -4947.0894    4.3632652    4.3632652    4.3632652   -4947.0894   -7913.8736   -6741.9111    -185.4835    -3.154231     -537.565    985.91086    83.068204 
   79300     383.5412   -107.60002   0.34703613   -107.25298   -1090.0174    4.3539282    4.3539282    4.3539282   -1090.0174    2925.4809   -4789.7532   -1405.7799    2957.9294   -1488.6288   -5781.2674    82.536068 
   79400    366.98339   -107.58632   0.33205428   -107.25427     3390.048     4.351796     4.351796     4.351796     3390.048    16265.215   -9382.5971    3287.5256    1134.2546   -3311.1032    1560.3964     82.41487 
   79500    368.50889   -107.58788   0.33343458   -107.25445   -3476.1248    4.3640827    4.3640827    4.3640827   -3476.1248    10846.051   -18349.744   -2924.6819   -2665.2516    2409.1182   -4147.2204    83.114905 
   79600    509.73558   -107.71352   0.46121946    -107.2523    2757.4502    4.3495743    4.3495743    4.3495743    2757.4502    8200.7971   -77.722835    149.27623    255.16955     1828.603   -3305.1547    82.288714 
   79700    380.13619   -107.59855   0.34395522   -107.25459    711.05659    4.3576745    4.3576745    4.3576745    711.05659   -3674.3246    3182.3535    2625.1409    278.63203    1664.0128    3673.3484    82.749309 
   79800     351.2329   -107.57282   0.31780291   -107.25501   -6576.1871    4.3609769    4.3609769    4.3609769   -6576.1871   -5140.7384   -9857.4406   -4730.3822    1828.2248    1087.3248   -5686.9061    82.937578 
   79900    377.11066    -107.5947   0.34121765   -107.25348    13557.222    4.3469614    4.3469614    4.3469614    13557.222    31851.365    4286.0597    4534.2414    5694.1515   -1074.7007    581.69208      82.1405 
   80000    391.07213   -107.60788   0.35385028   -107.25403   -6118.0984    4.3649269    4.3649269    4.3649269   -6118.0984    1949.7868   -14785.183   -5518.8994   -1451.9502    566.00402   -677.79926    83.163147 
   80100    453.15196   -107.66223   0.41002142   -107.25221   -1442.3221    4.3522107    4.3522107    4.3522107   -1442.3221    5547.0563   -4538.4289   -5335.5938   -2581.8337    2365.1763   -7918.6238    82.438435 
   80200    434.99832   -107.64726   0.39359562   -107.25366    3077.9703    4.3530369    4.3530369    4.3530369    3077.9703    40.331254   -2140.6278    11334.207    3095.5371    1462.6798   -144.28923    82.485393 
   80300    336.62918   -107.56081   0.30458915   -107.25622   -11984.896    4.3647765    4.3647765    4.3647765   -11984.896   -4307.8562   -22468.677   -9178.1535   -4353.1788   -553.06598   -3269.1036     83.15455 
   80400    424.39264   -107.63754   0.38399938   -107.25354    15669.602    4.3453265    4.3453265    4.3453265    15669.602    36962.944    1545.4377    8500.4234    4461.2367   -3620.9941   -6103.4244    82.047856 
   80500    412.42661   -107.62729   0.37317227   -107.25412   -658.44898    4.3621085    4.3621085    4.3621085   -658.44898    5307.9902    -3466.285   -3817.0522    3054.8293    74.252782    1001.0041    83.002162 
   80600    301.62659    -107.5274   0.27291808   -107.25448   -7406.4935    4.3573545    4.3573545    4.3573545   -7406.4935   -5261.9558    -10933.09   -6024.4345   -1560.8515    2023.8291   -8047.9684    82.731076 
   80700    479.53226   -107.68708   0.43389087   -107.25319    9096.3222     4.347804     4.347804     4.347804    9096.3222    12134.807    6510.0754    8644.0839   -888.03077   -802.55303   -943.23889    82.188274 
   80800     410.4367   -107.62662   0.37137175   -107.25525   -11651.482    4.3664761    4.3664761    4.3664761   -11651.482   -7333.4137   -20479.504   -7141.5279   -498.84841    4921.0046   -3728.3049    83.251732 
   80900    433.24974   -107.64578   0.39201347   -107.25377    10179.936    4.3480582    4.3480582    4.3480582    10179.936    32696.929   -1658.4348   -498.68494   -962.61209   -1383.3296   -5698.8513    82.202695 
   81000    413.38975   -107.62713   0.37404373   -107.25308    5850.7647     4.357631     4.357631     4.357631    5850.7647    15814.791   -3870.9301    5608.4331    6274.4984    593.97907    3862.0288     82.74683 
   81100     212.3766   -107.44706   0.19216281   -107.25489   -10146.822    4.3605539    4.3605539    4.3605539   -10146.822   -8379.1796   -13667.105   -8394.1819    877.76335    1944.7136   -7445.4779    82.913448 
   81200     512.1968   -107.71558   0.46344643   -107.25213    5310.0767    4.3491909    4.3491909    4.3491909    5310.0767    7937.9854    2288.6688    5703.5759    2356.7824    2232.1054    658.45431    82.266951 
   81300    511.12838   -107.71585    0.4624797   -107.25337   -2277.7173    4.3608668    4.3608668    4.3608668   -2277.7173    -1832.087   -349.54635   -4651.5185   -717.22501    1271.2536   -2496.3039    82.931296 
   81400    353.42997   -107.57571   0.31979086   -107.25592   -1829.9321    4.3555662    4.3555662    4.3555662   -1829.9321    15220.787   -10200.399   -10510.184   -5407.8527    98.384138   -7532.6012    82.629257 
   81500    362.36258   -107.58142   0.32787328   -107.25354    14120.492    4.3513575    4.3513575    4.3513575    14120.492     27566.55    4004.6879    10790.237    375.70291   -2848.7561   -367.94074    82.389961 
   81600    272.98674   -107.50271   0.24700414   -107.25571   -9989.0061     4.362988     4.362988     4.362988   -9989.0061   -5015.1856   -18033.039   -6918.7935    705.37771   -485.48399   -6512.0492    83.052373 
   81700    519.72898   -107.72352    0.4702617   -107.25326    948.18659    4.3506385    4.3506385    4.3506385    948.18659    781.14651   -2238.7805    4302.1938    -3873.878   -3351.3368   -1624.9723    82.349126 
   81800    546.55789    -107.7474   0.49453706   -107.25286    2801.0871    4.3560698    4.3560698    4.3560698    2801.0871    762.44368    1907.0744    5733.7432    464.00926    2662.0421   -2912.4763    82.657923 
   81900    272.85943   -107.50386   0.24688895   -107.25698   -12818.154    4.3605194    4.3605194    4.3605194   -12818.154   -4516.4803   -17079.774   -16858.209   -2101.5529    4685.4993   -6303.8045    82.911478 
   82000    307.64416   -107.53296    0.2783629    -107.2546    15449.661    4.3474964    4.3474964    4.3474964    15449.661    31140.328    2372.2752     12836.38   -3037.7799   -2958.0863    -2156.107    82.170833 
   82100    426.46255   -107.64057   0.38587228    -107.2547   -5090.0428    4.3640718    4.3640718    4.3640718   -5090.0428    1393.0111   -6625.2986   -10037.841    2830.0777      773.046    -5563.165    83.114283 
   82200     478.6147   -107.68662   0.43306064   -107.25356   -1283.3154    4.3523875    4.3523875    4.3523875   -1283.3154    2919.7247   -5711.0776   -1058.5934    2235.9124    1798.2397   -3738.5871    82.448482 
   82300    486.80178   -107.69287   0.44046848    -107.2524    3962.0502    4.3537562    4.3537562    4.3537562    3962.0502   -998.51133     4646.798    8237.8638    1276.1316   -1299.5852    299.96352    82.526288 
   82400    269.16419   -107.49859   0.24354542   -107.25504   -11516.338    4.3624914    4.3624914    4.3624914   -11516.338   -8610.7086   -15368.761   -10569.545     155.8799    5759.2961   -4666.2336    83.024018 
   82500    328.37787    -107.5515    0.2971232   -107.25438    8118.5324    4.3492479    4.3492479    4.3492479    8118.5324    24760.529    -2441.825    2036.8932   -2525.3081    1571.2784     426.4561    82.270189 
   82600    561.15196   -107.76129   0.50774209   -107.25355    928.46601     4.358685     4.358685     4.358685    928.46601      12191.1   -2166.8858   -7238.8162   -2944.0428   -4812.5656   -1459.8094    82.806885 
   82700    364.06083   -107.58437   0.32940989   -107.25496   -6607.0941    4.3592775    4.3592775    4.3592775   -6607.0941    3072.4952   -10363.707   -12530.071   -3529.5704   -201.06505   -6129.8724    82.840657 
   82800    432.77532   -107.64382    0.3915842   -107.25223    4204.3857    4.3478726    4.3478726    4.3478726    4204.3857   -642.42191    737.74144    12517.837   -3979.2433   -3871.7037    2040.8514    82.192169 
   82900    294.27481   -107.52105   0.26626603   -107.25478    -4988.729    4.3646186    4.3646186    4.3646186    -4988.729   -1780.0036   -2928.9482   -10257.235    2641.5709    3793.7233   -6631.2583    83.145531 
   83000    421.84033   -107.63754   0.38168999   -107.25585      6359.47     4.348145     4.348145     4.348145      6359.47    18395.662    86.742243    596.00602   -6458.7222    2248.7342   -1101.9743    82.207618 
   83100     454.8559   -107.66706   0.41156318    -107.2555    4508.2295    4.3579376    4.3579376    4.3579376    4508.2295    15927.283    4078.0621   -6480.6563   -674.20914    879.97542   -753.82188    82.764296 
   83200    378.44593   -107.59709   0.34242583   -107.25466   -7469.1576    4.3589823    4.3589823    4.3589823   -7469.1576    3828.4213   -14034.349   -12201.545   -1597.9528    1638.9798   -6813.0046    82.823834 
   83300     371.6443   -107.58967   0.33627157    -107.2534    1200.6932    4.3491735    4.3491735    4.3491735    1200.6932   -132.76447    380.93942    3353.9046    56.229713   -898.93112    1198.9041    82.265968 
   83400    463.20004   -107.67269   0.41911313   -107.25358   -4329.2923    4.3631337    4.3631337    4.3631337   -4329.2923    4972.2776   -3545.5197   -14414.635    1317.6441    73.355148   -7683.8884    83.060698 
   83500    433.29481   -107.64582   0.39205425   -107.25376    4463.4093    4.3510703    4.3510703    4.3510703    4463.4093    19518.291   -4700.0333   -1428.0302     1124.001    7991.6811   -1315.3783    82.373649 
   83600    278.06677   -107.50601   0.25160065   -107.25441    4232.4791    4.3562734    4.3562734    4.3562734    4232.4791    12614.773   -3480.6664    3563.3306   -806.52242    1168.3805   -1273.0803    82.669515 
   83700    416.58734   -107.62947   0.37693698   -107.25254   -5040.9755    4.3595451    4.3595451    4.3595451   -5040.9755   -7332.7146    -3271.898   -4518.3139   -912.95152    1025.2989   -5486.0251    82.855917 
   83800    411.61916   -107.62581   0.37244167   -107.25337    3627.7345    4.3504607    4.3504607    4.3504607    3627.7345    4704.8938    1713.9099    4464.3996   -1783.7812    2171.4261    1999.7048     82.33903 
   83900    469.68227   -107.67925   0.42497839   -107.25427   -3285.6009    4.3600527    4.3600527    4.3600527   -3285.6009    2260.9032    50.275313   -12167.981    -1046.717   -7123.0506   -3249.5789    82.884862 
   84000     432.6094   -107.64479   0.39143407   -107.25336    643.19216    4.3550066    4.3550066    4.3550066    643.19216    24081.559   -12093.901   -10058.082   -1047.5489     1096.198   -2334.9736    82.597412 
   84100    261.10866   -107.49069    0.2362566   -107.25443   -1504.0664    4.3533825    4.3533825    4.3533825   -1504.0664    398.18272   -3979.0836   -931.29845   -4675.5359    1973.2974     517.1423    82.505039 
   84200    439.44985   -107.65184   0.39762346   -107.25422   -8263.2049    4.3597316    4.3597316    4.3597316   -8263.2049   -12176.912   -3322.3945   -9290.3086    751.55346    -227.5175   -4352.8075    82.866551 
   84300    491.38134   -107.69813   0.44461216   -107.25352    2230.8578    4.3527621    4.3527621    4.3527621    2230.8578    4157.0783    858.48431    1677.0108   -4000.5933    3370.5417   -1908.9446    82.469771 
   84400    378.31361   -107.59696   0.34230611   -107.25465   -2461.6784    4.3564526    4.3564526    4.3564526   -2461.6784   -2455.8803   -2258.4864   -2670.6685   -4093.4249   -3494.2794   -612.35108    82.679719 
   84500    341.79071    -107.5627   0.30925942   -107.25344    5343.2147    4.3564955    4.3564955    4.3564955    5343.2147    26306.578   -3558.1737   -6718.7607    2422.8142   -2203.4412   -4837.6933    82.682157 
   84600    353.79185   -107.57425    0.3201183   -107.25413   -1518.7901    4.3541736    4.3541736    4.3541736   -1518.7901     1064.895   -663.37271   -4957.8925   -2742.6736    2975.6258    1301.5928    82.550025 
   84700    395.88423   -107.61402   0.35820437   -107.25581   -7218.3025    4.3576223    4.3576223    4.3576223   -7218.3025   -5356.1905   -2626.1712   -13672.546   -1745.5562   -3171.8114   -5640.7749    82.746332 
   84800    618.57518   -107.81265   0.55969982   -107.25295   -5774.6696    4.3546986    4.3546986    4.3546986   -5774.6696   -160.10136   -9314.0102   -7849.8973    2844.5481    6503.1964   -2486.4647     82.57989 
   84900    318.82163   -107.54381   0.28847651   -107.25534   -5530.5051    4.3572845    4.3572845    4.3572845   -5530.5051   -1966.3681   -9299.1685   -5325.9788   -6274.8807   -1862.5733    274.70743    82.727093 
   85000    323.25552   -107.54764   0.29248839   -107.25515    4102.9511     4.354647     4.354647     4.354647    4102.9511    20217.377   -3469.0446   -4439.4796     2125.797   -7006.0242   -7649.6337    82.576955 
   85100    397.96672   -107.61329   0.36008865   -107.25321    3510.6555    4.3568808    4.3568808    4.3568808    3510.6555    12202.013    495.59355     -2165.64   -1881.3856   -1477.9801    3686.3641    82.704101 
   85200    307.01452   -107.53348   0.27779319   -107.25569   -836.85605    4.3553928    4.3553928    4.3553928   -836.85605   -914.21106    1157.9818   -2754.3389   -4713.9646    -5736.807   -4881.1588    82.619392 
   85300    583.62464   -107.78032   0.52807584   -107.25224   -4314.9306    4.3557094    4.3557094    4.3557094   -4314.9306   -567.84597   -8655.9761   -3720.9698   -708.52359   -1497.9946   -3923.2081     82.63741 
   85400    337.76994   -107.55957   0.30562134   -107.25395   -4497.3982    4.3574297    4.3574297    4.3574297   -4497.3982   -9714.3219   -258.63627   -3519.2364   -3025.6737    3424.9649     496.7334    82.735362 
   85500    345.73104   -107.56856   0.31282471   -107.25574   -5293.9207    4.3539932    4.3539932    4.3539932   -5293.9207    4833.4897   -7491.4718    -13223.78   -2313.0219   -1907.5259    -4790.878    82.539767 
   85600    461.50638    -107.6714   0.41758067   -107.25382    5603.9878    4.3558311    4.3558311    4.3558311    5603.9878    25075.508    -951.1208   -7312.4237    958.30226   -428.27123   -692.60823    82.644338 
   85700    382.91441     -107.603     0.346469   -107.25653   -3102.0455    4.3569432    4.3569432    4.3569432   -3102.0455    2131.3775   -7982.3415   -3455.1726   -1492.5041   -1692.6729   -2014.3521     82.70765 
   85800     407.2134   -107.62366   0.36845524   -107.25521    849.44074    4.3541922    4.3541922    4.3541922    849.44074    6110.1747   -2069.1488   -1492.7036    1105.3131   -2596.0807   -3997.4612    82.551086 
   85900    448.07037   -107.65849   0.40542349   -107.25307   -2266.2333    4.3562347    4.3562347    4.3562347   -2266.2333   -12836.324    4713.4655    1324.1584    479.12591    4103.1694   -660.22977     82.66731 
   86000    249.70213   -107.48223   0.22593573   -107.25629   -2253.0903     4.356958     4.356958     4.356958   -2253.0903    3767.0161   -2942.8433   -7583.4438   -1788.2691    115.95929   -4321.9142    82.708495 
   86100     496.1553   -107.70216   0.44893174   -107.25323    5395.2384    4.3527938    4.3527938    4.3527938    5395.2384     25270.69   -4474.3742   -4610.6004    1438.2713    1499.3135   -2866.6996    82.471576 
   86200    415.65412   -107.63032   0.37609258   -107.25423   -2569.2864    4.3597203    4.3597203    4.3597203   -2569.2864    5732.8475   -4752.2834   -8688.4233   -1199.5646     -1075.13    342.93377    82.865908 
   86300    356.71248   -107.57711   0.32276095   -107.25434    -3111.499      4.35329      4.35329      4.35329    -3111.499    6618.7598   -7174.8996   -8778.3571   -1867.5969    -4964.321   -7780.4863    82.499781 
   86400    510.44424   -107.71403   0.46186068   -107.25217   -1627.6094    4.3562676    4.3562676    4.3562676   -1627.6094   -8911.8502    9804.2606   -5775.2385   -1372.0694    -1524.217    2621.3729    82.669183 
   86500    356.04747   -107.57687   0.32215924   -107.25471   -4264.2676    4.3592548    4.3592548    4.3592548   -4264.2676    6781.7713    -12200.84   -7373.7336   -3263.1591    1512.2549   -3030.1006    82.839366 
   86600    377.20895   -107.59616   0.34130658   -107.25485    8861.0001    4.3504732    4.3504732    4.3504732    8861.0001    20771.228    5055.6879    756.08437   -1709.4351   -353.21796   -5537.3528    82.339741 
   86700    398.78114   -107.61396   0.36082556   -107.25313   -687.68716    4.3606429    4.3606429    4.3606429   -687.68716    7051.3905   -3628.3641   -5486.0879    6258.1165    5125.0602    2887.7775    82.918524 
   86800    283.70264    -107.5126   0.25670011    -107.2559    1121.3635    4.3518861    4.3518861    4.3518861    1121.3635    4841.7011    2288.8856   -3766.4963   -3644.3757    -1533.387   -7905.4153    82.419991 
   86900    500.15008   -107.70693    0.4525463   -107.25439   -1874.2754    4.3556714    4.3556714    4.3556714   -1874.2754    -2279.412    2620.3641   -5963.7782    4260.6105   -3375.1518   -46.960023    82.635248 
   87000    456.57262    -107.6678   0.41311651   -107.25468   -2412.6217    4.3588762    4.3588762    4.3588762   -2412.6217    7475.4605   -10425.415   -4287.9101   -2145.6254   -245.51357   -703.90801    82.817781 
   87100    362.20621   -107.58376   0.32773179   -107.25603    2325.2384    4.3500532    4.3500532    4.3500532    2325.2384    14446.469   -710.02542   -6760.7284   -1733.5897   -2272.1484   -3520.4069    82.315895 
   87200    365.14473   -107.58455   0.33039063   -107.25416   -1854.5652    4.3608231    4.3608231    4.3608231   -1854.5652   -1449.7582    5731.3622   -9845.2994     4506.321    2152.4523    556.18863    82.928803 
   87300    392.60045   -107.60988   0.35523314   -107.25465    929.47603    4.3521538    4.3521538    4.3521538    929.47603    749.19722    1240.0209    799.20992    -3907.498   -98.047483   -3845.4011    82.435203 
   87400    403.79294   -107.62098   0.36536034   -107.25562    975.02018    4.3553016    4.3553016    4.3553016    975.02018   -655.08095    6675.7563   -3095.6148    755.36492   -2056.5146   -3610.6953    82.614202 
   87500    490.85941   -107.69721   0.44413991   -107.25307   -3227.3052    4.3600648    4.3600648    4.3600648   -3227.3052   -2209.4419   -5154.1092   -2318.3645   -2653.0282    -742.0324   -11.726813    82.885554 
   87600    301.56527   -107.52724   0.27286259   -107.25437    5274.9827    4.3494167    4.3494167    4.3494167    5274.9827    22236.029   -1658.6753   -4752.4053   -4500.2628   -5812.3826   -5865.8059     82.27977 
   87700    348.72108   -107.56931   0.31553017   -107.25378   -3689.9637    4.3605312    4.3605312    4.3605312   -3689.9637   -3927.6169    5128.8484   -12271.123    4250.5288   -2793.0411    1248.5056    82.912153 
   87800    475.96893    -107.6827   0.43066669   -107.25204   -551.72786    4.3551844    4.3551844    4.3551844   -551.72786    6477.0545   -8120.4413   -11.796808    363.26947    3566.7521   -347.38317    82.607533 
   87900    430.36981   -107.64319   0.38940765   -107.25378   -665.11581    4.3527257    4.3527257    4.3527257   -665.11581     -24.1031    4565.2408   -6536.4852   -1299.5555   -4735.5413   -6894.1354    82.467705 
   88000    434.91283   -107.64738   0.39351827   -107.25386   -4591.4986    4.3600543    4.3600543    4.3600543   -4591.4986   -10346.524    4552.6448   -7980.6167    6048.6432    2088.8876    3944.1855    82.884952 
   88100    335.06903   -107.55703    0.3031775   -107.25385     7233.829    4.3514555    4.3514555    4.3514555     7233.829    21781.467    1932.4937   -2012.4737   -4935.8693   -2602.7086   -5258.0351    82.395529 
   88200    343.21198   -107.56578   0.31054541   -107.25524   -75.374626    4.3573489    4.3573489    4.3573489   -75.374626    4696.5823    1883.7375   -6806.4438    1866.3365   -5929.2914   -2013.7512    82.730757 
   88300    430.86493   -107.64331   0.38985564   -107.25345    2572.3888    4.3562479    4.3562479    4.3562479    2572.3888     10989.61   -5506.9197    2234.4767    4007.1037   -481.97277    2477.1329    82.668063 
   88400    471.00662   -107.68083   0.42617669   -107.25465   -3994.0354     4.352725     4.352725     4.352725   -3994.0354    2177.9115   -5353.6704   -8806.3473   -2800.6901    890.12416   -4765.1943    82.467664 
   88500    330.24836   -107.55426   0.29881565   -107.25544   -2666.1052    4.3579584    4.3579584    4.3579584   -2666.1052   -12047.818    13727.777   -9678.2742    2784.8319   -1744.2789    1599.5679    82.765483 
   88600    490.31795   -107.69685   0.44364999    -107.2532    518.34667    4.3548457    4.3548457    4.3548457    518.34667    10472.083   -3634.5211   -5282.5217   -587.11111    875.74013   -4101.1083    82.588258 
   88700    322.87265   -107.54734   0.29214196    -107.2552    6951.5356    4.3550189    4.3550189    4.3550189    6951.5356    19877.445     6009.007   -5031.8454   -4990.1482   -3875.1513   -956.43856    82.598112 
   88800    382.72552   -107.60009   0.34629809   -107.25379    3247.9117    4.3561528    4.3561528    4.3561528    3247.9117    7379.6373    4239.6323   -1875.5345    4009.1027   -6626.4528   -1130.9511    82.662646 
   88900    427.82211   -107.63947   0.38710244   -107.25236   -1870.1285    4.3559193    4.3559193    4.3559193   -1870.1285    7761.4448   -3704.1807   -9667.6495    -1988.235   -842.66846   -4977.0241    82.649358 
   89000    357.05988   -107.57666   0.32307528   -107.25359   -1830.5391    4.3548166    4.3548166    4.3548166   -1830.5391   -14174.556    10383.096   -1700.1571   -485.11249   -4072.1888    2023.2359    82.586602 
   89100    478.08363    -107.6855   0.43258012   -107.25292   -2001.9876    4.3573333    4.3573333    4.3573333   -2001.9876    1210.3496   -5137.6886   -2078.6237    5094.4959    2825.3016     -1613.74     82.72987 
   89200    420.49411     -107.634   0.38047191   -107.25353    2771.5313    4.3540946    4.3540946    4.3540946    2771.5313    22800.475   -4412.8742   -10073.007   -4514.6624    -1832.604   -4290.5093    82.545535 
   89300    294.73731   -107.52146   0.26668451   -107.25478    3140.9506    4.3559461    4.3559461    4.3559461    3140.9506     3242.748    16720.879   -10540.775    2951.7844   -3762.1288     2585.617     82.65088 
   89400    448.96155   -107.65927   0.40622985   -107.25304   -1270.1478    4.3559336    4.3559336    4.3559336   -1270.1478    11601.203   -5469.7873   -9941.8589      2826.18   -770.38224   -3147.7483    82.650168 
   89500    441.12789   -107.65399   0.39914178   -107.25485   -719.66898    4.3533778    4.3533778    4.3533778   -719.66898   -10748.862    10136.307   -1546.4528    342.22549   -5100.9566   -4618.0428    82.504775 
   89600    383.36798   -107.60243   0.34687941   -107.25555   -1531.3117    4.3584003    4.3584003    4.3584003   -1531.3117   -134.16754    -760.1622   -3699.6054    5133.9144   -1117.6516    3727.4399    82.790661 
   89700    403.99204   -107.61869   0.36554049   -107.25315   -427.99983    4.3545085    4.3545085    4.3545085   -427.99983    14657.441   -5722.6862   -10218.754   -1061.3862    4496.5018   -4036.8637    82.569074 
   89800    284.76279   -107.51212   0.25765936   -107.25446    3558.4773    4.3539458    4.3539458    4.3539458    3558.4773    3200.0988    13059.701   -5584.3678   -1215.9143   -5667.7911    708.91928    82.537069 
   89900    443.81759   -107.65492   0.40157548   -107.25335   -3780.2514    4.3593639    4.3593639    4.3593639   -3780.2514    566.06922   -4697.9754   -7208.8479    3317.7267   -437.96403    -920.2537    82.845584 
   90000    546.08057    -107.7471   0.49410517     -107.253    1312.0164    4.3501578    4.3501578    4.3501578    1312.0164    2702.3681    1420.2606   -186.57966    -3338.645   -4880.5545   -2547.2551    82.321832 
   90100    316.02453   -107.54176   0.28594564   -107.25582   -450.52597    4.3590096    4.3590096    4.3590096   -450.52597   -1197.6262    12628.183   -12782.135    3778.5408   -5480.1534    365.50764    82.825389 
   90200    388.48732   -107.60593   0.35151149   -107.25442    -4332.941    4.3562256    4.3562256    4.3562256    -4332.941    9311.7134   -8113.4855   -14197.051    495.87612    4459.1369   -5893.8956    82.666791 
   90300    334.01136   -107.55648    0.3022205   -107.25426    9158.1952    4.3498648    4.3498648    4.3498648    9158.1952     10142.44    13796.404     3535.741   -1927.6422   -2661.8025    2793.2944    82.305203 
   90400    418.27264   -107.63255   0.37846187   -107.25409   -7165.5317    4.3636182    4.3636182    4.3636182   -7165.5317   -10729.712   -5128.9234   -5637.9598     5156.804      2391.16   -1991.5288    83.088369 
   90500    473.72286   -107.68042    0.4286344   -107.25179    3116.0715    4.3490644    4.3490644    4.3490644    3116.0715     13159.04   -665.47439   -3145.3512   -1364.7901   -2611.4167   -5277.1441    82.259775 
   90600    374.58314   -107.59312    0.3389307   -107.25419   -142.24317    4.3565195    4.3565195    4.3565195   -142.24317   -647.36672    10519.967    -10299.33    3419.1094   -4814.1312    2109.5024    82.683527 
   90700     319.7598   -107.54459   0.28932538   -107.25526   -73.725999    4.3585709    4.3585709    4.3585709   -73.725999    16449.889   -4174.7449   -12496.322    5578.2766    266.00083   -4019.6317    82.800381 
   90800    507.24834   -107.71143   0.45896896   -107.25246    6108.2394    4.3494238    4.3494238    4.3494238    6108.2394    13597.858    1295.8098    3431.0506    -2157.766    857.25868   -4472.1654    82.280168 
   90900    359.36424   -107.58013   0.32516031   -107.25497   -856.42957    4.3603128    4.3603128    4.3603128   -856.42957   -1004.9542    6533.7894   -8098.1239    2891.6344    724.57425    811.47406    82.899697 
   91000    364.24459   -107.58389   0.32957616   -107.25432   -3920.1808    4.3538335    4.3538335    4.3538335   -3920.1808    4796.2451   -4372.4659   -12184.322    3250.3595    2874.1745   -2912.5015    82.530683 
   91100     450.0596   -107.66074   0.40722338   -107.25352    3248.9381    4.3525991    4.3525991    4.3525991    3248.9381    3524.1651    8066.5704   -1843.9214   -3846.8961   -4632.5746   -2398.0868    82.460506 
   91200      304.282   -107.53077   0.27532075   -107.25545    2920.8623    4.3599013    4.3599013    4.3599013    2920.8623    13440.426   -1637.8657   -3039.9731    7963.7782   -2540.3842   -722.00422    82.876228 
   91300    509.07461    -107.7129    0.4606214   -107.25228     2873.967    4.3508907    4.3508907    4.3508907     2873.967    19808.195   -5382.5702   -5803.7234   -2001.6047    1059.0899   -4264.0231    82.363446 
   91400    366.85118   -107.58571   0.33193466   -107.25378    4066.0053    4.3569696    4.3569696    4.3569696    4066.0053    11799.921     7889.664   -7491.5694    756.37843    -2688.675    654.98804    82.709157 
   91500    375.62899   -107.59497     0.339877    -107.2551   -7430.4253    4.3561823    4.3561823    4.3561823   -7430.4253   -7194.5122   -1537.2684   -13559.495    4397.5584    2529.6015   -5588.2185    82.664327 
   91600    485.40795   -107.69297   0.43920731   -107.25376    2172.7695    4.3536279    4.3536279    4.3536279    2172.7695    5461.6736   -666.20258    1722.8374   -1138.1867   -723.64177    1237.0478    82.518995 
   91700    385.38885   -107.60358   0.34870793   -107.25488    4611.0628    4.3562569    4.3562569    4.3562569    4611.0628    8970.3821    6381.8828   -1519.0766    4497.9434   -7303.6184    279.98733    82.668573 
   91800    282.60419   -107.51136   0.25570621   -107.25565   -239.45937    4.3557762    4.3557762    4.3557762   -239.45937     23090.37    -8958.812   -14849.936    2235.5132    147.31904   -7856.1477    82.641211 
   91900    444.20911   -107.65592   0.40192974   -107.25399    5363.3725    4.3521551    4.3521551    4.3521551    5363.3725    16713.112    5907.7267   -6530.7207    995.61992   -3045.6501    3853.8418    82.435275 
   92000    384.44347   -107.60346   0.34785253   -107.25561   -5277.6631    4.3590999    4.3590999    4.3590999   -5277.6631   -9430.8258   -881.34755    -5520.816    2854.8746   -122.87931   -4890.8514    82.830535 
   92100    503.75708   -107.70989      0.45581   -107.25408   -1907.4306    4.3534799    4.3534799    4.3534799   -1907.4306    4137.9921   -6534.1571   -3326.1267    1385.4186    3047.5945   -4455.7372    82.510579 
   92200    425.75709   -107.63962   0.38523396   -107.25438    5299.0621    4.3540511    4.3540511    4.3540511    5299.0621    10820.501    7417.0992    -2340.414   -904.30218   -6288.0219   -152.71154    82.543059 
   92300     206.0762   -107.44306   0.18646208    -107.2566   -3898.6504    4.3593058    4.3593058    4.3593058   -3898.6504    16588.789   -8757.0791   -19527.661    6249.0094   -1064.2672   -5038.4339    82.842272 
   92400     466.6519   -107.67594   0.42223644    -107.2537    3822.2868    4.3505145    4.3505145    4.3505145    3822.2868    11121.205    940.47643    -594.8214   -2428.9934   -2862.9442   -2554.4573    82.342085 
   92500    447.72768   -107.65991   0.40511341    -107.2548    -2015.384     4.358249     4.358249     4.358249    -2015.384   -5033.4504   -63.496589   -949.20492    4166.3648   -5260.4877   -3343.5513    82.782041 
   92600    389.24351   -107.60725    0.3521957   -107.25506   -8134.4844    4.3564943    4.3564943    4.3564943   -8134.4844   -3353.2229   -9187.1534   -11863.077    2835.9121    4158.0023   -2994.6867    82.682091 
   92700    414.10895   -107.62845   0.37469448   -107.25376    5935.4409    4.3510552    4.3510552    4.3510552    5935.4409    18820.474    5740.7185   -6754.8698   -301.54183    1182.3641   -628.88734    82.372788 
   92800    283.08055   -107.51147   0.25613723   -107.25533   -3373.9546    4.3609776    4.3609776    4.3609776   -3373.9546    5955.2998   -5107.2748   -10969.889    4204.4902   -4622.0956   -4255.8957     82.93762 
   92900    497.28604    -107.7027   0.44995486   -107.25275   -1216.7787    4.3527901    4.3527901    4.3527901   -1216.7787    4825.9188   -5908.0526   -2568.2023    1750.1251    2456.1624   -1515.5518    82.471365 
   93000    467.53736   -107.67733   0.42303763    -107.2543     4975.166    4.3538845    4.3538845    4.3538845     4975.166    3016.3341    6201.7466    5707.4174    318.49653   -5494.3652    2626.6478    82.533588 
   93100    313.90587   -107.54032   0.28402863   -107.25629   -12821.924     4.360407     4.360407     4.360407   -12821.924    -5865.978   -11369.123   -21230.672    2827.5292    1927.1543   -6490.8672    82.905069 
   93200    364.45534   -107.58419   0.32976685   -107.25442     7514.048    4.3484331    4.3484331    4.3484331     7514.048    25376.239    3923.5721   -6757.6674    -1536.946    3083.0544    3343.6445     82.22396 
   93300     428.2123   -107.64207   0.38745549   -107.25462   -3727.1265    4.3613746    4.3613746    4.3613746   -3727.1265    5823.9844   -8592.5807   -8412.7832     -94.4528   -3240.3115   -1041.5036     82.96027 
   93400    384.83119   -107.60262   0.34820335   -107.25442   -782.75781    4.3535537    4.3535537    4.3535537   -782.75781    9406.1583   -4394.9962   -7359.4355    4122.5631    313.37319   -6196.9369    82.514777 
   93500    488.27676   -107.69511   0.44180307   -107.25331    866.07526    4.3542642    4.3542642    4.3542642    866.07526    3688.6293    1758.5254   -2848.9289   -3418.3416    -4512.474    2523.6316    82.555178 
   93600    320.51835   -107.54467   0.29001174   -107.25466   -5242.5682    4.3597834    4.3597834    4.3597834   -5242.5682    1023.7256   -4776.5312   -11974.899    5928.0035    -3187.113   -5658.3589    82.869503 
   93700    418.04889   -107.63193   0.37825942   -107.25367    5350.8036    4.3508964    4.3508964    4.3508964    5350.8036    18471.822   -3100.0196     680.6084    1536.1633    4836.8431      -252.72     82.36377 
   93800    457.22826   -107.66776   0.41370974   -107.25405    5041.4212    4.3572081    4.3572081    4.3572081    5041.4212    16904.138   -3109.9814     1330.107   -1325.0024    1318.3556   -2946.8014    82.722737 
   93900     294.5027   -107.52236   0.26647223   -107.25589   -4409.7574    4.3570341    4.3570341    4.3570341   -4409.7574    10594.567   -9587.8357   -14236.003    8036.6967    1157.2472   -3526.0676    82.712829 
   94000    440.46861   -107.65154   0.39854525     -107.253      -643.69    4.3512964    4.3512964    4.3512964      -643.69    8451.9235    3163.7695   -13546.763    2036.4468    2178.6819   -128.83033     82.38649 
   94100    427.32717   -107.64106   0.38665461    -107.2544    -3706.377    4.3602899    4.3602899    4.3602899    -3706.377    3080.0427   -6215.7224   -7983.4514     -432.853   -4877.6068    -5435.282    82.898387 
   94200    453.19629    -107.6651   0.41006153   -107.25504    3103.5626    4.3517714    4.3517714    4.3517714    3103.5626    13344.143   -3191.6706   -841.78452    5673.5403    2699.5177   -218.40078    82.413474 
   94300    392.82934   -107.61055   0.35544024   -107.25511    8223.4834    4.3566796    4.3566796    4.3566796    8223.4834    24943.447   -1326.1594    1053.1625   -5559.1152    1035.0152    1041.3629    82.692642 
   94400    281.29114   -107.51043   0.25451813   -107.25592   -2411.9213    4.3560716    4.3560716    4.3560716   -2411.9213    5846.9058   -4500.6397     -8582.03    1283.5229   -605.36885   -3397.9071    82.658026 
   94500    393.45587   -107.61079   0.35600714   -107.25479   -974.96241     4.352027     4.352027     4.352027   -974.96241    5846.0705   -4882.3464   -3888.6113    3762.9002    1205.0741    699.00793    82.427996 
   94600    549.22656    -107.7508   0.49695174   -107.25385   -6632.5654    4.3602886    4.3602886    4.3602886   -6632.5654   -3997.5382   -9223.6898    -6676.468   -2286.0312   -5382.8627    655.69734    82.898317 
   94700    372.19703   -107.59229   0.33677169   -107.25551    -1181.432     4.351852     4.351852     4.351852    -1181.432    10424.472   -6025.7252   -7943.0432    5018.8817   -4353.8891   -5352.8234    82.418055 
   94800    324.12056   -107.54768   0.29327109   -107.25441   -714.75042    4.3573931    4.3573931    4.3573931   -714.75042    21017.631   -3701.0095   -19460.872    1756.3528    443.25927    3105.0642    82.733279 
   94900    375.75408   -107.59414   0.33999019   -107.25415   -1136.8076    4.3555072    4.3555072    4.3555072   -1136.8076    6599.8118   -3071.1413   -6939.0934   -356.81818   -1600.4531   -1965.1058    82.625898 
   95000    451.02386   -107.66285   0.40809587   -107.25476   -3299.5493    4.3535363    4.3535363    4.3535363   -3299.5493   -1654.4023   -9679.3051    1435.0594    10171.783    1327.1381   -1832.8239    82.513784 
   95100    512.17328   -107.71737   0.46342514   -107.25395     -2037.59    4.3578253    4.3578253    4.3578253     -2037.59   -2415.0177   -5655.2606    1957.5081    467.17641    -1741.227    1618.2292    82.757895 
   95200    326.86444     -107.551   0.29575381   -107.25525   -4056.2242     4.354962     4.354962     4.354962   -4056.2242    7805.4884   -7955.2319   -12018.929    1582.5286   -5571.4005   -4771.8245    82.594879 
   95300    233.01898   -107.46599   0.21084047   -107.25515     1435.057    4.3531308    4.3531308    4.3531308     1435.057    17830.666   -4624.0739   -8901.4213    7322.6371    454.36693    953.22248    82.490732 
   95400    506.99499   -107.71239   0.45873972   -107.25365   -7092.3483    4.3596662    4.3596662    4.3596662   -7092.3483     835.5625   -10024.117   -12088.491   -7144.0622   -1876.4218   -4120.2215    82.862821 
   95500    460.89253   -107.67109   0.41702525   -107.25407   -2977.4823     4.352681     4.352681     4.352681   -2977.4823   -545.36457   -6448.8705   -1938.2117     7313.963    -1677.409   -483.24825    82.465162 
   95600    417.37846   -107.63072    0.3776528   -107.25307   -2823.3062    4.3553016    4.3553016    4.3553016   -2823.3062    2381.6307   -539.02628   -10312.523    2131.4721    5012.0529     641.4693    82.614202 
   95700    333.26521   -107.55546   0.30154536   -107.25392   -1724.4525    4.3580356    4.3580356    4.3580356   -1724.4525    11406.381   -5745.0266   -10834.712   -1112.5114   -4375.4524   -4267.7187    82.769881 
   95800    318.01766   -107.54351   0.28774907   -107.25576    5196.4457    4.3507261    4.3507261    4.3507261    5196.4457    17818.483   -6200.0944    3970.9485    7647.6941   -1868.0096    1826.4966    82.354098 
   95900    501.62388    -107.7083   0.45387983   -107.25442   -1930.4184    4.3596025    4.3596025    4.3596025   -1930.4184     984.5827   -7807.1153    1031.2775   -2110.1442   -546.66927   -2252.5797     82.85919 
   96000    468.11707   -107.67737   0.42356217   -107.25381   -2787.4211    4.3546528    4.3546528    4.3546528   -2787.4211    1934.1533   -6554.0109   -3742.4059    3165.6639   -2986.1634    -1494.309    82.577285 
   96100    283.15795   -107.51078   0.25620726   -107.25457   -623.82062     4.352666     4.352666     4.352666   -623.82062    7958.2864    830.84071   -10660.589    9189.1897    4900.5285     923.4092    82.464309 
   96200    407.94965   -107.62328   0.36912142   -107.25416   -2908.9639    4.3595525    4.3595525    4.3595525   -2908.9639    19577.678   -9722.5444   -18582.025     -1906.23   -2710.9957   -188.57322    82.856339 
   96300    395.60129   -107.61339   0.35794836   -107.25544    3576.1444    4.3521718    4.3521718    4.3521718    3576.1444    17771.862   -7736.5515    693.12273     9456.952   -160.75288    501.21635    82.436224 
   96400    461.72734   -107.67202    0.4177806   -107.25424   -430.98622    4.3551041    4.3551041    4.3551041   -430.98622    4716.8743   -1719.2542   -4290.5787    2155.2107   -2912.3923    2635.2801    82.602964 
   96500    463.91284   -107.67264   0.41975809   -107.25288   -8049.4022    4.3600304    4.3600304    4.3600304   -8049.4022   -4356.7502    -8198.638   -11592.818   -3312.6988   -2038.1529   -136.14966    82.883591 
   96600    255.04312   -107.48627   0.23076838    -107.2555    8255.3232    4.3473332    4.3473332    4.3473332    8255.3232    17239.922   -769.08422    8295.1321    12844.685    -164.7475    787.04075    82.161583 
   96700    455.83175   -107.66674   0.41244615   -107.25429   -3643.7921    4.3632611    4.3632611    4.3632611   -3643.7921      11447.8   -15007.445   -7371.7313   -3462.3373    1282.7484    300.74663    83.067973 
   96800    425.55326   -107.63879   0.38504953   -107.25374    4427.1805    4.3510904    4.3510904    4.3510904    4427.1805    19066.569   -7685.1621    1900.1348    4901.6382    359.56154   -1973.6865    82.374791 
   96900    329.05868   -107.55231   0.29773921   -107.25457   -3261.9548    4.3532878    4.3532878    4.3532878   -3261.9548   -1360.2112   -937.05332   -7488.5998    9457.8053   -3468.6169     983.6998    82.499655 
   97000    503.29679   -107.70783   0.45539351   -107.25243   -13788.589    4.3619776    4.3619776    4.3619776   -13788.589   -7118.3537    -11562.57   -22684.842   -6532.2053   -32.269158   -3209.1213    82.994687 
   97100    295.83267   -107.52353   0.26767562   -107.25585    8090.3636    4.3472017    4.3472017    4.3472017    8090.3636     19749.31   -2831.2274    7353.0082      9102.53   -4064.3718     1311.559    82.154127 
   97200    478.63322   -107.68778    0.4330774    -107.2547     -3702.47    4.3613829    4.3613829    4.3613829     -3702.47    7401.7843   -14355.836    -4153.358    4839.2585    3038.6529   -1742.6723    82.960746 
   97300     409.8732   -107.62371   0.37086188   -107.25285     4249.361    4.3549299    4.3549299    4.3549299     4249.361    18435.382   -2597.7688   -3089.5297    177.44188    2628.6179   -3220.3514    82.593049 
   97400     277.4564   -107.50614   0.25104839   -107.25509   -324.26323     4.349246     4.349246     4.349246   -324.26323   -6096.2271   -2442.6535    7566.0909    15912.612    441.08046    577.97793    82.270081 
   97500    453.29959   -107.66311   0.41015499   -107.25295   -10143.436    4.3648286    4.3648286    4.3648286   -10143.436    -4735.301   -13801.074   -11893.934   -4280.6121    3028.4023   -4531.3801    83.157528 
   97600    437.45535   -107.64904    0.3958188   -107.25322    3202.0884    4.3483255    4.3483255    4.3483255    3202.0884    8120.6035   -4962.2632    6447.9249    6215.5606   -3945.2802    1381.5715    82.217852 
   97700    352.21399   -107.57381   0.31869062   -107.25512   -829.16593    4.3557431    4.3557431    4.3557431   -829.16593    9151.1803   -6496.2925   -5142.3855    9024.1704    626.93902     217.0346    82.639326 
   97800    445.29146   -107.65541   0.40290907    -107.2525   -6632.4772    4.3607235    4.3607235    4.3607235   -6632.4772    9013.5588   -7920.7584   -20990.232   -3829.2251    159.74864    1251.1172    82.923121 
   97900    306.25719   -107.53224   0.27710795   -107.25513    3330.5148    4.3454668    4.3454668    4.3454668    3330.5148    1971.8255   -762.88017     8782.599    13693.979    29.875219     2986.811    82.055804 
   98000    477.22388   -107.68652   0.43180219   -107.25472   -7709.7861    4.3649714    4.3649714    4.3649714   -7709.7861   -3745.9909   -15849.112   -3534.2551    896.98192    -913.0497   -59.894031    83.165692 
   98100    498.60488   -107.70398   0.45114817   -107.25283    5237.8441    4.3501368    4.3501368    4.3501368    5237.8441    11785.402   -1503.5233    5431.6538   -2740.7721   -5964.1271    1283.5835    82.320642 
   98200    173.95083    -107.4137   0.15739437   -107.25631    4216.4737    4.3530401    4.3530401    4.3530401    4216.4737    13360.741   -6729.0657    6017.7464    12786.305   -1496.0836   -409.51555    82.485576 
   98300    467.13108   -107.67458   0.42267002   -107.25191   -9762.4669    4.3623549    4.3623549    4.3623549   -9762.4669   -587.64343    -12859.59   -15840.168   -2316.2062   -3723.8981    223.85047    83.016228 
   98400    387.51881   -107.60404   0.35063516   -107.25341     4691.194    4.3470938    4.3470938    4.3470938     4691.194    9991.8549   -2258.1209    6339.8479    9367.7964    17.016461     538.3773    82.148005 
   98500      492.722   -107.70043   0.44582522    -107.2546   -8786.1625     4.360441     4.360441     4.360441   -8786.1625   -9603.6276   -12737.063   -4017.7974    10928.596    1821.5491   -1466.1754    82.907008 
   98600    443.22624   -107.65389   0.40104041   -107.25285    2829.7644    4.3549128    4.3549128    4.3549128    2829.7644    19435.788    3128.5123   -14075.007   -4037.8761    2546.5382   -2654.4963    82.592076 
   98700    205.51919   -107.44151   0.18595808   -107.25555    1954.6559    4.3505271    4.3505271    4.3505271    1954.6559    8378.7707   -5672.9705    3158.1677    12660.082   -1741.5232     14.89883    82.342799 
   98800    436.88103    -107.6492   0.39529914    -107.2539   -4614.9302    4.3608709    4.3608709    4.3608709   -4614.9302   -2669.6089   -11784.204    609.02219     731.0173   -67.256115   -4931.6495    82.931535 
   98900    520.46671   -107.72379   0.47092922   -107.25286    2647.1612    4.3509142    4.3509142    4.3509142    2647.1612    4677.2031   -4403.2442    7667.5247    4813.5106    1381.4897   -834.38619    82.364786 
   99000    369.16923   -107.59007   0.33403208   -107.25603   -4950.4676    4.3552586    4.3552586    4.3552586   -4950.4676   -9904.1212   -12077.864    7130.5829    10736.276    1016.6451    1828.3774    82.611751 
   99100    355.58886   -107.57574   0.32174427     -107.254    577.44105    4.3581764    4.3581764    4.3581764    577.44105    17904.753   -947.51325   -15224.917     -3655.73    4961.8059   -2217.5845    82.777901 
   99200    331.16935   -107.55441   0.29964898   -107.25476    245.45933    4.3506895    4.3506895    4.3506895    245.45933    12838.914   -7531.2244   -4571.3116    6895.4121   -1902.7362    4002.4734    82.352021 
   99300    410.40777   -107.62607   0.37134558   -107.25472   -2532.6697    4.3592687    4.3592687    4.3592687   -2532.6697    3852.2777   -8842.0181   -2608.2686    5214.6347   -332.67522   -523.97231    82.840158 
   99400     599.8992   -107.79427    0.5428014   -107.25147   -1986.9175    4.3532388    4.3532388    4.3532388   -1986.9175   -2229.5451    2468.2776   -6199.4851    568.97709   -2953.5854    694.24199    82.496873 
   99500    268.71734   -107.49887    0.2431411   -107.25573   -3855.4438    4.3543109    4.3543109    4.3543109   -3855.4438   -3113.5286   -12222.315    3769.5123    13991.852   -737.45502    645.17286    82.557834 
   99600    359.57377   -107.58053    0.3253499   -107.25518   -165.72071    4.3574683    4.3574683    4.3574683   -165.72071    7664.8987   -4068.4169   -4093.6439    151.39424    458.63455     335.5326    82.737562 
   99700    413.01238    -107.6279   0.37370228    -107.2542     5133.793    4.3516748    4.3516748    4.3516748     5133.793    17936.695    -7301.457    4766.1409    2599.6996    3010.4202      1811.72    82.407986 
   99800     383.2124   -107.60357   0.34673864   -107.25683   -1304.5169    4.3566341    4.3566341    4.3566341   -1304.5169   -1858.4135   -5790.5911    3735.4539    11175.572    -992.6623   -826.13002     82.69005 
   99900     496.4289   -107.70186    0.4491793   -107.25268   -2106.9892    4.3560643    4.3560643    4.3560643   -2106.9892    5270.3153    3746.7176       -15338   -5118.8693   -178.19794    -1222.873    82.657608 
  100000    300.31434    -107.5263   0.27173072   -107.25457   -3082.2014    4.3518884    4.3518884    4.3518884   -3082.2014     5708.801   -7882.6209   -7072.7843    13179.241   -1801.9758   -23.153788     82.42012 
Loop time of 22.2047 on 1 procs for 100000 steps with 8 atoms

Pair  time (%) = 6.82225 (30.7243)
Kspce time (%) = 5.47156 (24.6414)
Neigh time (%) = 0 (0)
Comm  time (%) = 1.09535 (4.93296)
Outpt time (%) = 0.0270875 (0.12199)
Other time (%) = 8.78848 (39.5793)

Nlocal:    8 ave 8 max 8 min
Histogram: 1 0 0 0 0 0 0 0 0 0
Nghost:    2189 ave 2189 max 2189 min
Histogram: 1 0 0 0 0 0 0 0 0 0
Neighs:    2056 ave 2056 max 2056 min
Histogram: 1 0 0 0 0 0 0 0 0 0

Total # of neighbors = 2056
Ave neighs/atom = 257
Neighbor list builds = 0
Dangerous builds = 0
unfix 20
unfix 21
print "seeds:1101948"
seeds:1101948
