LAMMPS (10 Feb 2015)
# ---- initialize simulations
clear
units metal
dimension 3
boundary p p p
atom_style charge
atom_modify map array
# ---- create atoms
read_data /Users/eugeneragasa/pyflamestk_git/pypospack/tests/tests_integration/workflow/WorkflowLammpsThermalExpansion/param_3101/MgO_NaCl_unit.npt.T1700/lammps.structure
  triclinic box = (0 0 0) to (4.2565 4.2565 4.2565) with tilt (0 0 0)
  1 by 1 by 1 MPI processor grid
  reading atoms ...
  8 atoms
# ---- define interatomic potential
include potential.mod
mass 1 24.305
mass 2 15.999

group Mg type 1
4 atoms in group Mg
group O type 2
4 atoms in group O

set group Mg charge 1.61886676565
  4 settings made for charge
set group O charge -1.61886676565
  4 settings made for charge

variable R_cut equal 10.0

pair_style buck/coul/long ${R_cut}
pair_style buck/coul/long 10
pair_coeff 1 1 0.0 0.5 0.0 ${R_cut}
pair_coeff 1 1 0.0 0.5 0.0 10
pair_coeff 1 2 1642.32869573 0.278339228763 0.0 ${R_cut}
pair_coeff 1 2 1642.32869573 0.278339228763 0.0 10
pair_coeff 2 2 10249.6145692 0.172187509684 14.0611166933 ${R_cut}
pair_coeff 2 2 10249.6145692 0.172187509684 14.0611166933 10

kspace_style pppm 1.0e-5

neighbor 1.0 bin
neigh_modify every 1 delay 0 check yes
# ---- define settings
compute eng all pe/atom
compute eatoms all reduce sum c_eng
# ---- run minimization
reset_timestep 0
fix 1 all box/relax iso 0.0 vmax 0.001
thermo 10
thermo_style custom step pe lx ly lz xy xz yz press pxx pyy pzz pxy pxz pyz c_eatoms
min_style cg
minimize 1e-25 1e-25 5000 10000
PPPM initialization ...
  G vector (1/distance) = 0.352512
  grid = 8 8 8
  stencil order = 5
  estimated absolute RMS force accuracy = 3.81673e-05
  estimated relative force accuracy = 2.65057e-06
  using double precision FFTs
  3d grid and FFT values/proc = 3375 512
Neighbor list info ...
  1 neighbor list requests
  update every 1 steps, delay 0 steps, check yes
  master list distance cutoff = 11
Memory usage per processor = 4.06549 Mbytes
Step PotEng Lx Ly Lz Xy Xz Yz Press Pxx Pyy Pzz Pxy Pxz Pyz eatoms 
       0   -105.55076       4.2565       4.2565       4.2565            0            0            0    126453.59    126453.59    126453.59    126453.59 4.0363335e-11 4.044677e-11 1.0723156e-10   -105.55076 
      10   -105.69165     4.299065     4.299065     4.299065            0            0            0    68786.015    68786.015    68786.015    68786.015 -1.0242962e-10 -4.708445e-11 -3.569371e-11   -105.69165 
      20   -105.75532      4.34163      4.34163      4.34163            0            0            0    18126.479    18126.479    18126.479    18126.479 7.5197513e-11 1.703257e-11 -3.0007315e-11   -105.75532 
      27   -105.76066    4.3583247    4.3583247    4.3583247            0            0            0    1.3863117    1.3863117    1.3863117    1.3863117 -6.2572681e-11 -1.3142723e-10 -3.2118437e-11   -105.76066 
Loop time of 0.014498 on 1 procs for 27 steps with 8 atoms

Minimization stats:
  Stopping criterion = linesearch alpha is zero
  Energy initial, next-to-last, final = 
        -105.550764672     -105.760658065     -105.760658065
  Force two-norm initial, final = 18.26 0.000217628
  Force max component initial, final = 18.26 0.000209876
  Final line search alpha, max atom move = 0.25 5.24691e-05
  Iterations, force evaluations = 27 40

Pair  time (%) = 0.00373101 (25.7347)
Kspce time (%) = 0.00233626 (16.1144)
Neigh time (%) = 0 (0)
Comm  time (%) = 0.000434637 (2.99791)
Outpt time (%) = 3.0756e-05 (0.21214)
Other time (%) = 0.00796533 (54.9409)

Nlocal:    8 ave 8 max 8 min
Histogram: 1 0 0 0 0 0 0 0 0 0
Nghost:    2189 ave 2189 max 2189 min
Histogram: 1 0 0 0 0 0 0 0 0 0
Neighs:    2344 ave 2344 max 2344 min
Histogram: 1 0 0 0 0 0 0 0 0 0

Total # of neighbors = 2344
Ave neighs/atom = 293
Neighbor list builds = 0
Dangerous builds = 0
unfix 1
# ---- define output variables ----
variable natoms equal "count(all)"
variable tot_energy equal "c_eatoms"
variable length_x equal "lx"
variable length_y equal "ly"
variable length_z equal "lz"
variable tilt_xy equal "xy"
variable tilt_xz equal "xz"
variable tilt_yz equal "yz"
variable tot_press equal "press"
variable press_xx equal "pxx"
variable press_yy equal "pyy"
variable press_zz equal "pzz"
variable press_xy equal "pxy"
variable press_xz equal "pxz"
variable press_yz equal "pyz"

# ---- output ----
print "pypospack:output_section:begin"
pypospack:output_section:begin
print "tot_energy = ${tot_energy}"
tot_energy = -105.760658064539
print "num_atoms = ${natoms}"
num_atoms = 8
print "xx = ${length_x}"
xx = 4.35832471527479
print "yy = ${length_y}"
yy = 4.35832471527479
print "zz = ${length_z}"
zz = 4.35832471527479
print "xy = ${tilt_xy}"
xy = 0
print "xz = ${tilt_xz}"
xz = 0
print "yz = ${tilt_yz}"
yz = 0
print "tot_press = ${tot_press}"
tot_press = 1.38631174704167
print "pxx = ${press_xx}"
pxx = 1.38631174709188
print "pyy = ${press_yy}"
pyy = 1.38631174731354
print "pzz = ${press_zz}"
pzz = 1.3863117467196
print "pxy = ${press_xy}"
pxy = -6.25726806975275e-11
print "pxz = ${press_xz}"
pxz = -1.31427228854923e-10
print "pyz = ${press_yz}"
pyz = -3.21184365171528e-11
print "pypospack:output_section:done"
pypospack:output_section:done
print "pypospack:lammps_sim:done"
pypospack:lammps_sim:done
#------------------------------------------------------------------------------
# RUN THERMOSTAT
# running using an NPT Nose-Hoover style thermostat
#------------------------------------------------------------------------------
variable tempdamp equal 0.1
variable pressdamp equal 1.0
# set initial velocities
velocity all create 1700 9561633 mom yes dist gaussian loop all
# fix for Nose-Hoover style thermostat
fix 20 all npt temp 1700 1700 0.1 aniso 0.0 0.0 1.0 drag 1.0 couple xyz
variable boxx equal lx
variable boxy equal ly
variable boxz equal lz
variable boxp equal press
variable boxt equal temp
# calculate averages every 10000 steps
reset_timestep 0
fix 21 all ave/time 10 10 100 v_boxx v_boxy v_boxz v_boxp v_boxt file lattice.out
thermo_style custom step temp pe ke etotal press lx ly lz press pxx pyy pzz pxy pxz pyz vol
thermo_modify flush yes
thermo 100
run 100000
PPPM initialization ...
  G vector (1/distance) = 0.351503
  grid = 8 8 8
  stencil order = 5
  estimated absolute RMS force accuracy = 3.99806e-05
  estimated relative force accuracy = 2.7765e-06
  using double precision FFTs
  3d grid and FFT values/proc = 3375 512
Memory usage per processor = 3.06549 Mbytes
Step Temp PotEng KinEng TotEng Press Lx Ly Lz Press Pxx Pyy Pzz Pxy Pxz Pyz Volume 
       0         1700   -105.76067    1.5381957   -104.22247    19845.196    4.3583247    4.3583247    4.3583247    19845.196    28721.622    18922.161    11891.805   -3193.8152   -8483.7259    9099.7095    82.786353 
     100    451.81378   -104.46204    0.4088106   -104.05323    30784.202    4.3972344    4.3972344    4.3972344    30784.202     48800.95    19000.165    24551.491   -14354.871     4397.952   -15600.404    85.023477 
     200    1457.5576   -104.94559    1.3188288   -103.62676   -40124.309    4.4595652    4.4595652    4.4595652   -40124.309   -19422.892   -50260.098   -50689.936   -1132.9124    3270.3339    5531.8184    88.690592 
     300    1003.3273   -104.14992   0.90783163   -103.24209    5391.4254    4.4704505    4.4704505    4.4704505    5391.4254     19161.84    33394.426    -36381.99   -24098.859    5038.6744    1281.5934     89.34163 
     400    2026.8612    -104.7561    1.8339466   -102.92216   -20682.326    4.4544096    4.4544096    4.4544096   -20682.326   -13390.632   -35404.959   -13251.388   -1051.7093    2531.7921    4225.3109    88.383347 
     500    1108.0683   -103.73024    1.0026035   -102.72764    58472.063    4.4372844    4.4372844    4.4372844    58472.063    142176.28   -2191.5864    35431.496   -3705.3712   -699.77731    10450.165    87.367877 
     600     1989.845     -104.471    1.8004535   -102.67054   -644.99214    4.4573306    4.4573306    4.4573306   -644.99214    9232.1153     32233.03   -43400.121   -11099.033   -1666.5627    84.859217    88.557337 
     700    1438.8423   -103.92065    1.3018947   -102.61876    6769.6926      4.48725      4.48725      4.48725    6769.6926    59943.249    -50290.17    10655.999   -1246.9277   -3972.5189     715.6317    90.352628 
     800    1664.3025   -104.07373    1.5058959   -102.56784   -29316.776    4.4847448    4.4847448    4.4847448   -29316.776   -69848.406   -6284.3603   -11817.563   -9255.4049    6276.1171    12803.795    90.201386 
     900    1660.9168   -104.05193    1.5028324   -102.54909     34716.37    4.4549644    4.4549644    4.4549644     34716.37    70484.245    56425.298   -22760.433   -10290.378    1938.2838   -742.85958    88.416378 
    1000    1991.1086   -104.39506    1.8015969   -102.59346   -3210.3454    4.4397651    4.4397651    4.4397651   -3210.3454   -15651.574    -1596.661    7617.1984   -33233.806    11842.187    10671.567     87.51449 
    1100    1167.5201   -103.72664    1.0563968   -102.67024    31802.492    4.4628741    4.4628741    4.4628741    31802.492    18156.209    87078.207   -9826.9385    18974.224    13752.876    -9915.055    88.888159 
    1200    1591.2699   -104.07654    1.4398144   -102.63672   -19359.203    4.4820098    4.4820098    4.4820098   -19359.203   -61956.446    29188.052   -25309.216   -23482.481   -7558.3771   -1389.5649    90.036458 
    1300     1662.347   -104.10838    1.5041265   -102.60426   -2351.4077    4.4653458    4.4653458    4.4653458   -2351.4077    26380.967    30746.052   -64181.242   -3984.4255   -5171.3141   -4735.8891    89.035926 
    1400    1704.5472   -104.13166    1.5423101   -102.58935    29869.408    4.4368279    4.4368279    4.4368279    29869.408   -857.35379    60527.457     29938.12   -19403.404    14447.865    20549.434    87.340916 
    1500    1735.0845   -104.20071     1.569941   -102.63076    7999.2865    4.4407212    4.4407212    4.4407212    7999.2865     5543.023     35346.99   -16892.154    5288.2611   -12520.916   -10089.173    87.571045 
    1600    1819.3362    -104.2919    1.6461736   -102.64572   -6554.6689    4.4704421    4.4704421    4.4704421   -6554.6689   -7671.8908   -11959.807   -32.309325   -2173.1755       2971.4   -8667.3033    89.341129 
    1700       1260.4   -103.73526    1.1404364   -102.59482    11896.636    4.4812321    4.4812321    4.4812321    11896.636     12949.89    75118.383   -52378.366    8304.9863   -2322.4528   -9501.5332    89.989598 
    1800    2057.5476   -104.41738    1.8617123   -102.55566   -18998.462    4.4606974    4.4606974    4.4606974   -18998.462    -21982.55    6354.5845    -41367.42    3275.6423   -3743.9744    2332.5508    88.758162 
    1900    1571.0929   -103.96714    1.4215579   -102.54558    60190.558     4.429691     4.429691     4.429691    60190.558    49979.835    85785.455    44806.384   -23547.002   -3263.9122   -22537.825    86.920115 
    2000    1500.6849   -103.97784    1.3578512   -102.61999   -14404.812    4.4404878    4.4404878    4.4404878   -14404.812   -7747.3563    1282.9848   -36750.065      3091.08   -16572.183    16887.163    87.557237 
    2100    2389.6462   -104.78093    2.1622021   -102.61872   -19711.134    4.4576106    4.4576106    4.4576106   -19711.134   -35321.146   -30900.428    7088.1723   -16210.604   -3858.6704   -5409.1338    88.574024 
    2200    1171.0529   -103.67576    1.0595932   -102.61617   -19382.402    4.4654896    4.4654896    4.4654896   -19382.402   -21007.518   -9458.8419   -27680.847    18355.318   -343.60658    16226.648     89.04453 
    2300    1948.9522    -104.3342    1.7634529   -102.57075   -3386.9569    4.4500605    4.4500605    4.4500605   -3386.9569   -6046.6897    6544.9481   -10659.129   -9026.1428    13653.121   -7281.6541    88.124717 
    2400    1438.5628   -103.87588    1.3016418   -102.57423    31780.755    4.4335271    4.4335271    4.4335271    31780.755     77986.87   -8078.1066    25433.503    -18149.81    8168.1009    24193.722     87.14613 
    2500    1538.2149     -104.022    1.3918092   -102.63019   -1266.2679    4.4543048    4.4543048    4.4543048   -1266.2679   -18083.403    31033.668   -16749.068    6117.2284    14378.559    9607.6147    88.377107 
    2600    1701.0768   -104.15576    1.5391701   -102.61659   -1897.7505     4.467172     4.467172     4.467172   -1897.7505    36876.056   -2036.1789   -40533.129   -10548.993   -13468.787    19247.102    89.145215 
    2700    1885.2498   -104.31545    1.7058136   -102.60964   -16377.677    4.4616879    4.4616879    4.4616879   -16377.677   -25976.701    30574.163   -53730.492    12199.761    17974.376    4693.4395    88.817298 
    2800    1870.7296   -104.28394    1.6926755   -102.59127    -5523.552    4.4552183    4.4552183    4.4552183    -5523.552    37622.841    10834.941   -65028.438    6416.8088    6926.8502    12212.589    88.431495 
    2900    1901.0282   -104.31747    1.7200902   -102.59738   -18977.565    4.4437255    4.4437255    4.4437255   -18977.565   -25793.415    19094.061    -50233.34    -5909.989     5785.255    7310.6168    87.748898 
    3000    1708.3795   -104.16461    1.5457777   -102.61883    21062.083    4.4402829    4.4402829    4.4402829    21062.083     34085.89    44867.795   -15767.435    22911.105   -5450.3578     -10387.9    87.545118 
    3100    1990.6705   -104.43334    1.8012005   -102.63214   -22839.513    4.4612589    4.4612589    4.4612589   -22839.513   -53604.565     14069.01   -28982.984   -2095.9135    14635.679     7656.322    88.791684 
    3200    1467.8271   -103.94107    1.3281208   -102.61295   -2586.5906    4.4749826    4.4749826    4.4749826   -2586.5906   -12649.394    11001.812   -6112.1902    16471.636    2777.8468   -6562.9027    89.613626 
    3300    1694.1283   -104.11109    1.5328829    -102.5782    -12242.74    4.4527035    4.4527035    4.4527035    -12242.74    -40707.96   -22501.603    26481.343    1337.5604   -6017.9185    17482.675    88.281832 
    3400    1483.3763   -103.91536      1.34219   -102.57317     55916.37    4.4174064    4.4174064    4.4174064     55916.37    46575.595     78818.01    42355.505    6630.8682    16840.686    -14401.71    86.198966 
    3500     1875.886    -104.3336    1.6973411   -102.63626   -13738.289     4.444745     4.444745     4.444745   -13738.289   -18742.643    -44923.03    22450.806    12220.263    17823.005    5036.1225    87.809306 
    3600    1629.9957   -104.07907    1.4748544   -102.60421   -13556.208    4.4679186    4.4679186    4.4679186   -13556.208   -53373.267   -43335.344    56039.987    1608.5728   -3632.9088   -9633.1127    89.189918 
    3700     1717.708   -104.12629    1.5542183   -102.57207    23047.809     4.458789     4.458789     4.458789    23047.809    3502.0881     44147.59    21493.749   -4399.0558   -9864.5149   -18550.888    88.644292 
    3800    1375.2175   -103.82364    1.2443257   -102.57931    15828.458    4.4605713    4.4605713    4.4605713    15828.458    28494.664   -16586.209    35576.919     5158.092    -25841.72   -2167.6185     88.75063 
    3900    1810.5879   -104.22408     1.638258   -102.58582   -18653.057    4.4471488    4.4471488    4.4471488   -18653.057   -10504.772   -29444.269   -16010.131   -18504.598   -14861.295   -7884.5656    87.951849 
    4000    1884.0139   -104.30992    1.7046953   -102.60523    17434.706    4.4488456    4.4488456    4.4488456    17434.706    1381.5411    49062.136     1860.441    15531.311    2308.1762    -12443.11    88.052562 
    4100    1197.1035   -103.70041    1.0831644   -102.61724   -23396.059    4.4672377    4.4672377    4.4672377   -23396.059    3749.5022   -36099.057   -37838.623    18607.646   -27734.032   -8981.0057    89.149146 
    4200    2077.5916   -104.46957    1.8798486   -102.58972   -6457.8335    4.4529992    4.4529992    4.4529992   -6457.8335   -28890.811    31954.466   -22437.156   -14838.922    12927.733    2392.6138     88.29942 
    4300    1040.8704   -103.54248   0.94180138   -102.60067     29189.29    4.4447083    4.4447083    4.4447083     29189.29   -7061.3146    7480.6229    87148.561    11409.472    290.10433    35612.666    87.807132 
    4400    1321.9865   -103.81292    1.1961612   -102.61676   -9246.3085    4.4441053    4.4441053    4.4441053   -9246.3085    16908.616   -10616.688   -34030.854   -2901.4799    9564.4087   -9280.9217      87.7714 
    4500    2333.0956   -104.72335     2.111034   -102.61232   -7610.4884    4.4480361    4.4480361    4.4480361   -7610.4884   -14060.791    6107.1594   -14877.833   -17236.756    742.13388    2591.8385    88.004506 
    4600    1073.3135   -103.59391   0.97115661   -102.62276   -10005.039     4.470202     4.470202     4.470202   -10005.039    3772.1361   -12144.704   -21642.551    5539.6282   -23517.344    20554.011    89.326733 
    4700     1503.221   -103.95019    1.3601459   -102.59004   -17865.025    4.4672458    4.4672458    4.4672458   -17865.025   -8243.2314     18882.76   -64234.605    1031.2582   -3732.6573    30784.884    89.149631 
    4800    2073.3726   -104.45038    1.8760311   -102.57435   -5812.0155    4.4502846    4.4502846    4.4502846   -5812.0155   -57750.493    14616.485    25697.961    5704.0755   -6780.2989    1059.2155    88.138035 
    4900    1219.5083   -103.70226    1.1034367   -102.59883    19617.624    4.4461101    4.4461101    4.4461101    19617.624    4401.7407    30650.535    23800.595    5431.2746    763.85465    18165.759     87.89024 
    5000    1640.0079   -104.10063    1.4839136   -102.61671    26072.104    4.4542617    4.4542617    4.4542617    26072.104    37916.477    60940.875   -20641.041    3669.6752   -16421.224   -6250.8884    88.374543 
    5100    1589.2211   -104.04469    1.4379607   -102.60673   -9674.6217    4.4726591    4.4726591    4.4726591   -9674.6217   -30155.149   -1207.1251    2338.4085   -10188.763    24033.229    6697.1687    89.474109 
    5200     1747.533   -104.16868    1.5812046   -102.58747   -34682.057    4.4562446    4.4562446    4.4562446   -34682.057   -58463.834   -32031.064   -13551.273    10913.851   -32924.561    532.23527    88.492621 
    5300    1863.7333   -104.25967     1.686345   -102.57332     37414.72    4.4229966    4.4229966    4.4229966     37414.72    42248.017     67340.12    2656.0246    749.04806    23958.396    30242.923    86.526634 
    5400    1703.9845   -104.16554     1.541801   -102.62374   -1537.3453     4.436188     4.436188     4.436188   -1537.3453    6746.2504     34720.71   -46078.997   -4235.1787   -9568.0483   -18896.557    87.303134 
    5500    1984.8507   -104.41805    1.7959347   -102.62212   -31963.055    4.4592319    4.4592319    4.4592319   -31963.055   -56872.299   -1736.1169    -37280.75   -447.76696   -493.62389    7576.8136     88.67071 
    5600    971.80989   -103.49451   0.87931401    -102.6152    30892.969    4.4585751    4.4585751    4.4585751    30892.969    52306.859    89928.642   -49556.594    2629.9811    7511.4114    2864.3062    88.631532 
    5700    2149.7872   -104.54071    1.9451727   -102.59553   -27136.772    4.4467027    4.4467027    4.4467027   -27136.772    -35725.71   -10010.197   -35674.409   -3958.2924   -4350.6611    47.080002    87.925387 
    5800     1066.264   -103.58211   0.96477809   -102.61733    41101.312    4.4371201    4.4371201    4.4371201    41101.312    89594.254    74828.436   -41118.756   -4159.9511   -4436.7116   -17109.526    87.358177 
    5900    2446.4818   -104.84691    2.2136281   -102.63328   -30316.765    4.4559044    4.4559044    4.4559044   -30316.765   -29769.085   -3625.6004   -57555.611   -908.32199   -12123.846   -432.30243    88.472355 
    6000    1636.1276   -104.09968    1.4804026   -102.61928   -40338.289    4.4666347    4.4666347    4.4666347   -40338.289    -42114.91     3184.832    -82084.79    1621.1303   -8872.3401     11147.36    89.113049 
    6100    1424.1039   -103.88087    1.2885591   -102.59231    29072.026    4.4375509    4.4375509    4.4375509    29072.026    1458.2454    120978.07    -35220.24    -9450.639   -12521.023    -25786.41    87.383623 
    6200    2252.2808   -104.62664     2.037911   -102.58873   -1674.4075    4.4195177    4.4195177    4.4195177   -1674.4075    10110.468   -9429.7862   -5703.9047   -15580.076    3945.5841    3904.0071    86.322625 
    6300    1366.6001   -103.87535    1.2365284   -102.63883    19464.146    4.4327754    4.4327754    4.4327754    19464.146    33622.046    67714.838   -42944.445   -5243.4886   -18398.072   -4915.2229    87.101808 
    6400    1789.0673   -104.24082    1.6187857   -102.62204   -28523.549     4.461697     4.461697     4.461697   -28523.549   -17862.309    2725.2839   -70433.622   -6680.8761   -1273.6849    12049.034    88.817842 
    6500    2169.4196   -104.55148    1.9629364   -102.58854   -30113.063    4.4569201    4.4569201    4.4569201   -30113.063   -28434.278    16310.657   -78215.568    1498.3259   -7497.0815   -10941.319    88.532869 
    6600    1384.9853   -103.84181    1.2531638   -102.58864    27135.626    4.4348014    4.4348014    4.4348014    27135.626     62272.57    29320.179   -10185.872    8462.7147   -2136.4719    24922.449    87.221292 
    6700    1551.8902   -104.02234    1.4041828   -102.61816    24278.605    4.4257157    4.4257157    4.4257157    24278.605    2128.9165    71245.979   -539.08161   -8254.6616   -1709.0766    -23754.72    86.686312 
    6800    2527.6126   -104.92646     2.287037   -102.63942   -24698.401    4.4458597    4.4458597    4.4458597   -24698.401    460.28626   -31358.128   -43197.361    281.78074    18418.528     14684.35    87.875387 
    6900    1265.8246   -103.77627    1.1453447   -102.63093    19742.856    4.4484952    4.4484952    4.4484952    19742.856    18180.535    47865.908   -6817.8754   -12581.833   -22654.185   -11784.926    88.031761 
    7000    1827.9472   -104.25987     1.653965   -102.60591   -5910.0051    4.4551382    4.4551382    4.4551382   -5910.0051   -21961.875   -4917.7275    9149.5874     3513.081    13822.381   -9935.8145    88.426723 
    7100    2221.8781   -104.59929     2.010402   -102.58889    -20165.61     4.434788     4.434788     4.434788    -20165.61   -15784.351   -21872.392   -22840.088    6614.3495   -1418.4861    10977.496    87.220503 
    7200    1149.9839   -103.64367    1.0405296   -102.60314    63963.341    4.4184199    4.4184199    4.4184199    63963.341    42484.482    58001.997    91403.545     -7987.73   -15324.544   -24528.408    86.258313 
    7300    2377.4328   -104.77513    2.1511512   -102.62398   -28151.435    4.4449567    4.4449567    4.4449567   -28151.435   -12659.188   -37065.665   -34729.453   -3779.9591    8243.7671    4246.6794    87.821853 
    7400    1235.2009   -103.74581    1.1176357   -102.62817    16245.292    4.4472223    4.4472223    4.4472223    16245.292   -6347.3367    12895.419    42187.793   -8063.3695   -21222.617   -17987.182    87.956212 
    7500    2272.6617   -104.64871    2.0563521   -102.59236   -38291.422    4.4491605    4.4491605    4.4491605   -38291.422   -47967.317   -21541.255   -45365.693   -19651.333    4639.5081   -16617.221    88.071262 
    7600    1375.7312   -103.83815    1.2447905   -102.59336   -25912.076    4.4319809    4.4319809    4.4319809   -25912.076   -12146.918   -45483.613   -20105.699    7371.0575    1847.6537   -5227.5303    87.054987 
    7700    2325.7764   -104.68869    2.1044114   -102.58428    20956.636    4.4229266    4.4229266    4.4229266    20956.636    22977.553    7372.8296    32519.525   -8599.5329   -3828.6851   -9938.0155     86.52253 
    7800     1427.047   -103.91475    1.2912221   -102.62353   -32047.414    4.4348368    4.4348368    4.4348368   -32047.414   -24605.607   -19781.367   -51755.268    3490.4152   -9583.6069   -14762.518    87.223385 
    7900    2149.2976   -104.58474    1.9447296   -102.64001    -10911.88    4.4487168    4.4487168    4.4487168    -10911.88   -36509.057   -38381.044    42154.462   -16590.323   -6259.5042    918.59925    88.044915 
    8000    1840.8105   -104.29023     1.665604   -102.62463   -13999.422    4.4547944    4.4547944    4.4547944   -13999.422   -26533.662    40486.377   -55950.982   -3306.5969   -4137.4409   -27622.979    88.406253 
    8100    1760.9619   -104.20532    1.5933554   -102.61196     -3866.98    4.4429914    4.4429914    4.4429914     -3866.98   -23032.387   -12615.362    24046.808   -6723.6677   -6853.6648   -8025.8116    87.705416 
    8200    1798.7784   -104.24456    1.6275725   -102.61699    26063.632    4.4307573    4.4307573    4.4307573    26063.632   -25219.044    84649.972     18759.97   -2850.1379   -7003.7152   -8136.7651    86.982901 
    8300    1519.3705   -104.01826    1.3747584   -102.64351    13581.012    4.4401511    4.4401511    4.4401511    13581.012   -25407.746    46173.043    19977.739   -16005.702   -7773.4396   -6517.4035    87.537321 
    8400    2088.6296   -104.52188    1.8898359   -102.63205   -35770.812    4.4531152    4.4531152    4.4531152   -35770.812   -54487.428   -45277.728   -7547.2801   -1369.8697    4131.8943      14687.3    88.306318 
    8500    1898.0937   -104.33476    1.7174351   -102.61733   -34291.554     4.463523     4.463523     4.463523   -34291.554   -43458.824   -12738.894   -46676.945     11884.01   -23534.993   -7388.9752    88.926937 
    8600    1414.3617   -103.88648    1.2797441   -102.60673   -6001.1461    4.4583128    4.4583128    4.4583128   -6001.1461   -10602.948   -47763.378    40362.888   -11052.173    10745.006   -8403.6132     88.61589 
    8700    1821.4223   -104.24477    1.6480611   -102.59671     3271.042    4.4473288    4.4473288    4.4473288     3271.042    5549.9278    14791.768   -10528.569    2105.9774   -15438.832   -15927.932    87.962531 
    8800    1674.0783   -104.12584    1.5147412    -102.6111   -26466.805    4.4491883    4.4491883    4.4491883   -26466.805   -23519.649   -28728.298    -27152.47    15178.707    6157.1953    20330.864    88.072915 
    8900    1347.1493   -103.81706     1.218929   -102.59813    31935.023     4.445744     4.445744     4.445744    31935.023    50356.926   -30996.014    76444.158   -16169.851   -17724.954   -2383.3667    87.868531 
    9000    1937.8084    -104.3766    1.7533697   -102.62323   -29813.003    4.4609208    4.4609208    4.4609208   -29813.003   -21520.143   -29289.898   -38628.967    14939.713   -3830.9888    15537.434    88.771497 
    9100    2063.8747   -104.47043    1.8674372     -102.603   -16935.841    4.4604821    4.4604821    4.4604821   -16935.841   -7599.2744   -48600.962    5392.7125    7119.1608    4702.6779    9791.1169    88.745309 
    9200    912.42062   -103.43291   0.82557735   -102.60734    43501.429    4.4339888    4.4339888    4.4339888    43501.429      95952.3   -39504.548    74056.535       9142.3    28146.039     3916.257    87.173359 
    9300    2269.0402   -104.70112    2.0530752   -102.64804   -5485.6547    4.4376954    4.4376954    4.4376954   -5485.6547   -19406.893    12900.817   -9950.8882    551.36343   -4672.8971    5004.0525    87.392161 
    9400    1086.9147   -103.65423    0.9834633   -102.67076    20152.467    4.4639046    4.4639046    4.4639046    20152.467    126717.99   -61871.865   -4388.7212    3552.1025    5664.6363    9723.6247    88.949744 
    9500    1410.0054   -103.91427    1.2758026   -102.63847   -22003.403     4.478098     4.478098     4.478098   -22003.403    18729.882   -79209.323   -5530.7683   -12664.272   -3154.4983    19676.194    89.800917 
    9600    2152.6493   -104.54095    1.9477623   -102.59319    -12195.27    4.4568822    4.4568822    4.4568822    -12195.27   -71.488771    13287.315   -49801.636    21235.427   -5722.8171   -10015.606     88.53061 
    9700    1542.3594   -104.00252    1.3955592   -102.60696   -16772.858    4.4497095    4.4497095    4.4497095   -16772.858   -35173.351   -26527.746    11382.522   -24274.305   -536.62148     1078.733    88.103867 
    9800    1915.0981   -104.33732     1.732821    -102.6045    6040.6282    4.4515105    4.4515105    4.4515105    6040.6282    63206.319   -29597.608   -15486.826     8067.205   -8419.6309    10825.973    88.210891 
    9900    1488.6613   -103.96217     1.346972    -102.6152   -14449.551    4.4699748    4.4699748    4.4699748   -14449.551    -15293.73    2343.4887   -30398.412   -15657.188    7135.0849    1894.1942    89.313115 
   10000    2328.2156   -104.69043    2.1066184   -102.58381   -39104.944    4.4762972    4.4762972    4.4762972   -39104.944   -12689.914   -56793.953   -47830.964   -1374.9864    13406.558   -1970.2646    89.692624 
   10100    1005.9462   -103.50629   0.91020123   -102.59609   -14617.331    4.4660144    4.4660144    4.4660144   -14617.331   -32529.882   -21179.101    9856.9887   -21938.839   -10809.142    10337.024     89.07593 
   10200    2336.4048   -104.67609    2.1140282   -102.56206   -4459.1067    4.4364097    4.4364097    4.4364097   -4459.1067    -6342.053    10311.222   -17346.489    17407.623    1357.6465    2095.6465     87.31622 
   10300    1507.7333   -103.97883    1.3642287    -102.6146   -11930.037     4.439275     4.439275     4.439275   -11930.037   -52924.955    10802.398    6332.4467   -13480.048    9197.2152    1529.0123    87.485516 
   10400    1917.7749      -104.36     1.735243   -102.62476   -7604.9511    4.4503898    4.4503898    4.4503898   -7604.9511   -23490.296   -34761.897     35437.34    16043.986    1268.3646    5753.8253    88.144286 
   10500    1148.4266   -103.66441    1.0391206   -102.62529    8575.5325    4.4642677    4.4642677    4.4642677    8575.5325    9676.1104    19514.846    -3464.359   -899.20947    6888.4887   -1155.5809    88.971452 
   10600    1906.2448   -104.30404    1.7248104   -102.57923   -12523.313    4.4522777    4.4522777    4.4522777   -12523.313   -33453.243    89.047046   -4205.7419   -6930.7272    1026.8562   -4237.4748    88.256508 
   10700    1434.8917   -103.86901    1.2983202   -102.57069    32244.174    4.4322443    4.4322443    4.4322443    32244.174    59938.369    36431.357    362.79519    51233.053    3018.7452   -8125.9297    87.070508 
   10800    2319.8904   -104.69155    2.0990856   -102.59246   -10456.875    4.4466861    4.4466861    4.4466861   -10456.875   -42796.419    10982.839    442.95572   -4563.7353    11180.997   -7052.5244    87.924403 
   10900    1081.3401   -103.58804   0.97841923   -102.60962    14457.772    4.4497715    4.4497715    4.4497715    14457.772    25233.665    51745.151   -33605.502     48979.15   -3747.4993    2016.6352    88.107554 
   11000    2186.6843     -104.598    1.9785579   -102.61944   -6658.0339    4.4409746    4.4409746    4.4409746   -6658.0339    51726.169   -39356.972   -32343.299   -19847.077    9971.9703   -4569.2708    87.586037 
   11100    1329.8574   -103.84293    1.2032829   -102.63964     29269.84    4.4258007    4.4258007    4.4258007     29269.84    66960.322    19013.642    1835.5573    25015.993   -6497.8528   -10356.801    86.691307 
   11200    1654.0277   -104.15693     1.496599   -102.66034   -21351.134    4.4406771    4.4406771    4.4406771   -21351.134    -5585.125   -23631.141   -34837.137    1186.1128    6349.1955    10302.614    87.568432 
   11300    1912.0379   -104.37262    1.7300521   -102.64257   -28369.382    4.4442113    4.4442113    4.4442113   -28369.382    822.69665   -33156.133   -52774.709    35026.791    11328.759    3788.3182    87.777681 
   11400    948.45264   -103.48736   0.85817988   -102.62918    26790.452    4.4257644    4.4257644    4.4257644    26790.452    43069.013    2896.7391    34405.606    22833.469    16187.491   -4685.1829    86.689176 
   11500    1919.3712    -104.3628    1.7366874   -102.62611    26369.845    4.4198295    4.4198295    4.4198295    26369.845     71609.17     3065.545    4434.8212    18938.607    10593.185     5339.649    86.340895 
   11600    1841.7528   -104.29555    1.6664566   -102.62909   -20530.783    4.4470134    4.4470134    4.4470134   -20530.783   -17043.582   -40137.919   -4410.8474    20470.981      657.345   -6244.8222    87.943815 
   11700    1912.0197   -104.32523    1.7300356   -102.59519   -296.61469    4.4557479    4.4557479    4.4557479   -296.61469    22080.919   -25441.173    2470.4101    -6137.135    7765.5261    3505.4548    88.463036 
   11800    1693.0801   -104.11548    1.5319344   -102.58355   -12224.544      4.45083      4.45083      4.45083   -12224.544    34490.426    -55633.93   -15530.129    20645.614   -606.69115    2735.5956    88.170445 
   11900    1709.8605   -104.12594    1.5471177   -102.57882    19789.756    4.4284599    4.4284599    4.4284599    19789.756    76634.108    22524.884   -39789.724   -17320.516    2915.5302   -16468.954    86.847663 
   12000    1679.5303   -104.12017    1.5196744   -102.60049    41549.975    4.4127973    4.4127973    4.4127973    41549.975    34305.598    1199.9002    89144.426    32135.969   -32917.916    16756.556    85.929428 
   12100    1595.4897   -104.09825    1.4436326   -102.65462   -3592.8261    4.4488679    4.4488679    4.4488679   -3592.8261    24200.578   -14344.692   -20634.365    1739.9641   -8451.8509     -10241.6    88.053889 
   12200    1755.3704   -104.19485     1.588296   -102.60655    -25782.33    4.4712884    4.4712884    4.4712884    -25782.33   -23030.529   -3402.2915   -50914.169    20699.648   -2523.6737    2579.4315    89.391872 
   12300    1892.0658   -104.27157    1.7119809   -102.55958   -2342.5656    4.4610466    4.4610466    4.4610466   -2342.5656   -26861.633     27456.08   -7622.1437   -10200.634   -16804.662    6073.1994    88.779005 
   12400    1959.7708   -104.31885    1.7732418   -102.54561   -20293.244    4.4437063    4.4437063    4.4437063   -20293.244   -27883.345    639.84035   -33636.228   -9375.7214   -6438.4876    22088.685    87.747763 
   12500     2153.366   -104.52253    1.9484108   -102.57412   -9695.4375    4.4389711    4.4389711    4.4389711   -9695.4375   -37197.954    26952.751   -18841.109   -2999.9719   -3285.8986   -18262.734    87.467547 
   12600    1601.0441   -104.06028    1.4486583   -102.61162    6515.2848    4.4538404    4.4538404    4.4538404    6515.2848   -18561.608    61081.322    -22973.86    2221.3549   -3824.8554    8736.4742    88.349468 
   12700    1838.8907   -104.26278    1.6638669   -102.59891   -50193.345    4.4717959    4.4717959    4.4717959   -50193.345    -32462.24   -51024.442   -67093.352    11242.553    9185.4931   -24383.712    89.422315 
   12800    2177.0094   -104.52414    1.9698038   -102.55433   -21931.493    4.4585682    4.4585682    4.4585682   -21931.493     46931.21   -45988.292   -66737.396   -14922.037   -2258.1772    10198.069    88.631123 
   12900    1291.8156   -103.73202    1.1688619   -102.56316     3859.351    4.4497298    4.4497298    4.4497298     3859.351      33862.2    21692.765   -43976.913      26974.6   -14031.871   -8275.0092    88.105074 
   13000     1814.524   -104.21418    1.6418194   -102.57236    21046.056    4.4500418    4.4500418    4.4500418    21046.056      36720.5     29212.97   -2795.3019    17010.441   -5614.9664    10080.257    88.123611 
   13100    1695.1964   -104.11899    1.5338494   -102.58514   -27326.132    4.4656085    4.4656085    4.4656085   -27326.132    53064.436   -55350.249   -79692.582    8912.8938     6994.152   -16057.124    89.051641 
   13200    1662.5034   -104.08382     1.504268   -102.57955    6353.5168    4.4589254    4.4589254    4.4589254    6353.5168    71583.337    4795.6356   -57318.422    22232.397    3576.6142     6672.663    88.652422 
   13300    1875.9031   -104.27531    1.6973565   -102.57796     16303.95    4.4292404    4.4292404    4.4292404     16303.95    54729.186    16899.092   -22716.429   -6289.2745   -1973.2009   -22400.715    86.893596 
   13400    2040.9547   -104.46089    1.8466987   -102.61419   -14629.678    4.4377458    4.4377458    4.4377458   -14629.678   -7867.4797    1407.2466   -37428.801    -4135.237    17186.005    10322.864    87.395134 
   13500    1901.1422   -104.33979    1.7201934    -102.6196   -3163.1777    4.4534147    4.4534147    4.4534147   -3163.1777    30483.902   -37810.727    -2162.708   -7106.6706    27813.725   -11168.227    88.324141 
   13600    1193.8051   -103.68082      1.08018   -102.60064     15296.12    4.4671258    4.4671258    4.4671258     15296.12    46298.031     32366.26   -32775.932    3234.8282    12639.408    -8098.788    89.142444 
   13700    1463.6113   -103.90028    1.3243063   -102.57598   -21713.212     4.467688     4.467688     4.467688   -21713.212    21776.271   -55475.735   -31440.171   -21959.571    16323.417   -20355.776    89.176105 
   13800    1359.6268   -103.78658    1.2302189   -102.55636    20902.775    4.4349127    4.4349127    4.4349127    20902.775    95068.548   -4271.9645   -28088.259   -3971.8202    21036.674    8195.7229    87.227864 
   13900    1719.5453   -104.12849    1.5558807   -102.57261      12928.6    4.4173422    4.4173422    4.4173422      12928.6    70280.303    2066.4764   -33560.979   -8714.1959    16212.659   -22128.177     86.19521 
   14000    1793.5018   -104.23935    1.6227981   -102.61655   -3092.6266    4.4390039    4.4390039    4.4390039   -3092.6266    3110.6596    18125.154   -30513.693   -22610.894    3662.8358    6190.7628    87.469487 
   14100    1285.4766   -103.78828    1.1631262   -102.62516     21758.05     4.448027     4.448027     4.448027     21758.05    81369.344    24422.575   -40517.769    12040.669    10999.855   -15106.775    88.003965 
   14200    1986.8338   -104.40608     1.797729   -102.60835   -13918.767    4.4504464    4.4504464    4.4504464   -13918.767    13187.951   -26045.489   -28898.762   -6684.3824    3737.5176    5880.4306    88.147647 
   14300    1229.9745    -103.7195    1.1129068   -102.60659   -7300.1942    4.4416737    4.4416737    4.4416737   -7300.1942    15437.039    25908.556   -63246.178    1636.7092     5836.674   -22592.935    87.627405 
   14400    2491.1799   -104.85145    2.2540719   -102.59738   -1997.5565    4.4256965    4.4256965    4.4256965   -1997.5565     29503.56   -3577.5508   -31918.679   -20984.397    3091.9985    10773.347    86.685188 
   14500    1199.1364    -103.7333    1.0850038    -102.6483   -1458.0317     4.432717     4.432717     4.432717   -1458.0317   -8953.4422    53697.317    -49117.97    2519.4678    1949.0068   -26286.265     87.09837 
   14600    1901.3007   -104.34212    1.7203368   -102.62179    18059.143    4.4436075    4.4436075    4.4436075    18059.143    72679.411    10431.691   -28933.673    170.37826    12399.312    1144.8504    87.741906 
   14700    1489.3083   -103.96553    1.3475575   -102.61798    -4500.047    4.4456463    4.4456463    4.4456463    -4500.047    31230.696   -18588.853   -26141.983   -550.33122     231.7353     -18853.5    87.862736 
   14800    1853.4093   -104.28568    1.6770037   -102.60867    28400.732    4.4472967    4.4472967    4.4472967    28400.732    60619.568    59605.819   -35023.191   -8818.1598    2392.4219   -3539.9328    87.960629 
   14900    1848.5939   -104.27492    1.6726466   -102.60228   -53408.925    4.4548695    4.4548695    4.4548695   -53408.925   -47154.105   -71885.189   -41187.481   -21576.715    2610.1051   -15068.969    88.410727 
   15000    1864.4976   -104.26462    1.6870366   -102.57758     7400.426    4.4472583    4.4472583    4.4472583     7400.426    57636.221    5221.9966    -40656.94   -2488.8497    4462.0164   -2179.7837     87.95835 
   15100    1515.5673   -103.96309    1.3713171   -102.59177   -8489.6229    4.4508249    4.4508249    4.4508249   -8489.6229    48882.971   -32109.108   -42242.731   -4190.9238   -18607.213   -3500.7613    88.170136 
   15200    1766.4077   -104.19489    1.5982828    -102.5966    2761.0501    4.4338004    4.4338004    4.4338004    2761.0501    9342.7322    195.17223   -1254.7543    2414.2951   -10114.499     2910.586    87.162248 
   15300     1867.846   -104.31303    1.6900663   -102.62296   -2610.5369    4.4276571    4.4276571    4.4276571   -2610.5369    13449.119   -23675.311    2394.5809    20834.796     7113.872   -2278.5758    86.800445 
   15400    1680.0767   -104.15289    1.5201687   -102.63272   -4856.8133    4.4535937    4.4535937    4.4535937   -4856.8133    10250.002   -8759.7417     -16060.7   -5296.2168   -11107.502    3652.1857    88.334788 
   15500    1490.9088   -103.96932    1.3490056   -102.62031   -3991.6177    4.4699179    4.4699179    4.4699179   -3991.6177    11815.855   -1432.6518   -22358.056    14263.681    1579.2882   -477.06462    89.309702 
   15600     2034.589   -104.41818    1.8409389   -102.57724   -19794.809    4.4640718    4.4640718    4.4640718   -19794.809   -5522.8397   -12262.086   -41599.503    -16188.69   -24590.377    11413.769    88.959742 
   15700     1179.258   -103.62941    1.0670174   -102.56239    26906.299    4.4234151    4.4234151    4.4234151    26906.299    97815.852   -35229.763    18132.807    17368.809   -18343.423    15324.236    86.551201 
   15800    2235.3218   -104.62998    2.0225662   -102.60741     10877.02    4.4196137    4.4196137    4.4196137     10877.02    4157.3657    16526.712    11946.983    19980.685    6514.5461    4917.0968    86.328248 
   15900    1652.1093   -104.14853    1.4948632   -102.65367   -18171.023    4.4499741    4.4499741    4.4499741   -18171.023    27228.766   -60430.033   -21311.802    13800.708   -13421.248    11895.316    88.119588 
   16000    1618.0771   -104.10654    1.4640701   -102.64247   -46155.163    4.4735543    4.4735543    4.4735543   -46155.163   -51111.749   -65509.754   -21843.987     18628.74    3848.0625    6450.4231    89.527845 
   16100    1704.0629   -104.13711    1.5418719   -102.59524    1522.7991    4.4572652    4.4572652    4.4572652    1522.7991    71700.528   -39836.618   -27295.513   -9125.5293    -11649.07    8750.1344    88.553437 
   16200    1745.9934   -104.17225    1.5798115   -102.59243   -3905.3741    4.4293116    4.4293116    4.4293116   -3905.3741    17041.759    -37046.26    8288.3789    23040.444     2359.723   -5433.1929    86.897784 
   16300    1769.2706   -104.23157    1.6008732    -102.6307     30735.45    4.4279182    4.4279182    4.4279182     30735.45    65260.651   -39574.818    66520.517   -8461.2985   -13480.983    16309.289      86.8158 
   16400    1371.5309   -103.91081      1.24099   -102.66982   -298.35662     4.460343     4.460343     4.460343   -298.35662   -19542.903   -34820.898    53468.732    26586.474   -3561.8198    206.10499    88.737006 
   16500    1187.9097   -103.68845    1.0748457   -102.61361    13354.539    4.4727788    4.4727788    4.4727788    13354.539    28456.303   -47992.124    59599.439   -29608.785   -24478.938    6461.3518    89.481292 
   16600    2088.6225   -104.46514    1.8898296   -102.57531   -16264.633    4.4473477    4.4473477    4.4473477   -16264.633   -32239.732   -46844.231    30290.065    34474.235    1746.7748    9253.3363    87.963654 
   16700    1251.7578   -103.72217    1.1326167   -102.58955    1060.6478    4.4305877    4.4305877    4.4305877    1060.6478    5168.9098   -61791.376     59804.41   -47664.138    9620.2812   -6321.1633    86.972915 
   16800    1801.1845   -104.23808    1.6297496   -102.60833    25478.636    4.4327526    4.4327526    4.4327526    25478.636    9923.2239    43014.374    23498.309    16750.294    9117.2048    5409.1426    87.100467 
   16900    1282.7217   -103.81168    1.1606336   -102.65105   -32380.764    4.4651953    4.4651953    4.4651953   -32380.764   -53353.708   -24330.554   -19458.031    -19600.09   -10166.864   -2724.6785    89.026924 
   17000    2288.6073   -104.67429      2.07078   -102.60351   -25516.265    4.4613587    4.4613587    4.4613587   -25516.265   -27681.803   -42755.883   -6111.1086    13780.197   -8235.8297   -8440.6152    88.797643 
   17100    1591.6981   -104.05488    1.4402019   -102.61467     11571.75    4.4270373    4.4270373    4.4270373     11571.75    15442.786    14281.689    4990.7762   -25457.849    13067.599   -1309.1577    86.763994 
   17200    1305.3608   -103.83277    1.1811179   -102.65165    27431.524    4.4184924    4.4184924    4.4184924    27431.524    16028.879    55945.001    10320.693   -18248.599     3116.632    3012.2675    86.262559 
   17300    1988.6373   -104.47655    1.7993608   -102.67719   -10463.543    4.4458349    4.4458349    4.4458349   -10463.543     -37440.1   -27299.511    33348.981   -17759.142    -2179.587     9687.978    87.873917 
   17400    1170.5697   -103.70765    1.0591561    -102.6485   -13952.791    4.4642867    4.4642867    4.4642867   -13952.791   -62130.853    24701.816   -4429.3345   -166.01649   -2946.9299    17233.203    88.972592 
   17500    1942.4606   -104.34211    1.7575792   -102.58453   -19202.126    4.4547897    4.4547897    4.4547897   -19202.126   -21464.459   -17562.288   -18579.632   -21466.719    -10156.04     2129.751    88.405978 
   17600     1582.877   -104.01199    1.4322204   -102.57977   -11085.314    4.4334876    4.4334876    4.4334876   -11085.314   -46288.939    21360.447    -8327.449    -16075.82    23718.932    10727.737    87.143798 
   17700    1391.3484   -103.85281    1.2589213   -102.59389    31303.551     4.426992     4.426992     4.426992    31303.551    9162.7645    101862.55   -17114.659    14002.895   -3727.2455   -5081.1802    86.761329 
   17800    1960.9487   -104.40438    1.7743076   -102.63007    -30600.28    4.4435923    4.4435923    4.4435923    -30600.28   -51186.485   -22208.319   -18406.035   -7389.8355    15402.369   -2503.6534    87.741008 
   17900    1707.3666   -104.18227    1.5448612   -102.63741   -21885.562    4.4555192    4.4555192    4.4555192   -21885.562   -13809.185    14073.182   -65920.683   -370.58491   -17011.582    7699.9293    88.449414 
   18000    1559.4882   -104.04899    1.4110577   -102.63793    1195.5685    4.4309325    4.4309325    4.4309325    1195.5685   -47671.888    44901.505    6357.0876   -4641.6333    24338.186   -11015.853    86.993218 
   18100    1845.0748   -104.31812    1.6694625   -102.64866    32165.617    4.4128762    4.4128762    4.4128762    32165.617     53033.92    19218.178    24244.751     7053.427    2398.4896   -5127.3898    85.934038 
   18200    1647.0747   -104.16044    1.4903078   -102.67014    15808.626     4.432472     4.432472     4.432472    15808.626    4915.4144    54413.207   -11902.742   -9535.3588    16660.484   -7617.3893    87.083927 
   18300    1452.8118   -103.96131    1.3145346   -102.64678   -20213.371    4.4586255    4.4586255    4.4586255   -20213.371   -34823.589   -16293.707   -9522.8162   -11947.392   -18404.549    4219.3405    88.634539 
   18400     1746.903   -104.18653    1.5806345   -102.60589   -2843.8404    4.4560205    4.4560205    4.4560205   -2843.8404   -19733.332   -17326.187    28527.998    9993.1519    30212.614    6133.1575    88.479272 
   18500    1484.0354   -103.92839    1.3427864    -102.5856    19171.681    4.4359998    4.4359998    4.4359998    19171.681   -8379.6059    41276.831    24617.817   -13751.002    661.54475   -692.41565    87.292022 
   18600    1691.2161   -104.13776    1.5302478   -102.60752   -16006.384     4.435857     4.435857     4.435857   -16006.384   -3732.2843   -28289.841   -15997.026    31543.541    6337.2893   -493.06131     87.28359 
   18700    2132.9236   -104.55366    1.9299141   -102.62374   -16623.164    4.4350625    4.4350625    4.4350625   -16623.164   -26258.591    22259.895   -45870.795   -21200.184    17551.245    4884.0969    87.236701 
   18800    943.14559   -103.49437   0.85337795   -102.64099   -3583.5245    4.4570152    4.4570152    4.4570152   -3583.5245   -8669.5627   -48319.017    46238.007    12959.127   -2576.6119    26201.155    88.538537 
   18900    1961.9535    -104.3872    1.7752168   -102.61199   -35714.412    4.4499426    4.4499426    4.4499426   -35714.412   -58074.326   -3775.7973   -45293.112    1040.3547    23681.691    14038.277    88.117715 
   19000    1218.9148   -103.71354    1.1028997   -102.61064    22982.367    4.4320458    4.4320458    4.4320458    22982.367    13536.327   -32322.674    87733.447   -2398.6635    3640.4571   -24818.688     87.05881 
   19100    1708.2449   -104.20489    1.5456559   -102.65923   -11860.509    4.4239667    4.4239667    4.4239667   -11860.509   -24653.366   -206.36435   -10721.796    10541.868    19329.188     3475.916    86.583581 
   19200    1861.6625   -104.35239    1.6844713   -102.66792    1948.6528    4.4399991    4.4399991    4.4399991    1948.6528   -7851.4112    2863.7094     10833.66   -15880.724    14284.809    -20547.11    87.528329 
   19300    1722.1304   -104.21069    1.5582198   -102.65247   -48553.852    4.4547506    4.4547506    4.4547506   -48553.852   -44272.697   -46744.377   -54644.484      17541.2     13222.21    4431.3668     88.40365 
   19400    1742.9927   -104.19164    1.5770964   -102.61455    25574.012    4.4506558    4.4506558    4.4506558    25574.012    1924.5506   -5130.6064    79928.093   -1766.1419   -8009.1014    3611.5185    88.160088 
   19500    1695.9545   -104.12781    1.5345353   -102.59327   -7237.8452    4.4409718    4.4409718    4.4409718   -7237.8452   -33245.767    24289.207   -12756.976    9581.8674    12253.328   -11334.653    87.585868 
   19600    1895.1009   -104.30249    1.7147271   -102.58776     29913.79    4.4327132    4.4327132    4.4327132     29913.79    9117.0954    13405.281    67218.994   -9464.4609    8766.6669    15086.594    87.098143 
   19700    1526.1389    -103.9989    1.3808826   -102.61802    16311.437    4.4450498    4.4450498    4.4450498    16311.437   -23899.369    50018.366    22815.314    9095.0721   -10831.528   -6696.7421    87.827374 
   19800     1791.901   -104.24176    1.6213497   -102.62041   -19133.881     4.461006     4.461006     4.461006   -19133.881   -41951.173    1082.2041   -16532.675   -5991.6525    12811.672    5414.7103     88.77658 
   19900    1638.5201   -104.08933    1.4825674   -102.60676   -7506.9892    4.4520395    4.4520395    4.4520395   -7506.9892   -30233.394   -20163.422    27875.849    3276.1731   -16954.897   -7642.2111    88.242341 
   20000      1938.57   -104.35525    1.7540589   -102.60119    411.41694    4.4323739    4.4323739    4.4323739    411.41694   -40452.899    14396.726    27290.423    8932.7954   -2475.7098   -3669.2011    87.078145 
   20100    1227.6852   -103.74177    1.1108353   -102.63094    25769.838    4.4425286    4.4425286    4.4425286    25769.838    41473.108    -15744.29    51580.695   -4793.5334   -25524.261    6613.1038    87.678013 
   20200    2011.8771   -104.44518    1.8203886   -102.62479   -25188.221    4.4610545    4.4610545    4.4610545   -25188.221   -44279.606   -22750.557   -8534.5003    19352.629   -2524.3981    1891.4137    88.779479 
   20300    1441.9849   -103.89911    1.3047382   -102.59438   -252.32695    4.4690163    4.4690163    4.4690163   -252.32695   -32784.253   -17188.484    49215.756   -400.89602   -14912.483     10439.31    89.255669 
   20400    1434.7503   -103.87283    1.2981923   -102.57464   -414.71751    4.4461621    4.4461621    4.4461621   -414.71751    -10396.43   -16311.367    25463.644    24046.278    6208.7517    2214.6536    87.893323 
   20500    1698.4939   -104.11467     1.536833   -102.57784    23701.342    4.4272521    4.4272521    4.4272521    23701.342   -1560.3195     39400.81    33263.534   -4549.8056   -9716.7055   -8979.7247    86.776627 
   20600    977.44798    -103.5197   0.88441548   -102.63528    37072.656    4.4327463    4.4327463    4.4327463    37072.656   -15411.915    66337.589    60292.293    30725.888   -3946.7597    19078.901    87.100094 
   20700    1920.4977   -104.38006    1.7377067   -102.64235    -22319.69     4.456512     4.456512     4.456512    -22319.69   -37755.762   -22993.231   -6210.0767   -3959.3698   -5017.4612    20102.241    88.508553 
   20800    1360.1083   -103.84889    1.2306546   -102.61823    317.68414    4.4561544    4.4561544    4.4561544    317.68414   -44096.468     27415.64     17633.88     32199.89   -7495.9737    731.13505    88.487251 
   20900    1725.8827   -104.13633    1.5616149   -102.57471    13430.695    4.4479548    4.4479548    4.4479548    13430.695   -21263.951   -2606.1178    64162.153    -4290.473   -3368.6935   -340.07642    87.999681 
   21000    1365.8107   -103.82173    1.2358142   -102.58591   -25448.875    4.4487672    4.4487672    4.4487672   -25448.875   -54500.374   -44988.326    23142.076    18508.547    15308.984   -266.91906     88.04791 
   21100    2131.1263   -104.50409    1.9282878    -102.5758    3805.1967    4.4423801    4.4423801    4.4423801    3805.1967   -9743.9163    31650.493   -10490.987   -3258.0234    19332.407    3084.5285    87.669223 
   21200    1086.0263    -103.5822   0.98265943   -102.59954    2588.6093    4.4399004    4.4399004    4.4399004    2588.6093     -31076.4   -12950.381    51792.609     15613.58   -10894.935   -24983.179    87.522495 
   21300    2151.1556   -104.55535    1.9464108   -102.60894   -6571.1389    4.4496632    4.4496632    4.4496632   -6571.1389   -43105.408    9101.4653    14290.526   -6654.7659   -5053.0007   -15146.817    88.101116 
   21400    1353.2563   -103.83099    1.2244547   -102.60654   -51716.091    4.4554253    4.4554253    4.4554253   -51716.091   -85211.913   -59403.346   -10533.012    32124.402   -10349.666    4840.4948    88.443824 
   21500    2090.5648   -104.47773     1.891587   -102.58614   -17165.673    4.4379971    4.4379971    4.4379971   -17165.673   -21062.018   -29270.596   -1164.4052     3662.649   -3369.0331   -16274.904    87.409984 
   21600    1104.6331   -103.61414   0.99949527   -102.61465    30705.392    4.4342865    4.4342865    4.4342865    30705.392    15735.161    37780.186     38600.83    12151.026   -12114.144   -19597.897    87.190916 
   21700    1840.4333   -104.28499    1.6652628   -102.61973   -21710.104     4.444103     4.444103     4.444103   -21710.104   -38240.109   -61183.367    34293.163   -2720.4354   -2036.0677   -3145.8807    87.771263 
   21800    1893.5037   -104.33211    1.7132819   -102.61883   -9233.5254    4.4600863    4.4600863    4.4600863   -9233.5254   -2245.0942     25666.21   -51121.692   -18261.121    8818.2976    5166.9168    88.721683 
   21900    1810.3597   -104.24883    1.6380515   -102.61078   -16558.442    4.4583698    4.4583698    4.4583698   -16558.442    8392.6473   -15230.791    -42837.18    1782.0369   -5340.5485    -15643.41    88.619289 
   22000    1783.2542   -104.20929    1.6135259   -102.59576   -12917.086    4.4455214    4.4455214    4.4455214   -12917.086    13304.244    825.57686   -52881.078   -8505.1011   -819.80121    -9206.387    87.855327 
   22100    1799.7493   -104.22705     1.628451    -102.5986    8636.5588    4.4266888    4.4266888    4.4266888    8636.5588    18298.007    23615.229    -16003.56    13204.411   -14244.078    23728.058    86.743508 
   22200    1442.5283   -103.93822      1.30523   -102.63299    3560.3315    4.4280492    4.4280492    4.4280492    3560.3315    6574.0797    27369.431   -23262.516    164.71514     -1686.82   -28677.863    86.823507 
   22300     1576.189   -104.07791    1.4261689   -102.65174    21289.548    4.4406585    4.4406585    4.4406585    21289.548    42555.274    27953.233   -6639.8648    11741.949   -2917.5887    10581.678    87.567332 
   22400    2028.6893   -104.46155    1.8356008   -102.62595   -30878.894    4.4566453    4.4566453    4.4566453   -30878.894   -12656.724   -31840.969   -48138.989    438.40666   -542.36004    -4026.525    88.516495 
   22500    1388.4057   -103.85183    1.2562587   -102.59557    2027.8067    4.4288057    4.4288057    4.4288057    2027.8067    79172.471    -22290.36   -50798.691   -3445.9016   -17666.077     15711.35    86.868011 
   22600    1704.7593   -104.13819     1.542502   -102.59569    50385.451    4.3963743    4.3963743    4.3963743    50385.451     50367.88    104802.32   -4013.8445    9299.8709   -10890.386    -12473.05     84.97359 
   22700    1836.6649   -104.32969     1.661853   -102.66784    14010.641    4.4205415    4.4205415    4.4205415    14010.641    64537.372    22453.296   -44958.745   -2715.2634    14437.206    12842.103    86.382631 
   22800    1197.4332   -103.73317    1.0834627   -102.64971    8361.8779    4.4547749    4.4547749    4.4547749    8361.8779    35273.709    39895.695    -50083.77     3957.457   -15331.379   -7998.9477    88.405097 
   22900    1276.5497   -103.76268     1.155049   -102.60763    12463.807    4.4490481    4.4490481    4.4490481    12463.807    87132.292   -37169.527   -12571.345   -6657.3601    13083.969    2785.1019    88.064589 
   23000     1740.245   -104.15556    1.5746103   -102.58095     5190.147    4.4256378    4.4256378    4.4256378     5190.147    21940.821     29032.93    -35403.31    1049.9873   -12364.223   -6250.7302    86.681735 
   23100    1545.2742   -103.99395    1.3981966   -102.59575   -25804.942    4.4065784    4.4065784    4.4065784   -25804.942     43971.47   -79889.101   -41497.195    12254.345    4383.9695    35259.247    85.566647 
   23200     2439.819   -104.83096    2.2075995   -102.62336    11465.012    4.4111688    4.4111688    4.4111688    11465.012    48296.071    1689.5102   -15590.545   -21209.416   -816.58014   -13846.727    85.834331 
   23300    828.51577   -103.40725   0.74965848   -102.65759   -14264.169    4.4304451    4.4304451    4.4304451   -14264.169    58117.582   -57566.939    -43343.15    13712.433   -21711.216    31260.339    86.964516 
   23400    1713.7229   -104.18422    1.5506125   -102.63361    10310.948    4.4297047    4.4297047    4.4297047    10310.948    90890.762   -50812.688   -9145.2293     -8337.32    6702.1129   -10510.756    86.920922 
   23500    1796.8179   -104.25216    1.6257986   -102.62636    19479.923    4.4181556    4.4181556    4.4181556    19479.923    68857.087    19149.821   -29567.138   -7331.9701   -5126.3976    18406.691    86.242831 
   23600     1155.468   -103.66756    1.0454918   -102.62207    13740.318    4.4147205    4.4147205    4.4147205    13740.318   -1976.4005     12271.23    30926.124   -967.60224   -4571.3261   -2181.1852    86.041832 
   23700    2009.7918   -104.43845    1.8185018   -102.61995   -3667.4998    4.4317152    4.4317152    4.4317152   -3667.4998    31466.555   -8194.7798   -34274.275   -9076.0139    927.23686    7872.8803    87.039327 
   23800    1718.6104   -104.16336    1.5550348   -102.60833   -9887.5257    4.4353379    4.4353379    4.4353379   -9887.5257   -17110.195    2402.8183   -14955.201   -1878.7104   -13987.745   -13542.132    87.252956 
   23900    1265.7432   -103.74253    1.1452711   -102.59726    16176.347    4.4193802    4.4193802    4.4193802    16176.347    2090.0071   -2903.6118    49342.647   -8972.9385    9532.6227   -1305.0647    86.314565 
   24000    2336.0941    -104.7124     2.113747   -102.59865   -5457.7214     4.414497     4.414497     4.414497   -5457.7214   -8562.5634    15784.932   -23595.532    3149.0793    434.57269   -6155.8089     86.02876 
   24100    1343.0826   -103.84422    1.2152493   -102.62897    10359.577    4.4200481    4.4200481    4.4200481    10359.577   -37418.992    51928.791    16568.933    2813.2149    16670.373   -233.23091    86.353704 
   24200    1664.2445   -104.12125    1.5058434   -102.61541    6917.3217    4.4282225    4.4282225    4.4282225    6917.3217    3227.9785   -6178.5199    23702.506   -18171.645     6662.816   -2455.0099    86.833698 
   24300    1509.2046   -103.98063    1.3655601   -102.61507   -20504.127    4.4331527    4.4331527    4.4331527   -20504.127   -61426.513   -7530.5225    7444.6563    827.71461    6024.6075    -15526.11    87.124052 
   24400     2051.486   -104.45304    1.8562277   -102.59681     3293.614    4.4181358    4.4181358    4.4181358     3293.614   -28205.258    48573.105   -10487.005   -18486.947     11620.34    6772.9226    86.241675 
   24500    1202.7599   -103.70862    1.0882825   -102.62034    378.49125     4.413713     4.413713     4.413713    378.49125   -21552.588   -37041.282    59729.344   -1875.0215    284.38433   -16828.203    85.982938 
   24600    1916.9659   -104.37212     1.734511   -102.63761   -13983.331    4.4168994    4.4168994    4.4168994   -13983.331   -43389.238    37738.419   -36299.172   -5863.4803    27351.706   -6306.3075    86.169292 
   24700     1647.178   -104.12285    1.4904012   -102.63245     10403.67    4.4233913    4.4233913    4.4233913     10403.67    2727.1249   -25152.039    53635.924   -8592.6435     1664.629    9887.6923    86.549804 
   24800    1618.7188   -104.10286    1.4646508   -102.63821   -39086.914    4.4333266    4.4333266    4.4333266   -39086.914       -75505   -27865.969   -13889.773   -3514.5155    6668.8193    2318.2656    87.134309 
   24900    1806.3905   -104.27263    1.6344601   -102.63817    12159.094    4.4308895    4.4308895    4.4308895    12159.094   -13844.148   -45310.548    95631.978   -16155.947   -1451.3551    20092.305    86.990684 
   25000    1901.6042   -104.36013    1.7206114   -102.63951    -33768.02    4.4248402    4.4248402    4.4248402    -33768.02   -38935.714   -39446.704   -22921.641    5158.3619    2809.3243    -22249.39    86.634881 
   25100    1326.0411   -103.86158    1.1998298   -102.66175     5920.985    4.4293828    4.4293828    4.4293828     5920.985   -53033.051   -65649.198     136445.2   -26420.122   -5471.9577    13057.919    86.901975 
   25200    2096.6212    -104.5583     1.897067   -102.66123   -6680.6653    4.4344307    4.4344307    4.4344307   -6680.6653   -22500.869   -47228.197     49687.07    6719.2886   -4956.9244    20609.923    87.199426 
   25300    1581.2316   -104.10498    1.4307316   -102.67425   -28189.919    4.4282984    4.4282984    4.4282984   -28189.919   -53885.762   -39476.892    8792.8987   -16272.844    11450.273    -16410.65    86.838165 
   25400    1758.2997   -104.26191    1.5909465   -102.67097    39225.488     4.416513     4.416513     4.416513    39225.488   -8293.7645   -25931.802    151902.03    17101.102   -1784.3869    11008.315    86.146676 
   25500    1382.4956   -103.93646    1.2509111   -102.68555    10020.717    4.4271513    4.4271513    4.4271513    10020.717   -25459.294    8360.1795    47161.265   -22505.866    10218.495   -11481.158    86.770698 
   25600     1360.058   -103.89029     1.230609   -102.65968   -8748.0331    4.4378071    4.4378071    4.4378071   -8748.0331   -45261.115    -25473.51    44490.525    26251.408   -8920.6423    5642.8168    87.398759 
   25700    2159.6431   -104.57694    1.9540904   -102.62285   -2937.5387    4.4309557    4.4309557    4.4309557   -2937.5387     -24079.7   -9505.6754     24772.76   -21759.672    25580.529   -13529.291    86.994585 
   25800    853.33425   -103.39503   0.77211476   -102.62291     12829.81    4.4266271    4.4266271    4.4266271     12829.81   -56881.721    5847.9232    89523.228    26697.572    3171.5548   -29061.043    86.739877 
   25900    2103.4128   -104.51543    1.9032121   -102.61221   -8439.8406    4.4289012    4.4289012    4.4289012   -8439.8406   -16119.703   -6842.5906   -2357.2284   -17441.216    9234.5159    14702.854    86.873634 
   26000    1486.0553   -103.97603    1.3446141   -102.63141   -37286.079    4.4248659    4.4248659    4.4248659   -37286.079   -78882.403   -35963.753      2987.92    29216.649    17479.674   -9658.1617    86.636388 
   26100    1493.1284   -103.99633    1.3510139   -102.64531    16648.735    4.4191356    4.4191356    4.4191356    16648.735   -34103.982   -5308.4331    89358.619   -12509.772   -13091.672    4989.2525    86.300234 
   26200    1991.8014   -104.45999    1.8022238   -102.65777   -11097.859    4.4182214    4.4182214    4.4182214   -11097.859   -35714.918   -16903.224    19324.565    13112.125   -10946.825    15578.125    86.246688 
   26300    1379.2422   -103.91149    1.2479673   -102.66352    2494.0099    4.4281566    4.4281566    4.4281566    2494.0099   -56458.223   -3482.5418    67422.794   -76.800086    15952.101   -29288.632     86.82982 
   26400    2221.4462    -104.6479    2.0100112   -102.63789   -25044.461    4.4372326    4.4372326    4.4372326   -25044.461   -53720.174   -53920.032    32506.822    23416.614   -26133.215    10759.905    87.364817 
   26500    1806.3307   -104.26421     1.634406    -102.6298   -18421.818    4.4267734    4.4267734    4.4267734   -18421.818    -25957.95   -50661.373    21353.868   -5437.4623    28222.466   -21301.441    86.748483 
   26600      1361.56   -103.86179    1.2319681   -102.62982     6270.874    4.4164633    4.4164633    4.4164633     6270.874    -37330.88   -47360.622    103504.12    20201.012    1892.6015   -14741.817    86.143773 
   26700    1955.3303   -104.40645     1.769224   -102.63723    3288.6166    4.4215355    4.4215355    4.4215355    3288.6166    6322.3171   -33380.165    36923.698    5030.4759   -865.18039   -1577.1553    86.440914 
   26800    1023.6342   -103.56797   0.92620571   -102.64177    2335.9562    4.4334616    4.4334616    4.4334616    2335.9562   -39771.415   -29706.659    76485.943    22267.785     2467.638   -12097.562    87.142267 
   26900    2055.1038   -104.48498    1.8595011   -102.62548   -4981.1285    4.4420015    4.4420015    4.4420015   -4981.1285   -5090.7696    -59128.29    49275.674   -4937.1323    -22930.99    23882.138    87.646807 
   27000    1644.2578   -104.11089     1.487759   -102.62313   -25755.313    4.4444704    4.4444704    4.4444704   -25755.313   -61353.857   -51517.928    35605.847    25342.436    17916.191   -18597.907    87.793035 
   27100    1909.0108     -104.338    1.7273131   -102.61069   -4016.4499    4.4286263    4.4286263    4.4286263   -4016.4499   -33127.684   -33181.818    54260.152    1863.7392   -7028.0077    23354.204    86.857457 
   27200    1605.9823    -104.0857    1.4531266   -102.63257    23357.339    4.4216863    4.4216863    4.4216863    23357.339   -4313.4088   -28554.821    102940.25    17680.715    1006.7512   -6527.7375    86.449758 
   27300    2157.9536   -104.60788    1.9525618   -102.65531   -31463.544    4.4470095    4.4470095    4.4470095   -31463.544   -40666.768   -62385.294    8661.4289    2170.2159    803.01514    3863.8299    87.943585 
   27400    1121.0242   -103.65169    1.0143263   -102.63737    19016.382    4.4498659    4.4498659    4.4498659    19016.382   -22462.468   -36486.023    115997.64    17862.348    557.35613    3363.3389    88.113156 
   27500    1953.4407   -104.39411    1.7675142   -102.62659   -21891.186    4.4354088    4.4354088    4.4354088   -21891.186   -5396.9909   -50746.875   -9529.6925    2331.3349    -8278.276   -7293.1527    87.257138 
   27600    2170.1031   -104.58175    1.9635549    -102.6182   -7925.9847    4.4248672    4.4248672    4.4248672   -7925.9847   -16671.946   -49697.639    42591.631    8152.2365    23461.218     10231.78    86.636466 
   27700    1134.6133   -103.67903    1.0266219   -102.65241    6685.3626    4.4311826    4.4311826    4.4311826    6685.3626    10284.254   -51590.408    61362.242    13889.636     23468.52   -14844.501    87.007948 
   27800    1976.4674   -104.43881    1.7883493   -102.65046    -10865.79    4.4479768    4.4479768    4.4479768    -10865.79   -45827.097   -59535.263     72764.99   -4083.6649    5294.7072   -812.93202    88.000984 
   27900    1483.0015   -103.99627    1.3418509   -102.65442    4085.3241    4.4428769    4.4428769    4.4428769    4085.3241    7741.2022   -40492.775    45007.545    8298.9099    13032.756   -15239.369    87.698633 
   28000    2179.5788   -104.62177    1.9721287   -102.64964   -16479.923    4.4352447    4.4352447    4.4352447   -16479.923   -38367.548   -33939.981     22867.76   -15262.486    12135.618   -1095.5157    87.247452 
   28100    1361.4069   -103.86421    1.2318296   -102.63238    23214.715    4.4225438    4.4225438    4.4225438    23214.715     -6901.26   -32175.302    108720.71    11403.305    3455.9256   -10643.112    86.500067 
   28200    1915.7605   -104.36115    1.7334203   -102.62773     -21105.1    4.4264012    4.4264012    4.4264012     -21105.1   -12670.135   -54961.007    4315.8429   -25054.346    15078.127   -11395.681    86.726603 
   28300    1904.3744   -104.33384     1.723118   -102.61072    1422.4161    4.4316986    4.4316986    4.4316986    1422.4161   -35579.622   -24603.664    64450.534    10030.471   -15737.506    -2395.811    87.038348 
   28400    1365.5911   -103.84502    1.2356156    -102.6094   -16480.364    4.4281295    4.4281295    4.4281295   -16480.364    -33747.91   -38238.313    22545.132    -22136.18    15573.236   -22148.012    86.828228 
   28500    2073.1389   -104.48772    1.8758196    -102.6119   -1552.5043    4.4333626    4.4333626    4.4333626   -1552.5043   -17188.535   -16531.953    29062.976    6899.0492   -18530.161    1645.1856     87.13643 
   28600     990.2372   -103.52148   0.89598743   -102.62549   -19535.123    4.4320985    4.4320985    4.4320985   -19535.123   -77774.622   -42928.599     62097.85   -44615.213    10649.244   -27217.191    87.061915 
   28700    2181.2928   -104.59268    1.9736796     -102.619     4959.076    4.4088479    4.4088479    4.4088479     4959.076    8327.7792   -30823.856    37373.305    21277.137   -28104.339   -20555.889     85.69892 
   28800    1714.4596   -104.20433    1.5512791   -102.65305   -11453.967    4.4210841    4.4210841    4.4210841   -11453.967   -36991.906   -23398.586     26028.59   -38397.513        24347    10509.552    86.414443 
   28900    1516.6087    -104.0136    1.3722594   -102.64134    11726.422    4.4195064    4.4195064    4.4195064    11726.422   -386.96218   -22534.087    58100.316    5642.9262    17573.395   -19000.241     86.32196 
   29000    1950.9498    -104.4058    1.7652604   -102.64054   -21404.824    4.4180416    4.4180416    4.4180416   -21404.824   -30510.123   -48664.021     14959.67   -24538.183   -1675.7813    6257.1948     86.23616 
   29100    1792.3451    -104.2443    1.6217515   -102.62255    -12593.32    4.4223959    4.4223959    4.4223959    -12593.32   -30726.221    3589.0421   -10642.783    12668.144    47801.887   -210.10988    86.491383 
   29200    1575.0905   -104.03765     1.425175   -102.61248    14543.132    4.4117226    4.4117226    4.4117226    14543.132   -7213.2537   -38293.115    89135.763   -27523.906   -7938.6893   -6202.8392    85.866662 
   29300    1852.2611   -104.29186    1.6759647    -102.6159   -11085.959    4.4211335    4.4211335    4.4211335   -11085.959   -25245.199   -17056.249    9043.5723    15670.937     23807.07    19672.522    86.417339 
   29400     1204.051   -103.72718    1.0894507   -102.63773    15166.954    4.4178233    4.4178233    4.4178233    15166.954    12230.799   -34900.021    68170.083   -28259.059   -8938.4654   -9538.5888    86.223377 
   29500    2162.6741   -104.60028     1.956833   -102.64345   -10736.342    4.4182007    4.4182007    4.4182007   -10736.342    -3917.368   -44738.017    16446.359    9343.3538    7145.1637    9000.7118    86.245477 
   29600    1297.0101   -103.81266     1.173562    -102.6391    29399.665    4.4085598    4.4085598    4.4085598    29399.665    24172.601   -36384.814    100411.21   -24083.902    27598.165    10452.072    85.682122 
   29700    1615.4545   -104.09961    1.4616972   -102.63792    1541.9343    4.4085522    4.4085522    4.4085522    1541.9343    20438.909   -37736.166     21923.06   -1708.2172    -3145.251    1115.8016    85.681678 
   29800    1764.3694   -104.23932    1.5964385   -102.64289    10102.612     4.414827     4.414827     4.414827    10102.612    111.29666   -27682.581    57879.121   -7976.0568    4233.3802    817.34239    86.048057 
   29900    1691.6129   -104.17144    1.5306069   -102.64083   -5005.8702    4.4208061    4.4208061    4.4208061   -5005.8702    3879.1377   -32327.198     13430.45   -17193.132   -12814.842    12929.575    86.398139 
   30000    1960.8804   -104.41484    1.7742458   -102.64059   -16643.022    4.4198687    4.4198687    4.4198687   -16643.022   -16983.105   -9698.8578   -23247.102    11042.226   -10822.316    15995.714    86.343194 
   30100    1699.2294   -104.19123    1.5374985   -102.65373     19628.67    4.4138812    4.4138812    4.4138812     19628.67     -10305.9   -40088.886     109280.8   -20226.637    213.53196   -5216.4506    85.992766 
   30200    1855.3072   -104.32686    1.6787209   -102.64814    1301.6292    4.4309198    4.4309198    4.4309198    1301.6292   -7696.2775   -46654.137    58255.302    871.56645   -11399.501     4831.964     86.99247 
   30300    1626.2648   -104.11209    1.4714786   -102.64061   -52244.855    4.4363175    4.4363175    4.4363175   -52244.855   -57283.939   -73224.026     -26226.6   -40372.218    7173.1152   -6123.6694    87.310778 
   30400    2180.1851   -104.59205    1.9726773   -102.61937    28777.339    4.4130021    4.4130021    4.4130021    28777.339    31677.934   -22226.505    76880.588    16587.324   -1079.8433    4910.9839    85.941397 
   30500    1130.4281   -103.68109    1.0228351   -102.65825   -6246.5801    4.4154113    4.4154113    4.4154113   -6246.5801    4342.7054   -13506.651    -9575.795   -39164.725    1133.3597    12891.584    86.082227 
   30600    1703.6773    -104.1891     1.541523   -102.64757    14176.231    4.4187897    4.4187897    4.4187897    14176.231   -255.43646   -29475.002    72259.131    4325.1811    18039.092    810.97546    86.279975 
   30700    1660.4696   -104.16221    1.5024278   -102.65979   -22150.555    4.4283543    4.4283543    4.4283543   -22150.555     -2976.13    -62157.35   -1318.1838    -18606.07   -16974.755    22513.861    86.841456 
   30800     1549.951    -104.0571    1.4024283   -102.65467   -584.92301    4.4213885    4.4213885    4.4213885   -584.92301   -25899.783    6182.9167    17962.098    15568.947    6537.5125    18742.334    86.432292 
   30900    1526.6634   -104.01788    1.3813572   -102.63652   -11112.871    4.4172907    4.4172907    4.4172907   -11112.871    2140.3351   -39962.836     4483.888   -27684.105   -3721.5829     1377.473    86.192195 
   31000    1805.9127   -104.27005    1.6340277   -102.63602   -24440.714    4.4158292    4.4158292    4.4158292   -24440.714   -16489.731   -37234.942   -19597.469   -13722.277   -13287.475    30730.971    86.106674 
   31100     1935.121   -104.37965    1.7509382   -102.62871    479.15345    4.4169332    4.4169332    4.4169332    479.15345    5338.6811   -11243.028    7341.8069     7674.101    18174.567    3818.7124    86.171268 
   31200    1450.0879    -103.9395      1.31207   -102.62743   -40891.173    4.4321854    4.4321854    4.4321854   -40891.173   -21268.833   -70124.835   -31279.851   -18844.743   -17420.452    22453.849    87.067038 
   31300    1366.7658   -103.85354    1.2366784   -102.61687     15791.56    4.4134265    4.4134265    4.4134265     15791.56     62449.42   -4438.4959   -10636.243    -11626.44   -3707.9634   -14299.568    85.966191 
   31400    2213.5625   -104.62616    2.0028779   -102.62328    3448.4296    4.4037074    4.4037074    4.4037074    3448.4296    30041.303   -20746.409    1050.3954    17858.848    10354.407    15859.206    85.399509 
   31500    1236.2608   -103.77344    1.1185947   -102.65485   -186.34433    4.4197044    4.4197044    4.4197044   -186.34433    25237.329   -12076.687   -13719.675   -2299.9682   -18226.809    -9192.466    86.333563 
   31600     1856.823   -104.33803    1.6800924   -102.65793    -20932.73    4.4295037    4.4295037    4.4295037    -20932.73   -38925.467   -18965.375   -4907.3471    16497.883    21223.103   -13589.693     86.90909 
   31700    2014.1378   -104.45603    1.8224342    -102.6336     863.4367    4.4262019    4.4262019    4.4262019     863.4367    22419.393   -31301.594    11472.511   -314.74115   -2997.2097     12.58561    86.714884 
   31800    798.99895   -103.36554   0.72295104   -102.64259    38969.421     4.411827     4.411827     4.411827    38969.421    61191.825    5192.2086     50524.23    15441.008    2716.5233   -27392.548    85.872762 
   31900    2672.5409    -105.0468    2.4181711   -102.62863   -27487.979    4.4285032    4.4285032    4.4285032   -27487.979   -24121.899   -35098.472   -23243.566   -4765.1534     12278.67    14287.858    86.850214 
   32000    1356.3697   -103.85349    1.2272718   -102.62622   -1248.8131    4.4228196    4.4228196    4.4228196   -1248.8131    12555.784   -33330.535    17028.311    364.07428   -2553.1729   -25930.148    86.516247 
   32100    1499.7768   -103.97684    1.3570296   -102.61981    30437.761    4.4111664    4.4111664    4.4111664    30437.761     50744.45     26574.31    13994.524     11574.75    16156.514    31840.489    85.834193 
   32200    2100.1685   -104.54205    1.9002766   -102.64177   -1586.1865    4.4255345    4.4255345    4.4255345   -1586.1865   -22671.992   -14004.921    31918.353    2155.9961    6346.2689    4196.1379    86.675666 
   32300    1174.3901    -103.7177    1.0626128   -102.65508   -5214.2169    4.4273311    4.4273311    4.4273311   -5214.2169   -28020.263    2929.2965    9448.3158    8326.3937   -2792.3342    7176.7306    86.781272 
   32400    2080.4508   -104.52798    1.8824356   -102.64555   -41960.965    4.4330049    4.4330049    4.4330049   -41960.965   -25301.404   -64986.651    -35594.84    6883.5263    6192.5356    47134.977    87.115341 
   32500    1612.7091   -104.08696    1.4592131   -102.62775    14343.682    4.4325436    4.4325436    4.4325436    14343.682   -38778.006    31745.276    50063.775   -4443.6382   -18004.881   -13106.083    87.088145 
   32600     1426.011   -103.91112    1.2902847   -102.62083   -9907.5969     4.417741     4.417741     4.417741   -9907.5969    28680.182   -57437.739   -965.23348    2309.0291     -2117.27    36802.422    86.218555 
   32700    2285.4649   -104.69911    2.0679367   -102.63117    12217.273    4.4168873    4.4168873    4.4168873    12217.273    373.44274    30362.718    5915.6574    2105.3879    1574.9248    -6165.387    86.168581 
   32800     1390.831   -103.90888    1.2584532   -102.65043    2963.2942    4.4316237    4.4316237    4.4316237    2963.2942    -19931.68   -21706.992    50528.555    11065.037   -5220.0734    23272.467    87.033939 
   32900     1587.883   -104.06374    1.4367499   -102.62699    -24018.36    4.4449752    4.4449752    4.4449752    -24018.36   -56433.315    5937.3166   -21559.083    -7254.131    18331.693   -15264.203    87.822951 
   33000    1698.3067   -104.14622    1.5366636   -102.60956    30490.535    4.4230163    4.4230163    4.4230163    30490.535    44763.414    9316.6001     37391.59     1462.536   -21228.836    22027.211     86.52779 
   33100    1684.8262   -104.13674    1.5244662   -102.61227   -7629.8505    4.4216958    4.4216958    4.4216958   -7629.8505    18858.026   -22811.891   -18935.686    7286.2751    10409.041    2034.3648    86.450315 
   33200    1739.8478   -104.19666    1.5742509   -102.62241   -991.16639    4.4414465    4.4414465    4.4414465   -991.16639   -23024.957    24352.955   -4301.4967    7010.8634    97.212341    1760.5414     87.61396 
   33300    1870.9127   -104.30157    1.6928411   -102.60873   -11086.603    4.4529406    4.4529406    4.4529406   -11086.603   -5492.6764   -8962.9271   -18804.206    11380.388     6210.321    5990.2442    88.295936 
   33400    1445.6748   -103.89433     1.308077   -102.58625    16458.408    4.4449295    4.4449295    4.4449295    16458.408    13979.717    23611.626    11783.881    13226.761     5290.404   -20255.047    87.820241 
   33500    1384.7793   -103.83583    1.2529774   -102.58286    41290.005    4.4260235    4.4260235    4.4260235    41290.005   -13985.824    113751.01     24104.83    6641.4956   -749.30623    9448.9227    86.704404 
   33600    1640.9691   -104.09042    1.4847833   -102.60563    5810.7334     4.424613     4.424613     4.424613    5810.7334    3254.7282    37562.211   -23384.739    24728.042    9811.4306   -38438.841    86.621535 
   33700     1615.731   -104.07713    1.4619474   -102.61518    23906.902    4.4456664    4.4456664    4.4456664    23906.902   -16912.268    75525.911    13107.063    7107.9002    8679.7195   -6286.5245     87.86393 
   33800    1328.6712   -103.80158    1.2022096   -102.59937   -20624.255    4.4608364    4.4608364    4.4608364   -20624.255   -36185.059    6846.8447   -32534.552    2292.8558    24616.432   -29399.264    88.766456 
   33900    2218.6646   -104.57732    2.0074943   -102.56982   -368.01027    4.4413613    4.4413613    4.4413613   -368.01027   -5292.2357   -12523.713    16711.917   -14910.206    619.28203   -19833.601    87.608916 
   34000    1145.4819   -103.63165    1.0364561    -102.5952    30932.189    4.4172725    4.4172725    4.4172725    30932.189    15742.017    85165.221   -8110.6713    10942.504    26621.595   -2752.8692    86.191127 
   34100    2105.6881    -104.5165    1.9052708   -102.61123    12350.439    4.4127669    4.4127669    4.4127669    12350.439    12489.634   -11802.663    36364.345   -14934.337   -9642.2389    -9830.124    85.927653 
   34200    1423.9848   -103.93056    1.2884513   -102.64211    20102.928     4.438885     4.438885     4.438885    20102.928    21564.828     68687.47   -29943.514    8759.0605    12675.717    11265.268     87.46246 
   34300      1595.53   -104.05522    1.4436691   -102.61155   -1814.9103    4.4479196    4.4479196    4.4479196   -1814.9103   -4623.8892    13560.963   -14381.805     3279.427   -5281.5075    7655.9997    87.997591 
   34400    1384.6363    -103.8545     1.252848   -102.60166    24508.886    4.4301368    4.4301368    4.4301368    24508.886   -21403.826    80231.313    14699.172   -5868.6397    6234.9167    14349.467    86.946363 
   34500    2039.3375   -104.44961    1.8452354   -102.60437    13112.025    4.4272805    4.4272805    4.4272805    13112.025    10311.036    5299.3651    23725.674    81.006304   -18855.661   -5363.9034    86.778295 
   34600    1596.2793   -104.06824     1.444347    -102.6239    3130.6964    4.4244908    4.4244908    4.4244908    3130.6964   -10686.798    26422.844   -6343.9565    -15658.56    7840.4561    2057.3462    86.614356 
   34700    1454.7138   -103.95338    1.3162556   -102.63712    24807.183    4.4398006    4.4398006    4.4398006    24807.183   -16859.817    55686.959    35594.408   -7781.2037   -16007.229    16287.232    87.516593 
   34800    1502.8563    -103.9756     1.359816   -102.61578   -9250.0819    4.4430412    4.4430412    4.4430412   -9250.0819   -21506.907    29612.921    -35856.26    -8659.562      38872.5   -1977.5996    87.708368 
   34900    1608.9108   -104.05098    1.4557763    -102.5952    15690.298    4.4230557    4.4230557    4.4230557    15690.298   -28644.452    54984.719    20730.626     -11963.8   -31228.927    12937.143    86.530106 
   35000    2075.2497   -104.47531    1.8777296   -102.59758    6841.9232    4.4204205    4.4204205    4.4204205    6841.9232   -7183.9355    33909.106    -6199.401    11005.316    21380.608    6480.4626    86.375533 
   35100    1759.9072     -104.215     1.592401    -102.6226   -28782.476    4.4362205    4.4362205    4.4362205   -28782.476   -43432.136   -24416.612   -18498.679   -10409.295   -25847.873    14136.978    87.305054 
   35200    1957.9449   -104.38026    1.7715897   -102.60867    -815.1144    4.4402528    4.4402528    4.4402528    -815.1144   -4585.9855   -21851.524    23992.166     3318.704    12497.895    8504.3468    87.543334 
   35300    1684.9257   -104.12275    1.5245562   -102.59819   -4459.1047    4.4279018    4.4279018    4.4279018   -4459.1047    -34312.82     8866.332    12069.174    2444.5161   -18817.357    701.18344    86.814835 
   35400    1601.3544   -104.06076    1.4489391   -102.61182    19238.578    4.4220725    4.4220725    4.4220725    19238.578   -3217.2331    46816.959    14116.009   -2261.2195    12546.402    12328.684    86.472412 
   35500    2071.2356   -104.49295    1.8740975   -102.61885    3663.2653    4.4337999    4.4337999    4.4337999    3663.2653   -34238.707    61204.288   -15975.785     5207.954    -32065.21    2516.2818    87.162214 
   35600      1133.25   -103.65239    1.0253885     -102.627   -20482.221    4.4491448    4.4491448    4.4491448   -20482.221   -41185.799   -15502.118   -4758.7461   -12933.322   -846.21161    23670.199    88.070328 
   35700    2225.3533   -104.61408    2.0135464   -102.60053    2686.4536    4.4297883    4.4297883    4.4297883    2686.4536    12003.553   -6359.7921    2415.5998    1423.1781   -7186.0706   -3383.2369    86.925846 
   35800     1313.108   -103.79143    1.1881277    -102.6033    29258.316    4.4104204    4.4104204    4.4104204    29258.316    44930.603    7195.9687    35648.377    -2330.178   -32062.592    15496.929    85.790651 
   35900    1727.5021   -104.19256    1.5630802   -102.62948    1482.6961    4.4345749    4.4345749    4.4345749    1482.6961    2611.5395   -8502.7493    10339.298   -6381.8059    3536.2353     7879.957    87.207929 
   36000    1770.0699   -104.22065    1.6015964   -102.61905   -16104.471    4.4492782    4.4492782    4.4492782   -16104.471   -15259.097    3544.1688   -36598.485   -5617.6526    -15382.32    11886.052     88.07825 
   36100    1223.4668   -103.71538    1.1070185   -102.60836    3219.5311    4.4426269    4.4426269    4.4426269    3219.5311   -12038.991   -10723.095     32420.68   -24594.762    6038.0534     6361.318    87.683832 
   36200    1814.3148   -104.21522    1.6416302   -102.57359    17243.266    4.4350369    4.4350369    4.4350369    17243.266    11561.324    25816.179    14352.294    110.97511   -21324.023   -4796.5922    87.235187 
   36300    1861.7543     -104.265    1.6845544   -102.58045   -24350.087    4.4472396    4.4472396    4.4472396   -24350.087   -16105.797   -47036.475   -9907.9882    7868.8341    16057.009    20637.358    87.957238 
   36400     1996.821   -104.36941    1.8067656   -102.56264   -38516.056     4.465399     4.465399     4.465399   -38516.056   -42010.392   -28636.126   -44901.652   -4494.0711    15038.178   -11807.656    89.039111 
   36500    1449.5757   -103.85615    1.3116065   -102.54454    1058.3903    4.4481668    4.4481668    4.4481668    1058.3903    91296.208   -50703.452   -37417.585    2567.1439   -433.61559    9360.7467    88.012264 
   36600    1987.3418   -104.34077    1.7981886   -102.54258   -1188.8794    4.4252633    4.4252633    4.4252633   -1188.8794   -2868.4516     3206.366   -3904.5526    12467.786    22495.043    1291.2508    86.659735 
   36700    1526.7722   -103.98507    1.3814556   -102.60362    20758.417    4.4285138    4.4285138    4.4285138    20758.417    85740.293      803.392   -24268.434   -4177.6198    -11671.29    23029.241    86.850838 
   36800     1913.302   -104.33519    1.7311959     -102.604   -19874.265    4.4543868    4.4543868    4.4543868   -19874.265   -51550.761    45853.333   -53925.369   -6579.9882    17055.174   -7572.2473    88.381991 
   36900    1712.7069   -104.13764    1.5496932   -102.58794   -25892.325    4.4530653    4.4530653    4.4530653   -25892.325   -12274.224    5334.1316   -70736.884    2127.9978    6331.3964    30847.798    88.303351 
   37000     1580.719   -104.00101    1.4302677   -102.57075    12381.113    4.4372516    4.4372516    4.4372516    12381.113   -61449.403    111289.63   -12696.892   -436.30201    9891.6954    2313.9987     87.36594 
   37100    1812.2582    -104.2227    1.6397693   -102.58293    11082.966    4.4367743    4.4367743    4.4367743    11082.966    4605.6884    65918.693   -37275.485    3097.6664   -1176.1165    2665.4908     87.33775 
   37200    1548.6267   -104.00029      1.40123   -102.59906   -12448.597    4.4563923    4.4563923    4.4563923   -12448.597   -4078.0318   -34620.475    1352.7146   -8950.3553   -8233.3368   -8008.5732    88.501419 
   37300      2109.26   -104.47932    1.9085027   -102.57082   -28117.713    4.4583895    4.4583895    4.4583895   -28117.713   -2834.0223   -45810.964   -35708.152    8799.5846   -5632.4469     1423.013    88.620466 
   37400    1740.5968   -104.14386    1.5749286   -102.56894   -6632.1064     4.425267     4.425267     4.425267   -6632.1064    636.84469    6125.1933   -26658.357    4794.1174   -18422.037   -15822.287     86.65995 
   37500    1594.7216   -104.02823    1.4429376   -102.58529    31476.582    4.4123889    4.4123889    4.4123889    31476.582    31000.716   -6485.0576    69914.088     2054.728   -365.48283    25667.711    85.905574 
   37600    1775.1967   -104.23052    1.6062353   -102.62428    -13249.76    4.4331121    4.4331121    4.4331121    -13249.76    3373.0203    554.86324   -43677.165    6112.8536   -6361.3648    1116.1208     87.12166 
   37700    1507.9516   -103.98972    1.3644263   -102.62529    -10049.82    4.4505439    4.4505439    4.4505439    -10049.82   -67775.374   -13769.592    51395.506    6065.2042   -16934.186    1886.0146    88.153442 
   37800    1435.4019   -103.89822    1.2987818   -102.59944   -5133.2407    4.4442097    4.4442097    4.4442097   -5133.2407   -4809.5897    2814.6927   -13404.825   -7422.1451   -85.192451    6059.5267    87.777586 
   37900     1781.785   -104.19805    1.6121965   -102.58586    10491.665    4.4234434    4.4234434    4.4234434    10491.665   -23908.407    61585.613    -6202.211    7414.9904   -2595.4796   -4791.1154    86.552859 
   38000    1781.3222   -104.21386    1.6117778   -102.60209    -8337.054    4.4272887    4.4272887    4.4272887    -8337.054   -33580.579   -8945.4702    17514.887    9217.7485   -6060.7981   -9894.3378    86.778776 
   38100    1269.1885   -103.78375    1.1483884   -102.63536    6478.2584    4.4321027    4.4321027    4.4321027    6478.2584   -36385.739    8560.6104    47259.904    14004.607    3323.2447   -35830.411    87.062164 
   38200    2038.4679   -104.48161    1.8444486   -102.63717     1244.146    4.4387487    4.4387487    4.4387487     1244.146   -60076.739   -2274.9059    66084.083    6302.0772    9592.0688   -836.38135      87.4544 
   38300    1163.4258   -103.68864    1.0526921   -102.63595    12557.697    4.4392295    4.4392295    4.4392295    12557.697   -32362.302    25126.286    44909.106    9128.7519    1625.9986   -13743.906    87.482827 
   38400    2129.5262   -104.53396    1.9268401   -102.60712    -2151.728    4.4442831    4.4442831    4.4442831    -2151.728    -23448.66   -4236.5544    21230.031    1927.4421    19165.526    13612.441    87.781934 
   38500    1449.2911   -103.90875     1.311349    -102.5974   -33462.908    4.4359066    4.4359066    4.4359066   -33462.908   -48026.598    10219.966   -62582.092    9382.5426   -19880.886    7765.1515    87.286521 
   38600    2217.0551   -104.58667    2.0060381   -102.58064    12357.305    4.4328515    4.4328515    4.4328515    12357.305   -27438.166    40296.457    24213.623   -7254.4255   -1894.6828    2306.7504    87.106298 
   38700    1671.1605   -104.11544    1.5121011   -102.60334   -55312.178    4.4520006    4.4520006    4.4520006   -55312.178   -58086.564   -23649.854   -84200.115   -1350.6068   -1226.2345    4985.1451    88.240031 
   38800    1779.7764   -104.22223    1.6103791   -102.61185    4451.4769    4.4379533    4.4379533    4.4379533    4451.4769   -12877.645    70524.824   -44292.749    16835.354   -6100.3882    10823.146    87.407394 
   38900     1677.871   -104.15203    1.5181729   -102.63386    23141.085    4.4342737    4.4342737    4.4342737    23141.085   -2132.7097    84863.898   -13307.933    -15624.16   -4807.7895   -15640.323    87.190164 
   39000    1832.0715   -104.30916    1.6576968   -102.65146   -25143.755    4.4560322    4.4560322    4.4560322   -25143.755   -36324.451    14845.758   -53952.574    8440.9186    -378.0148    11920.911     88.47997 
   39100    1810.5516   -104.27974    1.6382252   -102.64152    4646.3205    4.4537678    4.4537678    4.4537678    4646.3205   -65287.193    97085.441   -17859.287    1019.6632   -9442.2621   -3123.2371    88.345149 
   39200     1638.291   -104.11905    1.4823601   -102.63669    10425.436    4.4456612    4.4456612    4.4456612    10425.436   -11889.015    13354.148    29811.174   -3210.0861    1449.0543   -3577.1942    87.863621 
   39300    1915.8571   -104.35154    1.7335078   -102.61803    11842.572    4.4516743    4.4516743    4.4516743    11842.572   -48725.074    94228.807   -9976.0187    14320.968   -8264.5292    17846.484     88.22063 
   39400    1320.9133   -103.81347    1.1951901   -102.61828   -2472.8268    4.4449128    4.4449128    4.4449128   -2472.8268    4198.6417    72771.772   -84388.894    19996.971    1219.7115   -37802.892    87.819251 
   39500    2447.0777   -104.81898    2.2141674   -102.60482    -5142.449    4.4304959    4.4304959    4.4304959    -5142.449    10545.765    4180.1581    -30153.27     9804.054    8277.3433     20337.37    86.967507 
   39600    1457.4859   -103.95405    1.3187639   -102.63529   -25231.777    4.4417266    4.4417266    4.4417266   -25231.777    -11136.47    4732.5549   -69291.417   -2960.8252   -11340.641   -37240.429    87.630536 
   39700    1587.0005   -104.05868    1.4359514   -102.62273    -609.4208    4.4424402    4.4424402    4.4424402    -609.4208   -41763.261    100227.11   -60292.113   -2054.9518    905.60997      10161.3    87.672778 
   39800     1678.903   -104.13485    1.5191067   -102.61574    16141.606    4.4184482    4.4184482    4.4184482    16141.606   -8985.3631    20833.986    36576.195   -1732.2124    3908.3822   -8464.9588     86.25997 
   39900    1869.9509   -104.33276    1.6919708   -102.64079    12842.209    4.4293857    4.4293857    4.4293857    12842.209   -232.71661     36383.12    2376.2239   -11993.476   -10559.702   -26464.509    86.902146 
   40000     1912.764   -104.35513    1.7307091   -102.62442   -30650.354    4.4537011    4.4537011    4.4537011   -30650.354   -64174.872    47264.803   -75040.994    5973.6411    10186.528    3128.9846    88.341183 
   40100    1899.7206    -104.3251    1.7189071    -102.6062   -6.5999045    4.4415985    4.4415985    4.4415985   -6.5999045   -22216.834    39245.217   -17048.183   -25538.093    6806.0676   -31591.769    87.622952 
   40200    1793.9781   -104.23071    1.6232291   -102.60748    18161.978    4.4312521    4.4312521    4.4312521    18161.978   -14825.892     27249.47    42062.355    2990.3116   -2767.8006    10877.407    87.012042 
   40300    1121.1384   -103.64508    1.0144296   -102.63065   -3555.0541     4.439835     4.439835     4.439835   -3555.0541   -9381.2022    59847.982   -61131.942   -8420.8351    1210.6749   -46500.456    87.518624 
   40400     1869.371   -104.30837    1.6914462   -102.61692    948.90702    4.4295917    4.4295917    4.4295917    948.90702   -29870.412     78326.25   -45609.117   -12636.772    8968.0197   -963.36491    86.914268 
   40500    1503.6231   -103.98116    1.3605097   -102.62065    1663.2796    4.4241531    4.4241531    4.4241531    1663.2796   -18678.878   -27310.275    50978.992   -3872.0172   -11147.333   -49787.728    86.594529 
   40600    1835.7623   -104.28962    1.6610363   -102.62858   -26330.227    4.4244235    4.4244235    4.4244235   -26330.227   -45421.151   -16750.858   -16818.671   -9185.8044    4383.8154   -12808.839    86.610405 
   40700    1999.8053   -104.44993    1.8094659   -102.64047   -28022.369    4.4376281    4.4376281    4.4376281   -28022.369   -21231.845   -42743.905   -20091.358   -3734.4139   -4808.8033   -5660.1348     87.38818 
   40800    1315.9279   -103.81549    1.1906792   -102.62481   -11599.712    4.4489375    4.4489375    4.4489375   -11599.712   -722.25132    9206.8705   -43283.756   -8018.9276    7599.9707   -38891.429     88.05802 
   40900     1904.394   -104.32088    1.7231357   -102.59774   -26382.965     4.440366     4.440366     4.440366   -26382.965   -68618.205   -15438.648    4907.9591    14631.542   -4508.2573    7356.2307    87.550029 
   41000    1663.7575   -104.11324    1.5054027   -102.60784   -18188.499    4.4307464    4.4307464    4.4307464   -18188.499    4165.8178   -3833.3276   -54897.986    8825.5596    7138.7853    -44746.13    86.982257 
   41100    1960.0122   -104.37583    1.7734602   -102.60237    16905.818    4.4121854    4.4121854    4.4121854    16905.818    -14036.01    21259.063    43494.402    13359.127    3714.0257    13066.918    85.893692 
   41200    1645.6426   -104.15104     1.489012   -102.66203   -30062.209    4.4316173    4.4316173    4.4316173   -30062.209   -16786.156   -15044.579   -58355.891    601.36291    15066.828   -50937.782    87.033563 
   41300    1693.9153   -104.16807    1.5326902   -102.63538    4392.1168    4.4460568    4.4460568    4.4460568    4392.1168   -1430.5113   -5283.3754    19890.237   -7078.1884   -7715.3221   -3592.8528    87.887075 
   41400    1367.4677   -103.85684    1.2373135   -102.61953    10686.664    4.4392084    4.4392084    4.4392084    10686.664   -13169.678    -35540.39     80770.06    9001.9862   -771.18684   -21227.723    87.481575 
   41500    1914.4718    -104.3349    1.7322543   -102.60264    5772.9973     4.436153     4.436153     4.436153    5772.9973     -33319.2    12205.733    38432.459   -5159.1287   -142.40354   -6408.9524    87.301063 
   41600    1511.4187   -103.97964    1.3675634   -102.61208    9369.0541    4.4383548    4.4383548    4.4383548    9369.0541    57531.509    4938.6143   -34362.961    11693.664    -12093.91   -7552.0309    87.431121 
   41700    1824.0003   -104.25243    1.6503938   -102.60204    10949.517    4.4511619    4.4511619    4.4511619    10949.517    30985.104   -28923.568    30787.016   -1548.8417   -14718.743   -3244.1551    88.190168 
   41800    1346.6039   -103.79307    1.2184355   -102.57463    -6039.956     4.454534     4.454534     4.454534    -6039.956    32308.232    18353.846   -68781.947    25365.908   -17777.658    9119.2704    88.390756 
   41900    1492.9587   -103.91008    1.3508604   -102.55922    35196.394    4.4510086    4.4510086    4.4510086    35196.394    66159.773   -3321.6105    42751.021    11659.352   -20570.722    496.57373    88.181055 
   42000    1374.6601   -103.79855    1.2438214   -102.55473    19898.075    4.4487848    4.4487848    4.4487848    19898.075    74419.889   -6737.0711   -7988.5929    29523.309    -12483.24    10839.008    88.048954 
   42100    1340.8715   -103.78152    1.2132487   -102.56827    15294.746     4.441988     4.441988     4.441988    15294.746    85316.912   -30315.191   -9117.4829    22085.347   -3265.0257   -15312.793    87.646006 
   42200     1572.363   -104.00203    1.4227071   -102.57933    22951.268    4.4391579    4.4391579    4.4391579    22951.268     98978.48    9548.8176   -39673.495    23386.587   -575.32918    20841.499    87.478591 
   42300    1146.4186    -103.6291    1.0373037    -102.5918    28543.774    4.4339258    4.4339258    4.4339258    28543.774    61109.964    -11123.75    35645.107    19395.763   -8885.0039   -641.69001     87.16964 
   42400    2002.6841   -104.40285    1.8120707   -102.59078    562.78149    4.4444358    4.4444358    4.4444358    562.78149    27526.544   -16618.743   -9219.4564    3676.1289    9776.2414    22874.125    87.790983 
   42500    1340.4725   -103.79212    1.2128877   -102.57923    8036.3396    4.4339881    4.4339881    4.4339881    8036.3396    15588.048   -37848.608    46369.579    1930.8744   -1436.6217    3483.0688    87.173315 
   42600    1588.8604   -104.02867    1.4376343   -102.59103       8661.9    4.4199933    4.4199933    4.4199933       8661.9    16248.046    46988.744   -37251.089    1775.0092   -372.16515    30035.558    86.350495 
   42700    2434.5964    -104.8016    2.2028739   -102.59872    2306.4563    4.4190821    4.4190821    4.4190821    2306.4563    2120.0027   -19979.436    24778.802    2312.8586    -1337.224   -21368.371    86.297104 
   42800    984.85021   -103.52409   0.89111316   -102.63297      1911.77    4.4309991    4.4309991    4.4309991      1911.77    14326.018      50064.1   -58654.808   -8749.0543   -1845.3174    24299.092    86.997142 
   42900    2449.9438   -104.83683    2.2167606   -102.62007   -18816.852    4.4445599    4.4445599    4.4445599   -18816.852   -28009.487   -41942.287    13501.217   -7358.4288    1897.4068   -2900.9955    87.798338 
   43000    1195.1003   -103.69895    1.0813519   -102.61759    3965.8987    4.4301694    4.4301694    4.4301694    3965.8987    40657.097   -26317.376   -2442.0252    2713.6225   -210.29211    29999.211    86.948282 
   43100    1805.8587   -104.23348    1.6339789   -102.59951     36259.77     4.419087     4.419087     4.419087     36259.77     3702.832    2889.1287    102187.35   -7761.3815      11523.1   -19050.599     86.29739 
   43200     1703.837   -104.16451    1.5416675   -102.62284   -2532.3491    4.4258552    4.4258552    4.4258552   -2532.3491   -5235.1773   -28828.878    26467.008   -1195.7523   -12610.484    18068.291    86.694512 
   43300    2143.1024   -104.56604    1.9391241   -102.62692   -38135.585    4.4442393    4.4442393    4.4442393   -38135.585   -39644.153   -61603.955   -13158.646    3976.5266   -7928.0657   -7567.0873    87.779342 
   43400    1740.6814   -104.16983    1.5750051   -102.59483   -17755.967    4.4519516    4.4519516    4.4519516   -17755.967   -31862.351   -19870.652   -1534.9001    4266.8274    5488.6308     34711.77    88.237113 
   43500    1645.7118   -104.08296    1.4890747   -102.59388   -1517.0965    4.4365005    4.4365005    4.4365005   -1517.0965   -39472.255   -60724.699    95645.665    3681.9584   -1460.0836    7743.4457    87.321584 
   43600    1577.0759   -104.04556    1.4269714   -102.61859     20952.11    4.4095681    4.4095681    4.4095681     20952.11   -15905.562   -4026.1749    82788.068    14090.911    14951.865   -9902.8121    85.740926 
   43700    1855.2182   -104.32834    1.6786404    -102.6497    8998.4634    4.3997513    4.3997513    4.3997513    8998.4634    36737.054   -12952.439    3210.7746    9774.5672   -6754.0767    26912.182    85.169558 
   43800    1498.0658    -104.0414    1.3554814   -102.68592   -7316.2798     4.428095     4.428095     4.428095   -7316.2798   -28980.406   -3768.5777    10800.144    13884.046     1584.284   -32871.372    86.826197 
   43900    2123.0441   -104.57041    1.9209749   -102.64944   -13939.502    4.4450635    4.4450635    4.4450635   -13939.502    21198.228   -43412.553   -19604.179   -2379.0222     7939.174    13873.601    87.828183 
   44000    1138.5584   -103.66492    1.0301915   -102.63472   -3027.4975    4.4298677    4.4298677    4.4298677   -3027.4975    14471.518   -24504.177    950.16648    2875.6441    9279.0695   -21521.326    86.930517 
   44100    2053.0329   -104.47524    1.8576273   -102.61761    2385.7461    4.4030493    4.4030493    4.4030493    2385.7461    11561.734   -18499.748    14095.252    20482.832    26276.724   -9982.4095    85.361224 
   44200    1804.0213   -104.27903    1.6323164   -102.64671    34467.498    4.4030191    4.4030191    4.4030191    34467.498    118473.39   -8095.5592   -6975.3382   -2968.5897   -11619.191     -14690.1     85.35947 
   44300    1575.0832   -104.10454    1.4251684   -102.67937   -23603.718    4.4258439    4.4258439    4.4258439   -23603.718   -11416.561   -72693.371    13298.778    22715.843    6188.3097   -22331.464    86.693849 
   44400    1566.9928    -104.0688     1.417848   -102.65095    25338.063    4.4328585    4.4328585    4.4328585    25338.063    109277.04    -24296.64   -8966.2094   -454.99828   -9116.2675   -506.62413    87.106706 
   44500    1728.8235   -104.20016    1.5642758   -102.63589   -26673.188    4.4311135    4.4311135    4.4311135   -26673.188    4863.5377   -73956.385   -10926.718    15237.473   -10561.777   -24962.534    87.003879 
   44600    1996.8509   -104.41798    1.8067927   -102.61119    11925.828    4.4177845    4.4177845    4.4177845    11925.828    51564.241    -38189.94    22403.185   -8375.8226   -724.45704    6826.9659    86.221104 
   44700    1812.6031   -104.26268    1.6400814    -102.6226   -9755.6969    4.4157754    4.4157754    4.4157754   -9755.6969   -9247.3758   -27745.862    7726.1473    13593.366    -3844.354    -16821.96    86.103523 
   44800    1106.4761   -103.65559    1.0011629   -102.65443    9927.8271     4.421624     4.421624     4.421624    9927.8271   -27689.162   -35722.544    93195.188    -19958.48     18253.98    10763.313    86.446106 
   44900    2438.1478   -104.84883    2.2060873   -102.64275    -13049.01    4.4263036    4.4263036    4.4263036    -13049.01   -9565.4066   -30280.363    698.73988     7553.163    12290.855    5682.6158    86.720865 
   45000    1645.3353   -104.14227     1.488734   -102.65354   -18680.582    4.4274437    4.4274437    4.4274437   -18680.582   -34380.056   -58124.667    36462.977   -11891.735    5613.4927   -639.00708     86.78789 
   45100    1396.4861   -103.92665      1.26357   -102.66308   -19004.992    4.4216237    4.4216237    4.4216237   -19004.992    3568.6274   -58572.894    -2010.709   -1019.3621    10785.391    33049.397    86.446089 
   45200    1889.2292    -104.3633    1.7094143   -102.65389    23199.171    4.4067619    4.4067619    4.4067619    23199.171   -12728.786   -19276.553    101602.85   -5807.2357   -18655.527   -24610.704    85.577336 
   45300     1439.131   -103.98364     1.302156   -102.68148   -8048.6482     4.422063     4.422063     4.422063   -8048.6482    2836.8687   -34991.444    8008.6307    -3247.571    1556.1531    17934.064    86.471854 
   45400     2412.552   -104.85046    2.1829278   -102.66754    -27793.41    4.4308676    4.4308676    4.4308676    -27793.41   -23786.816   -62485.606    2892.1928    -5612.439    11981.939    1534.2622    86.989398 
   45500    1204.3776   -103.75119    1.0897462   -102.66145      21045.8    4.4276021    4.4276021    4.4276021      21045.8    2202.0018   -39168.951    100104.35   -1293.4918    -4280.744    6539.0554    86.797207 
   45600    1344.6577   -103.88239    1.2166746   -102.66571    2504.0689     4.419331     4.419331     4.419331    2504.0689    3267.7605   -24081.521    28325.968    -2618.298    41732.609    11886.441    86.311687 
   45700      2165.05   -104.60345    1.9589827   -102.64447   -616.82827    4.4152657    4.4152657    4.4152657   -616.82827    55520.276   -42602.536   -14768.225    6923.9406   -1843.9893   -4526.0135    86.073711 
   45800    1011.5557   -103.58054   0.91527686   -102.66527   -2118.8057    4.4372007    4.4372007    4.4372007   -2118.8057    62531.427   -37991.258   -30896.586    152.15499    24435.268     7633.885    87.362937 
   45900    2157.8728   -104.57688    1.9524887   -102.62439   -11963.413      4.43376      4.43376      4.43376   -11963.413   -3791.8019   -8780.7394   -23317.696    2344.1951    20545.808    6223.9686    87.159866 
   46000     1408.758   -103.89352    1.2746739   -102.61885   -13386.615    4.4109917    4.4109917    4.4109917   -13386.615    24791.327   -68173.697    3222.5238    24409.599   -10458.958   -3142.2321    85.823996 
   46100     1731.118    -104.1938    1.5663519   -102.62745    36568.606    4.4141316    4.4141316    4.4141316    36568.606    73679.544    19158.096    16868.178   -15570.644    23842.546    4529.1288      86.0074 
   46200    1423.4658    -103.9488    1.2879817   -102.66082   -19804.976    4.4359666    4.4359666    4.4359666   -19804.976    796.01067   -44941.916   -15269.022     29767.52   -26644.056    5824.2835    87.290064 
   46300    2017.7453   -104.44466    1.8256984   -102.61896   -39687.581    4.4462069    4.4462069    4.4462069   -39687.581   -38537.233   -67090.427   -13435.083   -17660.726     1768.971   -4542.2632    87.895976 
   46400    1747.5977    -104.1866    1.5812631   -102.60534    -13797.87    4.4193489    4.4193489    4.4193489    -13797.87    17984.149    -31644.05   -27733.711   -5783.4227   -20731.498    7628.1577    86.312733 
   46500    1706.1686   -104.16028    1.5437772    -102.6165    8188.4955    4.3990369    4.3990369    4.3990369    8188.4955    38062.395   -34103.345    20606.437     15364.08   -2938.6248    6311.8868    85.128078 
   46600    1898.9664   -104.36418    1.7182247   -102.64595    5996.5597    4.4124625    4.4124625    4.4124625    5996.5597    14367.733   -24592.947    28214.893   -27481.136    4794.8957   -6898.0287    85.909872 
   46700     1345.656   -103.87324    1.2175778   -102.65566   -1678.5743    4.4340182    4.4340182    4.4340182   -1678.5743    54973.106   -25491.197   -34517.632    20068.131   -17688.126   -2264.1185    87.175093 
   46800    1819.3519   -104.27362    1.6461878   -102.62744   -14738.896    4.4391208    4.4391208    4.4391208   -14738.896    2889.3076   -61062.958    13956.961   -40765.616    13533.329     4996.869    87.476396 
   46900    1587.4318   -104.04349    1.4363416   -102.60715     13384.04    4.4270136    4.4270136    4.4270136     13384.04    51735.039    10301.433   -21884.351     20909.05   -22973.656   -8310.1629    86.762605 
   47000    1367.9073   -103.85946    1.2377112   -102.62175   -438.29155    4.4112438    4.4112438    4.4112438   -438.29155    -9647.838    -56715.51    65048.473   -60890.588    2373.3831   -2890.6726     85.83871 
   47100    2174.1695   -104.59142    1.9672342   -102.62419    17428.353    4.4138951    4.4138951    4.4138951    17428.353     41462.13    553.80225    10269.125     12191.86   -3890.1894   -5294.3737    85.993576 
   47200    1125.8396   -103.64961    1.0186833   -102.63093   -34792.853    4.4376406    4.4376406    4.4376406   -34792.853    -26912.61   -73422.011   -4043.9375   -40448.208   -13155.664   -12278.838    87.388924 
   47300    1983.5315   -104.39068     1.794741   -102.59594    11948.816    4.4257399    4.4257399    4.4257399    11948.816    4831.5087   -15399.331    46414.272    9539.5515    8988.3898   -8004.9119    86.687735 
   47400    1581.3219   -104.02959    1.4308133   -102.59877    22455.561    4.4203214    4.4203214    4.4203214    22455.561     48034.73   -24402.534    43734.485   -11442.206   -13861.917   -4965.5072    86.369727 
   47500    1306.7372   -103.79439    1.1823633   -102.61203   -13700.194    4.4375251    4.4375251    4.4375251   -13700.194   -72012.097   -47891.882    78803.397    18171.139    10764.672   -12243.755    87.382097 
   47600      1975.44   -104.37994    1.7874196   -102.59253    207.65164    4.4328965    4.4328965    4.4328965    207.65164    20396.036   -13133.869   -6639.2117    12542.313   -15247.212   -14017.021    87.108948 
   47700    1086.7199   -103.57787   0.98328703   -102.59458    11593.334    4.4292282    4.4292282    4.4292282    11593.334   -25882.152     13507.22    47154.933    1011.3418    5963.5128   -16048.725    86.892878 
   47800    1980.8238   -104.38558     1.792291   -102.59329   -1678.7831    4.4190046    4.4190046    4.4190046   -1678.7831   -43652.585    8097.7906    30518.445    44232.783   -10840.585    976.30752     86.29256 
   47900    1582.5544     -104.045    1.4319285   -102.61307    26871.043    4.4122726    4.4122726    4.4122726    26871.043    19878.286   -6538.1493    67272.993   -30027.809    -9241.846   -9128.2338    85.898781 
   48000    1847.1983   -104.29605    1.6713838   -102.62466   -32585.348    4.4353357    4.4353357    4.4353357   -32585.348   -47678.513   -44365.803   -5711.7281    24807.399   -6921.6632    2765.2084    87.252822 
   48100    2065.8483    -104.4631     1.869223   -102.59388   -16053.872    4.4415841    4.4415841    4.4415841   -16053.872   -40403.918   -27635.021    19877.324   -36376.031   -5225.2709   -2068.3213    87.622102 
   48200     1761.149   -104.16946    1.5935246   -102.57594   -8049.8741    4.4386381    4.4386381    4.4386381   -8049.8741   -31256.143   -56742.791    63849.312    15039.912    12442.302     8725.753    87.447865 
   48300    1252.5167    -103.7027    1.1333034   -102.56939   -15055.897    4.4434615    4.4434615    4.4434615   -15055.897   -36968.458   -6747.0634   -1452.1702   -10817.783    9387.2366    4118.7493    87.733261 
   48400    1737.1245   -104.12566    1.5717868   -102.55387    16481.728    4.4281528    4.4281528    4.4281528    16481.728    55363.021   -10055.527    4137.6906    17479.465    10774.704    4440.1865      86.8296 
   48500    1574.1873   -104.00203    1.4243577   -102.57768    9361.3397    4.4272904    4.4272904    4.4272904    9361.3397   -4246.2799    25324.153    7006.1461   -14297.695   -9591.6164   -3595.3914     86.77888 
   48600    1552.2934   -104.00616    1.4045476   -102.60161    -22223.68    4.4440356    4.4440356    4.4440356    -22223.68   -40000.186   -53062.703    26391.849   -12184.471    9744.2097   -5446.8409     87.76727 
   48700    1845.7153   -104.25003     1.670042   -102.57999    6630.0602    4.4375146    4.4375146    4.4375146    6630.0602   -10346.263    -8411.189    38647.633   -2264.3752   -4200.7734   -1066.8757    87.381476 
   48800    1005.1116   -103.50981    0.9094461   -102.60037   -4294.1269    4.4178389    4.4178389    4.4178389   -4294.1269   -54251.001    -10894.48    52263.101   -44816.003   -23493.758    10718.801    86.224288 
   48900    2359.1226   -104.73333    2.1345837   -102.59874    22060.001    4.4093774    4.4093774    4.4093774    22060.001    37101.639    6860.5368    22217.828    14362.874   -1354.4719   -6638.5821      85.7298 
   49000    986.61537   -103.54496   0.89271032   -102.65225   -21174.265    4.4357513    4.4357513    4.4357513   -21174.265   -42448.744    1773.7557   -22847.806   -42336.613   -4658.7565   -929.96024    87.277354 
   49100    2301.6698   -104.67985    2.0825992   -102.59725   -24165.472     4.443221     4.443221     4.443221   -24165.472   -38430.491   -4132.3728   -29933.553   -2207.5251     1371.667    2507.9902    87.719012 
   49200    1453.7736   -103.91044    1.3154049   -102.59503   -35193.359    4.4262569    4.4262569    4.4262569   -35193.359   -77996.369    14476.875   -42060.583   -23256.851   -33064.918     8210.712    86.718116 
   49300    2062.4054   -104.45852    1.8661077   -102.59241    24046.385    4.4071454    4.4071454    4.4071454    24046.385   -2617.5559    55135.745    19620.967   -20897.563    18351.907   -749.67359     85.59968 
   49400    1583.1412   -104.05915    1.4324595   -102.62669    4519.4033    4.4142173    4.4142173    4.4142173    4519.4033    12911.234    21966.973   -21319.997   -19297.929   -24628.049    7118.9668    86.012412 
   49500    1857.7555   -104.32482    1.6809362   -102.64389   -6060.9903     4.438332     4.438332     4.438332   -6060.9903    7602.7566   -12540.292   -13245.436   -18150.113     15202.59    1541.9795    87.429774 
   49600    1737.0357   -104.17867    1.5717064   -102.60696   -17970.146    4.4491983    4.4491983    4.4491983   -17970.146   -16105.232    16161.316   -53966.523    14727.052   -935.33742    10941.686    88.073506 
   49700     1618.363   -104.05019    1.4643288   -102.58586   -8924.8437    4.4247719    4.4247719    4.4247719   -8924.8437    7919.3597   -2371.5796   -32322.311   -30417.405    5322.0199   -2023.8479    86.630869 
   49800    2002.1972   -104.38684    1.8116301   -102.57521    27843.158    4.3984633    4.3984633    4.3984633    27843.158     22966.51     38584.17    21978.795     25920.57   -6884.0456    11502.967    85.094779 
   49900    1362.3446   -103.87218    1.2326781    -102.6395    5266.6613    4.4240194    4.4240194    4.4240194    5266.6613    7953.3218    17739.877   -9893.2146   -31676.558    7134.9739    5250.8962    86.586674 
   50000    1893.9659   -104.33932    1.7137002   -102.62562    7222.4695    4.4379395    4.4379395    4.4379395    7222.4695    19288.794    886.02413    1492.5908    16414.445   -7361.5204    7359.5363    87.406581 
   50100    1434.8858   -103.93162    1.2983149    -102.6333    6102.1934     4.431215     4.431215     4.431215    6102.1934    13725.884    8528.8862   -3948.1903   -5548.0616     247.0474    7900.0507    87.009859 
   50200    2015.3107   -104.43699    1.8234955   -102.61349    21002.895     4.417109     4.417109     4.417109    21002.895    73695.771   -19967.726    9280.6394     20862.24   -11343.247    6890.9943    86.181561 
   50300    1466.9331   -103.96015    1.3273119   -102.63284   -9518.1423    4.4137404    4.4137404    4.4137404   -9518.1423   -8890.2565    23290.123   -42954.293    7876.3485   -13163.667   -6866.4573    85.984538 
   50400    2010.6811    -104.4579    1.8193065    -102.6386    23390.064    4.4341625    4.4341625    4.4341625    23390.064    64065.639   -2194.8693    8299.4232    -317.3138     4478.861    5752.2366    87.183601 
   50500     988.2146   -103.52956   0.89415733    -102.6354   -38589.162    4.4462309    4.4462309    4.4462309   -38589.162   -22268.689   -49322.481   -44176.315    24648.648    3179.7521    1609.7464    87.897403 
   50600    2332.6074   -104.70808    2.1105922   -102.59749    7821.6028    4.4230605    4.4230605    4.4230605    7821.6028    32179.325   -13349.569    4635.0516   -25176.014    18126.425   -6022.2378    86.530388 
   50700    1728.5359   -104.17786    1.5640156   -102.61384   -20291.355    4.4238256    4.4238256    4.4238256   -20291.355   -26745.214   -51376.755    17247.905    20303.555     5486.901   -6282.8442    86.575299 
   50800    2113.6674   -104.52578    1.9124907   -102.61329   -21586.161    4.4334116    4.4334116    4.4334116   -21586.161   -10039.722   -30940.527   -23778.234   -11764.374    20145.885   -8745.6077    87.139317 
   50900    1621.1312   -104.06705    1.4668336   -102.60022   -22213.408    4.4507102    4.4507102    4.4507102   -22213.408     36796.11   -75080.338   -28355.996    19189.305   -7576.4264    2761.8479    88.163322 
   51000    1542.9819   -103.97571    1.3961225   -102.57959   -21261.708    4.4485066    4.4485066    4.4485066   -21261.708   -16912.734    9766.9957   -56639.385   -7181.2413   -22121.317   -4902.4966    88.032434 
   51100    1479.7301   -103.91411    1.3388909   -102.57521    29830.301    4.4108216    4.4108216    4.4108216    29830.301     266.7823   -38636.061    127860.18    15248.285   -10607.283   -5634.9358    85.814067 
   51200    1989.7293   -104.39312    1.8003489   -102.59277    1983.0292    4.4106626    4.4106626    4.4106626    1983.0292   -5385.8339   -1825.4388     13160.36    9292.7562   -11633.753    2797.2219    85.804783 
   51300    1627.6633   -104.07567     1.472744   -102.60293   -14772.527    4.4373629    4.4373629    4.4373629   -14772.527    -42432.27   -62780.399    60895.087   -1247.9909   -841.79427    5191.3096    87.372517 
   51400     1736.105   -104.16064    1.5708643   -102.58977    7251.5879    4.4416728    4.4416728    4.4416728    7251.5879    12440.314   -47879.921    57194.371    32223.003   -20583.415    3265.1253     87.62735 
   51500     1573.093     -104.006    1.4233676   -102.58263    3284.1154    4.4392741    4.4392741    4.4392741    3284.1154    37695.961   -63579.529    35735.913    -25316.27    5779.2687   -4110.8245    87.485459 
   51600    1646.0553   -104.06476    1.4893854   -102.57537   -2612.4944    4.4267691    4.4267691    4.4267691   -2612.4944   -19716.813   -5557.3243    17436.654    19739.816   -6620.7587    -11177.19     86.74823 
   51700    1825.8744   -104.25071    1.6520895   -102.59862    35978.919    4.4253478    4.4253478    4.4253478    35978.919    113090.76   -18929.832    13775.829   -17168.753    1635.2033   -18000.011      86.6647 
   51800    1278.8322   -103.77343    1.1571142   -102.61632   -4526.3442    4.4337484    4.4337484    4.4337484   -4526.3442   -51537.727    -28191.22    66149.914    17189.084   -10601.371   -21427.498    87.159178 
   51900     1755.482   -104.19033     1.588397   -102.60194    26982.402    4.4271319    4.4271319    4.4271319    26982.402    68394.838     22272.95    -9720.581   -16461.392   -9036.6972   -11745.901    86.769556 
   52000    1535.3474   -104.00037    1.3892146   -102.61116   -7016.4007    4.4291401    4.4291401    4.4291401   -7016.4007   -47808.519   -24199.471    50958.788     15756.31   -6546.3271   -17970.773    86.887693 
   52100    1586.8581   -104.04768    1.4358226   -102.61186    9643.5412    4.4238348    4.4238348    4.4238348    9643.5412    41720.933    551.31822   -13341.627    10930.393   -20693.276    -11989.96    86.575839 
   52200    1863.7333   -104.30111    1.6863451   -102.61477   -17303.763    4.4233976    4.4233976    4.4233976   -17303.763   -356.10255   -46656.672   -4898.5157    1926.8301    23658.783    -8904.873    86.550171 
   52300    1391.8845   -103.87555    1.2594064   -102.61615   -2163.0975    4.4222975    4.4222975    4.4222975   -2163.0975   -35287.498   -39588.027    68386.232    2647.0985   -29070.481    4008.5518     86.48561 
   52400    1868.0367   -104.30474    1.6902389    -102.6145    11085.925     4.423818     4.423818     4.423818    11085.925    68483.912   -13748.225   -21477.913    2474.0357    36096.091   -3739.1825    86.574853 
   52500    1557.8503   -104.02871    1.4095757   -102.61914   -20783.402    4.4360245    4.4360245    4.4360245   -20783.402   -51554.236   -34424.717    23628.746   -15347.863   -11503.272   -653.17969    87.293478 
   52600    1500.6133   -103.96242    1.3577864   -102.60463    33739.237    4.4319664    4.4319664    4.4319664    33739.237    133788.52    -20147.79   -12423.018   -9060.2251    34891.237    7118.1831    87.054132 
   52700    1713.5888   -104.17764    1.5504911   -102.62715    983.36184     4.428445     4.428445     4.428445    983.36184    67427.777   -60852.403   -3625.2892    8381.2598    20143.529    528.75763    86.846787 
   52800    1788.1903   -104.26354    1.6179921   -102.64555   -12081.677     4.425288     4.425288     4.425288   -12081.677    12885.363   -54809.995     5679.601   -15744.343    9070.5508    7347.7436    86.661185 
   52900    2000.1274   -104.47169    1.8097573   -102.66193     5713.901    4.4212249    4.4212249    4.4212249     5713.901    59209.229   -1799.6261     -40267.9    9342.5581    27710.076    -2537.706    86.422699 
   53000    1430.3996   -103.97818    1.2942556   -102.68393    -194.4792    4.4292001    4.4292001    4.4292001    -194.4792    4386.2716   -19213.685    14243.975    4037.3622   -18242.254    5839.2986    86.891222 
   53100    1549.4649   -104.05926    1.4019884   -102.65728    30577.762     4.425751     4.425751     4.425751    30577.762    80266.692    28472.177   -17005.583    1495.1293    41331.825     9210.617    86.688391 
   53200    2057.1961   -104.50837    1.8613942   -102.64698   -16995.714    4.4390241    4.4390241    4.4390241   -16995.714    36635.982   -66278.528   -21344.595   -17974.746   -11664.726   -1520.1322    87.470679 
   53300    1384.8698   -103.88605    1.2530593   -102.63299    789.12005    4.4263582    4.4263582    4.4263582    789.12005    53300.822   -29817.941   -21115.521   -1478.8479    32907.525    2403.9969    86.724075 
   53400    2477.6114   -104.86489    2.2417948   -102.62309   -17714.026    4.4294926    4.4294926    4.4294926   -17714.026   -12157.329   -20337.576   -20647.174   -6312.8551   -10021.262   -638.26748    86.908436 
   53500    1543.0819   -104.02029     1.396213   -102.62408    3869.1993    4.4398456    4.4398456    4.4398456    3869.1993     98482.16   -24580.001    -62294.56    737.71138    17044.401    3366.3098    87.519252 
   53600    1474.6982   -103.95612    1.3343379   -102.62178   -465.50399    4.4442016    4.4442016    4.4442016   -465.50399   -18884.288    32313.638   -14825.862    2740.9148   -4536.4897    668.67818    87.777102 
   53700    1751.5864   -104.19249    1.5848722   -102.60762    19801.936    4.4272501    4.4272501    4.4272501    19801.936    44987.565    43186.964   -28768.723    3952.6549      4848.18    4975.2985    86.776506 
   53800    1632.5365   -104.09174    1.4771534   -102.61458    14859.556    4.4173625    4.4173625    4.4173625    14859.556    26840.935   -4087.9815    21825.715   -2548.9376    18843.323    734.05465      86.1964 
   53900    2008.9042   -104.44528    1.8176988   -102.62758   -22427.346    4.4424601    4.4424601    4.4424601   -22427.346    7344.5625   -40955.486   -33671.114    8125.5043   -2187.8927    2650.3703    87.673958 
   54000     1706.092   -104.15276    1.5437079   -102.60905    -9115.693    4.4524156    4.4524156    4.4524156    -9115.693    10879.219     3657.149   -41883.447   -5107.8667    37417.524    411.57424    88.264707 
   54100    1544.5892   -103.98533    1.3975768   -102.58776   -8799.3969    4.4406114    4.4406114    4.4406114   -8799.3969   -55836.494   -15741.585    45179.888     30104.13    -23997.24    6970.0639    87.564547 
   54200    1374.5086   -103.82037    1.2436843   -102.57669    52536.249     4.410707     4.410707     4.410707    52536.249    88434.504    46495.428    22678.815    13421.183    44042.225   -8473.4804    85.807377 
   54300     1763.506   -104.22063    1.5956573   -102.62497    7243.1442    4.4292393    4.4292393    4.4292393    7243.1442   -10018.047    -52919.58    84667.059     3914.251    4055.8507   -142.32431    86.893526 
   54400    1569.0751   -104.04181    1.4197321   -102.62207   -37826.825    4.4588824    4.4588824    4.4588824   -37826.825   -12281.358   -73221.107   -27978.012      5989.95    26050.433     40.77094    88.649861 
   54500    1559.1301   -104.02402    1.4107337   -102.61328   -8428.4572    4.4460395    4.4460395    4.4460395   -8428.4572   -22760.558   -55544.916    53020.103   -2548.7102    13406.619    67.734305    87.886051 
   54600    1680.8124   -104.11304    1.5208344   -102.59221    10299.824    4.4200475    4.4200475    4.4200475    10299.824   -9119.3625     14095.04    25923.794   -23376.101   -16678.952    1191.3847    86.353673 
   54700    1253.8208   -103.74726    1.1344834   -102.61278    14570.638    4.4241934    4.4241934    4.4241934    14570.638    25257.066   -13709.224    32164.071    14119.618    23715.409    3582.6225    86.596893 
   54800    1974.3311   -104.40269    1.7864163   -102.61627   -22671.606    4.4369747    4.4369747    4.4369747   -22671.606   -63985.377   -45520.285    41490.845    10872.677   -11766.452     5299.705    87.349586 
   54900    1517.0976   -103.99238    1.3727018   -102.61968    7920.7075    4.4397398    4.4397398    4.4397398    7920.7075    25525.218   -19479.573    17716.478    -5326.838    8609.4191   -20416.191    87.512997 
   55000    1299.9648   -103.80237    1.1762354   -102.62613   -14266.828    4.4350831    4.4350831    4.4350831   -14266.828   -71222.342   -18475.595    46897.453    23925.005   -7187.1415   -12472.946    87.237919 
   55100     2053.418    -104.4745    1.8579758   -102.61652    4830.9107    4.4230405    4.4230405    4.4230405    4830.9107    8291.2756    5301.1027    900.35376   -7649.3942   -12450.545    486.34408    86.529213 
   55200    1602.3656   -104.08687     1.449854   -102.63701   -32743.822    4.4305227    4.4305227    4.4305227   -32743.822    -17658.77   -58998.835   -21573.861    4244.2864    -908.6693    536.82012    86.969082 
   55300    1337.0252   -103.84427    1.2097685    -102.6345   -7299.2794    4.4371228    4.4371228    4.4371228   -7299.2794    -67061.08    30927.276    14235.965   -10494.164   -30033.821   -3887.7911    87.358337 
   55400     2306.707   -104.69972     2.087157   -102.61256      3871.01    4.4243481    4.4243481    4.4243481      3871.01    4042.5592   -14540.854    22111.325    10358.478   -6857.9595   -8443.0403     86.60598 
   55500     1259.564    -103.7808      1.13968   -102.64112   -10098.737    4.4277239    4.4277239    4.4277239   -10098.737   -29647.392   -23484.015    22835.196    -22288.66   -27956.711    1559.7461    86.804371 
   55600    1970.5096   -104.41355    1.7829585   -102.63059    1143.4738    4.4334659    4.4334659    4.4334659    1143.4738   -35001.202    24067.592    14364.031      14455.5   -23006.802   -7605.0394    87.142519 
   55700    1278.8323   -103.79019    1.1571143   -102.63307    19466.741    4.4273514    4.4273514    4.4273514    19466.741    10786.854    5225.7634    42387.605   -7532.2834    3718.5436    251.83725    86.782466 
   55800    1749.1773   -104.21934    1.5826924   -102.63665   -51606.242    4.4353341    4.4353341    4.4353341   -51606.242   -49710.724   -39479.274   -65628.728   -10370.919   -24429.439   -9674.7129    87.252732 
   55900    2159.4914   -104.57836    1.9539532   -102.62441    25482.695    4.4191985    4.4191985    4.4191985    25482.695    47917.559    20101.298    8429.2292    7616.6887    15843.772    -18619.04    86.303924 
   56000    1026.9283    -103.5803   0.92918629   -102.65111    13210.225    4.4249042    4.4249042    4.4249042    13210.225   -1417.1656    9581.5069    31466.333   -5091.0437   -17518.184    7218.2325    86.638641 
   56100    1712.0835   -104.18676    1.5491291   -102.63763    1219.8041    4.4412705    4.4412705    4.4412705    1219.8041   -29367.574    37152.179   -4125.1921   -3075.3994    15888.881   -11227.821    87.603542 
   56200    1951.6551   -104.39563    1.7658986   -102.62973   -12710.797    4.4364887    4.4364887    4.4364887   -12710.797   -56772.695     2207.797    16432.508     -3102.34   -8067.5859    11035.561    87.320885 
   56300    980.44339   -103.52364   0.88712578   -102.63651    23190.476    4.4202208    4.4202208    4.4202208    23190.476    41171.246    29512.615   -1112.4339    828.20715   -4439.4554   -2319.0995    86.363831 
   56400    2127.8009   -104.56282    1.9252789   -102.63755   -1519.9586    4.4200201    4.4200201    4.4200201   -1519.9586   -11080.231    952.27887    5568.0762   -12603.474    11882.372   -19984.539    86.352067 
   56500    1453.3917   -103.96615    1.3150594   -102.65109   -5469.7759    4.4344539    4.4344539    4.4344539   -5469.7759   -30397.521    7187.1143    6801.0789   -11138.419    -18443.07    16253.457    87.200793 
   56600    1877.9522    -104.3231    1.6992106   -102.62389    -31154.89    4.4348363    4.4348363    4.4348363    -31154.89   -6344.7636   -49612.157   -37507.751     7722.925    26695.705   -14231.386    87.223353 
   56700    2201.7488   -104.60439    1.9921886    -102.6122   -13410.831    4.4362285    4.4362285    4.4362285   -13410.831   -28708.107   -32710.583    21186.196   -6428.2508   -14383.895   -3609.2526    87.305525 
   56800    1095.6859   -103.60823   0.99139958   -102.61683    13384.619     4.420005     4.420005     4.420005    13384.619    18402.238   -6382.9732    28134.591   -14701.416     20847.48    2204.4353     86.35118 
   56900    2077.9569    -104.4959     1.880179   -102.61572    10933.642    4.4134563    4.4134563    4.4134563    10933.642    12352.791    -26343.94    46792.075   -1509.4158    7488.0164   -19289.484    85.967934 
   57000    1907.9087   -104.36445    1.7263159   -102.63813   -13762.608    4.4263284    4.4263284    4.4263284   -13762.608    28967.158   -33764.583   -36490.399    13947.447    5099.4531   -3715.9105    86.722321 
   57100    1159.8167    -103.7001    1.0494265   -102.65067    32229.134    4.4328685    4.4328685    4.4328685    32229.134    29646.099    6943.2686    60098.034    1959.8805    13358.963   -8185.2493    87.107301 
   57200    2137.1448   -104.55403    1.9337336    -102.6203   -34231.119    4.4441008    4.4441008    4.4441008   -34231.119   -31370.783   -56628.259   -14694.316     1977.345   -273.96729   -8330.9045    87.771133 
   57300    1557.7594   -104.01768    1.4094934   -102.60818   -8996.3941    4.4246475    4.4246475    4.4246475   -8996.3941    23572.419   -28858.766   -21702.835   -2647.9818    30650.149   -12006.303    86.623562 
   57400     1854.237   -104.27737    1.6777526   -102.59962   -1254.1894    4.4269741    4.4269741    4.4269741   -1254.1894   -15921.885    11045.546    1113.7705    -4713.523   -14917.548   -16231.521    86.760279 
   57500    1190.4491   -103.69165    1.0771434    -102.6145   -33190.706    4.4298993    4.4298993    4.4298993   -33190.706   -6064.6271   -24507.613    -68999.88    9332.4371    15184.052   -30770.263    86.932379 
   57600    1632.1136   -104.07695    1.4767707   -102.60018    47858.701    4.4228122    4.4228122    4.4228122    47858.701    3050.1218    98507.324    42018.657   -14096.346    10991.268    33855.905    86.515814 
   57700    1222.0765   -103.73612    1.1057605   -102.63036     21014.87    4.4320724    4.4320724    4.4320724     21014.87    8527.2121    54384.794    132.60387   -4679.4648    14559.629   -15080.769    87.060378 
   57800    1805.6127   -104.23497    1.6337563   -102.60121    18546.642    4.4543328    4.4543328    4.4543328    18546.642    9885.7671    42735.239    3018.9203   -2923.8908   -8387.8928   -8914.7168    88.378776 
   57900    1226.6128   -103.70544    1.1098651   -102.59557   -38216.637    4.4347957    4.4347957    4.4347957   -38216.637   -42777.548   -12918.189   -58954.173   -1780.7681   -4001.8551    -35476.08    87.220959 
   58000    2096.7041   -104.45214    1.8971419   -102.55499    51775.761    4.3960275    4.3960275    4.3960275    51775.761    55630.193    75511.624    24185.466   -1604.9388   -7465.7711    5785.1011    84.953488 
   58100    1239.7162   -103.74025    1.1217212   -102.61853   -12600.397    4.4156129    4.4156129    4.4156129   -12600.397   -9514.2045   -3452.2876   -24834.698    7232.7966   -3582.4533   -23892.161     86.09402 
   58200    2415.0447   -104.79044    2.1851832   -102.60526   -27098.947    4.4308467    4.4308467    4.4308467   -27098.947    -25080.13   -29816.452   -26400.259   -5574.8058   -5118.0729   -17479.844    86.988168 
   58300    1306.9418   -103.79109    1.1825484   -102.60854   -25829.581    4.4402543    4.4402543    4.4402543   -25829.581    15127.655   -20603.628   -72012.769   -9507.0719   -21033.192     20314.29    87.543427 
   58400    1963.0907   -104.36466    1.7762457   -102.58841   -18292.835    4.4322122    4.4322122    4.4322122   -18292.835   -5846.6828   -26073.438   -22958.384    11624.491     15937.06   -21324.397    87.068614 
   58500    1659.0475   -104.08198     1.501141   -102.58084    19599.674    4.4050268    4.4050268    4.4050268    19599.674   -15911.758    92986.869    -18276.09   -17301.475   -42433.905    16107.174    85.476291 
   58600    1667.3554   -104.11067    1.5086582   -102.60201    14994.664    4.4129566    4.4129566    4.4129566    14994.664    48940.022   -4270.2418     314.2117    9471.5417    35699.114   -18864.607    85.938737 
   58700     1943.721   -104.35906    1.7587196   -102.60034   -23537.199    4.4407155    4.4407155    4.4407155   -23537.199   -60287.796     6204.597   -16528.399   -9245.3811   -49173.066    11068.363    87.570709 
   58800    1593.5591   -104.02682    1.4418858   -102.58494    17273.634    4.4339271    4.4339271    4.4339271    17273.634    29132.967    20001.373    2686.5625   -641.34542    33314.205   -18644.087    87.169718 
   58900    1770.8445   -104.19568    1.6022973   -102.59338   -15111.371    4.4250451    4.4250451    4.4250451   -15111.371   -22953.281   -15735.751   -6645.0812    -3684.948   -57534.322    4638.8704    86.646914 
   59000    1767.3319   -104.21108     1.599119   -102.61196    24556.884    4.4020726    4.4020726    4.4020726    24556.884   -1780.0513    25388.938    50061.766   -13568.266    26335.306   -3789.8674    85.304433 
   59100    1425.7155   -103.92481    1.2900174   -102.63479    14665.107    4.4011508    4.4011508    4.4011508    14665.107    11766.651    30472.794    1755.8756   -11726.016   -44756.773   -10553.583    85.250858 
   59200    2188.3668   -104.60915    1.9800803   -102.62907   -11755.191    4.4226895    4.4226895    4.4226895   -11755.191   -38729.483    22640.229   -19176.318   -1317.8723   -4968.9843   -5682.3367    86.508615 
   59300    1219.4307   -103.73294    1.1033665   -102.62957   -4568.1277    4.4263024    4.4263024    4.4263024   -4568.1277    29132.352    15521.205    -58357.94   -20256.184   -9139.1162   -25045.544    86.720796 
   59400     2177.873   -104.58145    1.9705852   -102.61086    8551.4712     4.413283     4.413283     4.413283    8551.4712    1395.1786    16553.385    7705.8504   -7275.6444   -22894.069    26356.936    85.957811 
   59500    1419.2566   -103.91528    1.2841732   -102.63111    20002.395    4.4078953    4.4078953    4.4078953    20002.395    31537.905    15453.199    13016.082   -4222.0482   -4973.3866   -13324.818     85.64338 
   59600    1772.9274   -104.24544     1.604182   -102.64126   -6847.1992    4.4157611    4.4157611    4.4157611   -6847.1992    -51054.59    15740.422    14772.571   -3623.3349   -28055.611    13053.701     86.10269 
   59700    1685.6188   -104.16973    1.5251833   -102.64454    19719.605    4.4314511    4.4314511    4.4314511    19719.605   -6512.7585    49402.816    16268.757   -2121.1948    16818.143    8612.1649    87.023771 
   59800    1253.2116   -103.77466    1.1339322   -102.64072    -14218.71    4.4420958    4.4420958    4.4420958    -14218.71    6363.9821     13012.76   -62032.873   -17614.446   -33388.224   -6532.6507    87.652388 
   59900    1949.3104   -104.38667     1.763777   -102.62289   -16723.886    4.4211476    4.4211476    4.4211476   -16723.886   -2932.2094   -19551.414   -27688.036    10617.541    14164.898    50956.173    86.418168 
   60000    2190.9035   -104.60771    1.9823755   -102.62533    9484.0561    4.4035447    4.4035447    4.4035447    9484.0561    15160.633    43209.457   -29917.922    535.07473   -39275.214   -10564.384    85.390044 
   60100    1021.7381   -103.59844   0.92449013   -102.67395    2587.2223    4.4173885    4.4173885    4.4173885    2587.2223    73084.077   -8508.1501    -56814.26     19852.93   -16488.741     44175.78     86.19792 
   60200    2257.2459   -104.69701    2.0424035   -102.65461    188.71889     4.426249     4.426249     4.426249    188.71889   -10710.079     15356.94   -4080.7038    12647.354   -8904.4653   -14625.812    86.717654 
   60300    1116.8778   -103.66235    1.0105745   -102.65178   -13384.806    4.4325579    4.4325579    4.4325579   -13384.806    9588.1071    20712.916    -70455.44    14362.507   -7332.8762    44548.856    87.088992 
   60400    2192.0517   -104.59905    1.9834145   -102.61563    10199.852    4.4236116    4.4236116    4.4236116    10199.852    41666.851    14455.403   -25522.696    1613.2334    340.73793    -19731.88    86.562735 
   60500    1646.5152   -104.10626    1.4898015   -102.61646   -12174.827    4.4119866    4.4119866    4.4119866   -12174.827    2095.7733    -10142.28   -28477.972    12342.937   -10834.634    49114.255    85.882082 
   60600    2125.2624   -104.54368    1.9229821   -102.62069    2743.1025    4.4202479    4.4202479    4.4202479    2743.1025    52293.539   -5422.6882   -38641.543      8337.61     17265.08   -14958.048     86.36542 
   60700    1504.1541   -103.99354    1.3609903   -102.63255    10904.756    4.4369115    4.4369115    4.4369115    10904.756    46244.082    8440.9475   -21970.762     5940.151    -13466.91     26615.02    87.345857 
   60800    2126.6276   -104.51926    1.9242173   -102.59505   -25130.116    4.4473858    4.4473858    4.4473858   -25130.116   -29759.506   -35539.413   -10091.429    2155.2649   -6852.2967   -14014.825    87.965913 
   60900    1438.2032    -103.8843    1.3013164   -102.58298    14816.437    4.4310668    4.4310668    4.4310668    14816.437    68403.777   -25774.824    1820.3574    4437.4275   -4843.5051    22732.511    87.001128 
   61000    2159.3608    -104.5296    1.9538351   -102.57577    1338.3696    4.4282023    4.4282023    4.4282023    1338.3696    34116.811   -20960.618   -9141.0843   -2555.9496   -21736.577   -4591.9475    86.832513 
   61100    1967.9569   -104.36877    1.7806488   -102.58813    -29926.11     4.427971     4.427971     4.427971    -29926.11   -4009.2877   -40960.589   -44808.452    915.54968    7166.2914    30237.359    86.818903 
   61200    1844.3072   -104.26548    1.6687679   -102.59671    12241.153    4.4287786    4.4287786    4.4287786    12241.153    30678.163    -1913.066    7958.3614    6863.3508   -25407.984    -14583.16    86.866418 
   61300    1832.7491   -104.25719    1.6583099   -102.59888   -47969.276    4.4425113    4.4425113    4.4425113   -47969.276   -14218.093   -50734.454   -78955.279    9297.6611   -1250.8092     23188.36    87.676985 
   61400    2089.4322   -104.45977    1.8905621    -102.5692   -26506.336    4.4368535    4.4368535    4.4368535   -26506.336   -6613.5208   -28860.566   -44044.923   -2931.3816   -1631.3697   -2219.7894    87.342431 
   61500    1691.6815   -104.09635     1.530669   -102.56568   -21057.067    4.4286152    4.4286152    4.4286152   -21057.067    38006.602   -44949.651   -56228.151   -3624.8708   -4767.8385      18743.5    86.856803 
   61600    1935.4457   -104.33041     1.751232   -102.57918   -17132.267    4.4259885    4.4259885    4.4259885   -17132.267   -25104.484   -15726.016   -10566.299    7688.9433    10635.499    32816.698    86.702347 
   61700     1957.309   -104.36847    1.7710143   -102.59745   -1911.7216    4.4267247    4.4267247    4.4267247   -1911.7216    35482.752    -21206.06   -20011.857   -10143.556    1215.7447     9752.772    86.745616 
   61800    1281.6753   -103.78031    1.1596867   -102.62063   -1678.6767    4.4501823    4.4501823    4.4501823   -1678.6767   -26488.043    14498.792    6953.2204    192.17819    17682.982    30144.539    88.131955 
   61900    1904.9247   -104.30998    1.7236159   -102.58637    13483.071    4.4424976    4.4424976    4.4424976    13483.071   -32640.788    6861.1394    66228.862   -6566.0587   -15045.156    28286.651    87.676175 
   62000    1397.3468   -103.84584    1.2643487   -102.58149    12033.056    4.4189548    4.4189548    4.4189548    12033.056    10298.544    9519.6859    16280.938   -2465.4824    17828.465    27921.923    86.289645 
   62100    1866.8465   -104.27671    1.6891619   -102.58755    33724.851    4.4229936    4.4229936    4.4229936    33724.851    474.43701    61822.184    38877.932    10088.325     2015.917    12242.724    86.526457 
   62200    1609.6625   -104.06173    1.4564564   -102.60527   -2570.4445    4.4432176    4.4432176    4.4432176   -2570.4445     3167.356    38438.621   -49317.311     2750.907    8595.4811    24130.082    87.718811 
   62300    2051.1629   -104.43555    1.8559353   -102.57962   -26620.448    4.4613688    4.4613688    4.4613688   -26620.448   -17051.025   -16583.495   -46226.822    11728.973   -21107.878   -5023.0088    88.798244 
   62400     1722.039   -104.11631    1.5581371   -102.55817   -12077.775    4.4570683    4.4570683    4.4570683   -12077.775    2433.3511   -4899.4446    -33767.23    5056.1304    2617.9789     31663.28    88.541704 
   62500    1816.9457   -104.18178    1.6440107   -102.53777   -15716.917    4.4359447    4.4359447    4.4359447   -15716.917    13857.885   -17188.263   -43820.374    4848.9626   -35942.721    -14991.88    87.288768 
   62600    1791.4491   -104.18087    1.6209408   -102.55993    16319.024    4.4270683    4.4270683    4.4270683    16319.024    47062.139    17656.865   -15761.932   -8576.4357    2292.8425    37904.251    86.765816 
   62700     1431.339   -103.89448    1.2951056   -102.59938   -540.07795    4.4330223    4.4330223    4.4330223   -540.07795   -25121.631    93631.218   -70129.821   -8106.3823   -26396.448   -21387.798    87.116366 
   62800    1863.8419   -104.28434    1.6864433    -102.5979   -286.11296     4.431434     4.431434     4.431434   -286.11296     6671.461    18102.173   -25631.973   -10445.758    4279.6927    11398.269    87.022761 
   62900    1259.7384   -103.74855    1.1398378   -102.60872    10319.573    4.4267993    4.4267993    4.4267993    10319.573    -7110.496     69032.11   -30962.895   -12634.778   -25587.914   -9240.0581    86.750004 
   63000    1757.3615   -104.19112    1.5900977   -102.60102    15360.322    4.4298728    4.4298728    4.4298728    15360.322    19023.625    35852.797   -8795.4575   -16963.156    5843.0231   -26408.693    86.930816 
   63100    1629.9381   -104.07867    1.4748023   -102.60386   -13585.377    4.4399297    4.4399297    4.4399297   -13585.377   -22569.854   -13716.808   -4469.4683   -3140.1735   -37371.082    7089.6351    87.524226 
   63200    1703.5922   -104.13774     1.541446    -102.5963   -26000.786    4.4438922    4.4438922    4.4438922   -26000.786    37474.908   -59333.677    -56143.59     3573.538    4684.1542   -47190.887    87.758775 
   63300    1449.5435   -103.88345    1.3115775   -102.57187    20037.096    4.4313431    4.4313431    4.4313431    20037.096    16420.074     23464.49    20226.723    8977.8303   -25032.926    4676.0679    87.017406 
   63400    1676.5203   -104.09638    1.5169508   -102.57943     13938.62    4.4181469    4.4181469    4.4181469     13938.62    13444.238    44572.234   -16200.613     8757.271   -1719.3215   -29868.042    86.242322 
   63500    1750.6282   -104.17481    1.5840052   -102.59081    6461.7651     4.440786     4.440786     4.440786    6461.7651   -8956.8969    5577.2801    22764.912     10431.66   -25209.321    3670.9646    87.574878 
   63600    1651.7967   -104.08877    1.4945804   -102.59419   -33369.486    4.4490692    4.4490692    4.4490692   -33369.486   -32277.111   -19568.641   -48262.706    13524.756    -5414.247   -31575.276    88.065839 
   63700    1582.7541   -104.01176    1.4321091   -102.57965    23169.713    4.4298448    4.4298448    4.4298448    23169.713    2448.6784    46944.527    20115.935    11082.535   -10830.452    9255.3524    86.929167 
   63800    1743.3653   -104.16534    1.5774336    -102.5879   -4416.9477    4.4072443    4.4072443    4.4072443   -4416.9477    9098.6289   -2092.2644   -20257.208    5094.9386   -21754.261   -22715.822     85.60544 
   63900    1827.6569   -104.26999    1.6537024   -102.61629    32033.535    4.4102455    4.4102455    4.4102455    32033.535   -614.88693     77031.34    19684.152    6454.7476    14073.102   -8587.1209    85.780443 
   64000    1844.8932   -104.29844    1.6692982   -102.62914   -34914.673    4.4279987    4.4279987    4.4279987   -34914.673   -46507.586   -21843.213   -36393.221     22320.38   -26093.236    11878.983    86.820532 
   64100    1687.5509   -104.14033    1.5269315    -102.6134    31694.528    4.4295925    4.4295925    4.4295925    31694.528    13076.013    23469.894    58537.678   -26464.096    13942.411   -32691.555    86.914319 
   64200    1526.2152   -103.99189    1.3809515   -102.61094   -38015.701    4.4403557    4.4403557    4.4403557   -38015.701   -38675.481   -35432.886   -39938.736    -3395.845   -34158.334    28577.427    87.549422 
   64300    1657.2301   -104.09487    1.4994966   -102.59537    30235.419    4.4118753    4.4118753    4.4118753    30235.419    13143.182   -6635.7708    84198.846   -1294.3549    5036.1346   -36692.633    85.875579 
   64400    1584.8672   -104.05106    1.4340211   -102.61704   -11179.568    4.4064228    4.4064228    4.4064228   -11179.568   -27548.963    -9551.251     3561.511   -1995.1371   -33603.284    34910.753    85.557581 
   64500     1805.984   -104.27114    1.6340923   -102.63705   -2986.7967    4.4246475    4.4246475    4.4246475   -2986.7967    20167.614   -10082.135   -19045.869   -10552.486   -5977.3513   -16407.812    86.623558 
   64600    1675.6322   -104.15505    1.5161473    -102.6389   -36573.859    4.4373256    4.4373256    4.4373256   -36573.859   -1169.3799   -63757.995   -44794.203    664.20185   -8380.6323    34503.829    87.370312 
   64700    1786.0692   -104.23688    1.6160729    -102.6208   -17964.742    4.4273279    4.4273279    4.4273279   -17964.742     13855.38    -27030.11   -40719.497   -3566.4728   -20514.025   -4456.2045    86.781083 
   64800    1862.9102   -104.29059    1.6856003   -102.60499    2922.5007    4.4172802    4.4172802    4.4172802    2922.5007    33823.517   -27547.738    2491.7232   -3574.4992    16143.877    21879.528    86.191583 
   64900    1267.1254   -103.75173    1.1465217   -102.60521    14798.321    4.4063317    4.4063317    4.4063317    14798.321     11842.62    16800.794    15751.548    3939.0698   -28293.936    8443.3539    85.552274 
   65000    2050.2324   -104.45727    1.8550934   -102.60218    8930.4005    4.4164925    4.4164925    4.4164925    8930.4005    27441.139   -6872.0081    6222.0703    -2276.326    6778.1812    12022.755     86.14548 
   65100    1802.7159   -104.24789    1.6311352   -102.61676   -47987.141     4.427275     4.427275     4.427275   -47987.141   -39636.849   -35857.622   -68466.951   -5506.8068   -27230.196    10920.485    86.777971 
   65200    1704.2555   -104.14028    1.5420462   -102.59824     20424.81    4.4243793    4.4243793    4.4243793     20424.81     52248.47    4920.9203    4105.0399   -6609.7394    6978.4228    8925.6266    86.607812 
   65300    1255.8661   -103.75941     1.136334   -102.62308   -6919.8954    4.4228661    4.4228661    4.4228661   -6919.8954   -29129.628    34892.683   -26522.741    -13236.82   -19424.705    18113.598    86.518974 
   65400    2275.0939   -104.66415    2.0585528    -102.6056    18235.646    4.4182594    4.4182594    4.4182594    18235.646    58833.796   -13845.846    9718.9888    5721.4508   -2771.7455   -4658.3749    86.248912 
   65500    1274.2445   -103.78023    1.1529632   -102.62727   -22783.712    4.4303355    4.4303355    4.4303355   -22783.712   -9385.6953    2608.8078   -61574.248   -4341.6558   -25841.527    22582.276    86.958059 
   65600    1867.7654   -104.29263    1.6899934   -102.60263    22685.688    4.4284706    4.4284706    4.4284706    22685.688    41476.791    27503.454    -923.1803   -3494.7447   -12936.868   -3503.9361    86.848295 
   65700    1723.4973   -104.15943    1.5594566   -102.59997   -2345.5502    4.4157673    4.4157673    4.4157673   -2345.5502    21034.825   -13426.296    -14645.18    4143.0465   -23222.623    13507.112     86.10305 
   65800    2130.6883   -104.53853    1.9278915   -102.61064    24062.273    4.4251126    4.4251126    4.4251126    24062.273    17412.229    93183.407   -38408.817   -8043.5459    -5806.105    8856.2886    86.650881 
   65900    1623.0136   -104.09513    1.4685369   -102.62659   -41429.541    4.4369409    4.4369409    4.4369409   -41429.541   -48772.836   -41745.617    -33770.17    30.185624   -4160.5445   -8952.2847    87.347594 
   66000    1747.3764    -104.1949    1.5810628   -102.61384    24392.873    4.4115388    4.4115388    4.4115388    24392.873   -342.88387    90700.676   -17179.173   -5797.1652   -7562.0696    12685.113    85.855934 
   66100    1628.9412   -104.09373    1.4739002   -102.61983     7691.129    4.4025699    4.4025699    4.4025699     7691.129    43070.776      24274.5   -44271.889   -13923.616   -16.777786   -5697.0295    85.333348 
   66200    1774.6204   -104.23676    1.6057139   -102.63105   -14754.752    4.4181719    4.4181719    4.4181719   -14754.752    9590.2398   -10339.866   -43514.629   -3696.0365    262.23495    10629.661    86.243787 
   66300    1710.9747   -104.18545    1.5481258   -102.63732   -10088.828     4.428734     4.428734     4.428734   -10088.828    16149.456    7112.9237   -53528.862    -3102.566     27471.92   -4838.8644     86.86379 
   66400    1711.8501   -104.17098    1.5489179   -102.62206   -12113.415    4.4383303    4.4383303    4.4383303   -12113.415     34322.97   -23382.273   -47280.941   -249.09277    -21262.46    21511.915    87.429676 
   66500     1901.647   -104.32349    1.7206502   -102.60284   -4264.1648     4.417729     4.417729     4.417729   -4264.1648   -7095.7928    27449.101   -33145.803    7043.3596    45556.057   -3687.2683    86.217852 
   66600    1623.2829   -104.07258    1.4687805    -102.6038   -8340.9087    4.4247542    4.4247542    4.4247542   -8340.9087    46893.713   -47351.004   -24565.435   -21536.096   -5055.9636     10775.34    86.629829 
   66700    1624.2942    -104.0742    1.4696956    -102.6045    4772.0964    4.4211799    4.4211799    4.4211799    4772.0964    35076.564    46988.601   -67748.875    16823.263    45794.172   -4623.0766    86.420062 
   66800    1933.6737   -104.35944    1.7496286   -102.60981   -7597.1588    4.4122154    4.4122154    4.4122154   -7597.1588    18141.942   -17727.738   -23205.681   -10658.387   -13618.646    10781.956    85.895442 
   66900    1607.1895   -104.08104    1.4542189   -102.62682    17599.496    4.4117622    4.4117622    4.4117622    17599.496    67427.559    25018.635   -39647.706    9215.2025    34539.314    4763.7484    85.868978 
   67000    1611.0245   -104.08286    1.4576888   -102.62517    3011.9493    4.4280847    4.4280847    4.4280847    3011.9493   -3622.8314    1569.5648    11089.114   -14475.129   -18818.241    18294.779    86.825594 
   67100    1820.4328   -104.25643    1.6471659   -102.60926   -9698.7535    4.4357806    4.4357806    4.4357806   -9698.7535   -1015.9816   -2857.1866   -25223.092    4142.9419    34415.482     4374.001    87.279083 
   67200    1508.5342   -103.96781    1.3649535   -102.60286    4919.1627    4.4266192    4.4266192    4.4266192    4919.1627    12884.485   -26063.831    27936.834   -15851.655   -14498.587    8831.3188    86.739414 
   67300    1685.6285   -104.13152    1.5251921   -102.60633     15833.17     4.406322     4.406322     4.406322     15833.17    13515.554    15336.811    18647.145    -7787.384      341.688    10849.334     85.55171 
   67400    2093.4899   -104.50731    1.8942336   -102.61308    26235.447    4.4065785    4.4065785    4.4065785    26235.447    5338.3564     38750.44    34617.544   -1879.3882    4079.6669    10593.474    85.566648 
   67500    917.37586   -103.47596   0.83006096    -102.6459    22381.064    4.4272223    4.4272223    4.4272223    22381.064    16057.612    16496.763    34588.816   -5886.4766   -23671.193    4178.4399    86.774872 
   67600    2128.0289   -104.52735    1.9254853   -102.60187   -14041.203    4.4449502    4.4449502    4.4449502   -14041.203   -49947.622     26110.12   -18286.105    8632.2916   -5131.6261   -7956.9165    87.821471 
   67700    834.91399   -103.36808   0.75544773   -102.61264    -18230.48    4.4223763    4.4223763    4.4223763    -18230.48   -9932.9175   -7366.0024   -37392.519    2278.9587   -22101.741   -3719.7103    86.490237 
   67800    2126.9624   -104.50522    1.9245203    -102.5807    44433.523    4.3942284    4.3942284    4.3942284    44433.523    38246.299    72460.312    22593.958    29956.131    19791.287   -1052.3898    84.849224 
   67900    1260.1302   -103.77703    1.1401922   -102.63684    11659.704    4.4094207    4.4094207    4.4094207    11659.704    42187.312     35499.75   -42707.951    12611.295   -19701.083    7175.6725    85.732327 
   68000    1516.6769   -104.00739    1.3723212   -102.63507    11323.135    4.4415031    4.4415031    4.4415031    11323.135    15689.119    39179.694   -20899.409    27166.474    24527.942   -2531.6168    87.617309 
   68100    1597.7925   -104.03599    1.4457162   -102.59028   -16168.992    4.4543629    4.4543629    4.4543629   -16168.992    28714.541   -11733.323   -65488.195    11920.198       2499.5    1729.2795    88.380571 
   68200    1494.0214   -103.92628     1.351822   -102.57445   -5808.1422    4.4299886    4.4299886    4.4299886   -5808.1422   -10857.468    10292.743   -16859.701    15290.159    28887.231    257.21239    86.937637 
   68300    2215.5085   -104.57466    2.0046387   -102.57002     9498.819    4.3975833    4.3975833    4.3975833     9498.819    28016.678    27288.147   -26808.367    13913.742    29999.758    661.89587    85.043715 
   68400    1380.9256   -103.86921    1.2494905   -102.61972    25302.514    4.4011524    4.4011524    4.4011524    25302.514   -3102.2892    54346.902    24662.929   -6308.9414    10098.354    11997.449    85.250948 
   68500    1799.9901   -104.27251    1.6286689   -102.64384   -20208.475    4.4308944    4.4308944    4.4308944   -20208.475   -4066.5241    16938.802   -73497.702     4401.972    26839.254     1155.117    86.990977 
   68600    1918.8975   -104.35636    1.7362588    -102.6201   -18630.151    4.4399437    4.4399437    4.4399437   -18630.151    20926.766    -41022.91   -35794.309   -1431.7226   -6633.6593   -13122.092    87.525055 
   68700    1230.1857   -103.71903    1.1130979   -102.60593    10259.666    4.4261501    4.4261501    4.4261501    10259.666    25892.639    68346.935   -63460.577   -12705.741    37828.905    7562.2961     86.71184 
   68800    1948.4735   -104.36278    1.7630197   -102.59976    19983.438    4.4083704    4.4083704    4.4083704    19983.438    55549.236    11548.599   -7147.5195   -2373.8686   -24931.442      3801.55    85.671078 
   68900    1410.0868   -103.89887    1.2758761   -102.62299    34437.721    4.4116183    4.4116183    4.4116183    34437.721     55626.97    76248.583   -28562.391   -19392.819    32832.508   -6988.4729    85.860576 
   69000    1764.6922   -104.21991    1.5967306   -102.62317   -24401.453    4.4296275    4.4296275    4.4296275   -24401.453    -34061.53    53036.305   -92179.135   -6945.7873     -35724.6    14087.586    86.916376 
   69100    1773.8502     -104.223    1.6050169   -102.61798    15344.817    4.4219373    4.4219373    4.4219373    15344.817     41334.54    39369.277   -34669.365      17400.5    25678.471   -10984.415    86.464484 
   69200     1571.495   -104.04881    1.4219217   -102.62689   -21105.872    4.4271513    4.4271513    4.4271513   -21105.872   -49743.513    62491.324   -76065.426   -15518.185   -43527.827    8396.4929    86.770701 
   69300    1845.9524   -104.28742    1.6702566   -102.61716    23269.135    4.4171929    4.4171929    4.4171929    23269.135    44057.759    74168.633   -48418.986    2832.3351    11001.793   -11766.962    86.186473 
   69400    1317.5903   -103.84522    1.1921834   -102.65304    -26454.61    4.4194551    4.4194551    4.4194551    -26454.61   -72126.411    58220.546   -65457.966   -31400.037    -43560.35    207.35951    86.318954 
   69500    2373.1043   -104.78849    2.1472346   -102.64125    22758.302    4.4071503    4.4071503    4.4071503    22758.302    33783.151     66529.28   -32037.526    6049.3031    13806.747   -5072.8543    85.599963 
   69600    1243.7469   -103.79767    1.1253683    -102.6723   -11938.583    4.4016586    4.4016586    4.4016586   -11938.583   -45160.417    18051.442   -8706.7747   -10632.923   -53463.782    494.04544     85.28037 
   69700    1730.6094   -104.22782    1.5658918   -102.66192    -15313.57    4.4093617    4.4093617    4.4093617    -15313.57    4487.0374   -19769.116   -30658.632   -11515.914      13776.2    14162.705    85.728884 
   69800    1731.5699   -104.22597    1.5667608   -102.65921    3140.4642    4.4194853    4.4194853    4.4194853    3140.4642   -50780.552    120824.82   -60622.874    13506.997   -41408.849   -5569.3516    86.320723 
   69900    1537.8973   -104.02745    1.3915218   -102.63593   -24467.707    4.4370487    4.4370487    4.4370487   -24467.707   -13168.249   -7388.8933   -52845.979   -13152.408    21690.042    15970.405    87.353956 
   70000    1348.0029    -103.8268    1.2197013    -102.6071   -2589.4785    4.4252241    4.4252241    4.4252241   -2589.4785   -22340.469    80846.071   -66274.037    26594.344   -42305.958    10966.697    86.657433 
   70100    2054.3819   -104.45366    1.8588479   -102.59481   -11640.095    4.4183301    4.4183301    4.4183301   -11640.095    30022.617   -19999.098   -44943.804    11379.883    17498.674   -17941.527    86.253055 
   70200    1488.9184   -103.95852    1.3472047   -102.61132   -16377.546    4.4273479    4.4273479    4.4273479   -16377.546   -19536.327    4648.6872   -34244.998    3944.3228   -16256.627    21514.321     86.78226 
   70300    2266.6241   -104.65119    2.0508891    -102.6003   -22964.936    4.4322369    4.4322369    4.4322369   -22964.936   -46812.757     1871.068    -23953.12     32038.05    8683.8659    606.31528    87.070069 
   70400    1668.1534   -104.11466    1.5093802   -102.60528    252.33341    4.4244923    4.4244923    4.4244923    252.33341    31427.025    16475.721   -47145.746   -8154.3657   -9942.1327    19732.613    86.614449 
   70500    1892.4769   -104.31173    1.7123529   -102.59937   -302.77385    4.4262722    4.4262722    4.4262722   -302.77385   -32688.985    28007.824    3772.8396     35948.36    14641.493   -7282.1574    86.719021 
   70600    1642.2263    -104.0825    1.4859209   -102.59658   -3790.0527    4.4313048    4.4313048    4.4313048   -3790.0527    61500.205   -55079.205   -17791.158   -8148.0029   -5004.6199     4610.311    87.015152 
   70700    1805.2923   -104.23589    1.6334664   -102.60242   -4434.3686    4.4217802    4.4217802    4.4217802   -4434.3686   -2965.6784     21225.35   -31562.777     28909.75     7249.264    2819.2848    86.455266 
   70800    1645.6654   -104.09962    1.4890326   -102.61059    28581.093    4.4072953    4.4072953    4.4072953    28581.093     92015.06    4331.4004   -10603.181    6022.4879    14111.247    7304.9494    85.608414 
   70900    2020.9491   -104.45874    1.8285972   -102.63015   -6158.5264    4.4244017    4.4244017    4.4244017   -6158.5264   -38062.375    7647.8762     11938.92    19036.952   -12635.592    15176.535    86.609123 
   71000    1430.5111   -103.92609    1.2943565   -102.63174   -9232.4259    4.4440567    4.4440567    4.4440567   -9232.4259    33350.651   -18986.128     -42061.8    21992.855    15372.474    4128.9696     87.76852 
   71100    2037.7861   -104.46286    1.8438317   -102.61903   -17743.166    4.4341243    4.4341243    4.4341243   -17743.166   -12136.419   -2522.8486   -38570.229   -19689.298   -6622.5417    15135.247    87.181352 
   71200    1460.4662   -103.93543    1.3214605   -102.61397    12540.546    4.3915558    4.3915558    4.3915558    12540.546    4715.6563    26634.018    6271.9633    40007.616    11577.519    -5553.469      84.6945 
   71300    2188.9595   -104.59856    1.9806165   -102.61795    21076.832    4.4027401    4.4027401    4.4027401    21076.832    41645.692    17244.675    4340.1276   -1379.4128   -1091.6333    17345.072    85.343243 
   71400    1069.0539   -103.58969   0.96730243   -102.62239   -52466.859    4.4317939    4.4317939    4.4317939   -52466.859   -94637.652   -39878.038   -22884.885    66196.305    16367.046    -4945.548    87.043968 
   71500    2294.0326   -104.66321    2.0756889   -102.58753   -23347.122     4.424207     4.424207     4.424207   -23347.122   -32191.571    860.75291   -38710.548   -26792.853     4821.529    3091.8351    86.597692 
   71600    1492.7849   -103.95057    1.3507032   -102.59987   -35783.247    4.4224016    4.4224016    4.4224016   -35783.247   -43766.145   -58883.702   -4699.8926    70718.362    1498.4393    2009.3109     86.49172 
   71700     1469.195    -103.9226    1.3293585   -102.59324    9537.0977    4.4065038    4.4065038    4.4065038    9537.0977    35750.393      27967.8     -35106.9    10312.235    12342.761    8045.3506      85.5623 
   71800    1859.2681   -104.28969    1.6823049   -102.60739    7205.4733    4.4147898    4.4147898    4.4147898    7205.4733   -8189.8795    9375.9123    20430.387    20112.595    3013.9238    4003.5069     86.04588 
   71900    1642.7899   -104.08756    1.4864309   -102.60113   -35470.887    4.4381727    4.4381727    4.4381727   -35470.887   -27001.958   -21218.192   -58192.511   -7910.2868     33194.07    5837.3168     87.42036 
   72000     1546.427   -103.97552    1.3992397   -102.57628    37764.061    4.4213778    4.4213778    4.4213778    37764.061    61548.364    28558.664    23185.154      2116.36   -7338.5938     18682.75    86.431666 
   72100    1710.7814   -104.14693     1.547951   -102.59898   -32569.033    4.4208003    4.4208003    4.4208003   -32569.033   -41693.103   -8552.2929   -47461.704    4813.7093    30883.528   -11489.853    86.397804 
   72200    2394.2777   -104.76554    2.1663928   -102.59915    2476.4965    4.4173611    4.4173611    4.4173611    2476.4965    28498.907   -43398.561    22329.144   -10515.886   -23968.463    14752.568    86.196318 
   72300    1237.9508   -103.73573    1.1201239   -102.61561    7816.3919    4.4134864    4.4134864    4.4134864    7816.3919   -18544.858    16132.234      25861.8    16007.103    20622.117   -25488.094    85.969692 
   72400    2086.5418    -104.5034    1.8879469   -102.61546    16394.037    4.4187987    4.4187987    4.4187987    16394.037    41965.354    21816.413   -14599.655   -24015.625   -10737.677    5558.7913      86.2805 
   72500    1541.9218   -104.02273    1.3951632   -102.62757    11663.182    4.4223613    4.4223613    4.4223613    11663.182    21041.001   -23306.643    37255.189   -1538.5182      10876.5   -7031.0443    86.489359 
   72600     1873.705   -104.30389    1.6953677   -102.60852    1186.1935    4.4292077    4.4292077    4.4292077    1186.1935    28222.177   -24187.515   -476.08047    5987.2797    12022.135   -11457.698    86.891669 
   72700    1821.7443   -104.24284    1.6483525   -102.59448   -17231.954    4.4309458    4.4309458    4.4309458   -17231.954   -16282.018   -26483.134   -8930.7106   -3050.0897    14437.288     5474.262    86.994001 
   72800    1494.7066   -103.95393    1.3524419   -102.60148    9830.6059     4.416482     4.416482     4.416482    9830.6059    33678.985   -15805.179    11618.012   -783.88774    9389.1031   -24510.018    86.144867 
   72900    2015.7013   -104.42756    1.8238489   -102.60371   -25829.737    4.4199495    4.4199495    4.4199495   -25829.737   -20645.305   -58653.013    1809.1064   -23125.449   -4738.3541    8755.5014     86.34793 
   73000    1639.8915   -104.10722    1.4838083   -102.62341   -20246.375    4.4289714    4.4289714    4.4289714   -20246.375   -3042.4203   -26603.539   -31093.165     22361.79    21592.359    -20403.51    86.877761 
   73100    1833.9615   -104.27451    1.6594069    -102.6151   -3924.4195    4.4293059    4.4293059    4.4293059   -3924.4195   -12539.043    9976.9504   -9211.1657   -41361.841   -14900.012   -1849.0553    86.897451 
   73200    1350.3895   -103.84118    1.2218608   -102.61932    22325.564    4.4115114    4.4115114    4.4115114    22325.564     14084.26    17402.121    35490.312    15611.649    19952.512   -6736.8849     85.85433 
   73300    2108.3506   -104.53793    1.9076799   -102.63025   -4410.7374    4.4295083    4.4295083    4.4295083   -4410.7374    58379.908   -39373.657   -32238.464   -10925.083   -9368.7189   -11134.902     86.90936 
   73400    1327.5234   -103.81926    1.2011711   -102.61809    13274.863    4.4396701    4.4396701    4.4396701    13274.863   -14747.032    46989.702    7581.9178    25214.558    18121.792   -3953.7981    87.508874 
   73500     1044.813   -103.55818    0.9453688   -102.61282    40612.929    4.4318488    4.4318488    4.4318488    40612.929    80799.672   -38254.111    79293.225    14018.414    6508.7166   -20076.622    87.047203 
   73600    2280.3389   -104.66061    2.0632986   -102.59731    4549.6124    4.4247617    4.4247617    4.4247617    4549.6124    63634.054   -30199.268    -19785.95    17454.437   -216.45008    714.28438    86.630268 
   73700    1100.1485   -103.61121   0.99543749   -102.61577    25695.465    4.4139099    4.4139099    4.4139099    25695.465    74307.204   -34654.253    37433.445     10626.93    12346.335   -12477.863    85.994443 
   73800    2297.8522   -104.69724     2.079145    -102.6181    -9042.603    4.4402772    4.4402772    4.4402772    -9042.603   -24668.404   -48742.692    46283.287   -11925.358   -12686.345    1568.1698    87.544778 
   73900    1039.2637   -103.55166   0.94034767   -102.61132   -39715.237    4.4440303    4.4440303    4.4440303   -39715.237   -23455.214    -16281.64   -79408.858    5400.2944    26513.837   -21623.187    87.766957 
   74000    2350.8202    -104.6816    2.1270715   -102.55453    11695.516     4.413237     4.413237     4.413237    11695.516    7460.8904    19610.641    8015.0174   -8697.3894   -14939.682    10287.716     85.95512 
   74100    1729.8837   -104.15936    1.5652351   -102.59412   -42876.313    4.4269684    4.4269684    4.4269684   -42876.313   -32844.668   -29258.789   -66525.481     23356.35    24420.938   -29882.507    86.759947 
   74200    1917.3047   -104.33072    1.7348176    -102.5959   -1919.9257    4.4347171    4.4347171    4.4347171   -1919.9257    36523.643   -5287.5939   -36995.826   -6353.6859   -132.08408   -2209.8155    87.216323 
   74300     1402.118   -103.87612    1.2686659   -102.60745    17689.813    4.4281425    4.4281425    4.4281425    17689.813    62237.059    15238.687   -24406.306   -25446.441   -2523.1042   -10543.392    86.828996 
   74400    1835.1986   -104.26985    1.6605262   -102.60932    14993.144    4.4248798    4.4248798    4.4248798    14993.144    72575.593   -14363.493   -13232.666    16437.733    25229.361    9656.0794    86.637205 
   74500    1398.9121   -103.87579     1.265765   -102.61003    -4096.469    4.4316336    4.4316336    4.4316336    -4096.469    1732.7596    19082.109   -33104.276   -32254.633   -27814.342   -4215.1008    87.034518 
   74600    1953.3136   -104.37375    1.7673992   -102.60635   -22002.183    4.4233977    4.4233977    4.4233977   -22002.183   -2135.4565   -10906.653   -52964.439    17212.466    45907.087   -3198.3211     86.55018 
   74700    1356.8981   -103.83665    1.2277499    -102.6089    28923.268    4.4212109    4.4212109    4.4212109    28923.268    55439.716    45945.679   -14615.591   -1353.8353    -20754.99   -10809.728    86.421878 
   74800    1736.7541   -104.17647    1.5714516   -102.60502   -18582.567    4.4440981    4.4440981    4.4440981   -18582.567   -13495.315    7907.2118   -50159.599    4324.6595    45180.899   -11448.642     87.77097 
   74900    1574.5104   -104.00783    1.4246501   -102.58318    -9199.018     4.443001     4.443001     4.443001    -9199.018    59357.237   -48190.896   -38763.395    2167.0245   -30582.577   -1616.1489    87.705984 
   75000     1632.061   -104.07158    1.4767231   -102.59486   -31357.222    4.4207693    4.4207693    4.4207693   -31357.222   -60432.771    29523.503   -63162.399   -20200.368    21873.952   -9995.8159    86.395987 
   75100    2023.5381   -104.42101    1.8309398   -102.59007    29517.601    4.4036532    4.4036532    4.4036532    29517.601    81659.706    5771.4723     1121.624    17984.986    -8608.778     1133.212    85.396351 
   75200    1542.3409   -104.02816    1.3955424   -102.63262   -11424.046    4.4210586    4.4210586    4.4210586   -11424.046   -24822.644   -7918.8617   -1530.6307   -27222.923   -12766.485   -16382.853    86.412944 
   75300    1823.5593   -104.26562    1.6499948   -102.61562   -10457.589    4.4463079    4.4463079    4.4463079   -10457.589    3299.2192   -40322.424    5650.4368    28564.005    4336.4099    362.49987    87.901966 
   75400     1509.274   -103.98007    1.3656228   -102.61445   -32724.949    4.4381974    4.4381974    4.4381974   -32724.949   -49257.361   -14833.618   -34083.868   -21122.072   -19871.777    -6379.665    87.421823 
   75500    2143.2729   -104.53713    1.9392784   -102.59785   -5169.1617    4.4102877    4.4102877    4.4102877   -5169.1617   -16926.522     13615.07   -12196.033    20538.652   -11479.105    9882.3922    85.782909 
   75600    1484.6659   -103.96277    1.3433569   -102.61941   -937.07129    4.4118379    4.4118379    4.4118379   -937.07129   -36432.059    7519.7792    26101.065    25182.972   -6665.3411   -14012.238    85.873394 
   75700    1616.1503   -104.09484    1.4623268   -102.63251    5501.4358    4.4433185    4.4433185    4.4433185    5501.4358   -9548.0393    3875.7446    22176.602    4174.4223   -9808.6288    -1825.725     87.72479 
   75800    1556.7295   -104.01085    1.4085616   -102.60229   -35121.638    4.4549573    4.4549573    4.4549573   -35121.638   -2701.7139   -61754.769   -40908.431     38742.02   -6965.7463    2673.5275    88.415955 
   75900    1887.0205   -104.29022    1.7074158   -102.58281    8791.6522    4.4137108    4.4137108    4.4137108    8791.6522     28280.78    26814.144   -28719.968    -39683.67    -26688.97    -7077.258    85.982807 
   76000    1659.6353   -104.10676    1.5016729   -102.60509     8278.882    4.4024478    4.4024478    4.4024478     8278.882    8746.9466    13938.844    2150.8557    46936.584     11522.62    23013.665    85.326247 
   76100    1607.4818   -104.09665    1.4544834   -102.64217   -10677.019    4.4278961    4.4278961    4.4278961   -10677.019   -44725.018    42261.975   -29568.015   -29700.365   -23902.919    -10873.17    86.814501 
   76200    1811.3515   -104.26698    1.6389489   -102.62803   -29688.987    4.4553934    4.4553934    4.4553934   -29688.987   -31449.666   -28961.677   -28655.619    49242.384    16008.546     22676.72    88.441922 
   76300    1673.1962   -104.09023     1.513943   -102.57629   -26736.396    4.4556398    4.4556398    4.4556398   -26736.396   -65422.705    33685.993   -48472.476    5632.0702   -2845.4151   -9512.1139    88.456599 
   76400     1860.358   -104.23715     1.683291   -102.55386     5927.429    4.4260359    4.4260359    4.4260359     5927.429    21873.484   -3098.0962   -993.10038    24139.126    18219.606    10845.155     86.70513 
   76500    1457.6464   -103.89182    1.3189091   -102.57291    29238.548    4.4070146    4.4070146    4.4070146    29238.548    18021.741    15217.572     54476.33    19114.527   -12901.942    -15773.68    85.592057 
   76600    1934.7582   -104.36717    1.7506099   -102.61656   -3098.7093    4.4168092    4.4168092    4.4168092   -3098.7093    25808.775   -3337.7816   -31767.121    2061.0794    24562.226    11042.516    86.164012 
   76700    1621.4299   -104.11226    1.4671039   -102.64516   -31387.586    4.4306185    4.4306185    4.4306185   -31387.586    19891.646   -76323.005     -37731.4    5912.6095   -11028.035   -12886.315    86.974726 
   76800    2141.3131   -104.56091    1.9375051    -102.6234    326.84794    4.4272947    4.4272947    4.4272947    326.84794   -27369.356   -11060.463    39410.363    -646.9552    14463.004    7601.3063    86.779132 
   76900    1330.6427   -103.84014    1.2039935   -102.63615   -10636.367    4.4217209    4.4217209    4.4217209   -10636.367    34405.754    -45064.71   -21250.145    11384.478   -585.26984   -12729.952     86.45179 
   77000     2268.289   -104.67744    2.0523956   -102.62504   -11023.635    4.4152325    4.4152325    4.4152325   -11023.635    18826.216   -33330.279   -18566.843    2887.6205    22818.418    13690.523    86.071772 
   77100    1649.2886   -104.12632     1.492311   -102.63401   -4203.2873    4.4145278    4.4145278    4.4145278   -4203.2873    41541.125   -22774.765   -31376.222     6777.383   -948.46821   -17653.698    86.030566 
   77200     1250.837   -103.78897    1.1317836   -102.65719   -2020.9756    4.4223338    4.4223338    4.4223338   -2020.9756    61523.392    -39215.23   -28371.088   -8277.2235   -2091.2898    27390.642    86.487745 
   77300    2694.6771   -105.07567    2.4382005   -102.63747   -25281.881    4.4188054    4.4188054    4.4188054   -25281.881   -30282.484   -49072.149    3508.9892     1136.807   -21533.923    -22596.74    86.280892 
   77400    726.20196   -103.31636   0.65708279   -102.65927   -11308.957    4.4195697    4.4195697    4.4195697   -11308.957    65550.874    -43223.24   -56254.504   -6974.0267    12231.293    26531.871    86.325672 
   77500    2362.0698   -104.76711    2.1372504   -102.62986    -3213.092    4.4131108    4.4131108    4.4131108    -3213.092   -31660.323    5648.0744    16372.973   -7339.3593   -32807.077    1793.2194    85.947744 
   77600    1631.2602   -104.11466    1.4759985   -102.63866    729.06467    4.4053323    4.4053323    4.4053323    729.06467    28510.187   -37598.718    11275.726    6634.9621    5387.9981     5906.705    85.494076 
   77700    1182.7847   -103.72308    1.0702085   -102.65287    -7841.403    4.4184106    4.4184106    4.4184106    -7841.403   -35130.826    40955.859   -29349.242   -13358.715   -16793.561    22687.887    86.257768 
   77800    2447.6064   -104.84667    2.2146457   -102.63203   -19786.766    4.4200633    4.4200633    4.4200633   -19786.766   -53502.281   -29900.886    24042.869    3981.3677   -6630.7945   -9366.6878    86.354596 
   77900     1375.594   -103.89041    1.2446663   -102.64574   -23774.265     4.427288     4.427288     4.427288   -23774.265   -15850.112   -18119.484   -37353.198    -2587.645    1924.6315    40414.533    86.778736 
   78000    1482.4233    -103.9779    1.3413277   -102.63657    9868.6115    4.4193168    4.4193168    4.4193168    9868.6115   -52609.964    5152.6459    77063.153   -35114.934   -2129.7408    -19258.46    86.310855 
   78100    2091.0291   -104.52627     1.892007   -102.63426   -9282.8856     4.408764     4.408764     4.408764   -9282.8856   -7662.1306   -40131.295    19944.769        13843    -5408.216     27271.05    85.694029 
   78200    1285.0964   -103.81405    1.1627822   -102.65127   -169.81724    4.4179306    4.4179306    4.4179306   -169.81724    -42602.99    29948.524    12145.014   -24478.175     4195.275    19840.636    86.229661 
   78300    1609.1937   -104.09875    1.4560323   -102.64272    11167.892    4.4281807    4.4281807    4.4281807    11167.892   -40863.391    16276.725    58090.342   -2508.7404    1572.0499    6564.8613    86.831237 
   78400    2013.4313   -104.44589     1.821795    -102.6241   -13823.071    4.4253294    4.4253294    4.4253294   -13823.071   -45255.327   -11484.432    15270.546    2456.2088    3643.2983    17513.395    86.663615 
   78500    1341.7143   -103.84668    1.2140113   -102.63267   -8934.8982    4.4091909    4.4091909    4.4091909   -8934.8982     -53320.7    11822.929    14693.077   -12938.301    6833.2307    -15336.15    85.718924 
   78600    2170.0115   -104.59624     1.963472   -102.63277    8610.7774    4.4048703    4.4048703    4.4048703    8610.7774   -24396.516   -11136.576    61365.425    34218.585   -2275.0218    4773.0616    85.467181 
   78700     1364.714    -103.8878    1.2348219   -102.65298    367.03193    4.4241403    4.4241403    4.4241403    367.03193   -55614.308    21498.028    35217.376   -14807.098    12315.226    2613.4874    86.593774 
   78800    1865.1464   -104.32017    1.6876237   -102.63255   -32445.564    4.4405144    4.4405144    4.4405144   -32445.564   -73340.274   -32843.818    8847.4003    35119.107   -4397.5331   -14572.465    87.558812 
   78900    2170.9829   -104.57536     1.964351   -102.61101     -4186.65    4.4251823    4.4251823    4.4251823     -4186.65   -48638.909    -6282.019    42360.978   -7518.0127    20429.353    8584.9142    86.654974 
   79000    1230.5025   -103.73895    1.1133845   -102.62557   -1140.5367    4.4021712    4.4021712    4.4021712   -1140.5367   -34641.576    6722.7071    24497.258    27371.718   -14171.119   -26020.912    85.310164 
   79100    2229.6903   -104.63601    2.0174706   -102.61854    16468.114    4.4112602    4.4112602    4.4112602    16468.114   -37308.377    26776.321    59936.397   -3465.4108    19410.193    3836.6044     85.83967 
   79200    1188.9542   -103.70836    1.0757907   -102.63256    -32255.38    4.4361416    4.4361416    4.4361416    -32255.38   -56058.019   -11214.279   -29493.843    20248.578   -998.65851   -30210.097    87.300395 
   79300    1728.7766   -104.17977    1.5642334   -102.61553   -9356.8678    4.4293513    4.4293513    4.4293513   -9356.8678   -25647.746   -5090.1693    2667.3118    -11746.49   -8477.5335    3660.3217    86.900121 
   79400     2067.489   -104.48061    1.8707075    -102.6099    2070.9656    4.4079837    4.4079837    4.4079837    2070.9656   -32047.031    7153.7653    31106.163    11610.204   -2476.2966   -8664.8427    85.648535 
   79500    1240.2025    -103.7663    1.1221613   -102.64414   -8935.3441    4.4072142    4.4072142    4.4072142   -8935.3441   -18432.615   -18563.637     10190.22   -7295.6054   -11087.408   -29320.749    85.603687 
   79600    1888.8459   -104.34819    1.7090674   -102.63913    17200.311    4.4267318    4.4267318    4.4267318    17200.311   -39886.805    89535.135    1952.6027   -9840.8677    8725.8739    10337.787    86.746035 
   79700    1039.6653   -103.58582   0.94071101   -102.64511   -16763.616    4.4291035    4.4291035    4.4291035   -16763.616   -60330.631   -5225.3571    15265.141    14666.417   -13642.811   -44377.702    86.885537 
   79800    2169.6123   -104.58434    1.9631108   -102.62123    5709.7403    4.4185936    4.4185936    4.4185936    5709.7403   -30094.347     11665.97    35557.598   -23253.874    1898.9261    16015.688    86.268486 
   79900    1769.2852   -104.22379    1.6008864   -102.62291   -9146.0106    4.4173262    4.4173262    4.4173262   -9146.0106   -29877.576   -25118.435     27557.98    19859.051   -5255.5503   -21351.274    86.194272 
   80000    1755.7122   -104.20836    1.5886053   -102.61975   -12124.159    4.4202367    4.4202367    4.4202367   -12124.159   -42030.685    3412.9467    2245.2618   -29565.041     3476.014    9469.3001    86.364759 
   80100    2002.2759   -104.41773    1.8117013   -102.60603   -21649.808    4.4318674    4.4318674    4.4318674   -21649.808    -12383.34   -35847.157   -16718.926    10961.337    7129.7219    1969.8582    87.048297 
   80200    1843.3339   -104.25342    1.6678872   -102.58554   -27356.684    4.4424985    4.4424985    4.4424985   -27356.684    10253.322   -64680.033   -27643.342     -28148.4    -5065.042    -5729.478    87.676231 
   80300    1742.9881   -104.13824    1.5770923   -102.56115   -19521.877     4.447866     4.447866     4.447866   -19521.877     8639.094   -26419.218   -40785.508    27742.014    2686.8964    6887.6164     87.99441 
   80400    2109.6343   -104.45456    1.9088414   -102.54571   -16343.202    4.4386834    4.4386834    4.4386834   -16343.202   -2269.1246   -13438.948   -33321.533    -12676.56   -19920.198   -3748.9805    87.450539 
   80500    1562.4206   -103.98924     1.413711   -102.57553   -18892.503    4.4143769    4.4143769    4.4143769   -18892.503   -50970.987   -3213.4428   -2493.0778    14725.793    16219.392   -12532.681    86.021744 
   80600    1677.5228   -104.11877    1.5178579   -102.60091    23404.033    4.3990288    4.3990288    4.3990288    23404.033     80522.16   -19198.019    8887.9577   -4532.5284    -20751.23   -9158.4297    85.127608 
   80700    1610.0959   -104.08838    1.4568486   -102.63153   -19950.851    4.4197519    4.4197519    4.4197519   -19950.851   -62671.754    43989.166   -41169.965   -17237.068    34535.753    495.62725    86.336349 
   80800    1442.5435   -103.92663    1.3052437   -102.62138     3529.178    4.4267072    4.4267072    4.4267072     3529.178     47046.23   -14898.211   -21560.485    25711.698    7606.4637   -23905.051    86.744591 
   80900    1902.1836   -104.33335    1.7211357   -102.61222   -20534.651    4.4233985    4.4233985    4.4233985   -20534.651    -54925.19    10387.536     -17066.3   -25611.653    12918.854    8791.8712    86.550226 
   81000    1804.1023   -104.23609    1.6323897    -102.6037    7544.4442    4.4156893    4.4156893    4.4156893    7544.4442     10479.08    14196.574   -2042.3213    20309.775    10923.053   -17082.413    86.098485 
   81100    1548.6229   -104.01332    1.4012266   -102.61209    24095.296    4.3983635    4.3983635    4.3983635    24095.296   -14153.605    24534.988    61904.504   -23607.265    25912.172     3251.666    85.088987 
   81200    1881.2093   -104.33939    1.7021577   -102.63723     -11664.5    4.4104498    4.4104498    4.4104498     -11664.5   -44037.904   -3076.2438    12120.647     24075.64    13483.306   -2511.5264    85.792367 
   81300    2145.2797    -104.5726    1.9410941    -102.6315    21090.098    4.4155325    4.4155325    4.4155325    21090.098    19970.359   -15191.633    58491.566   -20441.387    15715.389   -15283.473    86.089314 
   81400    1198.8381   -103.74357    1.0847339   -102.65884    -20413.72    4.4203419    4.4203419    4.4203419    -20413.72   -75732.569    9309.8869    5181.5228    4482.7544    18428.068    7104.5997    86.370926 
   81500    2361.5681   -104.76007    2.1367965   -102.62327    17745.897    4.4119241    4.4119241    4.4119241    17745.897     57710.34   -13354.336    8881.6869   -4987.8449     3442.589   -19127.675    85.878431 
   81600    1378.7352   -103.88543    1.2475086   -102.63793    -14193.09    4.4111203    4.4111203    4.4111203    -14193.09   -78146.285    21280.099    14286.915   -12603.609    28063.236    2132.5717    85.831499 
   81700    2205.1074   -104.61242    1.9952275   -102.61719   -936.09415    4.4126551    4.4126551    4.4126551   -936.09415    26370.109   -31934.792    2756.4011    6457.6548   -6768.8706    -25347.01    85.921126 
   81800    1168.5699   -103.69368    1.0573466   -102.63634   -7909.6868    4.4091768    4.4091768    4.4091768   -7909.6868   -56450.316    11485.228    21236.027    -28252.33    34622.432   -7494.2725    85.718099 
   81900    2573.2462   -104.94928    2.3283273   -102.62096   -8087.1618    4.4165363    4.4165363    4.4165363   -8087.1618   -18467.601   -34639.008    28845.124    5435.9131   -2760.5121    4033.8495    86.148044 
   82000    1009.5875   -103.55287   0.91349599   -102.63937    5825.6974    4.4122172    4.4122172    4.4122172    5825.6974   -13049.906   -28927.371    59454.369   -25888.649    29101.907   -19734.498    85.895547 
   82100    2116.9612   -104.53689    1.9154709   -102.62142    26765.605    4.4225125    4.4225125    4.4225125    26765.605   -8852.9007    29304.515    59845.202    22098.614    12210.001   -177.61219    86.498228 
   82200    1455.4455   -103.94665    1.3169177   -102.62973   -4265.7657    4.4219326    4.4219326    4.4219326   -4265.7657    -64788.17    35886.805    16104.068   -33811.416     16147.08   -6456.6161    86.464204 
   82300    2069.8541   -104.48446    1.8728475   -102.61161   -3213.3892    4.4035538    4.4035538    4.4035538   -3213.3892   -21421.224   -5131.2693    16912.325    18645.578    18977.821   -7322.8058    85.390571 
   82400    1617.4138   -104.09379      1.46347   -102.63032    5433.7089    4.4164276    4.4164276    4.4164276    5433.7089   -47406.746    22424.962    41282.911   -29736.546    19854.322    1106.2367    86.141682 
   82500    1616.7946   -104.09268    1.4629097   -102.62977   -38066.896    4.4254165    4.4254165    4.4254165   -38066.896   -70221.272    3925.0216   -47904.438   -1834.2254     42519.73     7175.357    86.668736 
   82600    1793.2492   -104.24621    1.6225695   -102.62364    3779.8361    4.4124007    4.4124007    4.4124007    3779.8361    657.64482     14804.03   -4122.1668    845.83256   -8850.1741    -10270.45    85.906267 
   82700    1628.7049    -104.1184    1.4736864   -102.64471    -17386.25    4.4146408    4.4146408    4.4146408    -17386.25   -61353.201    34243.008   -25048.557   -13244.875    35914.993    17097.877     86.03717 
   82800    1821.3636   -104.28229    1.6480081   -102.63428   -6558.9651    4.4270518    4.4270518    4.4270518   -6558.9651   -4109.1374   -11402.952   -4164.8063    21848.303   -4705.4916    -7304.321    86.764846 
   82900    1120.5209    -103.6491    1.0138709   -102.63523   -6874.6302    4.4313188    4.4313188    4.4313188   -6874.6302   -35238.717    57940.037    -43325.21   -16149.386    19081.676    3372.7668    87.015972 
   83000    2619.0257   -104.97674    2.3697495   -102.60699   -17485.319    4.4256361    4.4256361    4.4256361   -17485.319    -40896.46   -8194.0844   -3365.4123    8957.6703   -21657.512   -7118.4012    86.681637 
   83100    969.17258   -103.50647   0.87692772   -102.62954    16036.219    4.4096939    4.4096939    4.4096939    16036.219   -27330.449    107912.91   -32473.807   -9118.3222     40198.63   -8427.3205    85.748261 
   83200    1977.5493   -104.42301    1.7893282   -102.63368    5483.7483    4.4231621    4.4231621    4.4231621    5483.7483   -40819.165    60389.967   -3119.5578   -3266.3633    -41955.24   -7150.4706     86.53635 
   83300     1509.576   -103.99907    1.3658961   -102.63318   -11924.164     4.430773     4.430773     4.430773   -11924.164   -45913.326     74570.58   -64429.744   -15074.523    48869.094    8826.0671    86.983828 
   83400    1575.7633   -104.04346    1.4257837   -102.61768   -16215.452    4.4302164    4.4302164    4.4302164   -16215.452   -46161.968    35858.356   -38342.745    -16308.28   -39615.785    5752.6291    86.951045 
   83500    2410.3099   -104.79029     2.180899   -102.60939   -3805.9896    4.4225959    4.4225959    4.4225959   -3805.9896    -35009.78    20156.158    3435.6525   -1098.6924    21631.323    -5233.093     86.50312 
   83600    1401.7137   -103.89661       1.2683   -102.62831   -3790.7678    4.4176586    4.4176586    4.4176586   -3790.7678    6835.4741    43535.291   -61743.068   -9209.9907   -39769.674   -891.10441    86.213732 
   83700    2297.3907   -104.69693    2.0787274   -102.61821    336.40894    4.4231597    4.4231597    4.4231597    336.40894   -30257.209    37385.093   -6118.6578   -7973.9501    5751.8604    13129.338     86.53621 
   83800    1211.9432   -103.72241    1.0965917   -102.62582     7485.658    4.4371505    4.4371505    4.4371505     7485.658   -19960.132    80601.803   -38184.697    10858.978   -37830.292    -12282.04     87.35997 
   83900     1741.276   -104.17263    1.5755431   -102.59709   -16196.619    4.4389517    4.4389517    4.4389517   -16196.619   -7486.0903   -41521.227    417.46075   -15158.077    10350.432   -14103.408    87.466404 
   84000    2049.3652   -104.44953    1.8543087   -102.59522   -20948.129    4.4198783    4.4198783    4.4198783   -20948.129   -77333.668    25071.246   -10581.964    1058.0672   -67312.492    10598.502    86.343758 
   84100    1370.7516   -103.84655    1.2402849   -102.60627    9167.9218    4.4127622    4.4127622    4.4127622    9167.9218    28900.815   -23765.052    22368.003   -11848.262    15582.998   -12002.092     85.92738 
   84200    1932.2598   -104.36435    1.7483493     -102.616   -1564.7333    4.4164759    4.4164759    4.4164759   -1564.7333   -14569.357     14267.44   -4392.2826    6425.3705   -39145.733    9766.8065    86.144506 
   84300     1492.763   -103.98315    1.3506833   -102.63246   -22339.292     4.432671     4.432671     4.432671   -22339.292    -47358.16   -25618.825    5959.1077   -8506.6675    6281.6676   -3325.4027    87.095656 
   84400    1478.8227   -103.96739    1.3380698   -102.62932   -14223.679    4.4238139    4.4238139    4.4238139   -14223.679    9218.7854   -63410.747    11520.926    1346.1198    2237.0051   -2698.6729    86.574608 
   84500    1673.4595   -104.13546    1.5141813   -102.62128    26495.311    4.4133141    4.4133141    4.4133141    26495.311    12.576619   -15116.473     94589.83    17624.163    13256.923    -1401.117    85.959625 
   84600    1495.7362   -103.98861    1.3533736   -102.63524   -30606.136    4.4290488    4.4290488    4.4290488   -30606.136    30661.426   -78120.354    -44359.48   -1053.5588    4879.7233   -1488.6171     86.88232 
   84700    2432.2842   -104.80027    2.2007819   -102.59949   -21294.837    4.4383969    4.4383969    4.4383969   -21294.837   -19950.631   -68515.018    24581.138    17475.005    6248.0117   -14281.608    87.433607 
   84800    1185.0488   -103.68873     1.072257   -102.61647    478.12068    4.4313494    4.4313494    4.4313494    478.12068    27093.168   -55829.026     30170.22   -4039.2176    10371.191    6247.0532    87.017777 
   84900    1794.4561   -104.24536    1.6236616    -102.6217    18364.454    4.4062933    4.4062933    4.4062933    18364.454    15568.303   -54706.439    94231.496    13886.827    257.31298   -7640.9045     85.55004 
   85000    2412.0209   -104.81848    2.1824472   -102.63603    8736.9096    4.4070761    4.4070761    4.4070761    8736.9096    11052.556   -22205.165    37363.338   -5305.6839    27621.216   -3425.4058    85.595644 
   85100    868.33493   -103.46447    0.7856877   -102.67878    5287.2012    4.4276469    4.4276469    4.4276469    5287.2012     21855.17   -76519.751    70526.185    9760.4399    6561.9678    3099.0541    86.799844 
   85200      2130.65   -104.57222    1.9278569   -102.64436   -35991.975    4.4365721    4.4365721    4.4365721   -35991.975   -67266.805   -33458.404   -7250.7164   -4115.9962   -16478.451   -8793.9669    87.325812 
   85300    1876.2268   -104.31933    1.6976495   -102.62168    13484.152     4.417214     4.417214     4.417214    13484.152    17386.537   -14689.481    37755.401    7432.8558    23156.845   -3651.9143    86.187703 
   85400    989.74495   -103.52951   0.89554203   -102.63397    1123.0339    4.4229479    4.4229479    4.4229479    1123.0339   -29261.817    33282.395   -651.47637    1619.3981   -45983.553   -17365.443    86.523777 
   85500    1863.5774   -104.30017     1.686204   -102.61396    26033.166    4.4279013    4.4279013    4.4279013    26033.166   -10221.088   -8512.1379    96832.724   -14600.941    16622.098    -20057.57    86.814803 
   85600    1292.6727   -103.79563    1.1696374     -102.626    3790.6496    4.4279951    4.4279951    4.4279951    3790.6496     3078.369   -17597.598    25891.178    10678.057   -23303.049   -17107.745    86.820323 
   85700    1435.5619    -103.9286    1.2989266   -102.62967   -8258.3516    4.4344171    4.4344171    4.4344171   -8258.3516     -50221.9   -9754.3005    35201.145   -17242.725    17380.589   -2927.6024     87.19862 
   85800      2469.19   -104.84666     2.234175   -102.61249    -8629.393    4.4227928    4.4227928    4.4227928    -8629.393    -24247.66   -13755.775    12115.256    6946.6203   -20272.533   -22652.032    86.514678 
   85900    1225.7401   -103.74335    1.1090754   -102.63428   -19558.529    4.4126304    4.4126304    4.4126304   -19558.529   -26224.209    5148.0686   -37599.447    -18212.22   -2274.0639    9583.8419    85.919681 
   86000    1894.0923   -104.36277    1.7138145   -102.64896    5041.1581    4.4189315    4.4189315    4.4189315    5041.1581   -29532.964      14864.3    29792.138    5939.7558     19651.46   -570.84056    86.288277 
   86100    1661.7703    -104.1503    1.5036047   -102.64669    742.36966    4.4308623    4.4308623    4.4308623    742.36966   -11041.271    14860.179   -1591.7991   -17839.654   -28228.539    3910.6508    86.989085 
   86200    1405.3342   -103.91478     1.271576   -102.64321    4882.4353    4.4214998    4.4214998    4.4214998    4882.4353    10103.651    38728.264   -34184.609   -657.19527    17761.423   -5869.7821    86.438823 
   86300    2192.1271   -104.62287    1.9834827   -102.63939   -9551.6492    4.4243075    4.4243075    4.4243075   -9551.6492   -44437.623   -30037.525      45820.2    10649.332   -1160.5409   -7208.8308    86.603595 
   86400     2003.225   -104.45315    1.8125601   -102.64059   -11910.176    4.4220915    4.4220915    4.4220915   -11910.176   -33060.392    2633.3028   -5303.4401   -13737.798     1571.191   -7913.3005    86.473529 
   86500    1447.1048   -103.95248    1.3093709    -102.6431    2680.7465    4.4283082    4.4283082    4.4283082    2680.7465    -13614.78   -29236.325    50893.345    8332.0238    -3400.522   -11522.672    86.838742 
   86600    1804.2683   -104.24921    1.6325398   -102.61667   -26286.877    4.4413799    4.4413799    4.4413799   -26286.877   -40889.149   -32945.071   -5026.4099   -22836.697    20772.638    6160.0659    87.610017 
   86700      1519.38   -103.96897    1.3747669   -102.59421   -5610.7999    4.4282304    4.4282304    4.4282304   -5610.7999    15414.182    30411.511   -62658.093    3307.3651    18952.007   -22945.381    86.834165 
   86800    1608.9694   -104.04745    1.4558293   -102.59162   -10249.771    4.4092519    4.4092519    4.4092519   -10249.771   -3844.7927    -48383.84    21479.321    -50393.83   -20046.972    4012.6313    85.722482 
   86900    2126.4985   -104.53954    1.9241005   -102.61544    2391.1496    4.4221278    4.4221278    4.4221278    2391.1496    23969.484    14011.512   -30807.547    7854.1441    23642.085   -14403.617    86.475657 
   87000    1033.2957   -103.55619    0.9349477   -102.62124   -35186.924    4.4497379    4.4497379    4.4497379   -35186.924   -61850.791   -86079.046    42369.063   -57649.348    -5719.619   -4362.3859    88.105557 
   87100    2380.8385   -104.73743    2.1542327    -102.5832    -12874.57    4.4322904    4.4322904    4.4322904    -12874.57   -14613.712   -34800.073    10790.075    26346.848    6940.2373     2084.183    87.073226 
   87200    1122.6625   -103.61302    1.0158087   -102.59722    42443.385     4.406915     4.406915     4.406915    42443.385    62921.319    32216.726    32192.111   -44866.681    11997.196    3616.1786    85.586256 
   87300    1747.4009   -104.19598    1.5810851   -102.61489    7138.8093    4.4170656    4.4170656    4.4170656    7138.8093    10914.161    21100.374   -10598.107    17859.436   -6572.3351    2957.5599    86.179017 
   87400    1730.9944   -104.18787    1.5662401   -102.62163   -20066.804    4.4342925    4.4342925    4.4342925   -20066.804   -55888.012    32027.123   -36339.522    -42471.42    8150.3935   -1691.9842    87.191273 
   87500    1681.2404   -104.14585    1.5212216   -102.62463   -28062.109    4.4298591    4.4298591    4.4298591   -28062.109   -35486.479    -28997.73   -19702.119    -5211.469    -10562.55   -23567.667    86.930011 
   87600    2010.0575   -104.43605    1.8187423   -102.61731    -2169.271    4.4146098    4.4146098    4.4146098    -2169.271    -17156.51    12281.081   -1632.3842    3557.9343   -3633.8592     6933.862     86.03536 
   87700    1239.0634    -103.7633    1.1211306   -102.64217    926.13853    4.4198306    4.4198306    4.4198306    926.13853   -12560.122    22149.971   -6811.4329   -26681.607    2306.3865   -32273.916    86.340959 
   87800    1915.6642   -104.35791    1.7333332   -102.62458    6628.3769    4.4330117    4.4330117    4.4330117    6628.3769   -46610.497    65678.268     817.3602    26150.137   -14310.289    9442.5646    87.115741 
   87900    1201.5492   -103.71868     1.087187   -102.63149   -3585.1016      4.42721      4.42721      4.42721   -3585.1016     24699.78   -29000.997    -6454.087   -13466.559   -3449.7634   -24635.371    86.774148 
   88000    2126.3214   -104.53427    1.9239403   -102.61033    17889.142    4.4198851    4.4198851    4.4198851    17889.142      1497.76   -999.42404    53169.091    4168.6923   -4799.0854   -16068.896    86.344155 
   88100     1789.884    -104.2441    1.6195246   -102.62458   -4325.3171    4.4183523    4.4183523    4.4183523   -4325.3171   -15366.471   -26108.308    28498.828   -6915.6995    3109.3752    -6580.218    86.254353 
   88200    1698.6733   -104.16646    1.5369953   -102.62947   -7911.9507    4.4145222    4.4145222    4.4145222   -7911.9507    15464.543   -48899.919    9699.5232    5658.8697    -5338.601    -40931.02    86.030239 
   88300    1793.5078   -104.24978    1.6228035   -102.62698    1524.6662    4.4338714    4.4338714    4.4338714    1524.6662   -35150.365    20976.512    18747.852   -9115.2427    11034.466    17277.678    87.166431 
   88400    1208.5453   -103.71959    1.0935172   -102.62607   -30628.938    4.4360692    4.4360692    4.4360692   -30628.938    3691.9126   -84612.553   -10966.175   -7412.1108   -16421.909   -60462.433    87.296119 
   88500    2217.0084   -104.59843    2.0059958   -102.59243    22470.996    4.4095324    4.4095324    4.4095324    22470.996   -29545.536    63348.823    33609.701    12384.715    1602.8002    36723.729    85.738842 
   88600    1186.0144   -103.69766    1.0731308   -102.62453    -6399.005    4.4113506    4.4113506    4.4113506    -6399.005   -8573.0258    9833.2522   -20457.241   -12400.129    2341.7828   -61793.565    85.844945 
   88700    2272.2295   -104.68216     2.055961    -102.6262   -13216.642    4.4242254    4.4242254    4.4242254   -13216.642   -45485.397   -15084.956    20920.426    26926.227   -4483.2999    6002.3108    86.598775 
   88800    1714.7774   -104.18876    1.5515666   -102.63719   -13608.665    4.4252851    4.4252851    4.4252851   -13608.665   -10468.693    9981.8371    -40339.14   -8810.4128    4126.5601   -51702.928    86.661012 
   88900    1693.9347   -104.16766    1.5327077   -102.63495    2617.6208    4.4237158    4.4237158    4.4237158    2617.6208   -10673.275   -37805.597    56331.735    18519.523   -3779.2156   -13839.884    86.568849 
   89000    1770.6499     -104.228    1.6021213   -102.62588   -10403.251    4.4279044    4.4279044    4.4279044   -10403.251    -14043.55    10142.005   -27308.206    15234.564    4025.6669   -25111.261    86.814988 
   89100     1751.011   -104.20567    1.5843515   -102.62132   -11882.372    4.4201644    4.4201644    4.4201644   -11882.372   -21675.225   -53033.291      39061.4    -12990.25    5222.7819   -32273.495    86.360525 
   89200    2045.6986     -104.467     1.850991   -102.61601     12979.49    4.4167936    4.4167936    4.4167936     12979.49   -15814.925    27390.605    27362.789    20100.121   -11555.467    2180.5222    86.163098 
   89300    1260.8869   -103.79019     1.140877   -102.64931   -8453.2641    4.4200638    4.4200638    4.4200638   -8453.2641   -29218.633   -44253.004    48111.845   -32447.438   -3521.6982   -36072.424    86.354628 
   89400    2112.6957   -104.54808    1.9116114   -102.63647    4051.1278    4.4148862    4.4148862    4.4148862    4051.1278    -16498.18    27831.735    819.82821    12295.496    -23919.18    4500.4652    86.051516 
   89500    1250.7061   -103.77893    1.1316652   -102.64727    1994.7349    4.4139508    4.4139508    4.4139508    1994.7349    18827.679   -12507.079    -336.3958   -12171.377    7443.7467   -29887.802    85.996833 
   89600    1712.8569   -104.16708    1.5498289   -102.61725    -14704.02    4.4324623    4.4324623    4.4324623    -14704.02   -52004.991     12964.48   -5071.5473   -22410.404   -18540.555    10374.066    87.083356 
   89700    1705.2372   -104.14782    1.5429344   -102.60488   -21913.677    4.4215125    4.4215125    4.4215125   -21913.677    63566.428    -70215.45   -59092.009    17259.729    7422.9905   -48648.917    86.439565 
   89800    1702.0669   -104.13728    1.5400659   -102.59721   -14193.333    4.4079427    4.4079427    4.4079427   -14193.333    -39347.82    5935.3872   -9167.5658   -50026.081   -8817.8859    23727.071    85.646144 
   89900    1555.3425   -104.01905    1.4073065   -102.61174   -8300.5745    4.4109666    4.4109666    4.4109666   -8300.5745    40166.404   -17014.757   -48053.371    11888.786   -13136.464   -54341.345    85.822527 
   90000    1954.1269      -104.39     1.768135   -102.62186   -6746.8203    4.4162824    4.4162824    4.4162824   -6746.8203   -16989.749   -1237.7925   -2012.9197   -26512.072    159.15565    19056.695    86.133188 
   90100    1351.5551   -103.85949    1.2229155   -102.63658   -20686.174    4.4249501    4.4249501    4.4249501   -20686.174    3437.8581   -17695.051   -47801.329    7372.9502   -11650.927   -52298.298    86.641333 
   90200    1891.0228   -104.32777    1.7110372   -102.61673    16021.114     4.423232     4.423232     4.423232    16021.114    32290.296    31760.024   -15986.979    -19822.78    -2879.846   -3013.2733    86.540454 
   90300    1502.8497   -103.97427      1.35981   -102.61446   -14721.277    4.4250814    4.4250814    4.4250814   -14721.277    40415.005   -38555.787    -46023.05   -14399.038   -17758.523   -42817.067    86.649048 
   90400    1725.6463   -104.15728     1.561401   -102.59587     19281.72    4.4319741    4.4319741    4.4319741     19281.72     52645.62    35697.071   -30497.531    -14009.77   -6036.8599   -4008.9763    87.054583 
   90500    1428.8753   -103.87753    1.2928764   -102.58466   -6484.8063    4.4399689    4.4399689    4.4399689   -6484.8063    37020.342    2656.4982   -59131.259   -27640.415   -19747.021    -41258.19    87.526547 
   90600     2124.422     -104.468    1.9222216   -102.54578   -6152.7689     4.442509     4.442509     4.442509   -6152.7689   -954.02036    21876.323   -39380.609    313.65461   -5100.5151    4644.0964    87.676855 
   90700    1337.0625   -103.77702    1.2098023   -102.56722   -14777.008    4.4200151    4.4200151    4.4200151   -14777.008    10592.359   -3027.3264   -51896.057   -41640.992   -9427.6879   -45787.215    86.351771 
   90800    1665.4902   -104.09482    1.5069705   -102.58785    38761.961    4.3901141    4.3901141    4.3901141    38761.961    71678.661    57036.236   -12429.016    12370.844   -21649.974    2174.2353    84.611119 
   90900    1917.1945   -104.36429    1.7347179   -102.62958    19880.389    4.3916266    4.3916266    4.3916266    19880.389    51707.627    13084.618   -5151.0775   -30326.712   -717.67457   -18306.435    84.698596 
   91000    1400.1827   -103.93353    1.2669147   -102.66662    7298.3487    4.4265582    4.4265582    4.4265582    7298.3487    19325.521     40248.66   -37679.135   -6788.3145   -35697.935   -21410.853    86.735831 
   91100    1967.4417   -104.39282    1.7801826   -102.61263   -36846.301    4.4379667    4.4379667    4.4379667   -36846.301   -37435.875   -49782.968    -23320.06   -28858.564    2372.8207    3203.2309    87.408185 
   91200    1397.6193   -103.87346    1.2645953   -102.60886    9360.6748    4.4042536    4.4042536    4.4042536    9360.6748    20406.015    36742.052   -29066.043   -16249.234   -16480.974   -30287.302     85.43129 
   91300    2178.7072   -104.56933    1.9713401   -102.59799    15931.901    4.4020054    4.4020054    4.4020054    15931.901   -2023.3277    18865.626    30953.404    -14551.41   -15220.902     15331.72    85.300525 
   91400    1067.1309   -103.60125   0.96556248   -102.63569    7747.2374    4.4056664    4.4056664    4.4056664    7747.2374    12582.403   -17235.578    27894.887   -26983.805   -3470.2815   -36044.858    85.513527 
   91500    2324.5462   -104.72393    2.1032982   -102.62064   -1379.3333    4.4284075    4.4284075    4.4284075   -1379.3333     20258.89   -3587.6348   -20809.255    3789.6432   -7133.6317    15905.877    86.844581 
   91600    1525.4874   -103.99133    1.3802931   -102.61103   -55414.019    4.4415295    4.4415295    4.4415295   -55414.019   -65157.378   -79862.645   -21222.033   -35934.093     2585.243   -33668.434    87.618868 
   91700    2097.3189   -104.48252    1.8976982   -102.58482   -1137.1714    4.4163714    4.4163714    4.4163714   -1137.1714    24621.489   -3708.4721   -24324.531     4246.407   -21648.715    14750.634     86.13839 
   91800     2046.935   -104.43643    1.8521098   -102.58432   -27707.484    4.4074452    4.4074452    4.4074452   -27707.484   -13960.836   -58057.172   -11104.445   -27134.367    19424.249    1779.7749    85.617151 
   91900    1642.2991   -104.09379    1.4859867    -102.6078    5825.2285    4.4165014    4.4165014    4.4165014    5825.2285    13507.226    11234.953   -7266.4932   -3981.4511   -32838.839   -12492.358       86.146 
   92000    2058.9271   -104.47193    1.8629605   -102.60897   -14724.394    4.4290785    4.4290785    4.4290785   -14724.394    18990.544   -49952.307   -13211.418   -16256.647    5074.6271     26514.36    86.884067 
   92100    1516.9004   -103.98158    1.3725233   -102.60905    9334.0324    4.4281699    4.4281699    4.4281699    9334.0324    44948.129    8368.6852   -25314.717   -8783.1473   -21743.006   -9966.9572    86.830608 
   92200    1795.9663    -104.2287    1.6250281   -102.60367   -13933.747    4.4221989    4.4221989    4.4221989   -13933.747   -37569.256   -1417.6998   -2814.2857   -1063.3632    4953.1724    18740.221    86.479826 
   92300    1831.6976   -104.26315    1.6573585   -102.60579   -4944.2721    4.4077989    4.4077989    4.4077989   -4944.2721    41747.688   -4328.3691   -52252.135    -13674.04   -18834.789   -12805.694    85.637763 
   92400    1730.0121   -104.18836    1.5653513   -102.62301   -8620.8301    4.4056413    4.4056413    4.4056413   -8620.8301   -25877.773   -3066.1359    3081.4191     23001.08   -4231.2467    4888.0131    85.512068 
   92500     1790.739   -104.25201    1.6202982   -102.63172    -11080.23    4.4188131    4.4188131    4.4188131    -11080.23   -11205.768    631.99243   -22666.914   -17237.124   -7835.4617   -2958.1337    86.281346 
   92600    1757.5811   -104.21802    1.5902963   -102.62772   -16872.796     4.430558     4.430558     4.430558   -16872.796   -26071.809     1441.232   -25987.812    28912.904   -16875.929    1876.8448    86.971162 
   92700    1375.7384    -103.8586     1.244797    -102.6138   -26990.823    4.4303202    4.4303202    4.4303202   -26990.823   -31892.881   -27728.405   -21351.183   -15884.609    -5924.888    20250.066    86.957163 
   92800    2225.5268   -104.60199    2.0137034   -102.58829    3154.6027    4.4159783    4.4159783    4.4159783    3154.6027    3092.0383   -1450.5713    7822.3412    23816.321   -21647.218   -8161.1397    86.115391 
   92900    1418.6025   -103.88767    1.2835813   -102.60409   -21530.456    4.4238297    4.4238297    4.4238297   -21530.456   -39525.974   -25969.852     904.4586    1584.6318    1959.7981    36820.955     86.57554 
   93000    2098.6396   -104.49299    1.8988932    -102.5941   -4516.9034    4.4146377    4.4146377    4.4146377   -4516.9034   -35694.563    21758.912    384.94008    -7458.134   -30773.593   -18013.337    86.036988 
   93100     1331.292   -103.82715    1.2045809   -102.62257   -3692.0528    4.4024898    4.4024898    4.4024898   -3692.0528    10900.475   -26817.281    4840.6475    41273.651   -854.18036     36645.75    85.328689 
   93200    1962.1609   -104.39836    1.7754044   -102.62295     12126.87    4.4175713    4.4175713    4.4175713     12126.87   -5906.5159    68411.694   -26124.569   -16475.882   -16788.488   -2171.1969    86.208621 
   93300    1339.4736    -103.8403    1.2119838   -102.62831   -51227.493    4.4263503    4.4263503    4.4263503   -51227.493   -54614.398   -79486.176   -19581.905    71951.781   -4554.0167   -1201.6099     86.72361 
   93400     1962.834   -104.37975    1.7760134   -102.60374    19324.726    4.4209734    4.4209734    4.4209734    19324.726    33051.556    34393.291   -9470.6687   -30831.993   -4904.8431   -3.6767469    86.407952 
   93500    1296.7298   -103.79099    1.1733084   -102.61768   -33629.947    4.4200823    4.4200823    4.4200823   -33629.947   -51890.211   -27780.559   -21219.073    58142.755    -31619.32   -4282.4243    86.355713 
   93600    2003.1835   -104.42316    1.8125225   -102.61064    10766.324    4.3982153    4.3982153    4.3982153    10766.324     6837.749     21381.37    4079.8529    10461.385    7474.4209   -2406.5151    85.080389 
   93700     1487.739   -103.98202    1.3461375   -102.63588   -2260.0362    4.4059809    4.4059809    4.4059809   -2260.0362   -9694.5169    4252.6604   -1338.2522   -3079.0868   -10519.968   -11436.675    85.531843 
   93800    1565.6641   -104.03883    1.4166458   -102.62219    9226.0531    4.4255611    4.4255611    4.4255611    9226.0531     12431.09   -9811.0122    25058.082    33334.618   -13532.009   -9370.1368    86.677228 
   93900    1792.0421   -104.22887    1.6214774   -102.60739   -7733.4584    4.4265573    4.4265573    4.4265573   -7733.4584    -19423.96    7533.1551    -11309.57   -34574.466    1124.7292   -2194.5471    86.735779 
   94000    1911.1824   -104.31492     1.729278   -102.58564   -14404.135    4.4283925    4.4283925    4.4283925   -14404.135   -15617.561   -26048.495   -1546.3497    40716.931    2441.6687   -25912.721    86.843702 
   94100    1212.7525   -103.69089     1.097324   -102.59356   -10075.305    4.4145853    4.4145853    4.4145853   -10075.305   -15547.446   -15791.092    1112.6241   -45683.326    8182.3099   -14379.767    86.033925 
   94200    2401.8827   -104.76434    2.1732739   -102.59107    19353.314    4.4013191    4.4013191    4.4013191    19353.314    19377.526    -5853.784    44536.201     23636.64   -5166.7828    7618.4074    85.260637 
   94300     784.8897   -103.34695    0.7101847   -102.63677    14514.636     4.407851     4.407851     4.407851    14514.636    3262.8937   -18343.977    58624.991   -28103.372   -558.82955   -19159.303    85.640802 
   94400    2243.7766    -104.6561    2.0302163   -102.62588    5966.7974    4.4288563    4.4288563    4.4288563    5966.7974   -12091.073    7592.7777    22398.687    7177.7115   -6400.5166    17826.595    86.870987 
   94500    1426.0261   -103.89554    1.2902984   -102.60524   -58128.803    4.4439901    4.4439901    4.4439901   -58128.803   -55133.247   -69406.693   -49846.468    -34301.72   -9997.3433   -24458.009    87.764574 
   94600    1317.0015   -103.80444    1.1916506   -102.61279    14419.368    4.4044866    4.4044866    4.4044866    14419.368    -37172.56   -525.20714    80955.872   -27423.407    2338.1842   -5493.5762    85.444845 
   94700    2013.6771    -104.4247    1.8220173   -102.60269    31253.249    4.3754769    4.3754769    4.3754769    31253.249    43117.704    2677.1251    47964.919     17037.35    701.95652   -16976.345    83.767623 
   94800    1214.6143   -103.75702    1.0990086   -102.65801    12753.042    4.4047907    4.4047907    4.4047907    12753.042   -32180.688    20970.054     49469.76   -44695.323    4894.8448    1200.0484    85.462545 
   94900    2047.2741    -104.4749    1.8524166   -102.62249    -19329.54    4.4433886    4.4433886    4.4433886    -19329.54    6111.1137   -56042.802   -8056.9334     52864.44   -425.63063    8272.5571    87.728941 
   95000    1651.8975   -104.08816    1.4946716   -102.59348   -22397.503    4.4422393    4.4422393    4.4422393   -22397.503   -45206.839   -16996.535   -4989.1361   -58842.448     1729.246     -13815.3    87.660885 
   95100    2014.9318   -104.41338    1.8231527   -102.59023    11781.044    4.3973113    4.3973113    4.3973113    11781.044    17834.069   -4808.5246    22317.589    60362.348    11259.871    16947.351    85.027936 
   95200    1583.8375   -104.03096    1.4330894   -102.59787    44842.567     4.376544     4.376544     4.376544    44842.567    35875.186    48250.962    50401.552   -51610.075   -6163.4087   -25060.693    83.828922 
   95300     1603.275   -104.09418    1.4506769   -102.64351   -48.497569    4.4082353    4.4082353    4.4082353   -48.497569    35344.778   -43746.036     8255.765    15531.488    13208.202    11391.069    85.663202 
   95400    1864.4817   -104.33081    1.6870222   -102.64379   -22655.478     4.428202     4.428202     4.428202   -22655.478    -26866.01   -38810.331   -2290.0945   -6133.6817   -8953.2184   -7873.1432    86.832495 
   95500    1667.0091   -104.13873    1.5083448   -102.63038   -13758.106    4.4293446    4.4293446    4.4293446   -13758.106   -23438.954   -38704.173    20868.811   -31070.094    7681.5011   -766.50603    86.899729 
   95600    1705.0984   -104.14831    1.5428089    -102.6055    25729.125    4.4045272    4.4045272    4.4045272    25729.125    106301.37   -22100.407   -7013.5861    3950.6754     7140.017   -15789.322    85.447208 
   95700    1522.4981    -103.9997    1.3775883   -102.62211   -19048.182    4.3885514    4.3885514    4.3885514   -19048.182    23339.517   -64936.967   -15547.096    -50381.87    -4955.756    534.17005    84.520792 
   95800    2244.5704   -104.67108    2.0309345   -102.64015    11781.805     4.402915     4.402915     4.402915    11781.805     50155.29   -3679.5152   -11130.359    23609.261    7023.8511     12619.49    85.353415 
   95900    917.34245   -103.49029   0.83003073   -102.66026   -25403.914    4.4298882    4.4298882    4.4298882   -25403.914   -4964.4157   -55033.259   -16214.067   -37833.572    7736.6602    -36912.77    86.931726 
   96000    1861.7299   -104.30253    1.6845323     -102.618   -12642.976    4.4265984    4.4265984    4.4265984   -12642.976   -18372.979   -7361.5325   -12194.417    11861.362   -7564.5364    26404.563     86.73819 
   96100    1537.3879   -104.00157    1.3910609    -102.6105    8756.5736    4.4055754    4.4055754    4.4055754    8756.5736   -11229.597    -56565.32    94064.638   -21531.766    9273.2098   -20711.699    85.508231 
   96200    1529.9503   -104.01305    1.3843312   -102.62871   -4651.2905    4.3921524    4.3921524    4.3921524   -4651.2905    29852.983   -26521.389   -17285.465    1162.1194    1808.7264    20275.526    84.729023 
   96300    1735.2311   -104.22316    1.5700736   -102.65308    18709.008     4.404035     4.404035     4.404035    18709.008    -23468.69   -17802.957    97398.672    16563.726   -12473.462    3145.5064    85.418569 
   96400    1823.7031   -104.30049    1.6501249   -102.65037    -24745.17    4.4248403    4.4248403    4.4248403    -24745.17   -7719.2469   -64332.997   -2183.2678   -24694.636     590.4375     10743.58    86.634887 
   96500    1322.3059   -103.84097    1.1964502   -102.64452   -10716.345    4.4152799    4.4152799    4.4152799   -10716.345    -28254.98   -70260.683    66366.629    54988.204   -7400.5285    14519.314    86.074543 
   96600    2469.3761   -104.85156    2.2343434   -102.61722    32742.524    4.4047505    4.4047505    4.4047505    32742.524    37765.999   -24757.129      85218.7   -16605.398   -14591.109   -6780.5258    85.460206 
   96700    805.62826   -103.38634   0.72894938   -102.65739   -9716.1837    4.4020828    4.4020828    4.4020828   -9716.1837     23903.08   -88377.223    35325.592     51796.84   -90.830842    26157.215    85.305024 
   96800    2683.5657   -105.06523    2.4281467   -102.63708   -533.03938     4.416659     4.416659     4.416659   -533.03938   -1478.5537   -43219.363    43098.799   -11203.657   -16889.749   -21677.917    86.155222 
   96900     1604.925   -104.08798    1.4521699   -102.63581   -44123.993    4.4294405    4.4294405    4.4294405   -44123.993   -32632.716   -101529.18    1789.9131    51141.745    -7058.112    21328.366     86.90537 
   97000    1663.9387   -104.12663    1.5055667   -102.62106    13641.159    4.4020188    4.4020188    4.4020188    13641.159    5848.7103   -43410.629    78485.394   -20861.866   -2748.4842   -7899.6274    85.301306 
   97100    2127.0638   -104.54817     1.924612   -102.62355   -1887.7685    4.3920669    4.3920669    4.3920669   -1887.7685   -44222.452   -40786.935    79346.082     14489.12      6310.48    3639.9212    84.724073 
   97200    1624.4705   -104.11942     1.469855   -102.64957    8626.0309    4.4003429    4.4003429    4.4003429    8626.0309   -9011.0036    -46465.92    81355.016   -4252.4258    -1351.063    36727.981    85.203916 
   97300    1659.0027   -104.16919    1.5011005   -102.66809   -12662.861    4.4250625    4.4250625    4.4250625   -12662.861   -45149.824    -49540.18    56701.421   -22717.132   -1921.6509   -25838.051    86.647935 
   97400    1995.0016   -104.43927    1.8051194   -102.63415    8067.5523    4.4287528    4.4287528    4.4287528    8067.5523   -21101.209   -48660.259    93964.125   -5406.5961   -23527.857    27598.519    86.864897 
   97500     1181.672   -103.70797    1.0692017   -102.63877   -35785.225    4.4230972    4.4230972    4.4230972   -35785.225    6297.7433   -90628.828    -23024.59   -27825.143    3871.4878   -38929.194    86.532538 
   97600    2338.0525   -104.71902    2.1155191    -102.6035    31872.856     4.397653     4.397653     4.397653    31872.856    14606.012   -9103.9783    90116.534    6550.5243    2985.3936   -4321.1509    85.047759 
   97700    1168.8681   -103.69003    1.0576164   -102.63241   -18808.292     4.394944     4.394944     4.394944   -18808.292   -6500.4581    -37451.38   -12473.038   -36471.633   -8255.1238    3297.6054    84.890686 
   97800    2164.3257   -104.58792    1.9583274    -102.6296    9551.1107    4.4167089    4.4167089    4.4167089    9551.1107    4304.8098   -10996.763    35345.285    18525.636   -4639.7165   -16504.096    86.158141 
   97900    933.98624   -103.47951   0.84509038   -102.63442   -17176.564    4.4381595    4.4381595    4.4381595   -17176.564   -1264.6316   -44015.002   -6250.0585   -27704.351   -103.06439    27072.081    87.419581 
   98000    2083.8925   -104.47548    1.8855498   -102.58993   -298.06551    4.4272785    4.4272785    4.4272785   -298.06551    418.16621    7081.5256   -8393.8884    21773.572    906.14696    -24152.83     86.77818 
   98100    1334.4057   -103.80478    1.2073983   -102.59739    4119.0025    4.3959853    4.3959853    4.3959853    4119.0025    -23310.89   -54409.328    90077.225   -14793.451   -6114.7164    34272.505    84.951041 
   98200    1846.5989    -104.2777    1.6708415   -102.60686    39788.962    4.3971116    4.3971116    4.3971116    39788.962    25705.556    57467.764    36193.564   -2185.1498   -6205.0087   -12079.716    85.016352 
   98300    1613.8273   -104.08487    1.4602249   -102.62465   -32482.487    4.4217166    4.4217166    4.4217166   -32482.487   -75917.194   -60644.673    39114.405    22076.317    -4174.831    6084.7753    86.451538 
   98400    1574.1257   -104.05016     1.424302   -102.62586    10726.563    4.4246088    4.4246088    4.4246088    10726.563   -8098.0687    15449.296    24828.463    -19138.87    8086.7715    9365.5751    86.621286 
   98500    1751.3411   -104.20522    1.5846502   -102.62057   -213.01223    4.4105592    4.4105592    4.4105592   -213.01223   -42822.757    7422.8937    34760.827    40737.369   -11027.961    -12716.76    85.798751 
   98600    1267.5271   -103.77621    1.1468852   -102.62933    6751.6307    4.3991647    4.3991647    4.3991647    6751.6307    379.61633   -23037.232    42912.508   -44154.527    6784.5427    29579.549    85.135496 
   98700    2131.3199     -104.554     1.928463   -102.62554    14190.584    4.4083638    4.4083638    4.4083638    14190.584   -26825.926     33224.72    36172.959    31469.149   -11830.346   -29167.888    85.670692 
   98800    1267.1843    -103.7874     1.146575   -102.64083   -22755.259    4.4206903    4.4206903    4.4206903   -22755.259   -36419.752   -40572.192    8726.1656   -31368.946    6167.3647     26836.12    86.391354 
   98900    2077.2754   -104.49687    1.8795625   -102.61731    19922.443    4.4149068    4.4149068    4.4149068    19922.443    16403.372    57133.939   -13769.981    20237.174    -9326.672   -37873.157    86.052721 
   99000    1640.4045    -104.0999    1.4842724   -102.61562   -30826.049    4.4109012    4.4109012    4.4109012   -30826.049   -61712.329   -36062.007    5296.1893   -40160.511    6700.5502    22747.731    85.818711 
   99100    2167.9556   -104.56605    1.9616118   -102.60444   -596.63172    4.4036272    4.4036272    4.4036272   -596.63172     -4481.54    23597.912   -20906.268     3036.887   -513.48895   -27847.251    85.394841 
   99200    1197.6435   -103.70665     1.083653     -102.623   -16251.546    4.4124776    4.4124776    4.4124776   -16251.546   -45955.027   -19143.707    16344.096   -37863.961   -6146.0274   -7982.8725    85.910759 
   99300    2425.6935   -104.79559    2.1948185   -102.60077   -2415.6479    4.4168578    4.4168578    4.4168578   -2415.6479   -11604.471   -8344.0849    12701.613    8872.5089     6298.615   -7271.9656    86.166857 
   99400    869.75693   -103.41439   0.78697435   -102.62742    20244.949    4.4010799    4.4010799    4.4010799    20244.949   -12221.898    4833.9302    68122.815   -46497.922    327.55165   -36428.467    85.246737 
   99500    2472.0982    -104.8593    2.2368064   -102.62249    14275.816    4.4075252    4.4075252    4.4075252    14275.816   -42588.733    46697.534    38718.647    12841.379   -3237.1442   -4595.2304    85.621811 
   99600    1333.1259   -103.83995    1.2062403   -102.63371    1473.7855    4.4136874    4.4136874    4.4136874    1473.7855   -28977.964    6732.1802    26667.141   -34057.311   -1637.1552   -25932.194    85.981439 
   99700    1973.9279   -104.41781    1.7860514   -102.63176   -828.01608    4.4088497    4.4088497    4.4088497   -828.01608   -16481.629    7770.2122     6227.369   -12461.954   -8212.1696   -8425.0305    85.699025 
   99800    1818.4666   -104.28133    1.6453868   -102.63594   -7599.1995     4.409501     4.409501     4.409501   -7599.1995   -14306.557   -2350.8114   -6140.2305   -10981.408    6738.9197    701.25959    85.737008 
   99900    1273.6806   -103.78981     1.152453   -102.63736    16585.278    4.4124867    4.4124867    4.4124867    16585.278    10148.888    3783.1318    35823.815   -42296.634   -1813.1247   -13791.105     85.91129 
  100000    2246.4953   -104.64433    2.0326762   -102.61165   -10517.106    4.4203002    4.4203002    4.4203002   -10517.106   -5043.4407   -10634.586   -15873.292    7537.6214    1138.0395    2985.9046    86.368486 
Loop time of 21.0789 on 1 procs for 100000 steps with 8 atoms

Pair  time (%) = 6.17173 (29.2792)
Kspce time (%) = 5.28837 (25.0885)
Neigh time (%) = 0.199959 (0.948625)
Comm  time (%) = 0.820037 (3.89033)
Outpt time (%) = 0.0213358 (0.101219)
Other time (%) = 8.57743 (40.6921)

Nlocal:    8 ave 8 max 8 min
Histogram: 1 0 0 0 0 0 0 0 0 0
Nghost:    1618 ave 1618 max 1618 min
Histogram: 1 0 0 0 0 0 0 0 0 0
Neighs:    2023 ave 2023 max 2023 min
Histogram: 1 0 0 0 0 0 0 0 0 0

Total # of neighbors = 2023
Ave neighs/atom = 252.875
Neighbor list builds = 2791
Dangerous builds = 0
unfix 20
unfix 21
print "seeds:9561633"
seeds:9561633
