LAMMPS (10 Feb 2015)
# ---- initialize simulations
clear
units metal
dimension 3
boundary p p p
atom_style charge
atom_modify map array
# ---- create atoms
read_data /Users/eugeneragasa/pyflamestk_git/pypospack/tests/tests_integration/workflow/WorkflowLammpsThermalExpansion/param_4537/MgO_NaCl_unit.npt.T600/lammps.structure
  triclinic box = (0 0 0) to (4.2565 4.2565 4.2565) with tilt (0 0 0)
  1 by 1 by 1 MPI processor grid
  reading atoms ...
  8 atoms
# ---- define interatomic potential
include potential.mod
mass 1 24.305
mass 2 15.999

group Mg type 1
4 atoms in group Mg
group O type 2
4 atoms in group O

set group Mg charge 1.68595133453
  4 settings made for charge
set group O charge -1.68595133453
  4 settings made for charge

variable R_cut equal 10.0

pair_style buck/coul/long ${R_cut}
pair_style buck/coul/long 10
pair_coeff 1 1 0.0 0.5 0.0 ${R_cut}
pair_coeff 1 1 0.0 0.5 0.0 10
pair_coeff 1 2 1257.74769115 0.28905643469 0.0 ${R_cut}
pair_coeff 1 2 1257.74769115 0.28905643469 0.0 10
pair_coeff 2 2 3064.42109336 0.236064465148 18.7313535189 ${R_cut}
pair_coeff 2 2 3064.42109336 0.236064465148 18.7313535189 10

kspace_style pppm 1.0e-5

neighbor 1.0 bin
neigh_modify every 1 delay 0 check yes
# ---- define settings
compute eng all pe/atom
compute eatoms all reduce sum c_eng
# ---- run minimization
reset_timestep 0
fix 1 all box/relax iso 0.0 vmax 0.001
thermo 10
thermo_style custom step pe lx ly lz xy xz yz press pxx pyy pzz pxy pxz pyz c_eatoms
min_style cg
minimize 1e-25 1e-25 5000 10000
PPPM initialization ...
  G vector (1/distance) = 0.353047
  grid = 8 8 8
  stencil order = 5
  estimated absolute RMS force accuracy = 4.05219e-05
  estimated relative force accuracy = 2.81409e-06
  using double precision FFTs
  3d grid and FFT values/proc = 3375 512
Neighbor list info ...
  1 neighbor list requests
  update every 1 steps, delay 0 steps, check yes
  master list distance cutoff = 11
Memory usage per processor = 4.06549 Mbytes
Step PotEng Lx Ly Lz Xy Xz Yz Press Pxx Pyy Pzz Pxy Pxz Pyz eatoms 
       0   -115.66496       4.2565       4.2565       4.2565            0            0            0    45758.215    45758.215    45758.215    45758.215 1.7170796e-11 2.2312869e-10 1.3064853e-10   -115.66496 
      10   -115.69248    4.2933032    4.2933032    4.2933032            0            0            0   -6.7922673   -6.7922673   -6.7922673   -6.7922673 -6.3857142e-11 -7.0573166e-11 -5.8083176e-11   -115.69248 
      13    -115.6925     4.293297     4.293297     4.293297            0            0            0   0.20218487   0.20218487   0.20218487   0.20218487 1.6450748e-10 -9.163684e-11 -3.6202501e-11    -115.6925 
Loop time of 0.00658321 on 1 procs for 13 steps with 8 atoms

Minimization stats:
  Stopping criterion = linesearch alpha is zero
  Energy initial, next-to-last, final = 
        -115.664963059     -115.692495365     -115.692495365
  Force two-norm initial, final = 6.60751 4.45929e-05
  Force max component initial, final = 6.60751 2.97026e-05
  Final line search alpha, max atom move = 0.5 1.48513e-05
  Iterations, force evaluations = 13 19

Pair  time (%) = 0.00173855 (26.4088)
Kspce time (%) = 0.00107431 (16.319)
Neigh time (%) = 0 (0)
Comm  time (%) = 0.000215292 (3.27032)
Outpt time (%) = 2.09808e-05 (0.318702)
Other time (%) = 0.00353408 (53.6832)

Nlocal:    8 ave 8 max 8 min
Histogram: 1 0 0 0 0 0 0 0 0 0
Nghost:    2189 ave 2189 max 2189 min
Histogram: 1 0 0 0 0 0 0 0 0 0
Neighs:    2344 ave 2344 max 2344 min
Histogram: 1 0 0 0 0 0 0 0 0 0

Total # of neighbors = 2344
Ave neighs/atom = 293
Neighbor list builds = 0
Dangerous builds = 0
unfix 1
# ---- define output variables ----
variable natoms equal "count(all)"
variable tot_energy equal "c_eatoms"
variable length_x equal "lx"
variable length_y equal "ly"
variable length_z equal "lz"
variable tilt_xy equal "xy"
variable tilt_xz equal "xz"
variable tilt_yz equal "yz"
variable tot_press equal "press"
variable press_xx equal "pxx"
variable press_yy equal "pyy"
variable press_zz equal "pzz"
variable press_xy equal "pxy"
variable press_xz equal "pxz"
variable press_yz equal "pyz"

# ---- output ----
print "pypospack:output_section:begin"
pypospack:output_section:begin
print "tot_energy = ${tot_energy}"
tot_energy = -115.692495364628
print "num_atoms = ${natoms}"
num_atoms = 8
print "xx = ${length_x}"
xx = 4.29329700926666
print "yy = ${length_y}"
yy = 4.29329700926666
print "zz = ${length_z}"
zz = 4.29329700926666
print "xy = ${tilt_xy}"
xy = 0
print "xz = ${tilt_xz}"
xz = 0
print "yz = ${tilt_yz}"
yz = 0
print "tot_press = ${tot_press}"
tot_press = 0.202184869803092
print "pxx = ${press_xx}"
pxx = 0.202184869911938
print "pyy = ${press_yy}"
pyy = 0.202184869729888
print "pzz = ${press_zz}"
pzz = 0.20218486976745
print "pxy = ${press_xy}"
pxy = 1.64507477572858e-10
print "pxz = ${press_xz}"
pxz = -9.16368397176372e-11
print "pyz = ${press_yz}"
pyz = -3.62025011042311e-11
print "pypospack:output_section:done"
pypospack:output_section:done
print "pypospack:lammps_sim:done"
pypospack:lammps_sim:done
#------------------------------------------------------------------------------
# RUN THERMOSTAT
# running using an NPT Nose-Hoover style thermostat
#------------------------------------------------------------------------------
variable tempdamp equal 0.1
variable pressdamp equal 1.0
# set initial velocities
velocity all create 600 5274861 mom yes dist gaussian loop all
# fix for Nose-Hoover style thermostat
fix 20 all npt temp 600 600 0.1 aniso 0.0 0.0 1.0 drag 1.0 couple xyz
variable boxx equal lx
variable boxy equal ly
variable boxz equal lz
variable boxp equal press
variable boxt equal temp
# calculate averages every 10000 steps
reset_timestep 0
fix 21 all ave/time 10 10 100 v_boxx v_boxy v_boxz v_boxp v_boxt file lattice.out
thermo_style custom step temp pe ke etotal press lx ly lz press pxx pyy pzz pxy pxz pyz vol
thermo_modify flush yes
thermo 100
run 100000
PPPM initialization ...
  G vector (1/distance) = 0.352672
  grid = 8 8 8
  stencil order = 5
  estimated absolute RMS force accuracy = 4.1232e-05
  estimated relative force accuracy = 2.8634e-06
  using double precision FFTs
  3d grid and FFT values/proc = 3375 512
Memory usage per processor = 3.06549 Mbytes
Step Temp PotEng KinEng TotEng Press Lx Ly Lz Press Pxx Pyy Pzz Pxy Pxz Pyz Volume 
       0          600    -115.6925   0.54289261   -115.14961     7326.549     4.293297     4.293297     4.293297     7326.549    6176.3871    14264.663    1538.5972   -6073.6752    1143.2125   -664.20819    79.135764 
     100    322.16743   -115.36597   0.29150386   -115.07447   -4235.2059    4.3184816    4.3184816    4.3184816   -4235.2059   -12653.344     23912.94   -23965.214    5313.4279   -2696.5869   -345.91913    80.536587 
     200    441.27009   -115.32659   0.39927045   -114.92732    5132.6465     4.315405     4.315405     4.315405    5132.6465   -5810.9217    39789.514   -18580.653    -529.9554     -4025.57   -117.11849    80.364581 
     300      680.361   -115.41725   0.61560493   -114.80164    5534.2509    4.3144185    4.3144185    4.3144185    5534.2509   -7947.5197    42118.535   -17568.262    1757.0243    2252.1151    1637.4839    80.309481 
     400    562.66797   -115.20973    0.5091138   -114.70061    3679.4001    4.3242441    4.3242441    4.3242441    3679.4001   -10367.065    50123.476   -28718.211   -5358.3817   -2414.0661   -465.29109    80.859416 
     500    674.89076   -115.25348   0.61065534   -114.64282   -1800.5863    4.3230846    4.3230846    4.3230846   -1800.5863    -16784.86    36080.094   -24696.993    6360.6812    -6121.253    -206.7795    80.794389 
     600    743.91724    -115.2904   0.67311195   -114.61729   -3944.1123    4.3230361    4.3230361    4.3230361   -3944.1123   -23921.054    42149.286   -30060.568   -10696.867    1887.5521   -7846.3109    80.791672 
     700    753.78393   -115.29214   0.68203954    -114.6101    162.78776    4.3217265    4.3217265    4.3217265    162.78776   -5238.7192    29309.393    -23582.31   -739.14074   -3443.3343    2770.0872    80.718271 
     800    454.76406    -115.0253   0.41148007   -114.61382     4348.458    4.3298805    4.3298805    4.3298805     4348.458   -22435.741    61249.347   -25768.232    6503.7217   -5500.8053    -1660.501    81.176018 
     900    709.64557    -115.2535   0.64210222   -114.61139    834.99619    4.3190197    4.3190197    4.3190197    834.99619       -23194    47807.768   -22108.779    6729.2361    2498.3548    7368.3115    80.566695 
    1000    827.72646   -115.36304   0.74894429    -114.6141    -17096.71    4.3251499    4.3251499    4.3251499    -17096.71   -29997.819     5823.944   -27116.256   -5256.4985   -1334.2113    -1406.026    80.910241 
    1100    430.55399   -115.00847    0.3895743    -114.6189     4868.092    4.3276381    4.3276381    4.3276381     4868.092   -12286.431    51669.912   -24779.205    2393.5465   -3965.0556    2772.7254    81.049958 
    1200    641.10096   -115.19213   0.58008162   -114.61205    2312.5993    4.3226984    4.3226984    4.3226984    2312.5993   -25930.441    52053.118   -19184.878   -2540.8497    2759.4621   -4725.2289    80.772739 
    1300    558.90663   -115.11487   0.50571047   -114.60916   -6505.8053    4.3264311    4.3264311    4.3264311   -6505.8053   -28737.473    39864.271   -30644.214   -4247.7395   -990.35459   -994.58755    80.982161 
    1400    561.26036   -115.11596   0.50784017   -114.60812   -1573.1164    4.3251303    4.3251303    4.3251303   -1573.1164   -26896.447    41015.345   -18838.247    927.67268   -4245.5665   -3581.7322    80.909142 
    1500    662.97546   -115.20504   0.59987412   -114.60517    -4806.261    4.3290925    4.3290925    4.3290925    -4806.261   -21280.423     38386.25   -31524.609    3206.3562    2224.7243     1057.487    81.131702 
    1600     496.1538   -115.06095   0.44893038   -114.61202    12155.728    4.3184624    4.3184624    4.3184624    12155.728   -15900.371    74166.832   -21799.276     5034.203    803.32931   -2564.8318    80.535512 
    1700    389.16681   -114.97428    0.3521263   -114.62216    2348.3938    4.3271471    4.3271471    4.3271471    2348.3938   -21515.491    49478.548   -20917.876    850.34789   -4070.2093    3647.0698    81.022377 
    1800     768.3695   -115.30932   0.69523687   -114.61408   -17717.493    4.3279143    4.3279143    4.3279143   -17717.493   -29278.878    4148.9571   -28022.557   -2048.4268    592.29072   -1446.4036    81.065482 
    1900    613.51345    -115.1681   0.55511986   -114.61298    11552.023    4.3186982    4.3186982    4.3186982    11552.023   -7822.8838    65867.864   -23388.911   -3281.0924    895.53264    5429.5941    80.548705 
    2000    637.84757   -115.19242   0.57713789   -114.61528   -5602.1222     4.330467     4.330467     4.330467   -5602.1222   -8566.4318    25438.599   -33678.533   -4675.7494   -3388.6084   -1046.3998    81.209006 
    2100    669.51133   -115.22067   0.60578792   -114.61488    3296.4153    4.3221471    4.3221471    4.3221471    3296.4153   -8219.5132    41217.803   -23109.044    644.51238   -308.43896    326.04917    80.741839 
    2200    784.73368     -115.326   0.71004352   -114.61596    -13204.79    4.3284331    4.3284331    4.3284331    -13204.79   -22117.617    16895.754   -34392.506   -1847.3395    1513.3694   -4438.3113    81.094635 
    2300    371.80017   -114.94904   0.33641261   -114.61263    20974.094    4.3216934    4.3216934    4.3216934    20974.094    735.70475    83304.401   -21117.825    13042.237    -3371.648    50.154091    80.716412 
    2400    865.83038    -115.3889   0.78342153   -114.60547    -7858.944    4.3248756    4.3248756    4.3248756    -7858.944   -491.48779    4593.8401   -27679.184    2523.8157   -2207.9663   -3375.6392    80.894849 
    2500    866.44874   -115.38683   0.78398103   -114.60285    -23970.47    4.3340797    4.3340797    4.3340797    -23970.47   -17525.168   -15314.771   -39071.471   -1063.4157    1103.8735    1994.8282    81.412425 
    2600    516.27591   -115.07412    0.4671373   -114.60698    20247.219    4.3133362    4.3133362    4.3133362    20247.219    5784.4902    70152.066     -15194.9   -3584.5149   -4667.8137     360.5136    80.249055 
    2700    624.86601   -115.17752   0.56539189   -114.61213   -3392.1344    4.3291894    4.3291894    4.3291894   -3392.1344   -6339.3341    26018.492   -29855.561    10098.287   -1088.0905    3719.3491     81.13715 
    2800    636.67789   -115.18398   0.57607954    -114.6079   -5306.2196    4.3299531    4.3299531    4.3299531   -5306.2196   -17525.239    36824.082   -35217.502   -4744.1126    2858.8277    -4065.733    81.180099 
    2900    728.70459   -115.26321   0.65934723   -114.60386    1672.4965    4.3171147    4.3171147    4.3171147    1672.4965    7670.7559     14734.21   -17387.477    1315.3908   -4825.3792    3735.8709    80.460137 
    3000    639.82301   -115.18754    0.5789253   -114.60862   -5465.5806    4.3297639    4.3297639    4.3297639   -5465.5806    -17473.13    35079.773   -34003.384    7038.7954   -4101.6183    1449.3108    81.169458 
    3100    537.53939   -115.09708   0.48637694    -114.6107    1386.9253    4.3251139    4.3251139    4.3251139    1386.9253   -21342.672    52144.527   -26641.079    2790.6497    401.27924    2225.2966    80.908219 
    3200    549.98813   -115.11108   0.49764082   -114.61344    2949.3274    4.3216532    4.3216532    4.3216532    2949.3274   -12263.944    42975.363   -21863.437   -3049.1369   -3147.4664   -4369.5094    80.714162 
    3300    752.17636   -115.29168   0.68058497   -114.61109   -10397.478    4.3267978    4.3267978    4.3267978   -10397.478   -6723.9804    4333.4404   -28801.895   -1533.9522   -1238.4345     838.6641    81.002755 
    3400    642.49166   -115.18995   0.58133995   -114.60861   -6456.6438    4.3277632    4.3277632    4.3277632   -6456.6438   -10839.745    17595.179   -26125.365    4898.5294    2923.1256   -2390.4137    81.056991 
    3500    261.20078   -114.84745   0.23633995   -114.61111    14882.283    4.3220903    4.3220903    4.3220903    14882.283   -16612.573    83577.866   -22318.443   -6908.9801   -2307.1541   -2105.0921    80.738652 
    3600    557.50969   -115.11892   0.50444648   -114.61447   -6290.8213    4.3228371    4.3228371    4.3228371   -6290.8213   -25306.949    31475.134   -25040.649    2873.3553   -5737.8986    62.962011    80.780513 
    3700    735.92851   -115.27678   0.66588358    -114.6109   -13193.949    4.3298538    4.3298538    4.3298538   -13193.949    232.28643   -14020.785   -25793.349   -4308.0647    1223.1405    4306.5819    81.174512 
    3800    449.17346   -115.01428   0.40642159   -114.60786    5567.6913    4.3245255    4.3245255    4.3245255    5567.6913   -9073.1454    49407.853   -23631.633    3842.2343    34.338488    1921.3703    80.875206 
    3900    521.19016   -115.07695   0.47158381   -114.60536    3390.1303    4.3185859    4.3185859    4.3185859    3390.1303   -20767.302    52651.253   -21713.561     -997.984   -2144.0684    247.79484    80.542425 
    4000     462.2722   -115.02726    0.4182736   -114.60899   -7806.6055    4.3322086    4.3322086    4.3322086   -7806.6055   -28241.508    37431.691   -32609.999    7087.7386    2245.8954   -2611.5675    81.307025 
    4100    499.17259   -115.06348   0.45166185   -114.61182    10081.286    4.3213073    4.3213073    4.3213073    10081.286    10615.008    36970.141    -17341.29   -3939.0976     383.6602    912.65788     80.69478 
    4200    653.25075   -115.20401   0.59107501   -114.61293   -5688.3937    4.3205275    4.3205275    4.3205275   -5688.3937    -15498.35    21691.814   -23258.646   -2765.5744   -6464.1465   -5180.9337    80.651107 
    4300    418.24848   -114.99376   0.37844001   -114.61532   -3445.6663    4.3303803    4.3303803    4.3303803   -3445.6663   -17336.735    36757.228   -29757.492   -2121.3893    1833.1738    4635.3635    81.204128 
    4400    596.80434   -115.15023   0.54000111   -114.61023   -2369.5374    4.3232932    4.3232932    4.3232932   -2369.5374   -21033.753    37582.264   -23657.123   -2382.6555    3648.7784   -1327.7202    80.806088 
    4500    513.73623   -115.07785   0.46483934   -114.61301    364.90743    4.3225309    4.3225309    4.3225309    364.90743   -1885.5056    27836.362   -24856.134    174.03657   -3441.9775    4815.2724    80.763349 
    4600    667.62443   -115.21705   0.60408062   -114.61297   -5861.7064    4.3238966    4.3238966    4.3238966   -5861.7064   -9675.5409     19345.15   -27254.728    5319.0975    954.47124   -4584.2808    80.839926 
    4700    308.71836   -114.89254   0.27933486   -114.61321    11445.638    4.3286738    4.3286738    4.3286738    11445.638   -15733.346    75358.743   -25288.483    2032.6427    1294.3203     3664.871    81.108166 
    4800    809.18526   -115.33628   0.73216783   -114.60412   -15043.879    4.3237187    4.3237187    4.3237187   -15043.879   -20596.962    3745.4489   -28280.124   -4199.0332   -4362.6162   -3615.3973     80.82995 
    4900    673.56481   -115.21228   0.60945559   -114.60283   -1058.4814     4.320505     4.320505     4.320505   -1058.4814    11191.316    4187.2792    -18554.04   -44.363231     858.3276    366.35884    80.649846 
    5000    471.69195    -115.0365   0.42679679    -114.6097    4896.8882    4.3303836    4.3303836    4.3303836    4896.8882   -8557.7403    55836.258   -32587.853     -116.049    6131.2979   -336.93224    81.204318 
    5100    657.56081   -115.20527   0.59497484   -114.61029    1117.3124    4.3210121    4.3210121    4.3210121    1117.3124   -6895.2151    32997.243   -22750.091   -7684.3893   -1666.5953    1072.6639    80.678246 
    5200    659.13017   -115.20692   0.59639483   -114.61052    650.20895    4.3210235    4.3210235    4.3210235    650.20895    2885.7215    22122.759   -23057.854    1911.8636   -616.12146    288.84354    80.678884 
    5300    635.92491   -115.18378   0.57539822   -114.60838   -1307.4994    4.3296282    4.3296282    4.3296282   -1307.4994    8580.8662    14051.378   -26554.742    4008.9177    5097.4675    2223.3779    81.161829 
    5400    699.76034   -115.23992   0.63315786   -114.60676    1997.8429     4.319868     4.319868     4.319868    1997.8429   -7530.9277    33251.082   -19726.626   -923.58665   -2612.7087    592.67221    80.614177 
    5500    539.02742   -115.09899   0.48772334   -114.61127    9674.9064    4.3207791    4.3207791    4.3207791    9674.9064    26003.967     23236.47   -20215.718    1331.4622   -2017.2814   -1096.9885    80.665195 
    5600    531.44864   -115.09291   0.48086589   -114.61205   -3722.0527    4.3298278    4.3298278    4.3298278   -3722.0527   -26589.281    42037.103    -26613.98    1206.7508    5235.7081   -2278.3711    81.173053 
    5700    699.73191   -115.24066   0.63313214   -114.60752    215.50043    4.3145926    4.3145926    4.3145926    215.50043    6385.0941    5143.0763   -10881.669   -261.89787    2302.0323    4178.9142    80.319203 
    5800    601.90269   -115.15577    0.5446142   -114.61116   -11175.459    4.3298296    4.3298296    4.3298296   -11175.459   -12403.473    2518.8119   -23641.717   -715.62794     1949.013   -2291.4236     81.17315 
    5900     478.7237    -115.0407   0.43315926   -114.60755    6.2548942    4.3264996    4.3264996    4.3264996    6.2548942   -13754.649    40392.094    -26618.68   -5776.7102    5446.6551   -2086.1972    80.986008 
    6000    575.21131   -115.12647   0.52046328   -114.60601    10690.079    4.3089739    4.3089739    4.3089739    10690.079   -9135.7415    43730.244   -2524.2657     1411.849    1609.0671   -458.56806    80.005819 
    6100    576.27188   -115.13117   0.52142291   -114.60974   -24078.535    4.3396811    4.3396811    4.3396811   -24078.535   -31392.489   -5469.9602   -35373.155     1580.609   -4319.7766   -518.67427    81.728484 
    6200    706.93036   -115.24282   0.63964545   -114.60317   -3975.3174    4.3179437    4.3179437    4.3179437   -3975.3174   -5759.3324    8455.4501    -14622.07    1236.4627    2811.9757    3701.9672    80.506496 
    6300    436.56222   -115.00098   0.39501067   -114.60597    18773.761    4.3134064    4.3134064    4.3134064    18773.761   -1507.2489    61325.833   -3497.2999   -2513.3437    7422.4682   -1156.5472    80.252974 
    6400    525.07515   -115.07905   0.47509903   -114.60395   -23754.783    4.3418787    4.3418787    4.3418787   -23754.783   -28997.342    624.17792   -42891.185   -1967.6451   -1627.4193    5949.5967    81.852709 
    6500    513.37212   -115.06436   0.46450988   -114.59985    17401.449    4.3043269    4.3043269    4.3043269    17401.449    2607.3514    51062.298   -1465.3037   -6475.7848     4177.452   -4760.6772    79.747258 
    6600    494.86292    -115.0608   0.44776237   -114.61304   -565.29055    4.3283221    4.3283221    4.3283221   -565.29055    904.00635    17207.612    -19807.49    -77.51384    5302.5563    231.10251    81.088397 
    6700     454.9677   -115.01933   0.41166433   -114.60767   -12612.339    4.3351018    4.3351018    4.3351018   -12612.339   -3250.9834    -4613.598   -29972.435    8584.3755   -3289.0751   -3105.5418    81.470032 
    6800    556.28952   -115.09891   0.50334245   -114.59557    15311.083    4.3029679    4.3029679    4.3029679    15311.083   -634.86791    48962.507   -2394.3894     6188.853     4983.732    1623.9268    79.671742 
    6900    286.64621   -114.86441   0.25936352   -114.60504   -7539.1269    4.3397148    4.3397148    4.3397148   -7539.1269   -27524.055    40383.763   -35477.089    1365.4554    5809.8072   -3239.2983    81.730388 
    7000    462.57876   -115.02275   0.41855098    -114.6042    689.16352    4.3198869    4.3198869    4.3198869    689.16352    6740.0553    8058.0899   -12730.655   -1885.2973   -289.95554    164.23844    80.615238 
    7100    716.95338    -115.2529   0.64871449   -114.60419   -7854.4023    4.3165401    4.3165401    4.3165401   -7854.4023   -8922.7237   -2849.7014   -11790.782   -3288.0157    3522.7761    1375.9624    80.428014 
    7200    306.22035   -114.87937   0.27707461   -114.60229   -7002.7945    4.3383937    4.3383937    4.3383937   -7002.7945   -23999.294    32666.993   -29676.082    -4508.576    919.12958    1550.1018    81.655771 
    7300    533.34111   -115.07664   0.48257825   -114.59406    11995.304    4.3090094    4.3090094    4.3090094    11995.304   -8897.9687    42323.171    2560.7105    236.50577   -3355.0148    -671.2174    80.007797 
    7400    477.13209    -115.0354   0.43171914   -114.60368    -11136.79    4.3315707    4.3315707    4.3315707    -11136.79   -14383.667    9470.5667   -28497.268    6382.9493   -78.686999    6438.0749    81.271116 
    7500    601.01838   -115.14642   0.54381406    -114.6026   -5808.1155    4.3265814    4.3265814    4.3265814   -5808.1155   -10771.718    16903.042    -23555.67    3432.4186     2849.799   -3415.9686    80.990605 
    7600    686.95859   -115.22173   0.62157457   -114.60016    2438.7133    4.3143959    4.3143959    4.3143959    2438.7133   -10524.046    16814.229    1025.9564   -1118.8048   -2019.8755    2170.4299    80.308216 
    7700    465.84772    -115.0273    0.4215088   -114.60579   -5036.0748     4.332045     4.332045     4.332045   -5036.0748   -5230.8204    15543.611   -25421.015     1653.953   -3139.5099   -6825.5509    81.297817 
    7800     481.9397   -115.03913   0.43606917   -114.60306    16832.693    4.3176836    4.3176836    4.3176836    16832.693    16633.643    46545.461   -12681.025   -5034.1147   -1441.3277   -4738.8848    80.491951 
    7900    702.00762   -115.23943   0.63519124   -114.60424   -9172.9683    4.3234547    4.3234547    4.3234547   -9172.9683   -8587.6647    764.73948    -19695.98   -8438.6321   -1172.6837   -6247.8758    80.815139 
    8000    552.11573   -115.10618   0.49956591   -114.60662   -239.61919    4.3216536    4.3216536    4.3216536   -239.61919    12034.502    -821.9599     -11931.4    899.47611   -2656.3535   -837.78938    80.714186 
    8100    738.69298   -115.27659   0.66838493   -114.60821   -9350.5423    4.3234401    4.3234401    4.3234401   -9350.5423   -15771.036    6535.8246   -18816.415    11509.947    2473.7136    7289.1494    80.814324 
    8200    424.19513   -114.99144   0.38382067   -114.60762    10068.829    4.3225639    4.3225639    4.3225639    10068.829    2403.2288     46828.36   -19025.103    7497.7705    4664.6812   -524.19915    80.765198 
    8300    640.89453   -115.18334   0.57989484   -114.60344    2493.8983    4.3185252    4.3185252    4.3185252    2493.8983   -10868.331    27130.367   -8780.3413   -8229.6166   -1071.0302    6568.4884    80.539024 
    8400    788.60672   -115.31919   0.71354793   -114.60565   -19193.819    4.3289333    4.3289333    4.3289333   -19193.819   -22728.973   -11484.588   -23367.896   -6134.0966   -252.30603    729.88112    81.122752 
    8500    588.52083   -115.14014   0.53250601   -114.60763    13328.621    4.3171491    4.3171491    4.3171491    13328.621    2981.1122     47046.83   -10042.079    1989.6689    744.18093   -388.01761    80.462058 
    8600    700.84757   -115.24209   0.63414161   -114.60795   -12208.659    4.3302863    4.3302863    4.3302863   -12208.659   -15250.838    4724.5677   -26099.705   -4356.0871    109.55703   -3518.3237    81.198843 
    8700    494.22885   -115.05341   0.44718865   -114.60622    4412.1186    4.3210794    4.3210794    4.3210794    4412.1186    6187.2057    26718.361   -19669.211    1064.3591    717.95983    476.43704    80.682018 
    8800    739.19234    -115.2745   0.66883676   -114.60566    4878.1023    4.3157571    4.3157571    4.3157571    4878.1023   -2710.2091    25334.426   -7989.9102    5073.8907    4691.0196   -3830.9377    80.384254 
    8900    594.41873   -115.14519   0.53784256   -114.60735   -10355.849    4.3358936    4.3358936    4.3358936   -10355.849   -3158.4166      10874.2   -38783.331    38.127441    1327.7328   -2824.9585    81.514683 
    9000    690.13684   -115.22642   0.62445031   -114.60197    15868.317     4.307562     4.307562     4.307562    15868.317    16549.613    35155.901   -4100.5625   -9153.4951    435.07727   -254.33454    79.927205 
    9100    523.98234   -115.08847   0.47411023   -114.61436    1045.8682    4.3329953    4.3329953    4.3329953    1045.8682   -4397.3136    35739.643   -28204.724   -5436.3881    1706.7875    5214.7443     81.35133 
    9200    742.89847   -115.27621   0.67219014   -114.60402   -2733.5378    4.3277553    4.3277553    4.3277553   -2733.5378    241.62218    13986.011   -22428.246    5071.4255    207.34375    510.37149    81.056546 
    9300    693.05163   -115.22333   0.62708768   -114.59624    19186.022    4.3050941    4.3050941    4.3050941    19186.022    16013.614    41502.084    42.368796    1990.5292    4331.3884    3513.0771    79.789905 
    9400    627.64914   -115.16886   0.56791013   -114.60095   -28089.251    4.3448344    4.3448344    4.3448344   -28089.251   -29985.041   -8243.3508   -46039.361   -808.04303   -1531.2967    132.83467    82.019982 
    9500    560.47901   -115.10651   0.50713319   -114.59937     22449.39    4.3116995    4.3116995    4.3116995     22449.39    13195.844     65157.33   -11005.005    4099.4297    515.66763    1271.8888    80.157739 
    9600    697.46737   -115.23751   0.63108313   -114.60642   -420.50161    4.3222958    4.3222958    4.3222958   -420.50161   -18462.203    35026.155   -17825.457     1500.538     854.6319   -1834.4919    80.750171 
    9700    549.58702    -115.1022   0.49727789   -114.60492     -15611.7    4.3311757    4.3311757    4.3311757     -15611.7   -21583.329    4623.9233   -29875.692   -4309.6239   -3531.3575    647.57369    81.248883 
    9800    725.86857   -115.25537   0.65678113   -114.59859    11600.871    4.3091425    4.3091425    4.3091425    11600.871   -6784.1576    45549.978   -3963.2086   -10834.754   -59.507147   -1089.0318    80.015212 
    9900     578.6214   -115.12664   0.52354881   -114.60309   -8336.7466    4.3378999    4.3378999    4.3378999   -8336.7466   -8036.4211    21557.366   -38531.185    6218.9914    2176.2644   -1840.8387     81.62789 
   10000    616.46328   -115.15958   0.55778893   -114.60179     20580.88    4.3046294    4.3046294    4.3046294     20580.88   -2199.6942    62521.001    1421.3328    11202.868   -1387.0104    4.7126324    79.764071 
   10100    523.04216    -115.0856   0.47325954   -114.61234   -6178.3817    4.3283509    4.3283509    4.3283509   -6178.3817   -20062.647    16916.283   -15388.782   -2765.3243   -2088.8394   -1795.0381    81.090016 
   10200    833.91237   -115.36169   0.75454143   -114.60715   -20989.727    4.3275278    4.3275278    4.3275278   -20989.727   -28860.033   -13122.922   -20986.226   -5936.2341    1729.5363    4384.2399    81.043763 
   10300    573.34973   -115.12151   0.51877888   -114.60273    34897.307    4.2987401    4.2987401    4.2987401    34897.307     23638.94    67118.832    13934.149   -944.64415   -2590.6143   -1413.0042    79.437135 
   10400    447.66893   -115.00617   0.40506025   -114.60111   -21636.933    4.3471546    4.3471546    4.3471546   -21636.933   -50727.675    30791.698    -44974.82   -2765.9137   -3661.7911    7368.3346    82.151453 
   10500    704.03707   -115.23453   0.63702753    -114.5975    24142.993    4.2990389    4.2990389    4.2990389    24142.993     655.3797    60874.023    10899.577   -25.844599    997.07037   -469.79722    79.453702 
   10600    832.96725   -115.36954   0.75368627   -114.61586   -12146.118    4.3233534    4.3233534    4.3233534   -12146.118   -28786.152    8996.3484    -16648.55    387.29376    131.57421   -222.79886    80.809459 
   10700    599.41941   -115.15021   0.54236727   -114.60784   -18696.024    4.3352822    4.3352822    4.3352822   -18696.024   -29360.084   -2498.7649   -24229.223    7399.3999   -4175.3701    281.85229    81.480208 
   10800    615.14861   -115.14645   0.55659939   -114.58985    39261.829    4.2927792    4.2927792    4.2927792    39261.829    10220.993    90951.518    16612.977    1481.2867    132.48508   -2387.2262    79.107137 
   10900    686.53369   -115.22061   0.62119011   -114.59942   -26899.746     4.342894     4.342894     4.342894   -26899.746   -46294.525    6734.9322   -41139.645   -5504.1692    958.74748    -2479.927    81.910143 
   11000    667.98375   -115.20436   0.60440574   -114.59995    8448.4104    4.3082328    4.3082328    4.3082328    8448.4104   -14343.151    28309.764    11378.618    9997.0593   -5302.1432   -1665.4953    79.964549 
   11100    798.25329   -115.32809   0.72227635   -114.60581   -2394.2338    4.3170041    4.3170041    4.3170041   -2394.2338   -11439.767    13155.336   -8898.2701    3729.1671    714.79994    755.18145    80.453952 
   11200    630.35193   -115.17373   0.57035567   -114.60338   -984.41844    4.3292284    4.3292284    4.3292284   -984.41844   -15256.558    29679.673    -17376.37   -946.79099    854.88215    1341.7876    81.139345 
   11300    635.77329   -115.17528   0.57526103   -114.60001    21336.629    4.3038083    4.3038083    4.3038083    21336.629   -5274.1085    59077.539    10206.457    6311.6699   -3726.4542    184.20038    79.718432 
   11400    625.82548   -115.17181   0.56626004   -114.60555   -25512.268    4.3353569    4.3353569    4.3353569   -25512.268   -45873.893   -11110.433   -19552.479    13167.616    599.89481   -4547.3288    81.484416 
   11500     826.4338   -115.34637   0.74777467   -114.59859    16040.945    4.3021791    4.3021791    4.3021791    16040.945    8680.8232    32528.165    6913.8461    3168.0226   -439.78976    3134.7519    79.627935 
   11600    791.67691   -115.32323   0.71632591    -114.6069   -8838.9642    4.3272097    4.3272097    4.3272097   -8838.9642   -16722.711    8742.6319   -18536.813   -1950.8054   -1622.5905    1028.2022    81.025895 
   11700    670.40321   -115.21691   0.60659491   -114.61032   -12103.716    4.3226368    4.3226368    4.3226368   -12103.716   -24842.361    10404.191   -21872.979    7397.8447   -3707.5829   -1962.6838    80.769285 
   11800    641.37272   -115.18246   0.58032752   -114.60213     35567.18    4.2956428    4.2956428    4.2956428     35567.18    11786.283    78480.466    16434.791    2860.4523   -792.76105   -1663.6379    79.265548 
   11900     829.8416   -115.34658   0.75085812   -114.59572   -35514.964    4.3468748    4.3468748    4.3468748   -35514.964   -38348.564   -20527.297    -47669.03   -5225.9455    623.42518   -3083.7519    82.135592 
   12000    658.85526   -115.19554   0.59614608   -114.59939    17333.074    4.2969467    4.2969467    4.2969467    17333.074    16305.377    28048.762    7645.0835    10.094532   -5974.6165   -7593.6282    79.337751 
   12100    821.77854   -115.35301    0.7435625   -114.60945   -2437.2201    4.3156795    4.3156795    4.3156795   -2437.2201   -12782.221    17215.644   -11745.083    17834.354    60.489811    3616.0849    80.379918 
   12200    693.92249   -115.22247   0.62787565    -114.5946   -16984.655    4.3371564    4.3371564    4.3371564   -16984.655   -28409.032    5122.3921   -27667.326   -2976.5969    283.01342   -2451.4859    81.585929 
   12300    590.86456   -115.12044   0.53462667   -114.58581    30099.589    4.2910631    4.2910631    4.2910631    30099.589    15118.662    69985.206    5194.8978   -4595.5072   -6988.8693    3912.2153    79.012298 
   12400    742.09983   -115.27012   0.67146752   -114.59865   -25583.474    4.3340766    4.3340766    4.3340766   -25583.474   -35555.564   -8199.6571   -32995.202    6542.9186   -2085.3541   -491.13853    81.412248 
   12500    755.89601   -115.27971    0.6839506   -114.59576    6376.3822    4.3133575    4.3133575    4.3133575    6376.3822   -5723.0546    19904.315    4947.8857   -3045.3065   -99.139301   -1383.6087    80.250245 
   12600    795.65481   -115.31916   0.71992519   -114.59923   -4999.4913    4.3106421    4.3106421    4.3106421   -4999.4913   -4053.0595    5193.6041   -16139.019   -6505.4835   -2117.1008   -3322.6087    80.098778 
   12700    594.24168   -115.14154   0.53768236   -114.60386   -17307.092    4.3288596    4.3288596    4.3288596   -17307.092   -23240.421    7841.1405   -36521.994   -1148.6844   -1330.9489    -2000.148    81.118611 
   12800    603.25083   -115.14372   0.54583403   -114.59789    27382.434    4.3041583    4.3041583    4.3041583    27382.434    10179.163    69951.822     2016.317    13664.915   -189.52727    1555.5958    79.737886 
   12900    663.28343   -115.20338   0.60015278   -114.60322   -12919.552     4.328142     4.328142     4.328142   -12919.552    -24924.52    8224.3881   -22058.525   -1011.2192    2308.6294   -411.01781    81.078275 
   13000    546.20408   -115.09783   0.49421693   -114.60362    3466.4279    4.3099661    4.3099661    4.3099661    3466.4279    6342.3904    15193.249   -11136.355   -4165.8707   -858.38713    -4520.814    80.061102 
   13100    743.37079   -115.27792   0.67261751   -114.60531   -2535.0807    4.3160455    4.3160455    4.3160455   -2535.0807    1272.4216    6725.6547   -15603.318    3957.9363   -734.40081   -3934.4043     80.40037 
   13200    664.06736   -115.20137    0.6008621   -114.60051   -17633.325    4.3297295    4.3297295    4.3297295   -17633.325     -27637.7    5203.5819   -30465.857     69.29245    7862.5336    3293.1831    81.167526 
   13300    380.62236   -114.94108   0.34439511   -114.59668    25759.701    4.2980872    4.2980872    4.2980872    25759.701    4835.9988    59347.926    13095.177   -16401.546    -417.5464   -1102.8443    79.400944 
   13400    508.83378   -115.06523    0.4604035   -114.60483   -11842.281    4.3326282    4.3326282    4.3326282   -11842.281   -19318.877    15485.593   -31693.558   -7236.5868   -2639.7228    10812.806    81.330652 
   13500    616.55131   -115.15642   0.55786858   -114.59855    4806.3334    4.3146857    4.3146857    4.3146857    4806.3334   -10381.651    36753.416   -11952.765   -975.02227    4117.7399    5926.2831      80.3244 
   13600    587.90309   -115.12962   0.53194707   -114.59767    5302.5057    4.3047414    4.3047414    4.3047414    5302.5057   -8452.8708    13530.693    10829.695   -6207.1023    2427.1777    2390.2542    79.770293 
   13700    549.65416   -115.09638   0.49733864   -114.59905   -26108.963    4.3364585    4.3364585    4.3364585   -26108.963   -39334.023   -25342.674   -13650.193   -3720.4835   -1216.0835   -3282.3973     81.54655 
   13800     494.7536   -115.04461   0.44766346   -114.59694    27473.207    4.3057679    4.3057679    4.3057679    27473.207    11052.366    62535.028     8832.228    5233.4944    2443.7678    -8782.927    79.827377 
   13900      491.445   -115.04652   0.44466976   -114.60185    3519.6855    4.3192943    4.3192943    4.3192943    3519.6855   -20667.126     36691.59   -5465.4073     7136.793    7439.1791    -4148.412    80.582062 
   14000    436.89595   -114.99869   0.39531263   -114.60338   -3693.3127    4.3214181    4.3214181    4.3214181   -3693.3127   -30827.876    18389.756    1358.1818   -7818.3528   -125.67471    -8114.509    80.700991 
   14100    531.32422   -115.08312   0.48075332   -114.60236    8915.8891    4.3098887    4.3098887    4.3098887    8915.8891     -10193.2    16250.889    20689.978   -1862.9202    1985.0034   -4159.8985    80.056786 
   14200    618.26474   -115.16199   0.55941893   -114.60257   -10702.349    4.3235351    4.3235351    4.3235351   -10702.349   -15303.017   -12144.979   -4659.0498    3725.7639    8929.2628     3975.951     80.81965 
   14300    495.14005   -115.05093   0.44801313   -114.60292    6834.8297    4.3132004    4.3132004    4.3132004    6834.8297   -13601.384    17227.662    16878.211   -10000.502     2264.969    8486.4319    80.241477 
   14400    408.31652   -114.97451   0.36945337   -114.60506      4488.06    4.3210184    4.3210184    4.3210184      4488.06   -32425.937    48728.661   -2838.5439   -12759.955   -2142.8335    3911.3674    80.678599 
   14500    614.96586   -115.15742   0.55643403   -114.60098    8783.8277    4.3138097    4.3138097    4.3138097    8783.8277   -14214.205    37334.182    3231.5057   -243.04889    2824.0375    8663.9895     80.27549 
   14600     608.0237   -115.15391   0.55015262   -114.60376   -6590.5519    4.3208636    4.3208636    4.3208636   -6590.5519   -16657.768   -22.069618   -3091.8183   -7805.7447    4193.2168    660.50363    80.669926 
   14700    611.54364   -115.15468   0.55333754   -114.60134    -2212.865    4.3187981    4.3187981    4.3187981    -2212.865   -11216.131    1257.2703    3320.2657   -9108.7797   -1924.8755     540.3963    80.554293 
   14800    718.24658   -115.24951    0.6498846   -114.59962    7872.8141    4.3114841    4.3114841    4.3114841    7872.8141   -7565.3137    27538.038    3645.7181    7605.7003    3618.8928   -8200.0342    80.145727 
   14900    475.91889   -115.03318   0.43062141   -114.60256   -7988.6628    4.3287952    4.3287952    4.3287952   -7988.6628   -24114.574    21784.281   -21635.695    7425.4555    5222.2094   -5013.1103    81.114991 
   15000    546.13581   -115.09376   0.49415515   -114.59961    11813.169    4.3079989    4.3079989    4.3079989    11813.169   -11198.674    44811.878     1826.302    203.87036   -4793.2808   -4627.2094    79.951525 
   15100    678.12567   -115.21685   0.61358236   -114.60327     1210.477    4.3170154    4.3170154    4.3170154     1210.477   -7598.0435    13877.201   -2647.7262   -3548.9028    954.14131   -1546.9891    80.454585 
   15200     637.5821   -115.18046   0.57689768   -114.60356   -13769.685    4.3228651    4.3228651    4.3228651   -13769.685   -12839.356    -14520.24   -13949.459    4548.1029    7026.8748   -2229.4421    80.782084 
   15300    664.96758   -115.20135   0.60167664   -114.59967    10645.824    4.3044527    4.3044527    4.3044527    10645.824    6349.8857    22673.706    2913.8806   -3145.6717   -1384.4392    11020.838    79.754247 
   15400    633.54324   -115.17616   0.57324324   -114.60292   -2547.5781      4.32504      4.32504      4.32504   -2547.5781   -21222.962    29457.584   -15877.356   -12404.371    750.06078    7055.6817    80.904074 
   15500    554.50183   -115.10318   0.50172491   -114.60145    11936.805    4.3130475    4.3130475    4.3130475    11936.805   -724.48714    42046.021   -5511.1177   -6111.9999    5734.4749   -1399.7642    80.232943 
   15600    582.17058   -115.12846   0.52676018    -114.6017   -214.92815    4.3132779    4.3132779    4.3132779   -214.92815    1320.6068    12015.503   -13980.894    4896.6327   -2235.2269    501.21329    80.245801 
   15700    658.19652   -115.19426   0.59555005   -114.59871   -7847.5795    4.3239155    4.3239155    4.3239155   -7847.5795   -3024.3455   -1391.9423   -19126.451   -6467.2361   -525.53694   -537.41545    80.840984 
   15800    724.64116   -115.25239   0.65567055   -114.59672   -928.08816    4.3116517    4.3116517    4.3116517   -928.08816    3693.4825   -934.13613   -5543.6109    4278.7021    2483.8687   -2064.7828    80.155071 
   15900    524.34168   -115.07679   0.47443537   -114.60235   -3981.6149    4.3161164    4.3161164    4.3161164   -3981.6149   -3292.1609    11486.678   -20139.362    12814.148     959.4965   -4551.3837    80.404332 
   16000    431.52133   -114.99282   0.39044956   -114.60237    1239.9397     4.324626     4.324626     4.324626    1239.9397   -8965.1017    37473.931    -24789.01    4693.5081   -2331.7753    1256.7158    80.880844 
   16100    557.12403   -115.10198   0.50409753   -114.59788    9656.1987    4.3156142    4.3156142    4.3156142    9656.1987   -2753.4392     42559.94   -10837.905     2189.419   -245.92857   -660.52844    80.376271 
   16200    536.45352   -115.08483   0.48539442   -114.59943   -3583.5493     4.315567     4.315567     4.315567   -3583.5493    -5191.409    11078.705   -16637.944    3576.9618    904.30198    4241.7519    80.373629 
   16300    585.58806    -115.1298   0.52985238   -114.59994   -10979.991     4.319884     4.319884     4.319884   -10979.991   -6948.1278   -7621.0342   -18370.811     3258.731   -4679.0937    4500.1565    80.615073 
   16400    648.65768   -115.18639    0.5869191   -114.59947   -2290.9984    4.3160585    4.3160585    4.3160585   -2290.9984    1669.8019    15501.224   -24044.021   -6755.8491    -995.4709    7903.6704    80.401094 
   16500    556.45521   -115.10485   0.50349236   -114.60136    3075.9023    4.3137063    4.3137063    4.3137063    3075.9023    -11728.89    27942.303    -6985.706   -3151.8677    5768.3981   -1360.5936    80.269716 
   16600     382.5703   -114.95005   0.34615765    -114.6039    6621.7346    4.3183704    4.3183704    4.3183704    6621.7346   -4650.1645    29188.847   -4673.4781    3378.9588   -4798.6246   -941.14729    80.530366 
   16700    506.02534   -115.05807   0.45786236   -114.60021   -4391.2024    4.3186164    4.3186164    4.3186164   -4391.2024   -11515.885    24470.406   -26128.129   -63.385785   -3975.9375     2527.744    80.544128 
   16800     656.7963   -115.19195   0.59428309   -114.59767   -2941.9711    4.3064809    4.3064809    4.3064809   -2941.9711   -5508.6955    10517.395   -13834.613    383.36471    6758.6574   -3225.8593    79.867035 
   16900    576.02295   -115.12355   0.52119767   -114.60235   -12883.014    4.3214235    4.3214235    4.3214235   -12883.014   -23708.889   -14628.629   -311.52205    12633.883    1962.0178     1400.599    80.701294 
   17000    536.99191   -115.08747   0.48588157   -114.60159    763.23614    4.3156002    4.3156002    4.3156002    763.23614    6294.4066    8561.8769   -12566.575    3940.9772   -2844.8687   -17.312593    80.375484 
   17100     592.6171   -115.13601   0.53621241    -114.5998    6797.5824    4.3045059    4.3045059    4.3045059    6797.5824    -2802.035    35003.077   -11808.295   -4477.4304    3681.3276    2148.2407    79.757206 
   17200    488.99705   -115.04582   0.44245481   -114.60337   -5898.8867    4.3241609    4.3241609    4.3241609   -5898.8867   -17413.123    19417.656   -19701.193   -1733.3017    4529.1515    1473.7594    80.854747 
   17300    576.31458   -115.12111   0.52146154   -114.59965    11142.779     4.313032     4.313032     4.313032    11142.779    978.46813     36283.48   -3833.6122    154.16839   -2533.4257    5044.6257     80.23208 
   17400    559.28151   -115.10721   0.50604967   -114.60116    9993.7962    4.3092606    4.3092606    4.3092606    9993.7962    11127.019    23077.601   -4223.2314    2021.5873    3232.1152    1433.6116    80.021795 
   17500    566.84954   -115.11508   0.51289738   -114.60218    -12365.56    4.3211828    4.3211828    4.3211828    -12365.56   -18864.679    1222.4374    -19454.44   -3661.7787    9824.0389    1212.9722    80.687807 
   17600    683.99409   -115.21799   0.61889222   -114.59909   -5508.4661    4.3153861    4.3153861    4.3153861   -5508.4661   -13946.843    9200.7529   -11779.309    9295.1273   -710.56869   -838.06356    80.363525 
   17700     511.8839   -115.06494   0.46316331   -114.60178    12421.343    4.3121844    4.3121844    4.3121844    12421.343   -9420.5224    50080.541   -3395.9911    11946.749   -1929.8387    2133.3495    80.184787 
   17800    335.62323   -114.90836   0.30367895   -114.60468    8556.6236    4.3190329    4.3190329    4.3190329    8556.6236   -1147.7321    36285.273   -9467.6707    950.34915     9436.722   -4570.3328    80.567436 
   17900    574.23394   -115.11923   0.51957893   -114.59966   -6925.1734    4.3202831    4.3202831    4.3202831   -6925.1734    -23647.48    22238.488   -19366.528    2904.4467    4871.1958   -6859.7095    80.637417 
   18000    662.32584   -115.19773   0.59928634   -114.59844     3635.075    4.3112152    4.3112152    4.3112152     3635.075   -19875.736    25525.383    5255.5788    5915.1165   -473.43521    37.182038    80.130728 
   18100    665.31184   -115.20445   0.60198814   -114.60246   -12509.457    4.3163862    4.3163862    4.3163862   -12509.457   -20096.106    -6451.308   -10980.956   -1966.6719    8388.5752     -288.695    80.419411 
   18200    423.10659   -114.98837   0.38283574   -114.60553    5508.3188    4.3165382    4.3165382    4.3165382    5508.3188    4956.5693    24183.769   -12615.382    -1718.263    4422.2738   -4463.4807    80.427907 
   18300    627.78999   -115.17039   0.56803758   -114.60235    5438.8212     4.312821     4.312821     4.312821    5438.8212    -19353.34    40687.278   -5017.4753   -1785.3483   -4262.1401   -620.83285    80.220302 
   18400    528.21527   -115.08215   0.47794027   -114.60421     9776.377    4.3090138    4.3090138    4.3090138     9776.377   -18459.739    39753.054    8035.8156    5567.2716    6916.3532    5280.8568    80.008042 
   18500    576.93445    -115.1275   0.52202241   -114.60547   -20612.757    4.3246011    4.3246011    4.3246011   -20612.757   -33305.488   -4423.1786   -24109.606    577.21769    10390.199   -728.58561    80.879443 
   18600    604.59754    -115.1503   0.54705256   -114.60324   -1987.4389    4.3089061    4.3089061    4.3089061   -1987.4389    11342.293   -8550.1399   -8754.4701   -6940.6634   -873.98083   -3745.5736    80.002043 
   18700    631.47538   -115.17294   0.57137219   -114.60157    8648.1624    4.3059925    4.3059925    4.3059925    8648.1624   -13508.017    36970.954    2481.5503     10888.97    105.52631   -4612.8556    79.839868 
   18800    437.73089   -114.99857   0.39606811   -114.60251   -18037.023    4.3308774    4.3308774    4.3308774   -18037.023   -41812.092     15696.89   -27995.866   -1673.4381    6692.8493     3597.453      81.2321 
   18900    485.28652   -115.03871   0.43909744   -114.59962    9583.6291    4.3019761    4.3019761    4.3019761    9583.6291   -3307.4012    35811.044   -3752.7558   -4480.5328    2238.0323   -11859.855    79.616667 
   19000    509.94412    -115.0662   0.46140815   -114.60479    8549.8624    4.3136056    4.3136056    4.3136056    8549.8624    9524.1882    27453.598   -11328.199   -1404.4817    -46.12456   -6442.3406    80.264094 
   19100    761.05149   -115.28851   0.68861538    -114.5999   -21577.691    4.3257319    4.3257319    4.3257319   -21577.691   -30637.011   -6326.9331   -27769.129   -4687.9055    5830.3583    1452.3319    80.942906 
   19200    590.67093   -115.13144   0.53445147   -114.59699    5133.5849     4.301893     4.301893     4.301893    5133.5849    1965.9376    12359.712     1075.105   -698.19816    2352.4279   -2005.3303     79.61205 
   19300    412.32561   -114.97771   0.37308088   -114.60463   -3688.2999    4.3201751    4.3201751    4.3201751   -3688.2999   -17077.579    25515.462   -19502.783   -2704.0652   -5089.0355   -5865.9305    80.631372 
   19400    493.93011   -115.05169   0.44691835   -114.60477    3336.8646    4.3157502    4.3157502    4.3157502    3336.8646    3097.8814    27181.057   -20268.344    -3158.692    2214.7628    1124.1906    80.383866 
   19500    631.34502   -115.17004   0.57125424   -114.59878    9294.3311    4.3052749    4.3052749    4.3052749    9294.3311   -2129.4384    36662.216   -6649.7847    3864.4935    5870.8476    4066.9088     79.79996 
   19600    497.94787   -115.05323    0.4505537   -114.60268   -18122.489    4.3244944    4.3244944    4.3244944   -18122.489   -14009.893   -15189.275     -25168.3   -668.52711    -793.6893   -8813.0184    80.873458 
   19700    501.33635   -115.05421   0.45361967   -114.60059   -502.39371    4.3077736    4.3077736    4.3077736   -502.39371     3272.705    2415.5475   -7195.4336   -726.23916    -655.6179   -4454.2693    79.938984 
   19800     621.6038    -115.1638   0.56244018   -114.60136    654.32203    4.3144442    4.3144442    4.3144442    654.32203    5745.8192    14210.241   -17993.094    3288.1084    1597.6677   -1647.6049    80.310915 
   19900    635.00114   -115.17683   0.57456238   -114.60227   -5517.8186    4.3162638    4.3162638    4.3162638   -5517.8186   -7356.8284    16134.426   -25331.053   -6026.4273   -439.82447   -3830.4695    80.412569 
   20000    288.92603   -114.86708   0.26142634   -114.60565    14521.304    4.3071501    4.3071501    4.3071501    14521.304    15272.389    46214.382    -17922.86    1702.2655   -1082.5743   -9457.6937    79.904277 
   20100    539.39262   -115.09143   0.48805378   -114.60338   -12631.093    4.3238215    4.3238215    4.3238215   -12631.093   -14466.166    4975.7371   -28402.851   -2200.4278    3115.4748    4403.6208    80.835713 
   20200    852.85912   -115.36802   0.77168485   -114.59633    6729.5867    4.3030699    4.3030699    4.3030699    6729.5867    14276.846    15100.131   -9188.2163   -3457.4779    649.18639     2105.052    79.677409 
   20300     537.3268    -115.0894   0.48618458   -114.60322   -12806.053    4.3203966    4.3203966    4.3203966   -12806.053     458.3829   -3649.6775   -35226.865    2686.5351   -5992.4461   -4836.6788    80.643774 
   20400    506.27189   -115.06085   0.45808544   -114.60276   -13080.243    4.3186688    4.3186688    4.3186688   -13080.243   -392.95579   -1914.1039   -36933.668   -8333.3015    1362.2989    -49.59152    80.547061 
   20500    699.37011   -115.23186   0.63280477   -114.59906    17432.397    4.3027048    4.3027048    4.3027048    17432.397    6163.3101    44264.869    1869.0131    6140.6972    2800.1671    5639.8639    79.657128 
   20600    538.44893   -115.08822   0.48719991   -114.60102    2327.4351    4.3232229    4.3232229    4.3232229    2327.4351   -1751.9193    37328.335    -28594.11    2561.4116   -860.44528   -6366.3027    80.802142 
   20700    486.09492   -115.04241    0.4398289   -114.60258   -5332.2935    4.3148384    4.3148384    4.3148384   -5332.2935    1869.3302    13605.792   -31472.003   -1067.7314    2626.3832   -7398.6539    80.332928 
   20800    696.26906     -115.231   0.62999887     -114.601   -4221.8378    4.3087558    4.3087558    4.3087558   -4221.8378    9469.3554   -6002.1915   -16132.677    4468.9297   -1468.5121    4352.9789    79.993677 
   20900    774.12608   -115.30028   0.70044555   -114.59983   -1611.7503    4.3189596    4.3189596    4.3189596   -1611.7503   -437.09195   -119.27678   -4278.8821      690.543    -2191.807    814.26781    80.563333 
   21000    494.42573   -115.05233   0.44736679   -114.60497    5030.7315    4.3145678    4.3145678    4.3145678    5030.7315    598.37005    33234.254    -18740.43   -1240.9128     772.7466   -1709.0911    80.317817 
   21100    440.64538   -115.00336    0.3987052   -114.60465    7764.8966    4.3112818    4.3112818    4.3112818    7764.8966    2855.1532    42536.269   -22096.732   -5223.5089    3204.0207   -1427.9111    80.134444 
   21200     655.5426   -115.19597   0.59314872   -114.60282    3504.6448    4.3185804    4.3185804    4.3185804    3504.6448    10280.118    20802.558   -20568.742   -3220.1363    2230.2174    6857.1506    80.542115 
   21300    674.54088   -115.21113   0.61033877   -114.60079    4009.4752    4.3158249    4.3158249    4.3158249    4009.4752   -332.30627    14830.103   -2469.3716    -309.9509   -3680.8449    -1505.009    80.388039 
   21400    726.27498   -115.25796   0.65714887   -114.60081   -8011.1136    4.3121317    4.3121317    4.3121317   -8011.1136    1922.2668   -12342.149   -13613.459   -278.54605   -1870.0882   -4822.4766    80.181843 
   21500    690.77908    -115.2271   0.62503142   -114.60207    2067.2903    4.3142451    4.3142451    4.3142451    2067.2903    12742.702    9518.0999   -16058.931    3461.7802    1918.0246   -3140.0613    80.299799 
   21600    615.55331   -115.15973   0.55696557   -114.60277    3145.3123       4.3197       4.3197       4.3197    3145.3123   -15261.246    42285.449   -17588.266    7686.9963    3456.8155    3068.1663    80.604771 
   21700    582.76695   -115.12963   0.52729979   -114.60233     12884.57    4.3089122    4.3089122    4.3089122     12884.57   -8296.6663    49961.504   -3011.1269    4034.4625    5997.7747   -10264.705    80.002383 
   21800     727.3902   -115.26278   0.65815794   -114.60463   -4620.4073    4.3153599    4.3153599    4.3153599   -4620.4073    4707.7835   -4351.9264   -14217.079    179.42184   -2391.7819   -4382.6263    80.362061 
   21900    780.13743   -115.30842   0.70588474   -114.60253   -9610.0188      4.31904      4.31904      4.31904   -9610.0188   -13894.626   -1644.1562   -13291.274   -960.11269   -5735.2458     3891.909    80.567832 
   22000    770.96191   -115.30009   0.69758254   -114.60251   -5730.6722    4.3130482    4.3130482    4.3130482   -5730.6722    -20098.48    5748.5021   -2842.0393    1378.9165   -3572.6716     2186.655     80.23298 
   22100    680.25274    -115.2195   0.61550698   -114.60399    8966.5577    4.3076035    4.3076035    4.3076035    8966.5577    1415.8748    28639.359    -3155.561   -910.78376    1748.9783   -8059.6218    79.929512 
   22200     565.9305   -115.11873   0.51206581   -114.60667     365.8094    4.3230349    4.3230349    4.3230349     365.8094   -18605.972    40824.774   -21121.374    735.62509    4542.8953   -289.67952    80.791604 
   22300    697.35007   -115.23584     0.630977   -114.60486    -5111.187    4.3145254    4.3145254    4.3145254    -5111.187   -26190.215    16845.862   -5989.2089    6533.4276   -2671.2972    8161.5907    80.315447 
   22400    854.48499   -115.37556   0.77315597   -114.60241    7591.5352    4.3021776    4.3021776    4.3021776    7591.5352   -6.0745982    10322.117    12458.563     2229.916   -3947.7974   -4823.8436    79.627852 
   22500      777.698   -115.30496   0.70367749   -114.60128   -26170.224    4.3313455    4.3313455    4.3313455   -26170.224   -28318.135   -15839.405   -34353.131    931.04125   -4894.2243   -9664.8639    81.258442 
   22600     617.4166   -115.15992   0.55865152   -114.60127    3704.4925    4.3076492    4.3076492    4.3076492    3704.4925   -8644.5845    23971.764    -4213.702    1614.6895   -6472.2204    2183.9228    79.932058 
   22700    656.28459   -115.19469   0.59382009   -114.60087    11816.123    4.3078795    4.3078795    4.3078795    11816.123    -9691.803    45815.864   -675.69281    2137.2847    2878.0093    4679.5385    79.944877 
   22800    689.35265   -115.22333   0.62374076   -114.59958   -6399.0904    4.3239811    4.3239811    4.3239811   -6399.0904   -21409.584    17102.799   -14890.486   -1910.8252    3611.8264   -8291.5488    80.844662 
   22900    580.72051   -115.12622   0.52544812   -114.60078   -5827.4953    4.3111055    4.3111055    4.3111055   -5827.4953   -9083.0078    7659.6209   -16059.099    -4626.313   -579.62354    7139.6083    80.124617 
   23000    710.80779   -115.24429   0.64315383   -114.60113   -4647.9118    4.3094159    4.3094159    4.3094159   -4647.9118   -6638.1186    2658.8887   -9964.5056     5462.462   -555.36451    7658.6039    80.030446 
   23100    757.09308   -115.28758   0.68503372   -114.60255   -1278.3234     4.316921     4.316921     4.316921   -1278.3234   -16308.553    14037.456   -1563.8729     217.1892    -2999.055   -1938.1216    80.449307 
   23200    413.22102   -114.97863   0.37389106   -114.60474    6604.2376    4.3154076    4.3154076    4.3154076    6604.2376   -14893.567    46669.761   -11963.481    834.90538   -1046.9885   -11605.452    80.364724 
   23300    460.11531   -115.02085     0.416322   -114.60453    1566.3543    4.3099172    4.3099172    4.3099172    1566.3543   -9836.6086    35792.021   -21256.349    6099.7528   -177.58895    6109.6515    80.058375 
   23400    684.63708   -115.22287   0.61947402   -114.60339    1894.9915     4.312221     4.312221     4.312221    1894.9915   -3070.9343     13772.52   -5016.6112   -939.20931    3498.4638     1153.261    80.186828 
   23500     662.2594   -115.20134   0.59922622   -114.60211   -14635.533     4.322734     4.322734     4.322734   -14635.533   -16780.303   -1081.3282   -26044.968    1964.2056    938.43798   -5930.2464    80.774732 
   23600    445.47587   -115.00689   0.40307593   -114.60382   -585.30425    4.3060678    4.3060678    4.3060678   -585.30425   -242.51069    10724.582   -12237.984   -2444.6645   -3291.9553    646.76984    79.844053 
   23700    486.48516   -115.04621     0.440182   -114.60603    5088.6669    4.3104746    4.3104746    4.3104746    5088.6669   -8506.2371    40084.025   -16311.787     1873.966    759.89374    11888.875    80.089443 
   23800    449.01183   -115.00773   0.40627534   -114.60146    -11448.61    4.3276759    4.3276759    4.3276759    -11448.61   -24574.042    33451.302    -43223.09    852.45747     1055.754   -2092.1834    81.052083 
   23900    409.06866    -114.9688   0.37013392   -114.59866    8226.3241    4.2998576    4.2998576    4.2998576    8226.3241    4299.0251    37463.093   -17083.146   -8313.9447    937.15497    -4828.009    79.499102 
   24000    508.37946   -115.06392   0.45999242   -114.60393   -7788.7768    4.3156041    4.3156041    4.3156041   -7788.7768   -11977.529   -1029.8579   -10358.943    3895.1288    342.66566    7154.1273    80.375705 
   24100    705.67714   -115.23734    0.6385115   -114.59883   -22847.876    4.3226012    4.3226012    4.3226012   -22847.876   -25622.532   -5353.7684   -37567.327   -1703.0348     1188.026    2453.4067    80.767292 
   24200    425.50767   -114.98381   0.38500828    -114.5988     8945.394    4.2981447    4.2981447    4.2981447     8945.394    7817.4783    37088.559   -18069.855   -124.96422     304.4756   -9103.5217    79.404131 
   24300    384.41582   -114.95315   0.34782752   -114.60532   -1480.4826    4.3173477    4.3173477    4.3173477   -1480.4826   -12969.508     34220.03   -25691.969    819.91715   -4185.2794    -4487.459    80.473165 
   24400    549.36225   -115.09892    0.4970745   -114.60184   -3514.9217    4.3176904    4.3176904    4.3176904   -3514.9217   -18468.453    24782.602   -16858.914   -1884.2489    3991.6846    9431.4134    80.492329 
   24500    543.88944   -115.09018   0.49212259   -114.59806    6668.7102    4.3003911    4.3003911    4.3003911    6668.7102    -5552.452    40621.457   -15062.874    3335.5313    3403.6196    599.68355    79.528697 
   24600    579.46125   -115.12651   0.52430872    -114.6022   -21398.606    4.3228009    4.3228009    4.3228009   -21398.606   -23028.239   -5179.2827   -35988.297   -5643.0643   -6646.0393   -1140.2703    80.778484 
   24700    644.74234   -115.18212   0.58337642   -114.59874   -5830.0428    4.3128937    4.3128937    4.3128937   -5830.0428    1433.8233    1057.8525   -19981.804   -927.77134    1444.3356    5586.7735     80.22436 
   24800    535.26369    -115.0832   0.48431783   -114.59888    9975.3737    4.3043567    4.3043567    4.3043567    9975.3737   -5099.8307    37948.052      -2922.1    3479.4228    2317.3034    5171.5008     79.74891 
   24900    560.36135   -115.10921   0.50702672   -114.60218   -7095.3146    4.3197663    4.3197663    4.3197663   -7095.3146   -29627.179    34337.425    -25996.19       2029.4   -801.21841   -6925.6544    80.608487 
   25000    521.88921   -115.07356   0.47221632   -114.60135    9054.1855    4.3125101    4.3125101    4.3125101    9054.1855    374.26207    38773.185    -11984.89    1769.6239     3722.668   -6521.8601    80.202956 
   25100    631.75565   -115.17318   0.57162578   -114.60156    2525.1156    4.3110759    4.3110759    4.3110759    2525.1156    4146.4507    11976.905   -8548.0086    1299.3718    3547.1126    3716.8053    80.122963 
   25200    665.20053   -115.20304   0.60188742   -114.60115   -2316.8316    4.3150405    4.3150405    4.3150405   -2316.8316   -21966.007    7730.4233     7285.089    -1824.945   -1703.7061   -1967.6555    80.344221 
   25300    751.81562   -115.28068   0.68025857   -114.60042   -4864.1818    4.3148475    4.3148475    4.3148475   -4864.1818   -8510.9504   -5346.1615   -735.43343   -86.832322   -5829.9464   -1891.7188    80.333436 
   25400    688.67971   -115.22381   0.62313188   -114.60068    5015.3492    4.3103053    4.3103053    4.3103053    5015.3492    6597.2166     12613.66   -4164.8287   -1191.4077    1619.5185     1262.789    80.080008 
   25500     667.8004   -115.20738   0.60423984   -114.60314    3080.0634    4.3155547    4.3155547    4.3155547    3080.0634   -16524.771    29331.344   -3566.3824   -3190.4982    5187.1097    7575.6318    80.372943 
   25600    686.85629   -115.22311     0.621482   -114.60163    11120.767    4.3124329    4.3124329    4.3124329    11120.767   -11655.219    43869.642    1147.8764     581.1452   -2224.0418   -3606.9954    80.198646 
   25700    792.24852   -115.31837   0.71684311   -114.60153   -27.671553    4.3136949    4.3136949    4.3136949   -27.671553   -2313.4023    14960.846   -12730.458    1014.6742   -1737.4293   -5196.9734    80.269079 
   25800    721.96639   -115.25551   0.65325036   -114.60226   -9420.8061    4.3157144    4.3157144    4.3157144   -9420.8061   -10283.007   -6281.3411    -11698.07     5433.333   -926.77425    1605.5583    80.381867 
   25900    906.55523   -115.41978   0.82027022   -114.59951   -3817.0333    4.3101799    4.3101799    4.3101799   -3817.0333   -5322.1239    38.189328   -6167.1653    799.45514   -3278.8193    2185.6115    80.073019 
   26000    844.53244   -115.36538    0.7641507   -114.60123   -4141.2672    4.3166697    4.3166697    4.3166697   -4141.2672   -10223.644    8652.7543   -10852.912    2819.1607   -209.19833   -11273.237     80.43526 
   26100    654.58975   -115.19428   0.59228656   -114.60199    2256.8172    4.3112255    4.3112255    4.3112255    2256.8172   -5067.6247    24564.008   -12725.931    2976.2383    4801.2988    1661.5051    80.131307 
   26200    544.01019   -115.09597   0.49223185   -114.60374    3884.2826    4.3175049    4.3175049    4.3175049    3884.2826   -4736.0322    32599.049   -16210.169   -5629.3709    4300.9091    13263.588    80.481955 
   26300    879.56603    -115.3935   0.79584983   -114.59765    5256.5243    4.3109711    4.3109711    4.3109711    5256.5243   -1522.7263    23626.429   -6334.1301   -1046.1449   -6331.7128   -1320.6346    80.117118 
   26400     734.1551   -115.26477   0.66427896   -114.60049   -2256.4109    4.3133747    4.3133747    4.3133747   -2256.4109    1105.7722     3265.902   -11140.907   -4813.9033    1455.1402   -3773.2158    80.251204 
   26500    512.75928    -115.0665   0.46395537   -114.60255   -10537.116    4.3195018    4.3195018    4.3195018   -10537.116    2965.5805   -11013.506   -23563.423    -814.1296    10234.153    8696.2995    80.593677 
   26600    824.27141   -115.34403    0.7458181   -114.59821    13063.289    4.3030454    4.3030454    4.3030454    13063.289    13552.169    18338.574    7299.1221   -2076.6868    4808.0097    7605.0566    79.676049 
   26700    751.85386   -115.28097   0.68029318   -114.60067   -915.43254    4.3169861    4.3169861    4.3169861   -915.43254   -1507.0071    13243.616   -14482.907    1224.1816    4339.8744   -14628.713    80.452948 
   26800     337.4971   -114.90953   0.30537447   -114.60416    4700.6188    4.3138364    4.3138364    4.3138364    4700.6188    4537.5031    36965.658   -27401.304    6459.0458    6331.3882   -2150.8971    80.276976 
   26900    562.35602   -115.10982   0.50883154   -114.60099    5424.5254    4.3095015    4.3095015    4.3095015    5424.5254    5356.7586    25994.782   -15077.964   -700.70974     3104.267    9716.5817    80.035213 
   27000    763.06913   -115.28772   0.69044099   -114.59728    7764.5577    4.3125308    4.3125308    4.3125308    7764.5577    7070.3749    19902.195   -3678.8967    7105.2687   -533.77278   -1272.4918    80.204111 
   27100    590.39869   -115.13525   0.53420514   -114.60105   -9075.3129     4.313334     4.313334     4.313334   -9075.3129    2897.8533    887.88622   -31011.678    1803.5055     7534.847   -5610.0363    80.248935 
   27200     446.5826   -115.00677   0.40407732   -114.60269   -9071.8884    4.3111937    4.3111937    4.3111937   -9071.8884    8084.2836    1452.9451   -36752.894    -2894.019    7821.5895    9744.7342    80.129531 
   27300    691.51985   -115.22544    0.6257017   -114.59974    6517.2144    4.3104457    4.3104457    4.3104457    6517.2144    12113.533    18743.691   -11305.581   -60.095291   -4303.8869    12425.071    80.087833 
   27400    615.39714   -115.15775   0.55682427   -114.60093   -1810.3213    4.3156387    4.3156387    4.3156387   -1810.3213   -6015.2172     24048.31   -23464.057    -7409.918    2568.0268   -6677.6747    80.377639 
   27500    340.99498   -114.91108   0.30853943   -114.60254    2409.8857    4.3077882    4.3077882    4.3077882    2409.8857    9734.8527    30884.977   -33390.172      2256.09    4781.1113    4761.4329    79.939796 
   27600    645.51353   -115.18396   0.58407421   -114.59989   -9421.2691    4.3155028    4.3155028    4.3155028   -9421.2691    927.60501    4406.9138   -33598.326   -1328.2575   -1327.4705    5367.8238    80.370043 
   27700    653.68586    -115.1896    0.5914687   -114.59813    1694.8724    4.3114919    4.3114919    4.3114919    1694.8724   -3775.3485    25561.179   -16701.213   -1079.4035    2623.2341   -823.46131    80.146159 
   27800    576.19657   -115.12141   0.52135477   -114.60006   -1738.0781    4.3040538    4.3040538    4.3040538   -1738.0781    2995.4354    7444.8958   -15654.565    5008.6543    1860.5319   -4082.1546    79.732074 
   27900     423.7851   -114.98633   0.38344967   -114.60288   -6276.1104    4.3186812    4.3186812    4.3186812   -6276.1104    5014.4163    12778.816   -36621.564   -6386.6654    258.95113    7706.0613    80.547757 
   28000    718.04358   -115.24718   0.64970092   -114.59748   -4286.9469    4.3121695    4.3121695    4.3121695   -4286.9469   -3839.0801    18968.101   -27989.862      4645.84   -904.99423    6372.0034    80.183954 
   28100    467.31472   -115.02107   0.42283618   -114.59823     12701.67    4.3044991    4.3044991    4.3044991     12701.67     2111.843    43538.992   -7545.8242   -932.67533    3943.8196   -1960.9209    79.756826 
   28200    482.90848   -115.03808   0.43694574   -114.60113   -9320.2934    4.3173456    4.3173456    4.3173456   -9320.2934   -4628.5255     2875.441   -26207.796   -4502.0583    3941.1376     10756.29    80.473045 
   28300    604.83947   -115.14691   0.54727147   -114.59964    1823.5892    4.3091049    4.3091049    4.3091049    1823.5892    15748.176    7887.2666   -18164.675    3274.6056   -3773.7449    3975.3919    80.013119 
   28400    629.39012   -115.16943   0.56948541   -114.59994   -230.22841    4.3100627    4.3100627    4.3100627   -230.22841   -7294.9871    21504.999   -14900.697   -7522.4014    4145.2627   -977.80288    80.066485 
   28500    546.43311    -115.0964   0.49442416   -114.60197     -3950.65    4.3121654    4.3121654    4.3121654     -3950.65   -917.64832     1973.412   -12907.714    1947.3745    6042.0858    229.37902    80.183723 
   28600    541.83638   -115.09149   0.49026494   -114.60122    2958.1267    4.3096524    4.3096524    4.3096524    2958.1267    7495.4437    12706.969   -11328.032    -1561.995    759.37063     8240.618    80.043622 
   28700     618.1079   -115.15878   0.55927701    -114.5995   -4026.1091    4.3163774    4.3163774    4.3163774   -4026.1091   -2046.5412    11544.023   -21575.809   -3404.4478   -979.54102   -1037.3675    80.418917 
   28800    616.90745   -115.15622   0.55819082   -114.59803    4796.2363    4.3070256    4.3070256    4.3070256    4796.2363    -5865.393    32619.373   -12365.271    6678.5274   -1361.4872   -5792.3633    79.897347 
   28900    563.12091   -115.11021   0.50952363   -114.60068    691.00188    4.3107161    4.3107161    4.3107161    691.00188    15096.118   -936.04813   -12087.065   -3393.2943    1355.4792    12178.336    80.102904 
   29000    694.61061    -115.2292   0.62849827    -114.6007   -8663.2556    4.3134295    4.3134295    4.3134295   -8663.2556    -9433.106    1841.4471   -18398.108    4685.3474   -1921.8032    7770.7262    80.254266 
   29100    644.20451   -115.18365   0.58288977   -114.60076    6398.4646    4.3083798    4.3083798    4.3083798    6398.4646    10334.804    16736.097   -7875.5075    610.15838   -1023.5503   -1132.6548    79.972735 
   29200    774.52964   -115.30082   0.70081069       -114.6    -9845.701    4.3146443    4.3146443    4.3146443    -9845.701   -8070.7003   -7188.3368   -14278.066   -4345.4454    2032.6129   -45.087686    80.322089 
   29300    557.20429   -115.10577   0.50417015    -114.6016    8758.4925    4.3066129    4.3066129    4.3066129    8758.4925    11798.881    9697.4137    4779.1831    1713.3924   -2538.8013     8695.647     79.87438 
   29400    728.23338   -115.26017   0.65892086   -114.60125   -6199.4031    4.3150688    4.3150688    4.3150688   -6199.4031   -19716.161    9756.8626   -8638.9114   -4398.6212    -4478.502    2687.9629    80.345799 
   29500     617.2466   -115.15773    0.5584977   -114.59923    9592.6094     4.313513     4.313513     4.313513    9592.6094    2641.4149    26440.703   -304.29008    87.409402   -1671.4484   -3910.1073    80.258924 
   29600    773.10351   -115.29849    0.6995203   -114.59897    4597.7852    4.3034546    4.3034546    4.3034546    4597.7852    9648.1903     4536.232   -391.06664    1757.4527    2419.2492    3612.7162    79.698778 
   29700    537.93639   -115.08919   0.48673615   -114.60245   -4523.2232    4.3173717    4.3173717    4.3173717   -4523.2232   -3154.4527    1387.0482   -11802.265    -3326.966   -6099.8362    728.85509    80.474508 
   29800    880.20387   -115.39442   0.79642696     -114.598   -2933.4058    4.3095137    4.3095137    4.3095137   -2933.4058   -18996.734    14331.081   -4134.5639    7262.4751   -9663.5557    3134.5284    80.035896 
   29900    791.34716   -115.31605   0.71602754   -114.60002    4014.2838    4.3104782    4.3104782    4.3104782    4014.2838    14525.397     120.4088   -2602.9545    447.97313    2450.9302    5254.3041    80.089641 
   30000    694.60536    -115.2305   0.62849352   -114.60201   -6850.3267    4.3126211    4.3126211    4.3126211   -6850.3267   -3737.4224   -4342.4677    -12471.09    256.37506   -936.35088    5594.8511    80.209149 
   30100    690.51736   -115.22598   0.62479462   -114.60119    2845.2898    4.3103101    4.3103101    4.3103101    2845.2898   -10528.916     20575.38   -1510.5938    2556.8599   -7483.0771   -4247.7328    80.080273 
   30200    850.89117   -115.36769   0.76990421   -114.59778    324.86757    4.3162038    4.3162038    4.3162038    324.86757   -19148.539      20987.8   -864.65857   -3342.5272    474.09659   -1502.7837    80.409217 
   30300     696.0846   -115.22938   0.62983198   -114.59955    8850.8311    4.3057076    4.3057076    4.3057076    8850.8311    14664.064    7587.4983    4300.9311    2368.5854   -539.77921    10779.763     79.82402 
   30400    574.38514   -115.12389   0.51971574   -114.60417   -5262.7891    4.3122539    4.3122539    4.3122539   -5262.7891   -12837.832    9284.4479   -12234.983    -567.7558    -11103.61    412.59396    80.188665 
   30500    834.79604   -115.35548     0.755341   -114.60013   -1335.8656    4.3132279    4.3132279    4.3132279   -1335.8656    -11965.02    9751.9076   -1794.4843   -2450.1473   -4449.6523   -3880.7545    80.243012 
   30600    867.09071   -115.38352    0.7845619   -114.59896   -1271.1469    4.3114886    4.3114886    4.3114886   -1271.1469   -10084.183    5395.2398    875.50281    633.39326    4064.4413    2394.2632    80.145977 
   30700    530.91366   -115.08332   0.48038184   -114.60294   -4918.7211    4.3117018    4.3117018    4.3117018   -4918.7211    2356.4153    1868.6152   -18981.194   -317.61637   -5625.4306    16580.727    80.157867 
   30800    660.84224   -115.20035   0.59794395    -114.6024    3084.6503     4.308721     4.308721     4.308721    3084.6503   -6046.4012    27940.359   -12640.007    1117.5123   -11085.146   -583.26697    79.991736 
   30900    848.22387   -115.36639   0.76749078    -114.5989    26.593473    4.3153886    4.3153886    4.3153886    26.593473   -11783.566    23397.339   -11533.993     4562.811    237.78187   -3682.3869    80.363667 
   31000    541.00823   -115.09331   0.48951562    -114.6038   -9.6756951    4.3088517    4.3088517    4.3088517   -9.6756951   -235.05121    10792.438   -10586.414   -2568.3629    -2303.025    7615.7081    79.999013 
   31100    485.82565   -115.04501   0.43958526   -114.60543   -4366.9504    4.3091722    4.3091722    4.3091722   -4366.9504    7088.1603    1030.8697   -21219.881    4800.8881   -10423.855    5605.1059    80.016866 
   31200    817.80344   -115.34013   0.73996574   -114.60016   -8632.5774    4.3154522    4.3154522    4.3154522   -8632.5774   -12059.591    4400.8313   -18238.972   -2204.2641    1820.5673    -309.0636    80.367217 
   31300    628.18189   -115.16976   0.56839218   -114.60136    -2779.234    4.3107465    4.3107465    4.3107465    -2779.234   -1972.5064    11509.589   -17874.785   -7695.3618     2260.939    2375.6711    80.104599 
   31400    350.20381   -114.92129   0.31687177   -114.60442   -986.35746    4.3093763    4.3093763    4.3093763   -986.35746    -2033.346     18943.97   -19869.696    1644.1522   -11021.403    6286.3368    80.028237 
   31500    508.73385   -115.06376   0.46031308   -114.60344   -1470.5805    4.3164205    4.3164205    4.3164205   -1470.5805    -675.8921    21836.484   -25572.334   -9961.7826   -4263.4074   -1988.4281    80.421329 
   31600     633.8749   -115.17294   0.57354333   -114.59939    5914.3691     4.309018     4.309018     4.309018    5914.3691    6847.6643    29611.717   -18716.274    1177.5295    6318.4134    3644.8048    80.008277 
   31700    414.36335   -114.97837   0.37492466   -114.60345   -11453.665    4.3143774    4.3143774    4.3143774   -11453.665   -6568.8876    10856.884    -38648.99   -1758.6063     -4893.19    5400.0119    80.307183 
   31800    494.38893   -115.04834    0.4473335   -114.60101   -8028.5943     4.314103     4.314103     4.314103   -8028.5943   -3177.1154   -485.72869   -20422.939     3291.454   -11712.944   -61.863664    80.291864 
   31900    658.00672   -115.19294   0.59537831   -114.59756    3744.6667    4.3114354    4.3114354    4.3114354    3744.6667    9204.6755    14907.569   -12878.244    5871.3693    3787.1107   -2237.4954     80.14301 
   32000    597.12726   -115.14029   0.54029329       -114.6   -13010.311    4.3136555    4.3136555    4.3136555   -13010.311   -12350.354    10311.184   -36991.763   -3458.1552     1020.907    1787.6862    80.266877 
   32100    342.48922    -114.9129   0.30989145   -114.60301    1446.1438    4.3107109    4.3107109    4.3107109    1446.1438    1195.3284    34792.973    -31649.87    3724.3714   -10687.241    793.21694    80.102615 
   32200    470.13023   -115.02776   0.42538371   -114.60238    1258.2113    4.3161286    4.3161286    4.3161286    1258.2113    506.43217    23343.115   -20074.913   -5688.1772    1350.7558   -4019.9959    80.405011 
   32300    470.71623   -115.02641   0.42591394    -114.6005    16674.157    4.3049693    4.3049693    4.3049693    16674.157    16923.354    42472.059    -9372.943    357.54241    7737.1089    1696.4363    79.782966 
   32400    470.52694   -115.02781   0.42574266   -114.60207   -9054.5296    4.3179845    4.3179845    4.3179845   -9054.5296   -4313.1845    8532.7915   -31383.196   -3576.4889   -7427.2394    2688.6484    80.508779 
   32500    484.15102   -115.03785   0.43807001   -114.59978   -7918.8558     4.313745     4.313745     4.313745   -7918.8558    7032.1303    4099.6097   -34888.308   -1245.3673   -2739.2802    1496.5067    80.271874 
   32600    596.17356   -115.13745   0.53943036   -114.59802    12300.171    4.3007307    4.3007307    4.3007307    12300.171    21638.335    15944.321   -682.14252    2208.5075    13256.192   -2030.8583    79.547539 
   32700     552.1427   -115.09838   0.49959032   -114.59879   -12454.729    4.3252057    4.3252057    4.3252057   -12454.729   -18051.838    5226.0256   -24538.375   -3631.2352     1895.111    3618.3275     80.91337 
   32800    561.08359   -115.10749   0.50768023   -114.59981    3215.9876    4.3040785    4.3040785    4.3040785    3215.9876    10050.169      18572.8   -18975.007    5785.7819   -10105.821    2268.6821    79.733448 
   32900    472.91783   -115.03306   0.42790599   -114.60516     4496.093    4.3066766    4.3066766    4.3066766     4496.093   -4894.0964    41041.716   -22659.341   -602.51271    9185.9221   -4717.0294    79.877924 
   33000    556.97939   -115.10622   0.50396666   -114.60225   -11497.861    4.3220563    4.3220563    4.3220563   -11497.861   -29607.195    12303.901   -17190.289   -1414.8851     14876.51   -1678.7382    80.736748 
   33100    700.18774   -115.23105   0.63354459    -114.5975    10867.693    4.3009328    4.3009328    4.3009328    10867.693     1741.414    25328.775    5532.8906   -8479.1249   -5849.1531    2781.6808    79.558753 
   33200    667.89183   -115.20572   0.60432257    -114.6014   -15308.076    4.3182626    4.3182626    4.3182626   -15308.076   -13536.893   -5274.6369   -27112.698   -3114.9451   -2699.8321    4993.7194    80.524333 
   33300    550.57906   -115.09899    0.4981755   -114.60081   -6441.6906     4.314368     4.314368     4.314368   -6441.6906   -13339.657    12058.179   -18043.594   -105.33799    13300.954   -5490.7752    80.306657 
   33400    741.85261    -115.2702   0.67124383   -114.59895    7515.4614    4.3034964    4.3034964    4.3034964    7515.4614    7769.8199    12689.049    2087.5154   -4502.7348   -1440.0903    4680.1431    79.701104 
   33500    748.64069    -115.2773   0.67738583   -114.59991   -3107.2289    4.3170597    4.3170597    4.3170597   -3107.2289   -2993.4831    7018.8277   -13347.031    6041.8882   -4746.4691    6051.9098    80.457064 
   33600    464.32497   -115.02423   0.42013099    -114.6041    2806.8469    4.3124782    4.3124782    4.3124782    2806.8469    802.57877    31624.647   -24006.685    2588.1438    14179.453   -1912.6462    80.201178 
   33700    664.45643   -115.20503   0.60121414   -114.60382    2507.5335     4.306817     4.306817     4.306817    2507.5335    9323.2463    13990.515    -15791.16     4863.159    8902.6882   -12377.543     79.88574 
   33800    831.60762   -115.35261   0.75245605   -114.60016    7868.5715    4.3126238    4.3126238    4.3126238    7868.5715    7152.8226    15154.262    1298.6299    306.66949   -3750.6185   -749.67471    80.209299 
   33900    721.93649   -115.25586    0.6532233   -114.60263   -14755.383    4.3193604    4.3193604    4.3193604   -14755.383   -7353.2392   -17705.288    -19207.62   -1216.4359     11317.12    7733.1488    80.585767 
   34000    467.22842    -115.0256    0.4227581   -114.60285    9283.2218    4.3024468    4.3024468    4.3024468    9283.2218    8801.3106     16639.67     2408.685    705.28935    19896.491   -10183.305    79.642804 
   34100    908.57379   -115.42353   0.82209666   -114.60144   -2667.3247    4.3164177    4.3164177    4.3164177   -2667.3247   -7600.8398   -6502.7186    6101.5842   -5621.2991    1232.8088   -1833.3041    80.421174 
   34200    733.20638    -115.2676   0.66342054   -114.60418   -1058.2375    4.3182866    4.3182866    4.3182866   -1058.2375   -11791.143     6004.759    2611.6717   -1250.9361    6170.9076    7411.1479     80.52568 
   34300     504.6972   -115.05918   0.45666063   -114.60252    18588.325    4.2990576    4.2990576    4.2990576    18588.325    3494.2133    44828.507    7442.2538   -5141.2285    16385.495    8771.0345    79.454734 
   34400    613.47956   -115.15809    0.5550892     -114.603   -8506.2959    4.3280941    4.3280941    4.3280941   -8506.2959   -24398.498    15430.631   -16551.021   -1148.5724    2186.3172   -4013.0747    81.075586 
   34500    924.36704   -115.43296   0.83638672   -114.59657    9070.4431    4.3061329    4.3061329    4.3061329    9070.4431   -1433.1395    19546.049    9098.4201   -2440.0545   -794.13531   -3428.1055     79.84768 
   34600    718.05991   -115.25198    0.6497157   -114.60226    443.24211    4.3099908    4.3099908    4.3099908    443.24211    -9818.911    18440.743   -7292.1059    2091.3012    11370.402    286.66729     80.06248 
   34700    681.95444   -115.21383    0.6170467   -114.59678    -25235.03    4.3273953    4.3273953    4.3273953    -25235.03   -21718.989   -21586.557   -32399.543    2318.5901    6022.4735    -5831.445    81.036318 
   34800    838.28113    -115.3492   0.75849438   -114.59071    13597.817    4.2978049    4.2978049    4.2978049    13597.817    14205.458    13866.419    12721.572    3571.0993   -5906.5597   -10133.701    79.385301 
   34900     801.0076   -115.32124   0.72476851   -114.59648   -15551.315    4.3218661    4.3218661    4.3218661   -15551.315   -25856.761    3889.4222   -24686.607    7117.1389    7230.1595   -2812.6593     80.72609 
   35000    516.04379   -115.06561   0.46692726   -114.59869    1459.7095    4.3130076    4.3130076    4.3130076    1459.7095   -10487.858    36471.579   -21604.592    2256.9322     9084.388    551.70766    80.230716 
   35100    615.72425   -115.15478   0.55712024   -114.59766    5720.0313    4.3068873    4.3068873    4.3068873    5720.0313    1731.2427    19826.308    -4397.457    3275.9709   -7526.3537   -3995.0711    79.889649 
   35200      596.213   -115.13664   0.53946605   -114.59717   -4752.8843    4.3189027    4.3189027    4.3189027   -4752.8843   -17364.354    12379.045   -9273.3445    785.55694    695.53103    3645.7962    80.560152 
   35300    609.74089   -115.14975   0.55170637   -114.59804    4170.8466     4.305331     4.305331     4.305331    4170.8466   -10104.199    24733.752   -2117.0124   -2885.1427    11542.853     3513.818     79.80308 
   35400    551.78532    -115.1005   0.49926695   -114.60124   -10911.238    4.3134153    4.3134153    4.3134153   -10911.238   -1007.7685   -11797.593   -19928.352   -1666.5301    975.19338   -1163.3159     80.25347 
   35500    553.90048   -115.10126    0.5011808   -114.60008   -1419.2042    4.3096422    4.3096422    4.3096422   -1419.2042    1847.1203   -2428.7583   -3675.9745   -3415.2415   -2846.7061   -8399.8166    80.043054 
   35600    633.62671   -115.17351   0.57331876   -114.60019    -6588.831     4.312583     4.312583     4.312583    -6588.831   -16641.032    15601.622   -18727.083   -833.30197     10607.36    101.13659    80.207023 
   35700    548.97756   -115.09834   0.49672643   -114.60161    5301.4379    4.3047592    4.3047592    4.3047592    5301.4379    8410.1045    28288.002   -20793.793   -225.10289    6780.9592   -2105.8687    79.771287 
   35800    471.78076   -115.03118   0.42687714    -114.6043   -584.22432    4.3132501    4.3132501    4.3132501   -584.22432    10126.909    20424.398    -32303.98    2436.9323   -3266.8448   -9674.5188    80.244248 
   35900    492.35374   -115.04704   0.44549201   -114.60155   -8129.2087    4.3171711    4.3171711    4.3171711   -8129.2087   -14800.347    19962.257   -29549.536    2728.4319    1401.2174    1360.3157     80.46329 
   36000    645.77418   -115.18027   0.58431005   -114.59596    17832.507    4.2941349    4.2941349    4.2941349    17832.507    21460.305      33860.1   -1822.8841    4263.3537    6502.7654    1718.0862    79.182106 
   36100     484.9868   -115.04085   0.43882625   -114.60202   -15273.989    4.3222426    4.3222426    4.3222426   -15273.989   -2096.0633   -4686.5582   -39039.346   -901.70934   -1995.7693   -1244.2125    80.747189 
   36200    454.13334   -115.01434   0.41090939   -114.60343    -7440.433    4.3080043    4.3080043    4.3080043    -7440.433    4060.9696    1349.4168   -27731.685   -888.31621    -7300.872    -7082.483    79.951827 
   36300     561.5865   -115.10899   0.50813527   -114.60085    13906.654    4.2999367    4.2999367    4.2999367    13906.654    8965.1692    32157.297    597.49555    50.586187    535.90748    973.66946     79.50349 
   36400    540.62339   -115.08672    0.4891674   -114.59755   -11364.776    4.3238346    4.3238346    4.3238346   -11364.776   -12499.979    11791.089   -33385.439   -1617.5313    2780.9622    155.50605    80.836445 
   36500    330.60009   -114.89866   0.29913391   -114.59953    6261.6065    4.2993208    4.2993208    4.2993208    6261.6065    18021.298     27686.96   -26923.439    2008.2434   -9515.2035   -11722.327    79.469331 
   36600    460.08406   -115.01895   0.41629373   -114.60266   -4626.1561    4.3110956    4.3110956    4.3110956   -4626.1561   -5091.4337    23163.977   -31951.012   -6022.5813   -7034.2156   -1256.5002     80.12406 
   36700    761.25827   -115.28503   0.68880248   -114.59623    -2473.226    4.3147724    4.3147724    4.3147724    -2473.226   -5034.7549    11630.222   -14015.145   -1805.7738    5223.4386   -2292.5493    80.329241 
   36800    495.28409   -115.04932   0.44814345   -114.60118   -478.99062    4.3017034    4.3017034    4.3017034   -478.99062    14087.024    6923.9803   -22447.976     3115.871   -6390.8091   -1032.4201    79.601525 
   36900    359.70873   -114.93119   0.32547202   -114.60572   -13620.298    4.3112211    4.3112211    4.3112211   -13620.298   -3466.3641    4659.5227   -42054.052    1756.1464    -11073.03   -5111.5352    80.131059 
   37000    788.57656   -115.31431   0.71352065   -114.60079   -2638.0558    4.3128369    4.3128369    4.3128369   -2638.0558   -5799.2035    20570.926    -22685.89    7459.0101    2784.0457    4657.8953     80.22119 
   37100    652.23728   -115.19085     0.590158   -114.60069    9115.4949    4.3073519    4.3073519    4.3073519    9115.4949     6459.025    26845.243    -5957.783   -1465.4716   -3551.1567    2308.0965    79.915508 
   37200    382.33521   -114.95208   0.34594493   -114.60614   -2083.2081    4.3052648    4.3052648    4.3052648   -2083.2081    2419.3521    24590.768   -33259.745    3149.1645   -8982.6243   -7260.0493    79.799395 
   37300    575.35162   -115.12625   0.52059024   -114.60566   -7197.6817    4.3144727    4.3144727    4.3144727   -7197.6817     2146.635    4966.2327   -28705.913    243.47055   -2062.8882   -3225.9192    80.312505 
   37400    943.88643   -115.45251   0.85404827   -114.59846    1980.0762    4.3092382    4.3092382    4.3092382    1980.0762   -460.01226    13065.647   -6665.4065   -5681.3729    2030.4237   -1992.7615    80.020545 
   37500    619.07606   -115.16355   0.56015303   -114.60339   -3044.6011    4.3065441    4.3065441    4.3065441   -3044.6011   -480.13478    5205.9948   -13859.663   -123.24837   -3263.1328   -1317.2459    79.870555 
   37600    504.30005   -115.06206   0.45630129   -114.60576   -6145.5484    4.3121134    4.3121134    4.3121134   -6145.5484    4739.9019   -2102.5487   -21073.998   -3851.1795   -6748.7511    -4715.121    80.180822 
   37700    868.85302   -115.38541   0.78615647   -114.59926   -3742.6899    4.3158894    4.3158894    4.3158894   -3742.6899   -10002.122    12801.163   -14027.111    925.55696    672.36662    5064.5199    80.391644 
   37800    730.26123   -115.26011   0.66075571   -114.59936    10986.243    4.3040821    4.3040821    4.3040821    10986.243   -6439.5613    43415.262   -4016.9704   -1235.5029   -1046.8535   -1508.4011    79.733649 
   37900     535.9558    -115.0897   0.48494407   -114.60476   -75.074538    4.3108052    4.3108052    4.3108052   -75.074538    1518.0072    8054.9253   -9798.1562    2649.0729   -6610.9711   -952.17644    80.107874 
   38000     750.2341   -115.28053   0.67882758    -114.6017   -8537.1121     4.317431     4.317431     4.317431   -8537.1121   -5841.4431   -1148.7946   -18621.098    2510.6875    1103.7611   -60.080106    80.477822 
   38100    923.73214    -115.4333   0.83581225   -114.59749    6741.7086    4.3032231    4.3032231    4.3032231    6741.7086    -1702.901    15847.812    6080.2145   -1460.2129    3109.2878   -1165.7877    79.685922 
   38200    736.25283   -115.26765   0.66617703   -114.60148   -4362.4274    4.3134884    4.3134884    4.3134884   -4362.4274   -2876.2644   -1124.2526   -9086.7651    4487.1323   -7368.2617   -6420.2771    80.257553 
   38300    669.51383   -115.20628   0.60579019   -114.60049   -319.60989    4.3138825    4.3138825    4.3138825   -319.60989    5252.2939    7037.8703   -13248.994   -1720.4535   -6217.2521   -3576.9097     80.27955 
   38400    780.33547   -115.30497   0.70606394   -114.59891    5706.1234    4.3069189    4.3069189    4.3069189    5706.1234    -1834.618    23255.352   -4302.3642   -5053.4897     7401.838     3052.072    79.891408 
   38500    698.18977   -115.23255   0.63173678   -114.60081    14102.879    4.3068977    4.3068977    4.3068977    14102.879    1489.4113    36047.722    4771.5054   -6600.9684    3140.3562   -1210.2288    79.890228 
   38600    732.76094    -115.2649   0.66301749   -114.60188   -4492.0707    4.3159769    4.3159769    4.3159769   -4492.0707   -1204.8279    8648.8166   -20920.201   -1595.5256   -6032.4274   -833.32002    80.396538 
   38700    636.80526   -115.17998   0.57619478   -114.60378   -2404.8671    4.3073848    4.3073848    4.3073848   -2404.8671    7739.6737   -2486.8886   -12467.387   -1129.0794    3928.7576    4550.0396     79.91734 
   38800    772.06238   -115.30139   0.69857827   -114.60281    4429.8878    4.3040762    4.3040762    4.3040762    4429.8878    1949.5574    10598.843      741.263   -8416.7707    10403.337    3428.1763    79.733323 
   38900    825.40136   -115.34694   0.74684049    -114.6001   -12397.335    4.3223894    4.3223894    4.3223894   -12397.335   -8769.6116   -11902.726   -16519.667    3249.7509   -1499.9852   -5626.1749    80.755418 
   39000    649.20139   -115.19066   0.58741106   -114.60325    8366.0149    4.2975121    4.2975121    4.2975121    8366.0149    16438.896    13949.747   -5290.5983    3635.4493    2067.3153   -1178.3205    79.369078 
   39100     569.8675   -115.12189   0.51562809   -114.60626    262.00647    4.3085223    4.3085223    4.3085223    262.00647   -1562.1383    19960.271   -17612.113    3494.0539    13554.157    4237.8822     79.98067 
   39200    712.45499   -115.24374   0.64464424   -114.59909    -5153.934    4.3225761    4.3225761    4.3225761    -5153.934   -11693.581      17604.2   -21372.421    1144.3772    1908.2238   -2780.0094    80.765881 
   39300    748.81682   -115.27265   0.67754519    -114.5951    26704.531    4.2925126    4.2925126    4.2925126    26704.531    20191.842    43318.306    16603.446   -2282.1435    -4868.505   -3107.8767    79.092399 
   39400     498.8417   -115.05519   0.45136246   -114.60383   -13991.038     4.317665     4.317665     4.317665   -13991.038   -7126.3356    1642.7473   -36489.527    653.02587    11792.471   -474.25881    80.490907 
   39500    619.10348   -115.16123   0.56017784   -114.60105   -7476.5827    4.3123245    4.3123245    4.3123245   -7476.5827   -4692.9959    6254.1487   -23990.901   -7377.6161    12459.564    5476.1347    80.192604 
   39600    954.53367   -115.45998   0.86368213    -114.5963    4973.9423     4.302938     4.302938     4.302938    4973.9423    5046.2004    8637.4018    1238.2247   -2750.3983   -5899.6402   -1992.8671    79.670082 
   39700    564.27109   -115.11251   0.51056434   -114.60194    -6325.289    4.3159552    4.3159552    4.3159552    -6325.289   -336.56841    4822.2084   -23461.507    71.342102    1787.0791    1036.3484    80.395323 
   39800    411.16767   -114.97605   0.37203314   -114.60402   -17.975102    4.3064678    4.3064678    4.3064678   -17.975102    3776.9183    23203.347    -27034.19   -2528.0974    13105.271    4618.3036    79.866309 
   39900    674.22231   -115.21207   0.61005052   -114.60202   -1999.1285    4.3105072    4.3105072    4.3105072   -1999.1285   -6197.1442    23228.513   -23028.754   -3024.4298     553.6673    2413.8818    80.091258 
   40000    702.84945   -115.23685   0.63595295    -114.6009    10226.341    4.3057646    4.3057646    4.3057646    10226.341    6582.4195    37414.079   -13317.476    2727.7727   -764.79416   -579.85981     79.82719 
   40100     332.8969   -114.90771   0.30121211   -114.60649   -5714.8775    4.3158828    4.3158828    4.3158828   -5714.8775   -4101.6646    9764.7014   -22807.669    6090.8913    13918.691   -810.29496    80.391278 
   40200    502.80272   -115.05769   0.45494646   -114.60275    -3936.474    4.3064982    4.3064982    4.3064982    -3936.474    2363.1333    12098.131   -26270.686   -848.02117    4045.2213    3198.3886    79.868002 
   40300    773.50526   -115.29844   0.69988381   -114.59856    1451.5458    4.3042658    4.3042658    4.3042658    1451.5458    7522.0372    11750.908   -14918.308    2150.4936   -8512.1594   -5144.1736    79.743861 
   40400    493.97117   -115.04985    0.4469555   -114.60289   -8999.2677    4.3174094    4.3174094    4.3174094   -8999.2677   -4604.2332    3844.3715   -26237.941   -770.36413    10446.971    1376.6243    80.476614 
   40500    392.95498   -114.95872   0.35555393   -114.60317    9316.3064    4.3000316    4.3000316    4.3000316    9316.3064    19311.529    18042.235   -9404.8449   -1029.7706    16592.981    4338.0096    79.508751 
   40600    528.71659   -115.08123   0.47839388   -114.60284   -2822.1138    4.3130787    4.3130787    4.3130787   -2822.1138    912.24257    18975.646    -28354.23   -4951.4078   -8330.8081    3511.5387    80.234682 
   40700    628.87484   -115.16874   0.56901917   -114.59972     -2055.17    4.3096373    4.3096373    4.3096373     -2055.17    1231.0902    16348.829   -23745.429   -4692.7557   -5509.3944    577.19343    80.042778 
   40800    442.85716    -115.0029   0.40070646    -114.6022    7945.7504     4.303655     4.303655     4.303655    7945.7504    5218.4838     34603.89   -15985.123    3540.6622     15590.38    4714.6693    79.709913 
   40900    443.76648   -115.00456   0.40152924   -114.60303   -8115.4976    4.3141575    4.3141575    4.3141575   -8115.4976   -5539.6517    7287.5638   -26094.405   -2540.9343    3281.8285    7724.2488    80.294908 
   41000     629.6377   -115.17046   0.56970942   -114.60075    347.17264    4.3024702    4.3024702    4.3024702    347.17264    972.72382    18649.016   -18580.222    196.18217   -14207.983   -4673.3257    79.644099 
   41100    633.99687   -115.17527   0.57365369   -114.60161   -11684.596     4.314458     4.314458     4.314458   -11684.596   -10743.563    6827.0643   -31137.288   -322.10701    4935.0549    3108.4077    80.311687 
   41200    607.84183   -115.15228   0.54998806   -114.60229   -915.60781    4.3055833    4.3055833    4.3055833   -915.60781    3954.4206    6719.7331   -13420.977    933.74404    9869.7864    2925.4261    79.817107 
   41300    553.19914   -115.10374   0.50054621   -114.60319    1588.4848    4.3058682    4.3058682    4.3058682    1588.4848    9660.7124    5778.1305   -10673.389    3992.2442   -12244.002   -186.15044    79.832955 
   41400    668.84406   -115.20604   0.60518416   -114.60086   -12646.491    4.3173786    4.3173786    4.3173786   -12646.491   -2865.2943   -3259.5778   -31814.602   -3079.7926   -7501.1699   -1770.4799    80.474894 
   41500    766.25009   -115.29135   0.69331919   -114.59803    12776.859    4.2972682    4.2972682    4.2972682    12776.859    17891.327    20188.385    250.86473    1463.4266    11800.442    2794.0699    79.355566 
   41600     511.7786   -115.06729   0.46306803   -114.60422    1672.1604    4.3135482    4.3135482    4.3135482    1672.1604    13995.543    3579.7643   -12558.826   -2363.2701   -2655.1568    8362.5539    80.260888 
   41700    571.15552   -115.12148   0.51679351   -114.60469   -1045.2504    4.3111363    4.3111363    4.3111363   -1045.2504    -2785.128    14703.524   -15054.148   -296.15986   -19630.039   -2818.8633    80.126334 
   41800    733.35183   -115.26385   0.66355215    -114.6003    16059.475    4.3000079    4.3000079    4.3000079    16059.475    15718.797    25040.094    7419.5324    1350.8055    2007.3737   -697.29916     79.50744 
   41900    792.99031   -115.31783    0.7175143   -114.60032   -7898.1736    4.3161492    4.3161492    4.3161492   -7898.1736   -4724.3503    2287.5435   -21257.714    -3426.943    4906.0709    6352.6195    80.406165 
   42000      457.099   -115.01801   0.41359278   -114.60442    6163.2417    4.3045074    4.3045074    4.3045074    6163.2417    2803.8992    19119.105   -3433.2792    710.56766   -15619.803    3463.6298    79.757286 
   42100    674.63709   -115.21579   0.61042581   -114.60537   -790.77975    4.3056805    4.3056805    4.3056805   -790.77975    361.94168    10546.056   -13280.337   -2311.6032   -14649.732   -6454.7159    79.822514 
   42200    879.71153   -115.39667   0.79598148   -114.60069   -811.96144    4.3123807    4.3123807    4.3123807   -811.96144     7854.531   -794.01091   -9496.4044    7564.0128    5312.8528   -1806.3106    80.195736 
   42300    689.88191   -115.22792   0.62421965    -114.6037   -4294.3531    4.3072597    4.3072597    4.3072597   -4294.3531   -134.51213    1773.9545   -14522.502    4399.5996   -2165.4437    10060.673    79.910375 
   42400    459.31424   -115.02259   0.41559718   -114.60699   -4289.1411    4.3058148    4.3058148    4.3058148   -4289.1411   -4577.1067    5652.3091   -13942.626   -1841.9879   -24116.549   -3680.0641    79.829982 
   42500      816.486    -115.3429    0.7387737   -114.60413    1986.9483      4.30745      4.30745      4.30745    1986.9483    13237.361    999.99987   -8276.5161   -81.881488    227.42042   -8587.6518    79.920968 
   42600    917.57106   -115.43143   0.83023758   -114.60119   -5316.6864    4.3129745    4.3129745    4.3129745   -5316.6864     785.9971   -8448.8504   -8287.2058   -3747.2501    695.17793    4461.7059    80.228867 
   42700    595.35042   -115.14378   0.53868557    -114.6051   -1679.2526    4.3022325    4.3022325    4.3022325   -1679.2526   -775.05767    9768.5829   -14031.283    965.32891   -18479.156    1731.7787    79.630902 
   42800    602.19291   -115.15201    0.5448768   -114.60714   -3376.1701    4.3087348    4.3087348    4.3087348   -3376.1701   -2234.8202    1938.1317   -9831.8219   -4964.6321   -8503.7491   -7537.1758    79.992506 
   42900    921.26468   -115.43512   0.83357964   -114.60154   -4401.9512    4.3142076    4.3142076    4.3142076   -4401.9512    2659.6855   -7698.3784   -8167.1606   -435.28644    4515.3048   -2121.0815    80.297704 
   43000     793.6756    -115.3191   0.71813436   -114.60097    7840.7209    4.2996483    4.2996483    4.2996483    7840.7209    4370.0566    13240.212    5911.8937    2877.2574   -6495.8561    3619.5285    79.487491 
   43100    564.09705   -115.11682   0.51040686   -114.60641   -8924.4892    4.3115174    4.3115174    4.3115174   -8924.4892   -9934.0168    138.00399   -16977.455   -1031.7201   -18134.921   -3475.7204    80.147582 
   43200     655.3979   -115.19823   0.59301779   -114.60521   -2722.0339    4.3121863    4.3121863    4.3121863   -2722.0339   -5753.1562    1305.0361   -3717.9814    3372.5564    9605.8212   -9332.5672    80.184894 
   43300    832.24762   -115.35245   0.75303513   -114.59942     15334.77    4.2983824    4.2983824    4.2983824     15334.77    16437.181    17076.327    12490.803   -2281.9572    6598.8118    309.09214    79.417306 
   43400    690.83555   -115.22838   0.62508252    -114.6033   -7410.0303    4.3150688    4.3150688    4.3150688   -7410.0303    -18176.14   -338.85203   -3715.0994    1092.1702   -18516.639    64.386896    80.345796 
   43500    527.87644   -115.08185    0.4776337   -114.60421   -560.39394     4.308458     4.308458     4.308458   -560.39394   -7074.4923    8134.2722   -2740.9617    207.67671   -4301.9084   -10995.186    79.977087 
   43600     735.0866   -115.26559    0.6651218   -114.60047    9048.6784    4.3007473    4.3007473    4.3007473    9048.6784     7283.671     16439.59    3422.7743    538.53549    12426.781   -2163.9159    79.548458 
   43700    770.51371   -115.29787   0.69717699   -114.60069   -1654.0636    4.3148375    4.3148375    4.3148375   -1654.0636   -15878.154   -1984.9335    12900.896    6288.9478   -542.55664     2451.467    80.332881 
   43800    652.76842   -115.19314   0.59063858    -114.6025    82.458354    4.3050985    4.3050985    4.3050985    82.458354   -8387.7681    8818.9534   -183.81028   -2939.2791   -14951.494   -3062.8803    79.790148 
   43900    514.13871   -115.07058   0.46520351   -114.60538      2241.72    4.3026067    4.3026067    4.3026067      2241.72    2593.6539     6973.238   -2841.7321    1942.7436    5853.4426    -10674.53    79.651683 
   44000    672.61464   -115.21275   0.60859587   -114.60415   -2865.4962    4.3125615    4.3125615    4.3125615   -2865.4962   -1639.0082   -3576.8455   -3380.6348   -1953.0036    12673.403   -2767.2387    80.205827 
   44100    732.47834   -115.26462   0.66276179   -114.60186    3677.8522    4.3050722    4.3050722    4.3050722    3677.8522   -3503.3805    4023.8623    10513.075   -3395.6279   -9808.1451    5316.0049    79.788686 
   44200    571.07497     -115.121   0.51672063   -114.60427   -5338.0048    4.3051519    4.3051519    4.3051519   -5338.0048    2262.9242   -6112.7246   -12164.214    1216.2521   -2863.3663    -14633.14    79.793116 
   44300    404.87969   -114.97222   0.36634366   -114.60587   -4418.7308    4.3105372    4.3105372    4.3105372   -4418.7308     1433.867   -853.05226   -13837.007   -3912.7975     14603.82   -4661.2148    80.092934 
   44400    747.44924   -115.27806   0.67630778   -114.60175    -2585.549    4.3059481    4.3059481    4.3059481    -2585.549   -5727.0341    3651.7276   -5681.3404     6899.283    5278.9224    5210.1633    79.837399 
   44500     629.1866   -115.17115   0.56930126   -114.60185    3231.5231    4.3070564    4.3070564    4.3070564    3231.5231   -1503.6268    3536.5943    7661.6019    1364.5643   -8607.7419   -6683.2911    79.899062 
   44600    507.42507   -115.06399   0.45912887   -114.60486    -9416.483    4.3085434    4.3085434    4.3085434    -9416.483   -4527.2388   -5876.1695   -17846.041   -1101.0981    8369.8845   -6224.0261    79.981842 
   44700    428.76225   -114.99328   0.38795309   -114.60533    2422.2177    4.3064393    4.3064393    4.3064393    2422.2177   -3281.9037    24650.261   -14101.704    1874.2762    16554.545    1416.6039    79.864723 
   44800    721.10762   -115.25448   0.65247332   -114.60201    2463.6368     4.306794     4.306794     4.306794    2463.6368   -4120.2901    1556.7313    9954.4694   -2572.8652   -4152.5968    8090.2253    79.884461 
   44900    594.65052   -115.14137   0.53805228   -114.60332    657.97763    4.3079441    4.3079441    4.3079441    657.97763   -3723.4912   -1872.0406    7569.4648    3040.9694   -2381.4392   -11612.864    79.948474 
   45000    369.86527   -114.94052   0.33466187   -114.60586   -3194.4824    4.3074882    4.3074882    4.3074882   -3194.4824   -3251.9782    16029.356   -22360.825   -3820.3877    12972.497   -6443.2004    79.923095 
   45100    496.37063   -115.05407   0.44912658   -114.60494   -3098.0995    4.3067001    4.3067001    4.3067001   -3098.0995   -1997.0125    66.356776   -7363.6427    960.32355    7706.1111    12543.904    79.879233 
   45200    609.11205   -115.15415   0.55113738   -114.60301    699.96168    4.3080846    4.3080846    4.3080846    699.96168    1128.9736   -9659.5174    10630.429    2853.8956   -2778.1144   -699.03776    79.956294 
   45300     518.6564   -115.07286   0.46929121   -114.60357   -5505.8504    4.3090748    4.3090748    4.3090748   -5505.8504   -538.44305   -6989.2043   -8989.9038   -2099.5991     5753.743   -10218.638    80.011445 
   45400    278.03226    -114.8571   0.25156943   -114.60553   -2107.6112    4.3060748    4.3060748    4.3060748   -2107.6112    7034.5117    5373.5554   -18730.901    4920.2748    11051.483    2754.7219    79.844443 
   45500     496.2155   -115.05263   0.44898621   -114.60364   -6260.3498    4.3080732    4.3080732    4.3080732   -6260.3498    9540.0613   -10026.177   -18294.933   -397.91439   -426.75402    15412.397    79.955661 
   45600    538.80812   -115.08908   0.48752491   -114.60155    968.68686    4.3095709    4.3095709    4.3095709    968.68686   -2109.7438   -1401.2965    6417.1009    3548.2795   -1657.4453   -4166.2938    80.039078 
   45700    476.70477   -115.03518    0.4313325   -114.60385   -1391.8502    4.3052945    4.3052945    4.3052945   -1391.8502    268.55096    9096.5363   -13540.638    282.11611    11796.125   -5879.8704     79.80105 
   45800    260.07662   -114.84142   0.23532279    -114.6061   -2680.1287    4.3089031    4.3089031    4.3089031   -2680.1287    7821.2525    11360.484   -27222.123   -359.38785    6913.6658    15542.542    80.001876 
   45900    583.28189   -115.12981   0.52776571   -114.60205   -7665.4061    4.3093711    4.3093711    4.3093711   -7665.4061   -7582.9139    653.11824   -16066.423     5871.968   -4405.3493    5800.9393    80.027947 
   46000    559.79323   -115.10757   0.50651268   -114.60105     2748.949    4.3069521    4.3069521    4.3069521     2748.949    -8848.475    4986.7825    12108.539   -3331.2519    6380.0661   -5540.4458    79.893257 
   46100    408.77946   -114.97359   0.36987225   -114.60371   -5765.8684    4.3074653    4.3074653    4.3074653   -5765.8684    1115.6304     6363.288   -24776.524   -1424.1313    10699.115    8683.7581    79.921817 
   46200    329.11217   -114.90224    0.2977876   -114.60445   -7367.6632    4.3101231    4.3101231    4.3101231   -7367.6632   -3068.0597    2328.7739   -21363.704    1252.0713   -1972.0393     14278.16    80.069849 
   46300    631.80668   -115.17253   0.57167196   -114.60086   -6817.2247    4.3074206    4.3074206    4.3074206   -6817.2247    -14460.11   -5769.0079   -222.55595    1163.8337   -4732.8413    1.7617135    79.919329 
   46400     498.7966   -115.05381   0.45132165   -114.60249     5886.041    4.3043627    4.3043627    4.3043627     5886.041   -4925.5155    8406.4951    14177.143    2423.7249    8292.1988    1546.6994    79.749247 
   46500    321.60207   -114.89658   0.29099231   -114.60559    -7701.047    4.3121125    4.3121125    4.3121125    -7701.047   -1231.1638   -476.47047   -21395.507   -2289.4362    7103.5148    12394.356    80.180777 
   46600    379.55149   -114.94769   0.34342617   -114.60427   -3799.9348    4.3079221    4.3079221    4.3079221   -3799.9348   -2490.8214    1584.2257   -10493.209    7330.0861   -9174.7339    6465.7156     79.94725 
   46700    566.77139   -115.11418   0.51282666   -114.60135     7011.427    4.3058194    4.3058194    4.3058194     7011.427   -5007.8514    11120.456    14921.676    4395.1449    715.01607   -6777.0001    79.830239 
   46800    403.01452   -114.96808   0.36465601   -114.60342   -1698.6137    4.3140248    4.3140248    4.3140248   -1698.6137    -706.5962   -966.43734   -3422.8077   -231.89022    9896.0587    8842.1172    80.287494 
   46900     268.9496   -114.84789   0.24335125   -114.60454    1949.8944    4.3039332    4.3039332    4.3039332    1949.8944    15596.528    7510.1932   -17257.038    6922.5514   -542.40837    15158.083    79.725374 
   47000    504.58153   -115.05982   0.45655597   -114.60326   -3303.9684    4.3076175    4.3076175    4.3076175   -3303.9684   -3003.8605     675.7869   -7583.8316    5812.4107    -6877.202   -1646.5598    79.930293 
   47100    494.10157   -115.04816   0.44707349   -114.60108   -2687.7988    4.3147016    4.3147016    4.3147016   -2687.7988   -3949.6166   -2686.8336   -1426.9462    2676.8404    1852.3019    820.66642    80.325287 
   47200    400.55781   -114.96437   0.36243312   -114.60194    3229.2532    4.3023752    4.3023752    4.3023752    3229.2532    16815.243    1008.8763   -8136.3603      141.285    11056.908    14822.147    79.638823 
   47300    377.39014   -114.94456   0.34147053   -114.60309   -10845.505    4.3109219    4.3109219    4.3109219   -10845.505   -4957.3322   -5369.1123   -22210.071    3431.9723   -7342.2416    7793.2675    80.114379 
   47400    620.20237   -115.16122   0.56117214   -114.60005   -9667.9697    4.3097691    4.3097691    4.3097691   -9667.9697    -13438.22    386.71805   -15952.407    2479.3341   -5624.3183   -7231.6025    80.050125 
   47500    483.14847   -115.03922   0.43716289   -114.60206    3077.7556    4.3051961    4.3051961    4.3051961    3077.7556    -1020.528   -1057.6976    11311.492   -5642.2182    8762.2622    6901.9358    79.795578 
   47600    457.04614   -115.01678   0.41354495   -114.60324   -8143.3791    4.3089109    4.3089109    4.3089109   -8143.3791   -5304.4664   -3341.4103   -15784.261    2249.2093   -1358.6861    14700.656    80.002314 
   47700    455.73501   -115.01476   0.41235861   -114.60241   -3861.7364    4.3100287    4.3100287    4.3100287   -3861.7364   -9599.8911    7519.9295   -9505.2476    6852.7972   -4436.3502   -4078.7016    80.064588 
   47800    644.93931   -115.18371   0.58355464   -114.60016   -5558.2526    4.3091091    4.3091091    4.3091091   -5558.2526    -5549.604   -6641.9113   -4483.2425   -282.36738   -2192.9963    1743.5804    80.013355 
   47900    395.30802   -114.96128   0.35768301    -114.6036    11891.508     4.303214     4.303214     4.303214    11891.508    9180.9201    4746.6334    21746.971   -1561.3277     7879.434    13242.728    79.685417 
   48000    439.58235   -115.00255   0.39774335   -114.60481   -5204.6436    4.3112637    4.3112637    4.3112637   -5204.6436    6735.4089   -4557.8428   -17791.497      5451.79     1130.521    5602.0871    80.133435 
   48100    513.35188   -115.06676   0.46449157   -114.60227     1045.922    4.3082468    4.3082468    4.3082468     1045.922    1698.6649   -4317.2207    5756.3217    8140.6074   -7279.6405   -5115.1281    79.965326 
   48200    493.23096   -115.04826   0.44628573   -114.60198    7740.8521    4.3041265    4.3041265    4.3041265    7740.8521    11857.637   -596.73436    11961.654    566.80281    3936.0519    3092.1747    79.736117 
   48300     408.5691   -114.97388   0.36968191   -114.60419   -5065.4531    4.3107938    4.3107938    4.3107938   -5065.4531    5890.9408   -14209.203   -6878.0971    1333.7366    2072.2956    16321.203    80.107236 
   48400    422.11101   -114.98561   0.38193492   -114.60368   -5795.6592    4.3087235    4.3087235    4.3087235   -5795.6592   -2205.8091   -12598.622   -2582.5461    13167.158   -802.04265   -4510.2108    79.991876 
   48500    634.31655   -115.17506   0.57394294   -114.60112   -3367.2348    4.3033372    4.3033372    4.3033372   -3367.2348    2548.3129   -5851.7362   -6798.2811     4880.565   -6539.0957   -107.62376    79.692256 
   48600    436.32323   -114.99836   0.39479443   -114.60357   -954.84154    4.3104427    4.3104427    4.3104427   -954.84154   -1185.6725   -14610.763    12931.911   -2283.4563    6511.7997     12726.39    80.087667 
   48700     457.5941   -115.01826   0.41404076   -114.60421   -12348.059    4.3091249    4.3091249    4.3091249   -12348.059   -15525.341   -20380.146    -1138.691    8803.9703    10738.478    4400.6749    80.014232 
   48800    521.00572    -115.0738   0.47141693   -114.60238     2911.882     4.300603     4.300603     4.300603     2911.882    -1061.078   -2518.3676    12315.092    7072.6518   -6992.0901   -2787.4901    79.540455 
   48900    665.90462   -115.20444    0.6025245   -114.60191   -8891.5192    4.3137861    4.3137861    4.3137861   -8891.5192   -7161.7556   -17200.107   -2312.6951   -3065.8228   -360.62798    -1091.126     80.27417 
   49000    341.77602   -114.91466   0.30924612   -114.60541    2097.5798    4.3073661    4.3073661    4.3073661    2097.5798   -4464.9212    -16627.92    27385.581    4895.7175    6619.7925    13580.355    79.916299 
   49100    498.25234   -115.05443   0.45082919    -114.6036    1633.9132    4.2983905    4.2983905    4.2983905    1633.9132    2152.0275   -4472.7881    7222.5003    12195.358    4640.4792     279.0974    79.417756 
   49200    634.79169   -115.17713   0.57437287   -114.60276   -10181.997    4.3173184    4.3173184    4.3173184   -10181.997   -6149.9192    -18977.56   -5418.5116   -497.05108   -5225.3894   -3110.6241    80.471524 
   49300    500.22823   -115.05846   0.45261702   -114.60584   -807.11927    4.3042132    4.3042132    4.3042132   -807.11927    7837.8892   -14207.116    3947.8693   -3531.3606   -2542.3714    9147.7697    79.740935 
   49400    377.79757   -114.94742   0.34183918   -114.60558    5678.8147    4.2963084    4.2963084    4.2963084    5678.8147    7364.0288   -2158.9572    11831.372    10058.039    15807.658    6476.9425    79.302403 
   49500    498.78089   -115.05486   0.45130743   -114.60356   -18019.846    4.3237067    4.3237067    4.3237067   -18019.846    -21765.83   -22753.192   -9540.5165    6832.1164    2238.1137    775.35194    80.829271 
   49600    712.90983   -115.24577   0.64505579   -114.60071    7793.3359    4.2956324    4.2956324    4.2956324    7793.3359    18579.557   -1653.0183    6453.4691   -3754.3131   -3867.6256    -3271.623    79.264977 
   49700    356.11993   -114.92873   0.32222479    -114.6065    9574.7256    4.3009045    4.3009045    4.3009045    9574.7256    1413.4559   -4700.0293     32010.75    2434.5441    5328.8072    9808.7239    79.557181 
   49800    411.07431    -114.9763   0.37194867   -114.60435   -23996.827    4.3228211    4.3228211    4.3228211   -23996.827   -34067.984   -23700.465   -14222.031    10792.632    11882.773    792.80537    80.779615 
   49900    640.04681   -115.17559   0.57912781   -114.59646    17962.585    4.2913669    4.2913669    4.2913669    17962.585    14296.552    13267.225    26323.978     577.4171    865.50002   -2942.5432    79.029081 
   50000    655.94955   -115.19556   0.59351694   -114.60204   -4499.8319    4.3105372    4.3105372    4.3105372   -4499.8319   -7763.2216   -15632.009    9895.7351   -4322.0558   -6327.0075    4564.4459    80.092934 
   50100    290.79088   -114.86991    0.2631137    -114.6068   -8477.7814     4.312498     4.312498     4.312498   -8477.7814   -21387.527   -10137.213    6091.3965    8422.6272    14036.512    6122.9668    80.202283 
   50200    477.01989   -115.03524   0.43161762   -114.60362    5181.3044    4.2955203    4.2955203    4.2955203    5181.3044   -8467.6873    14115.866    9895.7344    5017.5185    12422.431    4842.8076     79.25877 
   50300    782.52476   -115.30903   0.70804485   -114.60098   -10133.492    4.3155517    4.3155517    4.3155517   -10133.492   -14063.451   -15308.595   -1028.4317   -5802.3493   -892.76395    -4372.447    80.372777 
   50400    431.71195   -114.99593   0.39062204    -114.6053    3171.2392    4.3057881    4.3057881    4.3057881    3171.2392   -6111.9123    2829.2613    12796.369    181.94894    6040.1997    6550.4719    79.828498 
   50500    304.68722   -114.88177    0.2756874   -114.60608   -6627.9271     4.302223     4.302223     4.302223   -6627.9271   -23115.615    3952.0815   -720.24813    8177.5861    13679.285    3625.5941    79.630372 
   50600      555.282   -115.10681   0.50243082   -114.60438   -6060.1768    4.3125298    4.3125298    4.3125298   -6060.1768    -21066.41   -8238.4743    11124.354    1670.7994    2817.9675   -1393.5854    80.204053 
   50700     786.9683   -115.31318   0.71206546   -114.60111    6052.7271    4.3030623    4.3030623    4.3030623    6052.7271    4059.3793    1739.8168    12358.985   -4162.7993   -2230.3272    4346.1548    79.676989 
   50800    334.27415   -114.91042   0.30245828   -114.60796   -3227.0058    4.3072149    4.3072149    4.3072149   -3227.0058   -20163.656   -3692.8005    14175.439    7781.3867    17470.458     1867.318    79.907881 
   50900    351.17848   -114.92602   0.31775367   -114.60826   -10125.357    4.3096016    4.3096016    4.3096016   -10125.357   -31283.658   -7989.1867    8896.7739      8497.74    5382.1052    5097.9312    80.040792 
   51000    754.28406   -115.28357   0.68249207   -114.60108    2175.8949    4.3065324    4.3065324    4.3065324    2175.8949   -6814.1619    604.91822    12736.928    -1572.886   -5546.6574   -5133.4807    79.869901 
   51100    604.31527   -115.14989   0.54679715   -114.60309    4788.7085    4.3048476    4.3048476    4.3048476    4788.7085   -6213.0555    503.74522    20075.436    2449.2589    6739.9197    -264.4522    79.776201 
   51200    300.40493   -114.87982   0.27181269     -114.608   -7670.7902    4.3063049    4.3063049    4.3063049   -7670.7902   -24484.974   -4818.0186    6290.6225    11822.512    13446.063    7931.9033    79.857246 
   51300    429.52345    -114.9957   0.38864184   -114.60705   -7504.0091    4.3103326    4.3103326    4.3103326   -7504.0091   -15939.124   -4600.1379   -1972.7655    5031.9072      389.294   -3575.1144    80.081526 
   51400    757.92148   -115.28654   0.68578329   -114.60075    5054.0023    4.3030569    4.3030569    4.3030569    5054.0023    3846.1771    3274.6272    8041.2026    -5592.654   -7918.0566   -105.82811    79.676688 
   51500    387.90607   -114.95598   0.35098556   -114.60499    2140.7003    4.3082731    4.3082731    4.3082731    2140.7003   -2569.7507    681.66082    8310.1909    3927.3901    14797.438    1992.4464    79.966791 
   51600    333.43744   -114.90947    0.3017012   -114.60777   -11813.149    4.3069384    4.3069384    4.3069384   -11813.149   -30906.202     -1578.48   -2954.7638    8969.5297    9708.5799     4966.886    79.892495 
   51700    512.60494    -115.0693   0.46381572   -114.60549    4512.8373    4.3041856    4.3041856    4.3041856    4512.8373   -9024.4976    7475.4057    15087.604   -1166.2904   -6609.3345   -1535.0765    79.739399 
   51800    654.28431   -115.19396   0.59201019   -114.60195    235.12387    4.3101441    4.3101441    4.3101441    235.12387    -1308.937   -3020.1944     5034.503   -770.40652    5313.4958   -9106.5457    80.071019 
   51900    374.63384   -114.94426   0.33897658   -114.60528    2830.0872    4.3023514    4.3023514    4.3023514    2830.0872   -25647.025    13430.631    20706.655    7489.4523    7875.8632    4794.8064    79.637504 
   52000    374.22343   -114.94482   0.33860522   -114.60622   -11118.222    4.3088877    4.3088877    4.3088877   -11118.222    -29772.78   -8209.5648    4627.6795    9979.7936    3055.4828   -767.80945    80.001019 
   52100    536.82028   -115.08878   0.48572627   -114.60306   -1894.4511    4.3086685    4.3086685    4.3086685   -1894.4511   -8550.7824   -1297.4912    4164.9202   -1126.4125   -8837.2101   -6015.2663     79.98881 
   52200    521.13161   -115.07348   0.47153083   -114.60195    10022.623    4.3016974    4.3016974    4.3016974    10022.623    3854.8841    10481.963    15731.022    3979.2867    7843.8326   -649.18579    79.601191 
   52300    407.12461     -114.972    0.3683749   -114.60363   -11310.255    4.3108219    4.3108219    4.3108219   -11310.255   -33248.578   -7891.6256    7209.4399    11996.002    9217.4916    3285.0965    80.108803 
   52400    368.76045   -114.93712    0.3336622   -114.60346   -8931.6917    4.3074684    4.3074684    4.3074684   -8931.6917   -17859.336   -9334.5519    398.81313   -586.50444   -11124.947     2057.934    79.921995 
   52500    528.43469   -115.07988   0.47813881   -114.60174    3358.7985    4.3043455    4.3043455    4.3043455    3358.7985    5319.2853    2776.7104    1980.3997   -1890.9491    4040.4325   -9382.6074    79.748287 
   52600    598.98293   -115.14324   0.54197234   -114.60127   -2591.8817    4.3083016    4.3083016    4.3083016   -2591.8817   -14768.266   -5589.1583    12581.779      4479.93    2805.0431     862.4156    79.968381 
   52700    398.93638   -114.96532   0.36096602   -114.60436   -8728.5727    4.3057229    4.3057229    4.3057229   -8728.5727   -25966.833    -3526.901    3308.0162    6631.7882   -3531.6186    3621.8313     79.82487 
   52800    364.35866   -114.93586   0.32967937   -114.60618   -9155.9444     4.308023     4.308023     4.308023   -9155.9444   -16032.103   -8798.3315    -2637.399   -710.26278    -7058.795   -8823.5472    79.952865 
   52900    556.12215   -115.10578     0.503191   -114.60259    3993.4705     4.308251     4.308251     4.308251    3993.4705    11507.904   -4974.5121    5447.0195   -403.11167    -2049.355   -3536.6376     79.96556 
   53000    585.06584   -115.13095   0.52937986   -114.60157    1923.4362    4.3046079    4.3046079    4.3046079    1923.4362   -14940.605    2488.0351    18222.879    9261.4423     9894.759    4100.1383    79.762873 
   53100    296.41953   -114.87453   0.26820662   -114.60632     -7576.33    4.3072206    4.3072206    4.3072206     -7576.33   -12094.956   -8287.5078   -2346.5265    3295.6772   -7124.6663    -2492.074    79.908201 
   53200    320.32895   -114.89771   0.28984037   -114.60787   -1112.8794    4.3088553    4.3088553    4.3088553   -1112.8794    7488.0255   -9291.9555   -1534.7083    1607.2454   -2261.3159   -10924.307    79.999217 
   53300    646.00602    -115.1865   0.58451982   -114.60198    11708.694    4.3034254    4.3034254    4.3034254    11708.694     10152.28    8029.2999    16944.501    3463.0777   -317.46956   -1252.8254    79.697157 
   53400    538.72942    -115.0908    0.4874537   -114.60334   -3504.3017    4.3083871    4.3083871    4.3083871   -3504.3017   -18053.887   -3482.5736    11023.556    3158.5002   -5056.3505    524.86035    79.973142 
   53500    276.11462   -114.85676   0.24983431   -114.60693   -14646.657    4.3100912    4.3100912    4.3100912   -14646.657    -19158.24   -15282.614   -9499.1161   -815.19664   -4401.3012    -11249.19    80.068076 
   53600    451.31952   -115.01414   0.40836339   -114.60578    5324.8356    4.3027013    4.3027013    4.3027013    5324.8356    3818.9572    2694.9399    9460.6098   -3433.6955   -8925.8718   -4471.4352    79.656933 
   53700    720.72594   -115.25347   0.65212797   -114.60134   -1026.0475     4.309366     4.309366     4.309366   -1026.0475   -9691.2256   -4937.5896    11550.673    5029.0974    7348.4136    2713.2479    80.027662 
   53800    434.27745   -114.99666   0.39294336   -114.60372   -9253.2784    4.3092006    4.3092006    4.3092006   -9253.2784   -18382.748   -11954.687       2577.6    849.26231   -2544.5015   -5898.4865    80.018448 
   53900    324.01701   -114.89903    0.2931774   -114.60585   -8538.3802    4.3054908    4.3054908    4.3054908   -8538.3802   -8669.1423   -11499.545   -5446.4536   -2737.9858   -7837.1958   -8348.5613    79.811965 
   54000    485.93426   -115.04382   0.43968353   -114.60414     6634.582     4.307674     4.307674     4.307674     6634.582    13247.364    920.35099    5736.0309   -214.68539    4658.4056     2488.125    79.933438 
   54100    655.51853   -115.19505   0.59312694   -114.60192   -3371.1366    4.3081775    4.3081775    4.3081775   -3371.1366   -15356.696   -5436.9952    10680.281    3612.6172   -281.17248   -1636.2142    79.961469 
   54200    377.95657    -114.9471   0.34198305   -114.60511   -5658.5737    4.3062663    4.3062663    4.3062663   -5658.5737   -12154.777   -2050.7007   -2770.2439    4430.4767   -5361.2807   -10575.733    79.855096 
   54300    426.55497   -114.99169    0.3859559   -114.60574   -1390.1955    4.3075497    4.3075497    4.3075497   -1390.1955   -8534.5618    2897.1127    1466.8627   -3300.5756   -5667.4277   -2638.4315     79.92652 
   54400    576.78208   -115.12433   0.52188455   -114.60244    3465.2607    4.3099834    4.3099834    4.3099834    3465.2607   -9329.8972    8131.1939    11594.485    2118.2623    8466.4221    2929.0817    80.062065 
   54500    614.77491   -115.15746   0.55626125   -114.60119    621.54255    4.3031976    4.3031976    4.3031976    621.54255   -17216.517    10546.378    8534.7659    996.59685    4043.8019   -3543.1555    79.684504 
   54600    462.87516   -115.02379   0.41881918   -114.60497   -5835.0675    4.3101145    4.3101145    4.3101145   -5835.0675   -12880.163   -5993.9833    1368.9439   -1872.9489   -7338.7284   -7511.6815    80.069373 
   54700    452.62571    -115.0147   0.40954525   -114.60515    2586.8328    4.3086475    4.3086475    4.3086475    2586.8328    925.53975   -348.45365    7183.4122   -1199.1274    7220.2417    1945.9901    79.987643 
   54800    591.34669   -115.13778   0.53506291   -114.60272    8771.2885    4.3005013    4.3005013    4.3005013    8771.2885    1901.7146     15791.01    8621.1406   -1827.6835     8085.421    1053.3101     79.53481 
   54900    561.45498   -115.11134   0.50801626   -114.60332   -10327.253    4.3149261    4.3149261    4.3149261   -10327.253   -10116.282   -18142.772   -2722.7057    1525.2096   -1145.3292   -10434.308     80.33783 
   55000    571.10028   -115.11894   0.51674353   -114.60219   -5867.1189    4.3057532    4.3057532    4.3057532   -5867.1189   -6040.3659   -8056.6679   -3504.3229    -6687.105   -4582.0672   -5663.8803     79.82656 
   55100    472.99764   -115.03157   0.42797821   -114.60359    7621.2215    4.3020124    4.3020124    4.3020124    7621.2215     9164.021    13827.564   -127.92102    1374.1674    9575.5877    3261.0133    79.618679 
   55200     691.5109   -115.22752   0.62569359   -114.60182   -17556.821    4.3155292    4.3155292    4.3155292   -17556.821   -25816.932   -12590.209   -14263.323    6886.7986    10281.903   -5882.8684    80.371518 
   55300      641.952   -115.18153   0.58085166   -114.60067   -2006.0844    4.3032033    4.3032033    4.3032033   -2006.0844   -3367.9408   -3226.1848    575.87226   -133.89829   -6132.1647   -13229.794     79.68482 
   55400    579.02674   -115.12761   0.52391556    -114.6037   -4839.2627    4.3060045    4.3060045    4.3060045   -4839.2627   -8153.0071    3698.3899   -10063.171   -1926.4455    6824.6979    2303.7899    79.840534 
   55500    450.47475    -115.0129   0.40759902   -114.60531     1452.072    4.3109976    4.3109976    4.3109976     1452.072   -404.80452     9474.742   -4713.7214   -4440.3573    8943.4433    4558.5035    80.118597 
   55600    681.73696   -115.21861   0.61684993   -114.60176    578.28497    4.3055959    4.3055959    4.3055959    578.28497   -471.89807   -1821.9316    4028.6845    4734.1513   -1354.2719   -9754.4074     79.81781 
   55700    661.56536   -115.20047   0.59859824   -114.60187   -650.66908    4.3073274    4.3073274    4.3073274   -650.66908   -3373.7798    271.88142    1149.8912   -3006.8921    2940.1843   -1936.0815    79.914143 
   55800    488.81681   -115.04727   0.44229172   -114.60498    6036.6877    4.3065443    4.3065443    4.3065443    6036.6877    1219.9187    14081.384    2808.7599   -3497.3266    10947.112    4000.8516    79.870563 
   55900    576.90912    -115.1266   0.52199949    -114.6046    567.93549    4.3082022    4.3082022    4.3082022    567.93549   -3263.2258    2406.7318    2560.3005    3712.2368    6161.3541    -619.7107    79.962847 
   56000    757.96539   -115.28763   0.68582302   -114.60181   -416.16228    4.3063224    4.3063224    4.3063224   -416.16228    -5862.554   -3941.7648    8555.8319    1539.9578   -4914.7094   -6395.9423    79.858222 
   56100    711.15442   -115.24591   0.64346746   -114.60244   -4796.2531    4.3090481    4.3090481    4.3090481   -4796.2531   -16125.321    1147.9484    588.61363    2028.1165    9104.1861   -802.82212    80.009958 
   56200    538.97589   -115.09209   0.48767671   -114.60441   -1210.1855    4.3074054    4.3074054    4.3074054   -1210.1855    2862.7202    1346.4154    -7839.692    1352.5673    10007.248    5723.8432    79.918483 
   56300    689.53202   -115.22701   0.62390306    -114.6031    3449.0379    4.3020696    4.3020696    4.3020696    3449.0379   -1367.8706   -571.81829    12286.802    9467.9612   -5939.7468   -4974.7039    79.621855 
   56400    747.23153   -115.27865   0.67611079   -114.60254     -6071.39    4.3127477    4.3127477    4.3127477     -6071.39   -786.09872   -12703.083   -4724.9881    3236.6739    1742.7077   -1715.0483    80.216216 
   56500    670.16294   -115.20951   0.60637751   -114.60313   -1607.0163    4.3060126    4.3060126    4.3060126   -1607.0163   -3180.8192    4126.1289   -5766.3587   -6585.7947    9981.2879    4860.1933    79.840985 
   56600    544.03343   -115.09631   0.49225288   -114.60406    9477.9726    4.3018079    4.3018079    4.3018079    9477.9726    13417.719    7373.9695    7642.2291    4544.8948     3852.117     -1701.99    79.607329 
   56700    739.04331   -115.27126   0.66870192   -114.60255   -8413.9697    4.3139709    4.3139709    4.3139709   -8413.9697   -14420.967    -10343.92   -477.02188    5086.2502    -1294.434   -1773.9605    80.284484 
   56800    741.10171    -115.2715    0.6705644   -114.60094    4367.4872    4.3029206    4.3029206    4.3029206    4367.4872     1110.567    11595.309    396.58565    334.79841    9134.4534    -1798.112    79.669116 
   56900    690.03019   -115.22756   0.62435382   -114.60321    2106.3062     4.305446     4.305446     4.305446    2106.3062   -5412.1981     10044.46    1686.6568   -345.15242     5824.298    4606.4525    79.809471 
   57000     619.8391   -115.16476   0.56084344   -114.60391   -1934.8039    4.3113237    4.3113237    4.3113237   -1934.8039   -1596.4026   -1656.1791     -2551.83    4931.7856    -9139.636    1613.4738    80.136779 
   57100    706.92465    -115.2415   0.63964028   -114.60186    6659.3547    4.3028967    4.3028967    4.3028967    6659.3547    2637.8881    10221.139    7119.0368    6205.4531    1149.8157   -5603.0027     79.66779 
   57200    806.90673   -115.33232   0.73010616   -114.60222   -2206.3715    4.3084531    4.3084531    4.3084531   -2206.3715   -957.49531    1549.3969   -7211.0163   -1615.8502    10521.516    3906.3699    79.976816 
   57300    647.18792    -115.1888   0.58558923   -114.60321    3862.2888    4.3069868    4.3069868    4.3069868    3862.2888    5978.4106    5381.0353    227.42056    8488.4898   -4088.0891    -951.2145    79.895187 
   57400    691.26473   -115.22883   0.62547085   -114.60336   -713.71646    4.3057668    4.3057668    4.3057668   -713.71646   -1953.4438    -2092.408    1904.7024    4540.9472   -6391.4793   -3613.7787    79.827314 
   57500    780.32652   -115.30813   0.70605584   -114.60207   -1334.3588    4.3092878    4.3092878    4.3092878   -1334.3588   -773.53522   -5184.1269    1954.5858   -8438.3278     6347.684    610.41786    80.023308 
   57600    876.29188   -115.39374    0.7928873   -114.60085   -1054.7468    4.3053402    4.3053402    4.3053402   -1054.7468   -4249.6401    8719.9971   -7634.5974    644.05142    3590.2399   -4370.1365    79.803592 
   57700    636.06916   -115.17975   0.57552874   -114.60422    1583.7189    4.3061038    4.3061038    4.3061038    1583.7189    886.42933    2081.1624    1783.5651    9104.7487   -8439.7884    2891.1736    79.846057 
   57800    713.77095   -115.25003   0.64583496    -114.6042   -3406.0451    4.3087555    4.3087555    4.3087555   -3406.0451   -7714.9228   -3880.2451    1377.0325    2033.1787      1349.76   -2212.5341    79.993657 
   57900    777.52667   -115.30535   0.70352247   -114.60183    5448.0387    4.3075127    4.3075127    4.3075127    5448.0387    12302.746    7767.2521   -3725.8821   -6894.4769     3392.215   -1120.3564     79.92446 
   58000    808.94064   -115.33402   0.73194649   -114.60207   -221.29581    4.3052327    4.3052327    4.3052327   -221.29581    57.213762    9375.1861   -10096.287    4914.6281   -8284.1602    5446.4977    79.797614 
   58100    587.44722   -115.13659   0.53153459   -114.60506    2247.2182    4.3066903    4.3066903    4.3066903    2247.2182    248.48754    -4118.317    10611.484    7702.7541   -6176.3566   -5368.7931    79.878686 
   58200    780.07581   -115.30937   0.70582898   -114.60354   -4547.7909    4.3090884    4.3090884    4.3090884   -4547.7909   -7311.3121   -4608.6884   -1723.3723   -7250.3276    4649.8629    1534.1817    80.012198 
   58300    849.00444    -115.3695   0.76819706    -114.6013    3305.5815    4.3052752    4.3052752    4.3052752    3305.5815    6880.2337    8487.2243   -5450.7135   -1380.0126   -480.68334   -1439.3017    79.799975 
   58400    787.13396   -115.31497   0.71221535   -114.60276   -3763.4613    4.3063544    4.3063544    4.3063544   -3763.4613   -8931.4364    -2134.482   -224.46543    5041.3026   -11230.067   -1603.9507    79.860001 
   58500    635.27531   -115.17954   0.57481045   -114.60473   -2788.3536    4.3085593    4.3085593    4.3085593   -2788.3536   -8479.0411   -8841.4277    8955.4081   -8361.2402   -424.52766    2616.8806     79.98273 
   58600    750.65796   -115.28197   0.67921109   -114.60276    3914.5362     4.306276     4.306276     4.306276    3914.5362    9615.6226    5079.4503   -2951.4641   -6883.8322    3667.8808   -8017.8259    79.855639 
   58700    814.67352   -115.33854   0.73713372    -114.6014    4670.6447    4.3061291    4.3061291    4.3061291    4670.6447    6624.6251    9506.1344   -2118.8255    7016.1597   -6322.3091    2439.9999    79.847464 
   58800    655.54374   -115.19675   0.59314976    -114.6036    521.07448    4.3076655    4.3076655    4.3076655    521.07448   -6303.3362     6104.443    1762.1167    772.43039   -1638.2027   -499.58178    79.932962 
   58900    631.91364    -115.1758   0.57176874   -114.60403    955.13363     4.307135     4.307135     4.307135    955.13363   -10021.307    3468.9604    9417.7472   -12015.877    1581.6691   -5489.7359    79.903436 
   59000    788.32112   -115.31596   0.71328952   -114.60267     5082.006    4.3053187    4.3053187    4.3053187     5082.006    10581.787    8162.5559   -3498.3249   -4186.6381   -5485.0204    5076.7228    79.802395 
   59100    803.82191   -115.32914   0.72731495   -114.60183   -26.494713    4.3070631    4.3070631    4.3070631   -26.494713   -6461.6173    12378.698   -5996.5645    4835.0783   -10077.848   -1656.3625    79.899436 
   59200    651.83644   -115.19368   0.58979531   -114.60388   -5608.9407    4.3082276    4.3082276    4.3082276   -5608.9407   -13960.115   -6931.3323    4064.6255   -9511.8634    254.85211    1315.9402    79.964259 
   59300    657.56706   -115.19825   0.59498049   -114.60327    897.09646    4.3054192    4.3054192    4.3054192    897.09646   -3683.3317   -1804.4969    8179.1179   -10840.951     2473.622   -644.29856     79.80798 
   59400    725.75894   -115.25845   0.65668194   -114.60177    3527.0002    4.3082987    4.3082987    4.3082987    3527.0002    15622.282    9480.6147   -14521.896    4925.2367   -9603.8859   -382.81805    79.968219 
   59500    690.55723   -115.22703    0.6248307    -114.6022   -2516.0673    4.3071541    4.3071541    4.3071541   -2516.0673   -8681.5558    4199.2123   -3065.8585    -5863.287   -3452.6826    5651.1669    79.904501 
   59600    545.00944   -115.09646     0.493136   -114.60333   -342.50711    4.3055792    4.3055792    4.3055792   -342.50711   -13984.858   -736.34019    13693.677   -9741.0127    1887.6757   -6396.8182    79.816878 
   59700    642.00833   -115.18354   0.58090263   -114.60264   -3627.3912    4.3100785    4.3100785    4.3100785   -3627.3912   -6551.4978    2233.7036   -6564.3794    806.98697   -3753.0891    498.53375    80.067366 
   59800    657.51456   -115.19666   0.59493299   -114.60173     3220.209    4.3048129    4.3048129    4.3048129     3220.209     9581.291    6288.8206   -6209.4847   -1021.9481   -5510.1944    4627.1373    79.774268 
   59900    636.73115   -115.17882   0.57612773   -114.60269   -4516.9596    4.3049259    4.3049259    4.3049259   -4516.9596   -19566.656   -8015.1394    14030.917   -10926.952   -1426.6209   -1238.1852    79.780553 
   60000    557.88958   -115.10797   0.50479022   -114.60318   -6984.3717    4.3116779    4.3116779    4.3116779   -6984.3717   -20950.151   -5145.1193    5142.1549   -9872.1517   -206.72018    1377.8743    80.156534 
   60100    597.91417   -115.14261   0.54100531    -114.6016    3776.4854    4.3056653    4.3056653    4.3056653    3776.4854    8226.0775    9450.3594   -6346.9807    6942.4292   -10403.533   -1200.1038    79.821668 
   60200    580.94006   -115.12705   0.52564678    -114.6014     5684.696    4.3037034    4.3037034    4.3037034     5684.696    4074.2433    7792.2689    5187.5757   -6245.4308   -3290.5207    3046.5143    79.712603 
   60300    563.39388    -115.1119   0.50977062   -114.60213   -4990.8824    4.3099611    4.3099611    4.3099611   -4990.8824   -25443.132    5771.5644    4698.9202   -13193.373    2816.5207   -8.0407079    80.060824 
   60400    557.01181   -115.10646   0.50399599   -114.60247   -618.61048    4.3064114    4.3064114    4.3064114   -618.61048   -16526.368    11410.168    3260.3685    6004.2157   -6837.1953   -4565.3685    79.863171 
   60500    557.77003   -115.10809   0.50468204   -114.60341    4355.1323    4.3041478    4.3041478    4.3041478    4355.1323    8227.2017    9958.3608   -5120.1655   -294.00736   -6244.2852    7765.6223    79.737298 
   60600    597.37365     -115.143   0.54051623   -114.60248   -2716.7478    4.3084927    4.3084927    4.3084927   -2716.7478   -15302.248    821.34863    6330.6561    -10255.68    422.39884    1256.2431    79.979021 
   60700    597.61951   -115.14226   0.54073869   -114.60152     -8953.29    4.3084425    4.3084425    4.3084425     -8953.29    -28331.91   -2854.5217    4326.5615   -5211.4825    2744.8728   -2966.4267    79.976227 
   60800    500.69544   -115.05502   0.45303976   -114.60198   -2442.8808     4.305163     4.305163     4.305163   -2442.8808   -16307.981    4165.2478     4814.091    5665.5543   -7688.3615    4276.2246    79.793735 
   60900    542.68384   -115.09355   0.49103174   -114.60252    624.27042    4.3070371    4.3070371    4.3070371    624.27042    6220.6525    1592.2758    -5940.117   -1806.7045   -5927.4989    3617.4147    79.897988 
   61000    593.92092   -115.13892   0.53739213   -114.60152   -277.70764    4.3071955    4.3071955    4.3071955   -277.70764   -17234.333    931.65718    15469.552   -11123.295    2750.9564    4112.4295    79.906803 
   61100    513.10983   -115.06684   0.46427256   -114.60257   -5157.8076    4.3054084    4.3054084    4.3054084   -5157.8076   -24620.939    6954.2434    2193.2731    7715.5761   -7576.2973   -2753.5618    79.807379 
   61200    432.23572   -114.99568   0.39109596   -114.60458   -3547.3936    4.3093471    4.3093471    4.3093471   -3547.3936   -11580.726    2490.1699   -1551.6245    3318.4594   -7530.0371    4541.7069    80.026614 
   61300    668.36854    -115.2049    0.6047539   -114.60015    3532.6784    4.3057839    4.3057839    4.3057839    3532.6784    7681.5077    1786.5785     1129.949   -7137.9394    104.63143    7565.9715    79.828263 
   61400    625.94372   -115.16747   0.56636703   -114.60111    3180.9767    4.3028395    4.3028395    4.3028395    3180.9767   -19147.621    7485.1057    21205.446     2870.763    808.29689   -5945.6008    79.664611 
   61500    424.66167   -114.98972    0.3842428   -114.60548   -12760.561    4.3100483    4.3100483    4.3100483   -12760.561   -25150.571   -2317.1388   -10813.974    4970.1978   -6910.6823    6071.0143    80.065685 
   61600    541.44135   -115.09399   0.48990751   -114.60408   -984.50791    4.3072666    4.3072666    4.3072666   -984.50791   -9288.4203    2704.1335     3630.763    211.05074   -6087.9289    3838.7579    79.910762 
   61700    813.02322   -115.33531    0.7356405   -114.59967    11429.156    4.3017132    4.3017132    4.3017132    11429.156    5700.0513    15883.987    12703.429   -4810.2187    5888.1547    -2836.091    79.602068 
   61800     501.6751   -115.05805   0.45392618   -114.60413   -3009.3171    4.3090454    4.3090454    4.3090454   -3009.3171   -26828.484    10314.968    7485.5655    3598.5482   -4237.3618    1596.4446    80.009803 
   61900    344.82747   -114.91918   0.31200715   -114.60717   -10160.078    4.3086039    4.3086039    4.3086039   -10160.078   -25848.334    7388.8306   -12020.732    7270.5183   -10642.494    1931.9584    79.985215 
   62000    751.53932   -115.28267   0.68000857   -114.60266     7335.182    4.3014468    4.3014468    4.3014468     7335.182   -2762.6701     16588.01    8180.2064   -3993.6778   -896.78875    8427.3512     79.58728 
   62100    734.42675   -115.26645   0.66452475   -114.60192    8903.2583    4.3079276    4.3079276    4.3079276    8903.2583   -3085.3753    21339.235    8455.9149    1320.0935    81.379964   -3878.2851    79.947555 
   62200    370.14149   -114.94347    0.3349118   -114.60856   -10796.511    4.3080508    4.3080508    4.3080508   -10796.511   -29626.194    5250.9228   -8014.2622    7404.2735     -11049.6   -594.64899    79.954416 
   62300    432.49578   -114.99908   0.39133127   -114.60775   -3667.0818    4.3029451    4.3029451    4.3029451   -3667.0818   -16027.311    5927.7582    -901.6927    3293.9363   -6189.6619    8796.7487    79.670479 
   62400    889.80666   -115.40592   0.80511577    -114.6008   -1443.7898    4.3098717    4.3098717    4.3098717   -1443.7898   -9350.0869    6968.8517   -1950.1341    1515.0482    3100.8228   -2436.4112    80.055843 
   62500    553.29743   -115.10584   0.50063515    -114.6052    6036.3005    4.3046965    4.3046965    4.3046965    6036.3005    -4570.914    19204.217    3475.5982    1922.4531    -8278.768    1029.5736    79.767799 
   62600    373.69256   -114.94574   0.33812488   -114.60762   -7414.7467    4.3029218    4.3029218    4.3029218   -7414.7467   -22428.485    4179.8119   -3995.5672    5871.4017   -7612.8733    3813.6486    79.669181 
   62700     622.1411   -115.16778   0.56292634   -114.60486   -9130.7143    4.3121065    4.3121065    4.3121065   -9130.7143   -22288.068   -1821.1827   -3282.8923   -2743.6722    2498.8327     5000.115    80.180439 
   62800    769.32809   -115.29648   0.69610423   -114.60038    6959.9919    4.3038319    4.3038319    4.3038319    6959.9919   -7312.1295    25930.507    2261.5979   -8124.4053   -1529.5223    913.93216    79.719744 
   62900    479.66387   -115.03793   0.43400995   -114.60392    5570.2792    4.3036928    4.3036928    4.3036928    5570.2792   -5006.6224    15559.233    6158.2269    8588.2942   -10481.801     1231.299    79.712017 
   63000    477.45363   -115.03631   0.43201008    -114.6043   -9086.8236    4.3109228    4.3109228    4.3109228   -9086.8236   -23414.846    6734.7562    -10580.38    2176.4474   -2876.5117    5331.8205    80.114429 
   63100    691.74458    -115.2274   0.62590503   -114.60149   -954.06737    4.3031643    4.3031643    4.3031643   -954.06737   -19276.839    8479.9092    7934.7279   -10540.132    3101.6168   -2828.7346    79.682653 
   63200    611.93068   -115.15616   0.55368774   -114.60247    5994.5359    4.3052298    4.3052298    4.3052298    5994.5359   -7549.4091    24621.787    911.23016   -3275.0605   -9913.7056   -988.25697    79.797449 
   63300    559.50656   -115.10913    0.5062533   -114.60288   -2807.3906    4.3096427    4.3096427    4.3096427   -2807.3906   -8218.5771    9690.8941   -9894.4889    2623.3935    -6937.167    3306.1064    80.043084 
   63400    567.59467   -115.11559   0.51357159   -114.60202   -4555.3308    4.3048243    4.3048243    4.3048243   -4555.3308   -19798.585    2783.1955    3349.3968   -3616.3951    3959.7505    3446.8448    79.774904 
   63500    618.16762   -115.16118   0.55933105   -114.60185   -5329.0604    4.3057193    4.3057193    4.3057193   -5329.0604   -23823.571    6267.6706     1568.719   -15075.819   -3924.0158   -793.50482    79.824674 
   63600    627.48556   -115.17013   0.56776212   -114.60236     2481.835     4.307517     4.307517     4.307517     2481.835   -3742.4917    25870.935   -14682.939     393.9896   -10241.201     151.3379      79.9247 
   63700     593.9594   -115.14026   0.53742694   -114.60283    1178.5851    4.3053504    4.3053504    4.3053504    1178.5851   -9970.5715    13206.567    299.75996    300.86548   -873.85083    4715.1802    79.804154 
   63800    550.46893   -115.10162   0.49807586   -114.60355   -6824.3505    4.3060591    4.3060591    4.3060591   -6824.3505   -25264.138     1027.888    3763.1989   -16969.097    2863.3304   -896.82427    79.843574 
   63900    617.23953   -115.16104    0.5584913   -114.60255   -5535.4189    4.3092704    4.3092704    4.3092704   -5535.4189   -27740.732    23840.738   -12706.262     400.0769   -11609.658    914.12441    80.022338 
   64000    724.22912   -115.25601   0.65529772   -114.60072    3863.0464     4.304192     4.304192     4.304192    3863.0464   -693.75507    20233.629   -7950.7351    1218.8337    -7092.175      -1032.3    79.739757 
   64100     571.3804   -115.12063   0.51699699   -114.60364    1943.5498    4.3047592    4.3047592    4.3047592    1943.5498   -15854.841    12248.086    9437.4043   -11801.409    6164.2505    2513.9137    79.771286 
   64200    544.96646   -115.09745   0.49309711   -114.60435   -10617.664    4.3106967    4.3106967    4.3106967   -10617.664   -31628.936    6120.2228   -6344.2779   -10008.116   -6761.7894     1761.623    80.101826 
   64300    675.39931   -115.21251   0.61111549   -114.60139    4600.8464    4.3033331    4.3033331    4.3033331    4600.8464   -14472.842     34092.39   -5817.0087    2415.8991   -10458.494   -1953.9791    79.692028 
   64400    677.87001   -115.21503   0.61335103   -114.60168    5395.5783    4.3057903    4.3057903    4.3057903    5395.5783    112.82613    17484.597   -1410.6886    975.87481    2915.4814     6320.905    79.828621 
   64500    515.41939   -115.07015   0.46636229   -114.60379   -3369.8194    4.3093516    4.3093516    4.3093516   -3369.8194   -22346.039    11094.248    1142.3322   -15399.436     2679.936    -809.8146    80.026864 
   64600    598.35335   -115.14496   0.54140269   -114.60356   -875.69599    4.3029414    4.3029414    4.3029414   -875.69599   -16813.546     16343.54    -2157.082   -682.71524   -10430.042    242.39511    79.670273 
   64700    766.15509   -115.29444   0.69323323   -114.60121   -747.56906    4.3067363    4.3067363    4.3067363   -747.56906   -12558.276    22283.408   -11967.839    1543.1329   -3389.2203   -1175.2457     79.88125 
   64800    582.55062      -115.13   0.52710404    -114.6029    2937.1853    4.3089965    4.3089965    4.3089965    2937.1853   -2750.2182    11602.591    -40.81732    -10243.44    9660.5119   -1513.8992     80.00708 
   64900    613.70459   -115.15804   0.55529281   -114.60275   -3558.4471    4.3041417    4.3041417    4.3041417   -3558.4471   -18538.085    5160.8042    2701.9394   -5392.0434   -6709.2693    6457.0678    79.736964 
   65000    641.48182   -115.18271   0.58042623   -114.60228    708.88976    4.3053578    4.3053578    4.3053578    708.88976   -15412.161    24899.377   -7360.5463      2386.63   -8876.5532   -3504.0426    79.804569 
   65100    751.70394   -115.28202   0.68015752   -114.60186     -3718.59     4.308336     4.308336     4.308336     -3718.59   -10267.053    10877.375   -11766.092   -2811.0056    7904.8409    3085.1381    79.970296 
   65200    517.33669   -115.07176   0.46809711   -114.60367    7120.2897    4.3056863    4.3056863    4.3056863    7120.2897   -1338.6824    16097.514    6602.0375   -12617.321    2841.3365    3054.0153    79.822835 
   65300    705.99835   -115.24122   0.63880214   -114.60242    -3488.382    4.3039367    4.3039367    4.3039367    -3488.382   -15852.447    7405.6546   -2018.3531    2414.5823   -8334.1513   -2744.4509    79.725571 
   65400    631.72844   -115.17395   0.57160117   -114.60235   -1088.2624    4.3089436    4.3089436    4.3089436   -1088.2624    -13378.46    20689.305   -10575.632    3597.4978    676.69185   -248.45444    80.004134 
   65500    721.49878    -115.2549   0.65282726   -114.60207   -4337.2113    4.3062138    4.3062138    4.3062138   -4337.2113   -11188.161    3142.7921   -4966.2647   -10945.371    11500.272   -5660.8623    79.852178 
   65600    594.56959   -115.14133   0.53797906   -114.60335    9918.9281    4.3025851    4.3025851    4.3025851    9918.9281   -745.78871    21127.515    9375.0575   -6789.9441   -5383.3672     6908.388    79.650482 
   65700    721.92418   -115.25576   0.65321217   -114.60255   -7862.2494    4.3097075    4.3097075    4.3097075   -7862.2494   -21848.007    6871.8147   -8610.5558    3743.3259   -8653.5665   -1198.8371    80.046689 
   65800    623.27676   -115.16661   0.56395391   -114.60266    -370.1409    4.3056728    4.3056728    4.3056728    -370.1409   -16218.314    20263.051   -5155.1591     1849.344    13226.031   -4905.9009    79.822088 
   65900     697.7383   -115.23404   0.63132827   -114.60271    4649.1874    4.3036492    4.3036492    4.3036492    4649.1874   -2412.8737    14431.238    1929.1984    -9896.654    4649.1529    8387.3334     79.70959 
   66000    696.71281   -115.23264   0.63040039   -114.60224    1067.1213     4.309117     4.309117     4.309117    1067.1213   -5946.6157    7625.5472    1522.4325    1324.6552   -6693.3492    193.87087    80.013791 
   66100    638.16695     -115.181   0.57742687   -114.60357   -41.183705    4.3044696    4.3044696    4.3044696   -41.183705   -9697.2823    15361.977   -5788.2456    4495.2845    6162.0271   -408.71748    79.755185 
   66200    709.61042   -115.24531   0.64207042   -114.60324   -2431.6408    4.3056837    4.3056837    4.3056837   -2431.6408    -8115.622    9436.6405   -8615.9407   -2543.7489    11797.602   -4906.5972     79.82269 
   66300    694.98876   -115.23107   0.62884043   -114.60223    5091.9709    4.3099027    4.3099027    4.3099027    5091.9709    6682.5627    8627.4216   -34.071715    232.70357   -1732.4091    3137.7941    80.057567 
   66400    743.11752   -115.27399   0.67238835    -114.6016    523.85532    4.3040468    4.3040468    4.3040468    523.85532   -6613.7047    12341.068   -4155.7975    201.65981   -4040.5245    3545.3005     79.73169 
   66500     564.0365   -115.11405   0.51035208    -114.6037   -43.076038    4.3054726    4.3054726    4.3054726   -43.076038   -9998.2385    21593.624   -11724.614    3029.3328    14004.154   -10432.045    79.810953 
   66600     813.9452   -115.33929   0.73647472   -114.60282   -6619.2298    4.3086047    4.3086047    4.3086047   -6619.2298    -8087.966   -267.73449   -11501.989   -5758.5864    3820.1973    9302.4813    79.985258 
   66700    708.47513   -115.24332   0.64104318   -114.60228     7156.213    4.3065335    4.3065335    4.3065335     7156.213    3586.5396    19636.171   -1754.0712   -1381.0782   -7674.0576    8936.5307    79.869962 
   66800    723.36241   -115.25724   0.65451351   -114.60273   -7475.9671    4.3061893    4.3061893    4.3061893   -7475.9671   -13495.195    6831.8712   -15764.578    2952.5047    11934.549    -4235.625    79.850816 
   66900    630.00209   -115.17317   0.57003913   -114.60313   -3546.0425    4.3077252    4.3077252    4.3077252   -3546.0425   -6788.0255    9008.3754   -12858.477   -3045.1249    11327.934   -4986.0876    79.936287 
   67000     856.3178   -115.37575   0.77481434   -114.60093   -4475.4045    4.3081642    4.3081642    4.3081642   -4475.4045   -539.22221   -7802.0216   -5084.9696    -455.1689   -2057.3208    5470.8873    79.960727 
   67100    673.47227   -115.21259   0.60937186   -114.60322    9771.9488    4.3031627    4.3031627    4.3031627    9771.9488    8424.4522    20137.985    753.40892   -1651.1075    1881.3941    9097.7744    79.682565 
   67200    631.51274   -115.17552     0.571406   -114.60412   -3165.1703      4.30929      4.30929      4.30929   -3165.1703   -13160.077    9924.3235   -6259.7579    6410.7335     12026.81   -10509.415    80.023432 
   67300    675.88151   -115.21408    0.6115518   -114.60253   -1369.8923    4.3104627    4.3104627    4.3104627   -1369.8923    1011.9495   -1055.7274   -4065.8989    1048.9704    5273.9143     7310.843     80.08878 
   67400    725.96756   -115.25764    0.6568707   -114.60077    11829.354    4.3029228    4.3029228    4.3029228    11829.354    12700.956    17293.905       5493.2    -1076.982   -3079.5901    13559.614    79.669241 
   67500    721.62675   -115.25538   0.65294305   -114.60243   -1437.8359    4.3084543    4.3084543    4.3084543   -1437.8359    -6229.332    6266.8536   -4351.0295    3165.4929    12935.129    -4959.996    79.976882 
   67600    617.94781   -115.16325   0.55913216   -114.60412   -2265.3751    4.3080722    4.3080722    4.3080722   -2265.3751   -2702.2881   -1013.2334   -3080.6038    409.33453    8860.1495   -295.66682    79.955604 
   67700    785.77219   -115.31288   0.71098319   -114.60189   -3511.3686    4.3067958    4.3067958    4.3067958   -3511.3686    9135.6938   -15285.325   -4384.4751    2286.6195   -4951.5676    9486.7458    79.884557 
   67800    695.51294    -115.2311   0.62931472   -114.60179    7047.1722    4.3083717    4.3083717    4.3083717    7047.1722    1382.1739    17174.607    2584.7357   -4923.2233    4503.5302    8781.9145    79.972284 
   67900    720.05365   -115.25337   0.65151968   -114.60185   -2371.8061    4.3067216    4.3067216    4.3067216   -2371.8061   -7928.6574    2371.6669   -1558.4278    1184.1229      8098.23   -8988.5056    79.880428 
   68000    578.05654   -115.12638   0.52303771   -114.60334   -2280.2374    4.3067004    4.3067004    4.3067004   -2280.2374    2387.7504    -3388.638   -5839.8247   -60.856819    1003.3422    5596.7473    79.879252 
   68100    703.24503   -115.23953   0.63631089   -114.60322    1744.9307    4.3074979    4.3074979    4.3074979    1744.9307    3319.2329    5328.2153   -3412.6559    -2017.429    -3245.132    18534.615    79.923633 
   68200    781.23772   -115.30863   0.70688031   -114.60175    2200.0525    4.3074462    4.3074462    4.3074462    2200.0525   -4690.7266     13391.37   -2100.4856    2953.1611    9752.5088   -3708.4084    79.920756 
   68300    640.68669   -115.18246   0.57970678   -114.60276   -3910.2819    4.3064975    4.3064975    4.3064975   -3910.2819   -4097.1656   -4142.0822   -3491.5978   -513.87877    10363.117   -20.591475    79.867961 
   68400    613.64594   -115.15905   0.55523974   -114.60381   -10093.027    4.3090444    4.3090444    4.3090444   -10093.027     7747.835   -25593.511   -12433.405    3623.9111   -5514.7971    11479.571    80.009751 
   68500     672.8904   -115.21129   0.60884537   -114.60244    7473.6428    4.3060017    4.3060017    4.3060017    7473.6428     5639.231    11633.002    5148.6951   -2769.6914    2494.0477    6629.8315     79.84038 
   68600    808.62763   -115.33234   0.73166328   -114.60068    3582.8919      4.30435      4.30435      4.30435    3582.8919   -1078.3978    5887.4139    5939.6594     1781.323    5922.2215   -3930.5227    79.748538 
   68700    437.04388   -115.00099   0.39544649   -114.60554   -5679.1374    4.3111815    4.3111815    4.3111815   -5679.1374    2500.6097    -18332.43   -1205.5915    1913.3054   -2102.3542    7146.7348    80.128851 
   68800     528.4125   -115.08241   0.47811873   -114.60429   -646.48491    4.3062652    4.3062652    4.3062652   -646.48491    12049.803   -9953.3859   -4035.8722   -4477.1443     -4346.72    18136.478    79.855038 
   68900    762.03126   -115.29023    0.6895019   -114.60072    10543.362    4.3051476    4.3051476    4.3051476    10543.362     2288.049    18480.153    10861.885   -3309.8815   -1655.9185   -5065.1085    79.792879 
   69000    714.45397   -115.24924   0.64645297   -114.60278   -6156.7203     4.307955     4.307955     4.307955   -6156.7203    1375.8154   -23743.865    3897.8883   -4565.5595    5142.3116    2944.4595    79.949083 
   69100    380.08027   -114.95081   0.34390462    -114.6069   -9853.0915    4.3073496    4.3073496    4.3073496   -9853.0915    13048.254   -32611.788   -9995.7404    3373.9079   -4387.8525    18633.997    79.915378 
   69200     576.5242   -115.12716   0.52165122   -114.60551     2287.295      4.30811      4.30811      4.30811     2287.295       4662.4    3926.2576   -1726.7724    -1102.633    -7390.486    610.33897    79.957709 
   69300    830.56828   -115.35153   0.75151564   -114.60001    6935.6398    4.3046265    4.3046265    4.3046265    6935.6398    403.26584    5691.3184    14712.335   -926.99797    3279.1939   -1579.9483    79.763906 
   69400    416.37803   -114.98247   0.37674759   -114.60572   -4101.2712    4.3079654    4.3079654    4.3079654   -4101.2712     11307.53   -20023.195   -3588.1488    2679.4617   -520.72132    12069.651    79.949658 
   69500     406.4197   -114.97442   0.36773709   -114.60668   -10208.162    4.3086847    4.3086847    4.3086847   -10208.162    3414.7955   -21548.453    -12490.83   -83.328045   -4915.6503    9935.5647    79.989713 
   69600     629.0942   -115.17211   0.56921766   -114.60289    12948.146    4.3049858    4.3049858    4.3049858    12948.146    2893.3522    18364.107    17586.979    558.61979   -2184.1117   -4140.4711    79.783881 
   69700      757.739   -115.28714   0.68561817   -114.60152    -3461.873    4.3076656    4.3076656    4.3076656    -3461.873    5428.5901   -16124.168    309.95866   -1084.7533    1618.6048    3941.1505     79.93297 
   69800    347.11841   -114.91988   0.31408003    -114.6058   -6033.6862    4.3074956    4.3074956    4.3074956   -6033.6862    12674.309   -30114.508   -660.85945     1051.791    -4714.102    20544.717    79.923507 
   69900    533.90276   -115.08723   0.48308644   -114.60414   -4627.7792    4.3079988    4.3079988    4.3079988   -4627.7792   -3031.6137   -9781.8976   -1069.8262   -3519.2036   -10651.585   -1764.9291    79.951522 
   70000    594.49398   -115.13939   0.53791065   -114.60148    13256.616    4.3060536    4.3060536    4.3060536    13256.616    3086.3287    23368.817    13314.702   -3677.4429    1865.9606    -5146.401    79.843264 
   70100    559.24184   -115.10852   0.50601377    -114.6025   -3643.4332    4.3070616    4.3070616    4.3070616   -3643.4332    3789.6251   -19214.409    4494.4848   -17.845563    1233.7674    15042.317    79.899352 
   70200    364.82437   -114.93493   0.33010076   -114.60483   -7448.0861    4.3088328    4.3088328    4.3088328   -7448.0861   -1401.2853   -17957.432   -2985.5409    289.93131   -11414.317    5100.6231    79.997964 
   70300    522.83002   -115.07645   0.47306759   -114.60338    2715.8573     4.305502     4.305502     4.305502    2715.8573   -5507.6848    12696.314    958.94301   -1981.5515    -299.9435   -4918.7436    79.812589 
   70400    597.98948   -115.14304   0.54107345   -114.60197    246.27825    4.3067906    4.3067906    4.3067906    246.27825    348.30483   -7908.6569    8299.1868   -1237.0848    9005.9183    978.56389    79.884269 
   70500    518.32653    -115.0713   0.46899273   -114.60231   -11857.425    4.3087364    4.3087364    4.3087364   -11857.425    -188.5411   -29037.813    -6345.921    2998.1093    -3763.706    13797.223    79.992596 
   70600    467.29277   -115.02552   0.42281632    -114.6027   -8774.4714    4.3065831    4.3065831    4.3065831   -8774.4714   -6736.9963   -13792.909   -5793.5087   -1675.7323   -6534.1798   -670.29523    79.872723 
   70700    444.08519    -115.0049   0.40181761   -114.60308     6332.913    4.3063618    4.3063618    4.3063618     6332.913    -8765.577    18755.803    9008.5132   -208.04177    6455.9559   -8239.4436    79.860411 
   70800    579.60732   -115.12617   0.52444088   -114.60173   -1807.4813    4.3073744    4.3073744    4.3073744   -1807.4813    1285.1616   -10336.406    3628.8005      464.693    5045.0794    13936.039    79.916761 
   70900     447.0504   -115.00708    0.4045006   -114.60258   -2114.4551    4.3052948    4.3052948    4.3052948   -2114.4551    3009.3011   -15931.687    6579.0202     1622.309   -8863.9189    2227.2073    79.801063 
   71000    383.35623   -114.95142   0.34686878   -114.60455   -4916.8139    4.3089917    4.3089917    4.3089917   -4916.8139   -12373.226   -2295.8262   -81.389673   -856.21123   -628.42425   -5070.9257    80.006813 
   71100    431.47178   -114.99309   0.39040473   -114.60269    6984.1368    4.3058742    4.3058742    4.3058742    6984.1368   -2366.4328    18991.631    4327.2122   -3856.3669    13536.406   -1351.6403    79.833285 
   71200    590.95558   -115.13551   0.53470902   -114.60081   -856.78098    4.3039445    4.3039445    4.3039445   -856.78098    12261.889   -24038.457    9206.2251    3817.2137   -2549.3168    3182.0558       79.726 
   71300    393.33916   -114.95998   0.35590154   -114.60408   -14169.378     4.310896     4.310896     4.310896   -14169.378   -13708.563   -24469.263   -4330.3088   -792.65751   -8514.7326    5145.6937    80.112936 
   71400    284.70091   -114.86256   0.25760337   -114.60495   -736.46693    4.3047809    4.3047809    4.3047809   -736.46693   -8772.3281    13321.294   -6758.3665   -1418.2332    10628.846   -12059.013    79.772493 
   71500    525.42132   -115.07834   0.47541225   -114.60293     3893.464    4.3047837    4.3047837    4.3047837     3893.464    3211.2685   -543.35065     9012.474    2051.8581    7595.4814    3345.9238    79.772647 
   71600    551.18499   -115.09999   0.49872376   -114.60127   -6722.9213    4.3090199    4.3090199    4.3090199   -6722.9213   -2657.1025   -22887.294    5375.6325    1652.5688   -7859.0083    5042.9282    80.008384 
   71700    304.29061   -114.88045   0.27532854   -114.60512   -10414.944    4.3056126    4.3056126    4.3056126   -10414.944   -16955.546   -8981.6554   -5307.6311    2552.2933    656.08958    -6061.275    79.818735 
   71800    289.15546   -114.86783   0.26163394    -114.6062    547.74916    4.3064028    4.3064028    4.3064028    547.74916   -10701.927    14617.279   -2272.1043   -1365.9531    12836.127    -1679.416    79.862692 
   71900    669.02543   -115.20592   0.60534827   -114.60057    906.85929     4.305189     4.305189     4.305189    906.85929   -2460.1322   -10512.957    15693.667    4988.4885    1775.0614   -6617.2667    79.795181 
   72000    434.13162   -114.99636   0.39281141   -114.60355   -6784.1804    4.3076808    4.3076808    4.3076808   -6784.1804   -4924.6881   -18750.365    3322.5116   -156.57181   -8172.6672    3385.4144    79.933818 
   72100    257.10638   -114.83888   0.23263526   -114.60624   -11939.669     4.307011     4.307011     4.307011   -11939.669   -18136.629   -11066.621   -6615.7582   -2779.0374    11476.384   -9397.0351    79.896537 
   72200    395.94937   -114.96313   0.35826331   -114.60487    7607.9483    4.3046704    4.3046704    4.3046704    7607.9483   -4370.8764    17792.954    9401.7678    2060.7254    9369.4203   -5848.1087    79.766347 
   72300    668.12319   -115.20575   0.60453191   -114.60122   -3746.7352    4.3070058    4.3070058    4.3070058   -3746.7352    387.09124   -25705.775    14078.478    828.89209   -7881.7485    10281.463    79.896243 
   72400    311.77964   -114.88706   0.28210477   -114.60495   -5623.1114    4.3056515    4.3056515    4.3056515   -5623.1114   -5909.5209   -14241.677    3281.8635    1898.8559    8435.7144   -6218.2664    79.820899 
   72500    289.79925   -114.86891   0.26221645    -114.6067   -6242.8241    4.3076504    4.3076504    4.3076504   -6242.8241   -13756.781    1443.6767   -6415.3677   -1496.4954    11271.393   -3009.3629    79.932122 
   72600    504.99365   -115.05886   0.45692887   -114.60193    7957.9784    4.3048187    4.3048187    4.3048187    7957.9784    3580.8095    5135.3728    15157.753    4934.0579   -849.00236   -2399.5919    79.774594 
   72700    541.36151   -115.09086   0.48983527   -114.60103   -2967.1009    4.3058691    4.3058691    4.3058691   -2967.1009    973.22331   -22383.478    12508.952    4417.4589     1687.326    749.28579    79.833006 
   72800    299.84799    -114.8762   0.27130876   -114.60489   -9858.5339    4.3087496    4.3087496    4.3087496   -9858.5339   -11924.412   -14810.052   -2841.1384   -1537.7114    8677.5804   -2667.6035    79.993327 
   72900    394.59906   -114.96057   0.35704152   -114.60353    4454.4828    4.3032972    4.3032972    4.3032972    4454.4828    219.87528    3993.4955    9150.0775    3570.3227    6250.4626   -10278.582    79.690036 
   73000    525.05559   -115.07705   0.47508133   -114.60196    2314.7795    4.3066607    4.3066607    4.3066607    2314.7795   -1744.1395   -9057.8928    17746.371   -147.00386   -4766.7293    11846.253    79.877044 
   73100    421.38684   -114.98444   0.38127967   -114.60316   -7248.7632    4.3072928    4.3072928    4.3072928   -7248.7632   -6742.1947    -20497.01    5492.9154   -445.69919    6840.2363    2463.5747    79.912216 
   73200    429.32187    -114.9916   0.38845945   -114.60314   -7508.1633    4.3058848    4.3058848    4.3058848   -7508.1633   -5957.6429    -17264.81    697.96328   -1466.1828    11510.096   -5061.1323    79.833877 
   73300    425.47245   -114.98767   0.38497641    -114.6027    1690.2336    4.3071143    4.3071143    4.3071143    1690.2336   -2576.4511     4673.082    2974.0698    289.94754   -4699.5731    6274.9401    79.902286 
   73400    464.70363   -115.02316   0.42047361   -114.60269   -3375.1461    4.3043749    4.3043749    4.3043749   -3375.1461   -2684.7489   -19610.629    12169.939    3076.2111    3460.8252    5773.3965    79.749924 
   73500     421.0776   -114.98441   0.38099986   -114.60341   -8265.6089    4.3072055    4.3072055    4.3072055   -8265.6089    -5867.127   -16062.877   -2866.8226   -3106.6525    9857.6948   -124.95605    79.907359 
   73600    523.17956   -115.07532   0.47338386   -114.60194    -5764.114    4.3075459    4.3075459    4.3075459    -5764.114   -4528.3094   -14084.593    1320.5601    4162.3021    328.60387   -6457.4229    79.926306 
   73700     376.0701   -114.94349   0.34027613   -114.60321    5103.3097    4.3048859    4.3048859    4.3048859    5103.3097    4138.2227     62.34697     11109.36    3479.6675   -1771.3399    13144.277    79.778331 
   73800    437.72796   -114.99979   0.39606546   -114.60373   -5869.8445    4.3061228    4.3061228    4.3061228   -5869.8445   -4270.4392   -22114.567    8775.4728    19.031841    6901.2989     9904.446    79.847114 
   73900    534.97142   -115.08639   0.48405338   -114.60233   -5671.3815     4.307848     4.307848     4.307848   -5671.3815   -4949.8937   -17130.034     5065.783   -486.47286     9992.446   -6483.8698    79.943122 
   74000     524.2047   -115.07661   0.47431143   -114.60229     807.8512    4.3060482    4.3060482    4.3060482     807.8512    6332.1668   -14340.521    10431.908   -1475.7708   -2888.9483    11127.736    79.842964 
   74100    351.47626   -114.92245    0.3180231   -114.60442    4818.6233      4.30472      4.30472      4.30472    4818.6233    8357.8907   -693.22683    6791.2059    3410.7138    1530.3511     10079.47    79.769105 
   74200    476.08702   -115.03431   0.43077354   -114.60354   -6028.9728    4.3088088    4.3088088    4.3088088   -6028.9728   -10295.169   -14399.829    6608.0795   -3319.4028     11464.64   -1073.3498    79.996627 
   74300    613.85099   -115.15653   0.55542528   -114.60111   -3149.8356    4.3063336    4.3063336    4.3063336   -3149.8356    233.46361   -13245.683    3562.7125   -414.14938     3.279103   -835.20326    79.858843 
   74400    438.33253   -115.00022   0.39661248   -114.60361    5514.9454    4.3049915    4.3049915    4.3049915    5514.9454    12464.676    3158.4359    921.72411    1055.4875   -4037.9153    8053.8941    79.784202 
   74500    384.97995   -114.95318   0.34833795   -114.60484   -2574.0276    4.3084312    4.3084312    4.3084312   -2574.0276   -6755.1698   -7804.8547    6837.9416   -3474.2209    7117.5705    7789.0799    79.975596 
   74600    558.99984   -115.10834    0.5057948   -114.60254   -5038.8084    4.3062515    4.3062515    4.3062515   -5038.8084   -9418.5679   -12162.409    6464.5519    1539.4123    8686.5157   -5560.1576    79.854277 
   74700    663.76078   -115.20185    0.6005847   -114.60127   -5400.7185    4.3070532    4.3070532    4.3070532   -5400.7185    2459.8157   -16379.568   -2282.4029     64.48853   -3820.8087    10670.691    79.898881 
   74800    423.95979   -114.98781   0.38360773    -114.6042    3385.8916    4.3069222    4.3069222    4.3069222    3385.8916    6452.4422    453.24677    3251.9857    3025.5705      564.356    11086.078     79.89159 
   74900     463.1953   -115.02344   0.41910884   -114.60433   -5367.0949     4.307354     4.307354     4.307354   -5367.0949   -10362.891   -7655.8633    1917.4695    479.94838     11012.76   -5630.2035    79.915626 
   75000    587.44423   -115.13369   0.53153188   -114.60216   -4646.7377    4.3072986    4.3072986    4.3072986   -4646.7377   -5378.9064   -4158.4463   -4402.8603   -2488.6103    1487.9397    797.22122     79.91254 
   75100    639.53912   -115.18056   0.57866843   -114.60189    381.66783    4.3062734    4.3062734    4.3062734    381.66783    7681.1242   -5804.5076   -731.61315    3819.1884   -2713.3178    7577.7245    79.855492 
   75200    380.86323   -114.94963   0.34461305   -114.60502     3961.508    4.3071859    4.3071859    4.3071859     3961.508    1880.4569    10677.684   -673.61717   -2893.6565    7096.7906    5453.0083     79.90627 
   75300    478.90276   -115.03864   0.43332128   -114.60532   -6269.4578     4.307637     4.307637     4.307637   -6269.4578    -9745.204   -12854.273    3791.1034   -2151.3913    8436.4204   -10385.269    79.931376 
   75400    702.44045   -115.23673   0.63558288   -114.60114   -4147.2972    4.3069652    4.3069652    4.3069652   -4147.2972    3427.3815   -18547.942    2678.6683   -937.14182   -2075.0446    1561.3063    79.893983 
   75500    588.44811   -115.13456   0.53244021   -114.60212    3160.5432    4.3067242    4.3067242    4.3067242    3160.5432    4193.5769   -2003.7796    7291.8324   -444.33139    -856.1021    9798.2474    79.880574 
   75600    400.50928   -114.96791   0.36238921   -114.60552   -3718.3611    4.3076619    4.3076619    4.3076619   -3718.3611   -8676.7107    -3831.999    1353.6263    2655.5496    10874.803   -5009.6439    79.932764 
   75700    535.23876    -115.0894   0.48429528    -114.6051   -1504.0335    4.3055322    4.3055322    4.3055322   -1504.0335   -2331.7844   -7285.5265    5105.2103   -1658.1318    2453.8748   -4136.2319    79.814267 
   75800    783.29956   -115.30998   0.70874591   -114.60124   -3891.5069    4.3093654    4.3093654    4.3093654   -3891.5069    -3768.232   -3103.0972   -4803.1915    2851.8947   -3827.2771    1189.0173    80.027633 
   75900    445.47996   -115.00772   0.40307963   -114.60464    5746.3364    4.3068976    4.3068976    4.3068976    5746.3364    -4466.235    18725.024    2980.2205    3486.0861    5728.1613    4286.0805    79.890225 
   76000    473.93945   -115.03424   0.42883037   -114.60541   -2614.7408      4.30388      4.30388      4.30388   -2614.7408   -1316.2141   -1172.1669   -5355.8415   -2195.2153    6684.5518   -10185.954    79.722416 
   76100    685.35303    -115.2232   0.62012182   -114.60308   -7712.2475    4.3127775    4.3127775    4.3127775   -7712.2475   -5320.3313   -9814.4049   -8002.0064   -30.683287    2213.0507   -8669.4717    80.217879 
   76200    783.27574   -115.30986   0.70872435   -114.60113    299.14099    4.3044566    4.3044566    4.3044566    299.14099   -6692.1289    272.64218    7316.9097    995.61977   -558.08537    5091.1793    79.754462 
   76300    439.49857   -115.00266   0.39766754   -114.60499    2501.4272    4.3056586    4.3056586    4.3056586    2501.4272   -3265.6566    6894.2771     3875.661    2095.6906    7430.0218   -5325.1007    79.821294 
   76400    524.85259   -115.07999   0.47489765   -114.60509   -10194.456    4.3136701    4.3136701    4.3136701   -10194.456   -5560.2125   -11366.896   -13656.259   -1333.2445    7329.3046   -10165.392    80.267691 
   76500    751.57278   -115.28029   0.68003884   -114.60025    7197.6546    4.3021326    4.3021326    4.3021326    7197.6546    944.33999    4747.2393    15901.385    1256.6334   -5533.8402   -2776.1363    79.625352 
   76600     573.4703   -115.12174   0.51888798   -114.60285    4305.3874    4.3082224    4.3082224    4.3082224    4305.3874   -15728.947    22414.755    6230.3539    4243.5349    5303.1945    8227.6278    79.963967 
   76700    437.72588   -115.00185   0.39606357   -114.60579   -4985.6202    4.3109822    4.3109822    4.3109822   -4985.6202   -3543.6363   -976.95432    -10436.27   -1229.4873    7854.3547   -9373.1344    80.117742 
   76800    650.52105   -115.19127   0.58860512   -114.60267    1717.5395    4.3038434    4.3038434    4.3038434    1717.5395    9725.2276   -3652.2192   -920.39008    -210.8637    -2158.866   -15082.146    79.720385 
   76900    842.82066   -115.36283   0.76260185   -114.60023   -3366.4284    4.3080781    4.3080781    4.3080781   -3366.4284   -9172.2785    -3006.687    2079.6804    4118.8342    1496.5415    2680.1248    79.955936 
   77000    560.27085   -115.11119   0.50694484   -114.60424    -3210.133    4.3090116    4.3090116    4.3090116    -3210.133   -11614.019    7888.3977   -5904.7776    1912.8825     4039.848   -4918.2715    80.007925 
   77100    524.72463   -115.08014   0.47478187   -114.60536   -4152.7185    4.3059531    4.3059531    4.3059531   -4152.7185    6540.1898   -8197.3802   -10800.965   -2518.3234    7356.9602   -15120.975    79.837677 
   77200    719.02849    -115.2537   0.65059209   -114.60311     2556.069    4.3075412    4.3075412    4.3075412     2556.069    4098.3536    5112.4498   -1542.5963   -943.99216   -1090.4242   -5341.0959    79.926043 
   77300    681.84652   -115.21913   0.61694906   -114.60219    4883.1936    4.3079396    4.3079396    4.3079396    4883.1936   -12721.579    19774.204    7596.9552    1266.1422   -283.01131    5539.0814    79.948222 
   77400    489.66341   -115.04789   0.44305774   -114.60483   -2626.4385    4.3071927    4.3071927    4.3071927   -2626.4385   -12488.122    9040.5519   -4431.7455    224.45359    10622.366   -9895.2878    79.906649 
   77500    558.21575   -115.11042   0.50508534   -114.60533   -1284.7072    4.3077788    4.3077788    4.3077788   -1284.7072    8881.0364   -3345.4034   -9389.7546   -495.90205   -2435.2683   -12619.319    79.939271 
   77600    854.18456   -115.37382   0.77288414   -114.60094    1911.2666    4.3058102    4.3058102    4.3058102    1911.2666    1649.1997   -2968.9512    7053.5513    2242.3398    209.88085     6327.843    79.829729 
   77700    626.45932   -115.17022   0.56683356   -114.60339   -1077.9664    4.3089682    4.3089682    4.3089682   -1077.9664   -16766.702    14581.849   -1049.0463    2697.5797    8564.1958   -5255.7155    80.005502 
   77800    525.57379    -115.0806   0.47555021   -114.60505   -10704.093    4.3085074    4.3085074    4.3085074   -10704.093   -7016.6885   -5642.4093    -19453.18    -2792.143    2406.0435   -17850.436    79.979838 
   77900    664.99327   -115.20474   0.60169989   -114.60304    6880.6768    4.3038626    4.3038626    4.3038626    6880.6768    11610.821    11537.466   -2506.2568    4053.0835    1917.1184   -2908.5681     79.72145 
   78000    773.99426   -115.30125   0.70032627   -114.60093    2660.3684    4.3099117    4.3099117    4.3099117    2660.3684   -7386.8638    14485.987    881.98186    1824.1024     -3527.32    6734.3769    80.058072 
   78100    511.79107   -115.06826   0.46307931   -114.60518   -1551.5272    4.3056082    4.3056082    4.3056082   -1551.5272   -8635.3956    11863.273   -7882.4593   -1075.6298    5228.6433   -13226.515    79.818492 
   78200    542.51619   -115.09707   0.49088005   -114.60619    -4276.487    4.3060172    4.3060172    4.3060172    -4276.487   -1472.5634   -6168.8801   -5188.0175   -2173.7518    3310.3827   -12917.923    79.841242 
   78300    802.40856   -115.32714   0.72603612    -114.6011    -2170.871    4.3119025    4.3119025    4.3119025    -2170.871    1336.9912   -5423.2074   -2426.3968   -2734.4621   -6290.2022     10889.85    80.169063 
   78400    658.96805   -115.19807   0.59624814   -114.60183    9807.6784    4.3008491    4.3008491    4.3008491    9807.6784    8424.2708    15938.385    5060.3797    3262.1664    9117.0048   -3493.8719    79.554108 
   78500     430.9795   -114.99585   0.38995931   -114.60589   -9546.7529    4.3093962    4.3093962    4.3093962   -9546.7529   -10954.592   -3736.3217   -13949.345   -3357.4915     4441.505   -20969.561    80.029347 
   78600    585.06549   -115.13322   0.52937955   -114.60384   -5386.0742    4.3108059    4.3108059    4.3108059   -5386.0742   -11930.123    8609.8646   -12837.964    1055.7882    694.75438      491.932    80.107911 
   78700    742.76014   -115.27302   0.67206499   -114.60096    17482.758    4.2997866    4.2997866    4.2997866    17482.758    17906.657    26691.113    7850.5036     1470.121    2797.9464    8409.8766    79.495165 
   78800    496.10346   -115.05414   0.44888484   -114.60526   -5979.0403    4.3124185    4.3124185    4.3124185   -5979.0403   -12474.557    12561.704   -18024.269   -1026.9704    1651.2732   -14920.725    80.197848 
   78900    412.84243   -114.97852   0.37354851   -114.60497   -8117.8676    4.3088993    4.3088993    4.3088993   -8117.8676   -9644.9511   -1977.9886   -12730.663    3719.8492     5778.416   -13343.558    80.001665 
   79000    797.20374   -115.32183    0.7213267    -114.6005   -949.16457    4.3038741    4.3038741    4.3038741   -949.16457    -4992.106     2642.318    -497.7058   -3350.2168   -6451.6949    11171.972    79.722088 
   79100    586.11526   -115.13249    0.5303294   -114.60216    7003.5382    4.3083131    4.3083131    4.3083131    7003.5382    13953.674     12222.36   -5165.4191    2232.9849    4414.3939   -2822.4392    79.969021 
   79200    387.13995   -114.95641   0.35029236   -114.60612   -7953.4096    4.3088763    4.3088763    4.3088763   -7953.4096   -9469.0947    3258.7452   -17649.879   -4402.6631    7695.1176   -19135.167    80.000387 
   79300    479.62445   -115.03855   0.43397428   -114.60457   -3844.9156    4.3073641    4.3073641    4.3073641   -3844.9156   -9807.2827    7876.6343   -9604.0984   -3778.7259   -2157.6437   -616.60862    79.916189 
   79400    678.04462   -115.21453   0.61350903   -114.60102    7373.3008     4.305973     4.305973     4.305973    7373.3008   -3900.7645    28446.639   -2425.9723    1461.3119    5070.2626    6047.6254    79.838784 
   79500    326.99745   -114.90194   0.29587417   -114.60607   -738.16323    4.3109537    4.3109537    4.3109537   -738.16323    2039.3527    13510.032   -17763.874    -4155.161    745.73441   -18127.884    80.116149 
   79600    373.46119   -114.94331   0.33791553    -114.6054    -7368.664    4.3042149    4.3042149    4.3042149    -7368.664   -13172.962    5116.4002   -14049.431    3624.4104    2949.8971   -16742.915    79.741031 
   79700    701.09663   -115.23634   0.63436696   -114.60197   -9172.2084    4.3093299    4.3093299    4.3093299   -9172.2084   -22644.269    784.98279   -5657.3387    -2672.079   -3957.0383    8161.2531    80.025655 
   79800    495.77018   -115.05179   0.44858328   -114.60321   -1656.7535    4.3097943    4.3097943    4.3097943   -1656.7535    3450.2812    348.55412   -8769.0958    4160.4512    1253.0435   -6385.5461    80.051526 
   79900    310.78443   -114.88653   0.28120429   -114.60533   -2106.0463    4.3024257    4.3024257    4.3024257   -2106.0463    10123.198   -40.359228   -16400.977   -524.90345    8269.1616   -21581.127     79.64163 
   80000    445.72922   -115.00847   0.40330516   -114.60516   -10553.804    4.3128678    4.3128678    4.3128678   -10553.804   -21194.993    4286.5885   -14753.008   -4791.6262    -1443.185   -1232.6166    80.222914 
   80100    623.58558   -115.16563   0.56423333    -114.6014    4373.6421    4.3036155    4.3036155    4.3036155    4373.6421   -7734.7104    19860.394    995.24272    2969.3775    2934.8956    4612.7589     79.70772 
   80200    247.70991   -114.83119   0.22413313   -114.60706    6358.4452    4.3072357    4.3072357    4.3072357    6358.4452    16607.139    20238.884   -17770.688   -4360.9861    2387.7113   -15796.161     79.90904 
   80300    326.70494     -114.902    0.2956095   -114.60639   -10782.483    4.3114358    4.3114358    4.3114358   -10782.483   -16800.505    8820.5443   -24367.488     1277.799    2640.2438   -13711.603    80.143034 
   80400    637.59222   -115.17712   0.57690684   -114.60021    504.45129    4.3018364    4.3018364    4.3018364    504.45129   -15697.479     14097.02    3113.8132   -5090.6337    -1976.886    5927.2138    79.608909 
   80500    489.43861    -115.0455   0.44285434   -114.60265   -10664.418    4.3138442    4.3138442    4.3138442   -10664.418   -11445.609   -1757.4359   -18790.208    3755.9498    1061.5256   -8977.6311    80.277411 
   80600    344.12768   -114.91688   0.31137396   -114.60551     -401.286    4.3009998    4.3009998    4.3009998     -401.286    8427.1479    1914.1474   -11545.153    3593.4012    4220.4682   -18241.553    79.562472 
   80700    480.00787   -115.03952   0.43432121    -114.6052    -5226.542     4.308106     4.308106     4.308106    -5226.542   -20098.067    11693.363   -7274.9213   -5518.7119    -2268.948   -1855.2973    79.957487 
   80800    599.05132   -115.14367   0.54203423   -114.60164   -9223.6943    4.3128911    4.3128911    4.3128911   -9223.6943   -25116.162    6956.4065   -9511.3276     4909.569    326.51115    3330.5404    80.224217 
   80900    364.23028   -114.93311   0.32956321   -114.60355    14911.981    4.2955169    4.2955169    4.2955169    14911.981    14670.013    31168.202   -1102.2717   -1851.1773    4741.9262   -13458.507    79.258581 
   81000    382.62308   -114.95137   0.34620541   -114.60517   -9874.8153    4.3166232    4.3166232    4.3166232   -9874.8153   -17156.599    8720.2152   -21188.062   -607.13719    3885.6418   -11517.674     80.43266 
   81100    682.47216   -115.21807   0.61751515   -114.60055   -1359.7928    4.3038293    4.3038293    4.3038293   -1359.7928   -11369.206    4835.7189     2454.109   -5934.8071   -1853.9832    8937.2394    79.719598 
   81200    497.68266   -115.05365   0.45031373   -114.60334     6758.392     4.301675     4.301675     4.301675     6758.392    813.57705    17048.021    2413.5776     1596.043    1955.6236   -3156.5036    79.599947 
   81300    505.31909   -115.06012   0.45722334   -114.60289   -17271.535    4.3161052    4.3161052    4.3161052   -17271.535   -9102.2658   -14895.481   -27816.859    5864.1394    4779.3687   -17842.743    80.403706 
   81400    577.47225   -115.12285   0.52250902   -114.60034     12663.01    4.2979265    4.2979265    4.2979265     12663.01    10443.968    20697.322     6847.739   -1489.5657   -2305.0159   -1289.0323    79.392041 
   81500    683.42493   -115.21968   0.61837724    -114.6013   -7269.3362    4.3113976    4.3113976    4.3113976   -7269.3362    -14994.35    191.16368   -7004.8221    2134.5643   -867.50604    7356.6852    80.140901 
   81600    424.54448   -114.98856   0.38413677   -114.60442      3875.25    4.3059529    4.3059529    4.3059529      3875.25    1339.9335    17367.668   -7081.8515   -716.60445    3030.2412   -11451.528    79.837664 
   81700     591.0162   -115.13867   0.53476388   -114.60391    2591.3609    4.3039624    4.3039624    4.3039624    2591.3609     10074.96    4751.7303   -7052.6071    536.71291    3646.4884   -14253.218    79.726999 
   81800    823.33627   -115.34509   0.74497196   -114.60011   -6671.9714    4.3114937    4.3114937    4.3114937   -6671.9714   -7933.9847   -8763.2496   -3318.6801   -3944.0356   -369.45533     9602.268    80.146261 
   81900    570.58329    -115.1196   0.51627575   -114.60332    10013.146    4.3011209    4.3011209    4.3011209    10013.146    11397.836    11626.629    7014.9744   -242.84066    1284.0649     1198.636     79.56919 
   82000     565.2759   -115.11715   0.51147351   -114.60568   -9277.3803     4.310726     4.310726     4.310726   -9277.3803   -337.52206   -11338.216   -16156.403    1437.9572    4851.8101   -18327.192    80.103459 
   82100    731.04468   -115.26402   0.66146459   -114.60255    7489.3796     4.304643     4.304643     4.304643    7489.3796    3789.4198    18161.674    517.04474   -3348.0604   -604.61362   -2406.7492    79.764824 
   82200    811.84467   -115.33668   0.73457412   -114.60211    1677.2164    4.3067684    4.3067684    4.3067684    1677.2164     2181.164    3380.5989   -530.11372    3231.3497   -2768.9511    9323.2081    79.883037 
   82300    443.80546   -115.00781   0.40156451   -114.60625   -51.654641    4.3093179    4.3093179    4.3093179   -51.654641    4625.3398    7838.4729   -12618.777    1409.8432    3465.8452   -8003.4716    80.024983 
   82400     726.1947   -115.26117   0.65707622   -114.60409   -1029.7401    4.3035576    4.3035576    4.3035576   -1029.7401    1687.4062    -5792.972    1016.3453    4735.2257    3032.7553   -15142.912    79.704504 
   82500     931.2742   -115.44298   0.84263647   -114.60034   -6243.4941    4.3107041    4.3107041    4.3107041   -6243.4941   -3124.8728   -11561.347   -4044.2629   -2479.3135   -665.29245    7434.1008    80.102238 
   82600     605.0958   -115.15198    0.5475034   -114.60448    4512.5429    4.3049002    4.3049002    4.3049002    4512.5429    10732.205    4717.3218   -1911.8985    -1433.908    1615.2232    4053.3916    79.779125 
   82700    507.58104   -115.06634   0.45926999   -114.60707   -4884.0344    4.3083181    4.3083181    4.3083181   -4884.0344   -1512.8843   -1727.5834   -11411.635    2468.2478    2979.7166   -14963.045    79.969298 
   82800    725.03741   -115.25911   0.65602909   -114.60309    2271.5732    4.3082546    4.3082546    4.3082546    2271.5732   -2254.7568    8761.9333    307.54313   -916.56138    3081.9802   -1190.3438     79.96576 
   82900    835.86257   -115.35856   0.75630602   -114.60226    3192.5947    4.3048027    4.3048027    4.3048027    3192.5947    9362.3958     1324.183   -1108.7948   -391.29305   -2173.8019    7092.3252    79.773706 
   83000    422.35941   -114.98974   0.38215967   -114.60758   -2601.9731    4.3104181    4.3104181    4.3104181   -2601.9731    8275.0133   -2469.1931   -13611.739   -3698.1023    2597.2057   -9714.7545    80.086292 
   83100     632.4892   -115.17683   0.57228952   -114.60455   -2979.3059    4.3040553    4.3040553    4.3040553   -2979.3059    9398.4618   -16213.409   -2122.9707    4783.0823    6466.9919   -13056.535    79.732158 
   83200     817.3712   -115.34086   0.73957464   -114.60128   -161.76541    4.3104005    4.3104005    4.3104005   -161.76541    3794.4086   -5164.1123    884.40755   -249.81218   -3150.5585    7458.6092    80.085313 
   83300    564.58942   -115.11468   0.51085238   -114.60382    2951.6609    4.3073786    4.3073786    4.3073786    2951.6609    9397.0599    7889.6885   -8431.7657   -968.25685    2255.2896   -433.42555    79.916992 
   83400    369.79254   -114.94086   0.33459606   -114.60626    4755.2002     4.302151     4.302151     4.302151    4755.2002     12667.23    10439.726   -8841.3549    3719.9616    4636.1719   -16185.682    79.626377 
   83500    591.92905   -115.13924   0.53558985   -114.60365   -7005.9524    4.3139172    4.3139172    4.3139172   -7005.9524   -5330.5141   -5260.2243   -10427.119    4358.8256    -327.8175   -846.60742     80.28149 
   83600    758.00123   -115.28614   0.68585544   -114.60028    5581.4531    4.3031988    4.3031988    4.3031988    5581.4531    9540.2527   -1648.0287    8852.1353    3295.1319   -1306.3672    4114.5162    79.684571 
   83700    410.43679   -114.97722   0.37137183   -114.60585    1066.8631    4.3067373    4.3067373    4.3067373    1066.8631    12814.245    5723.8398   -15337.496   -2559.3251    1700.4986   -9604.6825    79.881306 
   83800    478.97563   -115.03795   0.43338721   -114.60457   -14481.347    4.3104404    4.3104404    4.3104404   -14481.347   -444.45902   -25399.397   -17600.185    2504.6028    5521.2547   -11386.081    80.087538 
   83900    667.79221   -115.20515   0.60423242   -114.60092     2630.084    4.3038499    4.3038499    4.3038499     2630.084    1514.5202   -655.21296    7030.9448    1202.1197   -2768.4507    5305.2571    79.720748 
   84000    505.57074   -115.06066   0.45745103    -114.6032    2832.0054     4.309743     4.309743     4.309743    2832.0054    4269.6184    11417.639   -7191.2408   -1607.3266   -237.09149     -2775.03    80.048667 
   84100    350.18209   -114.92247   0.31685211   -114.60562    1012.5371    4.3033348    4.3033348    4.3033348    1012.5371    9731.2855    6031.1485   -12724.823   -76.013686    6234.8273   -16199.356    79.692127 
   84200    457.34917    -115.0176   0.41381914   -114.60378   -9065.1726    4.3107243    4.3107243    4.3107243   -9065.1726   -9450.9278   -10067.901    -7676.689    3820.6202    -3102.736    2024.4695    80.103361 
   84300    692.74249   -115.22681   0.62680797   -114.60001   -5286.6228    4.3072355    4.3072355    4.3072355   -5286.6228   -1713.1757   -9469.7412   -4676.9517    2658.2111   -2139.6761   -1749.9139    79.909027 
   84400    415.59801   -114.98024   0.37604181    -114.6042    10852.522    4.3011467    4.3011467    4.3011467    10852.522    17564.958    12648.213     2344.396   -1160.6342    2780.8793   -12959.009    79.570627 
   84500    424.07018   -114.98807   0.38370761   -114.60436   -18171.071    4.3132453    4.3132453    4.3132453   -18171.071   -9023.9834   -21759.224   -23730.005    5116.0525    1453.0007   -6461.2633    80.243983 
   84600    509.39428   -115.06261   0.46091065    -114.6017   -1628.2513    4.3039109    4.3039109    4.3039109   -1628.2513   -3229.4544    4992.3672   -6647.6668    3305.3447   -5650.0148    3486.9645    79.724134 
   84700     515.0406    -115.0684   0.46601955   -114.60238    5341.3376    4.3067119    4.3067119    4.3067119    5341.3376    7390.5501    14954.254    -6320.791    249.95307   -1524.0284   -4063.2919    79.879891 
   84800    363.49975   -114.93278   0.32890221   -114.60388    1508.4988    4.3086295    4.3086295    4.3086295    1508.4988    4982.9832    9696.4992   -10153.986   -3793.9931    7234.2974   -12973.722    79.986639 
   84900    388.80452   -114.95485    0.3517985   -114.60305   -3169.3221    4.3032898    4.3032898    4.3032898   -3169.3221   -875.05178   -3924.3059   -4708.6085    4696.0279   -3806.3778    3179.0147    79.689625 
   85000    600.85693   -115.14553   0.54366798   -114.60186   -13032.156     4.310798     4.310798     4.310798   -13032.156   -7002.0266   -14602.277   -17492.164    4637.4176   -4036.8548   -2494.8074    80.107469 
   85100    464.05825   -115.02286   0.41988965   -114.60297    9129.1928    4.3040562    4.3040562    4.3040562    9129.1928    11719.726    13374.154    2293.6985   -3259.7345     6732.766   -13654.129    79.732209 
   85200    432.77885   -114.99509    0.3915874   -114.60351    -6231.478    4.3076806    4.3076806    4.3076806    -6231.478    957.73611   -11589.753   -8062.4176    3668.7992     661.1096   -4630.9556    79.933806 
   85300    406.50356   -114.97111   0.36781297   -114.60329   -9625.3048    4.3098572    4.3098572    4.3098572   -9625.3048   -10964.271   -4947.6044   -12964.039    6083.4017   -7281.6188    4195.2554    80.055035 
   85400    490.90004   -115.04586   0.44417667   -114.60168    3597.4597    4.3038931    4.3038931    4.3038931    3597.4597    3969.5383    20257.381    -13434.54    3444.4433   -740.33375   -2312.8511    79.723145 
   85500    394.63534   -114.96069   0.35707434   -114.60362    1544.5846    4.3089972    4.3089972    4.3089972    1544.5846    2430.6283     11421.49    -9218.365   -4325.3343    7683.7297   -12637.876    80.007121 
   85600    417.31201   -114.98059   0.37759268     -114.603   -3363.1542    4.3067077    4.3067077    4.3067077   -3363.1542   -770.39267   -5698.2907   -3620.7791    4555.0689   -3868.1833    1636.4062    79.879659 
   85700    563.29414   -115.11095   0.50968038   -114.60127   -10542.543    4.3094856    4.3094856    4.3094856   -10542.543   -8532.6411   -10423.229    -12671.76    7350.5602   -3777.6598    1707.0412    80.034328 
   85800    495.17842      -115.05   0.44804784   -114.60195     797.9721    4.3062514    4.3062514    4.3062514     797.9721    4162.6721    11695.713   -13464.469   -5203.4773    9044.1704   -8787.6572    79.854269 
   85900    460.76782   -115.02011    0.4169124    -114.6032   -752.80015    4.3058749    4.3058749    4.3058749   -752.80015    666.34302   -3028.2186    103.47513    2912.7664    2924.0538   -8753.7293    79.833327 
   86000    497.08123   -115.05336   0.44976954   -114.60359   -3201.2214    4.3093135    4.3093135    4.3093135   -3201.2214   -5691.5529    1286.6942   -5198.8055     2360.563   -5966.4283    3317.3247     80.02474 
   86100    457.56418   -115.01673   0.41401368   -114.60272    6607.8278    4.3057154    4.3057154    4.3057154    6607.8278    3866.5397    32042.565   -16085.622    3071.5588    3850.3016   -3103.4525    79.824454 
   86200    461.07246   -115.02085   0.41718806   -114.60366   -6632.7517    4.3097651    4.3097651    4.3097651   -6632.7517   -2027.1354    2252.9884   -20124.108   -2998.8812    8183.7336    -13671.74    80.049899 
   86300    492.95111    -115.0489   0.44603252   -114.60287    2251.2422     4.303084     4.303084     4.303084    2251.2422    8536.1992   -8001.0155     6218.543    4385.0413   -2890.0494    -2122.189    79.678194 
   86400    710.51605   -115.24466   0.64288985   -114.60177   -6634.2143    4.3087167    4.3087167    4.3087167   -6634.2143   -2102.8141   -6359.4429   -11440.386    8574.4849   -2288.6676    2588.3935    79.991499 
   86500     448.7108   -115.00992   0.40600296   -114.60391   -4679.1332    4.3105426    4.3105426    4.3105426   -4679.1332    2508.3269    7220.6558   -23766.382   -4115.9746    9603.4017   -6475.2794    80.093233 
   86600    530.27747    -115.0824    0.4798062   -114.60259   -1391.1281    4.3021651    4.3021651    4.3021651   -1391.1281    7513.2883   -3257.0049   -8429.6678     1761.349    4530.7163   -11927.396     79.62716 
   86700    678.69107   -115.21575   0.61409395   -114.60166   -1620.5302    4.3103343    4.3103343    4.3103343   -1620.5302   -2194.5217     869.2438   -3536.3127     1204.799   -5697.1959    5200.9641    80.081622 
   86800    587.23129    -115.1339   0.53133922   -114.60256    6185.6388    4.3057599    4.3057599    4.3057599    6185.6388    3636.7304    27149.941   -12229.755    98.865523    5245.1064   -3276.3603    79.826928 
   86900    494.39835   -115.05332   0.44734202   -114.60597   -5736.3604     4.305053     4.305053     4.305053   -5736.3604    10437.242   -4347.9802   -23298.343   -2236.1567    9200.2181   -15261.511    79.787622 
   87000    685.74526   -115.22391   0.62047672   -114.60343   -4812.5055    4.3088822    4.3088822    4.3088822   -4812.5055    3779.0499   -10700.301   -7516.2658    681.05007   -1692.9822   -3271.0451    80.000715 
   87100    867.81867   -115.38545   0.78522057   -114.60023    1215.2192     4.306678     4.306678     4.306678    1215.2192    2917.7257    807.28042   -79.348609    7150.3746    3822.7265   -1099.4666    79.878005 
   87200    498.01751   -115.05561   0.45061671     -114.605    4597.5137     4.305387     4.305387     4.305387    4597.5137    9942.2367    23193.283   -19342.978   -1527.2695    10382.671    -10058.45     79.80619 
   87300    565.59406   -115.11749   0.51176139   -114.60573   -3403.1829    4.3066348    4.3066348    4.3066348   -3403.1829    7748.1794   -1412.0688   -16545.659     899.8001    1850.9599   -11444.143    79.875601 
   87400    868.14392   -115.38714   0.78551486   -114.60163    1492.8967    4.3070879    4.3070879    4.3070879    1492.8967    1949.6818     3272.208   -743.19984   -120.23084   -3608.8175    7698.4538    79.900814 
   87500    715.61963   -115.25094   0.64750768   -114.60343    8138.0054    4.3051439    4.3051439    4.3051439    8138.0054    6370.2786    25622.278   -7578.5407   -290.62284    9038.4088   -5690.3924    79.792672 
   87600    613.58853   -115.16128   0.55518779   -114.60609   -8359.0962    4.3065045    4.3065045    4.3065045   -8359.0962    4424.9476   -7970.9124   -21531.324   -3247.3176    10868.116   -16260.061    79.868352 
   87700    707.69952   -115.24471    0.6403414   -114.60437    945.72605    4.3067089    4.3067089    4.3067089    945.72605    6087.7719    593.00432   -3843.5981    2426.2181   -2223.6819   -437.60735    79.879722 
   87800    961.58965   -115.47056   0.87006652   -114.60049   -1883.6951     4.308178     4.308178     4.308178   -1883.6951   -5303.1348    8378.9254   -8726.8759    4891.0359    2055.0339    2310.6657    79.961499 
   87900    568.07689    -115.1193   0.51400791   -114.60529    9949.7652    4.3025475    4.3025475    4.3025475    9949.7652    6905.0164    30358.592    -7414.313   -1997.4234    8652.4762   -13134.724    79.648392 
   88000    661.35926   -115.20445   0.59841176   -114.60604   -4905.9152    4.3073512    4.3073512    4.3073512   -4905.9152    3072.8713   -6112.8523   -11677.765    161.87411    168.19573   -15069.642     79.91547 
   88100    932.29626   -115.44517   0.84356125   -114.60161   -1878.2125    4.3086127    4.3086127    4.3086127   -1878.2125    -1576.613   -420.82508   -3637.1995   -2525.5419   -1451.3325    10615.565    79.985707 
   88200    808.92812   -115.33434   0.73193516    -114.6024    7929.5133    4.3027427    4.3027427    4.3027427    7929.5133    4424.9585    18921.699    441.88285    2355.7652    8160.4921   -5641.0561    79.659232 
   88300    635.35568    -115.1803   0.57488317   -114.60542   -6920.8194    4.3095072    4.3095072    4.3095072   -6920.8194     666.4663   -5618.0456   -15810.879   -3668.4837    5132.0097   -18307.266     80.03553 
   88400    751.97759   -115.28406   0.68040513   -114.60365    4891.6704    4.3048776    4.3048776    4.3048776    4891.6704    6072.3103    11310.407   -2707.7064   -1948.3094   -1740.9753   -607.55381    79.777868 
   88500    950.51863   -115.46208   0.86004923   -114.60203    5387.6524    4.3045285    4.3045285    4.3045285    5387.6524    2457.1523    13384.434    321.37137    4368.1114    2282.0303    5662.7952    79.758458 
   88600    627.32964   -115.17353   0.56762105   -114.60591   -1769.0002    4.3097679    4.3097679    4.3097679   -1769.0002    921.23364    9438.1708   -15666.405   -2569.8903    6898.1403     -16572.7    80.050055 
   88700    722.46532   -115.25837    0.6537018   -114.60467   -570.27472    4.3025702    4.3025702    4.3025702   -570.27472    12961.615   -8391.0779   -6281.3613    1442.9597    1564.3498   -18908.719    79.649653 
   88800     983.2455   -115.49057    0.8896612   -114.60091   -1672.5126    4.3087897    4.3087897    4.3087897   -1672.5126    -2321.171   -982.38449   -1713.9823   -3474.6889   -4675.4693    11084.263    79.995564 
   88900     746.9059   -115.27884   0.67581615   -114.60302    1357.9754    4.3078312    4.3078312    4.3078312    1357.9754    4951.6394    5680.2559   -6557.9693   -1434.0543    2232.0591   -8298.7566    79.942187 
   89000    602.04799    -115.1507   0.54474568   -114.60596   -105.18297    4.3026574    4.3026574    4.3026574   -105.18297    12409.312   -1051.6543   -11673.206   -45.296437    2938.3369   -23174.118    79.654498 
   89100    771.54341   -115.30155   0.69810869   -114.60344    2615.9304    4.3091297    4.3091297    4.3091297    2615.9304    1751.8292    9943.3877   -3847.4257   -3457.1139   -654.65672    1342.0149    80.014499 
   89200    961.58133   -115.47121   0.87005899   -114.60115    1144.3529    4.3063862    4.3063862    4.3063862    1144.3529   -2428.2463    4925.9516    935.35324    5622.5681    1825.6763     3756.941    79.861769 
   89300    519.38491   -115.07708   0.46995038   -114.60713   -910.07221    4.3068828    4.3068828    4.3068828   -910.07221    14301.332   -5371.1135   -11660.435   -2384.9772    2053.2211   -21835.641    79.889398 
   89400    731.76793   -115.26681   0.66211901   -114.60469   -4827.6789    4.3052017    4.3052017    4.3052017   -4827.6789    4435.8609   -11213.886   -7705.0116   -4498.2225    3540.3673   -18317.856     79.79589 
   89500    943.09313    -115.4541   0.85333048   -114.60077    2372.9803    4.3079462    4.3079462    4.3079462    2372.9803   -3178.7287    10329.317   -31.647034   -1311.7958   -2442.5118    10781.675     79.94859 
   89600    664.05704   -115.20577   0.60085277   -114.60491   -1814.1986    4.3075252    4.3075252    4.3075252   -1814.1986      2097.23    1017.2514   -8557.0773   -545.55529   -1992.1773   -8866.4171    79.925154 
   89700    434.69407   -115.00213   0.39332033   -114.60881    1352.2979    4.3035228    4.3035228    4.3035228    1352.2979     12711.97    3176.6237     -11831.7    707.07343    6251.7701   -24188.481    79.702567 
   89800    757.95535   -115.28995   0.68581393   -114.60414    154.29576    4.3092095    4.3092095    4.3092095    154.29576   -7116.1202     13834.01   -6255.0021   -3758.6282    923.13016    2723.1633    80.018946 
   89900    885.07468   -115.40257   0.80083417   -114.60174    1115.1309    4.3047893    4.3047893    4.3047893    1115.1309    53.320994    5060.3542   -1768.2826    2680.6352   -1910.0555    437.33828    79.772957 
   90000    424.84528   -114.99272   0.38440894   -114.60831    -6667.925    4.3086377    4.3086377    4.3086377    -6667.925    3363.7953   -9551.8702     -13815.7     1872.449    1881.9958   -20643.562    79.987098 
   90100    579.35412   -115.12975   0.52421178   -114.60553   -6150.3006    4.3067102    4.3067102    4.3067102   -6150.3006    832.83881   -5366.0343   -13917.706    -3655.262    2984.2956   -14753.972    79.879798 
   90200    825.73889   -115.34825    0.7471459   -114.60111    6155.0421    4.3050105    4.3050105    4.3050105    6155.0421   -3502.6525    23852.918   -1885.1392   -1188.6099    2718.8943    7101.2379    79.785257 
   90300    564.82664   -115.11608   0.51106702   -114.60501    -4984.681     4.309776     4.309776     4.309776    -4984.681   -4048.2711    5009.1703   -15914.942    -952.9711   -477.87847    -10346.24    80.050511 
   90400    313.23825   -114.89152   0.28342455   -114.60809   -916.27106    4.3049108    4.3049108    4.3049108   -916.27106     -1985.78    10245.481   -11008.514    865.93214    6651.8162   -20788.938    79.779713 
   90500     586.2007   -115.13454   0.53040671   -114.60413    3100.2634    4.3083338    4.3083338    4.3083338    3100.2634   -4329.7539    22982.731   -9352.1873    -2103.927    5132.1706    5517.1764    79.970172 
   90600    817.45657   -115.34027   0.73965189   -114.60062    -4439.906    4.3069037    4.3069037    4.3069037    -4439.906   -3944.0158    881.46443   -10257.167    580.48008   -4462.5301   -4344.2144    79.890563 
   90700    347.29612   -114.92085   0.31424083   -114.60661   -5557.4294    4.3074022    4.3074022    4.3074022   -5557.4294   -3195.9379   -537.29471   -12939.056    1336.6259    5050.2769   -20183.312    79.918308 
   90800    463.15249   -115.02438    0.4190701   -114.60531   -7699.6343    4.3084755    4.3084755    4.3084755   -7699.6343   -13028.597    6159.9097   -16230.215   -1802.9311    4266.5219   -9097.7708    79.978065 
   90900    655.76141   -115.19502    0.5933467   -114.60167    9090.3951    4.3049541    4.3049541    4.3049541    9090.3951   -863.95187    34766.049   -6630.9122   -2570.3215   -3891.3197    7808.1225     79.78212 
   91000    470.79551   -115.03004   0.42598567   -114.60406   -1375.9258    4.3094907    4.3094907    4.3094907   -1375.9258   -6020.9563    22131.649    -20238.47    1227.3155    3158.0939   -8606.3357    80.034611 
   91100    295.86865   -114.87457   0.26770817   -114.60687   -3709.6099    4.3062142    4.3062142    4.3062142   -3709.6099   -9853.7177    12573.091   -13848.203   -1778.3402     5281.332   -17577.616      79.8522 
   91200    594.75203   -115.14117   0.53814413   -114.60303    951.86365    4.3064855    4.3064855    4.3064855    951.86365   -12391.397    20912.091   -5665.1031    174.49406    1951.9214    5310.0469    79.867293 
   91300    717.31485   -115.24963   0.64904155   -114.60059   -8161.2707    4.3113419    4.3113419    4.3113419   -8161.2707   -5097.2298   -3356.8379   -16029.744   -406.82161   -1088.0515   -2358.2699    80.137796 
   91400    364.73257   -114.93443   0.33001769   -114.60441    -2612.082    4.3042947    4.3042947    4.3042947    -2612.082   -1226.0317    9263.4473   -15873.662   -46.452828    4743.4659   -17060.781    79.745463 
   91500     381.8753   -114.95139    0.3455288   -114.60586   -1612.9702    4.3090043    4.3090043    4.3090043   -1612.9702   -18746.527    27442.323   -13534.706    1607.3507    6280.1005   -9279.4152    80.007517 
   91600      675.471   -115.21319   0.61118035   -114.60201    6120.3288    4.3060088    4.3060088    4.3060088    6120.3288   -12143.087    36627.234   -6123.1599   -2950.2805   -5099.9617    7571.5696    79.840775 
   91700    436.69219   -115.00054   0.39512827   -114.60542    2174.6504    4.3084571    4.3084571    4.3084571    2174.6504    4498.1106    21513.576   -19487.736    4463.1066     1898.756    -10826.76    79.977039 
   91800    426.88377    -114.9917    0.3862534   -114.60545   -12922.346    4.3108789    4.3108789    4.3108789   -12922.346   -11554.431   -2110.5947   -25102.013    1306.2499    6805.0766   -17976.376    80.111981 
   91900    680.13002   -115.21616   0.61539594   -114.60077    8124.0486    4.3020067    4.3020067    4.3020067    8124.0486   -5444.6659     23573.12    6243.6921    816.73615   -320.95502    4347.5598    79.618366 
   92000    754.24063   -115.28353   0.68245277   -114.60108   -7620.7109    4.3114568    4.3114568    4.3114568   -7620.7109   -9646.6652    2351.8893   -15567.357    43.050431    713.96288   -1184.0724    80.144205 
   92100    358.34027   -114.93089    0.3242338   -114.60666    1502.4461    4.3053524    4.3053524    4.3053524    1502.4461    7318.5123    17889.316    -20700.49    -3998.276    4337.7356   -14957.306    79.804266 
   92200    503.47311   -115.06184   0.45555305   -114.60629    4789.7175    4.3071109    4.3071109    4.3071109    4789.7175   -11081.919    35228.015   -9776.9443    2894.1965    5031.5545   -7726.4089    79.902093 
   92300    879.28728   -115.39556   0.79559761   -114.59997    2657.2199    4.3075242    4.3075242    4.3075242    2657.2199   -14532.056    23048.837   -545.12169   -3242.2742   -3117.2897    9410.6216    79.925096 
   92400    578.13761   -115.12838   0.52311106   -114.60526   -6034.0521    4.3069374    4.3069374    4.3069374   -6034.0521   -1405.4927   -1637.1759   -15059.488    1747.6781    1184.1277   -13280.621    79.892441 
   92500    483.41416   -115.04527   0.43740329   -114.60786   -6163.8986    4.3071256    4.3071256    4.3071256   -6163.8986   -1436.8571   -1015.5183   -16039.321    3001.1754    8709.3163   -16605.324    79.902913 
   92600    892.19828    -115.4098   0.80727976   -114.60252    5449.4344    4.3053574    4.3053574    4.3053574    5449.4344   -13684.454    27032.507    3000.2509    652.57773   -990.70907    2485.3687    79.804544 
   92700    702.02038   -115.23865    0.6352028   -114.60344    2149.8365    4.3092377    4.3092377    4.3092377    2149.8365   -11924.573    22946.689    -4572.607    922.13211    1220.3494   -973.61669    80.020515 
   92800    457.31587   -115.02224   0.41378901   -114.60845   -2089.1521    4.3046379    4.3046379    4.3046379   -2089.1521   -4954.9728    14039.159   -15351.642   -2083.2216    8424.5166   -17524.424    79.764544 
   92900    700.69383   -115.24005    0.6340025   -114.60605    1681.1228    4.3088869    4.3088869    4.3088869    1681.1228   -9029.4322    21026.619   -6953.8179    648.40071    3053.3615    -8458.096    80.000979 
   93000    1058.6371   -115.55822   0.95787713   -114.60035    735.70101    4.3051897    4.3051897    4.3051897    735.70101   -10622.971    6713.6704    6116.4036   -336.72834   -2162.1205    7073.3624     79.79522 
   93100    596.11369   -115.14597   0.53937619   -114.60659   -6363.5651    4.3079487    4.3079487    4.3079487   -6363.5651    -10228.15    3125.7097   -11988.255   -2570.1925    3480.0569   -13026.504    79.948731 
   93200    509.58477   -115.06911   0.46108301   -114.60802    512.10024    4.3083829    4.3083829    4.3083829    512.10024   -10583.761    26052.854   -13932.792    284.34529     7585.207   -10966.358    79.972907 
   93300    971.51118   -115.47996   0.87904373   -114.60092    12843.238    4.3021722    4.3021722    4.3021722    12843.238   -2909.1066    31411.134    10027.687    2954.9808   -1098.4525    1546.6171    79.627555 
   93400    781.85214    -115.3118   0.70743625   -114.60436    -3295.829    4.3113134    4.3113134    4.3113134    -3295.829   -15965.919    14727.302   -8648.8698   -1904.6095    1019.4084   -838.88227    80.136207 
   93500    550.47794   -115.10478   0.49808401    -114.6067   -9266.2226    4.3068196    4.3068196    4.3068196   -9266.2226   -6318.1479    -4537.165   -16943.355    1863.1583    8610.9958   -19059.988    79.885882 
   93600    876.33053   -115.39589   0.79292228   -114.60297    4087.8717    4.3029739    4.3029739    4.3029739    4087.8717   -1413.2687    12721.201    955.68289   -1108.5033   -1570.4473   -3281.1303    79.672076 
   93700    923.33546   -115.43698   0.83545333   -114.60152    48.345341    4.3122192    4.3122192    4.3122192    48.345341   -12932.902    18384.323   -5306.3854   -999.63571   -2832.6403    5588.6001    80.186726 
   93800    575.05002   -115.12673   0.52031734   -114.60641    4266.9876    4.3021324    4.3021324    4.3021324    4266.9876   -4080.2412    27272.825   -10391.622   -188.60705    5847.3261   -11541.699    79.625343 
   93900    531.37211   -115.08799   0.48079665   -114.60719    304.28083    4.3099121    4.3099121    4.3099121    304.28083   -3300.3943    22668.171   -18454.934    -3749.884    5956.2823   -10727.079    80.058091 
   94000    956.12418   -115.46526   0.86512125   -114.60014    1329.2111    4.3078791    4.3078791    4.3078791    1329.2111   -7420.9436    13930.633   -2522.0557    3550.0833   -1606.5638    2821.2184    79.944853 
   94100    743.49417   -115.27616   0.67272915   -114.60343    922.32766    4.3041309    4.3041309    4.3041309    922.32766   -1404.7031    7503.8329   -3332.1468   -4611.5095   -1375.9705   -2725.4264    79.736363 
   94200    532.75308   -115.08808   0.48204618   -114.60604   -8720.3433    4.3092503    4.3092503    4.3092503   -8720.3433   -1339.1536    114.88264   -24936.759    378.06814    7779.6925   -21220.526    80.021221 
   94300    755.16342   -115.28601   0.68328773   -114.60273    3352.0139    4.3061394    4.3061394    4.3061394    3352.0139    2503.8458    20618.844   -13066.648    1144.3651   -2403.6143    -109.1788    79.848038 
   94400    722.91029   -115.25543   0.65410443   -114.60132     4725.628    4.3083673    4.3083673    4.3083673     4725.628   -11216.269    33152.142   -7758.9888   -1241.1093   -5272.0678    1152.7181    79.972036 
   94500    489.46469   -115.04747   0.44287794   -114.60459    3816.1146    4.3034513    4.3034513    4.3034513    3816.1146   -731.07324     30711.95   -18532.533     3489.005    6514.0148   -14497.731    79.698599 
   94600     561.7598   -115.11249   0.50829207    -114.6042   -8275.7733    4.3105618    4.3105618    4.3105618   -8275.7733     -505.657    5476.5363   -29798.199   -2335.0806    2265.0907   -15956.904    80.094301 
   94700    796.86042   -115.32096   0.72101605   -114.59995   -215.41301    4.3050719    4.3050719    4.3050719   -215.41301   -1796.6115    14787.872     -13637.5    1732.9439   -5612.2076    6849.7417    79.788668 
   94800    626.81327   -115.17027   0.56715382   -114.60312   -4618.8859     4.306527     4.306527     4.306527   -4618.8859   -7175.2365    7873.9952   -14555.416   -2423.7173   -1055.1599    -3943.957    79.869602 
   94900    379.10777   -114.94874   0.34302467   -114.60571   -4586.2106    4.3094393    4.3094393    4.3094393   -4586.2106    921.78419    13414.846   -28095.262   -2502.0142     6046.415   -21218.611    80.031746 
   95000      627.721   -115.16967   0.56797515   -114.60169    3325.9267    4.3040457    4.3040457    4.3040457    3325.9267    403.92132    31955.091   -22381.232    727.08493   -1005.3409    1305.8073    79.731629 
   95100    580.57447   -115.12729   0.52531598   -114.60197     1123.032     4.309677     4.309677     4.309677     1123.032   -9314.0251    33242.515   -20559.394   -36.745983   -7381.8612    1811.1483    80.044993 
   95200    359.13895   -114.93037   0.32495647   -114.60542     1274.459     4.305348     4.305348     4.305348     1274.459    3516.7555    16511.648   -16205.027    321.54404     5109.393   -16464.742    79.804025 
   95300    551.21868   -115.10176   0.49875425     -114.603   -8682.5985    4.3081232    4.3081232    4.3081232   -8682.5985     361.7363     1923.354   -28332.886   -96.520717     2244.854   -15641.165    79.958448 
   95400      716.611   -115.24831   0.64840469    -114.5999   -3268.8429    4.3084198    4.3084198    4.3084198   -3268.8429   -6055.4212    15631.341   -19382.449    513.29551   -6857.9985    7960.9011    79.974961 
   95500    468.27647   -115.02674   0.42370639   -114.60303   -2577.2943    4.3063089    4.3063089    4.3063089   -2577.2943    2782.0526    10130.899   -20644.835    450.69347    3340.7551   -7887.3373     79.85747 
   95600    254.91843   -114.83698   0.23065555   -114.60633     698.3029    4.3068839    4.3068839    4.3068839     698.3029     2829.953     25344.37   -26079.415    731.20726    5631.7096    -22207.66    79.889463 
   95700     599.7691   -115.14516   0.54268369   -114.60248   -37.531848    4.3081767    4.3081767    4.3081767   -37.531848   -6937.0938    27315.329    -20490.83    -2151.074    29.452883    2120.8545    79.961425 
   95800    624.68447   -115.16662   0.56522763   -114.60139   -1879.9246    4.3073721    4.3073721    4.3073721   -1879.9246    -4076.989    21613.228   -23176.013    1611.4457   -2378.7414    1964.1146    79.916631 
   95900    285.76666   -114.86597   0.25856768   -114.60741   -2514.7043     4.305145     4.305145     4.305145   -2514.7043    10418.262    5295.9037   -23258.279   -3245.2198    3650.3366   -19077.981    79.792735 
   96000    543.27081   -115.09715   0.49156284   -114.60559   -8462.6513    4.3081194    4.3081194    4.3081194   -8462.6513   -4252.6948   -7182.0165   -13953.243   -629.32641    8199.1619   -13588.188    79.958234 
   96100    765.20131   -115.29329   0.69237023   -114.60092   -2793.2459    4.3092848    4.3092848    4.3092848   -2793.2459   -7307.6305     12378.66   -13450.767    336.07851   -5421.5752    6731.6251     80.02314 
   96200    509.99009   -115.06553   0.46144975   -114.60408   -2334.7005    4.3045673    4.3045673    4.3045673   -2334.7005    1470.2425    9194.0578   -17668.402   -344.57411   -463.64767   -8885.7443    79.760615 
   96300    244.47715   -114.82984   0.22120806   -114.60863     2638.715    4.3076189    4.3076189    4.3076189     2638.715    2640.7728    18399.468   -13124.095    2237.3391    8035.1962   -18102.632    79.930368 
   96400    684.35638   -115.22331   0.61922004   -114.60409    1646.6601    4.3092596    4.3092596    4.3092596    1646.6601   -11678.515    23789.775   -7171.2789   -3255.4288   -1754.8463    3926.3766    80.021736 
   96500    786.79887   -115.31307   0.71191215   -114.60115    3399.9617     4.303709     4.303709     4.303709    3399.9617    -2734.289    16209.785   -3275.6113    3233.5167    945.00303    -1146.276    79.712918 
   96600    418.56605   -114.98618   0.37872736   -114.60745   -7749.8721    4.3106046    4.3106046    4.3106046   -7749.8721   -4866.9964   -717.70749   -17664.912   -252.90219     6637.828   -17571.738    80.096691 
   96700    646.77376   -115.19035   0.58521449   -114.60514   -3758.0851     4.307523     4.307523     4.307523   -3758.0851   -1946.7895   -6182.0288   -3145.4372   -524.46241    5035.1576   -10547.853     79.92503 
   96800    947.80866   -115.45768    0.8575972   -114.60009    6159.7661    4.3042491    4.3042491    4.3042491    6159.7661    -6671.192    15100.737    10049.753    773.76543   -187.89406     5287.094    79.742931 
   96900    635.78222   -115.17948   0.57526911   -114.60421   -2015.1075    4.3104739    4.3104739    4.3104739   -2015.1075   -9852.6118    9688.3964   -5881.1071   -1096.5691    357.46385   -9673.5526    80.089405 
   97000    445.90888   -115.01142   0.40346772   -114.60795    1892.1109    4.3063336    4.3063336    4.3063336    1892.1109   -5922.7538      17979.6   -6380.5133    548.98937    9695.1527   -16244.842    79.858841 
   97100    769.68837   -115.30054   0.69643021   -114.60411    10970.536    4.3053696    4.3053696    4.3053696    10970.536   -4210.6009    25143.771    11978.438    -3283.753    2093.0926     6051.204    79.805226 
   97200     967.3292   -115.47684   0.87525979   -114.60158   -1379.3107    4.3087587    4.3087587    4.3087587   -1379.3107   -12328.249     1265.691    6924.6254   -261.67717   -4192.0107   -2982.3629    79.993833 
   97300    584.05319   -115.13532    0.5284636   -114.60686    -6645.463    4.3082026    4.3082026    4.3082026    -6645.463   -3112.5237   -8259.7718   -8564.0934    627.83463    6703.1673   -19212.645    79.962866 
   97400    789.47835   -115.31947   0.71433661   -114.60514   -5463.5412    4.3049773    4.3049773    4.3049773   -5463.5412   -6180.6493   -6058.2257   -4151.7484   -96.370452    2201.2864   -9088.8459    79.783411 
   97500    938.94926   -115.45144   0.84958102   -114.60186    2886.2522    4.3100798    4.3100798    4.3100798    2886.2522   -10284.711    11475.382    7468.0857   -1407.3938   -4609.4972    7131.2343     80.06744 
   97600     741.5157   -115.27518   0.67093898   -114.60424    2313.9844    4.3066186    4.3066186    4.3066186    2313.9844   -5485.9947    14313.298   -1885.3499    2017.9069    4057.5667   -11778.703    79.874701 
   97700    540.20978   -115.09652   0.48879316   -114.60773    3918.4906     4.305721     4.305721     4.305721    3918.4906    -2185.029     17946.65   -4006.1492   -1011.2387    5765.5202   -15124.779    79.824768 
   97800    871.14112   -115.39066   0.78822679   -114.60243    469.14248    4.3105875    4.3105875    4.3105875    469.14248   -17456.707    13331.665    5532.4694    277.08675    -936.5652    6197.5236    80.095739 
   97900      927.211   -115.44009      0.83896   -114.60113    2930.9777    4.3064695    4.3064695    4.3064695    2930.9777    -4372.304    3121.0373      10044.2   -252.06994   -3513.3388   -2852.1891    79.866405 
   98000    684.66495   -115.22445   0.61949923   -114.60495   -5767.8993    4.3077922    4.3077922    4.3077922   -5767.8993   -1391.8735   -10858.799   -5053.0249     100.0404    5478.3505   -19290.844    79.940018 
   98100    742.52606    -115.2762   0.67185319   -114.60435   -2675.3762    4.3092785    4.3092785    4.3092785   -2675.3762   -10259.367   -698.47503    2931.7138    2797.0633    6496.2464   -9598.3131    80.022792 
   98200       927.43   -115.44032   0.83915816   -114.60116    3204.5919    4.3071512    4.3071512    4.3071512    3204.5919   -12930.349    20397.048    2147.0763   -4897.5365   -5621.9767    4217.6102    79.904335 
   98300    580.65664   -115.12974   0.52539033   -114.60435    9356.2548    4.3063566    4.3063566    4.3063566    9356.2548    2229.4497    34704.379   -8865.0642    2838.3952     535.4227    -11877.37    79.860122 
   98400    516.30408   -115.07299   0.46716278   -114.60582   -1767.4546    4.3116975    4.3116975    4.3116975   -1767.4546    -7912.635    15610.587   -13000.316     1851.523    5669.8964   -15471.476    80.157628 
   98500    797.72492   -115.32208   0.72179827   -114.60028    5202.4563    4.3060603    4.3060603    4.3060603    5202.4563   -8675.4162    19490.201    4792.5843   -1403.1239   -5236.4087    4742.2614    79.843638 
   98600    829.27261   -115.35183   0.75034328   -114.60149   -61.922446    4.3047293    4.3047293    4.3047293   -61.922446    -3202.526    7602.1245   -4585.3659    158.27077   -2063.4029   -952.69807    79.769624 
   98700    523.87416   -115.08018   0.47401235   -114.60617   -12093.433    4.3107355    4.3107355    4.3107355   -12093.433   -3167.1086   -11979.003   -21134.187    1520.3345    7482.4083   -15937.456    80.103986 
   98800    548.99504   -115.10154   0.49674225    -114.6048    1866.1686    4.3088267    4.3088267    4.3088267    1866.1686   -7319.9439    25647.079   -12728.629    1906.9636    2339.2325   -7744.3398    79.997625 
   98900    750.20368   -115.27895   0.67880005   -114.60015    9189.8598    4.3054893    4.3054893    4.3054893    9189.8598   -7678.0278     39748.66   -4501.0529   -732.29929   -4218.6376    3715.0464    79.811879 
   99000    445.41214   -115.00806   0.40301827   -114.60504    4799.1382    4.3051985    4.3051985    4.3051985    4799.1382   -1170.4282    39875.828   -24307.985   -629.22071    2899.4073   -14660.067    79.795711 
   99100    339.76929   -114.91546   0.30743039   -114.60803   -16109.377     4.312426     4.312426     4.312426   -16109.377   -9735.4311     1825.679   -40418.379    5693.7002    7816.4395   -14470.971    80.198264 
   99200    712.47573   -115.24626   0.64466301   -114.60159    1855.3653    4.3018261    4.3018261    4.3018261    1855.3653     1787.273    11998.065   -8219.2423     2274.634   -3370.8952     966.3655    79.608334 
   99300    656.02335   -115.19567   0.59358371   -114.60209   -5700.0599    4.3120146    4.3120146    4.3120146   -5700.0599   -7815.0703    10336.891       -19622   -4184.2348    132.27805   -254.21368    80.175312 
   99400    256.73332   -114.83886    0.2322977   -114.60656   -9945.5275    4.3081616    4.3081616    4.3081616   -9945.5275   -624.44938    11582.779   -40794.912    4442.0479    9407.9353   -14401.126    79.960583 
   99500    326.20278   -114.90028   0.29515513   -114.60513    3779.0744    4.3023588    4.3023588    4.3023588    3779.0744     1738.662    39104.927   -29506.366   -698.88614   -2772.3628   -3464.3075    79.637913 
   99600    517.77925   -115.06872   0.46849755   -114.60023    1815.7667    4.3141327    4.3141327    4.3141327    1815.7667   -7530.3457    36610.883   -23633.238   -644.21964   -2525.8529    7002.7774     80.29352 
   99700    384.08324   -114.95012   0.34752659   -114.60259     810.4107    4.3037025    4.3037025    4.3037025     810.4107    4576.1702    22388.223   -24533.161    -2124.422    7616.9009   -12653.567    79.712554 
   99800    288.07627   -114.86518   0.26065746   -114.60453   -16201.821     4.308758     4.308758     4.308758   -16201.821    2155.6373   -4745.9915    -46015.11    899.36757    2857.3304    -13819.26    79.993796 
   99900    577.17488   -115.12341   0.52223996   -114.60117   -8546.6643    4.3087872    4.3087872    4.3087872   -8546.6643   -2861.3724    7399.6528   -30178.273    6505.1975   -1863.6084    2049.8178    79.995425 
  100000    463.80145   -115.02199    0.4196573   -114.60233     3601.126    4.3061899    4.3061899    4.3061899     3601.126    2875.7129    27336.033   -19408.368   -2172.8928    2876.3232   -671.50708    79.850851 
Loop time of 22.9266 on 1 procs for 100000 steps with 8 atoms

Pair  time (%) = 7.34749 (32.0479)
Kspce time (%) = 5.49375 (23.9624)
Neigh time (%) = 0 (0)
Comm  time (%) = 1.08777 (4.74458)
Outpt time (%) = 0.0378909 (0.165271)
Other time (%) = 8.95967 (39.0798)

Nlocal:    8 ave 8 max 8 min
Histogram: 1 0 0 0 0 0 0 0 0 0
Nghost:    2189 ave 2189 max 2189 min
Histogram: 1 0 0 0 0 0 0 0 0 0
Neighs:    2344 ave 2344 max 2344 min
Histogram: 1 0 0 0 0 0 0 0 0 0

Total # of neighbors = 2344
Ave neighs/atom = 293
Neighbor list builds = 0
Dangerous builds = 0
unfix 20
unfix 21
print "seeds:5274861"
seeds:5274861
