LAMMPS (10 Feb 2015)
# ---- initialize simulations
clear
units metal
dimension 3
boundary p p p
atom_style charge
atom_modify map array
# ---- create atoms
read_data /Users/eugeneragasa/pyflamestk_git/pypospack/tests/tests_integration/workflow/WorkflowLammpsThermalExpansion/param_9215/MgO_NaCl_unit.npt.T100/lammps.structure
  triclinic box = (0 0 0) to (4.2565 4.2565 4.2565) with tilt (0 0 0)
  1 by 1 by 1 MPI processor grid
  reading atoms ...
  8 atoms
# ---- define interatomic potential
include potential.mod
mass 1 24.305
mass 2 15.999

group Mg type 1
4 atoms in group Mg
group O type 2
4 atoms in group O

set group Mg charge 1.57990545172
  4 settings made for charge
set group O charge -1.57990545172
  4 settings made for charge

variable R_cut equal 10.0

pair_style buck/coul/long ${R_cut}
pair_style buck/coul/long 10
pair_coeff 1 1 0.0 0.5 0.0 ${R_cut}
pair_coeff 1 1 0.0 0.5 0.0 10
pair_coeff 1 2 1322.20855758 0.285006791586 0.0 ${R_cut}
pair_coeff 1 2 1322.20855758 0.285006791586 0.0 10
pair_coeff 2 2 14469.0891926 0.219096223147 48.5612274161 ${R_cut}
pair_coeff 2 2 14469.0891926 0.219096223147 48.5612274161 10

kspace_style pppm 1.0e-5

neighbor 1.0 bin
neigh_modify every 1 delay 0 check yes
# ---- define settings
compute eng all pe/atom
compute eatoms all reduce sum c_eng
# ---- run minimization
reset_timestep 0
fix 1 all box/relax iso 0.0 vmax 0.001
thermo 10
thermo_style custom step pe lx ly lz xy xz yz press pxx pyy pzz pxy pxz pyz c_eatoms
min_style cg
minimize 1e-25 1e-25 5000 10000
PPPM initialization ...
  G vector (1/distance) = 0.352172
  grid = 8 8 8
  stencil order = 5
  estimated absolute RMS force accuracy = 3.68665e-05
  estimated relative force accuracy = 2.56024e-06
  using double precision FFTs
  3d grid and FFT values/proc = 3375 512
Neighbor list info ...
  1 neighbor list requests
  update every 1 steps, delay 0 steps, check yes
  master list distance cutoff = 11
Memory usage per processor = 4.06549 Mbytes
Step PotEng Lx Ly Lz Xy Xz Yz Press Pxx Pyy Pzz Pxy Pxz Pyz eatoms 
       0   -101.30442       4.2565       4.2565       4.2565            0            0            0    88329.967    88329.967    88329.967    88329.967 -1.1961844e-11 -2.4099438e-10 5.9240466e-12   -101.30442 
      10    -101.3918     4.299065     4.299065     4.299065            0            0            0    35693.934    35693.934    35693.934    35693.934 1.4632835e-11 -2.3788485e-11 -3.8066587e-11    -101.3918 
      20   -101.41159    4.3315082    4.3315082    4.3315082            0            0            0   -5.9294003   -5.9294003   -5.9294003   -5.9294003 1.7198652e-10 1.1926792e-10 -5.3176444e-11   -101.41159 
Loop time of 0.0118229 on 1 procs for 20 steps with 8 atoms

Minimization stats:
  Stopping criterion = linesearch alpha is zero
  Energy initial, next-to-last, final = 
        -101.304424021     -101.411593199     -101.411593199
  Force two-norm initial, final = 12.7549 0.00088671
  Force max component initial, final = 12.7549 0.000886651
  Final line search alpha, max atom move = 0.015625 1.38539e-05
  Iterations, force evaluations = 20 34

Pair  time (%) = 0.00322413 (27.2702)
Kspce time (%) = 0.0020082 (16.9856)
Neigh time (%) = 0 (0)
Comm  time (%) = 0.000354767 (3.00067)
Outpt time (%) = 1.09673e-05 (0.0927625)
Other time (%) = 0.00622487 (52.6508)

Nlocal:    8 ave 8 max 8 min
Histogram: 1 0 0 0 0 0 0 0 0 0
Nghost:    2189 ave 2189 max 2189 min
Histogram: 1 0 0 0 0 0 0 0 0 0
Neighs:    2344 ave 2344 max 2344 min
Histogram: 1 0 0 0 0 0 0 0 0 0

Total # of neighbors = 2344
Ave neighs/atom = 293
Neighbor list builds = 0
Dangerous builds = 0
unfix 1
# ---- define output variables ----
variable natoms equal "count(all)"
variable tot_energy equal "c_eatoms"
variable length_x equal "lx"
variable length_y equal "ly"
variable length_z equal "lz"
variable tilt_xy equal "xy"
variable tilt_xz equal "xz"
variable tilt_yz equal "yz"
variable tot_press equal "press"
variable press_xx equal "pxx"
variable press_yy equal "pyy"
variable press_zz equal "pzz"
variable press_xy equal "pxy"
variable press_xz equal "pxz"
variable press_yz equal "pyz"

# ---- output ----
print "pypospack:output_section:begin"
pypospack:output_section:begin
print "tot_energy = ${tot_energy}"
tot_energy = -101.411593198701
print "num_atoms = ${natoms}"
num_atoms = 8
print "xx = ${length_x}"
xx = 4.33150823558717
print "yy = ${length_y}"
yy = 4.33150823558717
print "zz = ${length_z}"
zz = 4.33150823558717
print "xy = ${tilt_xy}"
xy = 0
print "xz = ${tilt_xz}"
xz = 0
print "yz = ${tilt_yz}"
yz = 0
print "tot_press = ${tot_press}"
tot_press = -5.92940031006952
print "pxx = ${press_xx}"
pxx = -5.92940030994687
print "pyy = ${press_yy}"
pyy = -5.92940031012476
print "pzz = ${press_zz}"
pzz = -5.92940031013695
print "pxy = ${press_xy}"
pxy = 1.71986520125442e-10
print "pxz = ${press_xz}"
pxz = 1.19267916823708e-10
print "pyz = ${press_yz}"
pyz = -5.31764436793611e-11
print "pypospack:output_section:done"
pypospack:output_section:done
print "pypospack:lammps_sim:done"
pypospack:lammps_sim:done
#------------------------------------------------------------------------------
# RUN THERMOSTAT
# running using an NPT Nose-Hoover style thermostat
#------------------------------------------------------------------------------
variable tempdamp equal 0.1
variable pressdamp equal 1.0
# set initial velocities
velocity all create 100 2657154 mom yes dist gaussian loop all
# fix for Nose-Hoover style thermostat
fix 20 all npt temp 100 100 0.1 aniso 0.0 0.0 1.0 drag 1.0 couple xyz
variable boxx equal lx
variable boxy equal ly
variable boxz equal lz
variable boxp equal press
variable boxt equal temp
# calculate averages every 10000 steps
reset_timestep 0
fix 21 all ave/time 10 10 100 v_boxx v_boxy v_boxz v_boxp v_boxt file lattice.out
thermo_style custom step temp pe ke etotal press lx ly lz press pxx pyy pzz pxy pxz pyz vol
thermo_modify flush yes
thermo 100
run 100000
PPPM initialization ...
  G vector (1/distance) = 0.351443
  grid = 8 8 8
  stencil order = 5
  estimated absolute RMS force accuracy = 3.81088e-05
  estimated relative force accuracy = 2.64651e-06
  using double precision FFTs
  3d grid and FFT values/proc = 3375 512
Memory usage per processor = 3.06549 Mbytes
Step Temp PotEng KinEng TotEng Press Lx Ly Lz Press Pxx Pyy Pzz Pxy Pxz Pyz Volume 
       0          100    -101.4116  0.090482101   -101.32112    1181.5297    4.3315082    4.3315082    4.3315082    1181.5297    1044.4659     657.4569    1842.6663   -464.17818    -666.5553    229.21009      81.2676 
     100     17.85422   -101.32436  0.016154874    -101.3082    1768.7075     4.331869     4.331869     4.331869    1768.7075    1772.0866   -161.46283    3695.4989    993.91105    416.39386    103.98457    81.287908 
     200     81.45987   -101.35706  0.073706603   -101.28336   -169.79747    4.3333773    4.3333773    4.3333773   -169.79747    196.30858   -905.89436    200.19339   -55.751431   -599.21399    209.69562    81.372848 
     300    89.885825   -101.34436  0.081330584   -101.26303    1318.8672    4.3340078    4.3340078    4.3340078    1318.8672   -218.51298    -1034.733    5209.8476    350.87814    381.75171     526.1237     81.40837 
     400    81.066959   -101.31976  0.073351088   -101.24641   -1122.7892    4.3353299    4.3353299    4.3353299   -1122.7892   -1336.1133   -3472.4116    1440.1575    1273.5111    3.7384828   -177.86321    81.482898 
     500    110.07182   -101.33467  0.099595297   -101.23508    -777.7455    4.3357831    4.3357831    4.3357831    -777.7455    -1095.171   -1319.6177    81.552242   -366.15735    111.75677     68.36871    81.508454 
     600    63.777422   -101.28913  0.057707152   -101.23143   -848.70983    4.3356595    4.3356595    4.3356595   -848.70983   -1103.0046   -4308.2921    2865.1672     1859.728    674.47612   -118.30252    81.501483 
     700    173.30137   -101.38576   0.15680672   -101.22895   -1604.6915    4.3360017    4.3360017    4.3360017   -1604.6915   -2577.9584   -2782.9999    546.88394    68.423892   -43.212774    -501.6586    81.520783 
     800    27.125614   -101.25481  0.024543825   -101.23026    659.50267     4.334856     4.334856     4.334856    659.50267    745.13155   -2458.2312    3691.6076    1145.0378    1255.0055    401.84954    81.456179 
     900    121.24752   -101.34018    0.1097073   -101.23047   -2047.0749    4.3352132    4.3352132    4.3352132   -2047.0749   -1346.2012   -3494.7968   -1300.2265    946.38082   -202.09835   -288.86535    81.476316 
    1000    128.71751   -101.34685   0.11646631   -101.23038    2550.1633    4.3339036    4.3339036    4.3339036    2550.1633    522.15475   -267.03133    7395.3664    245.47021    1246.9502   -89.445669      81.4025 
    1100     64.14915   -101.28924  0.058043499   -101.23119   -1432.2691    4.3345114    4.3345114    4.3345114   -1432.2691    316.43138   -3787.3493   -825.88931    1549.5152   -319.85982    227.68479    81.436753 
    1200    115.62766   -101.33497   0.10462234   -101.23035    2092.3805    4.3340492    4.3340492    4.3340492    2092.3805    261.45946    459.84427    5555.8378   -150.12079    318.32849   -405.83221    81.410703 
    1300     94.23401   -101.31657  0.085264912   -101.23131    870.15865    4.3341435    4.3341435    4.3341435    870.15865    531.90721   -2758.1634    4836.7322    1478.0312    433.54541    575.63784    81.416018 
    1400    119.69245   -101.33886   0.10830025   -101.23056   -78.167521    4.3349563    4.3349563    4.3349563   -78.167521   -1606.6942   -1648.7303    3020.9219    116.02793   -939.20475    397.20415    81.461834 
    1500    61.168509   -101.28603  0.055346553   -101.23068    1238.5922    4.3344568    4.3344568    4.3344568    1238.5922    1576.3232   -609.40873    2748.8622    436.79068    1248.6417   -11.856602    81.433677 
    1600    123.41839   -101.34268   0.11167155   -101.23101   -2512.3526    4.3357247    4.3357247    4.3357247   -2512.3526   -2477.6053   -4465.0928   -594.35964      1101.46   -1607.8276    706.18801    81.505157 
    1700    121.09184   -101.33982   0.10956644   -101.23026    1736.6194    4.3348491    4.3348491    4.3348491    1736.6194   -274.91554   -803.65334    6288.4271   -729.73578    629.29113   -433.51341    81.455788 
    1800    52.710938   -101.27879  0.047693965   -101.23109   -2833.2618    4.3355126    4.3355126    4.3355126   -2833.2618   -440.68509   -5208.0363    -2851.064    1898.9917   -561.60406    215.58918    81.493197 
    1900     124.4395   -101.34314   0.11259547   -101.23055    1137.6164    4.3350539    4.3350539    4.3350539    1137.6164   -1868.1912   -1559.8681    6840.9086   -631.19091   -393.76368    251.46807    81.467334 
    2000    115.93302   -101.33588   0.10489863   -101.23098   -280.37577    4.3347706    4.3347706    4.3347706   -280.37577    505.67025   -3227.0882    1880.2906    1147.3371    1124.6667   -441.82679    81.451361 
    2100     73.28599   -101.29726  0.066310704   -101.23095   -567.62476    4.3352122    4.3352122    4.3352122   -567.62476    -2033.967   -2998.9361    3330.0288    758.16418    -949.7939    196.31895    81.476257 
    2200    104.21738   -101.32466  0.094298078   -101.23037    2144.2025     4.333975     4.333975     4.333975    2144.2025    2080.7597    746.93658    3604.9114   -317.42878    1485.6776   -562.25337    81.406526 
    2300    112.07192   -101.33248   0.10140503   -101.23108   -1255.3241     4.335116     4.335116     4.335116   -1255.3241   -2556.0724   -4726.3478    3516.4478    2056.6365   -782.78252   -518.30064    81.470837 
    2400    96.851652   -101.31786   0.08763341   -101.23023    2449.2212    4.3340828    4.3340828    4.3340828    2449.2212    553.79641    933.82176    5860.0455   -533.60689    1386.2626    159.74992    81.412599 
    2500    79.541264    -101.3028  0.071970608   -101.23083   -2031.3152    4.3349121    4.3349121    4.3349121   -2031.3152    5.0028862   -4049.7332   -2049.2154    1785.3844   -201.30406   -375.94132    81.459342 
    2600     122.4562   -101.34154   0.11080094   -101.23074    1131.8207    4.3348075    4.3348075    4.3348075    1131.8207   -2488.9839   -1432.9252    7317.3712    472.23982    973.07004    156.50539    81.453443 
    2700    118.68597   -101.33788   0.10738956   -101.23049   -533.25935    4.3347128    4.3347128    4.3347128   -533.25935    1253.9225   -2754.9649   -98.735642    451.75637    129.40205    228.55915    81.448104 
    2800    42.417862   -101.26954  0.038380573   -101.23116   -716.19762    4.3354537    4.3354537    4.3354537   -716.19762   -2790.0504   -3832.5062    4473.9638    1371.6347   -378.36105   -420.31952    81.489878 
    2900    145.62768   -101.36188   0.13176699   -101.23012    1252.4095    4.3345689    4.3345689    4.3345689    1252.4095    728.98671   -766.47012     3794.712   -242.56567    821.29605    536.75854    81.439991 
    3000    92.219536   -101.31447  0.083442174   -101.23103   -1350.4392    4.3354583    4.3354583    4.3354583   -1350.4392   -3086.6401   -5338.6718    4373.9943    1511.0391   -1293.8826     84.10986    81.490135 
    3100    86.074728   -101.30824  0.077882223   -101.23036    663.04227    4.3347751    4.3347751    4.3347751    663.04227    -457.9488   -495.18522    2942.2608   -16.189665    927.36107    336.33998    81.451617 
    3200    112.13188   -101.33205   0.10145929   -101.23059   -1058.8214    4.3349826    4.3349826    4.3349826   -1058.8214   -514.07755   -2943.0554    280.66887    772.37134   -896.25479    354.34796    81.463312 
    3300    100.89386   -101.32224  0.091290887   -101.23095    505.32502    4.3350354    4.3350354    4.3350354    505.32502   -3344.3168   -2594.8919    7455.1838     599.2538   -615.96406   -89.698533    81.466291 
    3400    107.45073   -101.32746  0.097223678   -101.23024   -33.254978    4.3343765    4.3343765    4.3343765   -33.254978    1691.9291   -796.76247   -994.93154   -232.07337     359.6601   -315.91439     81.42915 
    3500    53.582965   -101.27959  0.048482993    -101.2311   -647.06501    4.3352983    4.3352983    4.3352983   -647.06501   -3485.6874   -3746.3615    5290.8538    1428.1544   -1134.8392    209.90784    81.481116 
    3600    163.33823   -101.37787   0.14779186   -101.23007    419.14881    4.3344438    4.3344438    4.3344438    419.14881    24.520063   -1161.9288    2394.8552   -622.28775    797.47326   -508.36829    81.432945 
    3700    72.608405   -101.29655  0.065697611   -101.23085    -810.7937    4.3352188    4.3352188    4.3352188    -810.7937   -2495.4557   -4595.7811    4658.8558     1591.272   -197.94029    23.937035    81.476632 
    3800    80.188211   -101.30323  0.072555978   -101.23067   -108.18873    4.3347242    4.3347242    4.3347242   -108.18873   -969.98352   -1949.1198    2594.5371    23.286236    -55.45158  -0.76625019    81.448747 
    3900    136.32366    -101.3537   0.12334852   -101.23035    198.09538     4.334861     4.334861     4.334861    198.09538   -968.39665   -2416.2324    3978.9152    480.99677    206.59658   -935.70034    81.456458 
    4000      75.3811   -101.29916  0.068206404   -101.23095   -646.74283    4.3352637    4.3352637    4.3352637   -646.74283   -3542.7154   -4207.6647    5810.1517     1380.319    136.77685    492.38549    81.479165 
    4100    108.12421   -101.32785  0.097833061   -101.23002   -497.29112    4.3347345    4.3347345    4.3347345   -497.29112    802.00794   -110.04278   -2183.8385   -586.32508   -239.06975   -497.80579     81.44933 
    4200    85.618541   -101.30836  0.077469455   -101.23089   -1026.3337    4.3354965    4.3354965    4.3354965   -1026.3337   -4266.1031   -4231.7431    5418.8452    2152.6323    738.86363    219.17311    81.492289 
    4300    138.10635   -101.35525   0.12496153   -101.23029   -278.90067    4.3346819    4.3346819    4.3346819   -278.90067     -846.725   -1518.5975    1528.6205   -324.26744   -435.07307     819.0058    81.446361 
    4400    67.627409   -101.29176  0.061190701   -101.23057   -426.18089    4.3351558    4.3351558    4.3351558   -426.18089   -2106.1203   -3093.8819    3921.4595    1288.7437   -492.83003   -509.10762    81.473077 
    4500    87.088339   -101.30967   0.07879936   -101.23087   -616.21644    4.3349457    4.3349457    4.3349457   -616.21644   -1726.9029   -2787.5522    2665.8058     753.6497    241.52519    914.24209    81.461234 
    4600    149.92091   -101.36585   0.13565159    -101.2302    343.08517    4.3347183    4.3347183    4.3347183    343.08517   -1402.2695   -1903.3642    4334.8892   -80.204483   -1717.3214    93.172304    81.448417 
    4700    54.294979   -101.28011  0.049127238   -101.23098   -1236.2022    4.3353504    4.3353504    4.3353504   -1236.2022   -2952.1138   -4707.5495    3951.0568    1470.2258    649.11439    180.98578     81.48405 
    4800    113.65373   -101.33313   0.10283628   -101.23029   -560.83485    4.3345829    4.3345829    4.3345829   -560.83485   -401.63085   -699.50426   -581.36943   -317.58696   -1266.4095    1125.1414    81.440781 
    4900    105.22998   -101.32597    0.0952143   -101.23076   -600.78965       4.3355       4.3355       4.3355   -600.78965   -4106.1576   -4525.0012    6828.7898     1193.996    -291.9286   -517.29755    81.492486 
    5000    104.29399    -101.3249  0.094367392   -101.23054     -1319.61    4.3346773    4.3346773    4.3346773     -1319.61   -1191.4038   -2686.4847   -80.941595    287.58841   -621.03966    651.84649    81.446102 
    5100    81.184081   -101.30377  0.073457063   -101.23031   -238.10127    4.3352979    4.3352979    4.3352979   -238.10127   -2021.8769   -1071.5629    2379.1361    227.23533   -416.79448    -335.6745    81.481093 
    5200    107.23136   -101.32781   0.09702519   -101.23079   -1518.8371    4.3350772    4.3350772    4.3350772   -1518.8371   -2457.2966   -4073.9017    1974.6871    896.20637   -449.60117     27.76963    81.468648 
    5300    126.39303    -101.3445   0.11436307   -101.23014    561.47431    4.3348488    4.3348488    4.3348488    561.47431   -1906.7368   -489.29333    4080.4531    -351.0971    133.27048    167.47915    81.455769 
    5400    54.730137   -101.28025  0.049520978   -101.23073   -1427.3024    4.3354055    4.3354055    4.3354055   -1427.3024   -2342.5159   -4621.6659    2682.2746    1292.7487   -118.03717    83.366892    81.487158 
    5500    119.16962   -101.33826   0.10782718   -101.23043   -317.12546    4.3346737    4.3346737    4.3346737   -317.12546   -1788.6166   -1043.5237    1880.7639    -94.58832    -815.6195    23.407207    81.445903 
    5600    119.25249   -101.33838   0.10790216   -101.23048   -681.08648    4.3355032    4.3355032    4.3355032   -681.08648    -3081.984    -4595.937    5634.6616    949.89373    769.46586   -30.194634    81.492665 
    5700    75.117708   -101.29862   0.06796808   -101.23065   -1987.0922    4.3348222    4.3348222    4.3348222   -1987.0922   -1405.6637   -3357.5957   -1198.0173    645.35756   -1504.5315    350.97973    81.454271 
    5800    102.75288   -101.32322  0.092972965   -101.23025   -57.445207    4.3351795    4.3351795    4.3351795   -57.445207   -1958.6841   -701.71655     2488.065   -32.045923    466.77641    -162.7109    81.474415 
    5900    111.39885   -101.33156   0.10079602   -101.23076    -1695.223    4.3350704    4.3350704    4.3350704    -1695.223   -2808.4768   -5249.9214    2972.7292    1527.7429   -227.25939    1126.7456    81.468267 
    6000    95.812062   -101.31701  0.086692767   -101.23031    231.03873     4.334719     4.334719     4.334719    231.03873   -1957.7364    290.25693    2360.5956   -450.31294   -1938.3206    10.940412    81.448455 
    6100    81.534982   -101.30431  0.073774565   -101.23054   -1563.2941    4.3355673    4.3355673    4.3355673   -1563.2941   -1931.2612   -4061.6567    1303.0357    1686.5045    953.14437     449.6494    81.496283 
    6200    120.63705   -101.33984   0.10915493   -101.23068   -121.71133    4.3344767    4.3344767    4.3344767   -121.71133   -2467.1615   -1126.3553    3228.3828    125.78245    -2685.436    683.11586    81.434796 
    6300    112.81805   -101.33242   0.10208014   -101.23034   -515.18356    4.3356748    4.3356748    4.3356748   -515.18356   -1946.8393   -3633.6202    4034.9087    606.01567    438.91746   -529.12413    81.502345 
    6400    57.656129   -101.28294  0.052168477   -101.23077   -1239.8457     4.334591     4.334591     4.334591   -1239.8457   -1526.3647   -2606.0665    412.89421    1005.4376   -754.77721    1167.9292    81.441237 
    6500     126.9572   -101.34509   0.11487355   -101.23022   -159.93296    4.3353763    4.3353763    4.3353763   -159.93296   -2399.6196   -1442.8393      3362.66   -337.09493    -1150.297   -291.03913    81.485513 
    6600    106.61061   -101.32708  0.096463521   -101.23061   -1818.4138    4.3351032    4.3351032    4.3351032   -1818.4138   -2523.1799   -5259.0207    2326.9591    1351.1756    408.63324    13.342022    81.470112 
    6700    79.090493   -101.30194  0.071562741   -101.23038   -849.37463    4.3349261    4.3349261    4.3349261   -849.37463   -2066.3043   -577.36256    95.542957   -104.36084   -1479.0806    557.86531    81.460131 
    6800    110.02217    -101.3299  0.099550369   -101.23035    -1435.664     4.335581     4.335581     4.335581    -1435.664   -1609.3822    -3777.962    1080.3521    740.52336    547.14287    -1117.721    81.497053 
    6900    105.70725   -101.32636  0.095646144   -101.23071   -90.375929    4.3344419    4.3344419    4.3344419   -90.375929   -2795.7105   -2499.4611    5024.0439    546.52364   -730.76828    867.34976    81.432834 
    7000    99.341012   -101.32007  0.089885835   -101.23019   -502.18926    4.3356497    4.3356497    4.3356497   -502.18926   -923.08517   -1815.6141    1232.1315   -118.07295    608.05033   -393.54804    81.500927 
    7100    72.079188    -101.2959  0.065218764   -101.23068   -635.36296    4.3345878    4.3345878    4.3345878   -635.36296   -2135.9126   -2321.7758    2551.5995    939.54642   -930.60649    126.17672    81.441059 
    7200    138.11923   -101.35521   0.12497318   -101.23024    -24.42218    4.3351971    4.3351971    4.3351971    -24.42218   -2102.8863   -1127.7869    3157.4066   -157.84278    76.473736    518.91305    81.475406 
    7300    93.237449   -101.31484  0.084363203   -101.23048   -1185.5034    4.3351348    4.3351348    4.3351348   -1185.5034    -1939.671   -4179.1408    2562.3015    895.90065   -449.36875   -464.56648    81.471895 
    7400    68.023958   -101.29219  0.061549507   -101.23064    -443.2852    4.3346274    4.3346274    4.3346274    -443.2852   -1474.1238   -655.35731    799.62553    407.80906   -1143.2846    595.45245    81.443289 
    7500    136.02404   -101.35337   0.12307741   -101.23029   -1357.2749    4.3356907    4.3356907    4.3356907   -1357.2749   -1700.6745     -4208.47    1837.3198    281.10803    736.91423    164.57072    81.503244 
    7600    84.745131   -101.30746  0.076679175   -101.23078   -270.09372    4.3342878    4.3342878    4.3342878   -270.09372   -2376.9771   -2742.5731     4309.269     983.0135   -2137.3676     335.4193    81.424153 
    7700    102.69171   -101.32308   0.09291762   -101.23016   -1604.8823    4.3358844    4.3358844    4.3358844   -1604.8823    -831.0086   -1898.2166   -2085.4217   -319.50488    36.212669    340.27704    81.514166 
    7800     88.12894   -101.31042  0.079740917   -101.23068    227.16995    4.3344218    4.3344218    4.3344218    227.16995   -2538.6739   -2254.8488    5475.0325    1420.8041   -856.40893  -0.16753733      81.4317 
    7900    129.87246   -101.34786   0.11751133   -101.23034   -505.75873    4.3353518    4.3353518    4.3353518   -505.75873    -1871.849   -2363.8734    2718.4462   -156.78943   -1519.4063   -206.83811    81.484129 
    8000    73.426173   -101.29687  0.066437544   -101.23043  -0.83772083    4.3350523    4.3350523    4.3350523  -0.83772083   -1304.7197   -1820.9773    3123.1839    1044.6846    1104.2675   -32.999073    81.467245 
    8100    90.406771   -101.31237  0.081801947   -101.23056   -605.09546    4.3346776    4.3346776    4.3346776   -605.09546   -1442.2075   -1630.1416    1257.0628    587.36237   -1767.9169   -86.903146    81.446119 
    8200    140.23007    -101.3571   0.12688311   -101.23022   -787.21329    4.3357209    4.3357209    4.3357209   -787.21329   -1726.9228   -3084.5327    2449.8156   -52.796302    692.83649   -350.13727    81.504944 
    8300    68.858439   -101.29296  0.062304563   -101.23065   -404.46962    4.3343342    4.3343342    4.3343342   -404.46962   -1958.5379   -2413.4433    3158.5724    1267.6909   -477.01075    35.054082    81.426766 
    8400    104.77758   -101.32506  0.094804955   -101.23025   -1548.2238    4.3356704    4.3356704    4.3356704   -1548.2238   -810.23732   -1849.5472   -1984.8868   -503.41256   -245.71436   -596.46881    81.502098 
    8500    99.017793   -101.32018   0.08959338   -101.23058    730.11263    4.3344799    4.3344799    4.3344799    730.11263   -2668.5481   -2810.6458    7669.5318    1225.7189    644.61499   -378.73236    81.434978 
    8600    118.80559   -101.33787    0.1074978   -101.23037   -1594.9204    4.3352031    4.3352031    4.3352031   -1594.9204   -987.57437   -3320.6633   -476.52358    80.940192   -28.854701    307.01702    81.475748 
    8700    67.734716   -101.29177  0.061287794   -101.23048    727.53838    4.3350566    4.3350566    4.3350566    727.53838   -1139.2171   -670.43569     3992.268    349.31929    233.04291    -533.6186    81.467485 
    8800    120.41972   -101.33952   0.10895829   -101.23057   -925.34541    4.3345231    4.3345231    4.3345231   -925.34541   -1471.3959   -3353.6056    2048.9654    754.41826   -228.06819    769.62649    81.437411 
    8900    111.77093   -101.33154   0.10113269   -101.23041    619.44316    4.3355437    4.3355437    4.3355437    619.44316   -1556.3171   -1652.2303    5066.8769   -319.71228   -41.597201   -90.584085    81.494953 
    9000     68.55846   -101.29267  0.062033135   -101.23064   -531.71976    4.3343285    4.3343285    4.3343285   -531.71976   -1298.2698   -1931.1114     1634.222    958.71343   -586.67112   -234.88454    81.426445 
    9100    114.61696   -101.33416   0.10370783   -101.23045   -993.10135    4.3356114    4.3356114    4.3356114   -993.10135   -1081.9517     -1631.12   -266.23239   -38.460391    54.342104    957.58819    81.498767 
    9200    109.01399   -101.32917   0.09863815   -101.23053    410.45055    4.3346283    4.3346283    4.3346283    410.45055    -2198.606   -2699.1446    6129.1023     643.7559   -378.01748   -749.48427    81.443342 
    9300    97.649364   -101.31876  0.088355197    -101.2304   -1898.4985    4.3352092    4.3352092    4.3352092   -1898.4985   -472.06971   -3080.9008   -2142.5251    611.88624   -945.13208    1002.5387    81.476089 
    9400    75.225541   -101.29851  0.068065651   -101.23045    1128.5659    4.3350933    4.3350933    4.3350933    1128.5659    -1321.744   -1097.2106    5804.6523   -7.3983885    138.99098   -237.26331    81.469554 
    9500    133.00201   -101.35081   0.12034301   -101.23047    -1264.634    4.3347225    4.3347225    4.3347225    -1264.634   -1620.9567   -4683.0045    2510.0593    1087.1858   -1055.2768   -576.49624    81.448655 
    9600    86.347047   -101.30855  0.078128623   -101.23043    921.59645    4.3353506    4.3353506    4.3353506    921.59645   -1052.7171   -1241.4427    5058.9492   -327.19441    131.27272    463.29784    81.484063 
    9700    88.415173   -101.31041  0.079999907   -101.23041   -991.87978    4.3345847    4.3345847    4.3345847   -991.87978   -1026.9086   -1812.2102   -136.52051    1224.7728     289.9914   -1164.7707    81.440882 
    9800    117.13908   -101.33656    0.1059899   -101.23057    191.73084    4.3352655    4.3352655    4.3352655    191.73084   -1038.6883   -2544.1647    4158.0455    101.80562   -582.86099    443.27411    81.479264 
    9900    100.91747   -101.32183  0.091312246   -101.23052    452.90509     4.334748     4.334748     4.334748    452.90509   -1373.4877   -1546.0185    4278.2215    593.03183    793.79058   -293.12282    81.450087 
   10000    82.793109   -101.30544  0.074912945   -101.23053   -1149.6664    4.3348304    4.3348304    4.3348304   -1149.6664    17.249317   -2552.2026   -914.04607    902.74897   -26.757803   -464.09636    81.454736 
   10100    98.867528   -101.31984  0.089457417   -101.23039    1166.0774    4.3351048    4.3351048    4.3351048    1166.0774   -1093.5469   -988.99055    5580.7696   -411.52102    159.54558    367.85195    81.470203 
   10200    135.03954   -101.35262   0.12218661   -101.23044   -1591.8907    4.3346522    4.3346522    4.3346522   -1591.8907   -1264.6195   -4450.6068    939.55415    1390.7721    1219.9212    -543.9307    81.444688 
   10300    62.056451   -101.28672  0.056149981   -101.23057     1631.766    4.3350458    4.3350458    4.3350458     1631.766   -36.967254   -521.87526    5454.1404   -510.58546   -241.37594    700.01153    81.466877 
   10400    113.68492   -101.33326    0.1028645   -101.23039   -1016.5454    4.3346634    4.3346634    4.3346634   -1016.5454   -958.11002   -2706.5996    615.07338    1028.5311     495.3181    288.23124     81.44532 
   10500    101.12685   -101.32216  0.091501701   -101.23066    1545.7278    4.3349411    4.3349411    4.3349411    1545.7278     -642.608   -3325.6504    8605.4418    307.73849    322.33779    598.56604    81.460975 
   10600    102.57157   -101.32317  0.092808911   -101.23037   -559.37972    4.3349634    4.3349634    4.3349634   -559.37972   -396.24892   -1309.8211    27.930858    52.568547   -834.75346    352.78744    81.462233 
   10700    82.065143   -101.30489  0.074254266   -101.23064   -430.11604    4.3348895    4.3348895    4.3348895   -430.11604   -269.00129   -2763.9443    1742.5975     955.3835    898.80388     257.2925    81.458069 
   10800    122.08157    -101.3408   0.11046197   -101.23034    882.39543    4.3350231    4.3350231    4.3350231    882.39543   -680.89465   -1460.9156    4788.9966   -393.15331    -953.9587    399.44075    81.465595 
   10900    107.49234    -101.3277  0.097261327   -101.23044   -838.82985     4.334742     4.334742     4.334742   -838.82985   -920.07967   -2879.3768    1282.9669    954.58838    261.04239    -89.36852    81.449754 
   11000    59.344293   -101.28423  0.053695964   -101.23053    1791.6076    4.3349444    4.3349444    4.3349444    1791.6076     684.9145    -509.2434    5199.1517     128.8003   -816.68468    785.65404    81.461163 
   11100    137.78678   -101.35498   0.12467238    -101.2303   -907.57247    4.3348432    4.3348432    4.3348432   -907.57247   -964.20253   -2785.2627    1026.7478    449.66997   -115.48986   -862.14274    81.455457 
   11200    85.720055   -101.30822  0.077561307   -101.23066    1866.9522    4.3347273    4.3347273    4.3347273    1866.9522    39.256948   -3042.1756    8603.7753    757.90479   -407.16075    388.73883    81.448922 
   11300    107.54838   -101.32747  0.097312034   -101.23015   -973.82262    4.3350328    4.3350328    4.3350328   -973.82262    285.87431   -1382.1899   -1825.1523   -121.30497    46.055459   -735.32736    81.466143 
   11400    79.539022   -101.30269  0.071968578   -101.23072     1153.188    4.3346744    4.3346744    4.3346744     1153.188   -672.68856   -3137.2676    7269.5203    1013.6537    470.47157   -448.30135    81.445943 
   11500    132.75348   -101.35045   0.12011814   -101.23033    249.49086    4.3349247    4.3349247    4.3349247    249.49086    83.808293    -2749.348    3414.0123   -149.18123   -680.61206    503.00716     81.46005 
   11600    78.830394   -101.30189  0.071327397   -101.23056    54.438654    4.3346525    4.3346525    4.3346525    54.438654   -513.69264   -952.38351    1629.3921    887.89399    1299.3572   -889.91367    81.444707 
   11700    87.253148   -101.30944  0.078948482   -101.23049    670.71844    4.3349269    4.3349269    4.3349269    670.71844    1032.7915   -2155.9976    3135.3615    447.17183   -670.18879    730.59915    81.460174 
   11800    139.99247   -101.35694   0.12666813   -101.23028   -76.157531    4.3347539    4.3347539    4.3347539   -76.157531   -828.32515   -1516.5169    2116.3695    143.54033    937.72351   -334.61945    81.450423 
   11900    67.129523   -101.29145  0.060740203   -101.23071    1673.9238     4.334773     4.334773     4.334773    1673.9238    410.91369   -2716.3333    7327.1909    1117.8386    862.45563    7.3691295    81.451497 
   12000     110.3797   -101.33005  0.099873875   -101.23018   -292.41673    4.3348598    4.3348598    4.3348598   -292.41673    785.30982    -675.1585   -987.40151   -557.03917   -917.62406    1015.6108    81.456389 
   12100    90.980643     -101.313  0.082321198   -101.23068    1665.9389    4.3347689    4.3347689    4.3347689    1665.9389   -1163.1197   -3376.2272    9537.1636    1298.6098    1694.4981   -208.13446     81.45127 
   12200    127.94295     -101.346   0.11576547   -101.23024   -467.79552    4.3349552    4.3349552    4.3349552   -467.79552    1060.0608   -2694.0282    230.58087    -253.5246   -1485.8943    990.12486    81.461771 
   12300    69.329951   -101.29325  0.062731197   -101.23052    578.68361    4.3347877    4.3347877    4.3347877    578.68361    -656.3878   -707.41146    3099.8501    673.08797    608.88551    102.27129    81.452328 
   12400     106.3313   -101.32674  0.096210793   -101.23053    95.972725    4.3348974    4.3348974    4.3348974    95.972725    1044.0133   -4049.3218    3293.2267    663.15525   -113.79607   -210.15932    81.458512 
   12500    125.14613   -101.34351   0.11323485   -101.23028     546.9835    4.3346321    4.3346321    4.3346321     546.9835   -882.49474   -1275.6375    3799.0827   -260.52127   -1076.7242    584.20992    81.443556 
   12600    62.024912   -101.28686  0.056121444   -101.23074    438.86378     4.335025     4.335025     4.335025    438.86378    655.17452   -2465.3052    3126.7221    1120.3747    535.40179   -599.29392    81.465705 
   12700    125.22656   -101.34362   0.11330762   -101.23031   -70.317397    4.3346595    4.3346595    4.3346595   -70.317397    688.61475   -1239.6255    340.05858   -376.54245   -1498.7607    334.52884      81.4451 
   12800    97.823998   -101.31922  0.088513209   -101.23071     1740.771    4.3347826    4.3347826    4.3347826     1740.771   -989.57882   -2040.7319    8252.6238    816.07723    332.76263   -487.43558    81.452038 
   12900      106.322   -101.32655  0.096202383   -101.23035   -303.78468    4.3348649    4.3348649    4.3348649   -303.78468    1773.7321    -2331.975   -353.11119    338.03311   -822.16858   -497.65728    81.456679 
   13000    71.187888   -101.29486  0.064412297   -101.23045    1908.9379     4.334556     4.334556     4.334556    1908.9379   -451.67675    40.252564     6138.238    222.70368    431.29228   -363.14643    81.439264 
   13100    123.71388   -101.34247   0.11193892   -101.23053   -779.20878    4.3351018    4.3351018    4.3351018   -779.20878    814.53037   -5334.4215    2182.2648    834.71182   -340.08414   -360.83626    81.470036 
   13200    105.75733   -101.32594  0.095691458   -101.23025    832.41997    4.3345096    4.3345096    4.3345096    832.41997   -265.17624    -567.3843    3329.8204   -98.535615    191.36316   -44.520597    81.436652 
   13300    74.759286   -101.29824  0.067643773   -101.23059    -1133.173    4.3353733    4.3353733    4.3353733    -1133.173    560.30174   -3210.0707   -749.75016     808.5425     356.7315   -9.9590675    81.485345 
   13400    123.97084   -101.34258   0.11217142   -101.23041    333.24358    4.3346117    4.3346117    4.3346117    333.24358    271.73931   -2805.7924    3533.7838    151.29652   -366.30861    57.574649    81.442406 
   13500    96.220474   -101.31769  0.087062307   -101.23062    1020.6508    4.3350411    4.3350411    4.3350411    1020.6508   -604.74113   -1271.4988    4938.1924    472.81467    1270.1145   -200.09812    81.466614 
   13600    86.157427   -101.30849  0.077957051   -101.23053   -531.82106    4.3348887    4.3348887    4.3348887   -531.82106    1815.8668   -2704.0647   -707.26521     731.1271    -450.8503     245.7664    81.458023 
   13700    99.399282   -101.32026  0.089938559   -101.23033    1974.2225    4.3345667    4.3345667    4.3345667    1974.2225   -346.03312    217.35084    6051.3499   -111.74509    540.56167    92.406219     81.43987 
   13800    124.07472   -101.34286   0.11226541   -101.23059   -1157.1728    4.3353414    4.3353414    4.3353414   -1157.1728    888.17787   -5048.6903     688.9941     1104.578    258.92001    45.510506    81.483543 
   13900    82.313136   -101.30486  0.074478656   -101.23038    1655.3326    4.3343006    4.3343006    4.3343006    1655.3326    478.30149    536.24355    3951.4528      -413.94   -1034.5044    468.36265    81.424871 
   14000     94.41101   -101.31598  0.085425066   -101.23055   -1255.7761    4.3353537    4.3353537    4.3353537   -1255.7761    827.33988   -3757.6634   -837.00492     904.0954    883.43384   -785.67793    81.484238 
   14100    110.25878   -101.33036  0.099764459   -101.23059    886.46407     4.334452     4.334452     4.334452    886.46407    186.09329   -3024.1732    5497.4722    247.46664   -1068.4881    140.25773    81.433407 
   14200    106.50951   -101.32671  0.096372043   -101.23034   -534.41928    4.3350905    4.3350905    4.3350905   -534.41928    485.17561   -1240.5664   -847.86701     135.3244    118.58164    -479.5075    81.469399 
   14300    71.404507   -101.29536  0.064608299   -101.23075   -589.14032    4.3349695    4.3349695    4.3349695   -589.14032    1446.4975   -3479.6581    265.73967    1124.2258   -358.87235   -649.67427    81.462578 
   14400    129.31681   -101.34724   0.11700856   -101.23023    1190.5888    4.3345179    4.3345179    4.3345179    1190.5888   -154.92433   -1303.3398    5030.0307   -458.44748   -730.13444    613.52115    81.437121 
   14500    97.384881   -101.31878  0.088115887   -101.23067   -638.68102    4.3354418    4.3354418    4.3354418   -638.68102    1002.0489   -3617.2125    699.12053    1086.0844   -49.527236   -1377.5492    81.489207 
   14600    77.132684   -101.30017  0.069791273   -101.23038    1432.1146    4.3342675    4.3342675    4.3342675    1432.1146     566.4349     -145.872    3875.7808   -2.6528721   -61.624661    535.84375    81.423007 
   14700    119.74701   -101.33869   0.10834961   -101.23034   -711.11613    4.3354596    4.3354596    4.3354596   -711.11613    1161.1344   -2914.7332   -379.74955    405.46926   -117.20907   -650.13004    81.490206 
   14800    96.484059   -101.31799  0.087300805   -101.23069    647.88226    4.3346041    4.3346041    4.3346041    647.88226   -58.032376   -2749.0725    4750.7517    860.67791    517.00773    -252.2799    81.441977 
   14900    106.05348   -101.32611  0.095959419   -101.23015   -615.85067    4.3350075    4.3350075    4.3350075   -615.85067    1753.7564     -517.938   -3083.3704     -55.3964   -25.420832    895.38607    81.464718 
   15000    70.784696   -101.29488   0.06404748   -101.23083   -533.63076    4.3352052    4.3352052    4.3352052   -533.63076    175.47712   -4696.1857    2919.8163    833.29954    168.55884   -631.25018    81.475864 
   15100    138.71857   -101.35575   0.12551547   -101.23023    347.01997    4.3344663    4.3344663    4.3344663    347.01997    130.74378   -2232.7966    3143.1128    105.24473    794.02174    836.73972    81.434209 
   15200    82.233811   -101.30504   0.07440688   -101.23063   -789.15914    4.3354235    4.3354235    4.3354235   -789.15914     1183.912   -2813.9007   -737.48878    302.49854   -110.86327   -261.78029    81.488175 
   15300    84.381218    -101.3069  0.076349899   -101.23055    412.29148    4.3344357    4.3344357    4.3344357    412.29148     85.80769   -2127.8005    3278.8672    638.56399    1043.1876   -70.222341    81.432486 
   15400    135.68055   -101.35306   0.12276662   -101.23029    277.35877    4.3351681    4.3351681    4.3351681    277.35877    1635.0108   -2244.9453    1442.0108    20.004019   -413.58848    418.69659    81.473774 
   15500     70.64894   -101.29484  0.063924646   -101.23092    508.52403    4.3347862    4.3347862    4.3347862    508.52403     -578.079   -2269.5808    4373.2319     922.8471    539.53174   -290.79078    81.452243 
   15600    108.48058   -101.32832  0.098155509   -101.23017    51.269302    4.3346837    4.3346837    4.3346837    51.269302    2275.3779   -496.59741   -1624.9726   -177.16697   -451.50601     67.78258    81.446463 
   15700    87.955953   -101.31036  0.079584395   -101.23078   -225.77925     4.335375     4.335375     4.335375   -225.77925   -862.38816   -4096.6607    4281.7111    821.29076     409.5997   -438.13328    81.485437 
   15800    131.54601   -101.34928   0.11902559   -101.23026   -559.60059    4.3345313    4.3345313    4.3345313   -559.60059    419.02609    -2002.943   -94.884901    71.006687    -151.2554   -326.77313    81.437875 
   15900    76.116289   -101.29931  0.068871618   -101.23044   -300.16526    4.3354273    4.3354273    4.3354273   -300.16526    1309.6126   -2029.8129   -180.29544     401.6561   -331.44309   -509.24497    81.488386 
   16000    90.413721   -101.31254  0.081808234   -101.23073   -517.82205    4.3346699    4.3346699    4.3346699   -517.82205   -867.11907   -4039.8231     3353.476    984.44227    367.30095     187.3926    81.445685 
   16100    136.67349   -101.35382   0.12366505   -101.23016    762.60413    4.3349615    4.3349615    4.3349615    762.60413    1612.2989   -2106.4148    2781.9283   -367.30007   -1217.7807   -182.90416    81.462124 
   16200    57.146504   -101.28258  0.051707357   -101.23087   -449.23955    4.3351566    4.3351566    4.3351566   -449.23955   -1217.2282   -2624.3068    2493.8163    1531.4681    1027.4153   -26.179427    81.473124 
   16300    122.19329   -101.34078   0.11056306   -101.23022   -45.287563    4.3346366    4.3346366    4.3346366   -45.287563    1644.3405   -2417.2298    637.02662   -565.83654   -639.33564    529.92409    81.443811 
   16400     102.5771   -101.32352  0.092813916   -101.23071    574.80873    4.3353053    4.3353053    4.3353053    574.80873   -1018.7183   -2428.7743    5171.9188    880.82655    461.04403   -652.57443    81.481507 
   16500    104.15142    -101.3248  0.094238393   -101.23056   -813.16794     4.334549     4.334549     4.334549   -813.16794    222.54365   -2264.0683   -397.97914    497.39431    757.58984    1217.1289    81.438875 
   16600     79.67836   -101.30248  0.072094655   -101.23038    1283.8519     4.335029     4.335029     4.335029    1283.8519    1639.1336   -417.37203    2629.7942   -209.79939   -1120.3778   -1.6225239    81.465928 
   16700    105.28068   -101.32613  0.095260169   -101.23087   -1290.2554    4.3349571    4.3349571    4.3349571   -1290.2554   -1937.9248   -4821.8942    2889.0529    1310.1253    1830.0094    382.57052    81.461875 
   16800    121.91534   -101.34055   0.11031156   -101.23023    1242.7805    4.3345552    4.3345552    4.3345552    1242.7805    1924.6272   -365.13214    2168.8464    -496.5599    -1170.037    864.43894    81.439222 
   16900    68.686375   -101.29291  0.062148876   -101.23076   -1370.5827    4.3355114    4.3355114    4.3355114   -1370.5827   -1792.1522   -3726.0513    1406.4555    666.47106    1504.1177   -1017.9786    81.493128 
   17000    115.39857   -101.33501   0.10441505   -101.23059    526.56711     4.334341     4.334341     4.334341    526.56711     737.2723   -3475.1512    4317.5802    250.28661   -195.99031    789.83257    81.427147 
   17100    115.37156   -101.33485   0.10439061   -101.23046    689.36404     4.335357     4.335357     4.335357    689.36404    -1041.777   -2000.6691    5110.5382   -129.22428   -129.69453   -535.94921    81.484424 
   17200    70.316916    -101.2944  0.063624223   -101.23078   -840.61811    4.3346658    4.3346658    4.3346658   -840.61811   -207.83983   -3081.8046    767.79012    915.96712    659.15804   -323.84734    81.445456 
   17300    109.48333   -101.32919  0.099062822   -101.23013    1520.8592    4.3349188    4.3349188    4.3349188    1520.8592    1006.1761   -745.51022    4301.9117   -155.36779   -1053.4375    295.26796    81.459718 
   17400     111.0437   -101.33126   0.10047467   -101.23078   -1452.7888    4.3352526    4.3352526    4.3352526   -1452.7888   -2468.3603    -3941.014    2051.0078    773.93686    1167.2168   -997.32615    81.478536 
   17500    95.287579   -101.31658  0.086218204   -101.23036    1324.2269    4.3344465    4.3344465    4.3344465    1324.2269    1353.7115    90.174735    2528.7945      45.4769   -1178.5225   -85.141669    81.433096 
   17600    89.836876   -101.31181  0.081286293   -101.23052   -1022.7123    4.3354863    4.3354863    4.3354863   -1022.7123    -1722.545   -3342.2979    1996.7059    459.43948    763.42307    7.3719353    81.491717 
   17700    104.07547   -101.32502  0.094169677   -101.23085    652.24949    4.3343976    4.3343976    4.3343976    652.24949   -437.59771   -3417.9159     5812.262     432.0152   -910.51894   -342.04453    81.430341 
   17800    123.11433   -101.34164   0.11139643   -101.23024    493.63117    4.3352262    4.3352262    4.3352262    493.63117   -305.82803   -971.11601    2757.8375    143.00364   -54.053455    835.52917    81.477047 
   17900    56.886556   -101.28244  0.051472152   -101.23097   -937.88014    4.3349162    4.3349162    4.3349162   -937.88014   -1057.4214   -4269.3753    2513.1562    1124.7541    323.54626    156.91772    81.459572 
   18000    130.01735   -101.34791   0.11764243   -101.23027    1555.0285    4.3345962    4.3345962    4.3345962    1555.0285    257.14716   -1604.7893    6012.7277   -510.40572   -650.22196     149.0247    81.441532 
   18100    105.63675   -101.32637  0.095582353   -101.23079   -1058.0168    4.3353723    4.3353723    4.3353723   -1058.0168    -2491.215   -3393.8611    2711.0257    1258.7238    1074.4079    873.74292    81.485287 
   18200    70.260187   -101.29429  0.063572894   -101.23071    844.99128    4.3343589    4.3343589    4.3343589    844.99128    444.32174   -1185.9359     3276.588   -471.73062   -956.53531    63.144394    81.428156 
   18300    124.04538    -101.3425   0.11223887   -101.23027   -442.29907    4.3354828    4.3354828    4.3354828   -442.29907   -1235.6148   -2763.1733    2671.8909    401.77351    421.60322    626.37891    81.491515 
   18400    92.334377   -101.31453  0.083546084   -101.23098    230.81799    4.3345216    4.3345216    4.3345216    230.81799   -1303.8206   -2447.8393    4444.1139    671.70732    63.691056    434.57393    81.437327 
   18500     112.4711   -101.33183   0.10176622   -101.23006    795.02207    4.3350757    4.3350757    4.3350757    795.02207    502.45324     85.63748    1796.9755   -557.64117    -343.6219   -430.55144    81.468563 
   18600    66.918164   -101.29141  0.060548961   -101.23086   -614.49699    4.3350048    4.3350048    4.3350048   -614.49699   -1995.0397   -4363.3535    4514.9022    1049.0109    865.45976    -162.6463    81.464568 
   18700    128.46496   -101.34663   0.11623779   -101.23039    1334.2941    4.3345918    4.3345918    4.3345918    1334.2941   -687.42804   -1476.3228     6166.633   -427.99832   -777.74675   -350.60628    81.441283 
   18800    107.34346    -101.3276  0.097126615   -101.23048   -993.26297    4.3354249    4.3354249    4.3354249   -993.26297   -1863.9208   -3196.5979    2080.7298    103.40003    294.64404   -980.49219    81.488249 
   18900     57.10236   -101.28262  0.051667416   -101.23095    95.099871    4.3345425    4.3345425    4.3345425    95.099871   -566.63123   -3040.2936    3892.2245    526.74975   -651.74048    58.344086    81.438504 
   19000    153.28437   -101.36874   0.13869492   -101.23004   -197.16999    4.3353289    4.3353289    4.3353289   -197.16999   -963.62586   -2900.2934    3272.4093   -200.87219    163.79843   -801.94196    81.482839 
   19100    68.189067   -101.29274  0.061698901   -101.23104   -17.630257     4.334772     4.334772     4.334772   -17.630257   -1777.8567   -1926.0163    3650.9822    644.28242   -404.95784   -777.99123    81.451442 
   19200    104.57565   -101.32479  0.094622245   -101.23017     94.38441    4.3349486    4.3349486    4.3349486     94.38441    141.39495   -1187.5663    1329.3246     392.9076    407.03267    220.05533    81.461396 
   19300    93.590787   -101.31539  0.084682911    -101.2307   -178.61229    4.3352074    4.3352074    4.3352074   -178.61229   -2523.9892   -2743.3419    4731.4942   -106.55857   -745.40755   -804.26619    81.475986 
   19400    117.56307   -101.33707   0.10637354    -101.2307    259.85641    4.3346175    4.3346175    4.3346175    259.85641   -1244.7488   -1363.6312    3387.9492    681.95933     111.0477    514.37111    81.442731 
   19500    102.74555   -101.32321  0.092966337   -101.23024   -165.90495    4.3353806    4.3353806    4.3353806   -165.90495   -723.68595   -1686.5218    1912.4929   -85.194196   -100.13121     720.7564    81.485753 
   19600    59.548252   -101.28497   0.05388051   -101.23109   -9.1596058     4.334591     4.334591     4.334591   -9.1596058   -1486.0413   -3813.1247    5271.6872    529.50689   -225.92388   -598.49686    81.441237 
   19700    157.83136   -101.37286   0.14280913   -101.23005    49.293471    4.3352048    4.3352048    4.3352048    49.293471   -1009.1415   -2057.4708    3214.4927    278.65177    752.64737    1401.1596    81.475843 
   19800     57.39236   -101.28286  0.051929813   -101.23093   -534.42167    4.3349912    4.3349912    4.3349912   -534.42167   -1987.7171   -2398.6961    2783.1482    274.47294   -835.61742    -456.1374    81.463799 
   19900    104.60206   -101.32505  0.094646138   -101.23041    -1170.177    4.3350342    4.3350342    4.3350342    -1170.177   -983.86109   -3630.9322    1104.2621   -71.773253    544.67135    212.05114    81.466225 
   20000    122.68795   -101.34146   0.11101064   -101.23045    58.780634    4.3351998    4.3351998    4.3351998    58.780634    -2011.681   -1785.9322    3973.9551    81.204316   -760.75328    891.07773    81.475562 
   20100    84.951656   -101.30774  0.076866044   -101.23088   -695.98444    4.3348497    4.3348497    4.3348497   -695.98444   -1424.2658    -2446.448    1782.7605    5.9817642    376.09327   -1353.4992     81.45582 
   20200    102.05337   -101.32245  0.092340032   -101.23011    453.28412    4.3351251    4.3351251    4.3351251    453.28412    233.14563   -892.40217    2019.1089   -210.99804   -206.60398    515.38342    81.471348 
   20300    79.579323   -101.30298  0.072005043   -101.23098   -102.89004     4.334894     4.334894     4.334894   -102.89004   -2425.8447   -3138.0198    5255.1944    611.52735   -146.50915   -1217.3931    81.458319 
   20400     143.6438   -101.36017   0.12997193    -101.2302   -201.72544    4.3350695    4.3350695    4.3350695   -201.72544   -980.17107   -613.81053    988.80529   -428.57668   -32.039807   -815.14571    81.468215 
   20500    63.209823   -101.28787  0.057193576   -101.23068   -370.45915     4.335169     4.335169     4.335169   -370.45915   -1670.1205   -2471.9167    3030.6597    200.51024   -1048.7434    -248.8731    81.473822 
   20600    102.52261   -101.32354  0.092764616   -101.23077   -1451.3725    4.3350158    4.3350158    4.3350158   -1451.3725   -1761.3328   -4499.4104    1906.6256    330.01651    791.50513   -879.33186    81.465188 
   20700    134.15541   -101.35164   0.12138663   -101.23025    269.29178    4.3352478    4.3352478    4.3352478    269.29178   -1114.4477   -1370.8949     3293.218   -545.25216   -976.05496   -619.96908    81.478269 
   20800    57.985356   -101.28348  0.052466369   -101.23101   -1639.0631    4.3349451    4.3349451    4.3349451   -1639.0631   -1349.6743   -3983.4299    415.91487    1174.1178    941.01353   -92.423414    81.461199 
   20900    116.01982   -101.33522   0.10497717   -101.23025   -361.06189    4.3352013    4.3352013    4.3352013   -361.06189   -240.55823   -1890.3168    1047.6893   -166.66139    -179.2205   -695.58154    81.475643 
   21000    102.12535   -101.32326   0.09240516   -101.23086   -228.97356     4.334993     4.334993     4.334993   -228.97356   -2437.5609   -1977.1573    3727.7975    294.65252   -644.70641    152.01921    81.463898 
   21100    111.04294   -101.33098   0.10047398   -101.23051   -885.30245    4.3351226    4.3351226    4.3351226   -885.30245   -928.04683   -1361.4313   -366.42924    928.06427     1419.676     626.5142    81.471206 
   21200    73.264692   -101.29672  0.066291433   -101.23043    864.01204     4.335039     4.335039     4.335039    864.01204   -444.08727   -1248.6683    4284.7917   -1034.3154   -1435.7826   -429.24581    81.466493 
   21300    111.56897   -101.33183   0.10094995   -101.23088   -1562.8175     4.335113     4.335113     4.335113   -1562.8175   -2240.9547   -4088.0521    1640.5545    1317.5721    1972.4878    728.55444    81.470663 
   21400    120.08316   -101.33884   0.10865377   -101.23019    905.57385    4.3350301    4.3350301    4.3350301    905.57385    228.40695    583.24886    1905.0657   -710.70943   -1044.7446    -82.82953    81.465991 
   21500    63.722421   -101.28843  0.057657385   -101.23077   -2373.6494    4.3352253    4.3352253    4.3352253   -2373.6494   -1864.5037   -5288.1797    31.735109    351.48521    448.18975   -622.14994    81.476997 
   21600    116.98097   -101.33635   0.10584684    -101.2305   -303.66923    4.3350352    4.3350352    4.3350352   -303.66923   -632.68265   -1698.5313    1420.2063    88.641786   -12.369882    804.42291    81.466278 
   21700    116.60461   -101.33607    0.1055063   -101.23056   -689.12137    4.3352603    4.3352603    4.3352603   -689.12137   -2035.4551   -2580.1098    2548.2008   -663.79215   -680.15596   -997.12949    81.478973 
   21800    73.164718   -101.29689  0.066200974   -101.23069   -1526.5438    4.3350927    4.3350927    4.3350927   -1526.5438   -519.28029   -3064.3269   -996.02414     241.1535    770.97883   -368.58275    81.469523 
   21900    102.19415   -101.32264  0.092467414   -101.23018    830.57329    4.3351599    4.3351599    4.3351599    830.57329    238.07119   -1369.8413      3623.49    -665.0237   -909.06261     42.16642     81.47331 
   22000    119.51891   -101.33892   0.10814322   -101.23078   -1611.9673    4.3351386    4.3351386    4.3351386   -1611.9673   -2238.3697   -2921.8744     324.3421    363.54645    469.88185   -1922.0621    81.472109 
   22100    91.359342   -101.31301  0.082663853   -101.23034    1378.0217    4.3349436    4.3349436    4.3349436    1378.0217    1250.2001    1041.0195    1842.8455   -408.98962   -884.94774     591.5823    81.461114 
   22200     85.35039   -101.30781  0.077226826   -101.23059   -1523.3472    4.3351955    4.3351955    4.3351955   -1523.3472   -2099.7473   -4193.4563     1723.162    531.59644    283.10318   -847.45566    81.475318 
   22300    109.67458      -101.33  0.099235867   -101.23077     423.5233    4.3348734    4.3348734    4.3348734     423.5233    -431.9081   -478.94171    2181.4197    -193.0274    92.384842   -478.48031     81.45716 
   22400     119.4387   -101.33842   0.10807064   -101.23035   -795.21989    4.3352096    4.3352096    4.3352096   -795.21989    -799.1578   -2520.8676    934.36575    240.61956    244.31278    601.77515    81.476113 
   22500    58.270332    -101.2836  0.052724221   -101.23087   -1678.8298    4.3350623    4.3350623    4.3350623   -1678.8298   -291.84127   -3888.1434   -856.50489     684.7831    852.39401   -835.37266     81.46781 
   22600    129.88431   -101.34773   0.11752205   -101.23021    362.39412      4.33509      4.33509      4.33509    362.39412    359.01524    -1817.081    2545.2481   -269.56828    -343.1293    188.96475    81.469372 
   22700    108.71024   -101.32908   0.09836331   -101.23071   -1164.5818    4.3351458    4.3351458    4.3351458   -1164.5818   -1739.7062   -2696.4459    942.40669    1144.7487    955.33704    806.16347    81.472515 
   22800    66.544207   -101.29073  0.060210597   -101.23052    1004.8191    4.3348245    4.3348245    4.3348245    1004.8191    1954.3427   -838.31412    1898.4288    -168.4989    101.89029   -798.52739    81.454403 
   22900    117.81087   -101.33692   0.10659775   -101.23032   -579.17479    4.3352031    4.3352031    4.3352031   -579.17479   -1867.8127    -2602.593    2732.8814    30.019861    553.58942    1029.7796    81.475743 
   23000    102.05693   -101.32308  0.092343255   -101.23074    682.55807    4.3347952    4.3347952    4.3347952    682.55807     703.2925    41.920617    1302.4611    630.71492    757.51442   -471.48124    81.452752 
   23100    108.98963   -101.32871  0.098616108    -101.2301   -349.33122     4.335274     4.335274     4.335274   -349.33122    85.706875   -1733.9988    600.29829   -1030.2238   -196.91521   -691.22092    81.479744 
   23200    66.918095   -101.29134  0.060548898   -101.23079   -592.19723    4.3349941    4.3349941    4.3349941   -592.19723   -305.10156    -3065.335    1593.8449    658.21918    141.25038    405.53737     81.46396 
   23300    133.90816   -101.35149   0.12116292   -101.23033    398.68054    4.3350926    4.3350926    4.3350926    398.68054    132.94563   -940.34645    2003.4425   -616.75031   -115.76461    -1100.887    81.469515 
   23400    97.211299   -101.31849  0.087958826   -101.23053   -911.13856    4.3351046    4.3351046    4.3351046   -911.13856   -1034.1432   -2934.1793    1234.9068   -517.42371   -401.37807   -43.779782    81.470195 
   23500    61.853533   -101.28666  0.055966376    -101.2307    254.65745     4.334864     4.334864     4.334864    254.65745    2053.3919   -2322.1302    1032.7107    187.94181    207.76166   -301.39904    81.456626 
   23600    149.50801   -101.36542   0.13527799   -101.23014    -340.3737    4.3351484    4.3351484    4.3351484    -340.3737   -1509.2496   -2091.0952    2579.2237   -1023.0103    60.931534    -738.7939    81.472659 
   23700    78.514972    -101.3019  0.071041997   -101.23085    1262.9884    4.3346424    4.3346424    4.3346424    1262.9884    2184.2968   -730.44016    2335.1086    218.09432   -787.78565   -366.82395    81.444135 
   23800    98.102025   -101.31898  0.088764774   -101.23022    65.352691    4.3350853    4.3350853    4.3350853    65.352691     298.4607    -2106.627    2004.2244   -102.47766    1188.1455    389.12051    81.469105 
   23900    89.931362   -101.31202  0.081371786   -101.23065    1167.6006    4.3347896    4.3347896    4.3347896    1167.6006    116.57978   -874.88593    4261.1079   -101.55103   -1170.3094   -692.91336    81.452434 
   24000    126.27545   -101.34467   0.11425668   -101.23041    385.50137    4.3349482    4.3349482    4.3349482    385.50137    819.38634    -437.7828    774.90056    547.77939    1741.6529    1011.4184    81.461375 
   24100    88.782837   -101.31065  0.080332577   -101.23031   -110.83244    4.3350637    4.3350637    4.3350637   -110.83244   -489.28447   -1689.7129    1846.5001    64.515912    85.069292   -40.995125    81.467889 
   24200    75.807393   -101.29926  0.068592122   -101.23067     470.0188    4.3347283    4.3347283    4.3347283     470.0188    2229.8638   -2271.2378    1451.4304    312.27969    529.05065   -433.72955    81.448981 
   24300    150.78951   -101.36658   0.13643752   -101.23014    114.07146    4.3351067    4.3351067    4.3351067    114.07146   -1664.0432   -1444.8192    3451.0768    471.83951    1399.5273     1140.076    81.470311 
   24400    58.843365   -101.28396  0.053242714   -101.23072    1283.5219    4.3346507    4.3346507    4.3346507    1283.5219    3307.6509    -2241.365    2784.2798    226.43304   -655.49012   -1061.6145    81.444603 
   24500     102.2049   -101.32276  0.092477139   -101.23029   -372.85015     4.335149     4.335149     4.335149   -372.85015   -434.96254   -3188.0583    2504.4704    344.76825    1839.5971    435.91463    81.472694 
   24600    116.75759   -101.33608   0.10564472   -101.23044    1734.6154     4.334798     4.334798     4.334798    1734.6154    922.56875    -100.8155    4382.0929     99.81064   -575.73614    161.88571    81.452906 
   24700    105.13649   -101.32561  0.095129702   -101.23048    148.44984    4.3349365    4.3349365    4.3349365    148.44984    1513.4551   -1924.9798    856.87428     57.36243    1106.5033   -1560.7825    81.460713 
   24800    79.703795   -101.30248  0.072117669   -101.23037    1202.3846    4.3348776    4.3348776    4.3348776    1202.3846    -35.83905   -640.62304     4283.616   -590.61489   -408.12448     612.5139    81.457393 
   24900    100.92684   -101.32202  0.091320728    -101.2307    1086.2168    4.3346794    4.3346794    4.3346794    1086.2168    2247.0938   -1553.3885     2564.945    146.42642   -306.17889   -1462.0455    81.446221 
   25000     128.3696   -101.34651   0.11615151   -101.23036     618.6066    4.3348897    4.3348897    4.3348897     618.6066    -1441.008   -191.67823     3488.506   -900.88382    233.36643   -350.02858    81.458077 
   25100    62.598086   -101.28721  0.056640064   -101.23057    977.66686    4.3348083    4.3348083    4.3348083    977.66686     3559.302    -2579.607    1953.3055   -198.87147   -1099.0721    296.71415     81.45349 
   25200    116.52832    -101.3359   0.10543727   -101.23046   -458.92207    4.3350255    4.3350255    4.3350255   -458.92207   -1723.1937   -2335.4971    2681.9246   -77.561703    1435.7973   -1078.9307    81.465732 
   25300    118.35466   -101.33749   0.10708978    -101.2304    2062.1819    4.3347563    4.3347563    4.3347563    2062.1819     1836.319   -666.39701    5016.6237   -1235.9065   -1420.7226    629.86957    81.450557 
   25400    81.272226   -101.30406  0.073536818   -101.23053    65.402434    4.3348537    4.3348537    4.3348537    65.402434    1487.8149   -3538.0199    2246.4123    840.78428    1383.0023   -230.10947    81.456051 
   25500    85.996948   -101.30822  0.077811846   -101.23041    1669.8153    4.3347747    4.3347747    4.3347747    1669.8153    110.51823   -1098.6579    5997.5855   -1111.7466    -235.7817    75.081184    81.451596 
   25600    125.51689   -101.34404   0.11357032   -101.23047     1091.431    4.3347485    4.3347485    4.3347485     1091.431    2504.3133    -1318.353    2088.3326     470.0168    77.249405     672.7332    81.450117 
   25700    101.44723   -101.32216  0.091791583   -101.23036    325.86691    4.3349388    4.3349388    4.3349388    325.86691   -1190.6552   -1172.5407    3340.7966      437.436    2225.2293    249.65842    81.460843 
   25800    72.898085   -101.29634  0.065959719   -101.23038    1250.5069    4.3348336    4.3348336    4.3348336    1250.5069    2958.7222   -1408.4607    2201.2592   -523.27898   -890.12745   -30.921796    81.454917 
   25900    128.51604   -101.34676   0.11628401   -101.23047   -37.381769    4.3349286    4.3349286    4.3349286   -37.381769   -2541.9808   -1416.1186    3845.9541    1283.7813    2491.9866    382.68846    81.460267 
   26000    94.866513    -101.3163  0.085837215   -101.23046    2087.0713    4.3347828    4.3347828    4.3347828    2087.0713    2351.9066    -452.3703    4361.6775   -632.17262   -447.51852   -604.24705    81.452051 
   26100     84.27975   -101.30667  0.076258089   -101.23041   -527.36948     4.335017     4.335017     4.335017   -527.36948    305.09652   -3938.6618    2051.4568    579.65801    616.64106   -464.53697    81.465254 
   26200    100.66275   -101.32162  0.091081776   -101.23054    1478.2093     4.334721     4.334721     4.334721    1478.2093   -70.930311    -820.2083    5325.7665    122.83137     1017.621   -26.177689    81.448565 
   26300    133.46581    -101.3511   0.12076267   -101.23034    317.52838    4.3350026    4.3350026    4.3350026    317.52838    1957.0182   -2500.4472    1496.0141   -298.89528    -485.9308   -1306.0719    81.464444 
   26400    68.751187   -101.29273  0.062207519   -101.23052    533.07198    4.3347573    4.3347573    4.3347573    533.07198   -966.95786   -2643.9162      5210.09    258.30271    823.53923   -216.21286    81.450611 
   26500    95.920888   -101.31723  0.086791235   -101.23044    912.35966    4.3349588    4.3349588    4.3349588    912.35966    2005.3641   -1239.4945    1971.2093   -584.20409   -262.93379   -856.53822     81.46197 
   26600    129.62634   -101.34774   0.11728863   -101.23045     347.4648    4.3348891    4.3348891    4.3348891     347.4648   -2054.0263   -1354.0489    4450.4696   -174.19586    -504.4076   -1151.6377    81.458045 
   26700    76.170367   -101.29945  0.068920548   -101.23053    965.13728    4.3348853    4.3348853    4.3348853    965.13728    2338.6159   -894.54113    1451.3371   -715.45506    478.36621     399.4416    81.457828 
   26800    101.25122   -101.32189  0.091614234   -101.23028   -639.43282    4.3351342    4.3351342    4.3351342   -639.43282    -1356.991   -2468.0795    1906.7721   -150.40141   -133.12423   -751.63966    81.471862 
   26900    106.81388   -101.32719  0.096647445   -101.23055    1481.0834    4.3346534    4.3346534    4.3346534    1481.0834   -408.44626    -307.5517    5159.2482   -575.27562    464.55733    197.14103    81.444756 
   27000    117.53976   -101.33657   0.10635245   -101.23022   -360.14721    4.3352096    4.3352096    4.3352096   -360.14721    641.75968   -2722.7462    1000.5449   -248.77927    818.14293    752.63445    81.476114 
   27100    58.564524   -101.28351  0.052990412   -101.23052    880.30982    4.3347039    4.3347039    4.3347039    880.30982    -1067.185   -2853.2344    6561.3489    164.73108    52.105224   -754.16383    81.447606 
   27200    125.58942   -101.34406   0.11363595   -101.23043   -308.35922     4.335139     4.335139     4.335139   -308.35922    1059.8416   -1635.8428   -349.07648   -864.59581    1216.5282    1211.5596    81.472134 
   27300    115.12986   -101.33458   0.10417192   -101.23041    322.78411    4.3350475    4.3350475    4.3350475    322.78411   -1373.3279   -2543.9633    4885.6436    769.01219    526.84611   -104.02529    81.466973 
   27400    65.840438   -101.29012  0.059573811   -101.23055    -345.3189    4.3348947    4.3348947    4.3348947    -345.3189    1707.7912   -2567.6956   -176.05236   -612.41878    1492.6534   -88.114565    81.458358 
   27500    115.95795   -101.33525   0.10492119   -101.23033   -360.26171    4.3352891    4.3352891    4.3352891   -360.26171   -2845.5999   -1413.9065    3178.7213    272.14148    656.13672    954.25969    81.480598 
   27600    107.90074   -101.32818  0.097630853   -101.23055    819.37656    4.3346543    4.3346543    4.3346543    819.37656    182.52335   -1420.3887     3695.995    606.02374    1071.5723   -1353.7044    81.444807 
   27700    94.664119     -101.316  0.085654084   -101.23035   -1143.5897     4.335385     4.335385     4.335385   -1143.5897   -997.54105   -1768.2384   -664.98958   -863.36715    498.91725    300.77847       81.486 
   27800    80.675254   -101.30348  0.072996666   -101.23048    762.30064    4.3348176    4.3348176    4.3348176    762.30064   -1137.0296   -2085.5798    5509.5113    993.82837   -43.138551   -891.39016    81.454015 
   27900    132.77518   -101.35061   0.12013777   -101.23047   -899.48328     4.335195     4.335195     4.335195   -899.48328   -114.02021   -984.06477   -1600.3649   -891.25824    1701.1683   -901.24259     81.47529 
   28000    88.470364   -101.31042  0.080049845   -101.23037     461.7176    4.3351722    4.3351722    4.3351722     461.7176      -1449.2   -3342.5586    6176.9114    56.261066    -1218.278   -83.685039    81.474003 
   28100    75.347985    -101.2987   0.06817644   -101.23052   -1083.2823    4.3349031    4.3349031    4.3349031   -1083.2823    564.12754   -2978.6071   -835.36742    94.492976    2099.5528   -966.57561    81.458831 
   28200    127.93762   -101.34618   0.11576065   -101.23042   -520.92603    4.3354403    4.3354403    4.3354403   -520.92603   -3254.7614   -1767.7781    3459.7614   -788.75855   -958.13982   -498.49743    81.489118 
   28300     103.4335   -101.32405  0.093588801   -101.23046   -364.69032    4.3348176    4.3348176    4.3348176   -364.69032    1344.0976   -3306.4992    868.33065    316.75981    275.81802   -147.10621    81.454011 
   28400    77.702934   -101.30082  0.070307248   -101.23051   -1759.7432    4.3353588    4.3353588    4.3353588   -1759.7432   -2290.9998   -1909.2659   -1078.9639   -761.84822    1999.0967   -383.15795    81.484526 
   28500    105.82507   -101.32613  0.095752751   -101.23037    797.87504    4.3350105    4.3350105    4.3350105    797.87504   -863.10638   -1545.3121    4802.0436   -235.16876   -1571.6719     121.5449    81.464885 
   28600     121.4353   -101.34038   0.10987721    -101.2305   -1316.3822     4.335027     4.335027     4.335027   -1316.3822   -1215.6302   -1309.0396   -1424.4769   -154.51622    3731.5101    571.89711    81.465818 
   28700    66.978144   -101.29099  0.060603232   -101.23038    403.44504    4.3353342    4.3353342    4.3353342    403.44504   -2018.2923   -2281.6167    5510.2442   -465.46005   -1304.8803    -127.2854    81.483141 
   28800     112.2352   -101.33194   0.10155277   -101.23038   -1587.6073    4.3349025    4.3349025    4.3349025   -1587.6073   -635.37783   -2271.1851    -1856.259    225.29401    2051.3695    336.68963    81.458801 
   28900    114.37923    -101.3341   0.10349273   -101.23061   -178.04862    4.3354432    4.3354432    4.3354432   -178.04862   -2669.1765   -1361.7121    3496.7427     -538.104    1176.8388     404.1095    81.489286 
   29000    95.254443   -101.31652  0.086188222   -101.23033   -1055.9291    4.3349743    4.3349743    4.3349743   -1055.9291     1375.222   -4518.8508   -24.158458    200.51261    66.545497   -757.28054    81.462849 
   29100    71.019893   -101.29492  0.064260291   -101.23066   -1281.2864    4.3352335    4.3352335    4.3352335   -1281.2864   -2924.0633   -1715.5473    795.75147   -584.26188    2781.9736    927.13768     81.47746 
   29200     131.5271   -101.34931   0.11900848    -101.2303   -260.91716    4.3353737    4.3353737    4.3353737   -260.91716    -650.2389   -2764.8824    2632.3698    26.031044    -720.5977   -740.87369    81.485365 
   29300    100.83062   -101.32171   0.09123366   -101.23047   -1848.1766    4.3349436    4.3349436    4.3349436   -1848.1766    -1495.833   -2558.8418    -1489.855   -41.212573    1934.0495   -565.00433    81.461118 
   29400    66.484403   -101.29069  0.060156485   -101.23053   -515.37931    4.3356063    4.3356063    4.3356063   -515.37931   -2474.4612   -1849.0422    2777.3654   -603.34018   -328.31896    563.95468    81.498481 
   29500    140.10296   -101.35701    0.1267681   -101.23025   -1141.7166    4.3349238    4.3349238    4.3349238   -1141.7166   -802.30207    -1935.745   -687.10264    669.19017    1089.3912    -2067.427    81.459998 
   29600    82.275396   -101.30517  0.074444507   -101.23073    294.31386    4.3352394    4.3352394    4.3352394    294.31386   -2203.6977   -836.64161    3923.2809   -1254.4675    758.09108    1149.9728    81.477794 
   29700     95.21891   -101.31632  0.086156071   -101.23016   -1212.4977      4.33526      4.33526      4.33526   -1212.4977   -14.293576   -3827.3429     204.1433    639.99507    200.58183   -1001.9889    81.478956 
   29800    89.217107   -101.31137  0.080725513   -101.23064   -417.10548    4.3348709    4.3348709    4.3348709   -417.10548   -2892.1299    -238.3391    1879.1525   -784.06925    1551.6602   -139.26442    81.457015 
   29900    137.11784   -101.35434    0.1240671   -101.23027   -1405.6031    4.3356654    4.3356654    4.3356654   -1405.6031   -397.44813   -3783.9508   -35.410353   -84.322393   -800.52234    691.82564    81.501817 
   30000    74.845787   -101.29818  0.067722041   -101.23046   -1021.4381     4.334671     4.334671     4.334671   -1021.4381   -1018.4376    -2722.304    676.42729    327.46421    2249.9652   -928.74801    81.445751 
   30100    84.432891   -101.30706  0.076396654   -101.23067   -1285.7396    4.3357004    4.3357004    4.3357004   -1285.7396   -2061.2253   -2617.4222    821.42879   -878.53963    39.741419    707.55106    81.503788 
   30200     140.1364   -101.35703   0.12679836   -101.23023   -181.04556    4.3348149    4.3348149    4.3348149   -181.04556   -215.79669   -2345.2635    2017.9235     636.0162    1451.8497    204.82463    81.453863 
   30300    66.589243   -101.29097  0.060251346   -101.23072   -806.03253    4.3351735    4.3351735    4.3351735   -806.03253   -2312.8589   -1938.4094    1833.1706   -892.81949    1699.7669   -218.14264    81.474078 
   30400    103.87049   -101.32418  0.093984201   -101.23019   -1172.5231    4.3355156    4.3355156    4.3355156   -1172.5231   -1465.2928    -2279.174    226.89738    75.067966   -370.87794    638.43896    81.493364 
   30500    114.23105    -101.3339   0.10335866   -101.23054    248.67873    4.3345921    4.3345921    4.3345921    248.67873   -2271.6832   -71.056515    3088.7758   -146.88409    2246.8279   -414.48347    81.441303 
   30600    104.33544   -101.32489  0.094404903   -101.23049   -1299.6444    4.3357853    4.3357853    4.3357853   -1299.6444   -695.73262   -3112.7531   -90.447367    -559.0713    77.163947   -370.57088    81.508578 
   30700    72.525341   -101.29598  0.065622453   -101.23035    263.82262    4.3345773    4.3345773    4.3345773    263.82262   -1142.6188   -1931.9509    3866.0376     249.7627    1188.1923    39.625706    81.440465 
   30800     108.3246   -101.32868  0.098014378   -101.23066   -1469.5702    4.3355812    4.3355812    4.3355812   -1469.5702   -1211.6416   -2113.7809   -1083.2882   -873.12953    1385.8566   -501.05237    81.497064 
   30900    127.51292   -101.34557   0.11537637    -101.2302   -323.28935    4.3351063    4.3351063    4.3351063   -323.28935   -846.94573   -3376.6483     3253.726   -63.499108   -343.82034   -333.06848    81.470286 
   31000    64.348363    -101.2888  0.058223751   -101.23058   -1394.1142    4.3349716    4.3349716    4.3349716   -1394.1142   -1463.8481   -2333.9304   -384.56403   -463.74145    1156.7548    168.07094    81.462695 
   31100    112.00048   -101.33187   0.10134039   -101.23053   -767.69484    4.3356391    4.3356391    4.3356391   -767.69484   -2085.5599   -2468.9407    2251.4161   -493.02598    368.85548   -702.89361     81.50033 
   31200    120.30818   -101.33935   0.10885737   -101.23049    859.14044    4.3342901    4.3342901    4.3342901    859.14044   -571.98918   -1063.4376    4212.8481     238.8009    151.43448   -90.795442    81.424278 
   31300    70.666931   -101.29462  0.063940925   -101.23067   -1314.2233    4.3358315    4.3358315    4.3358315   -1314.2233   -1376.8748   -2984.5762    418.78107   -819.32688    1793.9956    630.01748    81.511179 
   31400    98.864089    -101.3197  0.089454306   -101.23025    908.25835    4.3344911    4.3344911    4.3344911    908.25835   -1588.6197   -534.57392    4847.9687    419.32769   -620.64006   -909.45766    81.435606 
   31500    126.47133   -101.34498   0.11443392   -101.23055   -1366.9778    4.3353734    4.3353734    4.3353734   -1366.9778   -547.90254   -1651.4469   -1901.5839     -720.036    1578.7992    1520.7939    81.485349 
   31600    89.313473   -101.31121  0.080812707    -101.2304    267.00813    4.3352379    4.3352379    4.3352379    267.00813   -2178.0632   -2630.4745    5609.5621    180.19249    -99.40837   -632.71554    81.477709 
   31700    85.286053   -101.30759  0.077168613   -101.23042   -842.01886    4.3346933    4.3346933    4.3346933   -842.01886    122.50472   -1698.6274   -949.93389   -117.24877    1106.8272    84.730455    81.447006 
   31800     110.2103   -101.33049  0.099720591   -101.23077   -92.635328    4.3356406    4.3356406    4.3356406   -92.635328   -2033.1759     -2559.57    4314.8399   -162.96177    1144.5395    749.07028    81.500416 
   31900    117.41664   -101.33648   0.10624104   -101.23024    305.57616    4.3344012    4.3344012    4.3344012    305.57616    714.66779   -2422.5413     2624.602    281.95947    281.20786   -1180.8967     81.43054 
   32000    61.828263   -101.28662  0.055943512   -101.23068   -1458.9434    4.3356617    4.3356617    4.3356617   -1458.9434   -1772.6602   -3121.5996     517.4298   -558.41425    1577.3525    750.50405    81.501605 
   32100    123.91102   -101.34239   0.11211729   -101.23027    1028.4936    4.3347716    4.3347716    4.3347716    1028.4936   -1794.5102   -921.98206     5801.973    121.06405   -603.65294   -467.43601    81.451418 
   32200     120.1427   -101.33922   0.10870764   -101.23052   -744.52936    4.3350123    4.3350123    4.3350123   -744.52936    50.359972   -2426.1976    142.24952   -501.49398    1650.8231   -1037.0134    81.464991 
   32300    54.455382   -101.27992  0.049272374   -101.23065    702.08511    4.3353767    4.3353767    4.3353767    702.08511   -3384.0465   -1529.2888    7019.5907   -277.39815    21.030062    577.04261    81.485533 
   32400    129.02591   -101.34698   0.11674535   -101.23023   -401.58961    4.3344402    4.3344402    4.3344402   -401.58961    1445.2645   -1089.0803    -1560.953    -74.39661    681.12522   -1427.0084     81.43274 
   32500    93.518559   -101.31545  0.084617557   -101.23084    437.98466    4.3356771    4.3356771    4.3356771    437.98466   -2167.2483   -1687.1578    5168.3601    -612.7234    1105.9198    278.21336    81.502475 
   32600    111.22428   -101.33073   0.10063807   -101.23009   -421.25363    4.3344935    4.3344935    4.3344935   -421.25363    519.41563   -2723.4304     940.2539   -171.79088   -1160.4783    193.63677    81.435742 
   32700    67.148644   -101.29149  0.060757504   -101.23073    89.516036    4.3352686    4.3352686    4.3352686    89.516036    -926.7364   -1823.5707    3018.8553   -398.61791    1741.5797    -628.6679     81.47944 
   32800      136.623   -101.35406   0.12361936   -101.23044    286.43512    4.3350257    4.3350257    4.3350257    286.43512   -1969.8522   -2489.3437    5318.5013   -786.99129   -847.94078    950.26096    81.465744 
   32900    97.698469   -101.31885  0.088399628   -101.23045    179.64855    4.3347106    4.3347106    4.3347106    179.64855    1504.2904   -2677.6842    1712.3395    456.35934    1108.2096   -351.59948    81.447979 
   33000     56.50032   -101.28194  0.051122677   -101.23082   -17.932734     4.335551     4.335551     4.335551   -17.932734   -3844.9233   -1802.7191    5593.8442   -1079.3173    793.17626    527.68781    81.495362 
   33100    156.93567    -101.3721   0.14199869   -101.23011    247.27243    4.3343749    4.3343749    4.3343749    247.27243    2480.9724   -1348.5358   -390.61927    694.40012   -645.62505    417.49071    81.429059 
   33200    68.054012   -101.29248    0.0615767    -101.2309     827.0514    4.3354333    4.3354333    4.3354333     827.0514   -2905.0534   -1615.0584    7001.2659   -618.93897    1645.6692    341.78064    81.488728 
   33300    103.68604   -101.32406  0.093817308   -101.23024   -763.22479    4.3347527    4.3347527    4.3347527   -763.22479   -380.52265    -2093.657    184.50533   -177.70119   -838.22003   -176.62332    81.450352 
   33400    95.818711   -101.31725  0.086698783   -101.23055    1349.2452    4.3348869    4.3348869    4.3348869    1349.2452    165.95643   -547.00859    4428.7878    344.86194    1747.6464    271.79017    81.457921 
   33500    123.44131   -101.34222   0.11169229   -101.23052   -873.91901    4.3354062    4.3354062    4.3354062   -873.91901   -2508.0288   -2870.4732     2756.745   -871.82805    34.649284   -667.57356    81.487195 
   33600    83.726391   -101.30606  0.075757398    -101.2303    1138.5029    4.3343995    4.3343995    4.3343995    1138.5029    2999.1573   -1883.7148    2300.0661    847.37527    936.05478   -561.34218    81.430444 
   33700    77.892926   -101.30133  0.070479156   -101.23085    -185.5499    4.3356764    4.3356764    4.3356764    -185.5499   -3506.7008    -2047.196    4997.2472   -815.74205    404.27405    288.62348    81.502434 
   33800    149.98871   -101.36595   0.13571294   -101.23024    871.14012    4.3343271    4.3343271    4.3343271    871.14012    2755.4627   -2500.4295    2358.3871    275.76608    100.03286   -1527.9264    81.426364 
   33900    57.451179   -101.28281  0.051983034   -101.23083    600.87108     4.335331     4.335331     4.335331    600.87108   -3101.8775   -1974.2221    6878.7128   -390.85679    1066.5674    501.77803    81.482957 
   34000    108.81665   -101.32908  0.098459588   -101.23062   -1272.6543    4.3349472    4.3349472    4.3349472   -1272.6543   -737.69455   -2344.0301   -736.23816    -603.8394   -67.236268   -861.33212     81.46132 
   34100    120.13344   -101.33916   0.10869926   -101.23046     1861.985    4.3347772    4.3347772    4.3347772     1861.985    1038.9454   -523.47873    5070.4883     166.3623    1076.3057   -715.37559    81.451736 
   34200    90.341024   -101.31245  0.081742457   -101.23071   -1507.9368    4.3354749    4.3354749    4.3354749   -1507.9368      -3201.9   -2784.2603    1462.3499   -952.66917   -13.665006    1186.1955     81.49107 
   34300    82.197029   -101.30465    0.0743736   -101.23027    2067.5588    4.3343178    4.3343178    4.3343178    2067.5588    3378.5881   -739.78615    3563.8746    367.80282   -138.55065   -1136.0458     81.42584 
   34400    110.59218   -101.33078   0.10006613   -101.23071   -396.82352    4.3355633    4.3355633    4.3355633   -396.82352   -3142.7079   -1634.9456    3587.1829   -824.71097    1117.5484    1361.4303    81.496055 
   34500    117.38575   -101.33661    0.1062131    -101.2304    690.34446    4.3345745    4.3345745    4.3345745    690.34446     1982.129   -3025.5712    3114.4756   -311.64285   -556.90478    148.24336     81.44031 
   34600    72.441611   -101.29601  0.065546692   -101.23047     508.1949    4.3351722    4.3351722    4.3351722     508.1949    -1674.618   -1430.4963     4629.699    22.716878     1349.434   -253.42622    81.474006 
   34700    113.25714   -101.33324   0.10247744   -101.23077    -1014.074    4.3351154    4.3351154    4.3351154    -1014.074   -380.00199   -3381.1249    718.90494   -1223.9957    234.99903    1328.8116    81.470804 
   34800    114.93492   -101.33428   0.10399553   -101.23028    2515.6595    4.3345108    4.3345108    4.3345108    2515.6595    1924.1321   -1005.2124     6628.059    1045.7062   -244.74662   -668.16971    81.436717 
   34900    73.330079   -101.29706  0.066350596   -101.23071   -2105.0208    4.3355911    4.3355911    4.3355911   -2105.0208   -3700.6771   -3536.6447    922.25934   -1374.7345    1453.5288    700.47773    81.497627 
   35000    96.456942   -101.31774  0.087276268   -101.23047    1832.7099    4.3344116    4.3344116    4.3344116    1832.7099    2824.9514   -310.78194    2983.9604    729.93308    -377.1138   -27.406979    81.431129 
   35100    136.69102   -101.35422   0.12368091   -101.23054   -1179.3377    4.3355639    4.3355639    4.3355639   -1179.3377   -3258.1308   -2238.6623      1958.78   -499.84151    1418.7823   -523.23395    81.496089 
   35200    71.029023    -101.2951  0.064268552   -101.23083    508.95008    4.3346463    4.3346463    4.3346463    508.95008    728.89998   -2154.9128     2952.863   -638.03652    999.55479   -204.94819    81.444358 
   35300    104.46584   -101.32478   0.09452289   -101.23026    755.32549     4.335183     4.335183     4.335183    755.32549    101.86535   -1137.1233    3301.2344    714.46296   -135.18629   -361.87926    81.474612 
   35400    103.88408   -101.32489  0.093996501   -101.23089   -98.443774    4.3349852    4.3349852    4.3349852   -98.443774   -383.45545   -2817.2515    2905.3756   -1309.3318    1499.9902   -487.28142    81.463462 
   35500    105.67779   -101.32586  0.095619486   -101.23024    1627.6338    4.3348072    4.3348072    4.3348072    1627.6338    1616.5388    -1822.131    5088.4936     915.1426    2.7535058    -113.7457    81.453428 
   35600    80.780044   -101.30371  0.073091481   -101.23062     -1714.93    4.3354431    4.3354431    4.3354431     -1714.93   -2914.6927   -3078.2902    848.19298   -1009.9527    868.29361    25.276547     81.48928 
   35700    109.92265   -101.33012   0.09946032   -101.23066    866.59438    4.3347651    4.3347651    4.3347651    866.59438     1905.798   -1720.1245    2414.1097     -59.7471    1308.2861   -756.43503    81.451055 
   35800    129.30252   -101.34727   0.11699563   -101.23027   -839.65391    4.3353869    4.3353869    4.3353869   -839.65391   -2704.9483   -3014.7519    3200.7384   -376.53233   -286.45886    837.33775    81.486107 
   35900    45.233228   -101.27183  0.040927975    -101.2309   -36.029096    4.3347931    4.3347931    4.3347931   -36.029096    107.67008   -2255.3407    2039.5833   -742.97661    1202.8509    -272.1403     81.45263 
   36000     137.1193   -101.35413   0.12406842   -101.23006     476.6073    4.3351076    4.3351076    4.3351076     476.6073    949.46161   -1155.3993    1635.7595    113.50752   -278.25267    484.94664    81.470359 
   36100    94.359223   -101.31618  0.085378208    -101.2308   -190.22919    4.3350131    4.3350131    4.3350131   -190.22919   -1448.1827   -2382.6375    3260.1326   -784.12931    962.13966    1028.1494    81.465036 
   36200    92.665005   -101.31417  0.083845244   -101.23033     522.3074    4.3349536    4.3349536    4.3349536     522.3074    994.84206   -1612.5683    2184.6484   -22.847667    181.23939   -420.07389     81.46168 
   36300    102.18232   -101.32289  0.092456713   -101.23044   -44.572368    4.3351707    4.3351707    4.3351707   -44.572368   -1381.5557   -2007.1588    3254.9974   -574.40349    1096.9517    866.10866    81.473918 
   36400    101.80974   -101.32295  0.092119595   -101.23083    532.33158    4.3348153    4.3348153    4.3348153    532.33158    1305.1398   -2534.0161     2825.871   -590.47563   -16.334461    62.530269    81.453881 
   36500    114.89105   -101.33407   0.10395583   -101.23011   -193.26027     4.335363     4.335363     4.335363   -193.26027   -1274.7183   -3327.6676    4022.6051    66.242292    659.42523   -98.292132    81.484761 
   36600     57.35863   -101.28285  0.051899293   -101.23096    -836.0865     4.334834     4.334834     4.334834    -836.0865    260.47233   -2337.2749   -431.45697   -895.74768     1306.215    837.85283    81.454939 
   36700    147.05449   -101.36326   0.13305799    -101.2302   -289.11862    4.3354489    4.3354489    4.3354489   -289.11862    366.35185   -2679.7543    1446.0466    488.91248    -123.6817    -438.0101    81.489603 
   36800    85.065818    -101.3077   0.07696934   -101.23073   -504.77926    4.3348557    4.3348557    4.3348557   -504.77926   -2373.8534   -2480.3736    3339.8893   -723.07262    2635.6747   -179.53737    81.456158 
   36900    77.418997   -101.30075  0.070050335    -101.2307   -354.15061    4.3353422    4.3353422    4.3353422   -354.15061    408.63804   -2153.7439    682.65402   -217.65209   -366.93904    379.07904    81.483591 
   37000    131.04933   -101.34879   0.11857619   -101.23021     535.1182    4.3350604    4.3350604    4.3350604     535.1182   -638.07296    -1793.045    4036.4725   -44.134523    1225.7722   -892.89718    81.467702 
   37100    81.767369   -101.30489  0.073984833    -101.2309   -178.55446    4.3349685    4.3349685    4.3349685   -178.55446    225.51951   -2492.4616    1731.2787   -989.78641    1592.3314    905.35883    81.462521 
   37200    111.14957   -101.33059   0.10057047   -101.23002    134.12494    4.3354107    4.3354107    4.3354107    134.12494   -277.61091   -2909.9539    3589.9397    487.37646   -873.06949   -141.90519    81.487452 
   37300    81.744486   -101.30472  0.073964129   -101.23075   -247.41569    4.3347095    4.3347095    4.3347095   -247.41569    577.73343   -1433.3586     113.3781   -844.90967     2954.437    153.72768    81.447919 
   37400    123.91546   -101.34253   0.11212132   -101.23041   -142.12723    4.3354984    4.3354984    4.3354984   -142.12723   -301.20651   -4059.1165    3933.9413   -47.854295   -884.98143    659.46424    81.492395 
   37500    88.705834   -101.31066  0.080262903    -101.2304   -463.83809    4.3347947    4.3347947    4.3347947   -463.83809   -1657.3438    -2022.313    2288.1426   -373.84129    840.26508   -131.74383    81.452722 
   37600    77.818668   -101.30126  0.070411967   -101.23084   -1157.5369    4.3352885    4.3352885    4.3352885   -1157.5369    921.82405   -3372.0159   -1022.4188   -789.10691    958.04293    861.77331    81.480561 
   37700    146.99115   -101.36303   0.13300068   -101.23003    3.4798001    4.3352207    4.3352207    4.3352207    3.4798001   -1119.7183   -2455.3403     3585.498   -136.93368   -1207.6601      476.621    81.476738 
   37800    63.657297   -101.28851   0.05759846   -101.23092   -654.14735    4.3347793    4.3347793    4.3347793   -654.14735    -216.8635   -2922.5302    1176.9516   -596.97336    2125.0738    607.75748    81.451856 
   37900     106.5362    -101.3267   0.09639619   -101.23031    318.20264    4.3356396    4.3356396    4.3356396    318.20264   -513.15266   -2523.7613    3991.5219   -383.55272   -596.01422    334.74375    81.500357 
   38000    107.15777   -101.32762  0.096958602   -101.23066     344.7613    4.3344706    4.3344706    4.3344706     344.7613    523.99835   -1165.8212    1676.1067    -102.7877    1036.1131    276.10979    81.434451 
   38100    92.662838   -101.31458  0.083843284   -101.23074   -422.11265    4.3357902    4.3357902    4.3357902   -422.11265   -1188.0124   -4189.3299    4111.0044   -868.20146    566.33431    350.75063    81.508851 
   38200    109.73406   -101.32946  0.099289682   -101.23017   -280.64241    4.3347737    4.3347737    4.3347737   -280.64241    25.119334   -1243.5203    376.47369    29.320907     576.3865    61.425371    81.451541 
   38300     78.44267   -101.30198  0.070976576   -101.23101   -1005.8433    4.3354087    4.3354087    4.3354087   -1005.8433    1018.6986   -4037.1725   0.94395255   -847.90122    1039.6674     768.8413    81.487339 
   38400    138.38301   -101.35531   0.12521186    -101.2301   -322.43202    4.3353568    4.3353568    4.3353568   -322.43202   -1928.7107   -3395.3496    4356.7642    7.4949771    1246.2615   -464.21977    81.484415 
   38500     58.82301   -101.28408  0.053224296   -101.23086   -512.93537    4.3346879    4.3346879    4.3346879   -512.93537    688.04368   -3056.2664    829.41658   -399.14656    1092.3692    591.93757    81.446703 
   38600    113.65108   -101.33331   0.10283388   -101.23048   -1068.4956     4.335946     4.335946     4.335946   -1068.4956   -1680.9158   -3441.2243    1916.6533   -434.24899    474.75871   -114.20274     81.51764 
   38700    119.37755   -101.33833   0.10801531   -101.23031    531.18135    4.3343358    4.3343358    4.3343358    531.18135    537.87272   -1694.7941    2750.4655     125.4384    1586.2257   -92.700691    81.426853 
   38800    72.357924   -101.29626   0.06547097   -101.23079   -1120.8523    4.3357945    4.3357945    4.3357945   -1120.8523   -2014.1511   -4124.7637     2776.358   -1136.4664   -355.70162    1286.4654    81.509097 
   38900    119.36797   -101.33806   0.10800665   -101.23005    915.62832    4.3347105    4.3347105    4.3347105    915.62832    1179.4393   -899.52379    2466.9694    454.19337    1244.1195   -664.68285    81.447975 
   39000    80.839346   -101.30409  0.073145139   -101.23094    -117.6364    4.3349987    4.3349987    4.3349987    -117.6364    604.37504   -3519.7656    2562.4814   -1105.4525    626.58814    1615.1203    81.464222 
   39100    123.01922   -101.34158   0.11131038   -101.23027   -813.60069    4.3357135    4.3357135    4.3357135   -813.60069   -2351.9931   -3561.2921    3472.4831    92.030271   -907.37736   -578.88065    81.504525 
   39200    77.142803   -101.30042  0.069800429   -101.23062    30.304836     4.334342     4.334342     4.334342    30.304836    2483.0661   -1741.9196     -650.232   -300.81922    1493.9324    836.51479    81.427208 
   39300     112.9498   -101.33295   0.10219936   -101.23075   -2170.2532     4.336299     4.336299     4.336299   -2170.2532   -3098.3771    -4653.998    1241.6154   -995.48331     -1504.96    609.49457     81.53755 
   39400    111.99731   -101.33158   0.10133752   -101.23024    1249.0617    4.3341854    4.3341854    4.3341854    1249.0617    1190.5837   -2102.9385    4659.5397    293.96975    882.99567    35.218267    81.418378 
   39500    67.177271   -101.29169  0.060783406   -101.23091   -1803.3041    4.3359577    4.3359577    4.3359577   -1803.3041   -2424.7336   -4731.4409    1746.2623   -1303.6226    645.72643    1273.8088    81.518298 
   39600     121.8386   -101.34049   0.11024213   -101.23024    942.58459    4.3348774    4.3348774    4.3348774    942.58459     989.7271   -1834.0524     3672.079    9.5762939   -467.69093   -722.74419    81.457383 
   39700    97.550114   -101.31902  0.088265393   -101.23075   -643.36578    4.3349963    4.3349963    4.3349963   -643.36578   -659.93297    -3997.728    2727.5636   -377.19588    1525.1378    861.36728    81.464087 
   39800    97.806409   -101.31906  0.088497295   -101.23056     -892.216    4.3358953    4.3358953    4.3358953     -892.216    -2720.274   -3042.3353    3085.9612   -867.28238   -20.957298   -348.83478    81.514777 
   39900    103.29942    -101.3238  0.093467483   -101.23033    830.98529    4.3342137    4.3342137    4.3342137    830.98529    3275.9296     -1357.75    574.77631    371.19323      513.687    124.52913    81.419974 
   40000    91.625429   -101.31378  0.082904613   -101.23088   -1480.7767    4.3361601    4.3361601    4.3361601   -1480.7767    -4132.716   -4272.0165    3962.4023   -1330.7718    1692.7896    622.85574    81.529714 
   40100    113.08989   -101.33241   0.10232611   -101.23008    1285.1533    4.3342453    4.3342453    4.3342453    1285.1533    2382.3359   -2150.5258    3623.6498    288.06071    186.02392   -586.95232    81.421753 
   40200    78.729946   -101.30201  0.071236509   -101.23077   -1872.3589    4.3356414    4.3356414    4.3356414   -1872.3589   -1720.1246   -3522.6254   -374.32663   -828.41517     946.0838    740.49668    81.500463 
   40300    117.67355   -101.33687   0.10647351    -101.2304    263.27225    4.3352053    4.3352053    4.3352053    263.27225   -165.88693   -3669.4757    4625.1794   -222.01619    943.44395   -525.69828    81.475867 
   40400    107.71036   -101.32794  0.097458596   -101.23048   -368.34983    4.3346878    4.3346878    4.3346878   -368.34983   -850.95324   -3279.1241    3025.0279   -43.652429   -871.39895    476.47225    81.446696 
   40500    71.569768   -101.29563   0.06475783   -101.23088    -627.0087    4.3359602    4.3359602    4.3359602    -627.0087   -2916.7828   -3807.5392    4843.2959   -996.93005    1178.9717    456.54311    81.518439 
   40600    125.83651   -101.34406   0.11385952    -101.2302    1059.6774    4.3341031    4.3341031    4.3341031    1059.6774    2813.6331   -1462.1665    1827.5657    393.57783   -620.16657    127.22285    81.413742 
   40700    82.250833   -101.30541  0.074422283   -101.23099   -1532.6021    4.3362405    4.3362405    4.3362405   -1532.6021   -5088.7263   -4646.8326    5137.7526   -1488.7352   -54.213746    803.98269    81.534252 
   40800    112.68484   -101.33219   0.10195961   -101.23023     584.0178    4.3345004    4.3345004    4.3345004     584.0178    2902.3451    -1779.902    629.61032    448.76825    41.402251   -416.29997    81.436131 
   40900    93.260167   -101.31506  0.084383759   -101.23067   -1120.7007    4.3355161    4.3355161    4.3355161   -1120.7007   -2092.8484   -2746.1022    1476.8486   -1047.8858   -822.58671      836.588    81.493393 
   41000    99.293272   -101.32057  0.089842639   -101.23073    82.220321    4.3353747    4.3353747    4.3353747    82.220321   -1112.0224   -4312.9811    5671.6645   -325.34436    145.57064   -406.59159    81.485421 
   41100    115.95276   -101.33514   0.10491649   -101.23023    310.81386    4.3346026    4.3346026    4.3346026    310.81386   -119.18728   -1721.3079    2772.9368   -3.5600107    156.26852    754.41463    81.441894 
   41200    65.056067   -101.28982  0.058864097   -101.23096   -935.22238    4.3360258    4.3360258    4.3360258   -935.22238   -2495.5308    -4256.588    3946.4517   -1512.4664    308.97864   -170.19848    81.522142 
   41300    139.06101   -101.35587   0.12582533   -101.23004    716.35484    4.3342537    4.3342537    4.3342537    716.35484    1542.2222   -2072.6041    2679.4463    540.11903    274.34229   -345.80245     81.42223 
   41400    76.669292   -101.30019  0.069371987   -101.23082   -827.09069    4.3358689    4.3358689    4.3358689   -827.09069    -4645.232   -4471.1564    6635.1164   -1424.1918     785.3983     353.4081    81.513292 
   41500    104.42377   -101.32487  0.094484823   -101.23039   -12.278073    4.3347869    4.3347869    4.3347869   -12.278073    1864.3429   -2376.8041    475.62699    23.099995    5.1294646   -1154.6852    81.452283 
   41600    102.83098   -101.32347  0.093043628   -101.23043    217.68311    4.3350666    4.3350666    4.3350666    217.68311   -2617.5595   -2536.6742     5807.283   -209.21658    779.18128     669.3432     81.46805 
   41700    93.730181   -101.31562  0.084809038   -101.23081   -1193.1357    4.3356085    4.3356085    4.3356085   -1193.1357   -1895.9306   -4367.4777    2684.0013   -1069.9495    1267.4904   -325.65313    81.498607 
   41800     118.8842   -101.33766   0.10756892   -101.23009    794.23829    4.3344319    4.3344319    4.3344319    794.23829    1026.9587     -187.687    1543.4432    485.29109   -867.27398   -254.23503    81.432272 
   41900    70.743364   -101.29494  0.064010083   -101.23093   -1213.3583    4.3360761    4.3360761    4.3360761   -1213.3583   -2633.4174   -4278.1714     3271.514   -1409.0045    1811.4252    687.82935    81.524978 
   42000    128.29492   -101.34638   0.11608394   -101.23029    945.32706    4.3344424    4.3344424    4.3344424    945.32706    407.36323   -2102.7496    4531.3676     243.4477   -1638.7081   -825.51884    81.432866 
   42100    80.820972   -101.30383  0.073128514    -101.2307   -64.679962    4.3356536    4.3356536    4.3356536   -64.679962    -3246.174   -3342.2436    6394.3778   -657.66028    419.33231    783.03976    81.501148 
   42200    98.993827    -101.3203  0.089571695   -101.23073   -1230.8439    4.3351428    4.3351428    4.3351428   -1230.8439    4.5266487   -3505.5799   -191.47853   -435.45428    78.633708    437.39259    81.472346 
   42300    115.43166   -101.33472   0.10444499   -101.23027    707.69825    4.3351098    4.3351098    4.3351098    707.69825   -3020.7696   -2472.3789    7616.2433   -12.965342   -1168.7111   -58.527714    81.470488 
   42400    91.579216   -101.31375  0.082862799   -101.23089    -2631.178     4.335787     4.335787     4.335787    -2631.178   -2465.1921   -5062.6388   -365.70303   -1117.1094    945.46586     1149.559    81.508673 
   42500     100.8952   -101.32155  0.091292093   -101.23026    1525.1388    4.3345295    4.3345295    4.3345295    1525.1388     627.8045    59.571231    3888.0407    242.03793   -1365.4228   -459.60603    81.437771 
   42600    92.946737   -101.31488  0.084100161   -101.23078   -1947.7198    4.3358758    4.3358758    4.3358758   -1947.7198   -3619.5814   -5151.7005    2928.1226    -1340.799    445.95308    330.80715    81.513678 
   42700      102.865   -101.32369  0.093074411   -101.23061    881.93543    4.3346415    4.3346415    4.3346415    881.93543   -307.76469   -1224.6853    4178.2563    212.03035   -110.08102    406.67721    81.444088 
   42800    111.48527   -101.33122   0.10087421   -101.23035   -834.61203    4.3356446    4.3356446    4.3356446   -834.61203   -2040.7351   -2703.0236    2239.9227   -786.03724    479.76127    -425.8661    81.500639 
   42900    77.874011   -101.30139  0.070462042   -101.23093   -910.76112    4.3351797    4.3351797    4.3351797   -910.76112   -1221.3806   -3201.2402    1690.3374   -546.99537    492.46693    504.98772    81.474426 
   43000    129.03789   -101.34687    0.1167562   -101.23011    1076.6966    4.3349958    4.3349958    4.3349958    1076.6966   -2415.7356   -1985.4868    7631.3123    76.360906    498.41543   -416.92223    81.464057 
   43100    77.985487   -101.30142  0.070562907   -101.23085    -2068.371    4.3356889    4.3356889    4.3356889    -2068.371   -1831.1697   -4307.8081   -66.135052   -1429.2613    572.44347   -273.24552    81.503137 
   43200    92.447821   -101.31403  0.083648731   -101.23038     949.1412    4.3347822    4.3347822    4.3347822     949.1412   -920.84204   -1091.1817    4859.4474    458.92007    39.122719   -120.37239    81.452018 
   43300    124.62136   -101.34325   0.11276003   -101.23049   -2976.1108    4.3358515    4.3358515    4.3358515   -2976.1108   -4062.8039   -5372.0916    506.56315   -1102.3032    1108.7958    107.45105     81.51231 
   43400    75.722386   -101.29952  0.068515206   -101.23101   -85.705213     4.334976     4.334976     4.334976   -85.705213   -1211.5691   -1724.6608    2679.1143    -140.6222   -37.185622   -23.341758     81.46294 
   43500     131.8225   -101.34939   0.11927577   -101.23012   -1812.8839    4.3357724    4.3357724    4.3357724   -1812.8839   -2015.9763   -3122.1996   -300.47568   -25.759386     120.8362    605.24561    81.507851 
   43600    56.567225   -101.28233  0.051183214   -101.23115   -231.38657    4.3350913    4.3350913    4.3350913   -231.38657   -2487.0252   -3290.3554    5083.2209   -1043.3871    534.51441    169.36848    81.469444 
   43700    140.85359   -101.35752   0.12744729   -101.23007    98.295517    4.3353883    4.3353883    4.3353883    98.295517   -1331.0175   -1639.0335    3264.9375    347.78719   -1328.1622    39.184125    81.486187 
   43800    75.237012   -101.29889   0.06807603   -101.23081    -1321.505    4.3353737    4.3353737    4.3353737    -1321.505   -1209.6017   -2955.2012    200.28782   -1086.1902    906.98599    1140.6072    81.485368 
   43900    92.502358   -101.31435  0.083698078   -101.23065   -105.96019    4.3352454    4.3352454    4.3352454   -105.96019    -2371.667   -2004.7706     4058.557   -13.246571   -542.94102   -129.14315    81.478129 
   44000    139.72836   -101.35671   0.12642916   -101.23029   -2023.7378    4.3356087    4.3356087    4.3356087   -2023.7378   -3014.9085   -4106.3136    1050.0088   -411.53721    43.355249    1059.0795    81.498618 
   44100    50.488363   -101.27682  0.045682932   -101.23114   -442.00322    4.3350567    4.3350567    4.3350567   -442.00322   -1839.9728   -2393.5354    2907.4985   -520.99736    500.35281    600.10319    81.467494 
   44200    141.32786   -101.35781   0.12787641   -101.22993   -2323.7126    4.3357577    4.3357577    4.3357577   -2323.7126   -2367.1585   -3515.0718   -1088.9077   -77.307391    -379.4835   -532.52727    81.507021 
   44300    61.540199    -101.2867  0.055682865   -101.23102   -525.11349    4.3349897    4.3349897    4.3349897   -525.11349   -3083.0166   -3651.0339    5158.7101   -938.58807    265.73397    1177.5167    81.463712 
   44400    139.84413    -101.3567    0.1265339   -101.23016   -1830.0905    4.3358395    4.3358395    4.3358395   -1830.0905   -1012.9179   -2017.9983   -2459.3554   -57.757047    1098.2524    -639.5738    81.511632 
   44500    73.488234   -101.29717  0.066493698   -101.23068   -182.11795    4.3349523    4.3349523    4.3349523   -182.11795   -1652.6061   -2788.0658     3894.318   -887.68512   -209.86985    362.88321    81.461607 
   44600     92.32396   -101.31444  0.083536659    -101.2309   -757.68407    4.3355048    4.3355048    4.3355048   -757.68407   -2950.3309   -2542.0023     3219.281   -115.78397    1427.4294     773.2771    81.492756 
   44700    142.63543   -101.35927   0.12905953   -101.23021   -533.38738    4.3354361    4.3354361    4.3354361   -533.38738   -1285.5056   -2740.8009    2426.1444   -389.75339    34.677778   -1109.9978    81.488885 
   44800    41.943079   -101.26908  0.037950979   -101.23113   -505.87316    4.3350209    4.3350209    4.3350209   -505.87316   -1570.9074   -2070.9626    2124.2505   -704.54906   -51.851521    1217.4958    81.465471 
   44900    149.42787   -101.36528   0.13520547   -101.23008   -2393.8677    4.3360377    4.3360377    4.3360377   -2393.8677   -2669.3399   -3717.3308   -794.93239    109.24571    925.68963   -636.82249    81.522812 
   45000    69.610738   -101.29395  0.062985258   -101.23097     369.8341    4.3346369    4.3346369    4.3346369     369.8341   -1981.7114   -2486.1715    5577.3852   -1167.3868   -325.66187    526.27037    81.443828 
   45100    119.51454   -101.33858   0.10813927   -101.23045   -3192.1081    4.3362122    4.3362122    4.3362122   -3192.1081   -2080.3897   -3539.2517   -3956.6829     128.8801    564.56585    878.84839    81.532654 
   45200    77.906061   -101.30096  0.070491041   -101.23047    733.06264    4.3347015    4.3347015    4.3347015    733.06264   -2475.1665   -2578.4149    7252.7693   -498.24071   -173.81113   -49.868777    81.447467 
   45300    109.17097   -101.32959  0.098780186   -101.23081   -2437.0471    4.3357629    4.3357629    4.3357629   -2437.0471   -3105.7894   -4050.0325   -155.31941   -500.22323    -134.4824     868.7217     81.50731 
   45400    124.83003   -101.34316   0.11294883   -101.23021    452.84421     4.335294     4.335294     4.335294    452.84421    -76.54462    -1746.592    3181.6692    264.14139   -454.59672    253.70513    81.480873 
   45500    53.969927   -101.27981  0.048833124   -101.23098    -552.1793    4.3348607    4.3348607    4.3348607    -552.1793   -1859.7188   -2732.4385    2935.6193   -1082.2232    668.07002    269.87997    81.456445 
   45600    135.16758    -101.3528   0.12230247   -101.23049   -740.65157    4.3359997    4.3359997    4.3359997   -740.65157   -2112.3785   -2785.8256    2676.2494    170.60277   -200.40959    731.15885    81.520666 
   45700    86.853487   -101.30932   0.07858686   -101.23073    1181.0524    4.3342833    4.3342833    4.3342833    1181.0524   -451.03846    -1415.951    5410.1466   -751.62053    473.04299    311.22669    81.423894 
   45800    93.858583    -101.3156  0.084925219   -101.23068   -3199.0285    4.3362835    4.3362835    4.3362835   -3199.0285   -2913.8051   -3642.5633   -3040.7171   -292.37275      735.068    148.07986    81.536678 
   45900    105.21174   -101.32549  0.095197789    -101.2303     1092.678    4.3346779    4.3346779    4.3346779     1092.678   -2150.8085   -1978.3517    7407.1943    -115.7661   -857.25847    230.39411    81.446137 
   46000    111.77077   -101.33195   0.10113254   -101.23082   -2754.1357    4.3355986    4.3355986    4.3355986   -2754.1357   -2237.7146   -4431.2943   -1593.3982   -629.12179    1774.5965   -151.28361    81.498047 
   46100    89.849865   -101.31171  0.081298046   -101.23041    853.90369    4.3354362    4.3354362    4.3354362    853.90369   -798.24639   -2049.4592    5409.4167   -158.80351   -283.85272    25.292697    81.488887 
   46200    84.235489   -101.30697  0.076218041   -101.23075   -690.12357    4.3346035    4.3346035    4.3346035   -690.12357   -2396.3242   -3614.6863    3940.6397   -700.46387    455.02663    345.30095    81.441945 
   46300    121.54298   -101.34068   0.10997464   -101.23071   -438.86798    4.3362784    4.3362784    4.3362784   -438.86798      -1970.9   -3000.6843    3654.9803   -276.34969    1200.2596   -48.523274    81.536391 
   46400    99.873069   -101.32075  0.090367252   -101.23039    966.87656    4.3341549    4.3341549    4.3341549    966.87656    92.763947   -1302.7511    4110.6168   -442.92416   -1705.0088    59.224028    81.416661 
   46500    77.457625   -101.30089  0.070085287    -101.2308   -2082.8381    4.3362446    4.3362446    4.3362446   -2082.8381   -3202.6877   -3873.2797    827.45315    -285.0482    1705.6603    420.76015    81.534482 
   46600    125.57427   -101.34382   0.11362224    -101.2302    1871.5208    4.3346698    4.3346698    4.3346698    1871.5208   -524.67939   -1359.5571    7498.7989   -100.58188   -1038.3896   -438.38324     81.44568 
   46700    95.693648   -101.31731  0.086585623   -101.23073   -1560.0953    4.3352197    4.3352197    4.3352197   -1560.0953   -1038.1989   -3527.6463   -114.44065   -668.31344      391.962    958.57248    81.476682 
   46800    77.578869   -101.30072  0.070194991   -101.23052    108.22998    4.3357746    4.3357746    4.3357746    108.22998   -2113.9285   -2292.5636     4731.182    23.853199    328.62284    88.359161    81.507972 
   46900     122.0379   -101.34081   0.11042246   -101.23039   -243.13153     4.334275     4.334275     4.334275   -243.13153    -1590.104    -2931.406    3792.1155   -686.20214   -866.88862    216.99888    81.423427 
   47000    102.20789    -101.3233  0.092479843   -101.23082   -845.33827    4.3362718    4.3362718    4.3362718   -845.33827   -2378.0561   -3558.9445    3400.9858   -152.35029    403.98244    675.24712    81.536015 
   47100     91.04092   -101.31258  0.082375738    -101.2302    1164.4232    4.3341754    4.3341754    4.3341754    1164.4232    2.5374898   -1755.8257    5246.5579    23.577725   -57.034588   -569.14863    81.417816 
   47200     86.14465    -101.3088   0.07794549   -101.23085   -1002.0032      4.33577      4.33577      4.33577   -1002.0032   -3279.9024   -4533.2783     4807.171   -728.74221    359.08917    675.46252    81.507714 
   47300    129.48189   -101.34746   0.11715794    -101.2303    1297.4904    4.3350376    4.3350376    4.3350376    1297.4904    858.41543   -1604.7851     4638.841    353.42789    542.09799    209.33915    81.466413 
   47400    85.845047   -101.30825  0.077674402   -101.23058   -947.41374    4.3348243    4.3348243    4.3348243   -947.41374   -927.05499    -3337.136    1421.9498   -978.69093    171.42058   -325.69509    81.454392 
   47500    81.363975   -101.30435  0.073619834   -101.23073    -309.3987    4.3361981    4.3361981    4.3361981    -309.3987   -2561.1799   -2249.5187    3882.5025   -21.489172    112.36901    997.92542     81.53186 
   47600    142.62615   -101.35927   0.12905113   -101.23022     697.2374    4.3340144    4.3340144    4.3340144     697.2374    79.564329   -2278.9904    4291.1383   -369.85438    258.06828   -1023.6012    81.408741 
   47700    67.450566   -101.29185   0.06103069   -101.23082   -796.39922     4.336398     4.336398     4.336398   -796.39922   -2651.9208   -3155.6401    3418.3632   -432.31618     536.0087    707.85399    81.543136 
   47800    99.988562   -101.32063  0.090471752   -101.23015    501.55458    4.3344301    4.3344301    4.3344301    501.55458   -42.358369   -2346.3965    3893.4186     27.93641   -67.794093    110.83334    81.432171 
   47900     111.2219   -101.33126   0.10063591   -101.23062   -576.85467     4.335623     4.335623     4.335623   -576.85467    -2876.739   -4143.7051    5289.8802   -576.96062    771.09507   -166.02187    81.499422 
   48000    107.50664   -101.32763   0.09727427   -101.23035    60.541514    4.3354767    4.3354767    4.3354767    60.541514    826.70012   -2883.7265     2238.651   -211.74003   -515.86969    1341.7636    81.491171 
   48100    81.503425   -101.30402  0.073746012   -101.23027   -21.001771    4.3344818    4.3344818    4.3344818   -21.001771    -1903.612   -3153.3894    4993.9961   -482.88975    98.467353   -753.77334    81.435085 
   48200    96.906779   -101.31845   0.08768329   -101.23077   -477.98033    4.3362465    4.3362465    4.3362465   -477.98033    -1906.771   -3370.9087    3843.7387   -257.47907    488.94494    1179.9955    81.534592 
   48300    135.59038   -101.35281   0.12268503   -101.23013    828.54354     4.334051     4.334051     4.334051    828.54354    1294.7299   -1922.0735    3112.9742    -173.8887   -381.83047   -201.17849    81.410803 
   48400    58.130421   -101.28336  0.052597626   -101.23076   -1261.4836    4.3361167    4.3361167    4.3361167   -1261.4836    -2227.721   -3176.9436    1620.2139   -252.46822    822.00928    608.38248    81.527266 
   48500    113.88858   -101.33349   0.10304878   -101.23044    577.42921    4.3347291    4.3347291    4.3347291    577.42921    818.88825   -2185.9999    3099.3993   -34.411335   -222.17499    767.03072    81.449022 
   48600    122.49278   -101.34141   0.11083404   -101.23057    208.00724    4.3350542    4.3350542    4.3350542    208.00724   -1764.1909   -2886.1662    5274.3789   -504.20152   -103.81604   -132.96276    81.467353 
   48700    69.317517   -101.29338  0.062719946   -101.23066   -419.28867    4.3358911    4.3358911    4.3358911   -419.28867    160.84038    -3340.332    1921.6256   -120.06277     791.0946    854.55854    81.514542 
   48800     105.3421   -101.32556  0.095315744   -101.23024    414.41391    4.3342389    4.3342389    4.3342389    414.41391   -2470.9218   -2011.8097    5725.9732   -244.32335   -126.83484   -534.23651    81.421393 
   48900    114.34889   -101.33419   0.10346527   -101.23073   -1230.1907    4.3364494    4.3364494    4.3364494   -1230.1907    -976.0757   -4576.0568    1861.5603   -391.62381    815.91737    895.76139    81.546036 
   49000    102.59026   -101.32306   0.09282582   -101.23024    390.37032    4.3342923    4.3342923    4.3342923    390.37032    1010.6122   -2000.1328    2160.6315    364.89631    322.49739    -200.3278    81.424402 
   49100    71.684768   -101.29545  0.064861885   -101.23059   -1360.3664    4.3360005    4.3360005    4.3360005   -1360.3664   -2547.0618   -4315.9467    2781.9093   -834.78876   -408.09379    741.77893    81.520712 
   49200    119.82839   -101.33894   0.10842324   -101.23051    403.68998    4.3350621    4.3350621    4.3350621    403.68998    1527.9803   -2791.2996    2474.3892    281.69761    1060.8528    324.00672    81.467796 
   49300    116.17116   -101.33541   0.10511411   -101.23029   -242.60644    4.3349953    4.3349953    4.3349953   -242.60644   -1699.5647   -2660.9807     3632.726   -752.38576   -648.29241   -127.52602    81.464031 
   49400    57.392073    -101.2826  0.051929554   -101.23067   -990.88475    4.3360557    4.3360557    4.3360557   -990.88475    228.83231   -3284.0001    82.513508   -220.09213    1334.3228    1304.6314    81.523826 
   49500    137.05358   -101.35413   0.12400896   -101.23012    748.83746     4.334325     4.334325     4.334325    748.83746   -1775.2838   -1171.2753    5193.0715   -92.473596    13.620466   -470.47416    81.426246 
   49600    98.477531    -101.3198  0.089104539    -101.2307   -330.39724    4.3360855    4.3360855    4.3360855   -330.39724    517.96439   -4091.7978    2582.6417   -521.75241    334.64216    1810.5452    81.525507 
   49700    75.271288   -101.29847  0.068107043   -101.23036    287.08185    4.3345946    4.3345946    4.3345946    287.08185   -276.00911   -1744.1857    2881.4404    94.416643     666.2786    266.22899    81.441445 
   49800    105.66433   -101.32603   0.09560731   -101.23043   -562.56387    4.3354543    4.3354543    4.3354543   -562.56387   -1993.6633   -3814.5497    4120.5213   -606.88397    -208.7744    567.24668    81.489911 
   49900    120.40268   -101.33955   0.10894287    -101.2306    -896.9072    4.3355615    4.3355615    4.3355615    -896.9072    1174.6572   -3742.1376   -123.24125   -128.38426    1439.5587    1381.3012    81.495955 
   50000    93.762215   -101.31511  0.084838023   -101.23028   -512.73124    4.3346856    4.3346856    4.3346856   -512.73124   -2023.0102    -2153.861    2638.6774   -378.76364    117.18787    -559.0893    81.446573 
   50100     73.02994   -101.29687  0.066079024   -101.23079   -1008.0878    4.3361094    4.3361094    4.3361094   -1008.0878    619.39837    -4431.387    787.72542    -142.7071    668.41408    1838.1781    81.526854 
   50200    138.89127     -101.356   0.12567174   -101.23033    1150.8418    4.3343168    4.3343168    4.3343168    1150.8418   -638.00916   -732.41847     4822.953   -38.713603    653.81424   -85.393139    81.425782 
   50300    80.940706   -101.30385  0.073236851   -101.23061    -408.7528     4.335941     4.335941     4.335941    -408.7528    1074.2892   -4487.9298    2187.3822   -226.95479   -455.24945    500.36834    81.517355 
   50400    77.036167   -101.30024  0.069703943   -101.23054   -71.461921    4.3349175    4.3349175    4.3349175   -71.461921   -1120.3036   -674.58071    1580.4986   -28.003965    1591.3763    847.15799    81.459646 
   50500    142.97626   -101.35962   0.12936792   -101.23025   -107.91882    4.3353448    4.3353448    4.3353448   -107.91882   -1134.7846   -3581.1303    4392.1584   -335.40231   -581.39347   -779.73277    81.483736 
   50600    84.853541   -101.30745  0.076777267   -101.23067   -523.70255    4.3356277    4.3356277    4.3356277   -523.70255    832.68607   -2818.6269    414.83321   -278.52496    1086.1022    1204.3218    81.499686 
   50700    85.886094   -101.30788  0.077711543   -101.23017   -308.82838    4.3347883    4.3347883    4.3347883   -308.82838   -2662.7949   -1915.9854    3652.2951     105.5196   -176.75388   -241.34479    81.452358 
   50800    102.11697   -101.32295  0.092397576   -101.23055   -630.30641    4.3359164    4.3359164    4.3359164   -630.30641    1349.5753   -4353.8969    1113.4024   -604.15551    56.281968    702.37164    81.515971 
   50900    123.42186   -101.34197   0.11167469   -101.23029   -95.580136    4.3347875    4.3347875    4.3347875   -95.580136   -868.50332   -1536.2138    2117.9767    443.72421    842.64861    405.73287    81.452318 
   51000    76.068397   -101.29919  0.068828284   -101.23036   -909.84287    4.3356016    4.3356016    4.3356016   -909.84287    537.92391   -4384.6413    1117.1888   -821.96913    11.119364    348.30575    81.498215 
   51100    91.515027   -101.31345  0.082804719   -101.23065    207.97873    4.3351932    4.3351932    4.3351932    207.97873   -819.39823   -1419.3554    2862.6898     25.48721    1536.9313    467.79791    81.475188 
   51200    146.71621   -101.36298   0.13275191   -101.23023    513.22867    4.3349443    4.3349443    4.3349443    513.22867   -72.135801   -3219.9651    4831.7869   -438.10763   -144.33292    713.61373    81.461157 
   51300    53.333648   -101.27899  0.048257405   -101.23074    170.70091    4.3356193    4.3356193    4.3356193    170.70091    980.65306   -2257.1147    1788.5644   -448.01593    1331.1706    784.76584    81.499215 
   51400    107.97132   -101.32801  0.097694719   -101.23031   -35.563062    4.3347092    4.3347092    4.3347092   -35.563062    -2036.532   -998.66805    2928.5109    195.01504     172.3466    443.80673    81.447902 
   51500    122.50947   -101.34142   0.11084914   -101.23057    81.266618    4.3356638    4.3356638    4.3356638    81.266618    1929.0237   -3365.4095    1680.1857   -675.59921    1236.4646     823.1471    81.501723 
   51600    85.946393   -101.30829  0.077766103   -101.23052   -378.06849    4.3349287    4.3349287    4.3349287   -378.06849   -1553.9258   -1500.8564    1920.5767    253.30704    1218.3681   -139.57021    81.460278 
   51700    87.924281   -101.30989  0.079555737   -101.23034   -529.04643    4.3353904    4.3353904    4.3353904   -529.04643   -303.79667   -3407.6108    2124.2682   -733.15557   -72.212572    414.50189    81.486306 
   51800    109.50498   -101.32977  0.099082404   -101.23069    265.97401    4.3352518    4.3352518    4.3352518    265.97401     86.46598   -2484.6804    3196.1365    76.410421    1548.7718    449.08842    81.478494 
   51900    127.68301    -101.3457   0.11553027   -101.23017   -285.13407     4.335089     4.335089     4.335089   -285.13407   -177.93527   -3110.3588    2432.8919   -350.62823   -808.47711   -359.14054    81.469315 
   52000    49.835113   -101.27569  0.045091857    -101.2306    351.48145      4.33547      4.33547      4.33547    351.48145    1249.7682   -2554.0466    2358.7228    -72.27482     830.9784    590.35291    81.490797 
   52100    130.08219   -101.34804    0.1177011   -101.23034    87.366221    4.3350237    4.3350237    4.3350237    87.366221   -1532.5569   -1426.4502    3221.1057     135.5169    632.26657   -471.87116    81.465634 
   52200    110.34849   -101.33028  0.099845635   -101.23043    1142.2185    4.3353253    4.3353253    4.3353253    1142.2185    2210.8225   -3091.5675    4307.4003   -428.38313   -910.26757   -461.72656    81.482637 
   52300    65.633877   -101.28988  0.059386911    -101.2305   -539.08907    4.3351991    4.3351991    4.3351991   -539.08907    -1990.292   -1213.2808    1586.3055    144.67457    1665.7399     835.5663    81.475523 
   52400    119.16794   -101.33809   0.10782565   -101.23026   -100.57707    4.3352039    4.3352039    4.3352039   -100.57707   -21.811832   -2313.0501    2033.1308   -400.91395   -1334.3318   -872.51539    81.475792 
   52500    111.66554   -101.33163   0.10103733   -101.23059    260.23983    4.3353723    4.3353723    4.3353723    260.23983     932.8821   -2525.3467    2373.1841   -248.71169    1054.4369     1134.182    81.485289 
   52600    97.242401   -101.31826  0.087986968   -101.23027   -770.28603    4.3349982    4.3349982    4.3349982   -770.28603   -1200.5396   -2206.7619    1096.4434    261.59079    768.59689   -13.674007    81.464195 
   52700    62.809703   -101.28742  0.056831539   -101.23059    1516.0813    4.3352409    4.3352409    4.3352409    1516.0813    1730.4189   -2238.7555    5056.5805   -715.97419    37.644746   -203.15613    81.477876 
   52800    148.23054   -101.36459   0.13412211   -101.23047   -665.38762    4.3351257    4.3351257    4.3351257   -665.38762   -1323.5663   -2670.6885     1998.092      427.858    1703.9287    1147.5725    81.471384 
   52900    80.797459   -101.30361  0.073107239   -101.23051    1622.5594     4.335151     4.335151     4.335151    1622.5594    2026.4962     -2550.16     5391.342   -829.80506   -59.057762   -418.83712    81.472808 
   53000    84.641778    -101.3071  0.076585659   -101.23052   -1231.3179    4.3353116    4.3353116    4.3353116   -1231.3179   -1345.7701   -2428.3666    80.183053   -83.668663    792.11071    916.67702    81.481861 
   53100    127.75891   -101.34609   0.11559894   -101.23049    1216.5437    4.3349794    4.3349794    4.3349794    1216.5437    953.72694   -1606.2292    4302.1334    -287.9249    1145.8501    461.08371    81.463137 
   53200    95.545588   -101.31709  0.086451656   -101.23064    476.84163    4.3352352    4.3352352    4.3352352    476.84163    1524.7328   -3136.2631    3042.0552   -525.12027    301.67946   -605.46162    81.477553 
   53300    78.798008   -101.30175  0.071298094   -101.23045   -630.01559    4.3351556    4.3351556    4.3351556   -630.01559   -2082.7176   -738.77139    931.44218    305.55525    772.95661    793.95751    81.473068 
   53400     101.4912   -101.32226  0.091831371   -101.23043    1545.6311    4.3351564    4.3351564    4.3351564    1545.6311    2363.0611   -2134.8502    4408.6823   -855.51338      209.548   -881.75377    81.473111 
   53500       139.25   -101.35634   0.12599633   -101.23034   -1370.5288    4.3353431    4.3353431    4.3353431   -1370.5288   -1772.3663   -2572.2669    233.04672    396.61782   -290.44879    402.71207    81.483637 
   53600    57.109995   -101.28212  0.051674324   -101.23044    1792.6023    4.3350237    4.3350237    4.3350237    1792.6023    1658.0172   -1938.0272     5657.817   -904.04596       13.746    -157.4712    81.465634 
   53700    111.20858   -101.33099   0.10062386   -101.23037   -843.47638    4.3353946    4.3353946    4.3353946   -843.47638   -458.59108     -3297.55    1225.7119    280.53474    276.45326   -215.68452    81.486544 
   53800    115.51346   -101.33504   0.10451901   -101.23052    1955.4058    4.3348571    4.3348571    4.3348571    1955.4058    1480.2418   -1991.7063    6377.6819   -337.76547   -337.42119     -1.93541    81.456237 
   53900    87.537631   -101.30967  0.079205888   -101.23046   -192.22573    4.3352675    4.3352675    4.3352675   -192.22573    1484.6384    -3615.383    1554.0675   -75.102331    471.96391   -381.69029    81.479376 
   54000    85.581635   -101.30813  0.077436062   -101.23069   -387.63409     4.335122     4.335122     4.335122   -387.63409   -1776.2058   -680.68181    1293.9853    266.69576        35.53    568.00336    81.471172 
   54100    126.76587   -101.34518   0.11470042   -101.23048    1120.8069     4.335253     4.335253     4.335253    1120.8069    2873.8783   -2915.5403    3404.0827   -642.49399   -412.44229   -254.50811    81.478558 
   54200    104.04668   -101.32463  0.094143622   -101.23049   -944.76127    4.3351368    4.3351368    4.3351368   -944.76127   -2036.8274   -2078.2377    1280.7813    288.96683    1513.5247    1333.0532    81.472009 
   54300    55.340095   -101.28063  0.050072881   -101.23055    1806.5431     4.335069     4.335069     4.335069    1806.5431     1840.751   -1346.0904    4924.9687   -448.79969   -213.57262   -469.44399    81.468185 
   54400    144.08866    -101.3607   0.13037444   -101.23032   -684.73958    4.3352871    4.3352871    4.3352871   -684.73958    98.244623    -3084.146    931.68259   -150.95587    1040.6043    864.60824    81.480485 
   54500    90.045129   -101.31206  0.081474725   -101.23058    1760.7379    4.3349572    4.3349572    4.3349572    1760.7379    971.37148   -1834.4611    6145.3032    181.65212    1023.3782    396.01056    81.461882 
   54600    89.969178   -101.31166  0.081406003   -101.23026   -638.65243    4.3353859    4.3353859    4.3353859   -638.65243     920.2548   -3088.9111      252.699   -612.55776    -886.8084   -307.25101    81.486056 
   54700    98.772348   -101.32003  0.089371296   -101.23066    776.70609    4.3349273    4.3349273    4.3349273    776.70609   -976.39491   -1638.1383    4944.6515    137.03171    1636.3108     1644.435    81.460199 
   54800     121.2957   -101.34017    0.1097509   -101.23042    837.92407    4.3352542    4.3352542    4.3352542    837.92407    3151.0731   -3476.2737    2838.9729   -663.66845    -399.4046   -1048.9016    81.478629 
   54900    82.927899   -101.30545  0.075034905   -101.23041   -866.66564    4.3351602    4.3351602    4.3351602   -866.66564   -2138.6255   -2738.4696    2277.0982   -278.94888   -5.7751953    952.07792    81.473325 
   55000     79.88157    -101.3028  0.072278523   -101.23052     1103.876    4.3352008    4.3352008    4.3352008     1103.876    2618.1843   -1252.9434    1946.3871   -147.93261    1145.5019   -248.59344    81.475618 
   55100     154.2778   -101.36985    0.1395938   -101.23026   -730.85899    4.3352061    4.3352061    4.3352061   -730.85899    -361.3455   -3593.3486    1762.1171   -492.64598   -1788.3855   -645.06813    81.475915 
   55200    57.793745   -101.28301  0.052292995   -101.23072    1777.0159    4.3348906    4.3348906    4.3348906    1777.0159    343.63896   -812.52804    5799.9369    184.80235    1166.0154     1305.004    81.458125 
   55300    105.06808   -101.32535  0.095067808   -101.23028   -513.36392    4.3355477    4.3355477    4.3355477   -513.36392    334.24412   -2674.0743    799.73838    -763.7051   -621.57573   -1074.7888    81.495178 
   55400    108.10574   -101.32836  0.097816341   -101.23054    1949.0708    4.3346344    4.3346344    4.3346344    1949.0708    151.41491   -1546.7177    7242.5152    247.43607    250.21293    1276.8387    81.443687 
   55500    110.16962   -101.33002  0.099683788   -101.23034   -339.87703     4.335602     4.335602     4.335602   -339.87703    2280.7781   -3655.2803    354.87118   -788.90929    912.38963   -208.95171    81.498238 
   55600    73.529068   -101.29698  0.066530646   -101.23045    244.73225    4.3348951    4.3348951    4.3348951    244.73225   -1497.2786   -2153.6581    4385.1334    262.11249   -371.86354    123.54935    81.458381 
   55700    113.39962   -101.33314   0.10260636   -101.23054    201.30903    4.3353983    4.3353983    4.3353983    201.30903    2748.8016   -2796.1945    651.31996   -220.05226    783.49926    1122.7533    81.486753 
   55800     123.0365   -101.34164   0.11132601   -101.23031   -119.64124    4.3351717    4.3351717    4.3351717   -119.64124    -1328.462   -3578.1036    4547.6419   -234.37309    361.15508   -157.09695    81.473976 
   55900    56.704436   -101.28186  0.051307365   -101.23055    657.19516    4.3349019    4.3349019    4.3349019    657.19516    421.04158   -1288.9066    2839.4505    308.33502    855.68959    1410.6915    81.458765 
   56000    125.10172   -101.34351   0.11319467   -101.23031   -577.07386    4.3355823    4.3355823    4.3355823   -577.07386    318.67483   -2384.6564    334.76002   -793.89024    499.25255   -9.0370038    81.497129 
   56100    108.78858   -101.32888  0.098434193   -101.23044    1798.5386    4.3345553    4.3345553    4.3345553    1798.5386    341.54009   -2112.8076    7166.8833    278.59733    907.72899    579.10814    81.439225 
   56200    87.101372   -101.30918  0.078811152   -101.23037   -551.55179    4.3357323    4.3357323    4.3357323   -551.55179    923.92938   -2337.0115   -241.57322   -371.35718   -214.14063    263.21461    81.505588 
   56300    86.738113   -101.30892  0.078482467   -101.23044    1442.5065    4.3346338    4.3346338    4.3346338    1442.5065   -1328.9437   -1647.9821    7304.4454   -204.76407    144.01036   -80.184783     81.44365 
   56400    128.67094   -101.34691   0.11642417   -101.23048   -116.94188    4.3353941    4.3353941    4.3353941   -116.94188     2252.758   -3067.0145    463.43083    203.90311     666.2456    658.52971    81.486515 
   56500    89.556861   -101.31142   0.08103293   -101.23038   -159.78508    4.3353946    4.3353946    4.3353946   -159.78508   -2551.5546   -2854.1087     4926.308    -626.4252   -452.90102   -503.03108    81.486543 
   56600    82.429666   -101.30496  0.074584094   -101.23037   -338.76597    4.3348903    4.3348903    4.3348903   -338.76597      1553.05   -2098.5735   -470.77437    -70.49048    1018.2483    594.89953    81.458114 
   56700    125.16667   -101.34368   0.11325343   -101.23043    -277.6028    4.3357651    4.3357651    4.3357651    -277.6028   -148.76486   -3013.1494    2329.1059   -408.14526   -387.93336   -783.14469    81.507437 
   56800    96.565986   -101.31781  0.087374933   -101.23044    653.05984    4.3345449    4.3345449    4.3345449    653.05984   -357.16722   -3163.3351    5479.6818   -435.31434   -79.097683    307.38394    81.438641 
   56900    77.053684    -101.3002  0.069719792   -101.23048   -624.17439    4.3358911    4.3358911    4.3358911   -624.17439   -223.06156   -1722.4827    73.021139    65.561377    1026.8961    16.856389    81.514543 
   57000    117.30624   -101.33652   0.10614115   -101.23038     780.6276    4.3348243    4.3348243    4.3348243     780.6276   -1702.8895   -2313.7898    6358.5621   -539.71441   -152.96761   -135.36682    81.454393 
   57100    118.51371   -101.33758   0.10723369   -101.23034   -248.52648    4.3353765    4.3353765    4.3353765   -248.52648      1388.13   -2561.3626    427.65321    16.906494    1355.8539    966.91422    81.485521 
   57200    67.872066   -101.29184  0.061412072   -101.23042    179.77841    4.3354885    4.3354885    4.3354885    179.77841   -2937.8682   -1554.0268    5031.2302   -694.32967    609.16583   -640.48382    81.491837 
   57300    109.07934   -101.32901  0.098697282   -101.23031    102.42381    4.3346733    4.3346733    4.3346733    102.42381    2517.7118   -2283.3284    72.888026   -48.029979    92.661186    832.84405     81.44588 
   57400     112.6535   -101.33236   0.10193125   -101.23042   -168.58402    4.3359092    4.3359092    4.3359092   -168.58402   -1593.5078   -3125.6127    4213.3685   -597.67315     1243.162    117.65832    81.515563 
   57500    85.646449   -101.30784  0.077494707   -101.23035    -726.3917    4.3345663    4.3345663    4.3345663    -726.3917   -723.81053   -2927.8637    1472.4991    56.904037    158.10185   -139.70199    81.439846 
   57600    96.895932   -101.31808  0.087673476   -101.23041   -1099.0349    4.3358305    4.3358305    4.3358305   -1099.0349   -504.44039   -2422.9232   -369.74128   -108.20042    807.53574    1266.3737    81.511128 
   57700    124.18091   -101.34274    0.1123615   -101.23037   -215.66767    4.3351384    4.3351384    4.3351384   -215.66767   -1844.7826   -3181.2455    4379.0251   -478.78956    846.61661   -1001.4908    81.472096 
   57800    88.970422   -101.31088  0.080502307   -101.23038   -215.82277    4.3351549    4.3351549    4.3351549   -215.82277    626.12248   -3116.1321    1842.5413    306.74455   -547.82128    788.27059    81.473029 
   57900    73.954052   -101.29743   0.06691518   -101.23051   -159.40147    4.3357391    4.3357391    4.3357391   -159.40147   -3146.7001   -937.43182    3605.9275   -821.18895    909.05995   -449.35153     81.50597 
   58000    130.06555   -101.34809   0.11768604    -101.2304   -253.33013    4.3347056    4.3347056    4.3347056   -253.33013    1762.5148   -3646.7244    1124.2193    293.16338   -597.93065   -691.17398    81.447698 
   58100    95.317059   -101.31672  0.086244878   -101.23047   -822.34251     4.336176     4.336176     4.336176   -822.34251   -3692.7204   -1866.8503    3092.5432   -197.43059    1307.6817    1046.4438     81.53061 
   58200    88.320261   -101.31028  0.079914028   -101.23037   -1570.0341    4.3348219    4.3348219    4.3348219   -1570.0341   -741.27736   -2981.1593   -987.66566   -239.80157   -291.75231   -1537.7985    81.454254 
   58300    107.99741    -101.3281  0.097718328   -101.23038   -276.17007     4.335753     4.335753     4.335753   -276.17007   -334.45049   -2422.6693    1928.6096    224.92051    826.56099    962.45652    81.506754 
   58400    113.23133   -101.33281   0.10245409   -101.23035   -1402.4578    4.3354219    4.3354219    4.3354219   -1402.4578   -2118.1366    -3704.798    1615.5611    -633.3361     246.3243   -982.17506    81.488086 
   58500    68.404879   -101.29228  0.061894172   -101.23039   -356.84448    4.3350583    4.3350583    4.3350583   -356.84448    111.38538   -2927.3203    1745.4015   -155.92445   -33.964283   -160.45462     81.46758 
   58600    113.05302   -101.33266   0.10229275   -101.23037   -1710.0314    4.3360815    4.3360815    4.3360815   -1710.0314   -3179.2107   -2077.2852    126.40167   -212.95103    1865.8974     275.3205    81.525281 
   58700    118.06946   -101.33721   0.10683173   -101.23038   -430.31704    4.3346147    4.3346147    4.3346147   -430.31704    379.44585   -4569.9804    2899.5834   -561.52516   -587.24158   -558.25927    81.442574 
   58800     82.78817   -101.30523  0.074908476   -101.23032   -1147.8555    4.3360955    4.3360955    4.3360955   -1147.8555   -4270.1922   -1524.0816    2350.7074    101.85988    2034.4354    648.28866    81.526071 
   58900    93.103904   -101.31471  0.084242369   -101.23047    -880.4487    4.3348724    4.3348724    4.3348724    -880.4487    179.32643   -3108.1054    287.43287   -609.60502   -404.85923    -568.7601      81.4571 
   59000    116.65117   -101.33593   0.10554843   -101.23038   -202.74216    4.3355532    4.3355532    4.3355532   -202.74216   -951.63976   -2643.0365    2986.4498    -302.6235    203.97127    197.53963    81.495487 
   59100    95.204915   -101.31655  0.086143408    -101.2304   -2138.6946    4.3356722    4.3356722    4.3356722   -2138.6946   -2391.4588   -2709.6704   -1314.9544   -400.17695    1277.9765   -357.09895    81.502197 
   59200     76.86673    -101.3001  0.069550632   -101.23055   -758.31396    4.3350425    4.3350425    4.3350425   -758.31396    -464.0608     -2614.89    804.00894   -422.97908   -932.66679   -65.919358    81.466691 
   59300    136.63028   -101.35396   0.12362595   -101.23033   -2137.0603    4.3362685    4.3362685    4.3362685   -2137.0603   -2749.7096    -2992.501   -668.97016   -48.703919    1670.3605    266.37283     81.53583 
   59400    80.546557   -101.30344  0.072880218   -101.23056   -272.02198    4.3346454    4.3346454    4.3346454   -272.02198   -652.21382   -4350.5308    4186.6787    -298.4589   -854.76844   -856.62979    81.444306 
   59500    93.803066   -101.31511  0.084874986   -101.23023   -1954.3027    4.3361618    4.3361618    4.3361618   -1954.3027   -3377.5862   -2313.3301   -171.99176    104.89043    368.91619    742.00966    81.529812 
   59600    103.67942   -101.32428   0.09381132   -101.23046   -523.86862    4.3350108    4.3350108    4.3350108   -523.86862    736.44348   -3653.9349    1345.8856   -446.46007    250.15372   -1413.5218    81.464901 
   59700    115.47024   -101.33479    0.1044799   -101.23031   -1459.0356    4.3356489    4.3356489    4.3356489   -1459.0356   -2954.2417    -3642.182     2219.317    135.62496    81.657315     562.9252    81.500883 
   59800    78.712742   -101.30155  0.071220943   -101.23033   -1453.2658     4.335687     4.335687     4.335687   -1453.2658   -2014.2985   -1658.3835   -687.11542   -231.69846    1031.5653   -175.90402     81.50303 
   59900     98.48985   -101.31958  0.089115686   -101.23047   -848.26553    4.3350201    4.3350201    4.3350201   -848.26553    -908.9867   -3419.1377    1783.3278    9.0760847   -223.88786   -828.61447    81.465429 
   60000    129.40554   -101.34733   0.11708885   -101.23024   -1475.3074    4.3360535    4.3360535    4.3360535   -1475.3074   -1692.2403   -2587.6253   -146.05671    300.39585     1252.233    1379.6682    81.523702 
   60100    63.644356   -101.28813  0.057586751   -101.23054    -653.4095    4.3347487    4.3347487    4.3347487    -653.4095   -981.10483    -3235.051    2255.9273   -554.39302   -798.49276   -1834.1837    81.450131 
   60200    115.59838   -101.33489   0.10459584   -101.23029   -1889.3333    4.3359614    4.3359614    4.3359614   -1889.3333   -1310.6853   -2438.5612   -1918.7534     260.3792    1811.4424    1246.3118    81.518505 
   60300    107.14526   -101.32744   0.09694728    -101.2305    102.92666    4.3349816    4.3349816    4.3349816    102.92666    376.77943   -3559.2357    3491.2362   -641.80628   -398.96142   -632.92932    81.463256 
   60400    93.183274   -101.31477  0.084314185   -101.23045   -1596.1731    4.3355466    4.3355466    4.3355466   -1596.1731    -3799.011   -3523.2941     2533.786    -337.4685    869.64445   -58.886739    81.495116 
   60500    86.346803   -101.30853  0.078128402    -101.2304   -347.36514    4.3355702    4.3355702    4.3355702   -347.36514    -161.0762   -2160.4571    1279.4379    89.669379    350.05397     861.3515    81.496447 
   60600    116.28114   -101.33576   0.10521362   -101.23055   -1173.1889    4.3350933    4.3350933    4.3350933   -1173.1889   -1598.2891   -4015.4275    2094.1499   -872.07472    -1006.229   -1104.5366    81.469556 
   60700    107.62329   -101.32769  0.097379814   -101.23031   -1143.5338     4.335928     4.335928     4.335928   -1143.5338   -814.05564   -3188.1215    571.57563    243.93026     1085.978    641.82051    81.516626 
   60800    71.057649   -101.29484  0.064294454   -101.23054    -672.4334    4.3349323    4.3349323    4.3349323    -672.4334   -1041.0952   -1911.9272    935.72217   -839.69035   -571.29379   -617.41163    81.460481 
   60900    124.70968   -101.34328   0.11283994   -101.23044   -1109.5052    4.3357991    4.3357991    4.3357991   -1109.5052   -65.947581   -3687.7069     425.1387   -351.82075    244.59106   -24.262945    81.509353 
   61000    97.333133   -101.31845  0.088069064   -101.23038    700.31031    4.3349611    4.3349611    4.3349611    700.31031   -376.74157   -1751.8376    4229.5101     2.023934    561.87879    230.84089    81.462103 
   61100    85.603019   -101.30793  0.077455411   -101.23047   -1706.5344    4.3355468    4.3355468    4.3355468   -1706.5344   -2835.0444   -3296.1216    1011.5627   -680.88464   -788.53686   -422.96012    81.495124 
   61200    105.21403   -101.32549  0.095199868   -101.23029    888.93779    4.3353078    4.3353078    4.3353078    888.93779     2374.982   -1948.3735    2240.2049     700.2567    577.41889    311.43492    81.481648 
   61300     119.5728   -101.33864   0.10819199   -101.23045   -1161.3358    4.3351394    4.3351394    4.3351394   -1161.3358   -2421.9922   -4035.1826    2973.1675   -636.56886    388.94099    -601.7173    81.472154 
   61400    73.400932   -101.29685  0.066414706   -101.23044    447.43899    4.3354334    4.3354334    4.3354334    447.43899    776.13674   -2932.0688     3498.249    455.33402    147.39569    515.38607    81.488729 
   61500    104.62273   -101.32501  0.094664848   -101.23034   -410.11387    4.3348657    4.3348657    4.3348657   -410.11387   -1024.4423   -1701.6282    1495.7289   -288.64991    1144.1465   -310.79876    81.456725 
   61600    113.27993   -101.33307   0.10249806   -101.23057   -397.92742    4.3355416    4.3355416    4.3355416   -397.92742    541.45021   -4600.2444    2865.0119     3.298428    108.48479    469.18882    81.494833 
   61700    94.907358   -101.31611  0.085874172   -101.23024    277.94232     4.334975     4.334975     4.334975    277.94232     -859.991   -561.85028    2255.6683    355.45948   -158.19213    325.89846    81.462886 
   61800    89.543213   -101.31161  0.081020581   -101.23059   -1002.7491     4.335405     4.335405     4.335405   -1002.7491   -317.48863   -3249.8255    559.06671   -432.32002     1131.689   -620.72207    81.487132 
   61900    113.04039   -101.33271   0.10228132   -101.23043    1834.3127    4.3351287    4.3351287    4.3351287    1834.3127    3269.2656   -1922.1664    4155.8388    607.79135   -623.21018    960.55615    81.471551 
   62000    104.63564   -101.32515  0.094676528   -101.23047   -398.66176    4.3351368    4.3351368    4.3351368   -398.66176   -2626.4256   -2773.5012    4203.9415   -926.50566    833.20569   -925.18015    81.472009 
   62100    65.912461   -101.29028   0.05963898   -101.23064    1213.1662    4.3353577    4.3353577    4.3353577    1213.1662    2421.2936   -2624.0724    3842.2774    207.01132   -143.84569    690.64338    81.484462 
   62200     141.8698   -101.35854   0.12836678   -101.23017    -169.0815    4.3349313    4.3349313    4.3349313    -169.0815   -1080.2046   -1540.5023    2113.4625   -657.63417   -924.78181   -42.532924    81.460421 
   62300    85.418783   -101.30796   0.07728871   -101.23068    391.72878    4.3354144    4.3354144    4.3354144    391.72878    939.03132   -4430.4637    4666.6187   -422.97089    673.05873   -774.16143    81.487663 
   62400     97.15517    -101.3181  0.087908039   -101.23019    293.20808    4.3349207    4.3349207    4.3349207    293.20808   -410.35426   -624.52275    1914.5013    111.22652    -979.8703    644.99818    81.459823 
   62500    94.807815   -101.31637  0.085784104   -101.23058    514.81247    4.3352154    4.3352154    4.3352154    514.81247    1844.1459    -3453.452    3153.7436   -979.14658     763.8528     -1162.56    81.476441 
   62600    113.06321   -101.33267   0.10230197   -101.23036    1054.7895    4.3350285    4.3350285    4.3350285    1054.7895    2095.1559   -2769.7019    3838.9145    349.96126   -379.69074    309.17899      81.4659 
   62700    93.728484   -101.31504  0.084807502   -101.23024    235.82574    4.3350027    4.3350027    4.3350027    235.82574   -1822.2204   -914.84971    3444.5474   -842.19879    412.27944    -28.80261    81.464446 
   62800    85.565224   -101.30806  0.077421213   -101.23064     918.1071    4.3353113    4.3353113    4.3353113     918.1071    3794.2376   -3325.3808    2285.4645   -76.878207   -594.52377   -564.40223    81.481847 
   62900     142.0875   -101.35868   0.12856375   -101.23012    1168.4047    4.3347232    4.3347232    4.3347232    1168.4047   -795.90505   -413.86717    4714.9863    254.08063    975.51634    590.88801    81.448689 
   63000    60.720748   -101.28566  0.054941409   -101.23071    1275.6302    4.3352685    4.3352685    4.3352685    1275.6302    1897.8641   -3703.7311    5632.7575   -574.08427   -91.560603   -711.37958    81.479435 
   63100    104.99945   -101.32534  0.095005711   -101.23034    824.63426    4.3348166    4.3348166    4.3348166    824.63426    455.22514   -500.60734     2519.285    893.10016    767.04276    346.32939    81.453957 
   63200    114.40549   -101.33402   0.10351649    -101.2305    709.63002    4.3352829    4.3352829    4.3352829    709.63002    1936.4432   -3770.0666    3962.5134   -633.59062    700.25821    150.42267    81.480247 
   63300    94.660326   -101.31619  0.085650652   -101.23054   -188.83853    4.3352877    4.3352877    4.3352877   -188.83853   -144.11599   -2819.8601    2397.4605    448.98938    -1121.952    4.4655155    81.480515 
   63400    100.68326   -101.32137  0.091100332   -101.23027    484.47459    4.3349432    4.3349432    4.3349432    484.47459   -252.27319   -1068.9259    2774.6228   -74.770029    1394.2924    430.08896    81.461091 
   63500    93.680599   -101.31551  0.084764175   -101.23075    901.28272    4.3353389    4.3353389    4.3353389    901.28272    3937.8031   -3827.1032    2593.1483   -202.03147    -1253.016   -457.89896    81.483405 
   63600    121.47747   -101.34013   0.10991537   -101.23021    1415.5499    4.3346546    4.3346546    4.3346546    1415.5499   -964.03678   -676.08391    5886.7704     494.5721    629.87554    187.82116    81.444824 
   63700    63.229468    -101.2878  0.057211351   -101.23059    1135.8434    4.3353485    4.3353485    4.3353485    1135.8434    2953.2631   -2588.6372    3042.9044   -723.38288    26.492072    -538.8542    81.483943 
   63800    121.20893   -101.34006   0.10967239   -101.23039    663.43138    4.3348509    4.3348509    4.3348509    663.43138    362.35367   -1437.4512    3065.3917     286.7444   -1414.5191   -3.8179664    81.455888 
   63900    117.81365   -101.33687   0.10660027   -101.23027    1206.3298    4.3351501    4.3351501    4.3351501    1206.3298    1356.2656   -2474.4273    4737.1512   -853.19508    855.15687   -295.24407    81.472755 
   64000    69.838575   -101.29382   0.06319141   -101.23063   -44.878142    4.3352204    4.3352204    4.3352204   -44.878142   -915.58511   -2505.7711    3286.7218   -137.99706   -1445.8389   -804.39899    81.476724 
   64100    115.94505   -101.33507   0.10490952   -101.23016    1121.9348    4.3348189    4.3348189    4.3348189    1121.9348    1497.4662   -1261.2344    3129.5728   -425.87332     701.0722    74.137083    81.454085 
   64200    97.835304    -101.3192  0.088523439   -101.23068    178.47903    4.3354382    4.3354382    4.3354382    178.47903    2277.7288   -3863.5518    2121.2601   -404.99895   -132.38223   -1497.2973       81.489 
   64300    99.861058   -101.32061  0.090356384   -101.23026    190.97075    4.3347955    4.3347955    4.3347955    190.97075   -1966.5442   -1348.7645    3888.2209    5.3680288   -282.64057    347.22602    81.452766 
   64400    91.254442     -101.313  0.082568936   -101.23043     265.1347    4.3354879    4.3354879    4.3354879     265.1347    3154.3253   -2384.8981    25.976887   -719.28082    202.37008   -789.24896    81.491807 
   64500    114.82925   -101.33451   0.10389992   -101.23061    258.94108    4.3350806    4.3350806    4.3350806    258.94108   -941.98773   -3171.2993    4890.1103    62.178746   -249.50605   -288.05482    81.468842 
   64600    104.93863   -101.32521  0.094950681   -101.23026    1130.8943    4.3351863    4.3351863    4.3351863    1130.8943    828.42845    -1395.268    3959.5224    -359.2387    524.89634    271.64775      81.4748 
   64700    67.498533   -101.29183  0.061074091   -101.23076   -179.03915    4.3354149    4.3354149    4.3354149   -179.03915   -689.94323   -2865.9377    3018.7634   -132.91198   -9.7612608   -1137.3838    81.487687 
   64800    133.54176    -101.3511   0.12083139   -101.23027    688.52257    4.3349353    4.3349353    4.3349353    688.52257    1768.9551    -1484.822    1781.4347    419.30516    560.90473    680.11492    81.460649 
   64900    92.908996   -101.31466  0.084066012    -101.2306   -510.17643    4.3356321    4.3356321    4.3356321   -510.17643   -758.45274   -3150.6174    2378.5408   -474.68626   -1214.2916   -539.51859    81.499938 
   65000    83.095996   -101.30572  0.075187003   -101.23053   -488.29865    4.3349151    4.3349151    4.3349151   -488.29865   -2028.5748   -1939.5734    2503.2523    466.61396    850.70386    15.158537    81.459507 
   65100      119.024   -101.33793   0.10769542   -101.23024    28.431873    4.3354764    4.3354764    4.3354764    28.431873    2338.1845      -2536.8    283.91113   -380.36825   -1547.1132     337.9737    81.491159 
   65200    91.710203   -101.31367  0.082981319   -101.23069   -484.81474    4.3351792    4.3351792    4.3351792   -484.81474   -2542.0145   -3748.6792    4836.2494   -187.77088    689.15941   -1065.0468      81.4744 
   65300    105.04943   -101.32513  0.095050934   -101.23008   -147.37566    4.3352477    4.3352477    4.3352477   -147.37566     667.9729   -1500.7967    390.69677    354.15922   -560.81547    345.50962    81.478259 
   65400    82.423782   -101.30521   0.07457877   -101.23063   -232.06886    4.3354934    4.3354934    4.3354934   -232.06886   -278.52204   -2960.4821    2542.7976   -785.12526   -990.84527   -1042.1788    81.492117 
   65500    133.34181    -101.3509   0.12065047   -101.23025   -295.34946    4.3350631    4.3350631    4.3350631   -295.34946   -105.88852   -2751.2885    1971.1287    483.58746    374.81811   -222.84816    81.467852 
   65600    72.243188   -101.29583  0.065367155   -101.23047    443.12489    4.3355354    4.3355354    4.3355354    443.12489   -2000.0788   -1479.3577    4808.8112   -805.08333   -1560.7895   -318.55839    81.494481 
   65700    95.995629   -101.31751  0.086858862   -101.23065   -1513.0291     4.335202     4.335202     4.335202   -1513.0291   -1544.9802   -3617.8341    623.72706   -210.64672    610.47191   -1190.3542    81.475681 
   65800    125.30474   -101.34364   0.11337836   -101.23026    154.16565    4.3354518    4.3354518    4.3354518    154.16565     746.8478   -1501.1973    1216.8465   -283.01561   -619.40469    67.081861    81.489767 
   65900    81.083388   -101.30408  0.073365953   -101.23071    -2262.549    4.3356272    4.3356272    4.3356272    -2262.549   -4385.8223   -4358.3407    1956.5158   -672.41496   -162.78294   -1672.3273    81.499661 
   66000    103.59574   -101.32407  0.093735598   -101.23033   -614.97966    4.3351909    4.3351909    4.3351909   -614.97966    425.69668   -1278.7728   -991.86284    182.03877   -269.53538     374.7347    81.475057 
   66100    98.476386   -101.31972  0.089103503   -101.23062   -390.77743    4.3356686    4.3356686    4.3356686   -390.77743   -1437.6602   -3741.3551     4006.683   -736.87069   -416.29253    -987.2595    81.501993 
   66200    107.62732   -101.32789  0.097383464    -101.2305    -1371.866    4.3352276    4.3352276    4.3352276    -1371.866   -2477.4582   -3231.3031    1593.1632    93.689161   -258.34944   -6.8964088    81.477127 
   66300    79.694508   -101.30247  0.072109266   -101.23036      482.614     4.335558     4.335558     4.335558      482.614   -1607.8036   -1248.3143    4303.9599   -497.92348   -323.34029   -174.67759    81.495759 
   66400    117.82243   -101.33721   0.10660821   -101.23061   -2508.2079    4.3354425    4.3354425    4.3354425   -2508.2079   -1113.2699   -4746.2377   -1665.1163   -200.77047    44.725969   -881.75583    81.489245 
   66500    105.95775   -101.32616  0.095872802   -101.23029    917.73332    4.3352103    4.3352103    4.3352103    917.73332   -1227.6363   -785.28115    4766.1174    120.04493   -1474.3977    479.59336     81.47615 
   66600    81.637671   -101.30448   0.07386748   -101.23061   -2477.7144    4.3357448    4.3357448    4.3357448   -2477.7144   -4146.6989   -4173.4619    887.01775   -532.22727    689.68417    -835.7082    81.506292 
   66700    99.009756   -101.32016  0.089586108   -101.23057    -22.20753    4.3350785    4.3350785    4.3350785    -22.20753    15.486852   -1510.3828    1428.2733    586.29746   -1914.9863    294.59744     81.46872 
   66800    117.37106   -101.33666    0.1061998   -101.23046   -1398.6969    4.3358501    4.3358501    4.3358501   -1398.6969   -3198.1669   -3419.2673    2421.3434   -684.53676    290.11264   -204.18602     81.51223 
   66900    82.282384   -101.30514   0.07445083   -101.23069   -1987.4958    4.3352125    4.3352125    4.3352125   -1987.4958   -3638.9603     -3023.11    699.58298    249.95192   -118.80502   -869.79214    81.476278 
   67000    106.91496   -101.32692  0.096738903   -101.23018    111.93157    4.3355714    4.3355714    4.3355714    111.93157   -637.64568   -1681.5985    2655.0389   -117.26494   -1831.8513    221.69115    81.496511 
   67100     111.8644    -101.3318   0.10121726   -101.23058   -2104.6258    4.3356311    4.3356311    4.3356311   -2104.6258   -2379.2886   -4928.5857    993.99701    -630.4358    1509.9196   -1371.3209    81.499877 
   67200    77.629801   -101.30064  0.070241075    -101.2304    1524.1872    4.3349274    4.3349274    4.3349274    1524.1872   -2252.4884    -883.1725    7708.2224    667.67785   -2757.5364    235.95268    81.460202 
   67300    108.92137   -101.32904  0.098554343   -101.23049    -2411.487    4.3359154    4.3359154    4.3359154    -2411.487   -2474.4929   -3770.0919   -989.87617   -1099.6955    1061.3433   -761.14664    81.515915 
   67400    91.811292   -101.31387  0.083072786    -101.2308    391.65901    4.3348803    4.3348803    4.3348803    391.65901   -647.66795   -2093.9668    3916.6118    505.46562   -1096.4549   -635.70045    81.457546 
   67500    126.36631   -101.34455   0.11433889   -101.23021   -2123.4237    4.3360232    4.3360232    4.3360232   -2123.4237   -4209.9572   -2516.5205    356.20664   -689.80334   -698.61139   -56.795947    81.521995 
   67600     64.00073   -101.28877  0.057909206   -101.23086   -945.37322    4.3350893    4.3350893    4.3350893   -945.37322   -2914.2178    -3339.231    3417.3291    -426.2557    272.35147   -1340.2497     81.46933 
   67700    124.14854    -101.3425    0.1123322   -101.23017   -70.403103     4.335444     4.335444     4.335444   -70.403103    -373.0347    -1645.527    1807.3524    108.35362    -1720.725     597.7257    81.489327 
   67800    97.332903   -101.31865  0.088068856   -101.23058   -1743.8861    4.3356316    4.3356316    4.3356316   -1743.8861    -4220.523   -4546.6463    3535.5109    -967.3729    48.888718   -960.10834    81.499911 
   67900    77.786729   -101.30086  0.070383067   -101.23048    552.45487    4.3349502    4.3349502    4.3349502    552.45487   -1887.9721   -1049.2885    4594.6252    487.13145   -1078.0166    262.78658    81.461487 
   68000    136.25944   -101.35353   0.12329041   -101.23024   -2016.8994    4.3360511    4.3360511    4.3360511   -2016.8994    -1375.116   -4006.0683   -669.51384   -902.03646   -33.120386   -214.84078    81.523568 
   68100    69.117345   -101.29343  0.062538826   -101.23089    1121.6253    4.3346114    4.3346114    4.3346114    1121.6253   -2058.6316   -2167.1113    7590.6189    196.30725    -603.3293   -729.31373    81.442392 
   68200    126.59014   -101.34459   0.11454142   -101.23005   -1726.4115     4.336022     4.336022     4.336022   -1726.4115   -3418.1961   -2690.0068    928.96835   -463.43324   -88.423238    366.08916    81.521928 
   68300    62.992829   -101.28783  0.056997235   -101.23083    348.52905    4.3350219    4.3350219    4.3350219    348.52905   -1222.5201   -3146.4342    5414.5415   -324.14618   -504.22541   -815.80907    81.465528 
   68400    138.83223   -101.35576   0.12561832   -101.23015   -1571.1567    4.3355555    4.3355555    4.3355555   -1571.1567   -1163.2998   -2358.5922   -1191.5782    299.63681   -639.17348    142.35775    81.495616 
   68500    79.955474   -101.30296  0.072345393   -101.23061   -567.74994    4.3355034    4.3355034    4.3355034   -567.74994   -4462.9637   -3000.2795    5759.9933   -781.34701    919.68103   -273.68497    81.492679 
   68600    94.498752   -101.31612  0.085504457   -101.23062   -691.47479    4.3349649    4.3349649    4.3349649   -691.47479    -840.9413   -2199.2623    965.77922    708.39629   -1339.8535    -977.4471    81.462318 
   68700    127.17941   -101.34531    0.1150746   -101.23024    -450.0548    4.3359343    4.3359343    4.3359343    -450.0548   -1963.1688   -3167.7602    3780.7646   -823.68599    1323.4675    149.46683     81.51698 
   68800    62.819358   -101.28766  0.056840276   -101.23082    339.82329    4.3346218    4.3346218    4.3346218    339.82329   -3484.8936   -2702.6513    7207.0148    141.67532   -1461.9044   -1308.9683    81.442973 
   68900    130.30455   -101.34798   0.11790229   -101.23008   -1418.9021    4.3359417    4.3359417    4.3359417   -1418.9021   -1417.4178   -2761.2261   -78.062472   -1.0207721    25.544412    153.21403    81.517395 
   69000    80.436343   -101.30344  0.072780493   -101.23066     590.9915     4.335041     4.335041     4.335041     590.9915     -783.381   -3217.0956    5773.4511   -837.54955   -223.64739   -752.66839    81.466608 
   69100    121.00851   -101.33976   0.10949105   -101.23027    -1844.408    4.3355221    4.3355221    4.3355221    -1844.408   -2174.6872   -2936.6948   -421.84208    829.58967   -1008.4997   -574.11627    81.493735 
   69200    78.223404    -101.3012   0.07077818   -101.23043    485.31698    4.3356268    4.3356268    4.3356268    485.31698   -3269.9164   -2583.4232    7309.2905   -1161.6633    599.76224   -253.94822     81.49964 
   69300    105.16696   -101.32577  0.095157273   -101.23061   -1430.9417    4.3348255    4.3348255    4.3348255   -1430.9417    72.379897   -3140.4031   -1224.8019    422.35921   -1300.6852   -1180.2694    81.454458 
   69400    113.06646   -101.33252   0.10230491   -101.23022    -205.6221    4.3360471    4.3360471    4.3360471    -205.6221   -3271.3524   -2451.2894    5105.7756   -541.48892    267.85336    253.32071     81.52334 
   69500    79.774057   -101.30286  0.072181243   -101.23068   -1096.1618    4.3347842    4.3347842    4.3347842   -1096.1618   -3071.0705   -3240.6639    3023.2489   -629.40166   -664.35198   -1051.3193    81.452131 
   69600    119.90387   -101.33891   0.10849154   -101.23042   -643.20028    4.3359357    4.3359357    4.3359357   -643.20028    -286.2716   -2898.7174    1255.3881    365.42294     471.3931    34.071603    81.517059 
   69700    90.913811    -101.3129  0.082260727   -101.23064    405.29164    4.3349586    4.3349586    4.3349586    405.29164   -2143.8454   -3237.4825    6597.2028   -1125.1901    182.14047   -580.93034    81.461964 
   69800    93.407686    -101.3151  0.084517238   -101.23058   -1349.7751    4.3354112    4.3354112    4.3354112   -1349.7751   -2779.4518   -3180.0792    1910.2058    604.23635    415.62583   -1110.0137     81.48748 
   69900    103.51802    -101.3239  0.093665278   -101.23023    260.31607    4.3356968    4.3356968    4.3356968    260.31607   -1489.7205   -2796.4537    5067.1224   -1021.8304    242.87463    272.04009    81.503587 
   70000    105.73131   -101.32617  0.095667916   -101.23051   -1822.7732    4.3348456    4.3348456    4.3348456   -1822.7732   -159.59789   -3541.3214   -1767.4003    152.94154    60.761531   -1674.6103    81.455591 
   70100    99.015956   -101.31986  0.089591717   -101.23027   -252.74881    4.3360781    4.3360781    4.3360781   -252.74881   -3505.1075   -2710.5964    5457.4574   -414.11454    576.53173    468.56362    81.525093 
   70200    91.875057   -101.31365  0.083130483   -101.23051     -885.173    4.3347277    4.3347277    4.3347277     -885.173   -898.08227   -3149.5601    1392.1233   -491.08821    146.99267   -1121.6912    81.448946 
   70300    107.62787   -101.32783  0.097383962   -101.23044   -617.90638    4.3358873    4.3358873    4.3358873   -617.90638   -514.61435   -3613.7642    2274.6594    526.24847    382.88559   -797.18995    81.514328 
   70400    95.368353   -101.31657   0.08629129   -101.23028   -216.39778    4.3352685    4.3352685    4.3352685   -216.39778   -3457.7031   -2465.5536    5274.0634   -1056.4774   -320.27158    33.595664    81.479432 
   70500    94.975437   -101.31646  0.085935771   -101.23052   -1707.7513    4.3352799    4.3352799    4.3352799   -1707.7513   -2184.2608   -3840.6853    901.69226    846.87366   -170.09487   -1795.5289    81.480078 
   70600    117.45578   -101.33643   0.10627646   -101.23016    80.293242    4.3359469    4.3359469    4.3359469    80.293242   -479.40821   -2660.8227    3381.1106   -911.10163   -464.08725    606.03083    81.517688 
   70700    89.533605   -101.31163  0.081011888   -101.23062   -1251.0348    4.3346777    4.3346777    4.3346777   -1251.0348   -1714.3065   -3942.4479    1903.6499    50.212531   -130.99066   -1292.6998    81.446128 
   70800    90.537767   -101.31238  0.081920475   -101.23046   -452.38624    4.3362754    4.3362754    4.3362754   -452.38624   -2559.6065   -3153.2679    4355.7158    200.52989    357.04438   -274.75497    81.536218 
   70900    110.06695   -101.33004  0.099590885   -101.23045   -676.85566    4.3345832    4.3345832    4.3345832   -676.85566     1071.123   -3496.3763    394.68628   -989.85779   -688.26723   -412.55692      81.4408 
   71000    97.090742   -101.31842  0.087849743   -101.23057   -1438.7005    4.3360764    4.3360764    4.3360764   -1438.7005   -1762.9463   -3641.8541     1088.699    923.85475    1159.0535   -1289.7644    81.524994 
   71100    102.97626   -101.32336  0.093175083   -101.23018   -511.32719    4.3352567    4.3352567    4.3352567   -511.32719   -2479.2301   -2461.4752    3406.7237   -1147.4427   -1045.9894    187.94607    81.478767 
   71200    95.703704    -101.3172  0.086594722    -101.2306   -870.99764    4.3351243    4.3351243    4.3351243   -870.99764   -480.38948   -3641.4964     1508.893    253.15214    1525.4528   -1268.6631    81.471305 
   71300     110.0968   -101.32992  0.099617898   -101.23031     108.1053    4.3359336    4.3359336    4.3359336     108.1053   -274.01883   -2916.7501    3515.0848   -359.93724     284.7353    31.031327    81.516942 
   71400     81.89321   -101.30459  0.074098697   -101.23049   -571.18191    4.3344542    4.3344542    4.3344542   -571.18191   -2732.5681    -3039.589    4058.6114    -737.9155    520.52693   -1010.5116    81.433529 
   71500    102.87652   -101.32351  0.093084834   -101.23043   -1049.9817    4.3363644    4.3363644    4.3363644   -1049.9817    -792.3551   -3739.7765    1382.1865     459.1376    1255.2966   -799.77978    81.541238 
   71600     120.8667   -101.33956   0.10936273    -101.2302   -403.19898    4.3346418    4.3346418    4.3346418   -403.19898    844.12599   -3210.8664    1157.1435   -1107.1146   -626.71564   -294.83908    81.444102 
   71700    79.859285   -101.30279  0.072258359   -101.23053   -1471.4386    4.3358785    4.3358785    4.3358785   -1471.4386   -2883.8368   -3505.3959    1974.9169    523.18152    819.45954   -1479.9911    81.513835 
   71800     104.1622   -101.32445  0.094248152    -101.2302    128.76244     4.335376     4.335376     4.335376    128.76244    164.62167   -3145.3876    3367.0532   -947.67929   -222.18033    558.26623    81.485494 
   71900     105.2181   -101.32576   0.09520355   -101.23056   -507.88633    4.3348909    4.3348909    4.3348909   -507.88633    792.12703   -3225.6658    909.87976    26.445901    14.213977   -1566.1881    81.458147 
   72000     91.64561   -101.31333  0.082922874   -101.23041   -226.14282    4.3361979    4.3361979    4.3361979   -226.14282   -169.77628   -3516.5463    3007.8941   -202.90575    -170.4606    149.00934    81.531848 
   72100     101.2466   -101.32194   0.09161005   -101.23033   -325.74667    4.3342816    4.3342816    4.3342816   -325.74667   -2047.7329   -1876.3015    2946.7944   -646.49428   -481.72878   -810.02671    81.423799 
   72200    106.14845   -101.32666  0.096045351   -101.23062   -632.34465    4.3364104    4.3364104    4.3364104   -632.34465    1266.4375   -4444.1317    1280.6603    756.94864   -527.62686   -957.91907    81.543837 
   72300    106.95588   -101.32704   0.09677593   -101.23026    483.86362    4.3344274    4.3344274    4.3344274    483.86362    -695.2372   -1771.6422    3918.4703    -1232.009    -174.5852    441.90159     81.43202 
   72400    75.576081   -101.29897  0.068382827   -101.23059   -932.68847    4.3357614    4.3357614    4.3357614   -932.68847   -2366.9615   -3469.6432    3038.5392    884.35898    409.61776   -1188.2391     81.50723 
   72500    112.52356   -101.33216   0.10181369   -101.23035    458.04073    4.3353686    4.3353686    4.3353686    458.04073    2718.6142   -3235.6349    1891.1429   -812.54552      -368.84    186.39637    81.485076 
   72600    114.58061   -101.33407   0.10367494    -101.2304   -738.84326    4.3347843    4.3347843    4.3347843   -738.84326     -38.4701   -2611.6369    433.57723   -25.701327    1183.0339   -511.03023    81.452138 
   72700    70.998682    -101.2948  0.064241099   -101.23056   -84.961635    4.3362165    4.3362165    4.3362165   -84.961635    309.56254   -3757.9642    3193.5167    489.69418   -427.04785   -1007.0035    81.532895 
   72800    126.56188   -101.34467   0.11451585   -101.23015    173.69728    4.3342117    4.3342117    4.3342117    173.69728   -202.82402   -1842.2187    2566.1345   -952.49352    603.08388    270.36347    81.419863 
   72900    90.482742   -101.31253  0.081870686   -101.23066    507.69382    4.3361269    4.3361269    4.3361269    507.69382    2994.4727   -4075.8858    2604.4945    959.17821    1372.4073   -1145.1098    81.527843 
   73000    100.18481   -101.32081  0.090649317   -101.23016    162.73098    4.3346796    4.3346796    4.3346796    162.73098   -1768.7587   -1655.6416    3912.5932   -891.62073   -735.90576    13.492572    81.446233 
   73100    86.729213   -101.30896  0.078474415   -101.23048    283.67336    4.3353439    4.3353439    4.3353439    283.67336     563.4985   -2405.8171    2693.3387    157.60308    2075.5071   -475.43893    81.483683 
   73200    123.81841   -101.34242    0.1120335   -101.23038   -170.93009    4.3357014    4.3357014    4.3357014   -170.93009    2589.0607   -4004.3438    902.49284   -64.256654    -1405.652   -893.44029    81.503845 
   73300    94.234643   -101.31557  0.085265485   -101.23031    330.19659    4.3343816    4.3343816    4.3343816    330.19659   -1498.7796    -673.8541    3163.2235   -484.77871      332.205    5.3915277    81.429437 
   73400    76.658722   -101.29997  0.069362423   -101.23061   -363.35571    4.3363605    4.3363605    4.3363605   -363.35571    909.44671   -4878.0569    2878.5431    353.71977   -206.46957   -1104.1385    81.541022 
   73500    136.30917   -101.35356    0.1233354   -101.23022      747.127    4.3340687    4.3340687    4.3340687      747.127    1739.5142   -1062.2277    1564.0945   -572.71056   -916.54333    235.55362    81.411802 
   73600    78.146525   -101.30132  0.070708618   -101.23061    462.92657    4.3360355    4.3360355    4.3360355    462.92657     3107.774   -4207.7202    2488.7259     68.52605     527.1883   -800.18931     81.52269 
   73700     98.82295   -101.31972  0.089417082    -101.2303   -126.06151    4.3347985    4.3347985    4.3347985   -126.06151   -1018.7729   -1474.3473    2114.9356    -414.6576    -1012.144   -60.056485    81.452936 
   73800    105.66847    -101.3261  0.095611055   -101.23049    1481.5735    4.3350632    4.3350632    4.3350632    1481.5735    3772.7668   -2543.6593    3215.6131   -172.12997   -318.07695   -451.13835    81.467858 
   73900    110.89064   -101.33083   0.10033618   -101.23049   -552.50222    4.3358358    4.3358358    4.3358358   -552.50222    968.76843   -3811.9358    1185.6607    22.080626    -74.35372   -678.39372    81.511425 
   74000    79.272428   -101.30206  0.071727359   -101.23034    1242.0822    4.3342385    4.3342385    4.3342385    1242.0822   -1374.1057    84.506368    5015.8459   -354.97229    59.531566     285.8122    81.421373 
   74100    103.53431   -101.32423  0.093680019   -101.23055   -603.44809    4.3362906    4.3362906    4.3362906   -603.44809    2358.9893   -4987.4826    818.14906    567.59723    286.53856   -1021.7197    81.537075 
   74200    125.11478   -101.34348   0.11320648   -101.23028    743.72385    4.3342526    4.3342526    4.3342526    743.72385    1915.4439   -654.88012    970.60781   -644.19512     909.8169    310.29028    81.422166 
   74300    70.051354    -101.2939  0.063383937   -101.23052    180.35766    4.3358204    4.3358204    4.3358204    180.35766    1381.1436   -3386.6534    2546.5828    598.36383   -315.22374   -602.49118    81.510555 
   74400    105.94197   -101.32633  0.095858517   -101.23048   -258.24848    4.3351477    4.3351477    4.3351477   -258.24848    376.87552   -2289.6144    1137.9934   -75.901457    586.72397   -925.35055    81.472621 
   74500    115.99143   -101.33535   0.10495148    -101.2304    1854.6813    4.3347362    4.3347362    4.3347362    1854.6813    4758.4341   -2341.0593     3146.669     50.03881    395.27645    526.23863    81.449421 
   74600    90.546313   -101.31242  0.081928207   -101.23049   -1174.8747     4.336116     4.336116     4.336116   -1174.8747   -604.63765   -3698.3508    778.36447     893.4586   -104.43799   -1813.0034     81.52723 
   74700    84.252428    -101.3066  0.076233368   -101.23037    1736.9748    4.3340982    4.3340982    4.3340982    1736.9748    1483.6541   -335.37963    4062.6499   -414.01321     935.9768    850.50486    81.413465 
   74800    129.25847   -101.34742   0.11695578   -101.23046   -806.53272    4.3362824    4.3362824    4.3362824   -806.53272    3109.1695   -4715.2891   -813.47847     700.4152   -899.89678   -1150.6706    81.536613 
   74900    88.842762    -101.3109  0.080386798   -101.23051    934.01619    4.3343799    4.3343799    4.3343799    934.01619    622.66736   -643.78414    2823.1654    18.543375   -108.63996   -513.98019    81.429339 
   75000    82.792847   -101.30532  0.074912708    -101.2304   -222.33208    4.3357001    4.3357001    4.3357001   -222.33208   -254.05564   -2443.5502    2030.6096   -163.39577   -327.89703    182.22283    81.503773 
   75100     120.2042   -101.33935   0.10876328   -101.23059     -547.232    4.3353788    4.3353788    4.3353788     -547.232    1281.2334   -3208.6532     285.7238    627.89958   -570.33713   -1603.7154    81.485651 
   75200    102.60738   -101.32322  0.092841312   -101.23038    1389.5764    4.3347498    4.3347498    4.3347498    1389.5764    3806.6974   -1377.2009    1739.2327   -379.56307    477.01288    869.10769    81.450193 
   75300     86.00773   -101.30827  0.077821602   -101.23045   -1782.4001    4.3361392    4.3361392    4.3361392   -1782.4001   -1439.8949   -3872.3374     -34.9678    113.82177   -517.60844   -1293.5253    81.528535 
   75400    91.513365    -101.3133  0.082803215   -101.23049    2435.0046    4.3341861    4.3341861    4.3341861    2435.0046    5069.5902   -944.84649    3180.2701     127.2102    49.158639    209.61502    81.418419 
   75500    139.32762    -101.3564   0.12606655   -101.23033   -1389.5304    4.3361584    4.3361584    4.3361584   -1389.5304    1410.7709   -4595.5322   -983.82984   -718.23212   -307.44216   -487.43787    81.529617 
   75600    53.885457   -101.27942  0.048756694   -101.23067    1196.3633    4.3346699    4.3346699    4.3346699    1196.3633   -72.240959   -676.54466    4337.8755    675.81361    708.99178     -751.382    81.445689 
   75700    121.71734   -101.34032   0.11013241   -101.23019   -892.07993    4.3354593    4.3354593    4.3354593   -892.07993    104.15825   -2862.4797    82.081673   -541.26834   -458.56407    121.61165    81.490195 
   75800    110.72363   -101.33078   0.10018507   -101.23059    54.730895    4.3355164    4.3355164    4.3355164    54.730895    2406.4983   -3056.7833    814.47766    620.10647    1608.5832   -1083.4487    81.493413 
   75900    85.512459   -101.30774   0.07737347   -101.23037    390.77023    4.3346948    4.3346948    4.3346948    390.77023    1229.8561   -1060.2604    1002.7149   -83.336715   -1160.6828    293.02306    81.447091 
   76000    93.278439   -101.31492  0.084400292   -101.23052   -1282.3034    4.3360424    4.3360424    4.3360424   -1282.3034   -1352.9165   -3294.4723    800.47873    380.20271     700.5481    -1054.662    81.523077 
   76100    108.48431   -101.32877  0.098158879   -101.23062    1710.8442    4.3344408    4.3344408    4.3344408    1710.8442    5037.8469   -1872.1514    1966.8372    315.94874   -4.7459436   -221.05794    81.432776 
   76200     123.9761   -101.34247   0.11217618   -101.23029   -1812.0516     4.335953     4.335953     4.335953   -1812.0516   -1843.7031   -3154.1632   -438.28857     238.2041   -926.66086   -443.34989    81.518035 
   76300      46.8097   -101.27307    0.0423544   -101.23072    1384.2563    4.3349099    4.3349099    4.3349099    1384.2563    1740.1981   -1691.9615    4104.5322    990.97014    1899.1413   -1089.2556    81.459215 
   76400    151.41886   -101.36717   0.13700697   -101.23016   -1128.0831    4.3354638    4.3354638    4.3354638   -1128.0831    1713.9012   -3402.8743   -1695.2762   -170.88091   -2279.5912    510.02852    81.490444 
   76500    78.207841   -101.30145  0.070764098   -101.23069     1027.166    4.3354048    4.3354048    4.3354048     1027.166    2348.1828   -2824.4931    3557.8083    1255.0437     1610.864   -1478.2161    81.487119 
   76600    88.529784   -101.31041  0.080103609   -101.23031   -960.32394    4.3349812    4.3349812    4.3349812   -960.32394   -1713.1236   -1620.8201    452.97189   -418.54148   -1214.7141    347.63836    81.463238 
   76700    113.37896   -101.33308   0.10258766    -101.2305   -676.73662    4.3358386    4.3358386    4.3358386   -676.73662   -991.07932    -3244.794    2205.6635    532.19547    237.44503   -725.11713    81.511582 
   76800    108.14447   -101.32837  0.097851386   -101.23052    305.84296    4.3349997    4.3349997    4.3349997    305.84296    2953.7178    -2356.399    320.21009    429.13226    1108.8305   -807.05669    81.464277 
   76900    97.364802   -101.31836  0.088097719   -101.23026   -1383.5646    4.3355398    4.3355398    4.3355398   -1383.5646   -3299.2385    -1845.498    994.04283   -543.54448   -829.15522    428.90337     81.49473 
   77000    64.685214   -101.28925  0.058528541   -101.23072    1635.8665     4.335127     4.335127     4.335127    1635.8665    4112.5176   -2528.6384    3323.7204    1073.2528    1417.5032   -1444.7494    81.471455 
   77100     157.6702   -101.37288   0.14266331   -101.23022   -1138.8086    4.3351832    4.3351832    4.3351832   -1138.8086    922.44606   -2942.8006   -1396.0712   -743.10905   -805.62589    436.66402    81.474622 
   77200    54.205597   -101.27977  0.049046363   -101.23072     1117.273    4.3354588    4.3354588    4.3354588     1117.273    326.09607   -2282.6004    5308.3234    203.01941    886.35466   -847.93296    81.490164 
   77300     113.3035   -101.33286   0.10251938   -101.23034   -1639.8111    4.3351171    4.3351171    4.3351171   -1639.8111   -2165.2985   -2483.7932   -270.34165    319.85986   -92.553952   -715.85986    81.470895 
   77400    116.40773   -101.33584   0.10532816   -101.23051    825.25071    4.3353167    4.3353167    4.3353167    825.25071    1765.0508   -3112.5992    3823.3005   -790.21033    284.56395    148.59377    81.482153 
   77500    89.356595   -101.31139  0.080851725   -101.23054   -441.40779    4.3352545    4.3352545    4.3352545   -441.40779     779.0591   -2388.9249    285.64248    1227.6238   -242.37963   -1359.7912    81.478644 
   77600    85.627602   -101.30784  0.077477653   -101.23036   -437.46276    4.3352223    4.3352223    4.3352223   -437.46276   -2793.7037   -1886.9359    3368.2514   -691.95914   -666.69845    342.74836    81.476829 
   77700    102.10371   -101.32298  0.092385582   -101.23059    688.16718    4.3354009    4.3354009    4.3354009    688.16718     2930.804   -2772.3449    1906.0425    889.03421    450.28234   -1010.4811      81.4869 
   77800    137.05764   -101.35419   0.12401264   -101.23018   -1409.5672    4.3352033    4.3352033    4.3352033   -1409.5672   -2088.3903   -2629.1981    488.88686   -24.718066   -1538.6274   -247.20441    81.475757 
   77900    48.053101   -101.27407  0.043479456   -101.23059    1123.5025    4.3353394    4.3353394    4.3353394    1123.5025   -632.67303   -1171.5974    5174.7779    184.64167    1525.2584   -297.48859    81.483429 
   78000      135.451   -101.35291   0.12255892   -101.23035   -1353.4213    4.3354879    4.3354879    4.3354879   -1353.4213    521.65448   -3980.8483   -601.06996    681.79877   -1718.1345   -783.96982    81.491806 
   78100    94.032913    -101.3156  0.085082956   -101.23052     2281.132    4.3348543    4.3348543    4.3348543     2281.132    3361.1273    -1753.445    5235.7137   -107.99393    1030.6008    280.62624    81.456081 
   78200    86.550678   -101.30876  0.078312872   -101.23045   -1633.4141    4.3356977    4.3356977    4.3356977   -1633.4141   -2385.0164   -3243.3751    728.14934    1011.4812    6.1306489   -936.63991    81.503637 
   78300    94.250546   -101.31577  0.085279875   -101.23049     662.7126    4.3348747    4.3348747    4.3348747     662.7126   -1147.3751   -1896.8277    5032.3405   -500.03453   -199.01868    323.93053     81.45723 
   78400     131.7876   -101.34972   0.11924419   -101.23048   -971.68236    4.3357485    4.3357485    4.3357485   -971.68236     383.2978   -3727.9045     429.5596    916.27949    1887.8137   -663.07518    81.506503 
   78500    86.721775   -101.30889  0.078467684   -101.23042   -255.93091    4.3350083    4.3350083    4.3350083   -255.93091   -2372.4123   -1926.6673    3531.2869   -478.99219   -559.90077   -296.27974    81.464762 
   78600    73.950228   -101.29741   0.06691172    -101.2305    815.88282    4.3350509    4.3350509    4.3350509    815.88282    455.29351   -1592.4263    3584.7813    366.61552    1054.7908    53.621711    81.467167 
   78700    136.39884   -101.35384   0.12341653   -101.23043   -394.44931    4.3354796    4.3354796    4.3354796   -394.44931    1838.6523   -3785.4628     763.4626    409.42882    241.39234   -1018.3565    81.491338 
   78800    81.680954   -101.30433  0.073906643   -101.23043    1686.6855     4.334711     4.334711     4.334711    1686.6855     828.6906   -770.76862    5002.1346   -517.93207    10.465183    464.91414    81.448002 
   78900     93.38795   -101.31488   0.08449938   -101.23038   -1720.6417     4.335958     4.335958     4.335958   -1720.6417   -3386.9235   -3133.3172    1358.3155    818.38031     256.3943   -1125.6217    81.518317 
   79000    111.19845   -101.33115   0.10061469   -101.23053    1844.6737    4.3345848    4.3345848    4.3345848    1844.6737    2530.8005    -2248.855    5252.0756   -661.31736    136.88734   -147.33925    81.440892 
   79100    118.45917   -101.33763   0.10718434   -101.23045   -860.60504    4.3356661    4.3356661    4.3356661   -860.60504   -131.55706   -3180.2427    729.98461    222.26798   -1490.9955   -214.35191    81.501853 
   79200    56.411204   -101.28162  0.051042043   -101.23058    604.45324    4.3351647    4.3351647    4.3351647    604.45324   -1131.5537   -2540.5801    5485.4935    369.24875    512.22323   -1186.7671     81.47358 
   79300    118.74666   -101.33779   0.10744447   -101.23035   -64.588978    4.3350425    4.3350425    4.3350425   -64.588978    522.21934   -2417.4856    1701.4994   -542.47231   -1449.1733    727.65814    81.466693 
   79400     120.7711   -101.33978   0.10927623   -101.23051   -392.07016    4.3357152    4.3357152    4.3357152   -392.07016    186.17848   -3884.0001    2521.6112    953.66423   -329.81355   -1536.9523    81.504621 
   79500    75.606401   -101.29876   0.06841026   -101.23035    586.30349    4.3345894    4.3345894    4.3345894    586.30349   -1779.3419   -616.72805    4154.9804   -649.85831    555.20369    568.88225     81.44115 
   79600    103.92084   -101.32448  0.094029761   -101.23045   -640.65091    4.3359488    4.3359488    4.3359488   -640.65091   -461.70949   -3374.8178    1914.5746    410.17367   -1579.3953   -703.96904    81.517799 
   79700     112.3688   -101.33218   0.10167366   -101.23051    2301.5938    4.3345193    4.3345193    4.3345193    2301.5938    4987.5516   -2301.2662    4218.4959    107.21226    1434.6994   -365.93209    81.437195 
   79800    95.079674   -101.31639  0.086030088   -101.23036   -393.93399    4.3353778    4.3353778    4.3353778   -393.93399    -1160.196   -1792.5048    1770.8989   -177.73024   -463.47918    467.63839    81.485598 
   79900    68.036472   -101.29216   0.06156083    -101.2306    828.71201    4.3352798    4.3352798    4.3352798    828.71201     366.2398   -2992.8016    5112.6979     756.9898    656.71907   -991.39292    81.480071 
   80000    149.08557    -101.3651   0.13489575   -101.23021    -215.6072    4.3347816    4.3347816    4.3347816    -215.6072    655.30834   -2151.7855    849.65555    -301.1764    1458.0692    716.04321    81.451981 
   80100    86.756666   -101.30905  0.078499255   -101.23055   -207.84327    4.3359169    4.3359169    4.3359169   -207.84327   -523.93021   -3952.2485    3852.6489    633.04743   -280.23674   -731.40257    81.515999 
   80200     75.39128   -101.29859  0.068215614   -101.23037    246.74352    4.3344105    4.3344105    4.3344105    246.74352    -1103.604   -981.83594    2825.6705   -165.56386    1057.2408   -32.845231    81.431064 
   80300    122.94396   -101.34173   0.11124228   -101.23048   -173.85594    4.3358747    4.3358747    4.3358747   -173.85594    2143.5248   -4524.0033    1858.9106    317.30535   -141.89824    140.32019    81.513618 
   80400    98.750174   -101.31996  0.089351232    -101.2306    1016.5459    4.3348779    4.3348779    4.3348779    1016.5459    2390.4591   -2037.0603     2696.239    362.87243     432.2927   -815.70059     81.45741 
   80500     90.59197   -101.31222  0.081969518   -101.23025    -894.9279    4.3354219    4.3354219    4.3354219    -894.9279   -2306.4217    -2274.908    1896.5461    5.1392996   -472.47747    639.36179    81.488083 
   80600    91.623036   -101.31353  0.082902448   -101.23062    1056.5746    4.3355129    4.3355129    4.3355129    1056.5746    2281.3319   -2935.0544    3823.4463    626.45411    379.66147   -1059.1887    81.493217 
   80700    145.01153   -101.36143   0.13120948   -101.23022   -95.590675    4.3346632    4.3346632    4.3346632   -95.590675    1648.1008   -2284.0857    349.21282   -237.12809   -1689.4085    280.20366    81.445309 
   80800    51.542323   -101.27725  0.046636577   -101.23061    649.89187    4.3359247    4.3359247    4.3359247    649.89187    326.61196   -2736.1023    4359.1659     273.7033   -68.398015   -459.48399     81.51644 
   80900    104.70449   -101.32507  0.094738825   -101.23033   -390.67196    4.3345685    4.3345685    4.3345685   -390.67196    182.20248   -2201.8475    847.62913    32.031874    -408.0376    -598.2901    81.439969 
   81000    129.24332   -101.34731   0.11694207   -101.23037     219.9239    4.3356807    4.3356807    4.3356807     219.9239     2672.074   -4046.9205    2034.6182    -218.3006   -1529.5613     617.6353    81.502677 
   81100    81.537987   -101.30425  0.073777285   -101.23047   -727.56617    4.3351589    4.3351589    4.3351589   -727.56617   -1733.2492   -2333.7776    1884.3282    554.09405    2013.3614   -1428.9257    81.473253 
   81200    93.819393   -101.31521  0.084889759   -101.23032   -515.55701    4.3350614    4.3350614    4.3350614   -515.55701   -810.19678   -2868.7543      2132.28    -444.6127   -2241.3411    1159.5476    81.467754 
   81300    112.51072   -101.33238   0.10180207   -101.23058    643.93922    4.3357633    4.3357633    4.3357633    643.93922    4044.1498   -3804.3421      1692.01    474.08324    1551.8131   -1392.3638    81.507334 
   81400    110.61341   -101.33043   0.10008534   -101.23034   -152.88815    4.3344432    4.3344432    4.3344432   -152.88815    1160.6277   -2126.7538     507.4616   -135.47481    150.46362    574.43802    81.432911 
   81500    57.090269   -101.28216  0.051656475    -101.2305    396.53832    4.3360447    4.3360447    4.3360447    396.53832    841.00663   -2813.2585    3161.8668   -14.635647   -328.53554   -188.41579    81.523207 
   81600    133.71843   -101.35141   0.12099124   -101.23042   -840.31776    4.3347765    4.3347765    4.3347765   -840.31776    766.26314   -2740.4027   -546.81373     785.8084    2372.6003   -616.98669    81.451699 
   81700    112.46208   -101.33213   0.10175806   -101.23037    201.44446    4.3357536    4.3357536    4.3357536    201.44446    1875.0606   -3608.5153    2337.7881   -276.10956   -1048.7206    939.07782    81.506786 
   81800    67.440325   -101.29152  0.061021423    -101.2305    -1573.875    4.3355058    4.3355058    4.3355058    -1573.875   -3057.6044   -2166.3783    502.35764    1256.8471    827.86304   -1222.0306    81.492815 
   81900    108.49983   -101.32864  0.098172927   -101.23047   -87.552853     4.335001     4.335001     4.335001   -87.552853     2285.321   -3952.1759    1404.1964   -96.822612    190.67907    770.62895     81.46435 
   82000    120.64425    -101.3397   0.10916145   -101.23054   -594.59057    4.3360344    4.3360344    4.3360344   -594.59057    2353.1151   -3642.7947   -494.09214    748.72521   -886.38859   -485.48708    81.522624 
   82100     77.35331   -101.30043    0.0699909   -101.23043   -975.24445    4.3346326    4.3346326    4.3346326   -975.24445   -1187.3424   -2880.8281    1142.4372    734.88329    612.06466   -275.39147    81.443582 
   82200    91.845358   -101.31345   0.08310361   -101.23035   -337.43031    4.3360787    4.3360787    4.3360787   -337.43031    962.76825   -3562.7888    1587.7296   -72.148044   -675.40177    576.45765    81.525126 
   82300    135.93032   -101.35343   0.12299261   -101.23044   -910.18985    4.3348689    4.3348689    4.3348689   -910.18985    1556.6679   -3326.9811   -960.25634    1461.6061   -765.48883   -1038.0733    81.456907 
   82400    79.905573   -101.30267  0.072300242   -101.23037    334.88778    4.3354555    4.3354555    4.3354555    334.88778     2007.062   -3328.2946     2325.896   -442.46888   -321.81396    688.62609     81.48998 
   82500    81.137114   -101.30384  0.073414565   -101.23043   -1495.3158    4.3355883    4.3355883    4.3355883   -1495.3158   -1327.9735   -2125.1963   -1032.7777    973.72963   -240.63667    -803.0834    81.497468 
   82600    121.97483   -101.34083   0.11036539   -101.23047    348.72485    4.3347445    4.3347445    4.3347445    348.72485    4003.7331   -4262.3943    1304.8358   -35.426378   -591.60052    28.013999    81.449892 
   82700    111.08965   -101.33087   0.10051625   -101.23035   -1595.5515    4.3362277    4.3362277    4.3362277   -1595.5515   -1028.1893   -2526.3206   -1232.1446   -2.0512695    1212.2427    91.789109     81.53353 
   82800    62.810681   -101.28738  0.056832424   -101.23055   -1139.6776    4.3345916    4.3345916    4.3345916   -1139.6776   -2424.1928    -3301.826     2306.986    684.21599   -571.74376   -762.27876    81.441272 
   82900     126.0413   -101.34434   0.11404482    -101.2303   -726.11306    4.3362069    4.3362069    4.3362069   -726.11306    2583.7058    -3870.706   -891.33899    -450.4139    153.76054    748.92997    81.532357 
   83000    112.83342    -101.3326   0.10209405    -101.2305   -993.45649    4.3349665    4.3349665    4.3349665   -993.45649    1186.6032   -3784.7406   -382.23209    750.25818    1155.4137   -1187.7762    81.462405 
   83100    62.263997   -101.28677  0.056337773   -101.23043   -383.08085    4.3356469    4.3356469    4.3356469   -383.08085    1305.2653    -3514.974    1060.4662   -267.79072   -949.12128    717.13396    81.500771 
   83200    116.47191   -101.33578   0.10538624   -101.23039   -1590.0729    4.3357574    4.3357574    4.3357574   -1590.0729   -75.871833   -3419.8755   -1274.4714    456.05619    1820.4179   -714.09743    81.507005 
   83300    113.69779   -101.33341   0.10287615   -101.23053    98.577761    4.3349008    4.3349008    4.3349008    98.577761    2937.9376   -4170.4865    1528.2821    381.15789   -467.27603    15.531662    81.458705 
   83400    94.085078   -101.31541  0.085130156   -101.23028   -2033.6736    4.3362566    4.3362566    4.3362566   -2033.6736   -2183.3163   -2614.9409   -1302.7637    205.02919   -552.93174    297.91443    81.535158 
   83500    69.718855   -101.29371  0.063083085   -101.23062   -224.57005    4.3345761    4.3345761    4.3345761   -224.57005   -63.954696   -3019.6853    2409.9299    1158.7801    499.55809   -876.62921      81.4404 
   83600    146.67699   -101.36299   0.13271642   -101.23027   -1143.5965    4.3361242    4.3361242    4.3361242   -1143.5965    3631.9026   -4126.5317   -2936.1605   -86.767556   -1188.4398    768.13176    81.527691 
   83700    75.843555    -101.2991  0.068624842   -101.23048    -356.0611    4.3348754    4.3348754    4.3348754    -356.0611    -918.5043   -2360.7276    2211.0486    1452.3878   -158.91062   -877.42216    81.457271 
   83800     82.06935   -101.30464  0.074258073   -101.23038   -1440.9641    4.3356072    4.3356072    4.3356072   -1440.9641   -309.71776   -3981.2469   -31.927508    62.184976    613.24715    165.38232    81.498533 
   83900    132.11476   -101.34986   0.11954021   -101.23032   -322.66466    4.3356028    4.3356028    4.3356028   -322.66466    1835.9825   -3240.4104    436.43392    828.92529   -1655.4152    126.59567    81.498281 
   84000    95.655882   -101.31706  0.086551452    -101.2305   -536.85251     4.334816     4.334816     4.334816   -536.85251    1263.6188   -4074.3955    1200.2192    1031.8724    768.72343   -775.08494    81.453925 
   84100    78.909498   -101.30169  0.071398972   -101.23029   -1047.9228    4.3361541    4.3361541    4.3361541   -1047.9228    300.38434   -2832.1442   -612.00859   -273.09002   -404.28183    756.11306    81.529378 
   84200    104.04463    -101.3247   0.09414177   -101.23056    142.26486    4.3344436    4.3344436    4.3344436    142.26486    1726.0554   -3415.0844    2115.8236    1598.9388   -399.09457   -921.99366    81.432932 
   84300    130.04371   -101.34802   0.11766629   -101.23036   -1363.3865     4.336291     4.336291     4.336291   -1363.3865    2493.4892   -4120.1245   -2463.5243   -717.28005    1867.6594    280.25262    81.537102 
   84400    62.398584    -101.2869  0.056459551   -101.23044   -199.00108    4.3348301    4.3348301    4.3348301   -199.00108   -3309.3208   -1910.6207    4622.9382    791.61686   -907.00269    -131.6163    81.454718 
   84500    107.96313   -101.32821   0.09768731   -101.23052   -1402.6662     4.335706     4.335706     4.335706   -1402.6662    863.96659   -3816.7491    -1255.216    32.781037    823.84672    -546.0411    81.504104 
   84600    126.31213   -101.34468   0.11428987   -101.23039    708.53128    4.3354272    4.3354272    4.3354272    708.53128    2876.9105    -2870.984    2119.6673   -252.46015    412.48963    607.04067    81.488384 
   84700    77.520921   -101.30066  0.070142559   -101.23052   -825.68482    4.3349022    4.3349022    4.3349022   -825.68482   -442.96418   -2855.7189    821.62857    638.58396   -803.60384   -896.67458    81.458781 
   84800    84.683173   -101.30705  0.076623115   -101.23042    210.07642    4.3359936    4.3359936    4.3359936    210.07642    2292.4252   -3158.5799     1496.384   -359.04519    1315.5847    441.05608    81.520324 
   84900    134.22341   -101.35179   0.12144817   -101.23035    228.87499    4.3343617    4.3343617    4.3343617    228.87499    1280.2511    -3111.063    2517.4369    408.13718   -853.45458   -449.65883    81.428313 
   85000    87.276081   -101.30939  0.078969232   -101.23042   -476.89501    4.3360354    4.3360354    4.3360354   -476.89501    1810.4602   -3609.0723    367.92706    30.220622   -107.03781   -209.37993    81.522683 
   85100    81.909643   -101.30437  0.074113566   -101.23026   -8.9979753    4.3347723    4.3347723    4.3347723   -8.9979753   -2164.6065    -2289.393    4427.0055    261.31177   -620.16877    343.20618    81.451458 
   85200    122.26935   -101.34112   0.11063188   -101.23049   -374.13245    4.3353962    4.3353962    4.3353962   -374.13245    3644.2707   -3368.6068   -1398.0613    400.89252   -436.72467   -786.50403    81.486634 
   85300    105.21699   -101.32554  0.095202542   -101.23034    651.46079    4.3354633    4.3354633    4.3354633    651.46079    1243.0391   -3045.1528    3756.4961    451.72281   -436.15139     674.8557    81.490419 
   85400    74.930907   -101.29819  0.067799059   -101.23039   -507.35848    4.3345518    4.3345518    4.3345518   -507.35848   -2345.0435   -1197.4901    2020.4581    667.02822     399.6787   -909.40008    81.439029 
   85500    102.57046   -101.32335  0.092807906   -101.23054    936.25734    4.3360676    4.3360676    4.3360676    936.25734    3193.0323   -3869.9682    3485.7079    191.24257   -66.571972    306.42395      81.5245 
   85600    136.99912   -101.35426   0.12395968    -101.2303    231.17118    4.3343527    4.3343527    4.3343527    231.17118   -180.07887   -1611.3926     2484.985    856.99002   -617.46167   -140.36174    81.427806 
   85700    55.413399   -101.28075  0.050139208   -101.23061    395.41387    4.3360282    4.3360282    4.3360282    395.41387    1787.7926   -3305.1492    2703.5983    11.360121    1477.5968    -478.4402    81.522275 
   85800    115.87486   -101.33516   0.10484601   -101.23031    291.31471    4.3347142    4.3347142    4.3347142    291.31471   -182.20848   -2184.9036    3241.0562    482.20215   -1499.4223    844.21401    81.448186 
   85900     118.9438   -101.33814   0.10762285   -101.23052    620.26608    4.3352854    4.3352854    4.3352854    620.26608    4105.8698   -3205.5439    960.47234    563.26035    2609.6548   -1165.2829    81.480385 
   86000     76.76121   -101.29987  0.069455156   -101.23042    344.17603    4.3355781    4.3355781    4.3355781    344.17603   -1405.7191   -3066.7938     5505.041   -523.35576   -584.08875    943.79632    81.496889 
   86100    98.862831   -101.31977  0.089453167   -101.23031   -62.080475    4.3344488    4.3344488    4.3344488   -62.080475   -1402.8809   -1305.6684    2522.3079    859.75393    264.14113   -739.15583    81.433225 
   86200    110.41212   -101.33051  0.099903205   -101.23061    1178.7827    4.3360407    4.3360407    4.3360407    1178.7827    3529.0967   -3923.6457     3930.897   -766.00449    1169.0825    134.34776    81.522982 
   86300    121.65403   -101.34025   0.11007513   -101.23017   -134.97083    4.3342549    4.3342549    4.3342549   -134.97083   -1671.5635   -1086.4592    2353.1102    169.10228   -1861.4294     560.4972    81.422295 
   86400      47.7685   -101.27381  0.043221943   -101.23059    1612.4642    4.3357386    4.3357386    4.3357386    1612.4642    1725.9565   -2186.6268     5298.063    54.563697    1938.7729     -950.987    81.505941 
   86500    145.23052   -101.36165   0.13140762   -101.23024    361.76628    4.3347981    4.3347981    4.3347981    361.76628    788.54931   -2709.0402    3005.7897   -436.39188   -1287.1958    1083.1353    81.452913 
   86600    90.495175   -101.31239  0.081881936    -101.2305    2183.2084    4.3347711    4.3347711    4.3347711    2183.2084    2774.4671   -1210.1198    4985.2778    358.30493    409.99875   -1009.5841    81.451392 
   86700    78.817526   -101.30175  0.071315754   -101.23044   -587.48733    4.3358282    4.3358282    4.3358282   -587.48733   -2132.1383   -3618.3191    3987.9954   -112.18029   -167.09187     222.2585    81.510996 
   86800    120.00937   -101.33906     0.108587   -101.23048    1079.6514    4.3341963    4.3341963    4.3341963    1079.6514    1572.2557   -842.73085    2509.4293   -54.882239   -738.91661    259.51282    81.418995 
   86900    107.22048   -101.32772  0.097015339   -101.23071    195.91399    4.3362632    4.3362632    4.3362632    195.91399    1962.9881   -4617.3729    3242.1267    469.59588    778.08786   -947.98097    81.535531 
   87000    92.469411   -101.31396  0.083668266   -101.23029   -160.34037     4.334184     4.334184     4.334184   -160.34037   -2934.3717   -930.54689    3383.8974     76.57606   -104.30755    1105.2167    81.418298 
   87100    71.189741   -101.29498  0.064413974   -101.23056    1823.7506    4.3357072    4.3357072    4.3357072    1823.7506    1619.3651   -2704.9578    6556.8446    299.21814    975.15023   -1252.3704    81.504169 
   87200    151.07978   -101.36705   0.13670016   -101.23035   -869.37109    4.3351452    4.3351452    4.3351452   -869.37109   -316.45467   -3229.3201    937.66155    596.47975    28.097409    730.55477    81.472484 
   87300    64.945037   -101.28926  0.058763634   -101.23049    2247.8438    4.3347705    4.3347705    4.3347705    2247.8438    413.51989   -367.53937    6697.5508   -81.735384    1035.6782   -423.17695    81.451358 
   87400    102.43405   -101.32311  0.092684477   -101.23043   -1600.6061     4.336121     4.336121     4.336121   -1600.6061   -1824.0182   -3859.2122     881.4121    426.17215   -246.41556    24.661235    81.527512 
   87500    123.11546   -101.34188   0.11139746   -101.23048    2250.2202    4.3340299    4.3340299    4.3340299    2250.2202    3401.4982   -634.16319    3983.3255    110.74161    1357.8469    606.69299    81.409618 
   87600    87.272268   -101.30963  0.078965782   -101.23067   -135.21499    4.3362409    4.3362409    4.3362409   -135.21499   -217.29152   -3989.7247    3801.3712    16.410085    327.89854   -530.76827    81.534271 
   87700    83.462077   -101.30604  0.075518241   -101.23052    -138.2684    4.3344347    4.3344347    4.3344347    -138.2684   -2069.4854   -1506.7015    3161.3817    57.539748    280.90723      1004.78    81.432427 
   87800     111.0687   -101.33095   0.10049729   -101.23045    1151.4271    4.3355311    4.3355311    4.3355311    1151.4271     2176.376   -2968.7742    4246.6796     144.7185    1005.9291     -694.671    81.494238 
   87900    125.36829   -101.34392   0.11343587   -101.23049   -2032.3813    4.3353857    4.3353857    4.3353857   -2032.3813   -1867.9279   -3493.0171   -736.19903   -462.45788   -1116.1982    881.51733    81.486042 
   88000    59.192246   -101.28403  0.053558388   -101.23047    1629.5421    4.3347072    4.3347072    4.3347072    1629.5421   -733.77802   -798.12264    6420.5269     220.9824    1543.8548   -199.07876    81.447789 
   88100    124.89496   -101.34346   0.11300758   -101.23045   -1784.7218    4.3362733    4.3362733    4.3362733   -1784.7218   -839.67553   -4206.1378   -308.35196   -331.45055   -741.17239    146.97659    81.536103 
   88200    100.19357    -101.3212  0.090657249   -101.23054    2256.6686    4.3340891    4.3340891    4.3340891    2256.6686    2687.8375   -1194.1223    5276.2905   -211.89441    1158.1412    539.15238    81.412951 
   88300    85.777367   -101.30802  0.077613164   -101.23041   -1205.7346     4.336271     4.336271     4.336271   -1205.7346   -2461.9361   -2790.3904    1635.1228    434.65448    312.92489   -901.00544     81.53597 
   88400    94.358606   -101.31609   0.08537765   -101.23071   -301.66774    4.3346406    4.3346406    4.3346406   -301.66774    264.79687   -2342.3687    1172.5686   -354.53011    160.81137    751.31852    81.444035 
   88500    130.91103   -101.34879   0.11845105   -101.23034    165.80978    4.3356617    4.3356617    4.3356617    165.80978    1838.5542   -2359.3832    1018.2584    360.67186    846.11503   -579.45847    81.501607 
   88600    88.906607   -101.31098  0.080444566   -101.23053   -2289.3796    4.3356342    4.3356342    4.3356342   -2289.3796   -2829.8503   -3943.8902   -94.398105    373.28187    259.43155   -144.92158    81.500053 
   88700    67.341499   -101.29145  0.060932003   -101.23052    1346.2838    4.3346944    4.3346944    4.3346944    1346.2838    367.68827   -1167.9843    4839.1474   -269.92913    1082.7877    819.82116    81.447067 
   88800    146.12988   -101.36256   0.13222139   -101.23034   -2417.7232    4.3362087    4.3362087    4.3362087   -2417.7232   -632.36421   -5052.1853   -1568.6201    893.60924     302.0138   -1257.2056    81.532459 
   88900    67.191469   -101.29146  0.060796253   -101.23066    960.02867    4.3344607    4.3344607    4.3344607    960.02867    663.53364   -1557.2901    3773.8424   -34.996906    1212.8656    1290.0087    81.433897 
   89000      110.552   -101.33022   0.10002977   -101.23019    -2489.017    4.3362338    4.3362338    4.3362338    -2489.017   -3590.4134   -3219.6734   -656.96415    302.23563   -930.82375   -807.93388     81.53387 
   89100    98.334217   -101.31972  0.088974866   -101.23075    136.66001    4.3348522    4.3348522    4.3348522    136.66001    2319.4402   -2719.0206    809.56045    636.74258    1418.2233    478.37753    81.455962 
   89200    122.09415   -101.34072   0.11047335   -101.23025   -496.88177    4.3354972    4.3354972    4.3354972   -496.88177    35.435631   -2237.4907    711.40971   -411.14371   -897.35998     786.2411    81.492331 
   89300    63.041701   -101.28756  0.057041456   -101.23052   -1122.0576    4.3356356    4.3356356    4.3356356   -1122.0576   -2077.2199   -3153.7336    1864.7807    609.02603    923.20001   -508.28185    81.500134 
   89400    102.90708   -101.32358  0.093112492   -101.23047    27.081487    4.3350259    4.3350259    4.3350259    27.081487    1972.1952   -2165.0241    274.07338   -322.81431    764.08863      1265.62    81.465753 
   89500    137.85468   -101.35501   0.12473381   -101.23028   -2029.5071    4.3360048    4.3360048    4.3360048   -2029.5071   -781.13894   -4120.2223   -1187.1602    231.76838   -1011.6164   -580.23903    81.520956 
   89600    53.814129   -101.27944  0.048692155   -101.23075   -672.63279    4.3349853    4.3349853    4.3349853   -672.63279   -893.43205    -2332.965    1208.4987   -148.09991    2118.3799    566.36947    81.463469 
   89700    129.79933   -101.34762   0.11744516   -101.23017   -2108.0344    4.3360195    4.3360195    4.3360195   -2108.0344   -2443.0478    -3608.021   -273.03441    168.37123   -1281.0475    133.55549    81.521786 
   89800    91.377585   -101.31336  0.082680359   -101.23068    309.01703    4.3350467    4.3350467    4.3350467    309.01703    2654.3319   -3453.7111    1726.4303   -235.33257    2061.1884   -50.296638    81.466926 
   89900    103.04141   -101.32344  0.093234037   -101.23021   -1536.1358    4.3356005    4.3356005    4.3356005   -1536.1358   -2447.2118   -2704.8081    543.61258    123.72925    633.47914    495.12135    81.498157 
   90000     76.22769    -101.2994  0.068972416   -101.23043   -248.61317    4.3353797    4.3353797    4.3353797   -248.61317   -135.69805   -2861.6171    2251.4756    292.29949     389.4248   -544.26727    81.485705 
   90100    127.12323   -101.34552   0.11502377   -101.23049   -1248.7163    4.3353559    4.3353559    4.3353559   -1248.7163    2183.9423     -2989.54   -2940.5512   -277.68216    1616.7269    545.70051    81.484364 
   90200     108.2145   -101.32821  0.097914758    -101.2303   -671.80927    4.3356576    4.3356576    4.3356576   -671.80927   -1181.9305   -2871.7758    2038.2785    1029.0132    -775.3494   -566.98165    81.501374 
   90300    61.003396    -101.2859  0.055197155    -101.2307   -972.84923     4.335131     4.335131     4.335131   -972.84923   -476.19101   -2568.3395    125.98277   -316.37495    1425.7127    401.75256     81.47168 
   90400    132.85849    -101.3505   0.12021315   -101.23028   -515.91773    4.3355027    4.3355027    4.3355027   -515.91773    210.97658   -3111.0146    1352.2849     682.7412   -554.53209    370.50052    81.492641 
   90500    90.703601   -101.31265  0.082070524   -101.23057   -103.35882    4.3351482    4.3351482    4.3351482   -103.35882    1734.5606    -3396.438     1351.801     442.1052    858.95935   -416.04722    81.472653 
   90600    87.765712   -101.30985  0.079412261   -101.23043   -1766.6482    4.3356139    4.3356139    4.3356139   -1766.6482   -3300.7747   -2775.3143    776.14419   -130.89944   -870.80456    1398.5586    81.498909 
   90700    109.82159   -101.32971  0.099368884   -101.23035    253.27698    4.3351879    4.3351879    4.3351879    253.27698    1864.9094   -3393.7206    2288.6422    1014.0421   -51.312522   -1051.9642     81.47489 
   90800    115.84945   -101.33543   0.10482302    -101.2306   -1304.8022    4.3354929    4.3354929    4.3354929   -1304.8022    566.81818   -3298.5357    -1182.689   -201.27632    -413.2871    1433.6297    81.492086 
   90900    81.261775    -101.3038  0.073527361   -101.23028    584.92256    4.3352465    4.3352465    4.3352465    584.92256   -1203.8659   -2808.5736    5767.2072    457.06847   -432.11206   -96.448351    81.478192 
   91000    89.149807   -101.31116  0.080664619    -101.2305   -733.67003     4.335353     4.335353     4.335353   -733.67003    1257.1727   -2542.9617   -915.22114     195.2504    1335.3409    166.39378    81.484199 
   91100    123.72818   -101.34232   0.11195186   -101.23036    172.08815     4.335395     4.335395     4.335395    172.08815    1531.6364   -3416.0384    2400.6664   -173.94491   -948.90306    1262.9874    81.486564 
   91200    93.102756   -101.31455   0.08424133   -101.23031   -311.58126    4.3351496    4.3351496    4.3351496   -311.58126    605.99742   -2170.9242    630.18301     314.1525    1804.4878   -949.68695    81.472732 
   91300    83.663273   -101.30633  0.075700288   -101.23063   -1126.8883    4.3355693    4.3355693    4.3355693   -1126.8883   -2236.3735   -3205.6648    2061.3733   -112.17078   -320.95934    1200.8486    81.496395 
   91400    127.07932   -101.34525   0.11498404   -101.23026    1023.2533    4.3349985    4.3349985    4.3349985    1023.2533    3198.6655   -2955.1719    2826.2664    327.78238    1171.2991   -513.32498    81.464208 
   91500    92.193704   -101.31402  0.083418801    -101.2306   -861.92772    4.3355144    4.3355144    4.3355144   -861.92772   -1345.5929   -3551.2748    2311.0846   -201.51847    1606.1416    231.61364    81.493298 
   91600     75.25854    -101.2985  0.068095509    -101.2304    1025.9871    4.3349708    4.3349708    4.3349708    1025.9871    43.545071   -2600.4799    5634.8961    499.37443     142.2507    595.99864    81.462649 
   91700    126.89023   -101.34517   0.11481295   -101.23036   -577.43281    4.3353783    4.3353783    4.3353783   -577.43281    2109.4915   -3206.6705   -635.11935   -310.33255    1513.7763   -588.76143    81.485625 
   91800    95.940877   -101.31745  0.086809322   -101.23064     509.8986    4.3352799    4.3352799    4.3352799     509.8986    908.83295   -3345.7181     3966.581    532.22983   -509.96649    975.90523    81.480076 
   91900    100.20608   -101.32083  0.090668563   -101.23017   -115.96069    4.3350248    4.3350248    4.3350248   -115.96069   -46.793098    -2135.593    1834.5041    352.64167    67.200916    -713.6794    81.465692 
   92000    82.257302   -101.30518  0.074428135   -101.23075    394.24164    4.3354667    4.3354667    4.3354667    394.24164    541.88607   -3221.0691    3861.9079   -29.517847    58.285214    926.00435    81.490611 
   92100    130.25667   -101.34808   0.11785897   -101.23022    827.94946    4.3348527    4.3348527    4.3348527    827.94946    3616.0457   -2851.4105    1719.2131    1026.2338   -656.87695    22.731405    81.455989 
   92200    76.373308   -101.29959  0.069104174   -101.23048   -144.81914    4.3355495    4.3355495    4.3355495   -144.81914   -2083.9652   -2701.1095    4350.6173   -501.93062   -302.64484    455.38719    81.495278 
   92300    93.594266   -101.31514  0.084686059   -101.23046    277.94536    4.3350932    4.3350932    4.3350932    277.94536    1653.5415   -3048.1661    2228.4606    891.69383   -635.91094    930.76085    81.469552 
   92400    137.44843   -101.35455   0.12436623   -101.23018    404.05001    4.3352266    4.3352266    4.3352266    404.05001    1604.9919   -2963.8536    2571.0118   -75.296265   -954.60136   -419.53104    81.477073 
   92500    69.672826   -101.29373  0.063041437   -101.23069    404.39032    4.3352629    4.3352629    4.3352629    404.39032   -363.20997   -3554.7525    5131.1335    305.17439    202.37774    1459.1293    81.479116 
   92600    104.77066   -101.32494  0.094798695   -101.23014    514.45011    4.3349233    4.3349233    4.3349233    514.45011    936.46833   -2523.3547    3130.2367    340.83284    126.85432   -453.92616    81.459972 
   92700    97.669482   -101.31902  0.088373399   -101.23065    749.33717    4.3354275    4.3354275    4.3354275    749.33717    2529.2515   -3602.4989    3321.2589   -164.12679    387.37443    1031.8955    81.488397 
   92800    116.05503   -101.33533   0.10500903   -101.23032    -190.6299    4.3349191    4.3349191    4.3349191    -190.6299    2440.7055   -3223.9792    211.38399    212.79497    1060.3632    481.26555    81.459732 
   92900    80.053096   -101.30282  0.072433723   -101.23039    409.00882    4.3354864    4.3354864    4.3354864    409.00882   -1633.5596   -2196.9361    5057.5221   -350.27862    60.344381   -205.09498     81.49172 
   93000    107.65502   -101.32805  0.097408529   -101.23064   -424.88776    4.3351379    4.3351379    4.3351379   -424.88776    2896.9487   -3678.7468   -492.86518    321.18201    1274.4124    1012.4765    81.472071 
   93100    119.42383   -101.33826   0.10805719   -101.23021    1385.8544    4.3351119    4.3351119    4.3351119    1385.8544    907.79813   -2428.4833    5678.2483   -406.44918    893.06347   -610.12981    81.470606 
   93200    65.767193   -101.29019  0.059507539   -101.23068    -333.9901    4.3354055    4.3354055    4.3354055    -333.9901    -566.9356   -3565.4526    3130.4179      346.366    625.00316    746.44498    81.487157 
   93300     112.7556   -101.33238   0.10202363   -101.23036    586.66317    4.3349349    4.3349349    4.3349349    586.66317    2385.3252   -2627.8414    2002.5057   -207.70635    877.67808    187.28852    81.460623 
   93400    116.96055   -101.33628   0.10582836   -101.23045    157.06458    4.3356225    4.3356225    4.3356225    157.06458    1634.6779   -4055.4324    2891.9483   -120.61245   -546.35725   -21.782147    81.499398 
   93500    84.406116   -101.30691  0.076372428   -101.23054   -695.24151    4.3350505    4.3350505    4.3350505   -695.24151    501.52187   -3296.5806    709.33425    443.84162   -142.01532    888.68858    81.467144 
   93600    98.609614   -101.31944  0.089224051   -101.23022    663.76256    4.3355083    4.3355083    4.3355083    663.76256    9.7537092   -3108.5531    5090.0871   -426.08804   -469.13096   -570.32625    81.492956 
   93700    105.51088   -101.32613  0.095468461   -101.23066   -729.09572    4.3351825    4.3351825    4.3351825   -729.09572    3816.3938   -4000.9976   -2002.6834    747.10744   -342.37538    1146.9219    81.474582 
   93800    102.46698   -101.32293  0.092714274   -101.23022    639.48547    4.3352282    4.3352282    4.3352282    639.48547    306.56972    -3223.994    4835.8806   -149.45451   -592.14065    -286.3883    81.477164 
   93900    83.916714   -101.30642  0.075929606   -101.23049   -1057.1189    4.3355234    4.3355234    4.3355234   -1057.1189    268.29996   -2933.3681   -506.28852    145.88914   -189.79631    1015.6179    81.493807 
   94000    115.90267   -101.33549   0.10487117   -101.23062    -16.96009    4.3350215    4.3350215    4.3350215    -16.96009    2738.8983   -3704.5913    914.81278    405.08357   -994.81991    408.13059    81.465509 
   94100    113.78773   -101.33332   0.10295753   -101.23036    204.63803    4.3355863    4.3355863    4.3355863    204.63803   -39.897824   -3019.1979    3673.0099   -455.55611    287.13929    240.07661    81.497356 
   94200    65.785417   -101.29028  0.059524028   -101.23075   -850.41991    4.3350031    4.3350031    4.3350031   -850.41991    105.67526   -3563.5126    906.57757    678.34707    449.13122    1007.5787    81.464468 
   94300    116.03008   -101.33521   0.10498645   -101.23022    900.65548    4.3355156    4.3355156    4.3355156    900.65548    2334.7076   -3134.6536    3501.9124   -565.50001    156.35076   -279.31836    81.493366 
   94400    110.01925   -101.33015  0.099547726    -101.2306   -1610.5165    4.3352783    4.3352783    4.3352783   -1610.5165    2456.8366   -4404.5382   -2883.8477    370.31462    1605.2116    1015.6755    81.479985 
   94500    79.866976   -101.30271  0.072265318   -101.23044   -196.40911    4.3355153    4.3355153    4.3355153   -196.40911    -53.56432   -3635.3713    3099.7082   -531.25695   -382.26086    299.66349    81.493351 
   94600    115.61358   -101.33487    0.1046096   -101.23026   -1570.0419    4.3355734    4.3355734    4.3355734   -1570.0419    814.93424    -3443.471   -2081.5888   -220.15918    1113.1008    100.80805    81.496629 
   94700    94.754862   -101.31647  0.085736191   -101.23073   -389.99104    4.3352605    4.3352605    4.3352605   -389.99104    2865.2313   -4657.3114    622.10701    -157.8947    628.02079    885.39921     81.47898 
   94800    108.60031   -101.32837  0.098263844   -101.23011   -447.01524    4.3357101    4.3357101    4.3357101   -447.01524   -1096.2888   -2918.1729     2673.416   -701.81581    31.416802   -439.25334    81.504332 
   94900    71.325985   -101.29527   0.06453725   -101.23073   -1093.7419    4.3350892    4.3350892    4.3350892   -1093.7419    1612.9448   -3549.9173   -1344.2533    369.44906    906.06674    622.32347    81.469326 
   95000    128.27872   -101.34631   0.11606928   -101.23024    136.95921    4.3357352    4.3357352    4.3357352    136.95921    2619.5255   -3631.7384    1423.0905    -986.9981   -708.25626     323.6074    81.505751 
   95100    103.51287   -101.32412  0.093660618   -101.23046   -1366.9322    4.3351793    4.3351793    4.3351793   -1366.9322   -112.07393   -3406.0086   -582.71416    401.55607   -578.88777   -128.55057    81.474406 
   95200    64.738184   -101.28934  0.058576469   -101.23076   -321.51506     4.335584     4.335584     4.335584   -321.51506    610.35553   -3789.9968    2215.0961   -684.28963    86.234952    1087.0211    81.497223 
   95300    139.91591   -101.35673   0.12659886   -101.23013   -969.93703    4.3353833    4.3353833    4.3353833   -969.93703    1843.6326   -3412.8515   -1340.5922   -21.049268   -921.68513   -530.85965    81.485909 
   95400    71.346657   -101.29536  0.064555955    -101.2308   -503.62783    4.3352221    4.3352221    4.3352221   -503.62783    3056.2814   -4661.0543    93.889336    177.04642    334.74146    982.71448    81.476819 
   95500    113.54565   -101.33275   0.10273849   -101.23001   -1528.4443    4.3358152    4.3358152    4.3358152   -1528.4443   -1137.1851    -3240.579    -207.5688    -384.8994   -150.19434   -106.83912    81.510263 
   95600     88.29474   -101.31054  0.079890936   -101.23065   -772.54989    4.3349286    4.3349286    4.3349286   -772.54989    3002.0648   -3504.1314    -1815.583    583.42631   -592.08109    701.42388    81.460272 
   95700    119.13503   -101.33823   0.10779588   -101.23043   -1051.7145    4.3360553    4.3360553    4.3360553   -1051.7145    1275.7677   -4857.6001    426.68897   -535.46077     760.8463    528.12475    81.523804 
   95800    93.386875   -101.31481  0.084498407   -101.23031    -397.8024    4.3349123    4.3349123    4.3349123    -397.8024   -1454.3549   -2167.3064    2428.2541    287.31957    87.883864    210.42861    81.459354 
   95900    70.536414   -101.29465   0.06382283   -101.23083   -622.53797    4.3358212    4.3358212    4.3358212   -622.53797    2718.6203   -4459.4382   -126.79594   -230.93761     801.0248    840.78436    81.510601 
   96000    149.52153   -101.36531   0.13529022   -101.23002   -485.93636    4.3353845    4.3353845    4.3353845   -485.93636    1200.1438   -2901.2269    243.27405   -248.02538    1156.9471   -263.08179    81.485973 
   96100    61.188614   -101.28616  0.055364744    -101.2308    -571.9471    4.3353064    4.3353064    4.3353064    -571.9471    2288.0318     -3939.83   -64.043137     161.1416   -217.12967    963.70908    81.481571 
   96200    113.06492   -101.33259   0.10230351   -101.23028   -1570.3593    4.3359421    4.3359421    4.3359421   -1570.3593   -984.94197   -3249.3157   -476.82011   -808.38495    695.00074    156.08841    81.517417 
   96300    106.63849   -101.32702  0.096488748   -101.23053    173.52917     4.334753     4.334753     4.334753    173.52917    3701.7793   -3516.6489    335.45709     92.57625    -181.1604    177.39665    81.450373 
   96400    91.793001   -101.31376  0.083056236    -101.2307   -1488.7809    4.3361681    4.3361681    4.3361681   -1488.7809    325.12931   -4920.5492     129.0773    -885.0511    242.75248    1094.5154    81.530166 
   96500    101.15117   -101.32167  0.091523708   -101.23015    145.16387    4.3346687    4.3346687    4.3346687    145.16387   -409.22173   -2060.7856     2905.499   -293.30838   -40.475763   -988.85177    81.445619 
   96600    88.713632   -101.31102  0.080269959   -101.23075   -936.23021    4.3358412    4.3358412    4.3358412   -936.23021    4595.8512   -4597.2688   -2807.2731   -320.13933   -149.62314    1426.0381    81.511729 
   96700    133.67951   -101.35107   0.12095603   -101.23012   -98.797535    4.3351948    4.3351948    4.3351948   -98.797535   -1157.3357   -3135.9541    3996.8972   -716.28543   -845.75186   -574.43994    81.475278 
   96800    63.662687   -101.28826  0.057603337   -101.23066    213.94389    4.3349333    4.3349333    4.3349333    213.94389    1902.7738   -2131.5197    870.57765    141.24969   -123.90852    520.47764    81.460536 
   96900      110.645   -101.33066   0.10011392   -101.23055   -818.77638    4.3360085    4.3360085    4.3360085   -818.77638   -181.58558   -4140.6913    1865.9477   -892.46345   -51.926491    876.22771    81.521166 
   97000    115.64218   -101.33491   0.10463548   -101.23028    1330.1344    4.3343731    4.3343731    4.3343731    1330.1344    3756.3497   -1826.6981    2060.7516    238.38308     -295.259   -937.01358    81.428959 
   97100    76.334333   -101.29978  0.069068909   -101.23071   -1924.1558    4.3364253    4.3364253    4.3364253   -1924.1558   -277.37631   -4767.2531   -727.83787   -452.41629    1378.3796    1553.5024    81.544674 
   97200    111.86642   -101.33139   0.10121909   -101.23017    706.10944    4.3345796    4.3345796    4.3345796    706.10944     791.8865   -1503.5139    2829.9557    225.92919   -1008.1502   -995.28173    81.440595 
   97300    104.52865   -101.32524   0.09457972   -101.23066   -1137.6262    4.3359513    4.3359513    4.3359513   -1137.6262    4125.6856   -4817.6347   -2720.9296   -32.052961    1507.4956    1094.7599    81.517937 
   97400    97.347042   -101.31853   0.08808165   -101.23045    130.56746    4.3352432    4.3352432    4.3352432    130.56746   -3395.7298   -3207.4079      6994.84   -98.344536    56.131069    180.69695    81.478009 
   97500    90.493124   -101.31231   0.08188008   -101.23043    349.92391    4.3349757    4.3349757    4.3349757    349.92391    2965.7574   -1806.3158   -109.66987    169.53151    775.29396    107.40913    81.462928 
   97600    103.72653   -101.32459  0.093853947   -101.23074   -381.07888    4.3360604    4.3360604    4.3360604   -381.07888    239.01365   -5111.0366    3728.7863   -476.39444    1409.9615    884.46969    81.524091 
   97700    120.05281    -101.3387    0.1086263   -101.23008    1305.4422    4.3342021    4.3342021    4.3342021    1305.4422    2355.3565   -850.60723    2411.5775    318.02051   -631.31387   -544.32106    81.419323 
   97800    66.720869    -101.2911  0.060370445   -101.23073   -923.21397    4.3363541    4.3363541    4.3363541   -923.21397   -488.07377   -3993.8465    1712.2784   -512.92005    823.13739    1127.6971    81.540661 
   97900     123.3284   -101.34188   0.11159013   -101.23029    1270.4561     4.334335     4.334335     4.334335    1270.4561    1547.7915   -1479.6545    3743.2313    12.863701   -695.16581   -272.28608     81.42681 
   98000    103.48964   -101.32417  0.093639604   -101.23053    147.82107    4.3355666    4.3355666    4.3355666    147.82107    2960.9229   -3150.0544    632.59467   -345.62854    129.16367    753.07501    81.496242 
   98100    77.611068   -101.30082  0.070224125   -101.23059   -111.12326    4.3353787    4.3353787    4.3353787   -111.12326   -3162.4393   -2982.5649    5811.6344   -561.18761    38.372742     521.5363     81.48565 
   98200    120.32175   -101.33897   0.10886964    -101.2301    714.90898    4.3345943    4.3345943    4.3345943    714.90898    5060.9616   -1259.9952   -1656.2395   -157.79417   -195.91858   -291.66425    81.441424 
   98300    90.494062   -101.31263  0.081880929   -101.23075   -400.98226    4.3362449    4.3362449    4.3362449   -400.98226   -907.26501   -5488.4501    5192.7683   -504.75704   -298.95166    1171.9873    81.534499 
   98400    112.58472   -101.33197   0.10186902    -101.2301     761.5098    4.3341175    4.3341175    4.3341175     761.5098    408.45961   -716.41258    2592.4824   -210.12112   -145.74448   -761.96154    81.414554 
   98500    71.759561   -101.29559  0.064929559   -101.23066    143.23563    4.3363542    4.3363542    4.3363542    143.23563   -270.74637   -3802.9997     4503.453   -32.981332    246.19876    1192.8002    81.540665 
   98600    131.02954   -101.34906   0.11855828    -101.2305   -42.941184    4.3346226    4.3346226    4.3346226   -42.941184     573.0842    -2982.743    2280.8353   -437.04334    424.39647   -192.95331    81.443022 
   98700    90.499913   -101.31234  0.081886223   -101.23045    1005.1535    4.3356525    4.3356525    4.3356525    1005.1535    1374.8363   -1450.3239    3090.9481    78.256028    1463.2035    297.93935    81.501085 
   98800    83.393043   -101.30619  0.075455778   -101.23073   -1309.9828    4.3356715    4.3356715    4.3356715   -1309.9828   -2259.3787   -3840.7418    2170.1721   -138.92583   -104.00189    546.57644    81.502161 
   98900    124.96731   -101.34325   0.11307305   -101.23017    1691.1025    4.3344433    4.3344433    4.3344433    1691.1025    5207.6861   -358.33876    223.96017    2.4541597    1523.8901   -368.25244    81.432913 
   99000    86.064244   -101.30862  0.077872736   -101.23075   -1017.8635    4.3364945    4.3364945    4.3364945   -1017.8635   -3198.0206   -5235.4074    5379.8376    222.94488    48.140935    894.24547    81.548581 
   99100    100.02854   -101.32089  0.090507928   -101.23038     516.7167    4.3341049    4.3341049    4.3341049     516.7167     428.4225   -8.5254862    1130.2531    45.808224    1214.2221   -44.006958    81.413843 
   99200    100.97696   -101.32186  0.091366073   -101.23049    272.98582    4.3362492    4.3362492    4.3362492    272.98582    506.09106   -3919.5792    4232.4456   -40.655474    979.78237    486.33591    81.534741 
   99300    111.98366   -101.33188   0.10132517   -101.23056   -724.21058    4.3346769    4.3346769    4.3346769   -724.21058    -147.0931   -3254.3488    1228.8102    57.495856   -37.990402    574.53366    81.446082 
   99400    85.136817   -101.30724  0.077033581   -101.23021    1600.6341    4.3352515    4.3352515    4.3352515    1600.6341    356.07858   -754.25778    5200.0816   -235.14209    905.48711   -115.18004    81.478474 
   99500    96.521264   -101.31801  0.087334468   -101.23067    -1659.562    4.3358732    4.3358732    4.3358732    -1659.562   -1324.7968   -4714.2041    1060.3151   -38.087938   -937.37181    1091.2612    81.513534 
   99600    115.51308   -101.33479   0.10451866   -101.23027    1900.8139    4.3342092    4.3342092    4.3342092    1900.8139    2843.8979    -382.0783    3240.6221    58.667818    1041.5868   -114.32152    81.419719 
   99700    95.850948   -101.31731  0.086727952   -101.23058   -2003.4136    4.3367236    4.3367236    4.3367236   -2003.4136   -4373.2071   -4042.2695    2405.2359   -356.93307   -662.71307    908.36616    81.561507 
   99800    87.368624   -101.30985  0.079052967    -101.2308    362.31589    4.3341033    4.3341033    4.3341033    362.31589     2061.325   -452.22946   -522.14787    24.780347    1330.6017    562.40517    81.413754 
   99900    122.40274   -101.34111   0.11075257   -101.23036   -171.66346    4.3364893    4.3364893    4.3364893   -171.66346    522.85878   -3404.7394    2366.8903   -330.39221   -552.59407   -235.84211    81.548288 
  100000    82.426869    -101.3053  0.074581563   -101.23072   -1108.2126    4.3349043    4.3349043    4.3349043   -1108.2126   -1327.7285   -2977.8725     980.9633    -139.8205    657.24705    1294.2348    81.458901 
Loop time of 23.9547 on 1 procs for 100000 steps with 8 atoms

Pair  time (%) = 7.53813 (31.4682)
Kspce time (%) = 5.93021 (24.7559)
Neigh time (%) = 0 (0)
Comm  time (%) = 1.23017 (5.1354)
Outpt time (%) = 0.0329542 (0.137569)
Other time (%) = 9.22328 (38.5029)

Nlocal:    8 ave 8 max 8 min
Histogram: 1 0 0 0 0 0 0 0 0 0
Nghost:    2189 ave 2189 max 2189 min
Histogram: 1 0 0 0 0 0 0 0 0 0
Neighs:    2056 ave 2056 max 2056 min
Histogram: 1 0 0 0 0 0 0 0 0 0

Total # of neighbors = 2056
Ave neighs/atom = 257
Neighbor list builds = 0
Dangerous builds = 0
unfix 20
unfix 21
print "seeds:2657154"
seeds:2657154
