LAMMPS (10 Feb 2015)
# ---- initialize simulations
clear
units metal
dimension 3
boundary p p p
atom_style charge
atom_modify map array
# ---- create atoms
read_data /Users/eugeneragasa/pyflamestk_git/pypospack/tests/tests_integration/workflow/WorkflowLammpsThermalExpansion/param_4927/MgO_NaCl_unit.npt.T100/lammps.structure
  triclinic box = (0 0 0) to (4.2565 4.2565 4.2565) with tilt (0 0 0)
  1 by 1 by 1 MPI processor grid
  reading atoms ...
  8 atoms
# ---- define interatomic potential
include potential.mod
mass 1 24.305
mass 2 15.999

group Mg type 1
4 atoms in group Mg
group O type 2
4 atoms in group O

set group Mg charge 1.66679564584
  4 settings made for charge
set group O charge -1.66679564584
  4 settings made for charge

variable R_cut equal 10.0

pair_style buck/coul/long ${R_cut}
pair_style buck/coul/long 10
pair_coeff 1 1 0.0 0.5 0.0 ${R_cut}
pair_coeff 1 1 0.0 0.5 0.0 10
pair_coeff 1 2 1241.53975785 0.290586946924 0.0 ${R_cut}
pair_coeff 1 2 1241.53975785 0.290586946924 0.0 10
pair_coeff 2 2 7336.97641517 0.111647641293 25.3936876208 ${R_cut}
pair_coeff 2 2 7336.97641517 0.111647641293 25.3936876208 10

kspace_style pppm 1.0e-5

neighbor 1.0 bin
neigh_modify every 1 delay 0 check yes
# ---- define settings
compute eng all pe/atom
compute eatoms all reduce sum c_eng
# ---- run minimization
reset_timestep 0
fix 1 all box/relax iso 0.0 vmax 0.001
thermo 10
thermo_style custom step pe lx ly lz xy xz yz press pxx pyy pzz pxy pxz pyz c_eatoms
min_style cg
minimize 1e-25 1e-25 5000 10000
PPPM initialization ...
  G vector (1/distance) = 0.352901
  grid = 8 8 8
  stencil order = 5
  estimated absolute RMS force accuracy = 3.98348e-05
  estimated relative force accuracy = 2.76637e-06
  using double precision FFTs
  3d grid and FFT values/proc = 3375 512
Neighbor list info ...
  1 neighbor list requests
  update every 1 steps, delay 0 steps, check yes
  master list distance cutoff = 11
Memory usage per processor = 4.06549 Mbytes
Step PotEng Lx Ly Lz Xy Xz Yz Press Pxx Pyy Pzz Pxy Pxz Pyz eatoms 
       0    -112.5899       4.2565       4.2565       4.2565            0            0            0    58061.201    58061.201    58061.201    58061.201 6.8070985e-11 -1.221979e-10 1.2952011e-11    -112.5899 
      10   -112.63526     4.299065     4.299065     4.299065            0            0            0    6762.9013    6762.9013    6762.9013    6762.9013 -3.6532134e-11 6.5076144e-11 2.4224675e-10   -112.63526 
      13     -112.636    4.3051131    4.3051131    4.3051131            0            0            0   -6.5125139   -6.5125139   -6.5125139   -6.5125139 2.4815902e-11 -1.1583773e-10 3.0521581e-11     -112.636 
Loop time of 0.0101919 on 1 procs for 13 steps with 8 atoms

Minimization stats:
  Stopping criterion = linesearch alpha is zero
  Energy initial, next-to-last, final = 
        -112.589903458     -112.636003249     -112.636003249
  Force two-norm initial, final = 8.38407 0.00186563
  Force max component initial, final = 8.38407 0.000962014
  Final line search alpha, max atom move = 0.00390625 3.75787e-06
  Iterations, force evaluations = 13 30

Pair  time (%) = 0.00274682 (26.951)
Kspce time (%) = 0.00167298 (16.4148)
Neigh time (%) = 0 (0)
Comm  time (%) = 0.000314474 (3.08552)
Outpt time (%) = 1.19209e-05 (0.116965)
Other time (%) = 0.00544572 (53.4317)

Nlocal:    8 ave 8 max 8 min
Histogram: 1 0 0 0 0 0 0 0 0 0
Nghost:    2189 ave 2189 max 2189 min
Histogram: 1 0 0 0 0 0 0 0 0 0
Neighs:    2344 ave 2344 max 2344 min
Histogram: 1 0 0 0 0 0 0 0 0 0

Total # of neighbors = 2344
Ave neighs/atom = 293
Neighbor list builds = 0
Dangerous builds = 0
unfix 1
# ---- define output variables ----
variable natoms equal "count(all)"
variable tot_energy equal "c_eatoms"
variable length_x equal "lx"
variable length_y equal "ly"
variable length_z equal "lz"
variable tilt_xy equal "xy"
variable tilt_xz equal "xz"
variable tilt_yz equal "yz"
variable tot_press equal "press"
variable press_xx equal "pxx"
variable press_yy equal "pyy"
variable press_zz equal "pzz"
variable press_xy equal "pxy"
variable press_xz equal "pxz"
variable press_yz equal "pyz"

# ---- output ----
print "pypospack:output_section:begin"
pypospack:output_section:begin
print "tot_energy = ${tot_energy}"
tot_energy = -112.63600324896
print "num_atoms = ${natoms}"
num_atoms = 8
print "xx = ${length_x}"
xx = 4.30511307073731
print "yy = ${length_y}"
yy = 4.30511307073731
print "zz = ${length_z}"
zz = 4.30511307073731
print "xy = ${tilt_xy}"
xy = 0
print "xz = ${tilt_xz}"
xz = 0
print "yz = ${tilt_yz}"
yz = 0
print "tot_press = ${tot_press}"
tot_press = -6.51251387968517
print "pxx = ${press_xx}"
pxx = -6.51251387980119
print "pyy = ${press_yy}"
pyy = -6.51251387961014
print "pzz = ${press_zz}"
pzz = -6.51251387964418
print "pxy = ${press_xy}"
pxy = 2.48159019880152e-11
print "pxz = ${press_xz}"
pxz = -1.15837732664817e-10
print "pyz = ${press_yz}"
pyz = 3.05215812050655e-11
print "pypospack:output_section:done"
pypospack:output_section:done
print "pypospack:lammps_sim:done"
pypospack:lammps_sim:done
#------------------------------------------------------------------------------
# RUN THERMOSTAT
# running using an NPT Nose-Hoover style thermostat
#------------------------------------------------------------------------------
variable tempdamp equal 0.1
variable pressdamp equal 1.0
# set initial velocities
velocity all create 100 7362521 mom yes dist gaussian loop all
# fix for Nose-Hoover style thermostat
fix 20 all npt temp 100 100 0.1 aniso 0.0 0.0 1.0 drag 1.0 couple xyz
variable boxx equal lx
variable boxy equal ly
variable boxz equal lz
variable boxp equal press
variable boxt equal temp
# calculate averages every 10000 steps
reset_timestep 0
fix 21 all ave/time 10 10 100 v_boxx v_boxy v_boxz v_boxp v_boxt file lattice.out
thermo_style custom step temp pe ke etotal press lx ly lz press pxx pyy pzz pxy pxz pyz vol
thermo_modify flush yes
thermo 100
run 100000
PPPM initialization ...
  G vector (1/distance) = 0.352409
  grid = 8 8 8
  stencil order = 5
  estimated absolute RMS force accuracy = 4.075e-05
  estimated relative force accuracy = 2.82993e-06
  using double precision FFTs
  3d grid and FFT values/proc = 3375 512
Memory usage per processor = 3.06549 Mbytes
Step Temp PotEng KinEng TotEng Press Lx Ly Lz Press Pxx Pyy Pzz Pxy Pxz Pyz Volume 
       0          100   -112.63601  0.090482102   -112.54553     1203.242    4.3051131    4.3051131    4.3051131     1203.242    983.93561     1203.653    1422.1374    338.53443   -487.10534    115.21842    79.790959 
     100    30.645615   -112.55993  0.027728796    -112.5322    3767.1852    4.3056891    4.3056891    4.3056891    3767.1852    644.51976    4246.6598    6410.3761    138.43373    53.507543     274.7516    79.822994 
     200    74.679004   -112.57574  0.067571132   -112.50816    546.75021    4.3075693    4.3075693    4.3075693    546.75021   -100.04985    1362.1541    378.14635   -433.18092   -88.940579    749.42086    79.927606 
     300    72.504061    -112.5525  0.065603198    -112.4869    3400.7756    4.3086564    4.3086564    4.3086564    3400.7756    597.68252    4963.6436    4641.0007   -1159.9316    573.74445   -225.84107    79.988137 
     400    67.295051   -112.53217  0.060889977   -112.47128   -357.10267    4.3104031    4.3104031    4.3104031   -357.10267   -2489.2151    388.31132    1029.5958   -397.02683    273.60098    610.61634    80.085457 
     500    122.16067    -112.5702   0.11053355   -112.45967   -4808.6081    4.3119941    4.3119941    4.3119941   -4808.6081    -5830.134    -5572.537   -3023.1532    1315.2884    248.09875    252.97232    80.174171 
     600    104.12495   -112.54899  0.094214445   -112.45478    417.20534    4.3119219    4.3119219    4.3119219    417.20534   -5501.6264    1367.4757    5385.7668    379.89478   -321.53914   -426.12251    80.170144 
     700    138.56772   -112.57925   0.12537899   -112.45387   -5388.0182     4.312496     4.312496     4.312496   -5388.0182   -6634.5508   -4103.8621   -5425.6416    580.06426    165.64919     1650.414    80.202167 
     800    25.713819   -112.47852  0.023266404   -112.45525    1955.1672    4.3116144    4.3116144    4.3116144    1955.1672   -3845.8735    3843.1465    5868.2285   -34.486453   -147.70626    804.96947    80.152992 
     900    151.54249   -112.59149   0.13711883   -112.45437   -2217.0349    4.3117071    4.3117071    4.3117071   -2217.0349   -1172.3758   -1251.0724   -4227.6563   -1532.2353   -960.22149   -167.94894     80.15816 
    1000    61.811723   -112.51129  0.055928546   -112.45536    306.03249    4.3106002    4.3106002    4.3106002    306.03249   -2267.2281   -774.43846     3959.764    1086.7486    592.36288    371.58113    80.096443 
    1100    103.75297    -112.5491  0.093877865   -112.45522   -2268.0921    4.3111996    4.3111996    4.3111996   -2268.0921   -4104.3225   -3280.6575    580.70369    1301.4148   -1083.4218    915.38978    80.129863 
    1200    144.36874   -112.58515   0.13062787   -112.45452    166.82186     4.310074     4.310074     4.310074    166.82186   -3135.9681    1025.3852    2611.0485    604.96219    837.49685   -690.79167    80.067114 
    1300    58.057707   -112.50779  0.052531833   -112.45526    2752.6051    4.3092078    4.3092078    4.3092078    2752.6051   -3179.1674    5315.7187    6121.2639    549.86342    -145.9889    1172.9224    80.018849 
    1400    118.72218   -112.56243   0.10742232   -112.45501   -1661.7253    4.3104937    4.3104937    4.3104937   -1661.7253   -1406.8804   -1420.6857   -2157.6097    -586.7432    1289.3228    1514.6936    80.090507 
    1500    80.590841   -112.52777  0.072920286   -112.45485    5118.5013    4.3088787    4.3088787    4.3088787    5118.5013    1935.9325    5059.1582    8360.4132   -712.88381    95.038305   -633.16373    80.000522 
    1600    133.06939    -112.5755   0.12040398   -112.45509   -2378.8863    4.3102295    4.3102295    4.3102295   -2378.8863   -58.790508   -4848.4682   -2229.4002    648.48412   -685.15265    73.738388    80.075782 
    1700    56.054506   -112.50654  0.050719295   -112.45582    1650.3531    4.3106599    4.3106599    4.3106599    1650.3531   -2471.3637    600.54689    6821.8761    1493.9857   -228.34651    751.57626    80.099769 
    1800    139.08639   -112.58066   0.12584828   -112.45481    67.408773    4.3099735    4.3099735    4.3099735    67.408773   -3160.5649      3501.43   -138.63873   -102.89056   -1338.0107    623.17361    80.061513 
    1900    83.380273   -112.53071  0.075444223   -112.45526   -477.29717    4.3111007    4.3111007    4.3111007   -477.29717   -3987.8077    816.58197    1739.3342    49.052995    1428.5406    61.978352    80.124346 
    2000    74.617861    -112.5227  0.067515809   -112.45518   -211.81972    4.3114167    4.3114167    4.3114167   -211.81972   -3399.4111    705.67559    2058.2763   -967.03289    -350.1588    1126.9678    80.141969 
    2100    159.28796   -112.59839   0.14412709   -112.45426   -1420.0157     4.310701     4.310701     4.310701   -1420.0157    481.93091   -3532.0396   -1209.9384   -495.08211    1080.2191   -592.39509    80.102061 
    2200    53.939742   -112.50418  0.048805812   -112.45538    1367.9218    4.3112271    4.3112271    4.3112271    1367.9218   -1947.4311    645.07328    5406.1234    1190.0883   -535.44591    589.58022    80.131395 
    2300    117.41681   -112.56152    0.1062412   -112.45527   -3514.0913    4.3114491    4.3114491    4.3114491   -3514.0913   -4085.1034   -2178.4758   -4278.6947    912.35574    478.15651      919.078    80.143772 
    2400    82.611164   -112.52979  0.074748317   -112.45504    2940.9138    4.3099757    4.3099757    4.3099757    2940.9138    -2951.116    6718.2803     5055.577    543.96525   -89.635245   -524.05249    80.061635 
    2500    118.17688   -112.56209   0.10692893   -112.45516   -3025.0745    4.3114905    4.3114905    4.3114905   -3025.0745    -5720.383   -573.25116   -2781.5892     -601.251   -473.70518    737.38892    80.146081 
    2600    80.022142    -112.5278  0.072405716    -112.4554    -407.8799    4.3104417    4.3104417    4.3104417    -407.8799   -2505.9571   -2488.9882    3771.3055    174.60684    368.81518     345.6382    80.087606 
    2700    129.50447    -112.5717   0.11717837   -112.45452    694.40512    4.3101338    4.3101338    4.3101338    694.40512   -390.09629    1338.1694    1135.1422    19.653866   -1051.2702    154.65248    80.070445 
    2800    98.375617   -112.54393  0.089012326   -112.45492   -885.71774    4.3107585    4.3107585    4.3107585   -885.71774   -1191.2801   -1878.7919    412.91874    1636.9264    675.83276    908.42133    80.105267 
    2900    46.801417   -112.49778  0.042346906   -112.45544    2213.0996    4.3098472    4.3098472    4.3098472    2213.0996   -2772.6651    5385.5627    4026.4012    2013.5475   -645.04469    1530.1918    80.054477 
    3000    157.44586   -112.59679   0.14246032   -112.45433   -1396.6867    4.3105805    4.3105805    4.3105805   -1396.6867   -3679.0405    1365.5945   -1876.6141   -372.69065    887.65801   -650.60182    80.095344 
    3100    66.498096   -112.51537  0.060168875    -112.4552     802.9891    4.3105363    4.3105363    4.3105363     802.9891   -4841.6866     510.2714    6740.3825     701.2218    437.51302    76.449553    80.092879 
    3200     130.4307   -112.57306   0.11801644   -112.45504   -4042.6722    4.3110672    4.3110672    4.3110672   -4042.6722   -4540.9344   -4651.2851   -2935.7969   -66.597862    315.42289     673.3666    80.122481 
    3300    95.481992   -112.54158  0.086394113   -112.45519    2148.0483    4.3105049    4.3105049    4.3105049    2148.0483   -435.19285    1176.9621    5702.3758    459.88411   -786.15424   -428.57627    80.091129 
    3400    84.532665   -112.53196  0.076486931   -112.45547   -16.430227    4.3106537    4.3106537    4.3106537   -16.430227   -2963.4976    2692.8414    221.36545    2513.1547   -336.97504    1469.5777    80.099424 
    3500    79.899326   -112.52771  0.072294589   -112.45542    16.973263    4.3108717    4.3108717    4.3108717    16.973263    -2665.604    66.836602    2649.6872    795.33661    64.370253    1052.2211    80.111582 
    3600    112.70601   -112.55644   0.10197876   -112.45446    1242.3321    4.3106481    4.3106481    4.3106481    1242.3321   -3446.3153    3420.6858    3752.6257    33.796505   -491.79374   -387.94928    80.099114 
    3700    137.96622   -112.57951   0.12483473   -112.45468    -4128.958    4.3111986    4.3111986    4.3111986    -4128.958   -5943.2787   -5703.5353   -740.06005    42.067125    1015.5535   -679.82115    80.129805 
    3800    59.110635   -112.50897  0.053484545   -112.45548    494.10283    4.3108953    4.3108953    4.3108953    494.10283   -4022.6955    293.45619    5211.5478   -458.74241    44.390028    1226.6327    80.112895 
    3900    141.49855   -112.58293   0.12803086   -112.45489   -767.31534    4.3104199    4.3104199    4.3104199   -767.31534   -2090.9452    2092.4409   -2303.4417    697.08539    181.35577    31.777037    80.086395 
    4000    45.838337   -112.49715  0.041475491   -112.45568    2957.6253    4.3101999    4.3101999    4.3101999    2957.6253   -1352.5613    3595.3769    6630.0603    1428.8994    330.05642   -662.25128    80.074133 
    4100    101.24895   -112.54691  0.091612175    -112.4553   -1324.6144     4.310926     4.310926     4.310926   -1324.6144   -2312.1107    1037.9095   -2699.6421    967.72445    1073.2837     1176.504    80.114606 
    4200    127.12742   -112.56954   0.11502757   -112.45451    350.59471    4.3102227    4.3102227    4.3102227    350.59471   -1252.2362   -1401.8101    3705.8304   -660.24143   -419.17673   -863.61496    80.075401 
    4300     105.2079   -112.55005  0.095194321   -112.45486   -1248.9954     4.310986     4.310986     4.310986   -1248.9954   -4988.9485   -50.522854    1292.4851   -372.86683    56.485907    399.24837    80.117951 
    4400    103.85432   -112.54901  0.093969567   -112.45505   -1670.1028    4.3107726    4.3107726    4.3107726   -1670.1028   -3225.9959    -1184.996   -599.31658    60.979189   -659.76129    1270.5217    80.106057 
    4500    79.617554   -112.52684  0.072039636    -112.4548    3573.9209    4.3098373    4.3098373    4.3098373    3573.9209   -880.15544    6668.7662    4933.1519    351.57737   -250.01896   -197.89443    80.053922 
    4600    112.40239   -112.55658   0.10170405   -112.45488    -1470.693    4.3110688    4.3110688    4.3110688    -1470.693   -1841.6088    382.03171    -2952.502    1917.4688    273.10192    291.89335    80.122566 
    4700    55.284312   -112.50535  0.050022407   -112.45532    1599.0255    4.3102033    4.3102033    4.3102033    1599.0255    1120.0354   -579.68056    4256.7215    238.27254    523.27027    79.905118    80.074322 
    4800    159.24097   -112.59849   0.14408457    -112.4544   -1800.9756    4.3109595    4.3109595    4.3109595   -1800.9756   -2692.8428   -1270.8908   -1439.1932   -315.62362    1531.4294    77.670572    80.116476 
    4900    86.900027   -112.53384   0.07862897   -112.45521    593.94244    4.3108046    4.3108046    4.3108046    593.94244   -2546.1858   -1293.7817    5621.7948   -207.48274   -116.37252    572.42838    80.107837 
    5000    89.102702   -112.53602  0.080621997    -112.4554   -232.15258    4.3105031    4.3105031    4.3105031   -232.15258   -3836.2273    3007.8281    131.94138    246.27756   -89.238935    1723.0731    80.091033 
    5100    122.22362   -112.56537    0.1105905   -112.45478    355.36654    4.3109246    4.3109246    4.3109246    355.36654   -2382.3586    1220.4841    2227.9742     986.0599   -1447.7592   -858.13998     80.11453 
    5200    66.380653   -112.51517   0.06006261   -112.45511      1352.28    4.3103089    4.3103089    4.3103089      1352.28    79.724157    985.31485    2991.8011    1378.8623    713.87835   -361.39294    80.080206 
    5300    114.53283   -112.55857   0.10363171   -112.45494   -2608.4459    4.3108872    4.3108872    4.3108872   -2608.4459   -2464.6796   -5189.8777   -170.78031    537.08464   -130.33788    1099.7489    80.112444 
    5400    96.357055   -112.54205  0.087185888   -112.45486    2041.3467    4.3106415    4.3106415    4.3106415    2041.3467   -1001.3007   -305.91732    7431.2582   -1453.9138    713.89841   -220.75232    80.098748 
    5500     118.3128   -112.56224    0.1070519   -112.45519   -1769.7282    4.3105273    4.3105273    4.3105273   -1769.7282   -4661.7701    627.07465   -1274.4891    789.64097    348.31718    1231.5187    80.092379 
    5600    73.541474    -112.5221  0.066541871   -112.45555   -65.460473    4.3109233    4.3109233    4.3109233   -65.460473   -4838.2938    46.284881    4595.6275   -59.656909    236.53288   -66.702119    80.114454 
    5700    122.36162    -112.5654   0.11071537   -112.45469   -173.37525    4.3106643    4.3106643    4.3106643   -173.37525   -2704.9456     2249.322   -64.502164    284.08486    12.960272   -524.93804    80.100019 
    5800    97.263877   -112.54287    0.0880064   -112.45487   -924.90805    4.3103979    4.3103979    4.3103979   -924.90805    -2276.902   -4187.4345    3689.6123    1628.3635   -19.726898   -1170.5333     80.08517 
    5900    75.021008   -112.52296  0.067880584   -112.45508   -685.96237    4.3111681    4.3111681    4.3111681   -685.96237   -2837.6006   -2553.3218    3333.0353   -1402.6616    1067.0799    1332.5798    80.128103 
    6000    130.41397   -112.57246    0.1180013   -112.45446   -1118.0652    4.3105883    4.3105883    4.3105883   -1118.0652   -2813.0062   -304.59888   -236.59063   -667.77565     -1884.55    431.75347     80.09578 
    6100    73.813756   -112.52178  0.066788238     -112.455    306.86971    4.3105442    4.3105442    4.3105442    306.86971   -4386.0347    2287.0145    3019.6294    -319.5144    541.75405   -925.16223    80.093322 
    6200    107.95867   -112.55264  0.097683273   -112.45496   -2782.2686    4.3114669    4.3114669    4.3114669   -2782.2686    -6521.345    272.06721    -2097.528    207.22489   -713.65026    1541.0323    80.144769 
    6300    107.84843   -112.55214  0.097583528   -112.45455    882.19068    4.3103409    4.3103409    4.3103409    882.19068   -1818.7606   -166.02219    4631.3548      695.153    355.08891   -1587.6937     80.08199 
    6400    107.69809    -112.5522  0.097447495   -112.45475   -1324.1595    4.3109071    4.3109071    4.3109071   -1324.1595   -3583.3493   -1783.7163    1394.5871   -106.58727    806.28438    482.25589    80.113551 
    6500    85.588925    -112.5325  0.077442658   -112.45506     -815.035    4.3110309    4.3110309    4.3110309     -815.035   -2431.4306   -2285.1269    2271.4524   -330.12683    431.28868    1123.3993    80.120455 
    6600    100.40426   -112.54572  0.090847887   -112.45487    1499.3476    4.3101397    4.3101397    4.3101397    1499.3476   -926.92215    5248.9323    176.03277   -1615.5928    194.61468    140.55013    80.070776 
    6700    102.90723   -112.54822  0.093112622    -112.4551   -775.00088    4.3107452    4.3107452    4.3107452   -775.00088   -5233.0253    1858.7508    1049.2719    205.93645   -1294.7967   -569.86949    80.104528 
    6800    74.159655   -112.52231  0.067101215   -112.45521    779.93569    4.3107967    4.3107967    4.3107967    779.93569   -3000.2417    1149.6011    4190.4477    472.22153    337.45416   -353.48357    80.107399 
    6900    142.46913   -112.58336   0.12890906   -112.45445   -309.38083     4.310403     4.310403     4.310403   -309.38083   -2596.6137   -1004.5211    2672.9923    254.70799   -862.81639    428.66541     80.08545 
    7000    97.592192   -112.54337  0.088303466   -112.45506     257.7497    4.3105475    4.3105475    4.3105475     257.7497    -2720.298   -755.74794     4249.295    891.38061    1322.4333    408.09224    80.093504 
    7100    86.832109   -112.53411  0.078567517   -112.45554    125.73853    4.3108831    4.3108831    4.3108831    125.73853    -1250.907    1725.2831   -97.160501   -1347.6543   -538.35454    1984.3151    80.112216 
    7200    109.70061   -112.55434  0.099259418   -112.45508     1705.755    4.3099627    4.3099627    4.3099627     1705.755   -1423.8002    3461.7514    3079.3139   -497.43824   -152.47362   -1496.7038    80.060913 
    7300    77.066242   -112.52491  0.069731155   -112.45518     1555.344    4.3104322    4.3104322    4.3104322     1555.344   -3150.8944    3202.7664    4614.1599    260.47691   -61.224497   -648.82162    80.087077 
    7400    101.86271   -112.54725  0.092167524   -112.45508   -1227.5145    4.3111987    4.3111987    4.3111987   -1227.5145   -3126.3908   -4220.5209    3664.3682    209.42692    222.37447    286.21753    80.129812 
    7500     123.3527   -112.56617   0.11161212   -112.45456    106.16907    4.3100992    4.3100992    4.3100992    106.16907   -2566.4848    490.26435    2394.7277    498.22375    462.86783    312.50932    80.068517 
    7600    108.28782   -112.55287  0.097981095   -112.45489   -969.30088    4.3110148    4.3110148    4.3110148   -969.30088   -2404.9882   -1533.5621    1030.6476    245.92145   -12.509309    634.36384    80.119559 
    7700    80.512511   -112.52801  0.072849412   -112.45516    221.89835    4.3108815    4.3108815    4.3108815    221.89835   -1601.0358    844.55135    1422.1795    -378.1061   -136.10957    276.57098    80.112128 
    7800    99.426525   -112.54476  0.089963209    -112.4548    1597.5404     4.309788     4.309788     4.309788    1597.5404   -1926.4393    3743.7805    2975.2801   -1617.6839   -1649.0444   -328.28031    80.051177 
    7900    90.222119   -112.53664  0.081634869   -112.45501   -453.68444    4.3113622    4.3113622    4.3113622   -453.68444   -2171.7117   -2854.3648    3665.0232    650.43352    -167.3641   -1567.1387    80.138929 
    8000    97.340715   -112.54294  0.088075925   -112.45486   -1989.7193    4.3108644    4.3108644    4.3108644   -1989.7193   -4868.0156   -2040.2797    939.13738    30.345965    -227.8567     1912.105     80.11117 
    8100    131.57058   -112.57342   0.11904783   -112.45437   -1604.6509    4.3105549    4.3105549    4.3105549   -1604.6509   -2754.4299   -2073.1932    13.670525   -326.69804    331.00038    318.37399    80.093919 
    8200    90.935195   -112.53723  0.082280075   -112.45495   -227.24986    4.3113765    4.3113765    4.3113765   -227.24986   -3574.0833    1544.7412    1347.5925    635.50564    500.27044   -370.18614    80.139727 
    8300    90.595345   -112.53713  0.081972572   -112.45516   -298.05842    4.3101426    4.3101426    4.3101426   -298.05842   -3623.5643    702.40271    2026.9863   -1241.8479   -35.418731    470.67733    80.070936 
    8400    87.370486   -112.53388  0.079054652   -112.45482    1837.9912    4.3105505    4.3105505    4.3105505    1837.9912   -412.72275     2406.086    3520.6104   -200.29504   -1415.6225   -1510.5854    80.093672 
    8500    110.25779   -112.55452  0.099763569   -112.45476   -1626.2196    4.3112569    4.3112569    4.3112569   -1626.2196   -5416.7789   -2680.4876    3218.6077    -191.9313   -108.77644    -46.43192    80.133055 
    8600    102.04118   -112.54722  0.092329001   -112.45489   -1528.8817    4.3103015    4.3103015    4.3103015   -1528.8817   -3277.5257   -1622.3798    313.26051    484.03032   -471.57664     1561.955    80.079792 
    8700    113.13094   -112.55735   0.10236325   -112.45498     32.62255    4.3111579    4.3111579    4.3111579     32.62255   -4339.7673     2494.614     1943.021    320.27176   -60.049116    400.77198    80.127536 
    8800    107.63127   -112.55253   0.09738703   -112.45515   -566.37034    4.3103829    4.3103829    4.3103829   -566.37034   -4674.3505    82.074549     2893.165   -370.95501    294.58084   -1084.1426    80.084334 
    8900    52.175996   -112.50273  0.047209938   -112.45552    2358.0514    4.3100482    4.3100482    4.3100482    2358.0514   -2149.7623    4932.6715     4291.245   -43.950086   -454.04523    76.369211    80.065679 
    9000    132.29179   -112.57442   0.11970039   -112.45472   -1138.4111    4.3113599    4.3113599    4.3113599   -1138.4111   -3383.3879   -2910.6949    2878.8496   -490.01633   -163.22118   -248.19598    80.138802 
    9100     96.09274   -112.54185  0.086946731    -112.4549    333.46077    4.3101049    4.3101049    4.3101049    333.46077   -1886.9541    587.55501    2299.7814    1477.7273   -91.207122    292.87152    80.068838 
    9200    109.97818   -112.55441  0.099510564    -112.4549   -1684.5638    4.3111684    4.3111684    4.3111684   -1684.5638   -5426.1778   -764.24119    1136.7276    368.41259    1836.3568     1363.606    80.128124 
    9300    112.08094   -112.55617   0.10141319   -112.45475   -71.755647    4.3108582    4.3108582    4.3108582   -71.755647   -2407.3742    527.78213    1664.3251    171.93752   -887.21141   -558.80711    80.110826 
    9400    66.812195   -112.51554  0.060453078   -112.45508    1849.1484    4.3098185    4.3098185    4.3098185    1849.1484   -4184.0759     5096.407    4635.1142    670.83116    430.64647   -898.57823    80.052876 
    9500    105.45833   -112.55046  0.095420913   -112.45504   -1824.4314    4.3114051    4.3114051    4.3114051   -1824.4314   -2426.4187   -4031.8273    984.95166   -1235.4535    -937.2082    565.32579     80.14132 
    9600    93.156753   -112.53911  0.084290188   -112.45482    1170.8485    4.3103631    4.3103631    4.3103631    1170.8485     866.1263    1011.0644    1635.3549    549.07599   -636.28426     963.6934    80.083229 
    9700    138.83526   -112.58015   0.12562106   -112.45453   -2695.5198    4.3108269    4.3108269    4.3108269   -2695.5198   -4286.3838   -3538.9893   -261.18617    1200.1347    839.12688     519.0695     80.10908 
    9800    73.056735   -112.52136  0.066103269   -112.45526    553.21872     4.311038     4.311038     4.311038    553.21872    266.83666    497.05249    895.76701    840.40686     158.8665    982.96923    80.120852 
    9900    106.08455   -112.55082  0.095987534   -112.45483    63.378494    4.3103299    4.3103299    4.3103299    63.378494   -4091.1361    2215.7337    2065.5379   -30.973197    1031.5879   -831.78673    80.081376 
   10000    92.064154   -112.53817  0.083301582   -112.45487    40.841484    4.3107173    4.3107173    4.3107173    40.841484   -2234.3193   -367.58123     2724.425   -14.914797   -712.90659   -1277.0608     80.10297 
   10100    79.680469     -112.527  0.072096563    -112.4549    144.98255    4.3108713    4.3108713    4.3108713    144.98255   -49.594794   -912.42742    1396.9699   -257.52318    325.65849     1590.588    80.111555 
   10200    149.06521   -112.58925   0.13487733   -112.45437   -2410.5437     4.310713     4.310713     4.310713   -2410.5437   -2873.3463   -3573.8279   -784.45702   -398.97403   -1320.1468    805.54332     80.10273 
   10300    70.413732    -112.5191  0.063711824   -112.45539    2252.5967    4.3103349    4.3103349    4.3103349    2252.5967    1343.3116    2508.0768    2906.4016    1432.2156    1111.5847   -292.72038    80.081655 
   10400    111.70225   -112.55637   0.10107054    -112.4553   -1115.2068    4.3107034    4.3107034    4.3107034   -1115.2068   -4068.2325   -855.21275    1577.8248    334.48693   -451.45903    312.92348    80.102198 
   10500    78.203226   -112.52593  0.070759922   -112.45517    3034.1052    4.3101803    4.3101803    4.3101803    3034.1052   -1650.6234    5384.4665    5368.4724    196.26902   -668.87842   -884.64408    80.073039 
   10600    111.44697   -112.55575   0.10083956   -112.45491    3.4943547    4.3105939    4.3105939    4.3105939    3.4943547    -1833.186   -1294.2584    3137.9275    87.970889    545.95189   -334.89617     80.09609 
   10700    116.38338   -112.56007   0.10530613   -112.45476   -1544.2626    4.3109312    4.3109312    4.3109312   -1544.2626   -3901.2964   -1554.6294    823.13789   -336.51537   -308.58645    1748.8531    80.114896 
   10800    91.732638   -112.53788  0.083001619   -112.45487    1670.8068     4.310401     4.310401     4.310401    1670.8068   -186.74762    2540.6718    2658.4962    814.74294    955.55292    130.70556    80.085339 
   10900    113.21282    -112.5572   0.10243734   -112.45476   -291.70721     4.310425     4.310425     4.310425   -291.70721   -3572.0559   -409.73269    3106.6669    514.20166    545.80131   -1494.6233    80.086677 
   11000    52.845012   -112.50312  0.047815278    -112.4553    2966.7837    4.3104187    4.3104187    4.3104187    2966.7837   -3479.3402    6623.3707    5756.3206    680.41219    898.83419    213.26729    80.086325 
   11100    128.91254   -112.57155   0.11664278   -112.45491   -770.82018    4.3107257    4.3107257    4.3107257   -770.82018    -3183.022   -1502.2437    2372.8051   -105.09444   -1168.6788    -297.4853     80.10344 
   11200    110.91213    -112.5552   0.10035563   -112.45484   -778.77498    4.3106231    4.3106231    4.3106231   -778.77498   -4765.7021    984.78254    1444.5946    773.65352   -129.95319       579.96     80.09772 
   11300    109.00907   -112.55338  0.098633696   -112.45475   -2006.2284    4.3112843    4.3112843    4.3112843   -2006.2284   -4319.2822   -1922.5815     223.1784   -146.69173    177.20455    1487.9509    80.134582 
   11400    99.292926   -112.54462  0.089842326   -112.45477   -122.14794    4.3104854    4.3104854    4.3104854   -122.14794   -3387.0513    441.52938    2579.0781    305.40493     149.2089   -180.06015    80.090045 
   11500    68.200784   -112.51679  0.061709503   -112.45508    1297.1947    4.3105064    4.3105064    4.3105064    1297.1947   -4551.9773    4142.2707    4301.2908    1797.2621    1340.9537   -1227.8959    80.091213 
   11600    98.066662    -112.5438  0.088732776   -112.45507   -1491.0947    4.3111313    4.3111313    4.3111313   -1491.0947   -4470.1775   -1928.5036    1925.3969   -759.16539    736.35293    265.16304    80.126055 
   11700    108.88886   -112.55335  0.098524926   -112.45483   -1210.3895    4.3106047    4.3106047    4.3106047   -1210.3895   -3614.3803    847.68044    -864.4688    443.17412   -368.18041    1338.9472    80.096694 
   11800    131.77116   -112.57395   0.11922931   -112.45472   -3475.1587    4.3112073    4.3112073    4.3112073   -3475.1587   -5185.8819   -4785.7132   -453.88107    521.70928    391.18193    33.683732    80.130288 
   11900    81.237505   -112.52889  0.073505402   -112.45539   -271.64768    4.3107356    4.3107356    4.3107356   -271.64768   -4372.2787   -239.75282    3797.0885   -290.95816   -150.70689    1072.6094    80.103989 
   12000    95.024466   -112.54117  0.085980134   -112.45519    208.97207    4.3105554    4.3105554    4.3105554    208.97207   -2589.1588    801.39052    2414.6845    935.99608   -550.69857   -1222.1247    80.093946 
   12100    82.000356   -112.52927  0.074195645   -112.45507    480.04853    4.3107136    4.3107136    4.3107136    480.04853   -4402.8848    1386.2986    4456.7318    567.35078    951.80888   -754.24195    80.102764 
   12200    101.90825   -112.54714  0.092208723   -112.45493   -1365.7155    4.3109166    4.3109166    4.3109166   -1365.7155   -2824.7854   -375.43341   -896.92767    330.07836   -705.38596     1710.777    80.114081 
   12300    124.93804    -112.5677   0.11304656   -112.45465   -1683.2224    4.3108501    4.3108501    4.3108501   -1683.2224   -1645.7781   -3474.7492    70.860137   -810.27519    -225.9902    861.76871    80.110376 
   12400    99.437731   -112.54502  0.089973349   -112.45505    423.29376     4.310493     4.310493     4.310493    423.29376   -4545.8137   -95.963056     5911.658    354.06171   -10.404145   -229.85478    80.090468 
   12500    96.460486    -112.5423  0.087279475   -112.45502    796.20589    4.3106058    4.3106058    4.3106058    796.20589    238.98411   -1527.6481    3677.2816    43.905242    993.79645   -661.23632    80.096756 
   12600    79.763831   -112.52709   0.07217199   -112.45492    2651.5308    4.3101766    4.3101766    4.3101766    2651.5308   -2258.0441    5063.0418    5149.5946    535.72405   -378.85148   -379.37554    80.072835 
   12700    112.18755    -112.5562   0.10150966    -112.4547    50.342433     4.310523     4.310523     4.310523    50.342433   -1707.0897    61.813714    1796.3032    1224.3462    577.01117   -1326.9267    80.092142 
   12800    96.248216   -112.54186  0.087087409   -112.45478    499.51876    4.3107906    4.3107906    4.3107906    499.51876    697.52402   -691.04785    1492.0801   -747.98047   -384.28892    2216.1922    80.107056 
   12900    119.19569   -112.56242   0.10785077   -112.45457   -288.82529    4.3103959    4.3103959    4.3103959   -288.82529    -3953.192   -475.36164    3562.0777    211.74205   -1054.3308    219.07891    80.085055 
   13000    94.316324   -112.54008  0.085339392   -112.45474    1456.0012    4.3105372    4.3105372    4.3105372    1456.0012    734.58621   -2122.8472    5756.2646   -374.62692    805.43017   -1227.6508    80.092931 
   13100    86.091158   -112.53281  0.077897089   -112.45491    1452.8039    4.3105137    4.3105137    4.3105137    1452.8039   -3077.3584    4824.2281    2611.5419    46.424528    -424.5761    374.06859    80.091623 
   13200    106.71934   -112.55131  0.096561904   -112.45475    162.72264    4.3102036    4.3102036    4.3102036    162.72264   -997.37251    887.94544    597.59498    889.75056    908.09841   -500.92181    80.074336 
   13300    93.500588   -112.53948  0.084601297   -112.45488    753.16909     4.310917     4.310917     4.310917    753.16909   -380.09719    730.23829    1909.3662    480.73679   -424.03445    664.78438    80.114104 
   13400     125.4798   -112.56829   0.11353676   -112.45475   -1950.7157    4.3106859    4.3106859    4.3106859   -1950.7157   -4877.8458   -1885.3078     911.0065   -61.654104      540.006    811.06443    80.101222 
   13500    78.292345   -112.52596  0.070840559   -112.45512    1071.9102    4.3104225    4.3104225    4.3104225    1071.9102   -237.93922   -2265.4229    5719.0928   -922.27664   -1072.8501    284.42514    80.086537 
   13600    111.28948   -112.55555   0.10069706   -112.45485   -1364.1619     4.311341     4.311341     4.311341   -1364.1619   -5734.5868    1144.3088     497.7924    923.89534    1003.9822   -1862.4438    80.137745 
   13700    85.298716   -112.53217  0.077180071   -112.45499   -26.139852    4.3100835    4.3100835    4.3100835   -26.139852   -2232.3437    2347.1631   -193.23902    -634.4374    204.21894    682.82957    80.067645 
   13800    93.857004   -112.53989  0.084923789   -112.45496   -304.49215    4.3109583    4.3109583    4.3109583   -304.49215   -2448.6323    1442.9034    92.252384    440.44531   -1683.8399    1438.3711    80.116409 
   13900    128.98497   -112.57155   0.11670831   -112.45484    -2188.861    4.3111672    4.3111672    4.3111672    -2188.861   -5306.3958   -2736.0622     1475.875    786.56123     915.9053    452.80045    80.128055 
   14000    73.319162   -112.52167  0.066340719   -112.45533    820.95095    4.3099729    4.3099729    4.3099729    820.95095   -2098.2751   -1673.8888    6235.0168   -1420.2282   -1347.1358    1109.8185     80.06148 
   14100    125.18453   -112.56817   0.11326959    -112.4549   -2872.9206    4.3118258    4.3118258    4.3118258   -2872.9206      -6131.8   -2364.5776   -122.38428    468.19517    89.368919   -1253.0066    80.164785 
   14200    79.237378   -112.52668  0.071695645   -112.45498    995.34313    4.3102454    4.3102454    4.3102454    995.34313   -3314.6807    3240.6792    3060.0309    -226.8973    293.05376   -588.85226    80.076665 
   14300     99.01513   -112.54446   0.08959097   -112.45487   -504.18763    4.3103191    4.3103191    4.3103191   -504.18763   -4106.6095    2046.7038     547.3429    305.67165    282.05656    913.62541    80.080777 
   14400    105.48842    -112.5503  0.095448136   -112.45485   -774.11384    4.3116135    4.3116135    4.3116135   -774.11384   -3596.7166    -1207.304    2481.6791    168.40309    -999.1065    1502.1966    80.152942 
   14500    91.033524    -112.5372  0.082369045   -112.45483    980.31128    4.3097541    4.3097541    4.3097541    980.31128   -2741.4933   -1043.2766    6725.7037   -240.40542   -586.90678   -656.50648    80.049291 
   14600    127.25506   -112.56982   0.11514305   -112.45467   -2185.7781    4.3110811    4.3110811    4.3110811   -2185.7781   -4472.8326   -3011.7066    927.20489    18.402904   -5.5067998    113.16429    80.123256 
   14700    77.363568    -112.5251  0.070000182    -112.4551    1473.6114    4.3110225    4.3110225    4.3110225    1473.6114   -2257.4536    3096.6727    3581.6153   -668.78588   -859.13588   -284.48729    80.119985 
   14800    113.77614    -112.5577   0.10294704   -112.45475     69.10205    4.3095543    4.3095543    4.3095543     69.10205   -4528.3066    3056.1889    1679.4238    1258.2419     532.6323   -768.80773    80.038158 
   14900    81.989148   -112.52914  0.074185505   -112.45495    1071.0222    4.3112314    4.3112314    4.3112314    1071.0222   -2511.4387    2231.0498    3493.4555   -288.69466   -400.95255     2020.607    80.131632 
   15000    101.55738   -112.54666  0.091891255   -112.45477   -66.922214    4.3106554    4.3106554    4.3106554   -66.922214   -2475.0909   -1253.4984    3527.8227    537.74334    -344.9597    514.48748    80.099521 
   15100    118.07933   -112.56142   0.10684066   -112.45458   -652.70091    4.3099523    4.3099523    4.3099523   -652.70091   -3240.5792   -1906.9849    3189.4613    414.18927    402.97247   -1289.4975    80.060334 
   15200    91.334978   -112.53755  0.082641808   -112.45491    302.67942    4.3116693    4.3116693    4.3116693    302.67942   -1078.7106    1379.8347    606.91422   -1208.1471   -177.14933   -56.832936    80.156056 
   15300    109.22232   -112.55352  0.098826649    -112.4547    42.755564    4.3099337    4.3099337    4.3099337    42.755564   -3570.8827    3342.5027    356.64668    974.84411   -279.86514    139.48856    80.059298 
   15400    80.371221   -112.52777  0.072721569   -112.45505    2110.2706    4.3101677    4.3101677    4.3101677    2110.2706   -1601.4117    4379.0976    3553.1257    101.24949    496.60418    538.72388    80.072337 
   15500    107.49464    -112.5524  0.097263406   -112.45514   -1043.4482    4.3115418    4.3115418    4.3115418   -1043.4482   -2770.7116   -1189.9328    830.29986     479.3793   -783.38758    1548.0523    80.148945 
   15600    96.525838   -112.54244  0.087338606    -112.4551    91.772162    4.3096674    4.3096674    4.3096674    91.772162   -3178.0073   -981.47379    4434.7975    522.11951   -1054.9329    300.47216    80.044458 
   15700    114.37932   -112.55826   0.10349281   -112.45477    -821.7113    4.3113254    4.3113254    4.3113254    -821.7113   -600.81545   -1096.1807    -768.1377    -126.2327   -103.39289   -1225.4037    80.136875 
   15800    96.905369   -112.54254  0.087682014   -112.45485    1.1494354    4.3108054    4.3108054    4.3108054    1.1494354   -3958.9956    3180.0783    782.36563   -335.16689    400.28285    586.02963     80.10788 
   15900    83.840939   -112.53091  0.075861043   -112.45505    1396.9864    4.3096465    4.3096465    4.3096465    1396.9864   -1347.9777    3900.1869      1638.75   -633.59192   -941.12231    1571.5996    80.043294 
   16000    106.87774   -112.55175  0.096705228   -112.45504   -504.46881    4.3115586    4.3115586    4.3115586   -504.46881   -2833.0317    69.116859    1250.5084    1237.7126    991.93465    515.94982    80.149883 
   16100    94.071661   -112.54016  0.085118016   -112.45504   -106.80999    4.3101608    4.3101608    4.3101608   -106.80999     -4820.75   -647.43895     5147.759   -486.80712   -516.27901    414.98778    80.071955 
   16200    120.99049   -112.56425   0.10947474   -112.45477   -1496.6642    4.3107754    4.3107754    4.3107754   -1496.6642    -836.8372   -2804.7142   -848.44132     435.8457   -1724.1551   -450.41861    80.106212 
   16300    97.517851   -112.54322  0.088236201   -112.45498    150.14999    4.3112341    4.3112341    4.3112341    150.14999    -4941.342    2562.0029    2829.7891    212.45892    728.34962   -723.30051    80.131786 
   16400    88.400881   -112.53497  0.079986975   -112.45498    439.89292    4.3097481    4.3097481    4.3097481    439.89292   -2688.9775    3365.9256    642.73062   -1148.0298   -1499.6213     1546.248    80.048954 
   16500    85.949434    -112.5327  0.077768854   -112.45493     556.2374    4.3111029    4.3111029    4.3111029     556.2374   -2839.8531    2520.9297    1987.6357    860.31875    363.01641    1709.9037    80.124472 
   16600    108.95861   -112.55331  0.098588041   -112.45472   -736.91772     4.310765     4.310765     4.310765   -736.91772   -5151.6222   -1100.0173    4040.8863   -82.665339   -771.34044   -183.14464    80.105632 
   16700    112.40915   -112.55646   0.10171016   -112.45475   -1300.4103    4.3103814    4.3103814    4.3103814   -1300.4103   -2561.0147    -2123.848    783.63163    841.36347    108.51148   -161.35841    80.084247 
   16800    108.92878   -112.55347  0.098561048   -112.45491   -975.18926    4.3115466    4.3115466    4.3115466   -975.18926   -4512.3906    831.98317    754.83963   -257.93391   -54.013777   -109.17671     80.14921 
   16900    95.603636   -112.54135  0.086504179   -112.45484    271.17166    4.3099045    4.3099045    4.3099045    271.17166   -2753.7895    2400.3999    1166.9046    12.965614    355.80855   -790.64458    80.057671 
   17000    72.579909   -112.52075  0.065671827   -112.45508    1206.6002    4.3105725    4.3105725    4.3105725    1206.6002   -4420.1277    4815.7586    3224.1698    99.150179    996.54648    2088.3714    80.094901 
   17100    108.61836   -112.55328   0.09828017     -112.455   -974.39955    4.3112335    4.3112335    4.3112335   -974.39955   -3032.5291   -1041.4108    1150.7412     140.8961   -1562.9162    1066.3989    80.131753 
   17200    102.46366   -112.54758  0.092711274   -112.45487   -45.268034    4.3099919    4.3099919    4.3099919   -45.268034   -3399.1625   -1106.6536    4370.0121    1981.0691    1136.3769   -880.83672    80.062537 
   17300    127.18952   -112.56984   0.11508375   -112.45476   -2339.1884    4.3116307    4.3116307    4.3116307   -2339.1884   -4023.9363   -728.11541   -2265.5134   -664.12109    -1408.393    162.91919    80.153901 
   17400    86.568005   -112.53326  0.078328551   -112.45493    673.94053    4.3103166    4.3103166    4.3103166    673.94053   -90.128884    1722.9982    388.95232    990.77678     168.6636    750.41817    80.080637 
   17500    86.124662    -112.5329  0.077927404   -112.45497    1249.6048      4.31004      4.31004      4.31004    1249.6048   -4825.9872    4484.2956     4090.506   -20.761215    1278.6849    687.94661     80.06522 
   17600     96.38783   -112.54231  0.087213734   -112.45509    54.142997    4.3113538    4.3113538    4.3113538    54.142997   -1039.2461    866.90623    334.76889   -434.77481    322.71054    1151.4684    80.138462 
   17700    91.574572   -112.53785  0.082858597   -112.45499     669.8786    4.3098978    4.3098978    4.3098978     669.8786    -2717.965   -519.97656    5247.5774    1805.8114    79.002833    444.42561    80.057297 
   17800    142.95292   -112.58392    0.1293468   -112.45458   -2708.6344     4.311272     4.311272     4.311272   -2708.6344   -3596.9052   -2580.0068   -1948.9911    128.55623   -393.34518   -1302.3555    80.133897 
   17900    80.121644   -112.52761  0.072495748   -112.45512     1008.653    4.3107665    4.3107665    4.3107665     1008.653      391.719    2236.0219    398.21811    229.09868    324.35938    669.18305    80.105716 
   18000    98.683571    -112.5442  0.089290969   -112.45491    404.96162    4.3097917    4.3097917    4.3097917    404.96162   -3670.6118    2555.7621    2329.7346    -411.1284   -1058.6181    1528.6813    80.051385 
   18100    82.664777   -112.52969  0.074796828   -112.45489    1816.9611    4.3111433    4.3111433    4.3111433    1816.9611   -142.46369    2718.6514    2874.6955    450.26285    967.01918    1009.7158    80.126724 
   18200    96.804034   -112.54243  0.087590324   -112.45484    245.87795    4.3102395    4.3102395    4.3102395    245.87795   -3195.8603    308.17394    3625.3202    116.12509   -625.06455    541.01042    80.076339 
   18300    130.99617   -112.57312   0.11852809   -112.45459   -2405.9207    4.3107778    4.3107778    4.3107778   -2405.9207   -3062.2589   -3016.3156   -1139.1877    657.65625   -885.53662    28.921687    80.106347 
   18400    95.255316   -112.54111  0.086189012   -112.45492    357.61776    4.3113709    4.3113709    4.3113709    357.61776   -1536.8243    951.58003    1658.0975    962.90982    825.37923   -669.47917    80.139415 
   18500    110.02157   -112.55435  0.099549832    -112.4548   -589.36279    4.3097462    4.3097462    4.3097462   -589.36279   -3828.7388    1772.8297    287.82068   -1071.3783   -582.80402    829.48209    80.048849 
   18600    54.713332   -112.50479  0.049505773   -112.45528    3079.9098    4.3106638    4.3106638    4.3106638    3079.9098   -514.44531    4223.3727     5530.802    80.728225    588.10473    2444.4598    80.099986 
   18700    118.55527   -112.56235    0.1072713   -112.45508   -776.56355    4.3109735    4.3109735    4.3109735   -776.56355   -4042.3361   -172.74393    1885.3893   -130.46028    944.76876   -459.37841    80.117254 
   18800    104.99641   -112.55003  0.095002954   -112.45502   -832.35013    4.3099278    4.3099278    4.3099278   -832.35013   -3001.8819   -184.25126    689.08279    330.26929   -647.42639    661.66232     80.05897 
   18900     113.8307   -112.55786   0.10299641   -112.45486   -1832.7435    4.3119412    4.3119412    4.3119412   -1832.7435   -4036.6463   -1394.8081   -66.775956    1141.2482   -269.53304   -279.05398    80.171218 
   19000    116.49751    -112.5601    0.1054094   -112.45469   -750.70588    4.3102198    4.3102198    4.3102198   -750.70588   -4849.9066    794.24831    1803.5406    133.08418    269.90379    73.381727    80.075243 
   19100    49.653138   -112.50024  0.044927202   -112.45531     3130.073    4.3098905    4.3098905    4.3098905     3130.073   -3105.5516    6325.3838    6170.3869    258.35883    805.57589    2023.7339     80.05689 
   19200    118.64626    -112.5625   0.10735363   -112.45515   -1816.6476    4.3118025    4.3118025    4.3118025   -1816.6476   -4845.3545   -579.77532   -24.812934   -371.72081   -166.16559    1608.9109    80.163486 
   19300    84.368714   -112.53154  0.076338585    -112.4552    1068.5734    4.3095383    4.3095383    4.3095383    1068.5734   -2857.7853    1779.8731    4283.6325    841.28513    1367.4643   -751.68761    80.037264 
   19400    137.24901   -112.57899   0.12418579    -112.4548   -3575.6729    4.3115152    4.3115152    4.3115152   -3575.6729   -5331.8146    -2309.859    -3085.345    179.91246    632.37626   -425.62179    80.147461 
   19500    96.135465   -112.54206  0.086985389   -112.45507   -448.44845    4.3112213    4.3112213    4.3112213   -448.44845    -4731.991   -481.32344    3867.9691    926.48303   -1055.0766    1275.2808     80.13107 
   19600    80.717915   -112.52795  0.073035266   -112.45492    1671.9457    4.3093769    4.3093769    4.3093769    1671.9457   -4009.2531    4328.8934    4696.1967    1052.2222    2266.2214   -99.270825    80.028273 
   19700    101.24722   -112.54642  0.091610609   -112.45481   -1018.9749    4.3116317    4.3116317    4.3116317   -1018.9749   -5561.1169    1749.5028    754.68944   -1311.1263   -587.20326      1743.37    80.153957 
   19800    73.547618   -112.52146   0.06654743   -112.45491    1018.3247    4.3103004    4.3103004    4.3103004    1018.3247   -2228.2927    1180.1066    4103.1603    1281.3297    575.67416    511.51415    80.079732 
   19900    148.12708   -112.58849   0.13402849   -112.45446   -3252.3583    4.3104593    4.3104593    4.3104593   -3252.3583   -4301.9142   -2677.6959    -2777.465    247.27248    210.31633   -522.39182    80.088588 
   20000    84.548711   -112.53164   0.07650145   -112.45514    252.02846    4.3115703    4.3115703    4.3115703    252.02846   -3745.5197    202.45086    4299.1542    373.36989   -924.71794    311.04017    80.150534 
   20100    108.96346   -112.55337  0.098592427   -112.45477   -683.11684    4.3100174    4.3100174    4.3100174   -683.11684   -2444.1456     41.49831    353.29681    1313.1099    689.05033    1287.0315    80.063963 
   20200    76.362243   -112.52406  0.069094162   -112.45496     1864.561    4.3103209    4.3103209    4.3103209     1864.561   -4450.9093    5024.1646    5020.4278   -397.56884    333.46348    1334.5715    80.080874 
   20300    93.919487   -112.54004  0.084980326   -112.45506   -127.85188    4.3112935    4.3112935    4.3112935   -127.85188   -1551.5008    1462.5948   -294.64958   -12.589989    958.48981    185.38956    80.135095 
   20400    117.91876   -112.56148   0.10669537   -112.45479   -1106.3266    4.3099664    4.3099664    4.3099664   -1106.3266   -2032.5198   -1606.4822    320.02212   -608.91126   -567.12181    687.33534    80.061118 
   20500    105.02098   -112.54981   0.09502519   -112.45479     253.7056    4.3110289    4.3110289    4.3110289     253.7056   -2286.1945    478.06453    2569.2468    1080.5022    970.46764   -1245.1075    80.120342 
   20600    114.06391   -112.55788   0.10320742   -112.45468   -787.27826    4.3108376    4.3108376    4.3108376   -787.27826   -838.95895   -1334.9143    -187.9615    102.96645   -1513.0235    1578.8117    80.109678 
   20700    61.225671    -112.5106  0.055398274    -112.4552    3060.3205    4.3095391    4.3095391    4.3095391    3060.3205   -3181.0134      6364.98    5996.9949     687.7057   -319.39207    2501.6029     80.03731 
   20800    117.41973   -112.56132   0.10624384   -112.45508   -529.05518    4.3111623    4.3111623    4.3111623   -529.05518   -1148.7699     1969.122   -2407.5176    149.13719    1242.5076    483.85595     80.12778 
   20900    83.744904   -112.53107  0.075774149    -112.4553    1289.2541    4.3101655    4.3101655    4.3101655    1289.2541   -2332.5329    2039.6941    4160.6012   -993.02121   -540.54542    569.22128    80.072212 
   21000    131.69359   -112.57402   0.11915913   -112.45486    -1727.743    4.3106389    4.3106389    4.3106389    -1727.743   -1939.0153   -1432.1994   -1812.0143    911.22002    126.27146   -27.915343    80.098598 
   21100    98.211253   -112.54379  0.088863606   -112.45493    514.47292    4.3110032    4.3110032    4.3110032    514.47292   -1000.7841   -1403.5396    3947.7425    34.221831    73.810523   -333.69472    80.118909 
   21200    84.592102   -112.53144  0.076540712    -112.4549    1038.3838    4.3100573    4.3100573    4.3100573    1038.3838   -4504.4764    5010.2409     2609.387    746.19659    272.10638     1564.499    80.066183 
   21300    99.230371   -112.54463  0.089785725   -112.45484    159.93274    4.3106941    4.3106941    4.3106941    159.93274   -1109.5563    1967.6769   -378.32234      308.508   -1016.0432    1858.9702     80.10168 
   21400    80.429357   -112.52766  0.072774173   -112.45489    1520.7188    4.3105647    4.3105647    4.3105647    1520.7188   -4405.3631    3684.0488    5283.4707   -124.32477    1342.2615   -392.48723    80.094465 
   21500    143.23484    -112.5842    0.1296019    -112.4546   -3175.8656    4.3107253    4.3107253    4.3107253   -3175.8656   -3521.7751   -2055.4104   -3950.4113   -354.62351   -371.47768    31.749082    80.103419 
   21600    74.699091   -112.52268  0.067589307   -112.45509    1102.4913     4.310739     4.310739     4.310739    1102.4913    -1858.026   -956.87391    6122.3737    244.45596   -1170.2237    978.31201    80.104179 
   21700    126.25354   -112.56891   0.11423686   -112.45467   -2097.1798      4.31074      4.31074      4.31074   -2097.1798    -5707.012    440.51535   -1025.0428    1679.1399     612.0832   -11.684602    80.104235 
   21800    60.624947   -112.51005  0.054854726    -112.4552    2164.8107    4.3102298    4.3102298    4.3102298    2164.8107   -2774.2887    4695.7085    4573.0123   -352.24007   -1137.5734    1377.1304    80.075798 
   21900    100.22343   -112.54566  0.090684269   -112.45498   -460.05127    4.3109109    4.3109109    4.3109109   -460.05127   -5483.9653     3537.738    566.07347    858.73926    306.89663    1293.7152    80.113764 
   22000    121.53929   -112.56465    0.1099713   -112.45468   -1897.4781    4.3107626    4.3107626    4.3107626   -1897.4781   -3984.7049   -1176.2793   -531.45009   -155.32328    631.39304   -1104.9286    80.105496 
   22100    91.380017   -112.53749   0.08268256    -112.4548   -460.34567     4.310835     4.310835     4.310835   -460.34567   -4236.5954    846.83834    2008.7201   -1103.9768   -650.86459    -31.29817    80.109536 
   22200    132.22215   -112.57423   0.11963738   -112.45459   -3014.2503    4.3110473    4.3110473    4.3110473   -3014.2503   -3466.7587   -3444.0679   -2131.9245    1163.1473   -203.49808       1149.8    80.121371 
   22300    47.585031   -112.49832  0.043055936   -112.45526    3146.0349    4.3101249    4.3101249    4.3101249    3146.0349   -3245.4061    5790.2052    6893.3057    73.427089   -305.39188    1483.9703    80.069952 
   22400    122.25591   -112.56573   0.11061972   -112.45511    -1825.265     4.310888     4.310888     4.310888    -1825.265   -5294.9495    3706.2787   -3887.1242    729.44233   -943.85833    976.40788    80.112488 
   22500    75.052266   -112.52327  0.067908868   -112.45536    1086.1439    4.3104541    4.3104541    4.3104541    1086.1439    -1465.851    1324.6981    3399.5845    89.523447   -98.539328    728.20756    80.088303 
   22600    133.90102   -112.57596   0.12115646    -112.4548   -2749.8708    4.3110252    4.3110252    4.3110252   -2749.8708   -5963.9401    100.65629   -2386.3287   -251.72915    740.96573   -615.78077    80.120139 
   22700    110.65159   -112.55505   0.10011989   -112.45493   -1150.3356    4.3107344    4.3107344    4.3107344   -1150.3356   -1238.7088   -2722.8895    510.59162   -9.0440664   -538.12419    514.53219    80.103923 
   22800    72.643322   -112.52079  0.065729205   -112.45506    1739.6875    4.3102755    4.3102755    4.3102755    1739.6875   -1607.1666    3733.7364    3092.4926    -82.05137   -367.55793    2355.0052    80.078343 
   22900    116.53012   -112.56025    0.1054389   -112.45481   -761.27347    4.3107793    4.3107793    4.3107793   -761.27347   -3882.9696    3379.7426   -1780.5934    1282.3903    1309.1825   -159.31414     80.10643 
   23000    52.855773   -112.50308  0.047825014   -112.45525    3117.6925    4.3100377    4.3100377    4.3100377    3117.6925    1089.6906    5096.2534    3167.1337   -1004.5686   -746.53935    1346.0325    80.065092 
   23100     154.2719   -112.59424   0.13958846   -112.45465   -3803.9218    4.3110785    4.3110785    4.3110785   -3803.9218   -4905.4765   -2019.0509    -4487.238    586.69835    31.332321    41.428116    80.123112 
   23200    81.978109   -112.52932  0.074175516   -112.45515    1459.4395    4.3105674    4.3105674    4.3105674    1459.4395   -168.82113   -852.67955    5399.8191   -639.51742     563.5422   -123.56088    80.094616 
   23300    120.37853   -112.56375   0.10892103   -112.45483   -929.21729    4.3104245    4.3104245    4.3104245   -929.21729   -1586.3025    928.67727   -2130.0266    59.295239   -1007.1409    1304.2346    80.086648 
   23400    80.196169   -112.52765  0.072563179   -112.45508    1842.5774    4.3105133    4.3105133    4.3105133    1842.5774   -1735.7476    3563.1154    3700.3643     1466.957   -331.44266    1885.4626    80.091599 
   23500      71.9708   -112.52016  0.065120692   -112.45504    2418.1487    4.3102781    4.3102781    4.3102781    2418.1487    815.36382    6430.4196    8.6626121   -41.062947    219.93814    410.67502    80.078489 
   23600    133.25616   -112.57519   0.12057297   -112.45462   -2279.8995    4.3105401    4.3105401    4.3105401   -2279.8995   -3927.4363   -110.97868   -2801.2834     279.7631    332.97293   -492.24783    80.093095 
   23700    81.468651   -112.52859  0.073714547   -112.45488    1227.8904    4.3108655    4.3108655    4.3108655    1227.8904   -283.39742   -134.90052    4101.9691   -1335.3673   -407.21302    932.11865    80.111233 
   23800    147.14116   -112.58762   0.13313641   -112.45449   -2595.3463    4.3107832    4.3107832    4.3107832   -2595.3463   -3697.9125   -1713.9603   -2374.1661    661.18811    723.11046   -1074.0715    80.106646 
   23900    56.054239   -112.50611  0.050719053   -112.45539    3148.4922    4.3098683    4.3098683    4.3098683    3148.4922   -1835.2296    5810.0988    5470.6075     -719.139   -1632.9392    1677.3184    80.055653 
   24000    103.74666   -112.54909  0.093872161   -112.45522   -121.55186    4.3109388    4.3109388    4.3109388   -121.55186   -810.39988    3952.3617   -3506.6174    1081.1794   -347.44537    1521.9575    80.115322 
   24100    91.933548    -112.5383  0.083183406   -112.45512    534.13314    4.3101427    4.3101427    4.3101427    534.13314   -3795.3494     3661.426    1736.3228    958.16087    537.59649   -243.40914    80.070945 
   24200    107.95548   -112.55255  0.097680386   -112.45487   -1156.5903    4.3107846    4.3107846    4.3107846   -1156.5903   -2272.6259    241.51426   -1438.6591   -1333.2987   -1148.7378    73.892953    80.106722 
   24300    131.83886   -112.57393   0.11929057   -112.45464   -2580.1791    4.3114483    4.3114483    4.3114483   -2580.1791    -4402.643   -3299.1916   -38.702731    608.21496     998.6389    934.82136     80.14373 
   24400    72.209753   -112.52048  0.065336902   -112.45515    1568.7734    4.3098018    4.3098018    4.3098018    1568.7734   -3090.9654    5437.3925     2359.893   -752.93708   -287.17431    799.02769    80.051944 
   24500    105.71893   -112.55065  0.095656705     -112.455   -1246.4489    4.3109591    4.3109591    4.3109591   -1246.4489   -4101.1295    4196.4628   -3834.6798    1079.3589   -135.91668    227.71284    80.116452 
   24600    66.869514   -112.51566  0.060504941   -112.45516    1674.4819    4.3105784    4.3105784    4.3105784    1674.4819    -2734.257    4884.4034    2873.2992   -12.778729   -331.37448    1642.3921     80.09523 
   24700    134.95173   -112.57686   0.12210716   -112.45475   -2740.4559    4.3103709    4.3103709    4.3103709   -2740.4559   -3520.2993   -655.39855   -4045.6699    449.93042    887.76054   -858.28291    80.083662 
   24800    98.242345   -112.54399  0.088891738    -112.4551   -1025.4524    4.3113341    4.3113341    4.3113341   -1025.4524   -5018.4944   -1031.0865    2973.2238   -594.92038   -134.62268    1023.1683    80.137361 
   24900    114.21109   -112.55821    0.1033406   -112.45487   -1647.2143    4.3107336    4.3107336    4.3107336   -1647.2143   -1952.9815    197.25888   -3185.9204   -266.49399   -283.34275      1396.16    80.103882 
   25000    81.435799   -112.52863  0.073684822   -112.45494    585.80239    4.3100779    4.3100779    4.3100779    585.80239   -5015.1907    6109.0032    663.59465    1544.1496    1458.8866     550.1272    80.067332 
   25100    75.108733   -112.52287   0.06795996   -112.45491    748.42813    4.3111808    4.3111808    4.3111808    748.42813   -2198.7196    4924.6982    -480.6942   -105.92378   -1290.8785    1540.6219    80.128816 
   25200    120.23742   -112.56342   0.10879335   -112.45463   -1436.0721     4.310311     4.310311     4.310311   -1436.0721   -1664.4228   -621.71356   -2022.0799    1487.1442    882.88648    267.69834    80.080325 
   25300    97.982527   -112.54344   0.08865665   -112.45478   -91.648571    4.3105993    4.3105993    4.3105993   -91.648571   -4578.2215    1169.6996    3133.5762   -379.49999    554.42898   -167.08533    80.096393 
   25400     133.4899   -112.57536   0.12078447   -112.45458   -2791.6669     4.311527     4.311527     4.311527   -2791.6669   -1351.2529   -2306.7922   -4716.9556   -577.47013   -308.14693    346.37662     80.14812 
   25500    65.550616   -112.51456  0.059311575   -112.45525    2460.2285    4.3095118    4.3095118    4.3095118    2460.2285   -3489.0853    7219.1703    3650.6005    629.17919     623.1221    1911.5661    80.035786 
   25600    105.96305     -112.551  0.095877594   -112.45512    -196.9959    4.3109034    4.3109034    4.3109034    -196.9959    -2023.667      4774.74   -3342.0607     383.3994    144.08655   -1.8116148    80.113347 
   25700    77.827076   -112.52556  0.070419574   -112.45514    1682.0261     4.310543     4.310543     4.310543    1682.0261   -1096.9031     3981.944    2161.0374     987.8043   -371.44749    561.32791    80.093258 
   25800    126.39068   -112.56901   0.11436095   -112.45465   -1136.8279    4.3100344    4.3100344    4.3100344   -1136.8279   -2522.6088   -460.19145   -427.68354    137.53129   -71.997771    614.18975    80.064907 
   25900    111.05889   -112.55529   0.10048842    -112.4548   -592.56199    4.3112992    4.3112992    4.3112992   -592.56199   -770.42269   -4.5065658   -1002.7567    210.48834    891.33256   -580.49024    80.135415 
   26000    84.677353   -112.53165  0.076617849   -112.45503     1499.832    4.3100222    4.3100222    4.3100222     1499.832   -4188.2427    6058.1254    2629.6134   -403.59993   -1259.7301    1316.2769    80.064226 
   26100    107.24604   -112.55195  0.097038474   -112.45491    412.56693    4.3101734    4.3101734    4.3101734    412.56693   -1005.2561    4980.0079    -2737.051     316.2504    110.07958    1572.3944    80.072653 
   26200     63.80563   -112.51283  0.057732675    -112.4551    2908.4234    4.3107638    4.3107638    4.3107638    2908.4234   -2532.9779    6978.1734    4280.0747    1446.9052    391.77091   -125.25045    80.105564 
   26300    149.17021   -112.58966   0.13497234   -112.45469   -2959.3145    4.3103763    4.3103763    4.3103763   -2959.3145   -2986.5301   -1843.4503   -4047.9631   -468.15684   -768.01578   -291.16731    80.083965 
   26400    74.140415   -112.52242  0.067083805   -112.45534    1468.6409    4.3106016    4.3106016    4.3106016    1468.6409    333.36107    1714.5494    2358.0121    522.59167    912.55095    1328.1967    80.096522 
   26500    124.22168   -112.56726   0.11239839   -112.45486   -1844.1791    4.3110665    4.3110665    4.3110665   -1844.1791   -5706.4181    2004.5661   -1830.6852   -826.83567    351.69925   -335.42725    80.122439 
   26600    75.512078   -112.52335  0.068324915   -112.45502    1940.1225    4.3097789    4.3097789    4.3097789    1940.1225   -2405.7402    6996.4101    1229.6976    38.668223   -249.83789     1111.433    80.050671 
   26700    87.444635   -112.53407  0.079121743   -112.45494    639.50731    4.3109035    4.3109035    4.3109035    639.50731    -3559.495    3816.7176    1661.2993    1235.0783    40.959176    2128.8619     80.11335 
   26800    133.51049   -112.57537    0.1208031   -112.45456   -2784.4594     4.310912     4.310912     4.310912   -2784.4594   -5046.1636   -649.40369   -2657.8109    1083.8804   -216.33133   -261.69337    80.113826 
   26900     78.76665   -112.52615   0.07126972   -112.45488    733.32422    4.3103857    4.3103857    4.3103857    733.32422   -1284.4384    1066.6784    2417.7327    1018.1173   -118.42461    683.74066    80.084487 
   27000    136.14147   -112.57775   0.12318367   -112.45457    -3536.943    4.3113923    4.3113923    4.3113923    -3536.943   -3601.6012   -1899.8628   -5109.3649   -1199.2704    536.42206    738.31754    80.140608 
   27100    47.111627   -112.49807   0.04262759   -112.45544    3043.3553    4.3098173    4.3098173    4.3098173    3043.3553   -3604.1438    8144.1956    4590.0139    774.73516    1600.2825    510.86555    80.052811 
   27200    120.46352   -112.56416   0.10899792   -112.45516   -1748.1556    4.3108971    4.3108971    4.3108971   -1748.1556   -5036.9102    2125.2114    -2332.768   -806.79222    -175.5009    890.73971    80.112998 
   27300    89.990087   -112.53655  0.081424922   -112.45513   -664.29762    4.3107828    4.3107828    4.3107828   -664.29762    -4169.788    1824.2188    352.67639    1363.1072     625.0078     922.1657    80.106621 
   27400    117.76831   -112.56122   0.10655924   -112.45466   -2118.9674     4.310763     4.310763     4.310763   -2118.9674   -5026.1992   -1551.0189    220.31605    1506.7764    869.84643   -414.30918    80.105519 
   27500    122.26267   -112.56536   0.11062583   -112.45474   -1860.6174    4.3110815    4.3110815    4.3110815   -1860.6174   -2720.8422    495.53209    -3356.542   -814.08736   -1397.0019    625.67822    80.123275 
   27600    54.883541   -112.50504  0.049659781   -112.45538    2434.3731    4.3099669    4.3099669    4.3099669    2434.3731   -1287.3294     4877.049    3713.3996    809.85118    1727.2892    1740.4956    80.061145 
   27700    118.95799   -112.56259   0.10763569   -112.45496   -1402.8078    4.3108548    4.3108548    4.3108548   -1402.8078   -5426.5028    4148.5919   -2930.5126   -941.50579    358.40091    240.43326    80.110636 
   27800    70.285978   -112.51871   0.06359623   -112.45512    1800.1884    4.3103456    4.3103456    4.3103456    1800.1884   -1915.8477    4889.7445    2426.6686    1219.2862   -679.91462    660.12536    80.082254 
   27900    142.37845   -112.58362   0.12882702    -112.4548   -3776.0091    4.3108474    4.3108474    4.3108474   -3776.0091   -4291.1443   -3929.1028   -3107.7801     366.3061    956.00902    295.20378    80.110227 
   28000        95.36   -112.54157  0.086283732   -112.45528    354.20355    4.3109746    4.3109746    4.3109746    354.20355   -3647.2456     3637.253    1072.6033    597.94994   -62.713024   -412.91061    80.117315 
   28100    98.825187    -112.5444  0.089419106   -112.45499    1021.1355    4.3100106    4.3100106    4.3100106    1021.1355    307.12078    2360.5604    395.72533   -848.93564    145.02395    581.25122    80.063583 
   28200    83.973041   -112.53097  0.075980572   -112.45499    1099.5262    4.3103858    4.3103858    4.3103858    1099.5262   -2493.1292    6348.7347   -557.02683    -921.3797    43.545386    2194.3168    80.084492 
   28300    81.613374   -112.52874  0.073845496    -112.4549    1678.4632    4.3106285    4.3106285    4.3106285    1678.4632   -1289.6837    4174.7302    2150.3432    546.29955    809.35035    179.59601     80.09802 
   28400    138.19501   -112.57953   0.12504175   -112.45449   -2086.0105    4.3103071    4.3103071    4.3103071   -2086.0105   -2537.2529   -953.60664   -2767.1719   -234.73178   -958.11634    408.92293    80.080108 
   28500    88.701316    -112.5352  0.080258815   -112.45494    174.23982    4.3109872    4.3109872    4.3109872    174.23982   -3557.8078    1631.4477    2449.0795    1560.1248    204.47333    1150.1927    80.118017 
   28600    123.49894   -112.56638   0.11174443   -112.45464   -907.61693    4.3106978    4.3106978    4.3106978   -907.61693   -1879.6694    1046.8113   -1889.9927   -253.01024    60.184058     -803.463    80.101887 
   28700     66.46774   -112.51536  0.060141408   -112.45521    3120.9114    4.3096447    4.3096447    4.3096447    3120.9114   -2181.8993    8865.1124    2679.5211   -803.95968   -369.06281    1744.6632     80.04319 
   28800    98.711874    -112.5446  0.089316578   -112.45528    -486.2649    4.3111608    4.3111608    4.3111608    -486.2649   -983.18822    90.117204   -565.72368   -540.54162    1720.3015    2051.9937      80.1277 
   28900    98.483578   -112.54406  0.089110011   -112.45495    333.47693    4.3101656    4.3101656    4.3101656    333.47693   -2575.7236    2916.9855    659.16896   -12.552093   -339.37305   -94.537761    80.072218 
   29000    123.94326   -112.56673   0.11214647   -112.45459   -1241.8072    4.3105794    4.3105794    4.3105794   -1241.8072   -3685.4795    -1259.552      1219.61    684.27565    61.407252    20.554056    80.095282 
   29100    106.48945   -112.55118  0.096353891   -112.45482   -1343.7537    4.3113104    4.3113104    4.3113104   -1343.7537    -2879.237    1019.8383   -2171.8624    113.85243    221.88217    764.88654     80.13604 
   29200    75.209938   -112.52324  0.068051532   -112.45519    1642.6465    4.3097971    4.3097971    4.3097971    1642.6465   -5114.4817    7167.1638    2875.2572    528.10355    304.17862    438.86789    80.051687 
   29300    112.23244   -112.55651   0.10155027   -112.45496   -984.02819     4.310821     4.310821     4.310821   -984.02819   -2656.3295    1781.7318   -2077.4869   -1014.1665   -103.60253    1243.7158    80.108754 
   29400    67.829302    -112.5166  0.061373378   -112.45522    870.86445    4.3106847    4.3106847    4.3106847    870.86445   -2800.2464    2472.0146    2940.8252   -362.44681    901.79847    1246.0476    80.101155 
   29500    138.90879   -112.58036   0.12568759   -112.45468   -2762.9774    4.3104976    4.3104976    4.3104976   -2762.9774   -4557.2235   -2719.1042   -1012.6045    1114.8456    951.28396   -379.15488    80.090722 
   29600    94.495334   -112.54042  0.085501364   -112.45492    312.27779    4.3109307    4.3109307    4.3109307    312.27779   -3447.8543    4183.7897    200.89799   -306.42617   -1586.7024     255.1744    80.114869 
   29700    102.37742    -112.5476  0.092633237   -112.45497   -1449.2877    4.3106551    4.3106551    4.3106551   -1449.2877   -5335.8889    1528.1244   -540.09861    684.96278    1209.7529    622.01664    80.099504 
   29800    87.030176   -112.53372  0.078746733   -112.45498    245.12386    4.3102406    4.3102406    4.3102406    245.12386   -4505.1988    7091.7232   -1851.1528    -830.1186    239.16552    535.52029    80.076401 
   29900    94.382538   -112.54018  0.085399304   -112.45478    122.31458    4.3110011    4.3110011    4.3110011    122.31458   -3791.0281    1904.3693    2253.6026   -1122.6665   -597.50599    468.92873    80.118792 
   30000    114.52943    -112.5583   0.10362864   -112.45467   -1991.1632    4.3107067    4.3107067    4.3107067   -1991.1632   -1722.8829   -2516.7614   -1733.8452    341.27637    1580.3657    725.38978     80.10238 
   30100    82.638742   -112.52966  0.074773271   -112.45489    978.42079    4.3103921    4.3103921    4.3103921    978.42079   -3539.4156    5301.6192    1173.0587    411.53081   -477.30501   -493.61943    80.084842 
   30200    133.97216   -112.57576   0.12122082   -112.45454   -2035.6725    4.3110982    4.3110982    4.3110982   -2035.6725   -3404.8742   -161.88257   -2540.2607    1397.8787   -760.36311    644.83282     80.12421 
   30300    60.553424   -112.51002  0.054790011   -112.45523     1826.894    4.3099251    4.3099251    4.3099251     1826.894   -2614.8636    8008.2546    87.291013   -682.70322    1.6945506    2160.2331    80.058817 
   30400    122.80184   -112.56603   0.11111369   -112.45492   -1703.5434    4.3108769    4.3108769    4.3108769   -1703.5434   -5644.2752    539.17076    -5.525872    79.456276   -169.41199    399.54157     80.11187 
   30500    96.649041   -112.54232  0.087450084   -112.45487     741.8243     4.310756     4.310756     4.310756     741.8243    349.53995    936.99904    938.93392   -1480.5241    358.15156    498.06721     80.10513 
   30600    97.249426   -112.54284  0.087993325   -112.45485   -419.52702    4.3102476    4.3102476    4.3102476   -419.52702   -1651.9995    630.70937   -237.29093    408.30761    819.88223    537.34552     80.07679 
   30700    109.98396   -112.55424  0.099515802   -112.45473    -858.5974    4.3108902    4.3108902    4.3108902    -858.5974    -1186.344    1448.8972   -2838.3455    1343.3829   -294.46893   -786.32212    80.112611 
   30800    73.711189   -112.52164  0.066695433   -112.45495    2597.1909    4.3102056    4.3102056    4.3102056    2597.1909   -955.40078    6195.1604     2551.813   -375.32482    -1145.034    1590.5066    80.074451 
   30900    129.75579   -112.57246   0.11740577   -112.45505   -2148.7878    4.3103897    4.3103897    4.3103897   -2148.7878   -3969.6714   -1216.0388   -1260.6533    714.25089    659.19405     2273.249    80.084708 
   31000    72.352577   -112.52081  0.065466132   -112.45534    1857.3551    4.3107567    4.3107567    4.3107567    1857.3551    -720.9591    2578.0148    3715.0096   -1072.8096   -179.72402   -159.03799    80.105167 
   31100    141.44776   -112.58255   0.12798491   -112.45457   -1945.2899    4.3106781    4.3106781    4.3106781   -1945.2899   -1869.6001   -3167.2263    -799.0434     446.5543   -289.62759       473.02    80.100788 
   31200    77.474165   -112.52517  0.070100252   -112.45507    807.79002    4.3101236    4.3101236    4.3101236    807.79002    1580.9266    2219.2031   -1376.7596    102.73135    1133.5087     344.8837    80.069878 
   31300    82.761941   -112.52998  0.074884743    -112.4551    688.66854    4.3108511    4.3108511    4.3108511    688.66854   -2084.5281    2771.2168    1379.3169     1629.996   -1064.3959    57.408611    80.110429 
   31400    120.05905   -112.56338   0.10863195   -112.45475   -373.44684    4.3103024    4.3103024    4.3103024   -373.44684   -3182.4894    2097.0488   -34.899944   -319.50426   -593.76388    976.58562    80.079847 
   31500    74.036983     -112.522  0.066990218   -112.45501    1183.3167    4.3103819    4.3103819    4.3103819    1183.3167   -1654.6913     1350.195    3854.4464   -1238.2519    689.69097    917.00057    80.084275 
   31600    142.49711   -112.58344   0.12893438   -112.45451   -3459.3558    4.3114285    4.3114285    4.3114285   -3459.3558   -5286.0042   -3770.1711    -1321.892    395.15459    470.99934   -284.35312    80.142626 
   31700    83.987532     -112.531  0.075993684   -112.45501    1678.4292     4.309964     4.309964     4.309964    1678.4292    249.73132    3733.8687    1051.6875   -1030.5845   -625.04334   -189.10885    80.060984 
   31800    105.43372   -112.55036  0.095398645   -112.45496   -1210.4882    4.3108074    4.3108074    4.3108074   -1210.4882   -1205.9045   -920.83429   -1504.7259    1830.2572    328.79799     639.6204    80.107993 
   31900    70.852273   -112.51931  0.064108625    -112.4552    1380.3388    4.3105479    4.3105479    4.3105479    1380.3388   -3362.2563     6170.887    1332.3858    441.89404   -789.96292    500.87643    80.093527 
   32000    108.73259   -112.55323   0.09838353   -112.45484    184.65246    4.3101503    4.3101503    4.3101503    184.65246   -2964.6627    1019.5392    2499.0809   -47.486689   -1863.8775    1393.9139    80.071368 
   32100    114.73061   -112.55869   0.10381067   -112.45488   -2310.6875    4.3111693    4.3111693    4.3111693   -2310.6875   -4503.2423   -1777.6702   -651.14995   -553.70159    1334.6498    244.56773    80.128172 
   32200    89.711419   -112.53615  0.081172778   -112.45497   -373.53565    4.3106591    4.3106591    4.3106591   -373.53565   -4682.7854    2761.0086    801.16987    -327.6584    -488.0034   -354.02502     80.09973 
   32300    136.60002   -112.57805   0.12359857   -112.45445    -1523.667    4.3105765    4.3105765    4.3105765    -1523.667   -1772.1638   -930.00892   -1868.8282    580.21404   -109.54808    134.06341    80.095124 
   32400     49.53604   -112.50024   0.04482125   -112.45542    2711.2621    4.3103383    4.3103383    4.3103383    2711.2621   -647.10554    6040.4515    2740.4404    122.81332   -233.23854      1987.98    80.081845 
   32500    115.62425   -112.56004   0.10461925   -112.45543   -1756.1062    4.3105881    4.3105881    4.3105881   -1756.1062   -4694.5708   -365.05928   -208.68854    1115.2725    -1248.621    340.93125     80.09577 
   32600    95.909132   -112.54195  0.086780598   -112.45517    687.62781    4.3105059    4.3105059    4.3105059    687.62781   -1636.5259    1220.5793      2478.83   -1097.5728   -86.926716    578.14384    80.091187 
   32700     112.3639   -112.55653   0.10166922   -112.45486   -2162.0784    4.3108924    4.3108924    4.3108924   -2162.0784   -4234.2598   -1122.2264    -1129.749   -298.71993    189.21549    942.04503    80.112735 
   32800    112.06044    -112.5562   0.10139464   -112.45481   -1495.6589    4.3107336    4.3107336    4.3107336   -1495.6589   -4163.8405     199.7038    -522.8401     979.9838    151.45217   -937.91415    80.103881 
   32900    74.866377   -112.52276  0.067740671   -112.45502    2954.4829     4.310177     4.310177     4.310177    2954.4829    1037.3678     4631.306    3194.7749    232.63212   -1395.0627    1791.3224    80.072856 
   33000    112.67065   -112.55699   0.10194677   -112.45504   -1372.7385    4.3105311    4.3105311    4.3105311   -1372.7385   -2409.5435    -795.3374   -913.33443    1178.2263    449.76888    1732.4256    80.092592 
   33100    62.504601   -112.51183  0.056555476   -112.45528    1688.8498    4.3104873    4.3104873    4.3104873    1688.8498    -1244.838    1619.6695    4691.7178   -32.827351   -918.05231    90.361166    80.090149 
   33200     148.5291   -112.58886   0.13439225   -112.45447   -2510.6926    4.3108643    4.3108643    4.3108643   -2510.6926   -2238.2584   -3459.5118   -1834.3076    -808.3566    5.6277682    -174.5836    80.111167 
   33300    95.231151    -112.5412  0.086167147   -112.45504   -505.47018      4.31056      4.31056      4.31056   -505.47018   -3439.7907    390.67855    1532.7016   -688.02798    1719.1492   -63.365976    80.094204 
   33400    91.070886   -112.53741  0.082402851     -112.455   -99.982704    4.3108933    4.3108933    4.3108933   -99.982704   -1481.7415    1156.3613    25.432103    440.54256   -777.83564   -215.85705    80.112785 
   33500    102.80094   -112.54776  0.093016448   -112.45475    938.97073     4.310102     4.310102     4.310102    938.97073   -1172.6225    2667.0143    1322.5204    1055.5242   -682.74094    1205.2855    80.068675 
   33600    70.364988   -112.51877   0.06366772    -112.4551    1355.4438    4.3104535    4.3104535    4.3104535    1355.4438   -341.46515    746.59621    3661.2003   -79.365279    -623.4578    1566.6863    80.088268 
   33700    119.10557   -112.56265   0.10776922   -112.45488   -1811.7778    4.3110485    4.3110485    4.3110485   -1811.7778   -2380.0497   -2821.1125   -234.17128    928.15373   -494.34828   -205.93198    80.121437 
   33800    110.34848   -112.55462  0.099845627   -112.45478     821.5946    4.3099401    4.3099401    4.3099401     821.5946   -2605.6128    2284.6806     2785.716   -1514.3866   -394.26694    123.81819    80.059655 
   33900    121.59825   -112.56485   0.11002465   -112.45482   -1973.5111    4.3111473    4.3111473    4.3111473   -1973.5111   -2285.3002   -1552.6768   -2082.5562   -240.98667    1258.1277   -126.74937    80.126944 
   34000    62.900769   -112.51255  0.056913937   -112.45564    1651.8973    4.3101428    4.3101428    4.3101428    1651.8973   -3262.3542      5538.94     2679.106    1087.3074   -791.36043    896.97117    80.070949 
   34100    107.35457   -112.55238  0.097136674   -112.45524    666.55721    4.3100447    4.3100447    4.3100447    666.55721   -1123.1719    1699.0759    1423.7677   -893.00428   -1176.2895    957.79708     80.06548 
   34200    92.362179   -112.53879  0.083571241   -112.45522    81.535202    4.3110872    4.3110872    4.3110872    81.535202   -1754.7482   -792.77335    2792.1271    1037.3571    108.82692    505.17467    80.123596 
   34300    100.10852   -112.54553  0.090580296   -112.45495   -479.68379    4.3101465    4.3101465    4.3101465   -479.68379   -4209.2247     2676.867    93.306339   -1191.8833    -1047.113   -721.84016    80.071158 
   34400    139.51809   -112.58059    0.1262389   -112.45436   -1569.4478    4.3108019    4.3108019    4.3108019   -1569.4478   -3286.4516   -679.17405   -742.71765    91.612788    255.82056    503.94554    80.107688 
   34500    72.604681   -112.52078  0.065694241   -112.45509    1130.0306    4.3107779    4.3107779    4.3107779    1130.0306   -3666.6813    5094.0692    1962.7037   -65.985346    278.22888    1897.9361    80.106347 
   34600    97.076225   -112.54306  0.087836608   -112.45522   -725.51261    4.3099449    4.3099449    4.3099449   -725.51261   -3694.1897    1903.3155   -385.66362    1319.3111    -986.7986    598.02591    80.059923 
   34700    88.997637   -112.53552  0.080526932   -112.45499    1470.6069    4.3108272    4.3108272    4.3108272    1470.6069   -2155.4114    1415.4227    5151.8094    667.60465   -614.09643    717.36387      80.1091 
   34800    111.89135   -112.55612   0.10124164   -112.45488   -1619.0184    4.3108405    4.3108405    4.3108405   -1619.0184   -2156.9699   -261.42567   -2438.6596   -1290.0638       356.51     401.6604    80.109839 
   34900    101.60106   -112.54674  0.091930775   -112.45481   -1557.8451    4.3102796    4.3102796    4.3102796   -1557.8451   -4902.4173   -225.09511    453.97714    1093.4136    190.90555   -1112.6735    80.078575 
   35000    109.98076   -112.55405  0.099512906   -112.45453   -194.22289    4.3112924    4.3112924    4.3112924   -194.22289   -3615.9926    3276.9092   -243.58527    -1903.131    128.94588    478.42148    80.135035 
   35100    92.636838   -112.53859  0.083819758   -112.45477    -69.74588    4.3100772    4.3100772    4.3100772    -69.74588   -3087.7139    1222.5021    1655.9742    1102.5386    639.34509     2081.173    80.067293 
   35200     78.22705   -112.52586  0.070781479   -112.45508    331.96426    4.3103976    4.3103976    4.3103976    331.96426   -4900.5034    2228.8691     3667.527    1205.0047   -736.68413    191.03015     80.08515 
   35300     122.5733   -112.56549    0.1109069   -112.45459   -890.73801     4.311388     4.311388     4.311388   -890.73801   -229.30937   -1918.5079   -524.39674   -156.44156   -837.74844    364.40678    80.140367 
   35400    101.70383   -112.54694  0.092023766   -112.45492   -1002.6913     4.309862     4.309862     4.309862   -1002.6913   -3182.2831   -414.56548    588.77481    512.66763    1010.1439    -236.4867      80.0553 
   35500    99.883358   -112.54545  0.090376562   -112.45508   -1759.2459    4.3111488    4.3111488    4.3111488   -1759.2459   -3522.0628    1240.2384   -2995.9134   -672.16357   -262.77009    9.4057933    80.127026 
   35600    88.604743    -112.5353  0.080171434   -112.45512    1878.7399    4.3104897    4.3104897    4.3104897    1878.7399   -2059.3412    2702.5609    4993.0001    483.77036    199.06009    1209.3151    80.090286 
   35700    100.73013   -112.54638  0.091142734   -112.45524    330.81392    4.3096732    4.3096732    4.3096732    330.81392   -4023.1638    3214.2394    1801.3661   -428.98371    381.27718    1201.2185    80.044778 
   35800    86.428038   -112.53348  0.078201905   -112.45527   -155.99094    4.3113949    4.3113949    4.3113949   -155.99094   -893.28245   -1293.9175    1719.2271    1236.1099   -1484.0146   -14.435165    80.140754 
   35900    130.90288   -112.57312   0.11844368   -112.45468   -755.62537    4.3102984    4.3102984    4.3102984   -755.62537   -2875.0711    1041.4424   -433.24738   -802.74964    424.83545   -783.99126    80.079624 
   36000    107.07285   -112.55175   0.09688176   -112.45487   -482.76362    4.3101542    4.3101542    4.3101542   -482.76362   -551.89599      386.833   -1283.2279   -999.93956     474.2391    346.07065    80.071583 
   36100     65.52248   -112.51462  0.059286117   -112.45534    1412.3167    4.3110825    4.3110825    4.3110825    1412.3167    -3575.918    4611.3492    3201.5187    848.40454   -227.11788    659.55218    80.123331 
   36200    115.69809   -112.55954   0.10468606   -112.45486    903.37386    4.3096646    4.3096646    4.3096646    903.37386   -3708.6805    4284.7388    2134.0633   -891.81455   -661.26284    1879.8139    80.044301 
   36300     81.04138   -112.52843  0.073327944    -112.4551    1273.9199    4.3105244    4.3105244    4.3105244    1273.9199   -937.47996    589.61272     4169.627    1081.0429     123.1917    262.85819    80.092217 
   36400    119.22922    -112.5627   0.10788111   -112.45482   -2485.9161    4.3114319    4.3114319    4.3114319   -2485.9161   -5539.2602     1535.818   -3454.3059    598.54424   -1539.4501   -422.52012    80.142816 
   36500    115.62287   -112.55914     0.104618   -112.45452    678.10759    4.3097919    4.3097919    4.3097919    678.10759   -409.34576   -467.72963    2911.3982   -1005.9386   -162.47665   -144.45173    80.051396 
   36600    93.254896   -112.53911   0.08437899   -112.45473    547.32915    4.3109098    4.3109098    4.3109098    547.32915   -3084.9177    4717.4464    9.4587887    194.58272    1626.6198    1145.7123    80.113701 
   36700    78.812814   -112.52635   0.07131149   -112.45504    430.00043    4.3104501    4.3104501    4.3104501    430.00043    -4916.751    3068.0017    3138.7506   -466.06551   -429.32051    530.17017    80.088079 
   36800    98.184305   -112.54357  0.088839223   -112.45473    1233.8415    4.3099134    4.3099134    4.3099134    1233.8415   -2549.7376    1818.9163    4432.3459    698.33263     386.2541    334.22906    80.058164 
   36900    120.26239    -112.5635   0.10881594   -112.45468   -2430.4119    4.3113956    4.3113956    4.3113956   -2430.4119   -4971.2583    932.88692   -3252.8644    115.40303   -360.01338    830.44094    80.140791 
   37000    91.105126   -112.53747  0.082433832   -112.45504   -1096.1594     4.310487     4.310487     4.310487   -1096.1594   -3679.7522   -2038.9594    2430.2336    1094.6969   -378.14871   -1551.2228    80.090135 
   37100     122.7791   -112.56572   0.11109311   -112.45463   -403.27706    4.3105482    4.3105482    4.3105482   -403.27706   -3815.0299    3795.9525   -1190.7538    249.85895   -438.46323    951.90919    80.093543 
   37200    72.572565    -112.5208  0.065665182   -112.45513    1167.9633    4.3107004    4.3107004    4.3107004    1167.9633   -2762.9468    1688.2092    4578.6274   -861.00127    1052.2198    1865.1642    80.102029 
   37300    85.732401   -112.53287  0.077572478    -112.4553   -799.46983     4.310312     4.310312     4.310312   -799.46983    -5778.529    1752.7639    1627.3556    2623.8751   -108.19395     1041.439    80.080377 
   37400    121.86979   -112.56499   0.11027035   -112.45472   -1207.1696     4.310949     4.310949     4.310949   -1207.1696   -3732.8574    -630.0635    741.41223   -911.99223   -409.11381   -480.99196    80.115891 
   37500    108.37728   -112.55306  0.098062036     -112.455   -1814.5755    4.3107779    4.3107779    4.3107779   -1814.5755   -2847.0516   -2185.3654   -411.30941    1488.9023    978.12414   -431.45885    80.106351 
   37600    100.68572   -112.54619  0.091102552   -112.45509   -1836.2071    4.3107472    4.3107472    4.3107472   -1836.2071   -6040.4704    1861.6132   -1329.7639    521.28391   -1127.9323   -140.02674    80.104639 
   37700    84.815267    -112.5319  0.076742636   -112.45516    1728.5589    4.3105501    4.3105501    4.3105501    1728.5589   -336.29398    1582.9784    3938.9923   -1335.5855    996.88734    734.04238    80.093649 
   37800    92.144262   -112.53857  0.083374065    -112.4552   -122.08788    4.3102478    4.3102478    4.3102478   -122.08788   -3664.6875    2717.1343    581.28951    1425.2563    149.56829    1766.1647      80.0768 
   37900    91.680102   -112.53807  0.082954083   -112.45511   -682.70925    4.3108426    4.3108426    4.3108426   -682.70925   -4277.7513   -1324.3942    3554.0178    32.819349   -1463.9538   -9.4476585    80.109958 
   38000    131.45785   -112.57352   0.11894582   -112.45457   -852.40743    4.3106478    4.3106478    4.3106478   -852.40743   -468.75418   -154.34579   -1934.1223    1731.2519   -501.37701    138.90163    80.099097 
   38100    108.92292   -112.55328  0.098555747   -112.45473   -861.42784    4.3104186    4.3104186    4.3104186   -861.42784   -4175.8917     264.8554    1326.7528   -498.23673    348.43406   -379.72199    80.086319 
   38200     77.35497   -112.52517  0.069992403   -112.45518    538.16783    4.3108029    4.3108029    4.3108029    538.16783   -994.75569    2348.5434    260.71577    886.26139   -609.86882    903.87372    80.107742 
   38300    88.441725   -112.53495  0.080023931   -112.45493    2204.2039    4.3098345    4.3098345    4.3098345    2204.2039   -869.54744    4607.9494    2874.2097   -826.54556    634.81234    919.47781    80.053767 
   38400    100.34873   -112.54567  0.090797639   -112.45487    180.54817    4.3105794    4.3105794    4.3105794    180.54817   -2926.7217   -691.26991    4159.6361   -514.39293    899.01813    575.44552    80.095282 
   38500    100.98499   -112.54623  0.091373341   -112.45485   -296.36408    4.3109358    4.3109358    4.3109358   -296.36408   -1148.6499    2230.7275   -1971.1698    2010.1519   -1537.7334   -937.70026    80.115152 
   38600     133.7845   -112.57547   0.12105103   -112.45442   -327.05616    4.3100722    4.3100722    4.3100722   -327.05616   -3079.6192     -820.089    2918.5397   -1257.4215    -542.6549    -429.2312    80.067013 
   38700    98.412173   -112.54387  0.089045402   -112.45483    441.09199    4.3108094    4.3108094    4.3108094    441.09199   -906.56213    3542.7136   -1312.8755    1350.9459    115.36242    1447.3509    80.108108 
   38800    61.421087   -112.51085  0.055575091   -112.45527    2258.0285    4.3100779    4.3100779    4.3100779    2258.0285   -1882.2791    3679.2892    4977.0753   -325.68918    85.647261    437.92468    80.067332 
   38900    115.59008   -112.55941   0.10458834   -112.45482     577.7312    4.3099683    4.3099683    4.3099683     577.7312   -2735.3027    1022.7266    3445.7696     -95.1865    34.330964    1412.2569    80.061222 
   39000     88.05738    -112.5348  0.079676168   -112.45512    706.73219     4.311127     4.311127     4.311127    706.73219    -1666.631    2472.2766     1314.551    1191.9878    710.86881   -7.1668102    80.125813 
   39100     127.7909   -112.57053   0.11562789   -112.45491   -2717.1269    4.3104423    4.3104423    4.3104423   -2717.1269   -5485.8887   -2268.5763   -396.91578    481.55061   -934.29267   -971.91422     80.08764 
   39200    103.98056   -112.54904  0.094083795   -112.45495    492.03209    4.3104485    4.3104485    4.3104485    492.03209   -2244.1904    4279.1441   -558.85743    614.86809    183.06709   -299.03193    80.087988 
   39300    83.590999   -112.53074  0.075634893    -112.4551    664.76708    4.3109175    4.3109175    4.3109175    664.76708   -3442.4636     629.7136    4807.0512   -844.74144    852.71562    1984.0789     80.11413 
   39400    88.428572   -112.53525   0.08001203   -112.45524   -213.23254    4.3098598    4.3098598    4.3098598   -213.23254   -4362.3464    2138.6354    1584.0134    1377.2238   -545.59606    618.46136    80.055177 
   39500    94.058219   -112.54005  0.085105853   -112.45494    443.70362    4.3110339    4.3110339    4.3110339    443.70362   -2973.4355    197.31909    4107.2272   -72.542448   -87.019627    -260.6425    80.120624 
   39600    141.38514   -112.58269   0.12792824   -112.45476   -4317.4091    4.3112623    4.3112623    4.3112623   -4317.4091   -5976.9956   -3117.0123   -3858.2195    733.07085   -31.450064    5.7654763    80.133359 
   39700    71.137253   -112.51966  0.064366481    -112.4553   -397.79419    4.3100621    4.3100621    4.3100621   -397.79419   -4133.0832    2682.0795    257.62118    2648.4933   -1415.2125    -209.7001     80.06645 
   39800    117.93152   -112.56148   0.10670692   -112.45478   -1596.3362    4.3114812    4.3114812    4.3114812   -1596.3362   -5495.8332   -832.42983    1539.2544   -1690.0841     5.917565    1113.9303    80.145562 
   39900    70.564261    -112.5189  0.063848026   -112.45506    1298.2059    4.3100307    4.3100307    4.3100307    1298.2059   -2856.8169    3904.2817    2847.1529    1217.7859    1429.9835    1057.3195    80.064704 
   40000    90.071879   -112.53642  0.081498929   -112.45493   -999.96603    4.3105496    4.3105496    4.3105496   -999.96603   -4704.1449   -1696.2544    3400.5012    637.09818   -1312.0262    717.54302    80.093621 
   40100    140.33586   -112.58143   0.12697884   -112.45445   -3107.3747    4.3117212    4.3117212    4.3117212   -3107.3747   -4615.8636   -1078.8131   -3627.4473   -644.73536    338.23835   -962.62689    80.158949 
   40200    87.749904    -112.5342  0.079397958   -112.45481   -218.41514    4.3099541    4.3099541    4.3099541   -218.41514   -1974.0714   -201.06116    1519.8871    1907.1643   -365.70497    -176.3563    80.060433 
   40300    114.14903   -112.55816   0.10328444   -112.45487   -2526.2939    4.3110994    4.3110994    4.3110994   -2526.2939   -6517.2931    1138.0063   -2199.5951   -590.41287   -1140.5433     227.2236    80.124275 
   40400    58.986779   -112.50854  0.053372477   -112.45517    3538.0032    4.3103765    4.3103765    4.3103765    3538.0032   -97.454691     4474.766    6236.6982    350.66205     214.0425    1258.4874    80.083975 
   40500    113.87429   -112.55799   0.10303585   -112.45495   -508.38474    4.3098012    4.3098012    4.3098012   -508.38474   -2869.8655   -845.31859    2190.0299   -501.58017    149.95285    1086.0425    80.051914 
   40600    95.193525   -112.54113  0.086133102   -112.45499   -502.68843    4.3112181    4.3112181    4.3112181   -502.68843   -3053.2092    2599.4766   -1054.3326    1096.1223   -420.29887   -892.68162    80.130892 
   40700    124.96847   -112.56763    0.1130741   -112.45455   -228.06373    4.3105082    4.3105082    4.3105082   -228.06373    308.22242   -2547.9704    1555.5568    215.67462   -776.72497    84.118178    80.091314 
   40800    118.11174   -112.56167   0.10686999    -112.4548  -0.37195342    4.3099272    4.3099272    4.3099272  -0.37195342   -3739.2569    4840.1856   -1102.0445   -224.06051    679.01807    683.76138    80.058932 
   40900    48.749718   -112.49959  0.044109769   -112.45548    3622.9179     4.310649     4.310649     4.310649    3622.9179    369.15505    3857.6954    6641.9031    1152.7495   -1139.9765    950.01503    80.099162 
   41000     122.2164   -112.56553   0.11058396   -112.45494    520.45815    4.3098869    4.3098869    4.3098869    520.45815   -2226.4268    1711.6338    2076.1675   -2257.9163    1297.7857    373.70736    80.056687 
   41100     83.10942   -112.53022   0.07519915   -112.45503    1873.1218    4.3101083    4.3101083    4.3101083    1873.1218    -816.3419    3811.8366    2623.8707    1349.5722    54.902254    361.14689    80.069028 
   41200    124.25649   -112.56731   0.11242988   -112.45488   -2030.4493    4.3113759    4.3113759    4.3113759   -2030.4493   -1536.2455   -2554.1293   -2000.9731   -80.369039   -1113.0518   -1488.4264    80.139695 
   41300    111.48093   -112.55574   0.10087029   -112.45487    1192.8418    4.3097821    4.3097821    4.3097821    1192.8418   -3434.6379    5561.3986    1451.7645    294.25669   -358.25689    216.43171    80.050848 
   41400    85.240517   -112.53219  0.077127411   -112.45506    1874.9436    4.3104917    4.3104917    4.3104917    1874.9436   -137.03053    2236.9607    3524.9007    664.37312   -100.79362    2021.6826    80.090393 
   41500    87.785259   -112.53442  0.079429947     -112.455    171.37525    4.3107158    4.3107158    4.3107158    171.37525   -5022.7138     3520.311    2016.5285   -338.25219    -552.6274    985.50908    80.102888 
   41600    95.435217   -112.54103   0.08635179   -112.45468    910.29189    4.3099571    4.3099571    4.3099571    910.29189   -1970.0652    525.97113    4174.9697    27.420771    -512.4207   -9.2308776      80.0606 
   41700    126.70282   -112.56923   0.11464338   -112.45459   -2558.4742    4.3112193    4.3112193    4.3112193   -2558.4742   -2802.9078   -1053.8787    -3818.636   -623.35895    1234.2729   -534.98508    80.130958 
   41800    87.377343   -112.53406  0.079060856   -112.45499   -998.79762    4.3107102    4.3107102    4.3107102   -998.79762   -6128.9948     2207.519    925.08296    1688.6243   -1978.7678   -370.47681    80.102578 
   41900    111.32409    -112.5555   0.10072838   -112.45477   -822.80988    4.3104171    4.3104171    4.3104171   -822.80988   -2772.7467    939.39234   -635.07533   -1615.5215    52.881451    125.99941    80.086238 
   42000    77.245317   -112.52488  0.069893187   -112.45498    215.82966    4.3108458    4.3108458    4.3108458    215.82966   -5478.9584    3386.1951    2740.2522    144.06382     118.1655    1292.5192    80.110135 
   42100    94.223438   -112.54025  0.085255347   -112.45499   -1968.3446    4.3107161    4.3107161    4.3107161   -1968.3446   -5347.3256   -2635.2715    2077.5634    967.20044   -1202.2106    495.51703    80.102902 
   42200    116.84948   -112.56039   0.10572786   -112.45466   -1611.4715    4.3107894    4.3107894    4.3107894   -1611.4715   -3961.9132    279.04566   -1151.5468   -2107.9591    155.46618   -497.05049    80.106992 
   42300    112.12146   -112.55617   0.10144985   -112.45472   -2200.5926    4.3110471    4.3110471    4.3110471   -2200.5926   -4697.2881   -1547.5501   -356.93963    1458.8479   -1037.2626   -247.51262    80.121358 
   42400    95.067124   -112.54098  0.086018731   -112.45497   -1910.9872     4.310633     4.310633     4.310633   -1910.9872   -5304.9869    2218.3396   -2646.3142    27.154469   -1225.2066    486.48123    80.098273 
   42500    79.165017   -112.52664  0.071630171   -112.45501    964.79303    4.3105179    4.3105179    4.3105179    964.79303   -4239.0352     2520.578    4612.8363   -984.45085   -140.02974    1249.3728    80.091857 
   42600     103.2521   -112.54832  0.093424669   -112.45489   -1004.7697    4.3106872    4.3106872    4.3106872   -1004.7697   -3551.3649   -657.55424      1194.61    28.559526     676.0032    937.60052    80.101296 
   42700    86.772429   -112.53353  0.078513517   -112.45501   -239.50167    4.3106202    4.3106202    4.3106202   -239.50167   -4813.8058    1060.3577    3034.9432   -830.23109    -440.2282   -819.39826    80.097558 
   42800     134.0679   -112.57605   0.12130746   -112.45474   -1405.5852     4.310883     4.310883     4.310883   -1405.5852   -1156.5107   -1581.0913   -1479.1537   -165.78489    530.30765   -717.71412    80.112207 
   42900    103.30813   -112.54841  0.093475364   -112.45494    165.20927    4.3102633    4.3102633    4.3102633    165.20927   -2693.8412    4247.1013   -1057.6323    231.21202   -488.80807    796.09457    80.077668 
   43000    81.959081   -112.52939  0.074158299   -112.45523    709.67965    4.3105512    4.3105512    4.3105512    709.67965   -3260.0865    1916.4433    3472.6821    397.85806   -1721.6467    607.00802    80.093712 
   43100    94.215486   -112.54011  0.085248152   -112.45487    1819.4786    4.3101501    4.3101501    4.3101501    1819.4786   -262.46113    2970.4144    2750.4824   -785.44031   -72.975347     1254.908    80.071356 
   43200    97.198907   -112.54271  0.087947613   -112.45477    1320.1988    4.3102009    4.3102009    4.3102009    1320.1988   -3052.9731     1138.043    5875.5265     15.26362    451.47805    356.96536    80.074186 
   43300    109.72379   -112.55422  0.099280393   -112.45494   -478.47886     4.310869     4.310869     4.310869   -478.47886    90.888776     1150.348   -2676.6733    688.70173   -910.77905   -913.75566     80.11143 
   43400    109.17377   -112.55366  0.098782726   -112.45487    1029.3449    4.3099758    4.3099758    4.3099758    1029.3449   -801.04313    3730.4639    158.61379   -1168.9786    438.12909   -571.15812    80.061644 
   43500    108.73291   -112.55339  0.098383823   -112.45501    563.13014    4.3104417    4.3104417    4.3104417    563.13014    -996.9972    2479.4693    206.91828     1250.445    42.059269    1655.9631    80.087609 
   43600    68.599574   -112.51741  0.062070337   -112.45534    2222.8705    4.3104069    4.3104069    4.3104069    2222.8705   -388.68458    3293.4363    3763.8598   -503.10934   -1027.1834    497.07646    80.085668 
   43700    113.24792   -112.55719    0.1024691   -112.45472    628.12903    4.3099499    4.3099499    4.3099499    628.12903   -2631.2097   -727.59263    5243.1895    -887.5817    367.69812   -357.17038    80.060201 
   43800    99.276905    -112.5446   0.08982783   -112.45477    444.75674    4.3109189    4.3109189    4.3109189    444.75674    546.66226    2201.7005   -1414.0925    379.04938   -348.88272   -472.77863    80.114209 
   43900    105.16373   -112.54999  0.095154351   -112.45484   -1618.2223    4.3106425    4.3106425    4.3106425   -1618.2223   -2948.1241   -180.06687    -1726.476    477.04139   -792.08572   -688.55615      80.0988 
   44000    107.72277   -112.55234  0.097469831   -112.45487   -343.78852    4.3102366    4.3102366    4.3102366   -343.78852   -1489.7834    3393.3573   -2934.9395   -240.32167   -1344.6654    263.54501    80.076177 
   44100    84.278855   -112.53119  0.076257279   -112.45493    1117.6945    4.3110543    4.3110543    4.3110543    1117.6945   -1815.7835    615.17125    4553.6959   -186.58289    148.51785    1275.3644    80.121762 
   44200    100.49763   -112.54587  0.090932367   -112.45494   -1138.3078    4.3101822    4.3101822    4.3101822   -1138.3078   -4705.2326   -908.82098    2199.1301    592.61183   -1377.2243    779.00232    80.073143 
   44300      88.2119   -112.53468  0.079815981   -112.45487    359.14696    4.3106823    4.3106823    4.3106823    359.14696   -1820.6677    484.34318    2413.7654   -2065.4016    948.85392   -1044.8039    80.101019 
   44400    134.25217   -112.57607   0.12147419   -112.45459   -3270.1305    4.3115059    4.3115059    4.3115059   -3270.1305   -4451.1284   -2875.1924   -2484.0708    516.31002    366.71982   -342.89852    80.146943 
   44500     80.37639   -112.52781  0.072726247   -112.45508   -846.83973    4.3099497    4.3099497    4.3099497   -846.83973   -3118.5218    4218.4607    -3640.458    139.77828   -1769.4142   -417.78362    80.060189 
   44600     102.7084   -112.54777  0.092932716   -112.45484     -789.669    4.3113392    4.3113392    4.3113392     -789.669   -4359.1043   -1497.0583    3487.1555   -1051.3713    322.22558    904.14311    80.137646 
   44700    98.970038   -112.54435  0.089550171    -112.4548   -59.883276    4.3104727    4.3104727    4.3104727   -59.883276   -3371.8402     1652.797    1539.3935    887.40558   -1594.2708    916.25647    80.089334 
   44800    75.385672   -112.52327   0.06821054   -112.45506   -29.331874    4.3099719    4.3099719    4.3099719   -29.331874   -4196.8136   -366.05916    4474.8772   -508.67813   -394.85814   -459.03596    80.061423 
   44900    133.81868   -112.57587   0.12108196   -112.45479   -2696.8185    4.3117323    4.3117323    4.3117323   -2696.8185   -4994.2593   -870.87061   -2225.3256   -325.39325   -218.85929   -556.38566     80.15957 
   45000    93.531586   -112.53971  0.084629345   -112.45508    763.18086    4.3097827    4.3097827    4.3097827    763.18086   -972.15278     4385.412   -1123.7167    254.56672     527.6811    182.10153    80.050885 
   45100    107.39586   -112.55238  0.097174031   -112.45521   -1546.5678    4.3107763    4.3107763    4.3107763   -1546.5678   -5882.7914    1072.6577    170.43021    515.16674     -1210.27     1009.927    80.106258 
   45200    81.425869   -112.52873  0.073675838   -112.45505    1616.6044    4.3109567    4.3109567    4.3109567    1616.6044   -1407.4043    3550.6995    2706.5179   -1203.4785   -124.25877    266.04978     80.11632 
   45300    107.42245   -112.55183  0.097198086   -112.45463    350.50787    4.3095011    4.3095011    4.3095011    350.50787   -2419.6098   -1185.0185     4656.152    376.21392    730.99271    719.53413    80.035191 
   45400    90.021015   -112.53647  0.081452906   -112.45501   -496.06822    4.3111168    4.3111168    4.3111168   -496.06822   -4508.8084    4396.1788    -1375.575    307.30568   -1182.8588   -1671.1591    80.125243 
   45500    106.22692   -112.55103   0.09611635   -112.45491     368.9031     4.310587     4.310587     4.310587     368.9031    192.34973    979.35169   -64.992123   -355.28163    1173.4029   -302.85243    80.095709 
   45600    125.92544   -112.56869   0.11393998   -112.45475   -141.96317    4.3098203    4.3098203    4.3098203   -141.96317   -2953.3674    4857.6324   -2330.1545    1313.4974   -936.26651    702.93392    80.052977 
   45700    70.683463   -112.51911  0.063955883   -112.45516    1184.1906    4.3112602    4.3112602    4.3112602    1184.1906   -749.15621    2224.1992    2077.5287    36.062034   -981.39444    749.10431     80.13324 
   45800    115.81071    -112.5595   0.10478796   -112.45471   -494.96746    4.3101151    4.3101151    4.3101151   -494.96746    -1813.844   -2472.2818    2801.2234   -888.42124   -550.76894   -339.84346    80.069403 
   45900     83.13037   -112.53005  0.075218106   -112.45483    1935.5428    4.3100115    4.3100115    4.3100115    1935.5428   -1546.7314    5100.5129    2252.8467    93.804034    97.547513   -697.50892    80.063631 
   46000    103.24449   -112.54831  0.093417781   -112.45489   -1270.4382    4.3113468    4.3113468    4.3113468   -1270.4382   -1259.0781   -1195.5625    -1356.674    9.8563244   -100.11669   -489.07659    80.138067 
   46100    106.21325   -112.55084  0.096103981   -112.45474    307.11976    4.3097812    4.3097812    4.3097812    307.11976   -2464.6054     5674.838   -2288.8734   -783.10478    449.67327   -1152.5028    80.050796 
   46200    109.82772   -112.55408  0.099374433   -112.45471   -11.340545    4.3108465    4.3108465    4.3108465   -11.340545    472.41825   -230.10786   -276.33202    1147.4731    193.62946    1735.6024    80.110175 
   46300    93.913682   -112.53998  0.084975073   -112.45501   -1024.4126    4.3108724    4.3108724    4.3108724   -1024.4126    -3094.438   -199.85823    221.05834   -121.16992   -1525.2142    -428.0342    80.111619 
   46400    85.630219   -112.53235  0.077480022   -112.45487    1333.5139    4.3098349    4.3098349    4.3098349    1333.5139   -1886.7553     731.4826    5155.8143   -1320.2854   -35.144633   -1178.8432    80.053791 
   46500    112.12262   -112.55617    0.1014509   -112.45472   -81.650375    4.3109462    4.3109462    4.3109462   -81.650375   -1208.1732    2206.6605   -1243.4384    506.61727   -328.21838   -817.29855    80.115735 
   46600    87.104671   -112.53401  0.078814137    -112.4552   -372.58561    4.3103426    4.3103426    4.3103426   -372.58561   -4661.6507    4278.1703   -734.27647    104.88652   -773.70444   -266.26317    80.082085 
   46700    118.78624   -112.56248   0.10748029   -112.45499   -1488.0087     4.310751     4.310751     4.310751   -1488.0087   -1556.4769   -326.01852   -2581.5307   -672.65128    28.440079      791.392    80.104848 
   46800    100.42895   -112.54574  0.090870221   -112.45487    48.727454    4.3107941    4.3107941    4.3107941    48.727454   -2251.9586    2985.6069   -587.46603    545.31188   -349.84571    656.21813    80.107255 
   46900    92.977171     -112.539  0.084127698   -112.45487   -698.94089     4.310332     4.310332     4.310332   -698.94089   -4439.8671     -1745.37    4088.4144    27.604555     -1346.54    -229.2895    80.081494 
   47000    81.360088    -112.5286  0.073616318   -112.45498    1736.7786    4.3105281    4.3105281    4.3105281    1736.7786   -2522.8818    6514.1616    1219.0558   -1210.5545     650.1536   -1655.8003    80.092427 
   47100    118.34127   -112.56193   0.10707767   -112.45485   -594.59654    4.3104154    4.3104154    4.3104154   -594.59654   -4134.2178    1781.3636    569.06454    631.83753    257.11349    19.905333    80.086143 
   47200    99.180651   -112.54481  0.089740737   -112.45507   -1594.0594     4.310777     4.310777     4.310777   -1594.0594   -4287.7984    2918.1025   -3412.4823    714.41388    -419.4281    139.30455    80.106301 
   47300    107.82545   -112.55235  0.097562729   -112.45479   -1023.6479    4.3110396    4.3110396    4.3110396   -1023.6479   -3394.5929    1069.4706   -745.82143   -805.15825   -253.05214    783.07714    80.120942 
   47400     111.8265   -112.55593   0.10118297   -112.45475   -398.05647    4.3101505    4.3101505    4.3101505   -398.05647   -2527.8414   -174.50802      1508.18    425.13705   -1115.4075   -93.414712     80.07138 
   47500    54.428772   -112.50454  0.049248297   -112.45529    1938.8648    4.3106703    4.3106703    4.3106703    1938.8648   -4300.2711    6462.8379    3654.0276   -123.33967   -1376.9957   -1145.0882    80.100351 
   47600    119.48792   -112.56288   0.10811518   -112.45476   -1220.9276    4.3106607    4.3106607    4.3106607   -1220.9276   -3770.1893   -255.14937    362.55578    -950.2987   -361.42846   -935.52258    80.099818 
   47700    97.614479   -112.54307  0.088323632   -112.45475    184.36191    4.3102106    4.3102106    4.3102106    184.36191   -2146.2054    4915.9318   -2216.6407    1223.1659    843.88245    426.26562    80.074727 
   47800    125.79207   -112.56859   0.11381931   -112.45477   -3438.1791    4.3115617    4.3115617    4.3115617   -3438.1791   -5904.2947   -2198.2915   -2211.9513   -307.03202   -995.91243    292.04235    80.150053 
   47900    97.727955    -112.5434  0.088426307   -112.45498    112.47216    4.3102329    4.3102329    4.3102329    112.47216   -521.21781    1084.3239    -225.6896   -1060.9689    864.61599   -424.72849    80.075968 
   48000    84.963384   -112.53167  0.076876655   -112.45479    1411.2127    4.3102833    4.3102833    4.3102833    1411.2127   -2801.4929      3090.38    3944.7509    235.01374   -1222.8529   -608.96717    80.078779 
   48100    84.694737   -112.53161  0.076633578   -112.45498   -265.41212    4.3109179    4.3109179    4.3109179   -265.41212   -3798.6526    2597.1982    405.21808   -886.57304   -870.08358   -1516.3055    80.114157 
   48200    89.668973   -112.53608  0.081134371   -112.45494    568.10532    4.3100156    4.3100156    4.3100156    568.10532   -351.01059    2266.1988   -210.87225   -795.13749    219.30496   -671.89959     80.06386 
   48300    144.64401   -112.58558   0.13087694    -112.4547   -2661.0607    4.3110566    4.3110566    4.3110566   -2661.0607   -4575.7052   -469.75894   -2937.7179     1182.704   -717.18286     841.5924    80.121887 
   48400    87.583783   -112.53436  0.079247647   -112.45511    194.13203    4.3107407    4.3107407    4.3107407    194.13203   -220.17028    1337.4298   -534.86346     68.48136    46.227583    610.42996    80.104277 
   48500     108.6818   -112.55314  0.098337578    -112.4548    89.045472    4.3101104    4.3101104    4.3101104    89.045472   -2715.3909    515.85174    2466.6756   -1939.6042   -1018.0936    -1904.359    80.069143 
   48600    72.046085    -112.5202  0.065188812   -112.45501    2483.6777    4.3104195    4.3104195    4.3104195    2483.6777   -1271.7909    6245.7146    2477.1095    440.13866    225.77687   -142.67752    80.086369 
   48700    91.057852   -112.53751  0.082391058   -112.45512   -107.40071    4.3104817    4.3104817    4.3104817   -107.40071   -1322.9924   -584.66002    1585.4503   -730.92554   -1318.7259   -727.24817    80.089837 
   48800    118.82158   -112.56237   0.10751226   -112.45486   -847.95471    4.3104169    4.3104169    4.3104169   -847.95471   -4535.3044    3251.6717   -1260.2315   -461.67146     1156.705    438.41376    80.086228 
   48900    116.71579   -112.56036    0.1056069   -112.45475   -243.86217    4.3109213    4.3109213    4.3109213   -243.86217   -97.108837   -552.29248   -82.185183    941.12841   -55.195496    1185.6689    80.114346 
   49000    105.22443   -112.55015  0.095209275   -112.45494   -455.31246     4.310393     4.310393     4.310393   -455.31246   -4767.8292    2147.1833    1254.7085    378.22654   -1018.9662    -878.9723    80.084892 
   49100    69.372703   -112.51787   0.06276988    -112.4551    2620.8063    4.3100505    4.3100505    4.3100505    2620.8063   -1882.4249    5300.6526    4444.1913   -1008.3949   -29.659897   -1156.1298    80.065806 
   49200    105.42522   -112.55022  0.095390957   -112.45482    274.09708    4.3106527    4.3106527    4.3106527    274.09708   -1749.3575   -815.92717    3387.5759   -59.089693   -1635.2568   -1392.5015    80.099373 
   49300    91.443199   -112.53778  0.082739728   -112.45504   -51.515943     4.310359     4.310359     4.310359   -51.515943   -5384.6841    3946.7022    1283.4341    806.73105    -336.0427     1078.919    80.082998 
   49400    125.56655   -112.56844   0.11361526   -112.45482   -1834.8018    4.3109097    4.3109097    4.3109097   -1834.8018   -2562.1063   -3437.9204     495.6213   -1453.5821   -417.20432    155.02504    80.113695 
   49500    107.78396   -112.55237   0.09752519   -112.45484   -658.38269    4.3107938    4.3107938    4.3107938   -658.38269   -5050.1612    2640.5415    434.47164     1461.439     714.8886    877.38149    80.107237 
   49600     80.62725   -112.52792  0.072953231   -112.45496     36.02468    4.3102074    4.3102074    4.3102074     36.02468   -4592.2989     1894.088     2806.285   -628.47666   -1305.9215   -1346.1928     80.07455 
   49700     86.58279    -112.5332  0.078341928   -112.45486    407.20047    4.3106557    4.3106557    4.3106557    407.20047   -3682.8174    787.67557    4116.7433   -1591.1162   -245.61706   -1070.2338    80.099536 
   49800    107.38465   -112.55186  0.097163888   -112.45469   -584.33968    4.3106781    4.3106781    4.3106781   -584.33968   -3923.9558   -4.8345219    2175.7713    1413.6607   -644.28984     53.11945    80.100787 
   49900    110.54344   -112.55496   0.10002203   -112.45494    -2142.135    4.3106229    4.3106229    4.3106229    -2142.135   -4455.6319   -2003.1872    32.414097   -968.14257   -1288.0394   -242.94959    80.097707 
   50000    106.28928     -112.551  0.096172778   -112.45483     -1590.66    4.3111197    4.3111197    4.3111197     -1590.66   -4840.5802   -204.69897    273.29919   -311.69499    442.24292    537.43386    80.125409 
   50100    106.68386   -112.55132  0.096529796   -112.45479    -1185.888    4.3104531    4.3104531    4.3104531    -1185.888   -4018.3093   -186.96574    647.61096    670.86183   -1007.0826   -831.44215    80.088243 
   50200    61.267308    -112.5106  0.055435948   -112.45516    1163.3576     4.310234     4.310234     4.310234    1163.3576   -4917.2614    5124.0611    3283.2731   -1061.2816   -1346.4201   -471.92652    80.076034 
   50300    112.35621   -112.55641   0.10166226   -112.45475   -1153.2521      4.31106      4.31106      4.31106   -1153.2521   -3125.7357    -3579.917    3245.8963   -1708.8718   -534.83389   -1322.7696     80.12208 
   50400    104.87548   -112.54976  0.094893535   -112.45486   -136.97152    4.3102633    4.3102633    4.3102633   -136.97152   -2504.0745    2749.4047   -656.24469    472.37691    -832.2038    1797.2133    80.077663 
   50500    111.60334   -112.55581   0.10098105   -112.45483   -1823.7593    4.3108664    4.3108664    4.3108664   -1823.7593   -3755.3199   -1287.8131   -428.14482    166.16264   -325.78443    48.437908    80.111283 
   50600    108.52275    -112.5531  0.098193669   -112.45491   -541.32985    4.3108718    4.3108718    4.3108718   -541.32985   -2793.5712    618.93615    550.64549   -910.79283    1112.3932   -1142.8936    80.111586 
   50700    73.386535   -112.52141  0.066401679   -112.45501    2659.4543    4.3096911    4.3096911    4.3096911    2659.4543    -3240.009    7271.9512    3946.4207    1098.8539   -910.68046    -560.7247    80.045778 
   50800     104.5799   -112.54955  0.094626095   -112.45493   -381.82146    4.3108206    4.3108206    4.3108206   -381.82146   -3517.4608   -2529.7329    4901.7293   -848.89022   -701.67681   -930.83668    80.108731 
   50900    92.620199   -112.53871  0.083804702   -112.45491    1321.5533    4.3104357    4.3104357    4.3104357    1321.5533   -1806.0554    4551.2744    1219.4409   -1216.1378   -1305.2081    319.73106    80.087276 
   51000    128.61566   -112.57113   0.11637415   -112.45476   -920.23181    4.3102255    4.3102255    4.3102255   -920.23181   -1575.9774   -1882.1935    697.47545     1157.356   -315.21788    468.22729    80.075556 
   51100    92.919062   -112.53919   0.08407512   -112.45511    443.95429    4.3108077    4.3108077    4.3108077    443.95429   -1949.8756    3093.1823    188.55618   -341.18852   -241.91224    751.85828     80.10801 
   51200    85.465902   -112.53229  0.077331344   -112.45496    2401.1328    4.3099821    4.3099821    4.3099821    2401.1328   -2658.7064    3753.0481    6109.0566   -156.98473    947.40357   -1976.6091    80.061995 
   51300    107.19077   -112.55172  0.096988463   -112.45474    964.00541     4.310074     4.310074     4.310074    964.00541   -2607.2332   -208.23079    5707.4802    385.07595    212.47465   -142.32512    80.067112 
   51400    86.768368   -112.53351  0.078509843     -112.455    351.76673    4.3108128    4.3108128    4.3108128    351.76673   -3242.6526    2060.6502    2237.3026   -543.12846   -927.93426   -135.99512    80.108293 
   51500    129.54696   -112.57202   0.11721681    -112.4548    -1929.167    4.3104694    4.3104694    4.3104694    -1929.167   -3384.5144   -4530.2242    2127.2375   -1094.2703    733.32596    829.47957    80.089152 
   51600    96.068338   -112.54187  0.086924651   -112.45495    260.91347    4.3105729    4.3105729    4.3105729    260.91347   -1287.2512    2935.0975   -865.10583    1083.0811   -1173.7289    -96.14536    80.094923 
   51700     84.40981   -112.53138   0.07637577     -112.455   -81.654981    4.3107848    4.3107848    4.3107848   -81.654981   -4097.9433   -916.74118    4769.7196    505.99623    745.43649   -990.32654    80.106734 
   51800    92.236327   -112.53825  0.083457367   -112.45479    613.13722    4.3101628    4.3101628    4.3101628    613.13722   -4176.4675    867.58309    5148.2961   -2221.6686   -526.74169   -811.72566    80.072063 
   51900    102.08819   -112.54704  0.092371541   -112.45466   -772.97359    4.3108529    4.3108529    4.3108529   -772.97359   -2930.8473   -1340.7059    1952.6324    1269.1642   -109.68442   -257.88692     80.11053 
   52000    119.68689   -112.56311   0.10829521   -112.45481   -3630.4138    4.3110203    4.3110203    4.3110203   -3630.4138   -6382.5528   -4508.7426   0.05399914   -1781.6678   -1243.0951    983.28469    80.119863 
   52100    98.424012     -112.544  0.089056115   -112.45494   -680.89589    4.3104865    4.3104865    4.3104865   -680.89589   -2818.9276    310.32378    465.91612   -1487.8686    409.56475   -285.20686    80.090107 
   52200     105.9489   -112.55069   0.09586479   -112.45482   -1042.8199    4.3109358    4.3109358    4.3109358   -1042.8199   -2718.4259    -2084.632    1674.5983     1967.024    1183.2296    615.67876    80.115152 
   52300    62.619407   -112.51182  0.056659356   -112.45516    633.59245    4.3103597    4.3103597    4.3103597    633.59245    -5664.295    2695.0638    4870.0086   -1670.7077   -661.47952   -1693.8484     80.08304 
   52400    100.65046   -112.54582   0.09107065   -112.45475   -553.45178    4.3106418    4.3106418    4.3106418   -553.45178   -2536.5999   -3043.4469    3919.6915   -333.19887    1365.8062   -548.43326    80.098764 
   52500    129.52633   -112.57185   0.11719814   -112.45465    -2495.485    4.3110461    4.3110461    4.3110461    -2495.485   -5104.7835   -346.32083   -2035.3507    -509.4228   -1674.2391    706.71535      80.1213 
   52600    90.053184   -112.53667  0.081482014   -112.45519      -449.03    4.3103602    4.3103602    4.3103602      -449.03   -4776.5416   -803.85782    4233.3094   -1383.9358   -288.79587    398.00631    80.083065 
   52700    125.89112   -112.56884   0.11390893   -112.45493   -751.86785    4.3106615    4.3106615    4.3106615   -751.86785   -2049.8503   -625.93598    420.18268   -529.63505   -551.42407   -1081.8807    80.099862 
   52800    64.404117   -112.51346  0.058274199   -112.45518     3011.806    4.3100773    4.3100773    4.3100773     3011.806   -3368.6131    5138.7956    7265.2356    631.38289    810.57684   -804.54401      80.0673 
   52900    90.254106   -112.53668  0.081663812   -112.45502   -35.484465     4.310312     4.310312     4.310312   -35.484465   -2999.1706   -2542.1303    5434.8475   -299.46753     368.6672    231.63968    80.080381 
   53000    116.66537   -112.56019   0.10556128   -112.45463    165.03295     4.310631     4.310631     4.310631    165.03295   -2658.0193    3075.9862    77.132035   -1533.6997    127.90116    -430.3579    80.098161 
   53100    111.56879   -112.55573   0.10094979   -112.45478    421.16377    4.3103158    4.3103158    4.3103158    421.16377   -3340.6881   -978.59873    5582.7782    1066.6647     189.1508    1404.5241    80.080592 
   53200    112.76411   -112.55704   0.10203134   -112.45501   -782.03241    4.3104636    4.3104636    4.3104636   -782.03241   -3167.8627    1115.7202   -293.95479   -1380.9433   -734.85053    -370.5965    80.088828 
   53300    69.566543   -112.51804   0.06294527   -112.45509    3725.8846    4.3101026    4.3101026    4.3101026    3725.8846   -1942.7419    4478.2661    8642.1295    -435.0286    1037.8057   -1027.0545    80.068711 
   53400    111.95977   -112.55599   0.10130356   -112.45468    168.57125    4.3100682    4.3100682    4.3100682    168.57125   -2005.6699   -1113.1477    3624.5314    1672.3373   -422.27516   -1432.6176    80.066794 
   53500     73.63007   -112.52159  0.066622035   -112.45497    999.52457    4.3106006    4.3106006    4.3106006    999.52457   -2757.4659    2416.2832    3339.7565   -1368.2907   -412.21291    389.07082    80.096464 
   53600    139.51958   -112.58068   0.12624024   -112.45444   -1589.0994     4.310727     4.310727     4.310727   -1589.0994   -2830.3573   -3278.6495    1341.7086   -632.85659    -40.48067    550.25023    80.103511 
   53700     107.2412   -112.55188  0.097034092   -112.45484   -270.72713    4.3103327    4.3103327    4.3103327   -270.72713   -2666.9004    1048.2722    806.44685    129.29644   -743.60097    438.47351    80.081533 
   53800    71.826365   -112.52019  0.064990005    -112.4552    262.42971    4.3109277    4.3109277    4.3109277    262.42971   -3661.5242    205.82139    4242.9919    -698.2544   -227.52442   -488.67562    80.114699 
   53900    107.26878   -112.55174  0.097059043   -112.45468   -8.9515255    4.3100678    4.3100678    4.3100678   -8.9515255   -2286.1359   -61.804814    2321.0861   -555.32295    1765.3838   -1123.9459     80.06677 
   54000    75.115119   -112.52281  0.067965738   -112.45485    1484.5678    4.3104049    4.3104049    4.3104049    1484.5678   -1821.0189    622.54032     5652.182    691.76647    79.511814    253.51039    80.085555 
   54100    134.33516    -112.5764   0.12154928   -112.45485   -4048.0436    4.3114234    4.3114234    4.3114234   -4048.0436   -3843.4827   -5027.6685   -3272.9796   -1092.1087    -345.5592   -156.12657    80.142343 
   54200    90.676731   -112.53729  0.082046212   -112.45524     760.4147    4.3098018    4.3098018    4.3098018     760.4147   -2733.3442    172.86001    4841.7283   -2045.2241   -792.66361    338.53268    80.051946 
   54300     119.0917   -112.56272   0.10775667   -112.45496   -2025.6167    4.3112292    4.3112292    4.3112292   -2025.6167    -3756.335   -2683.4972      362.982     955.8452    -622.0442   -718.16822     80.13151 
   54400    59.008991    -112.5087  0.053392575   -112.45531    972.09484    4.3103253    4.3103253    4.3103253    972.09484   -4423.8563    1735.6413    5604.4995   -1814.7695   -434.27505   -759.51086    80.081123 
   54500    99.366312   -112.54466  0.089908727   -112.45475    808.60574    4.3099768    4.3099768    4.3099768    808.60574   -2934.0443   -224.24459    5584.1061   -698.83414    496.27724     -1006.81    80.061696 
   54600    134.88124   -112.57671   0.12204338   -112.45467   -2524.9976    4.3116172    4.3116172    4.3116172   -2524.9976   -3035.0826   -2520.8588   -2019.0513    1062.0443     452.8725    1321.1995    80.153151 
   54700    70.810457   -112.51938   0.06407079   -112.45531    263.46306    4.3099202    4.3099202    4.3099202    263.46306   -4518.6942   -298.58365     5607.667   -3424.6615   -948.58415    494.81618    80.058546 
   54800     147.0242   -112.58779   0.13303059   -112.45476   -2356.1116    4.3108236    4.3108236    4.3108236   -2356.1116   -3919.1407    -2712.785   -436.40905   -205.99455    532.67361   -1094.7104    80.108899 
   54900     48.94473   -112.49956  0.044286221   -112.45528    3713.8724    4.3105147    4.3105147    4.3105147    3713.8724   -3276.9544    4530.6448    9887.9268   -176.07026   -1149.8029    -789.7116    80.091678 
   55000    103.65772   -112.54883  0.093791681   -112.45503   -1112.2996    4.3098161    4.3098161    4.3098161   -1112.2996   -5722.2796   -828.46492    3213.8459   -1584.0098     480.1727   -847.47227    80.052742 
   55100    108.55831   -112.55284  0.098225842   -112.45462    591.35282    4.3111067    4.3111067    4.3111067    591.35282   -2555.9257    1452.0494    2877.9348    273.02086   -760.20944    175.47299    80.124682 
   55200    113.60855   -112.55739    0.1027954   -112.45459   -908.42642    4.3105249    4.3105249    4.3105249   -908.42642    -3596.522   -677.63138    1548.8742   -399.34228    -464.5084    517.50017    80.092249 
   55300     110.2452   -112.55479   0.09975217   -112.45504   -2179.0073    4.3102401    4.3102401    4.3102401   -2179.0073   -5478.1543   -1504.3459    445.47821   -919.18554   -1161.5907    814.67163    80.076372 
   55400    63.924127   -112.51299  0.057839894   -112.45515    3691.1497    4.3109858    4.3109858    4.3109858    3691.1497    -2637.025    4909.1279    8801.3463   -1211.9317   -642.42248   -1869.1933    80.117939 
   55500    124.26048   -112.56724   0.11243349    -112.4548   -1009.5684    4.3097967    4.3097967    4.3097967   -1009.5684   -5034.8907   -11.727228    2017.9128    978.40792    524.34312   -658.89287    80.051663 
   55600    58.456904   -112.50807  0.052893035   -112.45518    1196.3173    4.3105569    4.3105569    4.3105569    1196.3173   -4306.2889    3272.0595    4623.1813   -1140.4911   -1429.4981   -145.68372    80.094029 
   55700    155.53008   -112.59522   0.14072689   -112.45449   -3039.2975    4.3115256    4.3115256    4.3115256   -3039.2975   -3308.6142   -2969.5292    -2839.749   -345.23926     1368.822    892.48455    80.148042 
   55800    99.914387   -112.54559  0.090404637   -112.45519   -143.96307    4.3093829    4.3093829    4.3093829   -143.96307   -3809.8889    434.99193    2943.0077    1205.1528   -1817.4766     500.1783    80.028604 
   55900    66.063897   -112.51524  0.059776002   -112.45546    650.39267    4.3115425    4.3115425    4.3115425    650.39267   -4010.6106    1661.7396     4300.049   -2102.6069   -339.45876   -949.25352    80.148985 
   56000    115.69204   -112.55932   0.10468059   -112.45464    563.99869    4.3102261    4.3102261    4.3102261    563.99869   -3444.3139    517.21791    4619.0921    755.79831   -640.61819   -1166.5916    80.075594 
   56100    72.717473   -112.52076  0.065796298   -112.45496    1613.4682     4.309605     4.309605     4.309605    1613.4682   -2723.0564    4764.4711    2798.9897     463.3703   -838.48533    -539.1148     80.04098 
   56200    129.91156   -112.57243   0.11754671   -112.45489   -4113.0944     4.312281     4.312281     4.312281   -4113.0944   -4852.4254   -5216.7885   -2270.0694   -1513.9231   -172.76146    771.23898    80.190176 
   56300    106.67043   -112.55148  0.096517649   -112.45496    1308.7444    4.3092558    4.3092558    4.3092558    1308.7444    -2134.049    829.52789    5230.7543    308.69909   -425.58407    20.429944    80.021527 
   56400    105.45991   -112.55042  0.095422344     -112.455   -123.36617    4.3106985    4.3106985    4.3106985   -123.36617   -2733.0654   -603.74626    2966.7131   -144.94807    179.51751     141.6473    80.101921 
   56500    62.579631    -112.5119  0.056623365   -112.45527    1145.3013    4.3111596    4.3111596    4.3111596    1145.3013   -4714.2988   -241.76165    8391.9643   -1624.4814   -604.85578    -1049.162     80.12763 
   56600    107.27526   -112.55164  0.097064908   -112.45458    1475.1938    4.3090532    4.3090532    4.3090532    1475.1938   -960.35699    3804.7932    1581.1452   -625.87077    970.45889   -704.44224     80.01024 
   56700    120.76365   -112.56394   0.10926949   -112.45467   -1849.1138     4.311616     4.311616     4.311616   -1849.1138   -3538.5548    -2870.508    861.72125     798.7999   -302.71925     595.6949    80.153079 
   56800    87.005773   -112.53376  0.078724652   -112.45504   -595.71886    4.3105816    4.3105816    4.3105816   -595.71886   -3800.3802   -1185.9601    3199.1838   -1774.5637   -448.11042     626.3976    80.095405 
   56900    130.20573   -112.57243   0.11781288   -112.45462    130.58799    4.3097403    4.3097403    4.3097403    130.58799   -1573.6285    -1465.986    3431.3785   -336.82372    126.88658   -787.51471     80.04852 
   57000    65.310424   -112.51427  0.059094244   -112.45518    2033.2996    4.3111991    4.3111991    4.3111991    2033.2996   -4035.7327    2290.5548    7845.0769    416.70238   -906.92734   -1236.3799    80.129834 
   57100    87.277226   -112.53411  0.078970268   -112.45514   -564.85884    4.3099255    4.3099255    4.3099255   -564.85884   -3046.7837    482.29591    869.91128   -2621.5017   -538.06631    -389.7773    80.058838 
   57200     119.1219   -112.56228     0.107784    -112.4545    295.16637    4.3105036    4.3105036    4.3105036    295.16637   -2892.2543    1552.8122    2224.9412    457.80102    1018.1274    -47.05924    80.091058 
   57300    114.43503   -112.55844   0.10354322    -112.4549   -1598.4657    4.3112225    4.3112225    4.3112225   -1598.4657    -3313.735   -387.61696   -1094.0453   -254.99132   -8.1498432    1491.1121    80.131141 
   57400    94.821061   -112.54111  0.085796089   -112.45531   -1185.2918    4.3100995    4.3100995    4.3100995   -1185.2918   -3896.2262   -2771.4246    3111.7755    -1680.892    592.33736    219.73857    80.068536 
   57500    93.797888   -112.53985    0.0848703   -112.45498    1845.9944    4.3107318    4.3107318    4.3107318    1845.9944   -3668.4837     4690.165    4516.3019    944.21923   -193.00273   -1127.4356     80.10378 
   57600    93.016791   -112.53913  0.084163548   -112.45497   -310.79285    4.3103187    4.3103187    4.3103187   -310.79285    -2601.531    36.370174    1632.7823   -610.76862    8.8102894   -1512.2081    80.080756 
   57700    77.781353   -112.52552  0.070378202   -112.45514   -210.62731    4.3104636    4.3104636    4.3104636   -210.62731   -5725.0288    3145.4459    1947.7009   -598.73678   -501.78689    70.008794    80.088831 
   57800    143.65097   -112.58453   0.12997842   -112.45455   -1190.5396     4.311022     4.311022     4.311022   -1190.5396   -2597.0174    72.051554   -1046.6529    204.18967   -330.19552    642.92273    80.119959 
   57900    100.04155   -112.54563    0.0905197   -112.45512   -434.93612    4.3100755    4.3100755    4.3100755   -434.93612   -3110.9267    -1261.361    3067.4794    627.73496    364.68453    968.91623    80.067199 
   58000    79.428345   -112.52721  0.071868436   -112.45534    -274.0504    4.3109846    4.3109846    4.3109846    -274.0504   -6293.0069    1893.0452    3577.8106    -1668.258   -1196.1876   -445.87604    80.117873 
   58100      102.675   -112.54755  0.092902501   -112.45464    1568.9421    4.3100926    4.3100926    4.3100926    1568.9421   -757.25333     1053.972    4410.1076   -83.945418    1642.2192   -946.54182    80.068149 
   58200    87.927507   -112.53432  0.079558656   -112.45476     372.6677    4.3102432    4.3102432    4.3102432     372.6677   -5260.6743    4095.7367    2282.9407    1510.1151   -922.37411    -437.4736    80.076543 
   58300    109.80347   -112.55419  0.099352488   -112.45484   -2131.1109    4.3113716    4.3113716    4.3113716   -2131.1109   -4804.7868   -2626.1925    1037.6465   -2197.2943    1103.1768    358.21502    80.139454 
   58400    117.52261   -112.56094   0.10633693   -112.45461    541.09832    4.3099274    4.3099274    4.3099274    541.09832   -1342.2121     307.5539    2657.9532    1427.1784    64.181415    449.31047    80.058948 
   58500     106.2624   -112.55099  0.096148456   -112.45484   -1149.2161    4.3109127    4.3109127    4.3109127   -1149.2161   -5814.9184   -1769.8947    4137.1648    332.74548   -1129.4423    -410.5351    80.113867 
   58600    59.300724   -112.50892  0.053656541   -112.45526    1307.1711    4.3105248    4.3105248    4.3105248    1307.1711   -2094.3238    186.31808     5829.519     -2169.46   -14.829163   -464.93374    80.092241 
   58700     116.1828   -112.55961   0.10512464   -112.45448     879.9336    4.3098713    4.3098713    4.3098713     879.9336   -3258.8251    3806.4601    2092.1658    817.92138   -975.68471   -1222.7146    80.055818 
   58800    110.09056   -112.55445  0.099612254   -112.45483   -1436.6672    4.3112661    4.3112661    4.3112661   -1436.6672   -3967.7541   -2085.7288    1743.4814   -536.48951    954.26931    652.45737    80.133567 
   58900    86.358901   -112.53341  0.078139348   -112.45527   -1100.5222    4.3103618    4.3103618    4.3103618   -1100.5222   -3077.3373   -263.84331    39.614124    -967.5294   -1425.8992     914.6039    80.083153 
   59000    138.23292   -112.57983   0.12507605   -112.45475   -1592.8672    4.3107566    4.3107566    4.3107566   -1592.8672   -3728.9809   -3699.8839    2650.2633    122.78083    1519.2768   -106.45287     80.10516 
   59100    59.394093    -112.5091  0.053741023   -112.45536    1823.8928    4.3105869    4.3105869    4.3105869    1823.8928    -1951.118    2017.9198    5404.8765   -295.84583   -1020.5627   -1080.2165    80.095705 
   59200    91.816317   -112.53834  0.083077333   -112.45526   -716.99115    4.3100702    4.3100702    4.3100702   -716.99115   -4483.7454     697.1664    1635.6055    -1997.512   -191.25967   -591.91053    80.066904 
   59300    120.51455   -112.56365    0.1090441   -112.45461    160.64763    4.3110056    4.3110056    4.3110056    160.64763   -2052.7677    1849.8731     684.8375    557.23389    786.67066    365.51952    80.119042 
   59400    101.81169   -112.54714  0.092121354   -112.45502   -934.77333    4.3103927    4.3103927    4.3103927   -934.77333   -2921.7542    515.67776   -398.24354    244.21369   -1169.8272     613.7028    80.084875 
   59500    112.24318   -112.55673   0.10155998   -112.45517   -2515.6848    4.3107628    4.3107628    4.3107628   -2515.6848   -3903.8187   -3959.9685     316.7327   -2217.3846   -168.44788    712.19223    80.105509 
   59600    79.044974   -112.52667  0.071521554   -112.45514    3186.6322    4.3106134    4.3106134    4.3106134    3186.6322   -1108.5555    5073.3218    5595.1302    970.42516   -1345.0754   -1434.3173    80.097178 
   59700    104.06471   -112.54916  0.094159933     -112.455   -42.364954    4.3098036    4.3098036    4.3098036   -42.364954   -3461.3461    250.34387    3083.9074   -713.01169    -4.670165   -412.14339    80.052049 
   59800    72.935728   -112.52104   0.06599378   -112.45505    840.17532    4.3108112    4.3108112    4.3108112    840.17532   -2978.6385    4710.8713     788.2932   -1533.5658   -265.26989   -526.24707    80.108208 
   59900    135.35194   -112.57683   0.12246928   -112.45436   -418.27591    4.3106534    4.3106534    4.3106534   -418.27591   -3216.7135    501.47472    1460.4111    1028.1972    697.47837    1126.5011    80.099409 
   60000    117.68086   -112.56125   0.10648011   -112.45477   -1082.3939    4.3101293    4.3101293    4.3101293   -1082.3939   -2796.4284   -1467.8822    1017.1288    63.992965    99.903285    723.22525    80.070194 
   60100    64.781399   -112.51387  0.058615572   -112.45526    1667.8253    4.3110511    4.3110511    4.3110511    1667.8253   -3795.0329    2898.0959     5900.413   -1149.4617   -623.25078   -401.74987     80.12158 
   60200    123.12407   -112.56585   0.11140525   -112.45444    1083.2002    4.3099232    4.3099232    4.3099232    1083.2002   -2828.5485    585.78602    5492.3631   -164.59895   -372.02183   -1107.5026     80.05871 
   60300    66.871445   -112.51541  0.060506689    -112.4549    2193.4307    4.3101355    4.3101355    4.3101355    2193.4307   -2206.2579    6296.3696    2490.1805    272.82053   -922.07335   -1226.6946     80.07054 
   60400    116.50673   -112.56034   0.10541774   -112.45493   -2661.7047    4.3113447    4.3113447    4.3113447   -2661.7047   -6002.0876   -2645.7633    662.73688   -1608.4311   -573.62823    763.99015    80.137952 
   60500    118.95725   -112.56262   0.10763502   -112.45499     262.2579    4.3098304    4.3098304    4.3098304     262.2579   -2246.1531    217.54797    2815.3788    869.45076    339.35133    214.50256    80.053542 
   60600    98.090487   -112.54397  0.088754334   -112.45521   -515.03095    4.3111009    4.3111009    4.3111009   -515.03095   -4215.6551   -1405.2727     4075.835    596.24685   -460.79022    583.08838    80.124359 
   60700    82.573095   -112.52995  0.074713872   -112.45523    -242.1586    4.3105289    4.3105289    4.3105289    -242.1586   -5749.8912   -419.98355     5443.399     -2645.44   -395.26495   -789.09966    80.092469 
   60800     90.93301   -112.53708  0.082278098   -112.45481    1725.5451    4.3099819    4.3099819    4.3099819    1725.5451    -1227.638    4010.4415    2393.8319    918.48531     63.62226   -527.27088    80.061985 
   60900    123.90686   -112.56703   0.11211353   -112.45491   -3299.9904    4.3114186    4.3114186    4.3114186   -3299.9904   -5669.9849   -2561.9013    -1668.085   -1160.0617   -610.57917   -135.14014    80.142075 
   61000    75.614776     -112.524  0.068417839   -112.45558   -716.66485    4.3101411    4.3101411    4.3101411   -716.66485   -4325.2047   -263.15411    2438.3643   -1988.8153   -31.415157    1214.6747    80.070856 
   61100    140.89755   -112.58229   0.12748707    -112.4548   -2128.5113    4.3111861    4.3111861    4.3111861   -2128.5113   -3128.7436   -4208.3286    951.53841    1561.3069   -585.81619    -314.8912    80.129107 
   61200    71.877757   -112.52042  0.065036505   -112.45538    470.08328    4.3105562    4.3105562    4.3105562    470.08328   -5940.1498    2484.0454    4866.3542   -866.06592    -423.8009   -1207.7537     80.09399 
   61300    79.758811   -112.52749  0.072167448   -112.45532   -548.83859     4.310247     4.310247     4.310247   -548.83859   -2824.0641    443.26888    734.27944    -1888.357   -2175.9755    47.223375    80.076759 
   61400    124.81963   -112.56746   0.11293942   -112.45452   -835.81389    4.3112996    4.3112996    4.3112996   -835.81389   -3620.4243    1790.4346   -677.45201    -40.65421    606.34858   -48.475799    80.135439 
   61500    90.586285   -112.53683  0.081964374   -112.45486   -112.40761    4.3100206    4.3100206    4.3100206   -112.40761   -2984.1027    1657.1813    989.69863   -533.53604   -953.98092    1194.1346    80.064141 
   61600    118.54956     -112.562   0.10726613   -112.45474   -2282.8309    4.3111152    4.3111152    4.3111152   -2282.8309   -3438.7395   -3704.5766    294.82347   -1644.9607    90.323647     99.55558    80.125153 
   61700    92.846775   -112.53891  0.084009714    -112.4549    2189.6816    4.3105117    4.3105117    4.3105117    2189.6816   -4310.3116    5959.1539    4920.2025    848.56663    914.17764   -244.04457     80.09151 
   61800    93.332953   -112.53945  0.084449617     -112.455    237.92205    4.3096368    4.3096368    4.3096368    237.92205    -2168.646    993.36334    1889.0488   -555.63642   -1739.2986   -1492.0444    80.042753 
   61900    78.993567   -112.52653  0.071475039   -112.45505    631.09144    4.3112307    4.3112307    4.3112307    631.09144   -5301.4415    4980.5102    2214.2055   -2058.4483    171.07383   -326.18471    80.131594 
   62000    130.11975   -112.57222   0.11773508   -112.45448       311.43     4.310058     4.310058     4.310058       311.43   -864.23986     1460.029    338.50087    686.06911   -1189.6278    419.87496    80.066222 
   62100    102.81417    -112.5481  0.093028417   -112.45507    57.624763    4.3102798    4.3102798    4.3102798    57.624763   -2476.3475   -192.02991    2841.2517   -265.96847    647.42821    723.01608    80.078586 
   62200    92.760686   -112.53922  0.083931818   -112.45529    16.928614    4.3112856    4.3112856    4.3112856    16.928614   -5363.9365    2560.3686    2854.3537   -398.19194   -877.23427   -205.19296    80.134655 
   62300    103.74602   -112.54863  0.093871577   -112.45476      1767.07    4.3092131    4.3092131    4.3092131      1767.07   -153.87569    2139.6725    3315.4133    906.30664     564.6016   -1380.9511    80.019145 
   62400    80.201491   -112.52745  0.072567995   -112.45488    741.62162    4.3108783    4.3108783    4.3108783    741.62162   -6198.9693    5482.5874    2941.2468   -669.42752   -463.21517   -115.34904    80.111945 
   62500    114.65791   -112.55862   0.10374488   -112.45487   -1984.1958    4.3110216    4.3110216    4.3110216   -1984.1958   -2825.2534   -2206.0699   -921.26409   -2149.3113   -399.36704    104.18268    80.119937 
   62600     104.9255   -112.54998  0.094938801   -112.45504    730.44675    4.3096518    4.3096518    4.3096518    730.44675   -1514.3189    1259.5947    2446.0645    711.66812    1529.8848    1309.1821    80.043587 
   62700    114.62364   -112.55877   0.10371388   -112.45505   -2494.3912    4.3119382    4.3119382    4.3119382   -2494.3912    -5417.422   -2564.4699    498.71808    210.09658   -290.36106   -703.33696    80.171054 
   62800    65.029673   -112.51415  0.058840214   -112.45531    904.11547    4.3098264    4.3098264    4.3098264    904.11547   -1900.5148    1089.8859    3522.9753   -1526.9818    1363.8895    59.722212    80.053318 
   62900    111.48409   -112.55553   0.10087315   -112.45465    -173.2912    4.3104373    4.3104373    4.3104373    -173.2912   -5334.8306    3423.5493    1391.4077    1620.2249    -964.0958   -1278.1831    80.087364 
   63000    103.67104   -112.54857  0.093803738   -112.45477   -1918.2565    4.3117197    4.3117197    4.3117197   -1918.2565    -3863.994   -1197.3656   -693.40996   -1084.1112    -354.1442    -226.2888    80.158867 
   63100    92.798001   -112.53889  0.083965581   -112.45492   -1213.0175    4.3098117    4.3098117    4.3098117   -1213.0175   -3866.9013     221.2754    6.5734016   -2579.5228   -457.48166    1574.6182    80.052498 
   63200    136.01748   -112.57748   0.12307147   -112.45441   -2442.0671    4.3115344    4.3115344    4.3115344   -2442.0671    -3278.847   -3007.9457   -1039.4087    1222.7114     516.4079   -190.10815     80.14853 
   63300    60.822727   -112.51025  0.055033681   -112.45522    1275.9613    4.3104261    4.3104261    4.3104261    1275.9613   -2623.7946    2884.3118    3567.3668   -728.63797    958.33589   -98.773711    80.086741 
   63400    96.686734   -112.54252  0.087484189   -112.45504   -540.55509    4.3098867    4.3098867    4.3098867   -540.55509   -4728.1566    957.07882    2149.4125   -1390.9156    117.22936   -964.92011    80.056678 
   63500    99.559373   -112.54482  0.090083413   -112.45474    1104.9272    4.3112641    4.3112641    4.3112641    1104.9272   -2344.8353    4329.1855    1330.4314    661.44041    1017.5051    539.44212    80.133457 
   63600    119.40575   -112.56289   0.10804083   -112.45485   -1616.6295     4.310129     4.310129     4.310129   -1616.6295   -4638.9627   -320.72935    109.80349   -1202.9434   -738.31078   -277.31195     80.07018 
   63700    108.06313   -112.55292  0.097777791   -112.45515    -1105.607    4.3107889    4.3107889    4.3107889    -1105.607    -3259.398   -275.68372    218.26072   -1277.4169    -227.9873    632.02275    80.106964 
   63800    94.724232   -112.54084  0.085708476   -112.45513    1828.4084     4.310614     4.310614     4.310614    1828.4084    -2202.091    5301.0719    2386.2442    1020.3853    338.77801   -686.31523    80.097211 
   63900    88.943356    -112.5356  0.080477818   -112.45512    1349.5376    4.3095489    4.3095489    4.3095489    1349.5376   -3450.0469     2046.072    5452.5878    21.444373    -80.47219   -1619.0123    80.037853 
   64000    69.922545   -112.51838  0.063267388   -112.45511    2171.1683    4.3108679    4.3108679    4.3108679    2171.1683   -2855.7457    6700.2861    2668.9646   -1319.1734   -218.23324    -111.5615     80.11137 
   64100    143.75328   -112.58467   0.13007099    -112.4546   -1384.4144    4.3103039    4.3103039    4.3103039   -1384.4144   -3093.1784   -974.75348   -85.311233    741.39661    445.05312    532.21787    80.079927 
   64200    102.72156   -112.54821   0.09294463   -112.45527   -502.78471    4.3105902    4.3105902    4.3105902   -502.78471    -3706.495     698.2724    1499.8684   -796.05087   -322.46857    1496.7256    80.095884 
   64300    101.42685   -112.54694  0.091773149   -112.45516   -404.26222    4.3111296    4.3111296    4.3111296   -404.26222   -3698.1809    2297.7396    187.65466   -1048.8168    628.60376    -905.1966    80.125958 
   64400    92.234182    -112.5384  0.083455426   -112.45495    2060.1778    4.3094738    4.3094738    4.3094738    2060.1778   -2429.8609    3531.5097    5078.8847    1984.3836    495.94288   -492.61811    80.033672 
   64500    75.620138    -112.5235   0.06842269   -112.45508    1043.1564    4.3109578    4.3109578    4.3109578    1043.1564   -3385.4712     4037.839    2477.1014   -90.163298    910.20753   -1455.1176    80.116381 
   64600    109.00239   -112.55342  0.098627651   -112.45479   -1962.7698    4.3106971    4.3106971    4.3106971   -1962.7698   -3917.6001   -1204.0819   -766.62754   -1255.4677   -687.01104    671.32959    80.101848 
   64700    119.16022   -112.56245   0.10781867   -112.45463   -1526.8735    4.3103438    4.3103438    4.3103438   -1526.8735   -3517.7595   -496.96941   -565.89169    396.76212   -35.218704    773.37557    80.082154 
   64800    107.36377   -112.55193  0.097144991   -112.45479   -2052.1277    4.3117113    4.3117113    4.3117113   -2052.1277   -4771.6999   -638.31098    -746.3721   -666.76357     -242.603   -84.139746    80.158395 
   64900    83.142693   -112.53033  0.075229256    -112.4551   -13.084829     4.309878     4.309878     4.309878   -13.084829    -4964.199     3260.103    1664.8415   -1526.7572   -682.26746    341.20155    80.056192 
   65000    92.529118   -112.53854   0.08372229   -112.45482    330.82498    4.3108317    4.3108317    4.3108317    330.82498     -2253.49    1358.5352    1887.4297    1840.0749    2049.9394   -1158.2899    80.109348 
   65100     94.79059   -112.54055  0.085768518   -112.45478   -1187.5685    4.3110593    4.3110593    4.3110593   -1187.5685   -4831.5963    1229.9141    38.976757   -235.99778    -786.0427   -44.305048    80.122041 
   65200    114.30057   -112.55808   0.10342156   -112.45466   -2292.7583    4.3101557    4.3101557    4.3101557   -2292.7583    -3287.169    -1901.142   -1689.9639   -2091.1422     1418.309    857.51972    80.071669 
   65300    106.53414   -112.55114  0.096394327   -112.45474    -587.9566    4.3114099    4.3114099    4.3114099    -587.9566   -3046.8785    2034.3058   -751.29714    995.14733   -462.95667    723.52167    80.141588 
   65400    102.18747   -112.54746   0.09246137     -112.455   -507.04959     4.310087     4.310087     4.310087   -507.04959   -5854.0415    4097.0155     235.8772   -1632.5148   -300.69715    -1212.418    80.067839 
   65500    72.788546   -112.52099  0.065860606   -112.45513    1570.1212    4.3102132    4.3102132    4.3102132    1570.1212   -1238.6358     3140.327    2808.6724   -825.89396    642.93257    -772.0805    80.074874 
   65600    109.42622    -112.5537  0.099011142   -112.45469   -198.58945    4.3111557    4.3111557    4.3111557   -198.58945   -4489.9573    3006.9937    887.19518    1467.8046   -324.33334   -360.03437    80.127414 
   65700     108.9148   -112.55333  0.098548402   -112.45478   -646.07843    4.3097981    4.3097981    4.3097981   -646.07843   -1563.0767   -1621.8414    1246.6828   -1009.2265    922.30578    225.67908    80.051737 
   65800    99.948606   -112.54546  0.090435599   -112.45502    91.890428     4.311167     4.311167     4.311167    91.890428   -2698.2542    4350.2295    -1376.304   -1414.0328   -1435.2877    846.72476    80.128043 
   65900    117.92153   -112.56154   0.10669788   -112.45485    2.7467303    4.3103138    4.3103138    4.3103138    2.7467303   -4007.3056    3487.0277    528.51811    798.91908    996.10393   -38.051593    80.080482 
   66000    69.735868   -112.51829  0.063098479   -112.45519    2237.7435    4.3096211    4.3096211    4.3096211    2237.7435   -723.71963    5075.8011     2361.149   -101.60597   -759.83393   -742.93334    80.041875 
   66100    111.52892    -112.5558   0.10091371   -112.45489   -1002.2184    4.3114628    4.3114628    4.3114628   -1002.2184   -5340.9831    450.96539    1883.3626   -1164.0887     837.1082   -592.49886    80.144538 
   66200    95.327125   -112.54118  0.086253986   -112.45493    1082.8262    4.3095892    4.3095892    4.3095892    1082.8262    839.73545   -326.26977    2735.0131    1553.4733    1008.4828     1198.073      80.0401 
   66300    112.96562   -112.55708   0.10221367   -112.45486   -966.09944    4.3108886    4.3108886    4.3108886   -966.09944   -2998.9193    1458.5865   -1357.9655   -622.49533    -466.3885    187.07743    80.112519 
   66400    98.624854   -112.54411   0.08923784   -112.45487   -176.05552    4.3110602    4.3110602    4.3110602   -176.05552   -2893.6773    1956.6013    408.90945   -1629.5256   -47.825519    75.563607    80.122088 
   66500    91.125745    -112.5372  0.082452489   -112.45475    791.34274     4.309527     4.309527     4.309527    791.34274   -720.90292    4193.2928   -1098.3617    1566.2276   -1418.8091   -882.18647    80.036633 
   66600    106.97624   -112.55152  0.096794347   -112.45473   -1408.1452    4.3115708    4.3115708    4.3115708   -1408.1452   -5666.9193   -1519.3009    2961.7845     13.66831    157.94725   -661.89708    80.150559 
   66700    84.586189    -112.5314  0.076535362   -112.45486    545.27417    4.3102151    4.3102151    4.3102151    545.27417   -619.79439    1177.7103    1077.9066   -457.79406   -538.25786    699.55125     80.07498 
   66800     122.3709   -112.56534   0.11072377   -112.45461   -1553.4833    4.3103831    4.3103831    4.3103831   -1553.4833   -3291.6995   -1810.6238    441.87323    799.76634    707.48863     1662.337    80.084343 
   66900    82.259161   -112.52948  0.074429817   -112.45505    425.70859    4.3112261    4.3112261    4.3112261    425.70859    -2128.821    4651.6759   -1245.7291   -1079.1616   -135.66916    443.94831     80.13134 
   67000    108.40556   -112.55297   0.09808763   -112.45489   -696.72194    4.3098013    4.3098013    4.3098013   -696.72194   -2106.6346    2439.8328    -2423.364   -1143.8075   -342.32811     -267.782    80.051921 
   67100    98.216232   -112.54372  0.088868111   -112.45485   -49.388673    4.3109864    4.3109864    4.3109864   -49.388673   -3596.8979    1345.7906    2102.9413    1308.9112    210.79039   -725.47248    80.117973 
   67200    95.747847   -112.54141  0.086634664   -112.45478    -76.25552     4.310726     4.310726     4.310726    -76.25552   -2156.1685    1990.5832   -63.181171   -335.79118   -425.69824   -1091.2866    80.103458 
   67300     110.1455    -112.5543  0.099661963   -112.45464   -305.44569    4.3099135    4.3099135    4.3099135   -305.44569   -3926.7428   -831.00154    3841.4073   -1000.9785   -81.679731      1339.99     80.05817 
   67400    87.592608   -112.53427  0.079255632   -112.45501     887.1444    4.3111325    4.3111325    4.3111325     887.1444   -1339.3367    7594.8713   -3594.1015    1088.8067     99.60897    585.17259    80.126117 
   67500    106.41472    -112.5513  0.096286279   -112.45502   -530.72621    4.3099271    4.3099271    4.3099271   -530.72621   -2719.4597    1323.4357   -196.15463   -1425.2673   -1126.2768    -222.3122    80.058928 
   67600    96.529205   -112.54233  0.087341654   -112.45498    495.03552    4.3105137    4.3105137    4.3105137    495.03552   -3168.2385    4606.8169    46.528115   -1162.8122    -559.0961    -724.1712    80.091621 
   67700    109.66011   -112.55407  0.099222774   -112.45485   -483.48668    4.3111025    4.3111025    4.3111025   -483.48668   -2267.1708   -452.88009    1269.5908    1999.8602    270.42058    515.09914    80.124449 
   67800     93.05928   -112.53924  0.084201992   -112.45503    502.36623    4.3096827    4.3096827    4.3096827    502.36623   -4427.4374    1081.2481     4853.288   -402.20811   -130.18915    570.47829     80.04531 
   67900    100.10273   -112.54555  0.090575051   -112.45498   -125.12946    4.3113669    4.3113669    4.3113669   -125.12946   -2943.7474    5054.4461    -2486.087    -1324.837    1098.3045    1083.9854    80.139191 
   68000    96.101943   -112.54179  0.086955058   -112.45483   -211.35742    4.3102704    4.3102704    4.3102704   -211.35742   -2807.8408    1460.7298    713.03877    1077.2252   -386.48474    217.29745    80.078063 
   68100    103.15575   -112.54804  0.093337493    -112.4547   -883.91758    4.3102757    4.3102757    4.3102757   -883.91758   -3682.4499    3666.2281    -2635.531     -160.252    92.544888   -1444.0722    80.078357 
   68200    110.39556   -112.55447  0.099888219   -112.45458   -1002.4127    4.3115863    4.3115863    4.3115863   -1002.4127   -3143.5124   -3505.7843    3642.0585   -1129.4091   -1314.2468    106.89565    80.151423 
   68300    92.448007   -112.53855  0.083648899    -112.4549   -132.44798    4.3097356    4.3097356    4.3097356   -132.44798   -3740.3602    1527.5452     1815.471    1922.8491   -67.294631    399.05651    80.048257 
   68400    93.622745   -112.53962  0.084711827   -112.45491   -726.88873    4.3110534    4.3110534    4.3110534   -726.88873   -3831.9739   -565.44963    2216.7574    -58.86718   -226.76382    1720.5919    80.121707 
   68500     93.03009   -112.53899   0.08417558   -112.45481    11.417213    4.3108666    4.3108666    4.3108666    11.417213   -3544.9272    3963.6532   -384.47438   -1218.1894   -469.31557     216.0577    80.111295 
   68600    114.05432   -112.55794   0.10319874   -112.45474   -1714.8931    4.3099611    4.3099611    4.3099611   -1714.8931   -2629.5304    472.92614   -2988.0751    1395.8125    935.37177    605.19067    80.060822 
   68700    97.088317   -112.54279  0.087847549   -112.45494   -689.44555    4.3114888    4.3114888    4.3114888   -689.44555   -3726.0043    -1836.245    3493.9126   -567.66852   -1353.8992   -982.70909    80.145989 
   68800    112.64446    -112.5566   0.10192308   -112.45467   -558.81549     4.310215     4.310215     4.310215   -558.81549    -3381.067    1908.8235   -204.20304    26.043394    1005.1882    697.22964    80.074973 
   68900    78.527399   -112.52597  0.071053241   -112.45492     934.0972    4.3100665    4.3100665    4.3100665     934.0972    -2043.147   -60.497004    4905.9356    1319.0054   -664.34687    1870.2466    80.066696 
   69000    92.880265   -112.53912  0.084040016   -112.45508     67.18585    4.3111925    4.3111925    4.3111925     67.18585   -4342.8391    6572.4103   -2028.0137   -713.75018     465.5903   -240.75246    80.129467 
   69100    116.53002    -112.5603   0.10543881   -112.45486   -14.124776    4.3097772    4.3097772    4.3097772   -14.124776    -843.7863    834.22527   -32.813295   -599.12234   -554.69223    433.38747    80.050575 
   69200     102.0771   -112.54737  0.092361501   -112.45501   -145.20898    4.3109236    4.3109236    4.3109236   -145.20898   -2357.1415    2628.9812   -707.46663    1225.1143   -721.48604   -1388.9791    80.114471 
   69300    113.77804   -112.55765   0.10294876    -112.4547    -699.3391    4.3108366    4.3108366    4.3108366    -699.3391   -3222.3649   -313.49503    1437.8427   -383.87123   -440.88697    772.90099     80.10962 
   69400    76.706793    -112.5244  0.069405919   -112.45499    3015.5598    4.3094783    4.3094783    4.3094783    3015.5598   -452.85801     5288.604    4210.9333   -493.54557   -1448.5221    906.83634    80.033923 
   69500    99.359312   -112.54504  0.089902393   -112.45513    115.11001     4.310976     4.310976     4.310976    115.11001   -4038.9883    5603.2977   -1218.9794    1881.4747    1155.0936    2581.1024    80.117393 
   69600    86.591034   -112.53344  0.078349387   -112.45509    1148.8124    4.3101666    4.3101666    4.3101666    1148.8124    -729.9614    1153.5202    3022.8786   -975.33613   -990.34129   -785.90532    80.072274 
   69700    132.07295   -112.57401   0.11950238   -112.45451   -989.36398    4.3104644    4.3104644    4.3104644   -989.36398    -2232.349    3163.5941    -3899.337   -675.46513    810.76339   -872.73541    80.088873 
   69800    105.57624   -112.55026  0.095527598   -112.45473   -987.30547    4.3111076    4.3111076    4.3111076   -987.30547   -2330.5244   -4152.0087    3520.6167    1685.8034   -357.03704    261.85173    80.124731 
   69900    78.150207   -112.52572   0.07071195   -112.45501    1125.5457    4.3100133    4.3100133    4.3100133    1125.5457   -1236.3418    3649.0775    963.90129   -144.52993   -1040.0725   -746.82039     80.06373 
   70000    105.62764   -112.55032  0.095574105   -112.45475    385.82196    4.3105084    4.3105084    4.3105084    385.82196   -4071.5122    2526.7512    2702.2269   -709.80329   -321.92817    2145.1651    80.091326 
   70100    73.707329   -112.52175   0.06669194   -112.45506    791.05059    4.3105578    4.3105578    4.3105578    791.05059    -1102.679    823.50202    2652.3288    921.62218   -580.34204    -470.0595     80.09408 
   70200    127.97232    -112.5705   0.11579204   -112.45471   -2705.6121    4.3107648    4.3107648    4.3107648   -2705.6121   -4364.9373   -1180.2085   -2571.6904    -220.2567   -339.89157    673.11756    80.105621 
   70300    111.67823   -112.55585   0.10104881    -112.4548   -650.33444    4.3107403    4.3107403    4.3107403   -650.33444   -2609.5953   -3221.2175    3879.8095   -1437.7828   -348.71623   -749.92601    80.104251 
   70400    95.193502   -112.54107  0.086133081   -112.45494   -1166.2451    4.3105972    4.3105972    4.3105972   -1166.2451   -1744.0555    -739.1194   -1015.5606     1827.602    175.15992    1109.8947    80.096279 
   70500    74.710349   -112.52271  0.067599494   -112.45511    755.07013    4.3104052    4.3104052    4.3104052    755.07013   -5125.5803    629.06729    6761.7234   -17.294183   -643.35719    1355.9079    80.085577 
   70600     98.75144   -112.54426  0.089352379   -112.45491    642.17822    4.3103408    4.3103408    4.3103408    642.17822   -1470.0765    2984.8488    411.76237   -861.07167     592.5711    443.93415    80.081983 
   70700    108.82816   -112.55345  0.098470002   -112.45498   -2061.5889    4.3109818    4.3109818    4.3109818   -2061.5889   -4561.1718   -2467.5513     843.9563    1325.3754    105.46812    848.58837    80.117718 
   70800    109.44912   -112.55397  0.099031864   -112.45494   -1858.2186    4.3109707    4.3109707    4.3109707   -1858.2186   -4531.1053   -1165.4603    121.90964   -1815.4652    95.667213   -2173.3724      80.1171 
   70900    122.89973   -112.56568   0.11120225   -112.45448   -982.20444     4.310494     4.310494     4.310494   -982.20444     -1906.02   -1094.0183    53.424885   -240.76946   -784.04616    1383.3303    80.090521 
   71000    64.900706   -112.51386  0.058723522   -112.45514    1410.3142    4.3105894    4.3105894    4.3105894    1410.3142   -4474.0052    2384.0967    6320.8513    1309.0173   -254.33699    1124.5725    80.095841 
   71100    93.612965   -112.53994  0.084702978   -112.45524    123.43331    4.3102782    4.3102782    4.3102782    123.43331    -2652.847     3008.603    14.543868   -416.37658   -634.54716    1570.9891    80.078498 
   71200     98.96578   -112.54454  0.089546318     -112.455     817.2691     4.310328     4.310328     4.310328     817.2691   -2708.1978     1244.016    3915.9891   -8.7808271    142.50844    15.618454    80.081273 
   71300     122.4158    -112.5656   0.11076439   -112.45483   -2768.2926    4.3112467    4.3112467    4.3112467   -2768.2926   -4066.4795   -798.65746   -3439.7407    829.32722    415.45263    -136.4621    80.132489 
   71400    100.98555   -112.54624  0.091373851   -112.45487   -520.24254    4.3103838    4.3103838    4.3103838   -520.24254   -2854.3147   -1971.5317    3265.1187   -150.54493   -26.629833   -419.64958     80.08438 
   71500    102.44213   -112.54741  0.092691796   -112.45472    1082.3166    4.3104659    4.3104659    4.3104659    1082.3166    -2548.423    3547.0234    2248.3493   -897.20194    243.92891    187.49497    80.088957 
   71600    83.030947    -112.5302  0.075128146   -112.45507     661.4535     4.310424     4.310424     4.310424     661.4535   -2587.1761    1069.9676    3501.5689     2307.858   -624.96921    2043.0897    80.086621 
   71700    78.995329   -112.52657  0.071476634   -112.45509    1267.5062    4.3100307    4.3100307    4.3100307    1267.5062    -2481.135    2146.7942    4136.8594   -371.26459    319.33613   -952.70998    80.064699 
   71800    143.20741   -112.58404   0.12957707   -112.45446   -2011.5943    4.3110335    4.3110335    4.3110335   -2011.5943   -1807.5153   -1230.7447    -2996.523   -599.53671   -721.76821   -212.94493    80.120602 
   71900    86.348031   -112.53309  0.078129513   -112.45496   -32.557057    4.3104538    4.3104538    4.3104538   -32.557057   -2907.2186   -3566.9275    6376.4749    2115.2748       477.31   -470.85449    80.088283 
   72000    112.64246   -112.55672   0.10192127    -112.4548   -1056.6062    4.3106668    4.3106668    4.3106668   -1056.6062   -1999.1015   -851.22784   -319.48929   -899.30903   -1354.6647    340.91261    80.100156 
   72100    77.397844   -112.52494  0.070031196    -112.4549    2807.8095    4.3102671    4.3102671    4.3102671    2807.8095   -1469.3568    1343.2231    8549.5623    875.55325   -7.1642873     1685.605    80.077877 
   72200    92.081943    -112.5384  0.083317677   -112.45509   -41.185173    4.3102676    4.3102676    4.3102676   -41.185173   -3218.6031    1890.4751    1204.5725    1156.7498    198.03482    1183.7054    80.077907 
   72300    104.54065   -112.54953  0.094590581   -112.45494   -882.23035     4.310969     4.310969     4.310969   -882.23035   -858.68795   -1977.1513    189.14818    -438.4143   -296.17673   -229.48892    80.117001 
   72400    117.71585   -112.56106   0.10651177   -112.45454   -281.11327    4.3104501    4.3104501    4.3104501   -281.11327   -3511.2764   -1593.4762    4261.4128   -327.88636    1038.8909   -1067.8709    80.088079 
   72500    117.59883   -112.56102   0.10640589   -112.45462   -2011.5381    4.3108416    4.3108416    4.3108416   -2011.5381   -1510.0874   -4789.0246    264.49783    700.24394   -269.26064    309.82135    80.109898 
   72600    55.494805   -112.50541  0.050212866    -112.4552     2444.539     4.310325     4.310325     4.310325     2444.539   -1851.8916    588.45518    8597.0534    33.547636   -452.12346    833.60542    80.081105 
   72700     126.4413   -112.56928   0.11440675   -112.45488   -924.96079    4.3102179    4.3102179    4.3102179   -924.96079   -3857.1606    2102.7269   -1020.4487   -651.15191   -1630.0276     1100.585    80.075132 
   72800    66.590763   -112.51561  0.060252722   -112.45536    1032.0378    4.3107555    4.3107555    4.3107555    1032.0378   -367.58895    428.47673    3035.2255    2232.1653    856.42649    1179.4607      80.1051 
   72900    124.70728   -112.56757   0.11283777   -112.45473   -2213.5832    4.3107899    4.3107899    4.3107899   -2213.5832   -5542.4717   -286.01699   -812.26098   -1591.1686   -992.35089     -594.413    80.107016 
   73000    121.96067   -112.56489   0.11035258   -112.45453   -598.96898    4.3104335    4.3104335    4.3104335   -598.96898   -1745.5119   -3395.3387    3343.9436    -595.3356    686.40073    135.59601    80.087153 
   73100    73.027473   -112.52107  0.066076792     -112.455    620.99927    4.3108058    4.3108058    4.3108058    620.99927   -3240.1236    1348.1123    3755.0092     1464.571    470.27528    1652.7795    80.107906 
   73200    111.28997   -112.55558    0.1006975   -112.45488   -1322.6487    4.3101974    4.3101974    4.3101974   -1322.6487   -5222.0021    670.71266    583.34343   -1169.7853   -241.34068    196.88452    80.073994 
   73300    71.180251   -112.51944  0.064405387   -112.45503    2622.7941    4.3103547    4.3103547    4.3103547    2622.7941   -840.62794    5141.1074    3567.9027    1111.0985    418.72916    153.67766    80.082757 
   73400    129.36605   -112.57188   0.11705312   -112.45483   -3169.7402    4.3111393    4.3111393    4.3111393   -3169.7402    -5822.595   -441.79504   -3244.8306    797.87033   -806.57976   -530.29258    80.126502 
   73500    86.369751   -112.53321  0.078149165   -112.45506    418.75172    4.3100823    4.3100823    4.3100823    418.75172   -2887.4387   -2734.5782    6878.2721   -136.55127    354.08976   -711.16671     80.06758 
   73600    124.16694   -112.56689   0.11234886   -112.45454   -869.07775    4.3111816    4.3111816    4.3111816   -869.07775   -4268.8939     1939.466   -277.80531   -294.77029    -740.2763    423.34299    80.128859 
   73700    85.542363    -112.5323  0.077400527    -112.4549      21.4788    4.3101589    4.3101589    4.3101589      21.4788    -4817.427   -735.77248    5617.6359    929.53514     35.13675    2092.5399    80.071848 
   73800    75.282149   -112.52317  0.068116871   -112.45505    1399.6763    4.3102699    4.3102699    4.3102699    1399.6763   -3433.3621    5539.1938    2093.1972    650.71252    -807.8107    300.32573    80.078033 
   73900    136.38518   -112.57797   0.12340417   -112.45457   -1630.2483    4.3112442    4.3112442    4.3112442   -1630.2483   -4292.1278    40.499808   -639.11697    126.52686    753.59932   -633.29461    80.132345 
   74000    71.001501   -112.51946   0.06424365   -112.45522    856.59587    4.3097294    4.3097294    4.3097294    856.59587   -2428.8966    -2151.005    7149.6892     2817.649    570.51588   -250.06047    80.047913 
   74100    127.62756   -112.57022    0.1154801   -112.45474    -2511.864    4.3113146    4.3113146    4.3113146    -2511.864   -5066.6491   -2294.7507   -174.19218   -976.51174    112.60348   -688.84908    80.136272 
   74200    86.415979   -112.53315  0.078190994   -112.45496    1567.0846    4.3103173    4.3103173    4.3103173    1567.0846   -3023.5369   -337.88572    8062.6764    183.09952    201.60272    1409.7991    80.080673 
   74300    91.357287   -112.53793  0.082661994   -112.45527   -416.85584    4.3099588    4.3099588    4.3099588   -416.85584   -4363.6723     3299.131   -186.02619    2430.8086   -713.01017    804.68305    80.060697 
   74400    106.91435   -112.55178  0.096738347   -112.45504   -1052.6805    4.3116501    4.3116501    4.3116501   -1052.6805   -4351.6301   -958.54884    2152.1375   -1233.0094   -713.96782    -90.22477    80.154985 
   74500    100.23921   -112.54549   0.09069854   -112.45479    469.97684    4.3098597    4.3098597    4.3098597    469.97684   -1743.8574    139.88169    3013.9062    1860.1324   -460.70175   -1008.4247     80.05517 
   74600    111.78352    -112.5559   0.10114408   -112.45476   -2537.9313    4.3107827    4.3107827    4.3107827   -2537.9313   -3760.8919   -5479.5342    1626.6323     1217.277     1040.804    1057.8961    80.106615 
   74700    78.042078   -112.52567  0.070614112   -112.45506    732.43136    4.3111769    4.3111769    4.3111769    732.43136   -2375.8049   -400.85389    4973.9529   -1160.4849   -208.37719    765.51776    80.128595 
   74800    116.96275   -112.56063   0.10583035   -112.45479   -348.30598    4.3095741    4.3095741    4.3095741   -348.30598   -2887.5542    2499.8064   -657.17012    636.52616   -61.555851    805.51396    80.039256 
   74900    80.076729    -112.5276  0.072455107   -112.45515   -187.17667    4.3111861    4.3111861    4.3111861   -187.17667     -3960.45    820.15072    2578.7693    990.24885   -179.78104    1052.0928    80.129107 
   75000    108.64458   -112.55305  0.098303901   -112.45474   -899.54944    4.3109027    4.3109027    4.3109027   -899.54944    -2365.627    1202.1445   -1535.1658    636.00939   -267.73455    -1266.782    80.113307 
   75100    116.29663   -112.55968   0.10522763   -112.45445   -208.08702    4.3097122    4.3097122    4.3097122   -208.08702   -1859.6928   -2754.5611    3989.9929   -69.343706   -385.84829    -273.9602    80.046954 
   75200    83.548956   -112.53055  0.075596851   -112.45495   -91.721923    4.3114531    4.3114531    4.3114531   -91.721923   -1846.0057    352.70485    1218.1351    1155.4422    687.57621    774.96924    80.143996 
   75300    102.76685   -112.54774  0.092985605   -112.45476    193.86224     4.310002     4.310002     4.310002    193.86224   -1518.7274    65.002729    2035.3114   -1794.9541   -782.18542    856.16638      80.0631 
   75400    97.936353   -112.54332  0.088614871    -112.4547    1231.4337    4.3100617    4.3100617    4.3100617    1231.4337   -2858.5497    4864.4756    1688.3753    16.466221   -462.55135   -254.17553    80.066429 
   75500    101.06954   -112.54636  0.091449842   -112.45491   -1041.2325    4.3114291    4.3114291    4.3114291   -1041.2325   -2204.0759    505.17728   -1424.7988    2000.8741   -372.45338    681.79956    80.142658 
   75600    101.74998   -112.54695  0.092065519   -112.45488    659.26582    4.3097038    4.3097038    4.3097038    659.26582   -2565.5185   -858.42368    5401.7396   -930.10909   -531.76795   -845.69758    80.046486 
   75700    112.88559   -112.55685   0.10214126   -112.45471    635.71803    4.3106313    4.3106313    4.3106313    635.71803   -1059.1428    2157.3867     808.9102    1580.7834    1417.2241    469.18579    80.098178 
   75800    81.930324   -112.52914  0.074132279   -112.45501    753.91265     4.310735     4.310735     4.310735    753.91265    -840.7625    -2151.142    5253.6424   -234.00942    42.734337     1356.375     80.10396 
   75900    101.46461   -112.54672   0.09180731   -112.45491    759.44985    4.3097552    4.3097552    4.3097552    759.44985   -3173.2782    5424.0307    27.597043   -799.12459    318.76801    -551.9524    80.049349 
   76000    109.79634   -112.55422  0.099346035   -112.45487    24.978642    4.3110458    4.3110458    4.3110458    24.978642   -1707.9969    260.59244    1522.3403    517.12893   -1145.1887   -593.97037    80.121286 
   76100    92.371595    -112.5387   0.08357976   -112.45512   -735.69823    4.3104387    4.3104387    4.3104387   -735.69823   -4966.7039   -1561.6227    4321.2319    1664.0474    346.54056   -868.36161    80.087443 
   76200     109.0699   -112.55359  0.098688737    -112.4549    -339.8404    4.3103422    4.3103422    4.3103422    -339.8404   -2566.6973   -671.64401    2218.8201    318.20344   -490.37064    710.82983     80.08206 
   76300    96.979713   -112.54261  0.087749282   -112.45486     613.6133    4.3108158    4.3108158    4.3108158     613.6133   -1675.7613     -2130.56    5647.1612    -694.4643     528.2018    848.44578    80.108465 
   76400    92.864058    -112.5391  0.084025351   -112.45507    -1051.767    4.3103915    4.3103915    4.3103915    -1051.767   -4264.7261    2480.3726   -1370.9477    1994.4854    299.72888    1835.9127     80.08481 
   76500    96.183184   -112.54198  0.087028567   -112.45495   -328.94587    4.3108127    4.3108127    4.3108127   -328.94587   -2421.6644   -452.53867    1887.3655   -2061.2249   -946.98214    -909.5555     80.10829 
   76600    115.23661   -112.55898    0.1042685   -112.45471   -1417.9925    4.3107441    4.3107441    4.3107441   -1417.9925   -5670.0664      134.896    1281.1931    1403.8653    631.47666   -705.54284    80.104464 
   76700    94.034761   -112.54001  0.085084628   -112.45493    -1830.981    4.3107214    4.3107214    4.3107214    -1830.981   -3767.0545   -4752.8049    3026.9164    2356.0885    57.174582    276.75562      80.1032 
   76800    97.848812   -112.54343  0.088535661    -112.4549   -884.46009    4.3108473    4.3108473    4.3108473   -884.46009   -3478.0512   -1850.6164    2675.2874   -2104.8758    955.59657    170.61809    80.110219 
   76900    102.97247   -112.54799  0.093171659   -112.45481   -688.41955    4.3103993    4.3103993    4.3103993   -688.41955   -2196.7039    430.00292   -298.55771     1148.928   -642.32684    725.41457    80.085246 
   77000    81.420055   -112.52871  0.073670577   -112.45504   -666.63425    4.3108641    4.3108641    4.3108641   -666.63425   -2688.8709    396.63317      292.335   -585.38169   -29.286213    683.64371    80.111157 
   77100    109.52391   -112.55377  0.099099535   -112.45467   -917.20324    4.3106372    4.3106372    4.3106372   -917.20324   -4173.6122    2065.8791   -643.87656   -510.30078   -1458.0253   -71.442235    80.098504 
   77200    112.25033    -112.5561   0.10156646   -112.45453   -586.51558    4.3105228    4.3105228    4.3105228   -586.51558   -2598.3335   -3284.4115    4123.1983    1165.3526   -551.49249   -819.43767    80.092131 
   77300    97.255115   -112.54287  0.087998472   -112.45488   -1131.5293    4.3110043    4.3110043    4.3110043   -1131.5293   -5020.9746    923.50104    702.88558    693.88549    902.06577    1936.3146     80.11897 
   77400    96.870612   -112.54242  0.087650565   -112.45477    500.39367     4.310124     4.310124     4.310124    500.39367    264.47592   -696.66731    1933.3724   -779.78335    144.34684    205.90193    80.069904 
   77500      99.2172   -112.54447  0.089773807    -112.4547    950.29155    4.3104771    4.3104771    4.3104771    950.29155     -2067.56    5406.5155    -488.0809   -972.64008    821.00656   -73.689857     80.08958 
   77600    87.655534   -112.53433  0.079312569   -112.45502    343.03223    4.3105769    4.3105769    4.3105769    343.03223   -1955.6854    2477.9101      506.872    951.24642   -685.67808   -266.66847    80.095146 
   77700    105.87555   -112.55069  0.095798423   -112.45489    759.42294    4.3100586    4.3100586    4.3100586    759.42294   -868.30183   -806.05035     3952.621   -1406.6708   -480.46791   -922.03826    80.066258 
   77800    119.73063   -112.56305   0.10833479   -112.45472    273.97737    4.3107939    4.3107939    4.3107939    273.97737   -5139.0259    4107.3041    1853.6539    1444.3398   -786.42721     318.4222    80.107239 
   77900    90.292627   -112.53672  0.081698667   -112.45502     646.9814    4.3101891    4.3101891    4.3101891     646.9814    -181.5249   -1590.7128    3713.1819    1034.6456    659.13974    1063.1777    80.073532 
   78000    98.999311   -112.54447  0.089576657    -112.4549    1160.9523    4.3102338    4.3102338    4.3102338    1160.9523   -2874.1052    7352.2376   -995.27548   -2114.2843   -373.92697    736.13307    80.076019 
   78100    104.74008   -112.54961  0.094771026   -112.45484    967.83678    4.3106141    4.3106141    4.3106141    967.83678   -1001.5769    1664.8422    2240.2451    634.88084   -56.773538   -968.91812    80.097218 
   78200    81.665432   -112.52908  0.073892599   -112.45519    563.50715     4.310004     4.310004     4.310004    563.50715   -1021.9594   -353.82545    3066.3063    135.65605   -231.27071    257.16941    80.063213 
   78300    111.55555   -112.55584   0.10093781    -112.4549   -635.90788    4.3107856    4.3107856    4.3107856   -635.90788   -4976.6093    752.78727    2316.0984    156.80682   -230.10092   -115.92938     80.10678 
   78400    107.54603   -112.55223  0.097309907   -112.45492    265.99854    4.3104539    4.3104539    4.3104539    265.99854   -1973.0876   -702.15812    3473.2413    410.37767    646.20221    1019.3787    80.088291 
   78500    91.347367   -112.53777  0.082653017   -112.45512   -538.78367     4.310414     4.310414     4.310414   -538.78367   -5255.0661    4601.7175   -963.00236     1048.645    638.88776    480.01985    80.086063 
   78600    110.64919   -112.55502   0.10011771    -112.4549   -1174.2354    4.3111095    4.3111095    4.3111095   -1174.2354   -2910.5807   -872.25051    260.12494   -1578.8008   -140.17671   -457.38955     80.12484 
   78700    93.757772   -112.53959  0.084834003   -112.45476    362.07997    4.3102749    4.3102749    4.3102749    362.07997   -1831.8939    1314.4693    1603.6645   -637.54622   -890.37569   -827.82411    80.078311 
   78800    97.856305   -112.54334  0.088542441   -112.45479    -2132.576    4.3109415    4.3109415    4.3109415    -2132.576   -3731.1322   -4564.2127    1897.6167    2049.6592   -308.17952    541.84523    80.115471 
   78900    87.864914   -112.53445   0.07950202   -112.45495   -270.75069    4.3107742    4.3107742    4.3107742   -270.75069   -3177.8335    652.30428    1713.2771   -1725.8642   -1222.0708    1342.0978    80.106143 
   79000    111.65509   -112.55578   0.10102788   -112.45476   -945.16886    4.3104832    4.3104832    4.3104832   -945.16886   -5257.6861    1991.9898    430.18977    1581.8937    768.88461    562.09109    80.089924 
   79100    99.385015   -112.54498  0.089925651   -112.45505   -2163.6063    4.3110855    4.3110855    4.3110855   -2163.6063   -5166.2853    107.16042    -1431.694   -226.50233    557.93468     1235.626      80.1235 
   79200    95.279383    -112.5411  0.086210788   -112.45489     -392.161    4.3106302    4.3106302    4.3106302     -392.161   -3678.1315    2375.9066    125.74188   -2628.9889     147.8461   -717.90069    80.098118 
   79300    126.16391   -112.56872   0.11415576   -112.45456   -1265.3209    4.3106334    4.3106334    4.3106334   -1265.3209   -1697.1408   -3330.8417    1232.0197    1334.4605   -613.43409   -564.75969    80.098294 
   79400      64.3515   -112.51352   0.05822659   -112.45529     979.1538    4.3104483    4.3104483    4.3104483     979.1538   -2650.6577    3841.4142    1746.7049   -12.096406   -493.45488    893.85088    80.087978 
   79500    108.12454   -112.55271  0.097833358   -112.45488   -649.21461    4.3105348    4.3105348    4.3105348   -649.21461   -2971.9631   -369.65718    1393.9765   -59.018467   -174.11297    739.23051    80.092796 
   79600    106.07167   -112.55071  0.095975878   -112.45473    294.04042       4.3105       4.3105       4.3105    294.04042    -3672.752    5054.2114    -499.3381     14.11623   -446.16813   -410.65494     80.09086 
   79700    95.870949    -112.5417   0.08674605   -112.45496   -923.10521    4.3105559    4.3105559    4.3105559   -923.10521   -4739.5529    1335.8852    634.35208   -27.848418    862.60518    388.94697    80.093975 
   79800    116.47534   -112.56052   0.10538933   -112.45513   -406.63334    4.3106745    4.3106745    4.3106745   -406.63334   -1275.2607   -928.11152    983.47221   -1443.5106   -1333.0925    102.72977    80.100584 
   79900    85.832413   -112.53286  0.077662971    -112.4552     3064.988    4.3098957    4.3098957    4.3098957     3064.988   -693.93219    6757.4986    3131.3977    491.68255   -354.76138    278.47362    80.057178 
   80000    98.411784   -112.54422  0.089045051   -112.45518   -119.20251     4.310387     4.310387     4.310387   -119.20251   -1250.8526   -1161.6934    2054.9385    2262.4775   -598.57236     1361.771    80.084561 
   80100    82.044776   -112.52923  0.074235837     -112.455     1796.374    4.3106321    4.3106321    4.3106321     1796.374   -1661.7637    6507.9619     542.9238   -1319.7965    774.02209    -114.8656    80.098225 
   80200      140.833   -112.58185   0.12742866   -112.45442   -1445.1524    4.3102986    4.3102986    4.3102986   -1445.1524      -3709.2   -365.33036   -260.92679     766.8828     641.7894   -500.13671    80.079631 
   80300    90.129421   -112.53659  0.081550994   -112.45504   -458.31793    4.3107817    4.3107817    4.3107817   -458.31793   -2712.7559   -290.39354    1628.1957    16.487295    382.56621   -722.02467    80.106561 
   80400    94.154859   -112.54002  0.085193295   -112.45483    743.80319    4.3107183    4.3107183    4.3107183    743.80319   -1341.5657    2096.3765    1476.5988   -992.54558   -676.81824     921.4525     80.10303 
   80500    105.29439   -112.55001  0.095272577   -112.45474    1067.8876    4.3097012    4.3097012    4.3097012    1067.8876   -228.49192    522.22324    2909.9314    1746.1976   -1592.6852    558.92992    80.046342 
   80600     59.06582   -112.50885  0.053443996   -112.45541     1406.401    4.3109627    4.3109627    4.3109627     1406.401   -1282.2944    3893.0739    1608.4235    1179.9785    233.45197    1279.7842     80.11665 
   80700    141.92408   -112.58319   0.12841589   -112.45477   -3024.5104    4.3108149    4.3108149    4.3108149   -3024.5104   -3630.1754   -2399.4232   -3043.9325   -477.40775   -923.56902    82.572629     80.10841 
   80800    98.047657   -112.54352  0.088715581    -112.4548    483.73091    4.3100715    4.3100715    4.3100715    483.73091   -2624.1965    1721.6973    2353.6919   -620.49063    1384.8736    -393.9839    80.066978 
   80900    115.05158   -112.55891   0.10410108   -112.45481   -3336.2276    4.3117614    4.3117614    4.3117614   -3336.2276    -5002.531     -3518.68   -1487.4717    1081.7918    146.07866     725.8704    80.161191 
   81000    73.936081    -112.5222   0.06689892   -112.45531    953.06101    4.3097569    4.3097569    4.3097569    953.06101   -1660.6783    1801.5443     2718.317   -1530.8272   -410.00515    863.58144    80.049442 
   81100    87.974738   -112.53465  0.079601392   -112.45505    778.95504    4.3104286    4.3104286    4.3104286    778.95504    -724.7669     1315.801    1745.8311    1560.4673   -652.09181    866.56343    80.086879 
   81200     108.5932   -112.55331  0.098257408   -112.45505   -2660.7611    4.3114127    4.3114127    4.3114127   -2660.7611   -4208.8224   -1081.3884   -2692.0725    830.64014    61.520564    42.655759    80.141744 
   81300    90.831554   -112.53711  0.082186299   -112.45493    335.72033    4.3097377    4.3097377    4.3097377    335.72033   -2093.9176    2236.0159    865.06264   -3026.8198    201.71412    395.77575    80.048375 
   81400    156.22104   -112.59594   0.14135208   -112.45458    -3297.561    4.3114807    4.3114807    4.3114807    -3297.561    -5461.116   -2503.5128   -1928.0542      1385.08   -574.05965   -690.45429    80.145538 
   81500    52.578621   -112.50313  0.047574241   -112.45555    1623.8888    4.3102012    4.3102012    4.3102012    1623.8888   -3887.9249    5425.6219    3333.9695   -519.11764     293.0049    2115.1352    80.074202 
   81600    106.13188   -112.55109  0.096030357   -112.45506   -565.95778    4.3101184    4.3101184    4.3101184   -565.95778   -1202.9798   -939.54511    444.65161    41.050047   -1624.3207    1063.7633    80.069591 
   81700    87.416923   -112.53388  0.079096669   -112.45479    1533.3167    4.3109909    4.3109909    4.3109909    1533.3167   -1637.6762    4551.3069    1686.3195    837.59488     163.9196   -215.17867    80.118227 
   81800    98.131403   -112.54363  0.088791355   -112.45484   -767.00679    4.3101904    4.3101904    4.3101904   -767.00679   -1671.2582    386.98016   -1016.7424   -251.94615    210.31805    648.04797    80.073604 
   81900    127.68871   -112.57021   0.11553543   -112.45468    -1454.058    4.3108816    4.3108816    4.3108816    -1454.058   -3503.6254   -296.79022   -561.75822   -1446.7457    914.54524   -572.23628     80.11213 
   82000    89.982731   -112.53621  0.081418266   -112.45479    2141.2755    4.3105103    4.3105103    4.3105103    2141.2755   -3999.6413    7832.1257     2591.342   -694.17972    231.54862    384.44342    80.091435 
   82100    114.68206   -112.55863   0.10376674   -112.45487   -1078.7951    4.3099734    4.3099734    4.3099734   -1078.7951   -3631.2487   -54.452787    449.31619    2129.2912   -460.18815    520.14756    80.061511 
   82200    59.957217   -112.50935   0.05425055    -112.4551    3371.0107    4.3105661    4.3105661    4.3105661    3371.0107    -684.7317    6646.2307    4151.5332   -926.40482    -742.6843    1191.9751    80.094543 
   82300    142.21228   -112.58316   0.12867666   -112.45449   -1463.1419    4.3103959    4.3103959    4.3103959   -1463.1419   -1222.2869   -844.91531   -2322.2235    1533.6698   -1109.0259   -776.07397    80.085055 
   82400    71.721033   -112.52004  0.064894698   -112.45514    847.78616    4.3102397    4.3102397    4.3102397    847.78616   -1463.6964     1486.019    2521.0359    28.099758    766.97601    177.83076    80.076349 
   82500    108.59193   -112.55315  0.098256258    -112.4549    -865.7841     4.311119     4.311119     4.311119    -865.7841   -3423.8091    2699.5822   -1873.1254   -1632.8142   -303.13035    861.86311    80.125366 
   82600    110.33893   -112.55465  0.099836981   -112.45481    472.09388    4.3097561    4.3097561    4.3097561    472.09388   -4492.0895    3531.8643    2376.5068    1319.1324     747.7745    835.28364    80.049398 
   82700    71.168446    -112.5196  0.064394706    -112.4552     1085.823    4.3108173    4.3108173    4.3108173     1085.823   -2792.8195    3115.3502    2934.9382    574.40048   -287.06379    1013.2996    80.108545 
   82800    137.76724   -112.57935   0.12465469    -112.4547    -2732.485    4.3109074    4.3109074    4.3109074    -2732.485    -2906.046    -2655.296    -2636.113   -166.33071   -620.57773   -321.16083    80.113571 
   82900    78.956645    -112.5265  0.071441632   -112.45505    1883.2297    4.3097212    4.3097212    4.3097212    1883.2297   -798.36391    3480.6306    2967.4224   -336.97322   -274.64856   -353.13615    80.047457 
   83000    118.12484   -112.56187   0.10688184   -112.45499   -3294.5012    4.3117304    4.3117304    4.3117304   -3294.5012   -3122.1422   -2403.7628   -4357.5987    155.25038    653.04136    13.549119    80.159464 
   83100    61.689267   -112.51113  0.055817745   -112.45531    1603.6798    4.3097074    4.3097074    4.3097074    1603.6798   -3966.3038     5921.045    2856.2983    -1791.302   -165.65151    2049.3558    80.046684 
   83200    123.85692    -112.5669   0.11206835   -112.45483   -1219.0179    4.3108536    4.3108536    4.3108536   -1219.0179   -3673.1812   -607.05495    623.18254    1050.3054   -516.56935    522.33562    80.110567 
   83300    97.189072   -112.54296  0.087938715   -112.45502   -1323.2701    4.3111847    4.3111847    4.3111847   -1323.2701   -4388.3953   -728.19292    1146.7779    1240.1423   -230.52804    838.47399    80.129028 
   83400    98.025655   -112.54353  0.088695673   -112.45484   -206.37871    4.3097538    4.3097538    4.3097538   -206.37871   -2273.1282    1331.6708    322.32129   -2361.0173   -1298.5696    129.49683    80.049273 
   83500    129.49943   -112.57162    0.1171738   -112.45445   -1104.0959    4.3113864    4.3113864    4.3113864   -1104.0959   -1443.2201    119.93645    -1989.004    488.01427    426.81752   -591.54607    80.140277 
   83600    55.530963   -112.50548  0.050245582   -112.45524    2167.3218    4.3099332    4.3099332    4.3099332    2167.3218   -3114.4792    7162.9089    2453.5358   -1030.5343    706.65134    1656.2843     80.05927 
   83700    121.83874   -112.56504   0.11024226    -112.4548   -1638.9694    4.3104244    4.3104244    4.3104244   -1638.9694   -2921.0189   -1294.6001    -701.2892   -1521.6561    893.01176    994.70808    80.086643 
   83800    85.415275   -112.53201  0.077285536   -112.45472    1541.3679    4.3112455    4.3112455    4.3112455    1541.3679   -4252.3192    3665.0048    5211.4179    1516.9969   -392.59833   -44.058306    80.132423 
   83900    121.75122   -112.56474   0.11016306   -112.45458   -2422.7503    4.3099629    4.3099629    4.3099629   -2422.7503   -4571.0564   -1791.1593   -906.03532    58.332015   -13.895966    33.051096    80.060925 
   84000    85.560866   -112.53236   0.07741727   -112.45494    1041.5543    4.3108157    4.3108157    4.3108157    1041.5543   -2300.0418    3955.4608    1469.2438   -487.80442   -1004.7625    231.63954    80.108458 
   84100    111.58767   -112.55568   0.10096686   -112.45471     854.8696     4.310591     4.310591     4.310591     854.8696   -2599.1483    5689.2201     -525.463    -372.4483   -256.40326    -369.0803    80.095932 
   84200    92.347835   -112.53859  0.083558262   -112.45503    191.56042    4.3096249    4.3096249    4.3096249    191.56042   -1739.5088    623.07585    1691.1142    531.23692    976.97272    1404.4222    80.042087 
   84300    84.628716   -112.53156  0.076573841   -112.45499    632.15751    4.3114633    4.3114633    4.3114633    632.15751    -4320.086    2770.7392    3445.8193   -95.857792   -315.43088    976.41005    80.144565 
   84400    141.73449   -112.58262   0.12824434   -112.45438   -2123.7674    4.3101779    4.3101779    4.3101779   -2123.7674   -3467.4223   -3008.7552     104.8754    968.60386    689.28389    -565.6088    80.072906 
   84500    61.199427   -112.51049  0.055374528   -112.45512    1141.7955    4.3101648    4.3101648    4.3101648    1141.7955   -4493.9635    4275.3464    3644.0037    1741.8501   -496.62825   -388.77894    80.072176 
   84600    124.53658   -112.56757   0.11268332   -112.45488   -2493.3653    4.3117379    4.3117379    4.3117379   -2493.3653   -3300.2218    447.92288    -4627.797   -2471.3152    190.54314     597.6099    80.159878 
   84700     75.39671   -112.52344  0.068220528   -112.45522    2307.7049    4.3091309    4.3091309    4.3091309    2307.7049    200.88198    2482.8857    4239.3469    1573.3575    79.634778    751.63363    80.014567 
   84800    108.41671   -112.55323  0.098097719   -112.45513   -1997.5652    4.3114775    4.3114775    4.3114775   -1997.5652   -4608.6855   -1676.7242    292.71397    587.90921    1192.0145    223.17199    80.145357 
   84900    105.13267   -112.55006   0.09512625   -112.45493   -1123.8116     4.310888     4.310888     4.310888   -1123.8116   -1537.0696   -3106.2662    1271.9011   -200.06972   -935.84743    429.71251     80.11249 
   85000    101.95899   -112.54698  0.092254636   -112.45472    254.52624      4.30962      4.30962      4.30962    254.52624   -4342.6351    2598.2991    2507.9147     2743.533   -890.68458   -751.90394    80.041818 
   85100    117.42935   -112.56103   0.10625254   -112.45478   -2887.6972    4.3120021    4.3120021    4.3120021   -2887.6972   -4139.6685   -1033.6932   -3489.7298   -703.10982    30.703194    660.04231    80.174618 
   85200     57.34536   -112.50717  0.051887286   -112.45528    2024.0448    4.3095498    4.3095498    4.3095498    2024.0448     173.9569    3070.5174    2827.6601   -357.79952   -834.79525    1635.4316    80.037904 
   85300    133.83168   -112.57576   0.12109372   -112.45466   -1968.3708    4.3106455    4.3106455    4.3106455   -1968.3708   -2693.4993   -3231.7669    20.153604   -249.36791    1557.9543    779.19372    80.098969 
   85400    67.085042   -112.51583  0.060699956   -112.45513    1262.0592    4.3112862    4.3112862    4.3112862    1262.0592   -645.23774    -537.8113    4969.2265    1212.6223    406.93892    179.41861    80.134693 
   85500    121.06056   -112.56422   0.10953814   -112.45468   -933.39097    4.3095514    4.3095514    4.3095514   -933.39097   -3081.6953    730.43136   -448.90897   -585.33991    175.29671   -310.29202    80.037992 
   85600    110.64594   -112.55478   0.10011478   -112.45467    453.10919    4.3111332    4.3111332    4.3111332    453.10919   -3164.8429    2777.5642    1746.6063    771.83364   -987.53607   -786.16311     80.12616 
   85700    84.769643   -112.53161  0.076701354   -112.45491    846.37348    4.3104547    4.3104547    4.3104547    846.37348   -2040.1999    4196.0289    383.29149    624.14841     64.73072    1202.4662    80.088333 
   85800    116.85637   -112.56046    0.1057341   -112.45472   -724.94182    4.3098097    4.3098097    4.3098097   -724.94182   -1888.7996   -1554.2023    1268.1765   -2228.9321   -233.36212    1697.0105    80.052387 
   85900    74.053603   -112.52194  0.067005256   -112.45494    2754.3654    4.3110322    4.3110322    4.3110322    2754.3654    -858.0518    2811.0627    6310.0853    2427.0834    132.60473   -320.85357    80.120527 
   86000    120.44728   -112.56368   0.10898323    -112.4547   -1043.5996    4.3099586    4.3099586    4.3099586   -1043.5996   -2840.5601    97.754698   -387.99327    99.454582    935.82955    261.25545    80.060682 
   86100    75.429953   -112.52327  0.068250607   -112.45502    2292.9082    4.3100569    4.3100569    4.3100569    2292.9082   -3050.0665    5434.8408    4493.9503    278.26521   -663.97614   -108.10885    80.066159 
   86200    126.55792   -112.56929   0.11451226   -112.45478    -659.2845    4.3111368    4.3111368    4.3111368    -659.2845   -3531.9444    3989.2195   -2435.1285    848.38902    214.86973   -160.16186    80.126362 
   86300    99.283053   -112.54487  0.089833393   -112.45504    291.92971     4.309696     4.309696     4.309696    291.92971   -4155.3871    1211.6764    3819.4998   -480.49542    386.28774    796.82722     80.04605 
   86400    93.493092   -112.53957  0.084594514   -112.45498    366.94557    4.3109485    4.3109485    4.3109485    366.94557   -2749.6631    1322.1986    2528.3012   -56.669524    669.16685    1105.0547    80.115862 
   86500     114.9512   -112.55862   0.10401026   -112.45461   -918.20412    4.3106974    4.3106974    4.3106974   -918.20412   -3551.8758   -997.24669    1794.5101    825.33553    259.82296   -1023.1816     80.10186 
   86600    68.373731   -112.51681  0.061865989   -112.45495    988.77004    4.3100017    4.3100017    4.3100017    988.77004   -4384.7242    4291.9465    3059.0878    2504.1257    666.76927   -679.94315    80.063084 
   86700    115.85232   -112.55963   0.10482561   -112.45481   -2501.1288    4.3114116    4.3114116    4.3114116   -2501.1288   -4036.1486     769.7105   -4236.9483   -540.66573   -1231.3831    1197.6661    80.141681 
   86800    90.821259   -112.53719  0.082176984   -112.45501   -38.088959    4.3102054    4.3102054    4.3102054   -38.088959    -5812.494    2031.5872      3666.64    1523.7958    -503.8491    827.79511    80.074436 
   86900     118.6286   -112.56213   0.10733765   -112.45479    -2408.345    4.3110247    4.3110247    4.3110247    -2408.345   -5266.7282   -1841.9584   -116.34842    1017.4312    493.15809    705.20455    80.120107 
   87000    95.622449   -112.54139  0.086521201   -112.45487    -1042.332    4.3108899    4.3108899    4.3108899    -1042.332   -4957.6979   -2185.4527    4016.1546   -1548.4664   -289.19881    8.7691984    80.112595 
   87100    100.10501   -112.54535  0.090577114   -112.45478   -1061.6065    4.3103668    4.3103668    4.3103668   -1061.6065   -4460.9147    1136.1946    139.90059    2879.5546    810.94248   -467.13965    80.083432 
   87200    93.135069   -112.53907  0.084270568    -112.4548   -1297.7703    4.3110221    4.3110221    4.3110221   -1297.7703   -4512.4958    675.97902   -56.794016    442.88931    279.10752   -173.71857    80.119965 
   87300    85.124311   -112.53189  0.077022266   -112.45487   -628.62753    4.3104552    4.3104552    4.3104552   -628.62753   -4569.7393    1876.9685    806.88816   -411.72925   -813.93691    1855.8829    80.088362 
   87400    117.24208   -112.56075    0.1060831   -112.45467   -1907.7366    4.3109074    4.3109074    4.3109074   -1907.7366   -4288.5471   -2313.5107    878.84789    1935.4028   -410.12855    495.11795    80.113572 
   87500    90.731514   -112.53701  0.082095781   -112.45491    82.746212    4.3105875    4.3105875    4.3105875    82.746212   -5807.4866   -662.44994    6718.1752   -791.71055    403.19188    200.52702    80.095734 
   87600    119.68759   -112.56301   0.10829584   -112.45471   -1611.3259    4.3104753    4.3104753    4.3104753   -1611.3259   -2243.4936   -584.26628   -2006.2177    620.50122   -726.65072   -338.09677    80.089483 
   87700     80.13511   -112.52742  0.072507932   -112.45491    1713.9613    4.3105435    4.3105435    4.3105435    1713.9613   -3805.4475    3964.1112    4983.2201      1467.42    268.89842   -731.45027    80.093283 
   87800    113.00897   -112.55708   0.10225289   -112.45482   -194.25467    4.3102334    4.3102334    4.3102334   -194.25467   -3097.4639    3468.5566    -953.8567     827.7575   -76.167063    1467.2365    80.075998 
   87900    87.116059   -112.53379  0.078824441   -112.45496    1269.0229    4.3105047    4.3105047    4.3105047    1269.0229   -486.76887    853.96342    3439.8742    -467.3724   -485.80273     1397.884    80.091121 
   88000     104.7794   -112.54953  0.094806606   -112.45473     251.3855    4.3105838    4.3105838    4.3105838     251.3855   -5458.0484    144.63031    6067.5745    186.33427    44.333507    123.52921     80.09553 
   88100    112.71579   -112.55659   0.10198762    -112.4546   -225.63095    4.3100963    4.3100963    4.3100963   -225.63095   -697.55322   -892.47399    913.13435    377.81725    930.88654   -941.18459    80.068356 
   88200    77.876959   -112.52532  0.070464709   -112.45486    2146.2734    4.3106112    4.3106112    4.3106112    2146.2734   -2457.7881    5024.7919    3871.8162   -1180.6984    450.92421    122.36116    80.097054 
   88300    129.93514   -112.57224   0.11756804   -112.45468   -581.76991    4.3102531    4.3102531    4.3102531   -581.76991      -2865.8     3495.012   -2374.5217    2687.0098   -257.29208   -419.21566    80.077095 
   88400    68.414192   -112.51706  0.061902599   -112.45516    3105.0541    4.3100541    4.3100541    4.3100541    3105.0541    1135.7545    2593.4153    5585.9925   -139.52662    388.84978    1173.7606    80.066004 
   88500    127.70881   -112.57032   0.11555362   -112.45477   -1734.4028     4.311124     4.311124     4.311124   -1734.4028   -4763.0592   -930.48951    490.34036   -486.35949   -1394.9426     1553.221    80.125644 
   88600    87.822944   -112.53433  0.079464045   -112.45487    630.29316    4.3098821    4.3098821    4.3098821    630.29316   -429.73575   -2335.3155    4655.9307     1063.739    386.06166   -565.98902     80.05642 
   88700    99.158298   -112.54443  0.089720512   -112.45471   -447.31711    4.3109044    4.3109044    4.3109044   -447.31711   -3260.3543    1247.1499    671.25309   -677.00196    692.01694    -416.2678      80.1134 
   88800    111.94115   -112.55597    0.1012867   -112.45468   -1207.7125    4.3107363    4.3107363    4.3107363   -1207.7125   -3529.6533    2293.8421   -2387.3261    310.60659   -57.417921    756.40636    80.104032 
   88900    64.304974   -112.51337  0.058184492   -112.45519    2090.4093    4.3097514    4.3097514    4.3097514    2090.4093   -113.27941    1354.5102    5029.9971    655.87942   -43.252472    1176.9896    80.049136 
   89000    135.93456   -112.57776   0.12299645   -112.45476    -3099.018    4.3115107    4.3115107    4.3115107    -3099.018   -5580.5942   -2601.5276   -1114.9323    999.72303    207.75155   -217.05083    80.147212 
   89100    76.615974    -112.5244  0.069323743   -112.45507    724.16783    4.3100549    4.3100549    4.3100549    724.16783   -1070.3165   -2658.9483    5901.7683   -1732.5869   -746.12272    850.02896    80.066049 
   89200    127.92212   -112.57046   0.11574662   -112.45471   -2832.5043    4.3108807    4.3108807    4.3108807   -2832.5043   -4348.2335   -2313.6242   -1835.6552    911.76222    32.354604   -809.56241    80.112083 
   89300    88.243463   -112.53487  0.079844539   -112.45503   -88.892367    4.3109623    4.3109623    4.3109623   -88.892367   -4757.6917    2345.3265    2145.6881    594.39883    776.96295    506.49626    80.116629 
   89400    84.507604   -112.53152  0.076464256   -112.45506    467.05462    4.3098751    4.3098751    4.3098751    467.05462   -1589.2367    1705.0893    1285.3112   -833.60538   -1267.6781    1727.4614    80.056029 
   89500    105.85092    -112.5506  0.095776138   -112.45482    -1363.119    4.3111549    4.3111549    4.3111549    -1363.119   -5268.8529   -1811.3732     2990.869    2334.3583   -116.99266     1177.167     80.12737 
   89600     80.85105     -112.528  0.073155729   -112.45484    801.07123    4.3103971    4.3103971    4.3103971    801.07123   -2908.0338   -1989.6885    7300.9359   -968.69724   -187.63988     372.2354    80.085123 
   89700    140.54208   -112.58169   0.12716543   -112.45453   -2486.0356    4.3105519    4.3105519    4.3105519   -2486.0356   -3738.3449   -1897.3871   -1822.3749   -689.29943   -111.30101   -898.05651    80.093754 
   89800    83.330796   -112.53052  0.075399455   -112.45512    1161.8168    4.3108727    4.3108727    4.3108727    1161.8168   -4824.8528    2439.1249    5871.1784     884.0861    448.59939   -389.44919    80.111636 
   89900    113.15871   -112.55724   0.10238838   -112.45485    -567.0578    4.3100254    4.3100254    4.3100254    -567.0578   -3706.9196    2724.4447   -718.69853   -366.80827     766.9835    752.75397    80.064404 
   90000    78.865069   -112.52642  0.071358771   -112.45506    1328.8115    4.3105151    4.3105151    4.3105151    1328.8115   -4058.9836    1751.4617    6293.9565    284.15161   -534.41732    2269.1728    80.091698 
   90100    89.531751   -112.53604   0.08101021   -112.45503    95.109634    4.3105512    4.3105512    4.3105512    95.109634   -3385.5398   -1544.6082    5215.4768    1104.2792   -449.14068   -122.46366    80.093712 
   90200    120.42669   -112.56363    0.1089646   -112.45466   -1193.3563    4.3102374    4.3102374    4.3102374   -1193.3563   -4182.7049   -1019.1663    1621.8024    192.02629    465.79588   -7.1098715    80.076219 
   90300    98.461353   -112.54386  0.089089901   -112.45477    419.25899    4.3110854    4.3110854    4.3110854    419.25899   -3169.3507    1631.9002    2795.2275   -789.24782   -304.01668   -200.89117    80.123496 
   90400    114.70118   -112.55848   0.10378403    -112.4547   -1157.2058    4.3101579    4.3101579    4.3101579   -1157.2058   -4034.5601    1355.3169   -792.37438    1718.9362    569.97577    70.837771     80.07179 
   90500     73.66296   -112.52176  0.066651794   -112.45511    1686.1333    4.3103175    4.3103175    4.3103175    1686.1333   -4853.2973    3435.2787    6476.4184    503.92106    804.78758    1248.4115    80.080684 
   90600    105.78424   -112.55068  0.095715803   -112.45496   -603.95357    4.3109274    4.3109274    4.3109274   -603.95357   -1681.8372   -800.12591    670.10238   -600.35125    -413.6705    1491.5813    80.114682 
   90700    95.216346   -112.54105   0.08615375    -112.4549   -585.89757    4.3098523    4.3098523    4.3098523   -585.89757   -4676.6757   -2328.1041    5247.0871    1949.5991    49.122616   -91.780043    80.054761 
   90800    117.86748   -112.56124   0.10664897   -112.45459   -1947.9988    4.3115606    4.3115606    4.3115606   -1947.9988   -2639.9443   -1068.2578   -2135.7942   -819.77455    1384.3573   -1174.2276    80.149992 
   90900    101.94311   -112.54701  0.092240271   -112.45477   -545.59307     4.310297     4.310297     4.310297   -545.59307   -2175.5194   -453.79167    992.53182   -380.55863   -762.31259    1515.7611    80.079542 
   91000    79.241565   -112.52676  0.071699434   -112.45506    499.93817    4.3100618    4.3100618    4.3100618    499.93817   -4805.7618    1818.1515    4487.4248    1802.1297    379.90961    899.75757    80.066434 
   91100    96.086142    -112.5418  0.086940761   -112.45486    310.19447     4.311397     4.311397     4.311397    310.19447   -895.71275    465.45993    1360.8362     85.52193   -102.68738    1180.8669    80.140868 
   91200    96.595166   -112.54211  0.087401336   -112.45471    819.19726    4.3094259    4.3094259    4.3094259    819.19726   -3337.1601   -958.20666    6752.9585    782.38706   -826.63081    926.51344    80.031002 
   91300    129.04229   -112.57131   0.11676018   -112.45455   -2695.7177     4.311282     4.311282     4.311282   -2695.7177   -1776.6121   -3557.8935   -2752.6473    695.50363    316.22643   -216.15308    80.134457 
   91400    92.991601   -112.53903  0.084140755   -112.45489    322.23797    4.3109375    4.3109375    4.3109375    322.23797   -2478.4194   -1337.7439    4782.8772    19.452935    520.34965   -305.25382    80.115247 
   91500    106.72089   -112.55139  0.096563306   -112.45483   -33.974019    4.3092582    4.3092582    4.3092582   -33.974019   -2824.7788    911.74504    1811.1117   -906.92244    265.01721    1500.5826    80.021658 
   91600    63.324005   -112.51254  0.057296891   -112.45525    2185.2656      4.31129      4.31129      4.31129    2185.2656   -1443.2891    868.01847    7131.0674    1383.3552   -262.57345    1322.9393    80.134901 
   91700    101.31847   -112.54659  0.091675081   -112.45491    1440.3624    4.3098281    4.3098281    4.3098281    1440.3624   -3688.5808    2451.0319     5558.636     220.1686    592.39744    299.91851    80.053412 
   91800    133.22696   -112.57521   0.12054655   -112.45466   -951.27249    4.3099674    4.3099674    4.3099674   -951.27249   -627.58181   -2299.4405    73.204796   -459.27538   -1232.6707    10.267853    80.061174 
   91900    90.433765   -112.53678  0.081826371   -112.45495    308.98884    4.3117386    4.3117386    4.3117386    308.98884   -3612.4995   -790.72345    5330.1894    2102.7198    611.64942   -656.91376    80.159921 
   92000    128.14527   -112.57062   0.11594854   -112.45467   -562.45252     4.309286     4.309286     4.309286   -562.45252     -3562.35    1104.1774    770.81505   -1108.9615    480.49572    1573.8049    80.023206 
   92100    54.686133   -112.50468  0.049481162   -112.45519    3834.3108    4.3101928    4.3101928    4.3101928    3834.3108   -1390.3996    2849.9836    10043.348    533.37974   -20.872669    1434.2615    80.073738 
   92200    97.891399   -112.54365  0.088574195   -112.45507   -344.62911    4.3111989    4.3111989    4.3111989   -344.62911    -5386.454     3101.319    1251.2476    1339.4102    259.46977    925.81711    80.129822 
   92300    109.96816   -112.55426  0.099501505   -112.45476   -51.892239    4.3093031    4.3093031    4.3093031   -51.892239    -2629.619   -845.91349    3319.8557    7.0468273    724.83535   -696.14245    80.024161 
   92400    112.58968   -112.55652   0.10187351   -112.45464   -1274.1424    4.3116609    4.3116609    4.3116609   -1274.1424   -3403.4506   -718.59053    299.61393    267.16115    81.408326   -426.07391    80.155586 
   92500    119.98212   -112.56344   0.10856235   -112.45487   -2338.4204    4.3106773    4.3106773    4.3106773   -2338.4204    -5911.239   -2395.6241    1291.6019    1134.3171    264.57164   -482.32507    80.100744 
   92600    63.618778   -112.51272  0.057563607   -112.45515    2914.3838    4.3095356    4.3095356    4.3095356    2914.3838   -2970.2447    3346.7253    8366.6708    179.01102    1607.2699    1454.0286    80.037112 
   92700    114.89853   -112.55883    0.1039626   -112.45486   -1864.0341     4.311784     4.311784     4.311784   -1864.0341   -6014.5683    2058.7662   -1636.3003   -297.08151   -1227.6375    2348.0991    80.162454 
   92800    72.483409   -112.52065  0.065584512   -112.45506   -291.00887    4.3098569    4.3098569    4.3098569   -291.00887    -4706.707   -544.92128    4378.6017    2710.7796    313.67573    76.321123    80.055017 
   92900    130.21078   -112.57227   0.11781745   -112.45446   -3135.6202    4.3111706    4.3111706    4.3111706   -3135.6202   -4644.3823   -1557.1916   -3205.2866    155.42422    501.72467   -441.78024    80.128244 
   93000    108.82829   -112.55337   0.09847012    -112.4549   -2040.7754    4.3111131    4.3111131    4.3111131   -2040.7754   -4967.6504   -4561.1523    3406.4766    526.09063   -210.43455   -56.146943     80.12504 
   93100    69.857248   -112.51854  0.063208306   -112.45533    553.85979    4.3097338    4.3097338    4.3097338    553.85979   -3374.1151    524.85189    4510.8426    1790.7716    1051.1033    1027.6423    80.048157 
   93200    117.84367   -112.56151   0.10662743   -112.45489    -1224.406    4.3113667    4.3113667    4.3113667    -1224.406   -6391.7479     597.1889     2121.341   -628.46068    572.02993    92.694521    80.139178 
   93300    76.082054   -112.52385  0.068840641   -112.45501    794.36327    4.3100321    4.3100321    4.3100321    794.36327    -2386.059    1780.8678     2988.281    943.48708   -747.01944    1753.5199    80.064782 
   93400    127.14682   -112.56978   0.11504511   -112.45473   -3536.0729    4.3109053    4.3109053    4.3109053   -3536.0729   -5992.3918   -2587.3356   -2028.4914    1837.1397    31.650804   -566.72067    80.113451 
   93500    98.645067   -112.54416  0.089256129    -112.4549    164.82128    4.3109788    4.3109788    4.3109788    164.82128   -3904.0069   -2091.2431    6489.7138     66.00633     331.0069   -181.49086     80.11755 
   93600    98.121196    -112.5437   0.08878212   -112.45492    264.79296    4.3096155    4.3096155    4.3096155    264.79296   -783.02316   -270.42803    1847.8301    681.90314   -386.35914    1561.6411    80.041568 
   93700    85.161043   -112.53208  0.077055501   -112.45502    382.82648    4.3109968    4.3109968    4.3109968    382.82648   -5934.8672   -472.84582    7556.1924    1000.4023    682.74706    1157.7119    80.118554 
   93800    90.035662   -112.53621  0.081466159   -112.45474    1865.7951    4.3100957    4.3100957    4.3100957    1865.7951    63.150613    4626.8015    907.43315   -256.09294    525.38395    754.93125    80.068323 
   93900    127.58685   -112.56999   0.11544326   -112.45455   -1102.8327     4.310132     4.310132     4.310132   -1102.8327   -3701.6122   -398.43163    791.54582    934.71924   -601.12434   -661.34569    80.070346 
   94000     89.28373   -112.53565  0.080785795   -112.45487    739.10585    4.3112158    4.3112158    4.3112158    739.10585   -3410.4757    383.54971    5244.2436    1611.6909    256.52881   -380.31305    80.130766 
   94100    121.43424    -112.5644   0.10987625   -112.45453      402.468    4.3096743    4.3096743    4.3096743      402.468    369.45721   -602.94141    1440.8882    -116.3213    1489.8936    -49.31537    80.044844 
   94200    81.509254   -112.52854  0.073751286   -112.45479    1759.9626    4.3103638    4.3103638    4.3103638    1759.9626   -3557.1551    1148.2243    7688.8187   -313.93401   -245.38454    1789.2766    80.083269 
   94300    87.097237   -112.53378   0.07880741   -112.45498    322.80307    4.3107593    4.3107593    4.3107593    322.80307   -75.538357    2349.1049   -1305.1573    1042.5055    605.11205    512.24747    80.105312 
   94400    106.96265   -112.55142  0.096782049   -112.45464    758.21351    4.3095245    4.3095245    4.3095245    758.21351   -2841.6448    2468.9246    2647.3607   -844.26842     595.2837    471.54932    80.036497 
   94500    106.92739   -112.55142  0.096750154   -112.45467   -149.65887    4.3112397    4.3112397    4.3112397   -149.65887   -2561.7425    2214.2656   -101.49977    875.54978   -638.02183   -656.78713    80.132095 
   94600    103.94152   -112.54897  0.094048475   -112.45492   -658.06685    4.3103391    4.3103391    4.3103391   -658.06685   -1417.1172   -3751.8123    3194.7289    1739.1149    563.40059    -467.1661    80.081891 
   94700    99.434492   -112.54489  0.089970418   -112.45492    690.80745    4.3100793    4.3100793    4.3100793    690.80745   -3892.3275    2039.9543    3924.7956   -265.56327    1531.4143    1028.0825    80.067413 
   94800    104.52127   -112.54947   0.09457304    -112.4549   -924.60173    4.3113173    4.3113173    4.3113173   -924.60173    -668.8268   -304.29027   -1800.6881    190.31234   -183.81992    1318.9003    80.136426 
   94900    76.136388     -112.524  0.068889804   -112.45511    215.64704    4.3097393    4.3097393    4.3097393    215.64704   -4036.2609    2067.4166    2615.7854    343.98795    443.72045    159.38101    80.048464 
   95000    118.01269   -112.56145   0.10678037   -112.45467   -1292.2549    4.3109671    4.3109671    4.3109671   -1292.2549   -3767.4357    2709.7699   -2819.0988    135.60544    939.68073   -1584.4854    80.116896 
   95100      92.2753   -112.53851   0.08349263   -112.45502     -144.774    4.3107169    4.3107169    4.3107169     -144.774   -2348.8743    -3653.667    5568.2193   -382.78585    -1262.829    504.52695    80.102948 
   95200    101.85815   -112.54725  0.092163395   -112.45508   -1637.9276    4.3100998    4.3100998    4.3100998   -1637.9276   -5035.0565    -1789.515    1910.7885    2144.8492    1441.0891    242.43623    80.068552 
   95300    106.11812   -112.55084  0.096017903   -112.45482   -546.24113    4.3112995    4.3112995    4.3112995   -546.24113   -3077.6112   -822.01584    2260.9037   -885.80552    276.69338    1320.6915     80.13543 
   95400    95.443161   -112.54113  0.086358978   -112.45477    170.05556    4.3101487    4.3101487    4.3101487    170.05556   -3631.1282    3323.7705    817.52437    324.38569   -669.11211    1255.0613     80.07128 
   95500    101.34781   -112.54655  0.091701627   -112.45485   -1217.9585    4.3104707    4.3104707    4.3104707   -1217.9585   -4512.5824    845.97673    12.730202    1679.2869    209.31356   -51.996866    80.089225 
   95600     85.27723   -112.53197   0.07716063   -112.45481    907.09141    4.3109989    4.3109989    4.3109989    907.09141   -4324.4404    1247.7288    5797.9858   -961.79763    250.31529   -1363.4869    80.118672 
   95700    126.07538   -112.56874   0.11407565   -112.45467   -1990.2401    4.3100759    4.3100759    4.3100759   -1990.2401   -3272.5514   -3498.5456    800.37648      1764.69   -302.73106    593.65666     80.06722 
   95800    75.039855   -112.52291  0.067897638   -112.45501    363.73309    4.3107237    4.3107237    4.3107237    363.73309   -4280.9745   -1980.5259    7352.6997    245.77789    659.67588    942.78908    80.103327 
   95900    119.59179   -112.56281   0.10820917    -112.4546   -587.70153    4.3108065    4.3108065    4.3108065   -587.70153   -4141.2049    4653.4361   -2275.3358   -391.35901    1650.5483    50.239763    80.107945 
   96000    98.505052   -112.54387  0.089129441   -112.45474     1051.378    4.3097564    4.3097564    4.3097564     1051.378   -1580.0333    1802.4882    2931.6792   -296.15044   -1249.5453    739.28829    80.049418 
   96100    74.382826   -112.52236  0.067303144   -112.45506    767.21525    4.3108566    4.3108566    4.3108566    767.21525    -5116.516    3273.1214    4145.0404    1144.3572    356.23276   -1007.4517    80.110736 
   96200    130.88393   -112.57307   0.11842653   -112.45464    -1623.164    4.3104865    4.3104865    4.3104865    -1623.164    -3175.806   -2064.8036    371.11775   -23.415926    568.06711    986.90881    80.090108 
   96300    82.595572   -112.52964  0.074734209   -112.45491    1420.4268     4.310123     4.310123     4.310123    1420.4268   -2276.1214   -628.76092    7166.1627    546.71626   -537.52307    557.23283    80.069849 
   96400    120.30362   -112.56377   0.10885324   -112.45492   -2644.7611    4.3111277    4.3111277    4.3111277   -2644.7611     -5861.74    1374.1629   -3446.7062    1852.8857    954.59986    1090.6135    80.125853 
   96500    81.452083   -112.52875  0.073699557   -112.45505     1650.338    4.3100902    4.3100902    4.3100902     1650.338   -1285.3247    4293.2448    1943.0939   -1307.7927    1146.4706   -758.27207    80.068015 
   96600    101.86116   -112.54694  0.092166121   -112.45477    206.25049    4.3104342    4.3104342    4.3104342    206.25049    -3230.286    3009.0791    839.95839    556.54716   -240.84007   -1058.7837    80.087189 
   96700    95.416682   -112.54137  0.086335019   -112.45504   -956.97845    4.3105531    4.3105531    4.3105531   -956.97845   -3812.5425   -2478.2499     3419.857    418.26911     320.0726   -905.48251    80.093817 
   96800    93.168314   -112.53924  0.084300648   -112.45494    725.97946    4.3106307    4.3106307    4.3106307    725.97946   -1143.4782    585.48367    2735.9329   -150.56548    1164.7883    465.50647    80.098144 
   96900    143.08805   -112.58411   0.12946908   -112.45464   -2567.6115    4.3106931    4.3106931    4.3106931   -2567.6115   -5217.5118   -1448.8189   -1036.5039     671.4041   -825.24075     2404.192    80.101621 
   97000     60.71925   -112.51026  0.054940053   -112.45532    966.46526    4.3103055    4.3103055    4.3103055    966.46526   -1313.7754    3440.4974    772.67378    764.29252    830.36185   -243.20928    80.080015 
   97100    115.08739   -112.55889   0.10413349   -112.45475   -1103.9368    4.3109532    4.3109532    4.3109532   -1103.9368   -3922.6083    2223.2202   -1612.4224   -488.36591    814.27053   -287.44651    80.116125 
   97200    83.887641   -112.53088  0.075903301   -112.45498    1503.0672    4.3096599    4.3096599    4.3096599    1503.0672   -1994.6036   -101.27674    6605.0819   -12.533405   -1603.4179    -1156.175    80.044041 
   97300    92.223715   -112.53857  0.083445955   -112.45512   -663.23789    4.3108868    4.3108868    4.3108868   -663.23789   -775.93086   -1645.5947    431.81188    916.58031    756.07172    648.81535    80.112421 
   97400    131.53508   -112.57364    0.1190157   -112.45462    -1426.577    4.3109215    4.3109215    4.3109215    -1426.577   -5831.6957   -851.75017    2403.7149    84.323984    985.97768   -214.59049    80.114356 
   97500    93.050687   -112.53896  0.084194217   -112.45477    1407.1419    4.3095415    4.3095415    4.3095415    1407.1419    691.28812    2939.7722    590.36528    465.37577   -762.83477    1344.8833    80.037442 
   97600    105.53006   -112.55039  0.095485819    -112.4549   -1696.2834    4.3114024    4.3114024    4.3114024   -1696.2834    -5645.204    369.34157    187.01242    789.76245    1323.5886   -4.4446068     80.14117 
   97700    68.311142   -112.51686  0.061809357   -112.45505    2742.7749    4.3097747    4.3097747    4.3097747    2742.7749   -2742.7163    4047.7233    6923.3176   -939.10291   -57.378077   -1428.8595    80.050434 
   97800    120.48172   -112.56369    0.1090144   -112.45468   -320.14349    4.3100831    4.3100831    4.3100831   -320.14349     101.2089   -2026.1415    964.50212    -349.5493   -803.10097    1293.8051    80.067619 
   97900    91.635765   -112.53781  0.082913966   -112.45489   -617.10263    4.3114675    4.3114675    4.3114675   -617.10263    -5808.762   -932.02466    4889.4788    1375.9625   -125.84481    371.76718    80.144798 
   98000    115.27483     -112.559   0.10430309   -112.45469    -421.8297    4.3097703    4.3097703    4.3097703    -421.8297   -812.24627    1198.5216   -1651.7644   -106.89532    1298.2846    1201.5645     80.05019 
   98100    111.93155    -112.5559   0.10127802   -112.45462   -98.654449    4.3107047    4.3107047    4.3107047   -98.654449   -4149.9007    1482.9347    2371.0026    1304.4404   -40.294222   -787.54802    80.102268 
   98200    63.730875   -112.51275  0.057665035   -112.45508    1299.5625    4.3107248    4.3107248    4.3107248    1299.5625   -4433.6438    4287.5061    4044.8251    756.26334    424.51428    -472.3156     80.10339 
   98300    113.74932   -112.55768   0.10292277   -112.45476   -315.77693    4.3096276    4.3096276    4.3096276   -315.77693   -3082.6373      524.149    1611.1575   -23.316237     1877.361   -960.09498    80.042242 
   98400     97.27963   -112.54274  0.088020654   -112.45471    248.44561    4.3112724    4.3112724    4.3112724    248.44561   -3298.1545    410.53936    3632.9519    48.871876   -1656.3932    645.20893     80.13392 
   98500    117.74855   -112.56136   0.10654137   -112.45482    -3220.939    4.3106215    4.3106215    4.3106215    -3220.939    -3832.833   -2914.8362   -2915.1478    1320.2334    1942.1292     924.2813    80.097631 
   98600     89.92155   -112.53636  0.081362908   -112.45499    281.29455    4.3101029    4.3101029    4.3101029    281.29455   -3592.2081    2695.5858     1740.506    293.40775    1141.5766   -49.232265    80.068727 
   98700    101.75971   -112.54691  0.092074321   -112.45483    95.910987    4.3112061    4.3112061    4.3112061    95.910987   -2810.7312     2570.829    527.63517    164.32652   -492.75561   -79.477624    80.130223 
   98800    81.021059   -112.52853  0.073309557   -112.45522   -15.287421    4.3096586    4.3096586    4.3096586   -15.287421   -5123.3765    1607.4546    3470.0597    1914.9065    1211.6775   -1238.4909    80.043966 
   98900    103.47828   -112.54849  0.093629326   -112.45486    -587.8799    4.3109726    4.3109726    4.3109726    -587.8799   -2260.0166    882.39621    -386.0193    -1273.904    234.21259    778.72619    80.117203 
   99000    134.32963   -112.57609   0.12154427   -112.45455   -2464.3148    4.3110159    4.3110159    4.3110159   -2464.3148    -3031.964   -2960.4043   -1400.5762    1970.5301   -18.547082    697.51167    80.119619 
   99100    76.594244   -112.52442  0.069304082   -112.45512   -163.32118    4.3098166    4.3098166    4.3098166   -163.32118   -3022.7366     1249.116    1283.6571    1387.3904    793.38756    275.38817     80.05277 
   99200    105.17961   -112.55012  0.095168719   -112.45495   -469.14669    4.3113434    4.3113434    4.3113434   -469.14669   -2135.3021    1870.4565   -1142.5945    215.48139    2468.4034   -1590.0025    80.137881 
   99300    75.807542   -112.52363  0.068592257   -112.45504    2498.1854    4.3096217    4.3096217    4.3096217    2498.1854   -3675.9234    4560.2583    6610.2213    830.82604    -1094.177   -503.22256    80.041908 
   99400    106.82877   -112.55166  0.096660917     -112.455   -1579.6083    4.3107025    4.3107025    4.3107025   -1579.6083    -2464.887   -1349.3945   -924.54347   -229.77785    853.45374    229.15473    80.102147 
   99500    111.47282   -112.55559   0.10086295   -112.45472   -686.31789    4.3112639    4.3112639    4.3112639   -686.31789    -3468.007    -731.9079    2140.9612   -76.650474    688.78742    636.25604    80.133449 
   99600    125.82435   -112.56841   0.11384852   -112.45456   -488.18973    4.3096815    4.3096815    4.3096815   -488.18973   -2214.7134    58.965515    691.17874    5.9185224   -1279.3959    1966.8995    80.045241 
   99700    85.548347    -112.5324  0.077405943     -112.455    372.69373    4.3110954    4.3110954    4.3110954    372.69373   -1773.2321    1070.4081    1820.9052     2027.083    1953.1746   -225.34212     80.12405 
   99800    65.688086   -112.51449   0.05943596   -112.45506    3233.4636    4.3098772    4.3098772    4.3098772    3233.4636   -4129.1364    7559.7463    6269.7809    251.80826    677.33571   -1351.3517    80.056147 
   99900    125.67859   -112.56838   0.11371663   -112.45466   -163.38519    4.3097884    4.3097884    4.3097884   -163.38519   -1741.4099     326.7607    924.49364    892.01622    13.899759   -613.54211    80.051199 
  100000    75.555072   -112.52352  0.068363817   -112.45516    551.66615    4.3114155    4.3114155    4.3114155    551.66615   -3702.8468   -57.885596    5415.7309    480.80213    1055.6085    720.21571    80.141903 
Loop time of 22.5014 on 1 procs for 100000 steps with 8 atoms

Pair  time (%) = 7.11749 (31.6313)
Kspce time (%) = 5.49945 (24.4404)
Neigh time (%) = 0 (0)
Comm  time (%) = 1.1003 (4.88992)
Outpt time (%) = 0.0266309 (0.118352)
Other time (%) = 8.75756 (38.92)

Nlocal:    8 ave 8 max 8 min
Histogram: 1 0 0 0 0 0 0 0 0 0
Nghost:    2189 ave 2189 max 2189 min
Histogram: 1 0 0 0 0 0 0 0 0 0
Neighs:    2344 ave 2344 max 2344 min
Histogram: 1 0 0 0 0 0 0 0 0 0

Total # of neighbors = 2344
Ave neighs/atom = 293
Neighbor list builds = 0
Dangerous builds = 0
unfix 20
unfix 21
print "seeds:7362521"
seeds:7362521
