LAMMPS (10 Feb 2015)
# ---- initialize simulations
clear
units metal
dimension 3
boundary p p p
atom_style charge
atom_modify map array
# ---- create atoms
read_data /Users/eugeneragasa/pyflamestk_git/pypospack/tests/tests_integration/workflow/WorkflowLammpsThermalExpansion/param_5378/MgO_NaCl_unit.npt.T1600/lammps.structure
  triclinic box = (0 0 0) to (4.2565 4.2565 4.2565) with tilt (0 0 0)
  1 by 1 by 1 MPI processor grid
  reading atoms ...
  8 atoms
# ---- define interatomic potential
include potential.mod
mass 1 24.305
mass 2 15.999

group Mg type 1
4 atoms in group Mg
group O type 2
4 atoms in group O

set group Mg charge 1.67557694923
  4 settings made for charge
set group O charge -1.67557694923
  4 settings made for charge

variable R_cut equal 10.0

pair_style buck/coul/long ${R_cut}
pair_style buck/coul/long 10
pair_coeff 1 1 0.0 0.5 0.0 ${R_cut}
pair_coeff 1 1 0.0 0.5 0.0 10
pair_coeff 1 2 1405.50211521 0.282257384366 0.0 ${R_cut}
pair_coeff 1 2 1405.50211521 0.282257384366 0.0 10
pair_coeff 2 2 19860.1058829 0.143671361936 6.84969713079 ${R_cut}
pair_coeff 2 2 19860.1058829 0.143671361936 6.84969713079 10

kspace_style pppm 1.0e-5

neighbor 1.0 bin
neigh_modify every 1 delay 0 check yes
# ---- define settings
compute eng all pe/atom
compute eatoms all reduce sum c_eng
# ---- run minimization
reset_timestep 0
fix 1 all box/relax iso 0.0 vmax 0.001
thermo 10
thermo_style custom step pe lx ly lz xy xz yz press pxx pyy pzz pxy pxz pyz c_eatoms
min_style cg
minimize 1e-25 1e-25 5000 10000
PPPM initialization ...
  G vector (1/distance) = 0.352969
  grid = 8 8 8
  stencil order = 5
  estimated absolute RMS force accuracy = 4.01483e-05
  estimated relative force accuracy = 2.78815e-06
  using double precision FFTs
  3d grid and FFT values/proc = 3375 512
Neighbor list info ...
  1 neighbor list requests
  update every 1 steps, delay 0 steps, check yes
  master list distance cutoff = 11
Memory usage per processor = 4.06549 Mbytes
Step PotEng Lx Ly Lz Xy Xz Yz Press Pxx Pyy Pzz Pxy Pxz Pyz eatoms 
       0   -115.02334       4.2565       4.2565       4.2565            0            0            0    14836.064    14836.064    14836.064    14836.064 5.7083842e-11 -5.8546636e-11 3.613515e-11   -115.02334 
       4   -115.02629     4.268627     4.268627     4.268627            0            0            0   -3.7663252   -3.7663252   -3.7663252   -3.7663252 5.5364648e-11 -5.1262271e-11 1.3911233e-11   -115.02629 
Loop time of 0.00724411 on 1 procs for 4 steps with 8 atoms

Minimization stats:
  Stopping criterion = linesearch alpha is zero
  Energy initial, next-to-last, final = 
        -115.023341276       -115.0262927       -115.0262927
  Force two-norm initial, final = 2.14234 0.00179672
  Force max component initial, final = 2.14234 0.000546963
  Final line search alpha, max atom move = 0.00390625 2.13657e-06
  Iterations, force evaluations = 4 21

Pair  time (%) = 0.00194955 (26.9122)
Kspce time (%) = 0.00122643 (16.93)
Neigh time (%) = 0 (0)
Comm  time (%) = 0.000217199 (2.99829)
Outpt time (%) = 0 (0)
Other time (%) = 0.00385094 (53.1596)

Nlocal:    8 ave 8 max 8 min
Histogram: 1 0 0 0 0 0 0 0 0 0
Nghost:    2189 ave 2189 max 2189 min
Histogram: 1 0 0 0 0 0 0 0 0 0
Neighs:    2344 ave 2344 max 2344 min
Histogram: 1 0 0 0 0 0 0 0 0 0

Total # of neighbors = 2344
Ave neighs/atom = 293
Neighbor list builds = 0
Dangerous builds = 0
unfix 1
# ---- define output variables ----
variable natoms equal "count(all)"
variable tot_energy equal "c_eatoms"
variable length_x equal "lx"
variable length_y equal "ly"
variable length_z equal "lz"
variable tilt_xy equal "xy"
variable tilt_xz equal "xz"
variable tilt_yz equal "yz"
variable tot_press equal "press"
variable press_xx equal "pxx"
variable press_yy equal "pyy"
variable press_zz equal "pzz"
variable press_xy equal "pxy"
variable press_xz equal "pxz"
variable press_yz equal "pyz"

# ---- output ----
print "pypospack:output_section:begin"
pypospack:output_section:begin
print "tot_energy = ${tot_energy}"
tot_energy = -115.026292700229
print "num_atoms = ${natoms}"
num_atoms = 8
print "xx = ${length_x}"
xx = 4.26862697136346
print "yy = ${length_y}"
yy = 4.26862697136346
print "zz = ${length_z}"
zz = 4.26862697136346
print "xy = ${tilt_xy}"
xy = 0
print "xz = ${tilt_xz}"
xz = 0
print "yz = ${tilt_yz}"
yz = 0
print "tot_press = ${tot_press}"
tot_press = -3.7663252179344
print "pxx = ${press_xx}"
pxx = -3.76632521787482
print "pyy = ${press_yy}"
pyy = -3.76632521789834
print "pzz = ${press_zz}"
pzz = -3.76632521803003
print "pxy = ${press_xy}"
pxy = 5.53646482695888e-11
print "pxz = ${press_xz}"
pxz = -5.12622707696674e-11
print "pyz = ${press_yz}"
pyz = 1.39112332535826e-11
print "pypospack:output_section:done"
pypospack:output_section:done
print "pypospack:lammps_sim:done"
pypospack:lammps_sim:done
#------------------------------------------------------------------------------
# RUN THERMOSTAT
# running using an NPT Nose-Hoover style thermostat
#------------------------------------------------------------------------------
variable tempdamp equal 0.1
variable pressdamp equal 1.0
# set initial velocities
velocity all create 1600 3185779 mom yes dist gaussian loop all
# fix for Nose-Hoover style thermostat
fix 20 all npt temp 1600 1600 0.1 aniso 0.0 0.0 1.0 drag 1.0 couple xyz
variable boxx equal lx
variable boxy equal ly
variable boxz equal lz
variable boxp equal press
variable boxt equal temp
# calculate averages every 10000 steps
reset_timestep 0
fix 21 all ave/time 10 10 100 v_boxx v_boxy v_boxz v_boxp v_boxt file lattice.out
thermo_style custom step temp pe ke etotal press lx ly lz press pxx pyy pzz pxy pxz pyz vol
thermo_modify flush yes
thermo 100
run 100000
PPPM initialization ...
  G vector (1/distance) = 0.352845
  grid = 8 8 8
  stencil order = 5
  estimated absolute RMS force accuracy = 4.03767e-05
  estimated relative force accuracy = 2.80401e-06
  using double precision FFTs
  3d grid and FFT values/proc = 3375 512
Memory usage per processor = 3.06549 Mbytes
Step Temp PotEng KinEng TotEng Press Lx Ly Lz Press Pxx Pyy Pzz Pxy Pxz Pyz Volume 
       0         1600    -115.0263    1.4477136   -113.57858    19876.723     4.268627     4.268627     4.268627    19876.723    21035.516    18910.929    19683.725   -311.28241     11752.79   -2207.6436    77.779404 
     100    1069.4401   -114.35034   0.96765188   -113.38269        20634    4.2941474    4.2941474    4.2941474        20634    26039.913    10345.491    25516.596    2894.2255    -1463.322    3954.0343    79.182799 
     200    1180.5612   -114.06491    1.0681966   -112.99671   -19613.489    4.3302565    4.3302565    4.3302565   -19613.489    -32858.62   -22056.385   -3925.4608   -1280.3021   -13970.273    1312.7407    81.197167 
     300    1549.3022   -114.04025    1.4018412   -112.63841    5703.6918    4.3283897    4.3283897    4.3283897    5703.6918    -23358.45    9012.2093    31457.316   -13731.093   -11805.724   -2975.7673    81.092194 
     400    1378.6743     -113.615    1.2474535   -112.36754    30997.456    4.3101615    4.3101615    4.3101615    30997.456   -4763.0901    77761.205    19994.253   -1742.7738    -2499.694   -15369.114    80.071993 
     500    1052.2123   -113.15619    0.9520638   -112.20413    2774.9614    4.3159395    4.3159395    4.3159395    2774.9614   -49554.493    7977.3179     49902.06    14542.168   -624.84016    10279.161    80.394445 
     600    983.41623   -113.00655   0.88981567   -112.11674   -9222.4289    4.3370045    4.3370045    4.3370045   -9222.4289   -43918.062   -825.39463     17076.17    1077.1816   -3843.2119    4935.5845    81.577355 
     700    1658.6737   -113.55826    1.5008029   -112.05746   -17404.049    4.3396678    4.3396678    4.3396678   -17404.049   -26140.497    13028.632   -39100.282   -2694.0801    7992.6023   -12258.422    81.727734 
     800    1457.1286   -113.36648    1.3184405   -112.04804   -8062.8769    4.3238171    4.3238171    4.3238171   -8062.8769   -28947.934    6109.4875   -1350.1845    4257.2487    5854.8175    15649.141    80.835466 
     900       1397.9   -113.33702    1.2648493   -112.07217    11194.686    4.3173739    4.3173739    4.3173739    11194.686    2887.6247    24913.479     5782.955   -7164.7987    4925.7568    4471.7142    80.474631 
    1000    1860.2759   -113.77074    1.6832167   -112.08752    14004.624     4.328749     4.328749     4.328749    14004.624    24764.433    28556.528   -11307.089   -2985.4135     1678.302   -8901.0528    81.112391 
    1100    2142.8204   -114.02551    1.9388689   -112.08664    2605.9857    4.3280639    4.3280639    4.3280639    2605.9857    3532.4836   -6928.7841    11214.258    5336.4292    6216.8312   -3705.1176    81.073889 
    1200    1740.8698   -113.66359    1.5751756   -112.08842    3099.9173    4.3201393    4.3201393    4.3201393    3099.9173   -3992.3819    -8624.488    21916.622    -7641.725    4843.2966     9542.845     80.62937 
    1300    1151.6824   -113.13904    1.0420664   -112.09697    16197.907    4.3323268    4.3323268    4.3323268    16197.907    30627.162     -43917.7     61884.26    -9851.575   -14066.694    2028.1644    81.313684 
    1400    2207.8285   -114.07569    1.9976896     -112.078   -9544.0507     4.333065     4.333065     4.333065   -9544.0507   -23325.587    -10583.23    5276.6649   -5579.3353   -10951.894    -17860.81    81.355256 
    1500    1529.7323   -113.46953    1.3841339   -112.08539    12277.734    4.3168267    4.3168267    4.3168267    12277.734     23124.67   -29765.682    43474.213    15107.838   -240.36104   -3664.5986    80.444032 
    1600    1035.1632   -113.04039   0.93663741   -112.10375   -30610.557    4.3130202    4.3130202    4.3130202   -30610.557   -47112.129   -35608.077   -9111.4638   -5317.2289    14604.404    8731.6932    80.231417 
    1700    1748.4505   -113.68985    1.5820347   -112.10782   -5363.4932    4.3162951    4.3162951    4.3162951   -5363.4932   -44287.348   -9764.5773    37961.446   -8864.2333   -8045.0323    5736.9068    80.414317 
    1800    1653.2924   -113.59587    1.4959337   -112.09994   -8970.4278    4.3391347    4.3391347    4.3391347   -8970.4278   -10154.373    -4075.909   -12681.002   -7000.9046    7506.3951      511.724     81.69762 
    1900    1312.7471   -113.28902    1.1878011   -112.10122   -46138.791    4.3275159    4.3275159    4.3275159   -46138.791   -61456.149   -26248.492   -50711.732   -9738.0206    7692.9142    11514.107    81.043097 
    2000    1249.7657   -113.21173    1.1308142   -112.08092    32225.674     4.287251     4.287251     4.287251    32225.674   -15654.526    62273.514    50058.035    4297.2027    15920.363   -15755.332    78.801907 
    2100    1968.7303   -113.89828    1.7813486   -112.11693     21114.41    4.3068789    4.3068789    4.3068789     21114.41    28661.021    22495.719     12186.49   -3561.2809   -10862.306    4527.1052    79.889182 
    2200    2089.6414   -113.98836    1.8907515   -112.09761   -18291.982     4.332013     4.332013     4.332013   -18291.982   -9488.8573   -7474.7637   -37912.324    12182.593   -12591.183    8376.0641    81.296013 
    2300    1355.2505   -113.31378    1.2262591   -112.08752    30772.054    4.3156406    4.3156406    4.3156406    30772.054    9450.3148    52945.663    29920.184   -286.70483    8812.9224   -8619.8608    80.377746 
    2400     1877.239   -113.78746    1.6985653   -112.08889   -15493.386    4.3159792    4.3159792    4.3159792   -15493.386   -5216.9462   -41621.558    358.34759    6733.1352    13195.813    -7501.917    80.396664 
    2500    2222.2759   -114.09945    2.0107619   -112.08869    7966.5716    4.3103736    4.3103736    4.3103736    7966.5716    35787.886     929.5163   -12817.687    4434.8245    12851.442   -8514.2482    80.083811 
    2600     2045.524    -113.9579    1.8508331   -112.10707    17805.486    4.3083522    4.3083522    4.3083522    17805.486    34412.218    9344.2483    9659.9917   -18896.888    8320.3786    13875.354    79.971194 
    2700    1195.5411   -113.20641    1.0817507   -112.12465   -16632.282    4.3226298    4.3226298    4.3226298   -16632.282    -30039.88   -28385.008    8528.0403    15497.222    2976.1451    8342.0022     80.76889 
    2800    1593.4534   -113.54286    1.4417901   -112.10107   -26170.525    4.3193979    4.3193979    4.3193979   -26170.525   -50541.738   -10460.728    -17509.11     11774.22   -15315.853   -3853.9833    80.587861 
    2900    1498.9912   -113.44588    1.3563187   -112.08956    11860.614    4.3156628    4.3156628    4.3156628    11860.614   -29835.822    90073.236   -24655.574    3702.1017     2721.785    8630.2258    80.378983 
    3000    1288.4395   -113.25901    1.1658071    -112.0932   -463.28552    4.3160098    4.3160098    4.3160098   -463.28552   -62804.575    40498.516    20916.203    8985.7372    10005.303    24.279886    80.398373 
    3100    775.95388   -112.80464   0.70209938   -112.10254    7679.4404    4.3183254    4.3183254    4.3183254    7679.4404   -36242.135    45774.455    13506.001    13956.427   -1449.6884   -10897.597    80.527846 
    3200    1304.5938   -113.28204    1.1804239   -112.10162   -33607.862    4.3301408    4.3301408    4.3301408   -33607.862   -70193.275    12891.035   -43521.347    -14457.51    2426.1074    11549.252    81.190656 
    3300    1678.2031   -113.60711    1.5184735   -112.08863    6836.4592     4.319161     4.319161     4.319161    6836.4592   -29389.211    75682.168    -25783.58    2132.0221   -6058.3343   -8032.2281    80.574602 
    3400    1547.4138   -113.48649    1.4001326   -112.08636    20164.396    4.3195011    4.3195011    4.3195011    20164.396    34362.157    34275.082   -8144.0518    9285.1707   -9436.4681   -697.69245    80.593639 
    3500     1733.106   -113.66042    1.5681507   -112.09227   -17380.213    4.3238818    4.3238818    4.3238818   -17380.213   -9080.8986     2001.311   -45061.053    2113.6268    11228.135    15753.696    80.839093 
    3600    2067.2167   -113.96766    1.8704611    -112.0972    15578.456    4.3148004    4.3148004    4.3148004    15578.456     75064.51     14560.86   -42890.003   -6380.4582    10611.519    6669.2011    80.330809 
    3700    2296.4423   -114.17591    2.0778692   -112.09804    3055.4949    4.3215547    4.3215547    4.3215547    3055.4949    11194.053     6759.933   -8787.5008    3997.2537    5014.2066   -753.73499    80.708641 
    3800    2305.4592   -114.18173    2.0860279   -112.09571   -9340.3041    4.3132054    4.3132054    4.3132054   -9340.3041   -7912.1623    9391.6224   -29500.372    3417.7562     -3741.31    2641.5334    80.241757 
    3900    1117.9147   -113.12025    1.0115127   -112.10874    32696.483      4.30906      4.30906      4.30906    32696.483    55137.752    57464.766   -14513.068   -14607.885   -2168.5917    3282.4486    80.010617 
    4000    1580.9784   -113.53515    1.4305025   -112.10464   -28965.028    4.3262785    4.3262785    4.3262785   -28965.028   -14274.245   -23810.812   -48810.028   -6714.1808    4666.4756   -2018.0519    80.973596 
    4100    1817.8498   -113.73536    1.6448287   -112.09053   -5961.8568    4.3168221    4.3168221    4.3168221   -5961.8568   -55321.284    38038.854   -603.14006     13858.17    3707.4396    1227.9361    80.443778 
    4200     1056.273   -113.06232   0.95573797   -112.10658    10275.332    4.3121862    4.3121862    4.3121862    10275.332    55265.605    9369.5614    -33809.17    4101.3043   -341.09409     212.4377    80.184886 
    4300    718.62364    -112.7731   0.65022577   -112.12288   -19970.759    4.3192376    4.3192376    4.3192376   -19970.759   -41422.331   -6727.5833   -11762.363   -6311.8751   -2043.6768   -17898.299    80.578888 
    4400    1117.1368   -113.12038    1.0108088   -112.10957    6547.4841    4.3232313    4.3232313    4.3232313    6547.4841   -41661.573    65712.943   -4408.9174    11394.563   -2416.1132   -1746.9555    80.802615 
    4500    1324.1872   -113.28997    1.1981524   -112.09181    4848.8579    4.3344467    4.3344467    4.3344467    4848.8579   -15382.925     66781.39   -36851.892    8000.7946    5610.8871   -5178.0368    81.433105 
    4600    1426.1076   -113.37113    1.2903721   -112.08076   -8939.2305    4.3262725    4.3262725    4.3262725   -8939.2305   -16399.142    32415.301   -42833.851   -2802.1721    1996.9266   -2127.6299    80.973257 
    4700    1629.8833   -113.55551    1.4747526   -112.08075   -8094.4496    4.3164957    4.3164957    4.3164957   -8094.4496    15373.484   -20945.394   -18711.439     -17173.7   -9382.8709   -10722.072    80.425533 
    4800    2044.7354   -113.94541    1.8501196   -112.09529    1522.4485    4.3285229    4.3285229    4.3285229    1522.4485   -23025.465    39041.944   -11449.134   -9068.6274   -10145.653   -3278.4471    81.099683 
    4900    2412.2502   -114.26372    2.1826546   -112.08106   -23515.671    4.3382759    4.3382759    4.3382759   -23515.671    -7196.619   -4519.9251   -58830.468   -8187.7091   -195.98513   -4650.2996    81.649119 
    5000    1710.6731   -113.63397     1.547853   -112.08612   -4552.7679     4.321065     4.321065     4.321065   -4552.7679   -10435.894    37220.026   -40442.436   -7968.5716   -4809.6914   -5803.4767    80.681207 
    5100    1569.2575   -113.51809    1.4198971   -112.09819     3015.586    4.3067031    4.3067031    4.3067031     3015.586    33556.049   -25353.207    843.91523    12178.289    2464.3306   -805.52284    79.879401 
    5200    1690.0683   -113.64559    1.5292093   -112.11639    16948.105    4.3127427    4.3127427    4.3127427    16948.105     70430.46    -6453.734   -13132.411   -440.02522    9053.9566    5786.4572    80.215932 
    5300    2093.0787   -114.01046    1.8938616    -112.1166   -16791.033    4.3300799    4.3300799    4.3300799   -16791.033   -2638.6318    2602.2203   -50336.687   -20472.544    8269.8947   -2914.5947    81.187229 
    5400    1428.8442   -113.39924    1.2928483   -112.10639   -30409.269    4.3397772    4.3397772    4.3397772   -30409.269   -38548.867   -9220.8012   -43458.139   -1309.7345    5662.5037   -2662.2433    81.733917 
    5500    1801.1357   -113.71964    1.6297054   -112.08994   -13456.431    4.3214954    4.3214954    4.3214954   -13456.431   -12706.483    1744.2235   -29407.032    9321.1331    6799.9934    2095.8115    80.705322 
    5600    1884.7872   -113.79263     1.705395   -112.08724        31680     4.298779     4.298779     4.298779        31680    68758.617    43789.641   -17508.258    1950.9457     2546.964    8063.7608     79.43929 
    5700    1191.3173   -113.20738    1.0779289   -112.12945   -18142.941    4.3207804    4.3207804    4.3207804   -18142.941   -9044.0773   -20176.671   -25208.076    -6693.364   -4371.0602    -1085.802    80.665269 
    5800     1110.913   -113.11831    1.0051774   -112.11313   -49879.335    4.3375442    4.3375442    4.3375442   -49879.335    -36702.43   -92862.983   -20072.591    6357.6615    119.14581    1745.6184    81.607811 
    5900    1490.1806   -113.45241    1.3483468   -112.10406    827.21258    4.3189201    4.3189201    4.3189201    827.21258    47017.983   -14640.491   -29895.854   -3893.6795    -7209.562    6973.2768    80.561122 
    6000    1029.4759   -113.03896   0.93149143   -112.10747    22138.546    4.3117036    4.3117036    4.3117036    22138.546    85125.005   -1707.2877   -17002.079    13282.774   -4708.4187   -2117.7684    80.157966 
    6100    1088.0529   -113.10678   0.98449313   -112.12229   -54049.906    4.3265903    4.3265903    4.3265903   -54049.906   -57442.463   -94565.423   -10141.831   -1882.8091   -4637.0901   -3980.9131    80.991102 
    6200    1771.0121   -113.71529     1.602449   -112.11284   -5856.0394    4.3236011    4.3236011    4.3236011   -5856.0394    19902.806   -9117.0914   -28353.833    1131.3245   -3186.6624   -7871.7805    80.823352 
    6300    2092.2994   -113.99797    1.8931565   -112.10482    7754.0955     4.333011     4.333011     4.333011    7754.0955   -7484.1432    71507.713   -40761.284    13673.847   -3810.2783   -736.85606    81.352212 
    6400    1823.9213   -113.75158    1.6503223   -112.10126   -12055.892    4.3260797    4.3260797    4.3260797   -12055.892    28308.484   -30117.062   -34359.098   -21910.344   -5371.0921    3876.2771    80.962433 
    6500    1774.7238   -113.69534    1.6058073   -112.08954    18528.197    4.3001825    4.3001825    4.3001825    18528.197    15865.162    42792.641   -3073.2121    -8760.104    8438.8062    6393.0576    79.517122 
    6600    2029.6576   -113.95072    1.8364769   -112.11424    9165.6047    4.3195743    4.3195743    4.3195743    9165.6047    20680.376    26589.563   -19773.126    18022.845   -4783.8509   -5304.8955    80.597736 
    6700    1961.3013     -113.873    1.7746267   -112.09837   -26434.383     4.341982     4.341982     4.341982   -26434.383    9599.8668   -40152.703   -48750.312    4411.4578   -9045.5922   -5907.3546    81.858549 
    6800    1207.2722   -113.18078    1.0923653   -112.08841    78.831299     4.325467     4.325467     4.325467    78.831299    15208.355    20044.254   -35016.115   -13641.758   -2020.3197    3108.6601    80.928039 
    6900    936.85914    -112.9449   0.84768984   -112.09721   -9281.9022    4.3169981    4.3169981    4.3169981   -9281.9022    39714.269   -27999.479   -39560.497   -688.32075   -4697.9092     8252.486    80.453618 
    7000      1384.19   -113.35195    1.2524442   -112.09951    22177.983    4.3159548    4.3159548    4.3159548    22177.983    50791.049    39536.407   -23793.508   -6317.9566   -1908.7316   -3369.3044    80.395301 
    7100    1656.5968   -113.59681    1.4989236   -112.09789    812.02872    4.3265425    4.3265425    4.3265425    812.02872     3047.102    24941.305   -25552.321   -22018.271    441.03848    3832.3288    80.988419 
    7200    1036.6315   -113.04356     0.937966   -112.10559   -52173.143    4.3352009    4.3352009    4.3352009   -52173.143   -35697.324   -70288.704     -50533.4    27001.614    676.99155    8764.6177    81.475623 
    7300    1127.6206   -113.12452    1.0202948   -112.10423    22863.118    4.3078345    4.3078345    4.3078345    22863.118    95481.388    4297.4147   -31189.449     10265.15   -5560.4985   -5820.1202    79.942375 
    7400    1843.9008   -113.79492    1.6684002   -112.12652    21924.679    4.3107311    4.3107311    4.3107311    21924.679   -16790.074    100079.88   -17515.773   -11312.999    3165.2649   -6377.9796    80.103738 
    7500    2164.9172   -114.08725    1.9588626   -112.12839   -9936.3188    4.3284162    4.3284162    4.3284162   -9936.3188   -16202.763    26471.063   -40077.257   -5773.7116   -4292.7975   -283.57197    81.093688 
    7600    1499.1315   -113.48992    1.3564457   -112.13348    11351.663    4.3321077    4.3321077    4.3321077    11351.663    47840.418    21730.949   -35516.377    -2386.551   -7545.5588   -9394.3026    81.301348 
    7700    1415.0801   -113.41024    1.2803942   -112.12984   -7144.6454    4.3343778    4.3343778    4.3343778   -7144.6454     19629.09    -22335.68   -18727.346   -3072.0814    9215.7219   -8016.6802    81.429225 
    7800     2424.191   -114.29554    2.1934589   -112.10208   -3310.4041    4.3173939    4.3173939    4.3173939   -3310.4041    12402.111    3654.7363    -25988.06    14496.005    2969.1294    4962.8283    80.475748 
    7900    2025.4566   -113.94391    1.8326757   -112.11123   -12925.751    4.3174172    4.3174172    4.3174172   -12925.751   -6357.4136    -16772.81   -15647.031   -7838.7295   -3289.4864    -8543.506    80.477049 
    8000    1238.0973   -113.23255    1.1202565   -112.11229   -24043.367    4.3278418    4.3278418    4.3278418   -24043.367    1595.5463   -72195.716   -1529.9313    19358.195   -192.96714   -7958.4395    81.061404 
    8100    1770.1101   -113.69238    1.6016328   -112.09075   -8404.0106    4.3186858    4.3186858    4.3186858   -8404.0106    2203.6896   -12281.366   -15134.355   -6179.5329   -1314.6333   -9295.9063    80.548013 
    8200    1432.8589   -113.38927    1.2964808   -112.09279    28298.445    4.3165765    4.3165765    4.3165765    28298.445    79434.435    30021.626   -24560.725    7840.8787   -1988.4786   -12723.055    80.430045 
    8300    1291.0562   -113.27069    1.1681748   -112.10251    1736.2236    4.3196847    4.3196847    4.3196847    1736.2236   -9066.8033    21464.987   -7189.5131   -1580.6064   -11620.974   -9994.2698    80.603918 
    8400    911.40544   -112.93307    0.8246588   -112.10841    15738.496    4.3261359    4.3261359    4.3261359    15738.496    31842.129    19466.147   -4092.7869    9593.9781   -4406.7288   -5363.5411    80.965586 
    8500    1714.6446   -113.63623    1.5514465   -112.08478   -14061.403    4.3341156    4.3341156    4.3341156   -14061.403   -42181.037    21711.837   -21715.007   -6618.7364   -7113.3412    -9941.265    81.414447 
    8600    1573.7162   -113.49735    1.4239314   -112.07342   -15413.943    4.3240906    4.3240906    4.3240906   -15413.943   -28925.531    15850.295   -33166.595   -10389.224   -2188.8274   -14189.776    80.850805 
    8700    1199.7609   -113.16586    1.0855689   -112.08029   -8955.1379    4.3139638    4.3139638    4.3139638   -8955.1379    21847.721   -26267.763   -22445.372    9987.5708    4570.4565   -496.31896    80.284088 
    8800    1571.8945   -113.52037    1.4222832   -112.09809    142.50028    4.3195172    4.3195172    4.3195172    142.50028    5331.8347    24224.202   -29128.536    1492.8475   -701.94029   -4031.6662    80.594543 
    8900    1956.5037   -113.87464    1.7702856   -112.10436   -12221.678    4.3339355    4.3339355    4.3339355   -12221.678   -30260.964    26194.615   -32598.686   -4384.6128    -3424.354   -12195.781    81.404298 
    9000    1479.2957   -113.44015    1.3384978   -112.10166    23694.245    4.3195189    4.3195189    4.3195189    23694.245    8120.4152     57801.55    5160.7682    9077.1135    -6985.724   -4404.5893    80.594633 
    9100    1614.5177   -113.55765    1.4608496    -112.0968    17138.915    4.3069596    4.3069596    4.3069596    17138.915    14133.808    19832.227    17450.709    11703.902    7883.8947    -2735.956    79.893672 
    9200    1991.4634   -113.90282    1.8019179    -112.1009   -16166.361    4.3169735    4.3169735    4.3169735   -16166.361   -16277.476   -14146.667   -18074.938   -9694.5473    17504.378   -567.20368    80.452244 
    9300    1850.3224   -113.77267    1.6742106   -112.09846    4617.0561    4.3209342    4.3209342    4.3209342    4617.0561    38886.525    -27865.06    2829.7027    9330.3176    1635.5073   -1908.0641    80.673885 
    9400    1951.1712   -113.86405    1.7654607   -112.09859   -25629.121     4.317378     4.317378     4.317378   -25629.121   -12141.792   -46015.875   -18729.695    26537.258   -9137.4126   -1013.0891    80.474858 
    9500    1350.5941    -113.3209    1.2220459   -112.09886    7643.5317    4.3033475    4.3033475    4.3033475    7643.5317    76804.332   -29332.362   -24541.375   -13462.644   -10402.599    6804.9626    79.692833 
    9600    1440.4044   -113.41389    1.3033082   -112.11058   -2961.0834    4.3071449    4.3071449    4.3071449   -2961.0834   -6311.6697    43080.702   -45652.283    8711.2389    3448.3517    9080.2591    79.903987 
    9700    1267.3937   -113.25876    1.1467645     -112.112    12544.072    4.3185259    4.3185259    4.3185259    12544.072    4587.5933    32940.324    104.29835    7204.5412   -747.35545    2190.8512    80.539064 
    9800    1581.8165   -113.53125    1.4312608   -112.09999    7823.6556     4.320925     4.320925     4.320925    7823.6556    13872.197    34652.307   -25053.537   -2670.6696   -5718.3561    5203.2742    80.673367 
    9900    1329.0607   -113.29841     1.202562   -112.09585   -13723.897    4.3207582    4.3207582    4.3207582   -13723.897   -12145.901    47955.324   -76981.115     -5484.21   -10709.912   -3210.0068    80.664026 
   10000    1609.8711   -113.54656    1.4566452   -112.08992   -17340.246    4.3102659    4.3102659    4.3102659   -17340.246   -36037.267    31759.712   -47743.184    5513.7206    -1268.358   -7733.8123    80.077811 
   10100    2233.7588   -114.11708    2.0211519   -112.09592    4845.9472    4.3143089    4.3143089    4.3143089    4845.9472   -14889.812    16856.263     12571.39    19014.929    5688.2614    5866.5037    80.303356 
   10200    2211.1253   -114.09264    2.0006726   -112.09197   -24075.402    4.3349289    4.3349289    4.3349289   -24075.402   -47643.961    8133.7547   -32716.001   -1862.3199   -9581.3004    1430.3167    81.460289 
   10300    1794.8622   -113.71309     1.624029   -112.08906    4421.0246    4.3193513    4.3193513    4.3193513    4421.0246   -14220.011    45524.844   -18041.759    1066.1234   -4842.3332   -8056.3365    80.585255 
   10400    2083.1579   -113.96516    1.8848851   -112.08028    18472.366    4.3017125    4.3017125    4.3017125    18472.366   -17539.951    35686.133    37270.917    14127.959    13585.211    -7099.727    79.602033 
   10500     1798.345   -113.72691    1.6271804   -112.09973    5138.4785    4.3120703    4.3120703    4.3120703    5138.4785   -32056.391     37369.45    10102.377    2147.7462   -20332.773    4629.5096    80.178419 
   10600    1887.1039   -113.80657    1.7074913   -112.09908   -13201.201    4.3209933    4.3209933    4.3209933   -13201.201   -30148.115   -56.255193    -9399.232   -3816.0717    -19918.75    22202.746    80.677191 
   10700    1520.4263   -113.47218    1.3757137   -112.09647   -5567.6366    4.3278054    4.3278054    4.3278054   -5567.6366   -14623.387   -50379.411    48299.888    16500.025    11018.501    13039.323     81.05936 
   10800    1319.8214   -113.29216    1.1942022   -112.09795   -27895.905    4.3146218    4.3146218    4.3146218   -27895.905   -36205.881   -37981.895   -9499.9389   -3239.9539   -28543.449    1055.6796    80.320832 
   10900    1316.5283   -113.28712    1.1912225    -112.0959    15472.069    4.2933675    4.2933675    4.2933675    15472.069   -4747.2183    43524.306    7639.1193     -21710.8   -23856.187   -10509.822    79.139664 
   11000     1693.405   -113.64157    1.5322284   -112.10935    10092.124     4.310412     4.310412     4.310412    10092.124    11867.627    -6753.332    25162.078    12814.136    3971.0954    582.20885    80.085951 
   11100    1237.4671   -113.22583    1.1196862   -112.10615   -16920.312    4.3222656    4.3222656    4.3222656   -16920.312   -37995.636   -40947.072    28181.772    1917.1585   -9721.4804    5136.8387     80.74848 
   11200    475.60666   -112.54034    0.4303389      -112.11   -9092.8231    4.3207365    4.3207365    4.3207365   -9092.8231   -24581.324    49701.293   -52398.438   -18499.312   -27777.914    3568.7716    80.662812 
   11300    1555.5611   -113.50229    1.4075044   -112.09479   -5237.5467     4.315323     4.315323     4.315323   -5237.5467    9346.6562    7555.5075   -32614.804    -2419.017    12185.127   -1582.4947        80.36 
   11400    1227.4296   -113.20844    1.1106041   -112.09784    20744.499     4.301534     4.301534     4.301534    20744.499    27475.286    5217.3002    29540.911    2987.1005   -9136.5511   -497.30841    79.592119 
   11500     538.8545   -112.60871   0.48756688   -112.12114   -4498.9932    4.3038605    4.3038605    4.3038605   -4498.9932    3218.7934    48947.075   -65662.848   -18388.844   -35696.457    3111.6823    79.721335 
   11600    1293.7447   -113.28944    1.1706074   -112.11883   -11920.943    4.3218042    4.3218042    4.3218042   -11920.943   -4706.9879   -14197.209   -16858.632   -5062.0943    1608.2865   -9716.6188    80.722622 
   11700       1732.4   -113.66816     1.567512   -112.10065   -7800.3642    4.3251014    4.3251014    4.3251014   -7800.3642   -22473.189   -1530.5342    602.63054    3892.8694    3580.9459   -1989.6835    80.907521 
   11800    1366.7889    -113.3304    1.2366993    -112.0937      7020.08     4.306085     4.306085     4.306085      7020.08    12853.912    18041.824   -9835.4964   -12988.025   -37309.265    2575.7958    79.845012 
   11900    1673.0306   -113.61086    1.5137933   -112.09707    6317.6661    4.3033545    4.3033545    4.3033545    6317.6661   -4810.0511    25132.006   -1368.9565   -11646.735    10726.166    3420.7678    79.693219 
   12000    1827.1859   -113.75166    1.6532762   -112.09839   -4134.5171    4.3215101    4.3215101    4.3215101   -4134.5171   -32771.277    8691.0774    11676.649   -3353.2008    26177.902   -6234.1327    80.706142 
   12100    1712.3076   -113.63447    1.5493319   -112.08514    5619.8582    4.3255434    4.3255434    4.3255434    5619.8582   -5977.4163     17679.67     5157.321   -6637.8601   -18475.093    9670.5708    80.932326 
   12200    1744.7586   -113.64916    1.5786943   -112.07047    14771.993    4.3182535    4.3182535    4.3182535    14771.993    4379.4453    30214.243     9722.291   -13512.253   -1563.3166    -2671.189    80.523829 
   12300    1774.7291   -113.67916    1.6058122   -112.07335   -5452.3355    4.3147356    4.3147356    4.3147356   -5452.3355   -29743.599    20948.444   -7561.8514    18969.602   -386.33593   -65.482116    80.327187 
   12400    1661.1138   -113.58731    1.5030107    -112.0843    11811.598    4.3120305    4.3120305    4.3120305    11811.598   -4875.6329    69867.883   -29557.456    15701.191   -12181.116     10812.84    80.176202 
   12500    2096.2864   -113.98398     1.896764   -112.08721    7490.3489    4.3086776    4.3086776    4.3086776    7490.3489    9136.8654    29788.656   -16454.475   -18895.188    11881.883   -3431.9277    79.989317 
   12600    1282.8354   -113.26324    1.1607365    -112.1025    1132.8853    4.3180714    4.3180714    4.3180714    1132.8853   -39280.344     72511.64    -29832.64    399.46118    12967.007   -2727.4896    80.513642 
   12700    1489.5493   -113.44252    1.3477755   -112.09474   -11247.379    4.3227053    4.3227053    4.3227053   -11247.379   -31860.959    650.06287   -2531.2419    22084.911   -9139.3401   -8465.2896    80.773125 
   12800    1712.2094   -113.62855     1.549243   -112.07931    18781.739    4.3071765    4.3071765    4.3071765    18781.739    11283.671    80120.176   -35058.629   -5401.0177    -3536.197    858.68617    79.905744 
   12900    1030.2218   -113.03456   0.93216632    -112.1024    -42751.55    4.3169817    4.3169817    4.3169817    -42751.55   -50053.132   -62429.894   -15771.623    6806.3272    13304.643   -2628.8544    80.452702 
   13000    1076.5743   -113.07019   0.97410706   -112.09608   -16424.994     4.314353     4.314353     4.314353   -16424.994   -15127.214   -47289.626    13141.857   -7600.7445   -10472.418    -9946.802    80.305822 
   13100    1549.8161   -113.48247    1.4023062   -112.08016    13601.012    4.3013197    4.3013197    4.3013197    13601.012    11597.096    21455.291    7750.6488   -3530.8126    3176.3567   -918.69656    79.580226 
   13200    1172.6715   -113.16272    1.0610578   -112.10166   -25807.342    4.3153778    4.3153778    4.3153778   -25807.342    -38867.55   -38090.098   -464.37961    5682.9372    1320.1183    9609.3701    80.363061 
   13300     1368.866   -113.32913    1.2385787   -112.09055   -5410.6379    4.3235463    4.3235463    4.3235463   -5410.6379   -25891.736   -17693.506    27353.329    9054.5452   -7434.3784   -10105.671    80.820276 
   13400    1995.7831   -113.88183    1.8058265     -112.076   -7720.3152    4.3245155    4.3245155    4.3245155   -7720.3152   -16552.663    11548.206   -18156.489    4857.7284     117.3356    2794.5705    80.874644 
   13500    1998.0672   -113.88176    1.8078932   -112.07387    74.549304    4.3168417    4.3168417    4.3168417    74.549304   -9575.5948    14510.209   -4710.9666    15272.048    5379.2562   -6512.5886    80.444874 
   13600    2064.6268   -113.94553    1.8681177   -112.07742    33311.054    4.3069784    4.3069784    4.3069784    33311.054    49067.933    38949.333    11915.897    25295.114    3126.0337   -5784.0484    79.894719 
   13700    2193.3682   -114.07287    1.9846056   -112.08826     21003.69    4.3172919    4.3172919    4.3172919     21003.69    53524.852    18393.994   -8907.7748    -3272.439   -7903.2113    27748.021    80.470044 
   13800    2101.4228   -113.98602    1.9014115    -112.0846    1984.6827    4.3247783    4.3247783    4.3247783    1984.6827    25326.929    -1163.239   -18209.642     4184.205   -3735.6861    11098.986    80.889385 
   13900    1757.8425    -113.6729    1.5905329   -112.08237      7040.93    4.3120986    4.3120986    4.3120986      7040.93   -20938.015    21556.688    20504.117    18206.602   -5786.3525   -4980.9313    80.179998 
   14000     2030.028   -113.91494     1.836812   -112.07813   -8809.9676    4.3054062    4.3054062    4.3054062   -8809.9676    17424.161   -41781.372   -2072.6919   -7336.9425     4331.422   -2348.1049    79.807258 
   14100    1674.8628   -113.60141     1.515451   -112.08596   -25688.974    4.3171396    4.3171396    4.3171396   -25688.974   -15619.822   -38858.189    -22588.91   -11588.065   -19635.223    5494.9551    80.461531 
   14200     1323.048   -113.28062    1.1971216    -112.0835   -11795.499    4.3183376    4.3183376    4.3183376   -11795.499   -38953.287   -880.76996    4447.5588    12129.435    5619.5593   -3470.5975    80.528529 
   14300    1385.2072    -113.3333    1.2533646   -112.07993   -20717.783    4.3125257    4.3125257    4.3125257   -20717.783    6103.0809   -68227.789   -28.639933   -2223.3012    17934.368      10763.2    80.203828 
   14400    1181.7509   -113.15204    1.0692731   -112.08277   -28117.609    4.3173525    4.3173525    4.3173525   -28117.609    2619.7231   -61492.318   -25480.233   -15602.911   -22133.699   -743.98282     80.47343 
   14500    1323.7976   -113.27541    1.1977999   -112.07761   -37198.538    4.3194378    4.3194378    4.3194378   -37198.538   -46965.522   -44326.747   -20303.346    11499.759    6308.2678   -8728.4372    80.590093 
   14600    1265.1955     -113.224    1.1447755   -112.07923   -9155.1007    4.3177713    4.3177713    4.3177713   -9155.1007    13227.154   -21039.376    -19653.08    4038.7751    18258.212    21374.735    80.496854 
   14700    1689.5952   -113.61146    1.5287813   -112.08268   -13067.367    4.3174326    4.3174326    4.3174326   -13067.367    449.93493   -5231.9635   -34420.074   -11669.425   -6971.7512    5042.5115    80.477914 
   14800    2224.6144   -114.09177    2.0128779    -112.0789    12661.197    4.3019471    4.3019471    4.3019471    12661.197    20882.627    24354.562   -7253.5996    2627.9578   -8534.5849   -19253.393    79.615054 
   14900    1952.8156   -113.86704    1.7669486   -112.10009    16595.033    4.3062207    4.3062207    4.3062207    16595.033    32502.572    20296.654   -3014.1261    8964.6052    9178.3279    7522.0011     79.85256 
   15000    1986.2796    -113.8909    1.7972275   -112.09367   -18217.794     4.327229     4.327229     4.327229   -18217.794   -44280.871    29.929586   -10402.441   -2668.7569     22057.84    13921.306    81.026976 
   15100    1906.7415    -113.8052    1.7252597   -112.07994    29103.926    4.3088927    4.3088927    4.3088927    29103.926    51596.087   -3618.6659    39334.358    -1315.797    -12358.97   -7532.0069      80.0013 
   15200    1707.9062   -113.62887    1.5453494   -112.08352    19027.572    4.3012304    4.3012304    4.3012304    19027.572    16746.722   -2399.8632    42735.857   -3649.7049   -7912.1328    3313.8332    79.575271 
   15300    1155.1264   -113.14233    1.0451827   -112.09715    -3034.985    4.3153734    4.3153734    4.3153734    -3034.985   -11064.902   -40671.157    42631.104   -1325.7469    7036.9283    15686.971    80.362815 
   15400    1329.1481   -113.29327    1.2026411   -112.09063   -7527.6651    4.3164137    4.3164137    4.3164137   -7527.6651    15235.142   -45533.672    7715.5344     6552.947     16271.92   -11193.604    80.420946 
   15500    1150.8175   -113.13332    1.0412839   -112.09204   -19876.879    4.3233164    4.3233164    4.3233164   -19876.879    43969.481   -85724.165   -17875.953   -1028.0783   -9750.7059    -8206.281    80.807386 
   15600    1612.5644   -113.53882    1.4590822   -112.07974   -11639.312    4.3172519    4.3172519    4.3172519   -11639.312    14937.697   -49317.675    -537.9568    7734.2538    10312.857     9587.241    80.467807 
   15700    1549.5001   -113.48097    1.4020202   -112.07895    29168.624    4.3077866    4.3077866    4.3077866    29168.624    50109.035    48011.569   -10614.733    9793.7588    21344.083    -15988.56    79.939704 
   15800    1661.5116   -113.59576    1.5033706   -112.09239   -2177.5494    4.3251587    4.3251587    4.3251587   -2177.5494    2253.1154   -28358.833     19573.07   -2877.5758    12725.031   -16739.479    80.910735 
   15900    1856.7726   -113.75505    1.6800469   -112.07501    8940.5184    4.3290712    4.3290712    4.3290712    8940.5184   -38498.713    2511.9994    62808.269   -6150.1574    9132.8774    16669.285    81.130505 
   16000    1450.1591   -113.38091    1.3121344   -112.06877    22150.411    4.3128689    4.3128689    4.3128689    22150.411   -10656.311    17164.012    59943.533   -2129.5882    19202.951   -13737.718    80.222978 
   16100    1239.7826   -113.20232    1.1217814   -112.08053   -16943.659    4.3199688    4.3199688    4.3199688   -16943.659   -14802.855   -47446.484    11418.361    13953.853    11751.571   -15141.529    80.619819 
   16200    1638.7455   -113.55758    1.4827714   -112.07481   -25070.122    4.3257554    4.3257554    4.3257554   -25070.122    13635.057   -71805.417   -17040.005    6900.3304   -8661.4268    24743.426    80.944228 
   16300    1309.2446   -113.25956     1.184632   -112.07493    5271.9725    4.3119271    4.3119271    4.3119271    5271.9725    23989.136   -20532.086    12358.868   -13054.351     4941.021     -17139.2    80.170435 
   16400    1117.8022   -113.09905    1.0114109   -112.08764    12798.186     4.314571     4.314571     4.314571    12798.186    18205.962   -15180.218    35368.813    3392.0649     174.6158   -23495.127    80.317993 
   16500    2263.1349   -114.12515     2.047732   -112.07741   -9094.0214    4.3165028    4.3165028    4.3165028   -9094.0214   -5093.6714   -43979.635    21791.242    1944.0292   -10585.136    19195.617    80.425929 
   16600    1827.2873    -113.7407     1.653368   -112.08733    5613.1368    4.3045928    4.3045928    4.3045928    5613.1368    40766.574   -33498.118     9570.955   -4029.2907   -1619.4065   -19899.708    79.762037 
   16700     1662.376   -113.61201    1.5041527   -112.10786   -24913.938    4.3066037    4.3066037    4.3066037   -24913.938   -5073.5548   -25565.207   -44103.052   -5197.1372    13062.725   -30437.646    79.873872 
   16800    2294.8841   -114.17032    2.0764593   -112.09386    5719.1325    4.3124075    4.3124075    4.3124075    5719.1325   -5830.5708    36046.101   -13058.132   -10177.816    19825.287    4623.8298    80.197233 
   16900    1797.7013    -113.7174    1.6265979   -112.09081   -20201.846    4.3259344    4.3259344    4.3259344   -20201.846   -17482.262   -36003.634   -7119.6417   -3938.2177   -8848.2701   -43947.869    80.954272 
   17000    1325.2103   -113.28625    1.1990781   -112.08717   -18801.775    4.3160702    4.3160702    4.3160702   -18801.775   -55329.179    4735.8745     -5812.02    10556.311    4372.4278   -25015.719    80.401747 
   17100    1728.6796   -113.63845    1.5641456    -112.0743    21199.343    4.2957166    4.2957166    4.2957166    21199.343   -51995.406    37103.747    78489.688    13359.134    2906.3787    17219.408    79.269639 
   17200    1297.9493   -113.27356    1.1744118   -112.09915   -9879.0681    4.3104121    4.3104121    4.3104121   -9879.0681   -3600.3617   -25636.115   -400.72776   -7757.4336   -3584.7044   -14271.188    80.085957 
   17300    1186.8594   -113.17192    1.0738953   -112.09803   -18140.213    4.3235666    4.3235666    4.3235666   -18140.213   -29579.168   -65186.232    40344.761   -6171.6777    5779.8652   -19336.711    80.821419 
   17400    1210.7016   -113.18079    1.0954682   -112.08532   -5310.5382    4.3222956    4.3222956    4.3222956   -5310.5382   -63015.161   -1167.7042    48251.251    7954.1845    1027.3107    382.81463     80.75016 
   17500    900.45928   -112.90353   0.81475448   -112.08878   -5339.9372     4.309919     4.309919     4.309919   -5339.9372   -22328.999   -22280.437    28589.625   -4371.2273    10041.265    1748.7861    80.058477 
   17600    1484.7017    -113.4353    1.3433893   -112.09191    1472.6332    4.2974538    4.2974538    4.2974538    1472.6332    34402.334   -48021.385     18036.95   -57.397319    9512.0922   -16450.637    79.365848 
   17700    1716.3043   -113.65448    1.5529482   -112.10153   -10619.594    4.3077596    4.3077596    4.3077596   -10619.594    4542.4731   -28763.912   -7637.3426    823.43249   -2099.2914    3321.3836    79.938202 
   17800    1470.7645   -113.43747    1.3307786   -112.10669   -7201.9974    4.3140194    4.3140194    4.3140194   -7201.9974    2716.5984   -16856.548   -7466.0428   -1586.8706   -19697.692     8502.519    80.287196 
   17900    1905.6479   -113.82113    1.7242702   -112.09686     23143.33     4.315786     4.315786     4.315786     23143.33    9992.2383    6334.3295    53103.422    2115.9442    3508.3943   -5837.1278    80.385869 
   18000    2349.1555   -114.21266    2.1255652   -112.08709    8884.0663    4.3139925    4.3139925    4.3139925    8884.0663   -609.30764    14931.805    12329.701    7672.6778    1483.5856   -8614.2662    80.285691 
   18100    1972.2612   -113.87452    1.7845434   -112.08998    15610.309    4.3027275    4.3027275    4.3027275    15610.309    1220.2672    12544.544    33066.114   -11498.928   -20004.222    10237.238    79.658392 
   18200     2036.955   -113.94431    1.8430797   -112.10123    14036.998    4.3040084    4.3040084    4.3040084    14036.998    6213.8886    32678.208    3218.8978   -16209.761    -1105.308    7283.5539    79.729553 
   18300     1765.125   -113.69991    1.5971222   -112.10279     9574.736    4.3210068    4.3210068    4.3210068     9574.736   -18445.789    6212.2304    40957.766    22165.247    11693.059   -9005.2283    80.677951 
   18400    1534.8456   -113.47607    1.3887605   -112.08731   -14960.846    4.3262695    4.3262695    4.3262695   -14960.846   -42360.696   -36591.858    34070.017    4353.7624   -2196.0586    15568.206    80.973087 
   18500    902.75624   -112.90288   0.81683282   -112.08605    18246.821    4.3064205    4.3064205    4.3064205    18246.821   -34980.447    23646.992    66073.917   -4771.4919    1333.7998    7301.4932     79.86368 
   18600    1084.5019   -113.06857   0.98128014   -112.08729    22752.513    4.2980833    4.2980833    4.2980833    22752.513   -21508.178   -5472.4167    95238.133    23174.641    15620.543    17011.912     79.40073 
   18700    1487.8678   -113.44183     1.346254   -112.09558   -18813.233    4.3176213    4.3176213    4.3176213   -18813.233   -42860.105   -41358.353    27778.759   -2571.8075   -9486.1394   -4350.8205    80.488462 
   18800    1561.6408    -113.5055    1.4130054    -112.0925   -20141.029    4.3139093    4.3139093    4.3139093   -20141.029   -42756.778   -31788.036    14121.726    6546.2235   -14551.527    -7573.485     80.28105 
   18900    995.53473   -113.00202   0.90078074   -112.10124    10489.423    4.3062266    4.3062266    4.3062266    10489.423   -24766.007   -14017.177    70251.454    23964.387    9787.9825    5405.8434    79.852891 
   19000     1781.261   -113.71311    1.6117224   -112.10138     1010.046    4.3141848    4.3141848    4.3141848     1010.046   -24831.461   -1945.7998    29807.399   -8508.9014     11907.48   -1703.1597     80.29643 
   19100    2102.2989    -114.0007    1.9022042   -112.09849    10269.277    4.3133621    4.3133621    4.3133621    10269.277   -10184.051   -11109.516    52101.398    8835.4992   -20414.359    937.02428    80.250502 
   19200    1670.7348    -113.6175     1.511716   -112.10578   -17770.053    4.3162732    4.3162732    4.3162732   -17770.053   -23057.583   -43899.513    13646.938    24893.192   -9048.5583    8866.0806    80.413092 
   19300    1947.6576   -113.85953    1.7622816   -112.09725    2022.5927    4.3137261    4.3137261    4.3137261    2022.5927   -9724.7605   -7069.9661    22862.505   -1365.7044    13569.004    6289.5571    80.270817 
   19400    2518.3656   -114.36589    2.2786701   -112.08722    6440.2466    4.3049293    4.3049293    4.3049293    6440.2466     -4866.27    27432.296   -3245.2866     8280.014    18369.296   -17711.826    79.780741 
   19500    1457.5103   -113.42459     1.318786    -112.1058    6395.1503    4.3117491    4.3117491    4.3117491    6395.1503   -10311.355   -9500.7195    38997.525    35663.297    6069.2465    14531.064    80.160503 
   19600    1788.4433   -113.71962    1.6182211    -112.1014   -22684.075    4.3137418    4.3137418    4.3137418   -22684.075   -37908.387     10700.56   -40844.399   -3440.4168    7660.8087   -2295.0547    80.271697 
   19700    1632.2219   -113.57536    1.4768687   -112.09849   -3828.1084     4.313368     4.313368     4.313368   -3828.1084   -48583.383    41345.454   -4246.3965    1861.7544   -1001.3717    6742.5029     80.25083 
   19800    1285.1712    -113.2598    1.1628499   -112.09695   -9041.5214    4.3176969    4.3176969    4.3176969   -9041.5214   -50796.124   -27535.579    51207.139    12714.232    2943.5574   -15867.417    80.492693 
   19900    1002.4978   -112.99351   0.90708103   -112.08643     788.8225     4.313753     4.313753     4.313753     788.8225   -55098.372    25840.829    31624.011   -7851.6554    3692.4922    15438.468    80.272319 
   20000    1049.4257   -113.03627   0.94954243   -112.08673   -1237.5621    4.3198486    4.3198486    4.3198486   -1237.5621   -71814.272    25288.039    42813.546    9397.2244   -6999.6347    7577.9698    80.613094 
   20100    1529.2837   -113.45845     1.383728   -112.07473   -27575.572    4.3274812    4.3274812    4.3274812   -27575.572   -70811.263   -29253.031    17337.577    8664.6759    -6099.747   -9686.6531    81.041144 
   20200    1476.2111   -113.41155    1.3357069   -112.07585    19200.624    4.3035005    4.3035005    4.3035005    19200.624   -33074.153     28401.83    62274.194   -16245.521    6402.9135    4195.9889     79.70133 
   20300    1706.0028    -113.6411    1.5436272   -112.09748    2056.5873    4.3006447    4.3006447    4.3006447    2056.5873    -39250.21    40433.604    4986.3675    3882.5686   -13511.975    13527.911    79.542767 
   20400     2219.734   -114.10994     2.008462   -112.10148   -11776.509     4.319758     4.319758     4.319758   -11776.509   -27678.455   -10048.293    2397.2218    13708.708   -7682.8297    12572.497    80.608019 
   20500    2080.9622    -113.9691    1.8828983    -112.0862    14422.056    4.3243251    4.3243251    4.3243251    14422.056   -12607.056    20325.299    35547.926   -6274.6034     1824.464   -8918.1471    80.863962 
   20600    1900.2808   -113.80139     1.719414   -112.08198   -7125.3529    4.3215443    4.3215443    4.3215443   -7125.3529   -30949.293    12685.792   -3112.5576   -13750.778   -6716.5802    13120.658    80.708062 
   20700    2088.6915   -113.97169    1.8898919    -112.0818    17611.194    4.3071056    4.3071056    4.3071056    17611.194    6576.5436    37834.002    8423.0374   -3228.1426     3058.318     4624.031    79.901799 
   20800    2036.8458   -113.92927    1.8429809   -112.08629    34815.799    4.2973283    4.2973283    4.2973283    34815.799    37192.747     33659.33    33595.321    -2634.551     6372.532   -10096.342    79.358892 
   20900    1220.3857   -113.21505    1.1042306   -112.11082   -33167.902    4.3206288    4.3206288    4.3206288   -33167.902   -19205.439   -17461.745   -62836.521    3016.0316   -9504.9808    17924.701    80.656781 
   21000    1166.2176    -113.1439    1.0552182   -112.08868   -15972.564    4.3261272    4.3261272    4.3261272   -15972.564   -13996.667    3625.7408   -37546.767    4834.9974    3367.9877   -7771.9482    80.965098 
   21100    1536.8902   -113.46058    1.3906105   -112.06996    10785.935    4.3107538    4.3107538    4.3107538    10785.935    8880.1118    5239.3606    18238.331    1259.5865    55.923414    4179.7466    80.105007 
   21200    865.20709   -112.87728   0.78285756   -112.09442    1599.6016    4.3084933    4.3084933    4.3084933    1599.6016   -24072.108    26020.727    2850.1859    655.80681   -10112.758    16052.408    79.979055 
   21300    979.75668   -112.98735   0.88650443   -112.10084    5837.5297    4.3156136    4.3156136    4.3156136    5837.5297   -74388.728    25605.279    66296.038    7753.9883   -4735.1365    4175.3608    80.376236 
   21400    1418.4405   -113.37866    1.2834347   -112.09523   -10986.437    4.3357241    4.3357241    4.3357241   -10986.437   -70164.804    13638.259    23567.236    5370.1169    3208.5874     10675.97    81.505127 
   21500    1534.8731   -113.46821    1.3887854   -112.07943   -5202.4447    4.3281433    4.3281433    4.3281433   -5202.4447   -11769.208   -3616.8222   -221.30368   -1544.9572   -12924.418     12261.57    81.078347 
   21600    1653.3899   -113.55659    1.4960219   -112.06057    51439.205    4.3021348    4.3021348    4.3021348    51439.205    32251.218      77477.4    44588.997    26366.945   -14929.549    4208.4757    79.625477 
   21700    2097.8565   -113.98282    1.8981847   -112.08463    18092.403    4.3181225    4.3181225    4.3181225    18092.403    26094.059    41293.334   -13110.183    34488.936     5855.888   -6992.2996    80.516496 
   21800    1890.4536   -113.78846    1.7105222   -112.07794   -859.92447    4.3388517    4.3388517    4.3388517   -859.92447     35111.74    31795.652   -69487.166    11400.366    1637.5056    5995.3762    81.681632 
   21900    1481.2356   -113.40382    1.3402531   -112.06357    9471.1442    4.3379123    4.3379123    4.3379123    9471.1442    44658.175    26950.019   -43194.761    18112.361     -5321.19    2014.3021    81.628592 
   22000    1414.1153   -113.33075    1.2795212   -112.05123    12718.141    4.3260855    4.3260855    4.3260855    12718.141   -6282.7687    42166.016    2271.1747    14891.972   -7713.4844    13619.891    80.962759 
   22100    1237.8386   -113.17566    1.1200223   -112.05564     3101.673    4.3199087    4.3199087    4.3199087     3101.673   -16993.079     76059.73   -49761.632    230.29953   -11688.857    6015.9457    80.616454 
   22200    1158.8849    -113.1205    1.0485835   -112.07192   -1418.9569    4.3289251    4.3289251    4.3289251   -1418.9569   -23276.558     23014.94    -3995.253   -5815.8533    10148.079   -7326.0458    81.122294 
   22300    1534.8058   -113.45497    1.3887246   -112.06625   -35014.326    4.3369583    4.3369583    4.3369583   -35014.326   -88678.822    -1057.055     -15307.1   -5446.6057   -3809.5153    9170.1178     81.57475 
   22400    1114.3035   -113.07323    1.0082452   -112.06498   -9770.2945    4.3231753    4.3231753    4.3231753   -9770.2945   -51784.244    21900.053    573.30837   -17790.477   -13257.847    7746.1466    80.799473 
   22500    1630.3811   -113.54081    1.4752031   -112.06561    2620.0497    4.3133169    4.3133169    4.3133169    2620.0497    8048.5746   -11876.386     11687.96   -7274.2674    20114.025   -8957.7235    80.247979 
   22600    1828.7114   -113.73531    1.6546565   -112.08065    8520.7208    4.3262475    4.3262475    4.3262475    8520.7208      2922.27    17485.015    5154.8773    2051.6659    1127.4244    4933.9639    80.971852 
   22700    1483.1677   -113.42346    1.3420013   -112.08146    6523.5568    4.3310022    4.3310022    4.3310022    6523.5568    30736.087    21146.561   -32311.978   -17624.821   -2581.9518   -13143.436     81.23912 
   22800    1716.5488   -113.63131    1.5531694   -112.07814    10106.174    4.3187729    4.3187729    4.3187729    10106.174    8734.7947    72828.043   -51244.317    12260.988    19170.388   -12484.547    80.552883 
   22900    1679.1352   -113.60572    1.5193168   -112.08641    7339.9275    4.3076333    4.3076333    4.3076333    7339.9275    31495.543    24691.586   -34167.346    10319.023   -20875.422   -677.13042    79.931169 
   23000     1864.889   -113.78761    1.6873908   -112.10022    1137.9451    4.3077371    4.3077371    4.3077371    1137.9451    19373.527    11124.421   -27084.113     9708.012   -19314.505   -692.06441     79.93695 
   23100    1670.8951    -113.6194     1.511861   -112.10753   -14473.992     4.328683     4.328683     4.328683   -14473.992    -14116.44   -3329.0003   -25976.535   -24614.607    14080.029   -15174.402    81.108683 
   23200    1532.3944   -113.48002    1.3865427   -112.09347   -12593.041    4.3274385    4.3274385    4.3274385   -12593.041      13517.5    9948.3743   -61244.998    4449.0526   -16555.437    -4596.239    81.038746 
   23300     2114.652   -113.99931    1.9133816   -112.08593   -15433.041    4.3149425    4.3149425    4.3149425   -15433.041   -28278.208    32759.319   -50780.235   -9192.2587   -22130.915    832.43716    80.338745 
   23400     1578.139   -113.52714    1.4279333   -112.09921     21688.12    4.3171387    4.3171387    4.3171387     21688.12    21271.075    66037.161   -22243.876    6059.4171    9582.3758   -19875.238    80.461476 
   23500    1787.6619   -113.72046    1.6175141   -112.10294   -6354.9525    4.3242995    4.3242995    4.3242995   -6354.9525   -26244.999    28075.388   -20895.247    812.99887   -34159.552    8610.7544    80.862523 
   23600    1819.4756   -113.73247    1.6462997   -112.08617    219.98409    4.3341353    4.3341353    4.3341353    219.98409   -22225.523     75953.92   -53068.445    12076.793   -24993.851    11981.648    81.415554 
   23700    1972.8972   -113.85747    1.7851189   -112.07235   -13436.095    4.3261351    4.3261351    4.3261351   -13436.095    262.75965   -15313.824   -25257.221    -7247.893    6299.4173    870.24393    80.965544 
   23800    1440.3921   -113.38329     1.303297   -112.07999    4425.8465    4.3082532    4.3082532    4.3082532    4425.8465   -19634.994     32656.27    256.26399   -19186.619   -21725.126     624.0036    79.965682 
   23900    1499.0296    -113.4583    1.3563535   -112.10194    22575.238    4.3207711    4.3207711    4.3207711    22575.238    48624.132    56554.978   -37453.395    13665.028   -5415.8109    -3979.724    80.664745 
   24000    1823.8216   -113.73988    1.6502321   -112.08965   -42123.947     4.340818     4.340818     4.340818   -42123.947   -17545.764   -59876.779   -48949.297   -295.33325    8834.5582    2758.6542    81.792734 
   24100    823.09378    -112.8356   0.74475255   -112.09084   -20647.138    4.3272797    4.3272797    4.3272797   -20647.138   -7954.9043   -13138.619    -40847.89   -1067.5612   -28813.848    2757.6229    81.029823 
   24200    1154.8008   -113.12531     1.044888   -112.08043    13240.999    4.3098401    4.3098401    4.3098401    13240.999    30278.925    7859.3975    1584.6744   -10179.671   -10313.369   -3432.0298     80.05408 
   24300     1396.408   -113.34842    1.2634993   -112.08492    5938.8422    4.3154659    4.3154659    4.3154659    5938.8422     43364.98   -33694.659    8146.2056    9258.4809    16110.947     11900.59    80.367983 
   24400    979.81651   -112.97596   0.88655857    -112.0894    20476.047    4.3242523    4.3242523    4.3242523    20476.047    49881.122    9122.7354    2424.2835   -7782.6855   -31528.975   -8312.7984    80.859877 
   24500    1601.0018   -113.52914    1.4486201   -112.08052    -18040.35    4.3422961    4.3422961    4.3422961    -18040.35   -432.09186   -38993.513   -14695.446   -14128.043    5235.6332   -7301.3132    81.876319 
   24600    2141.8196    -114.0019    1.9379634   -112.06394   -25949.803    4.3334829    4.3334829    4.3334829   -25949.803    -17358.27   -48541.053   -11950.085   -4930.9161    21589.581    17809.715    81.378799 
   24700    1878.3509   -113.75582    1.6995714   -112.05625    44419.221    4.2961618    4.2961618    4.2961618    44419.221    52196.624    48873.371    32187.668   -9685.1375   -25160.665    2819.8296    79.294282 
   24800    2196.3405   -114.08119     1.987295   -112.09389    5570.5675    4.3075069    4.3075069    4.3075069    5570.5675   -14889.034    36199.773   -4599.0356   -4186.1393   -22279.534   -26715.411    79.924133 
   24900     2308.212    -114.1806    2.0885188   -112.09208   -15322.725    4.3390551    4.3390551    4.3390551   -15322.725   -32500.213     -8431.72   -5036.2424    7222.5111    5156.5751   -1918.5048    81.693122 
   25000    1966.2732   -113.85558    1.7791253   -112.07646    13806.775    4.3347609    4.3347609    4.3347609    13806.775    2580.0682     35438.35     3401.908   -3380.6039   -6441.3069    -4319.855    81.450817 
   25100    1837.4225   -113.73406    1.6625385   -112.07152   -22384.611     4.325521     4.325521     4.325521   -22384.611   -28646.104   -30152.999    -8354.731   -10626.141   -13513.057    3490.8333    80.931068 
   25200    1695.0349   -113.60401    1.5337032    -112.0703   -23481.842    4.3216454    4.3216454    4.3216454   -23481.842   -11479.791   -48781.216   -10184.518   -11519.156    17117.804    137.65769    80.713726 
   25300    1292.2324   -113.23777     1.169239   -112.06853    30454.818    4.3159666    4.3159666    4.3159666    30454.818    73824.046   -5322.9137     22863.32   -3722.6056    564.82959    -9281.461    80.395961 
   25400      1098.84   -113.08355   0.99425354   -112.08929   -23271.224     4.335927     4.335927     4.335927   -23271.224     -20527.3   -35510.959   -13775.414   -12808.325   -24479.705    752.07933    81.516571 
   25500     1308.033   -113.25623    1.1835358    -112.0727   -41419.097    4.3399177    4.3399177    4.3399177   -41419.097   -34246.062   -75338.496   -14672.734   -13927.831   -5072.5725   -466.51377    81.741852 
   25600    1761.5064   -113.64407     1.593848   -112.05022    16276.936    4.3078846    4.3078846    4.3078846    16276.936    45699.538   -5725.2023    8856.4734   -14263.325    20812.084    6935.0248    79.945161 
   25700    1061.2764    -113.0425   0.96026516   -112.08223    15272.508    4.3126566    4.3126566    4.3126566    15272.508    21527.693   -4749.4688    29039.301   -14200.863   -30654.765   -1525.8486    80.211131 
   25800    1399.0339   -113.35447    1.2658753    -112.0886   -15634.311    4.3366518    4.3366518    4.3366518   -15634.311    7969.2512    -46358.73   -8513.4535   -5775.9028   -22483.282    4892.9503    81.557454 
   25900    1927.4892     -113.819    1.7440328   -112.07496   -9307.9413     4.333761     4.333761     4.333761   -9307.9413    11452.143    -3404.925   -35971.042    9505.4153    7469.0637    16158.616    81.394467 
   26000    1218.2812   -113.18932    1.1023265     -112.087   -10290.696    4.3235727    4.3235727    4.3235727   -10290.696   -3871.3397    1581.3043   -28582.053   -11888.557   -9130.3689   -13991.892    80.821757 
   26100    1285.7488   -113.25137    1.1633726     -112.088    29081.019    4.3095744    4.3095744    4.3095744    29081.019     27787.45   -12189.575    71645.182   -8331.2161   -13678.818   -8071.7867    80.039273 
   26200      1974.32   -113.88117    1.7864062   -112.09476   -7290.9289    4.3183453    4.3183453    4.3183453   -7290.9289   -2382.5881   -14205.174   -5285.0243    7718.2581   -12580.804    3473.4901    80.528963 
   26300    1123.5491    -113.1197    1.0166108   -112.10309   -23034.032    4.3333943    4.3333943    4.3333943   -23034.032   -42469.383    -39937.12    13304.407   -6726.2078    10872.672   -3019.4244    81.373805 
   26400    1174.5981   -113.14973     1.062801   -112.08693   -8008.1804     4.329573     4.329573     4.329573   -8008.1804    27809.935   -67598.499    15764.023   -17907.421   -19799.635   -19921.548     81.15872 
   26500    1908.5551   -113.81437    1.7269008   -112.08747   -6186.0564    4.3190929    4.3190929    4.3190929   -6186.0564   -14355.936   -16035.664     11833.43    12673.146   -3513.6133    775.11997    80.570794 
   26600    1556.6447   -113.49547    1.4084849   -112.08698    44948.975    4.3019929    4.3019929    4.3019929    44948.975    45218.833    26902.141    62725.952   -4680.4255    13622.554     3053.106      79.6176 
   26700    1635.1943    -113.5934    1.4795581   -112.11385   -4871.1568     4.320324     4.320324     4.320324   -4871.1568   -6368.6751    19212.173   -27456.968   -15589.934   -1047.2784   -2927.3605     80.63971 
   26800    1894.2653   -113.79642     1.713971   -112.08244   -22346.803    4.3469576    4.3469576    4.3469576   -22346.803   -23714.037    23074.664   -66401.036   -9883.9786     7806.648   -8524.6305    82.140284 
   26900    1943.8852    -113.8234    1.7588682   -112.06454    6797.4222    4.3212293    4.3212293    4.3212293    6797.4222   -1551.2487    29881.503   -7937.9881   -22994.803   -2315.8367    10287.344    80.690411 
   27000    1440.0899   -113.37418    1.3030236   -112.07116    6368.0067    4.2980315    4.2980315    4.2980315    6368.0067    23687.503    6560.3118   -11143.795   -1507.4794   -22967.981   -24474.446    79.397857 
   27100    1493.1912    -113.4539    1.3510708   -112.10283   -5436.9215    4.3088821    4.3088821    4.3088821   -5436.9215   -8985.8375    12081.445   -19406.372   -1318.5228    4607.3675   -12254.349     80.00071 
   27200    1684.5636   -113.62587    1.5242285   -112.10164   -3136.2001    4.3276654    4.3276654    4.3276654   -3136.2001   -41747.999   -3088.4612     35427.86   -2432.3396    8729.0606    13451.201    81.051495 
   27300    972.14751   -112.98511    0.8796195   -112.10549   -35309.467    4.3357713    4.3357713    4.3357713   -35309.467   -76996.888   -23329.085   -5602.4286   -8456.1031   -11290.895   -6153.9745    81.507788 
   27400    1123.8755   -113.10841    1.0169062   -112.09151    7006.3969    4.3122379    4.3122379    4.3122379    7006.3969   -55858.126    62613.998    14263.319   -8428.4992   -12900.256    2081.8262    80.187773 
   27500    1723.0294   -113.65187    1.5590332   -112.09284    39930.187    4.3067522    4.3067522    4.3067522    39930.187    19298.899    55314.124     45177.54      2861.43    17722.763    65.984096    79.882135 
   27600    1812.9645   -113.74464    1.6404084   -112.10423   -19997.382    4.3264669    4.3264669    4.3264669   -19997.382    -81425.52    49997.906   -28564.532   -5488.3053    -20273.13     2598.499    80.984172 
   27700    1898.4571   -113.80896    1.7177639    -112.0912   -38458.302    4.3302108    4.3302108    4.3302108   -38458.302   -61920.973   -41118.992    -12334.94   -7389.6656   -13739.981   -21131.405    81.194592 
   27800    1898.3608   -113.80406    1.7176768   -112.08639    7426.9299     4.321071     4.321071     4.321071    7426.9299   -19661.292    24908.698    17033.384    10604.494    6325.2501   -11084.704    80.681544 
   27900    1809.5937   -113.72756    1.6373584    -112.0902    21829.677    4.3233145    4.3233145    4.3233145    21829.677    8665.5685    106752.07   -49928.605   -2769.4005   -12395.644   -2419.7518    80.807283 
   28000    1959.0748    -113.8581    1.7726121   -112.08549   -3718.1503    4.3221417    4.3221417    4.3221417   -3718.1503   -17754.765    62634.087   -56033.773    2551.3927    1249.5266   -17045.471    80.741533 
   28100    1246.8647   -113.22328    1.1281894   -112.09509    5143.3507    4.3231306    4.3231306    4.3231306    5143.3507   -3812.8679   -10276.078    29518.998    741.09312    10341.463   -463.94547     80.79697 
   28200    1453.7444   -113.40078    1.3153785    -112.0854   -14775.365    4.3298644    4.3298644    4.3298644   -14775.365   -32155.463    18585.319   -30755.951   -11525.433   -9322.8731    3206.2925    81.175109 
   28300     1388.273   -113.33563    1.2561386   -112.07949   -11983.476    4.3220453    4.3220453    4.3220453   -11983.476   -51370.921    49934.639   -34514.145   -5722.7306    6966.4828      7769.96    80.736133 
   28400    1033.7943   -113.02441   0.93539883   -112.08901    -3948.785    4.3134296    4.3134296    4.3134296    -3948.785   -68837.237     52619.86    4371.0226    -6924.573    404.21017   -7322.7097    80.254267 
   28500    928.30495   -112.94627   0.83994983   -112.10632   -11631.018    4.3193623    4.3193623    4.3193623   -11631.018   -57079.632    243.81202    21942.765   -8090.8997   -17802.046   -13981.665    80.585871 
   28600    1582.3714   -113.52589    1.4317629   -112.09413   -1731.8921    4.3190591    4.3190591    4.3190591   -1731.8921   -10452.274     12227.15   -6970.5527   -2041.0652    10789.181    21910.007    80.568901 
   28700    1568.0454   -113.51779    1.4188005   -112.09899   -7064.6376    4.3298976    4.3298976    4.3298976   -7064.6376   -38054.796    23263.623   -6402.7394     8640.209    3447.4649    4358.3369    81.176979 
   28800    1699.6656   -113.63471    1.5378932   -112.09681   -14829.658    4.3237789    4.3237789    4.3237789   -14829.658   -45219.489      6563.91   -5833.3956   -19398.559   -12798.626   -5436.0934    80.833326 
   28900    1568.7523   -113.50741    1.4194401   -112.08797    36684.669     4.301915     4.301915     4.301915    36684.669    10400.844     63370.56    36282.604    2301.1666    11391.867    20487.518    79.613271 
   29000    2002.3878   -113.91293    1.8118025   -112.10113    11344.422    4.3253415    4.3253415    4.3253415    11344.422    12640.152    1315.6724    20077.441    16031.052   -9989.6642    3966.9627    80.920993 
   29100    2058.5842    -113.9419    1.8626502   -112.07925    -32850.18    4.3447321    4.3447321    4.3447321    -32850.18   -46304.299   -25043.535   -27202.707   -3621.7991   -8582.1404   -13235.776     82.01419 
   29200    1386.4172   -113.32911    1.2544594   -112.07466    28981.929    4.3109726    4.3109726    4.3109726    28981.929   -34080.228    82486.593     38539.42    -17260.25    24037.069    10913.019    80.117203 
   29300    1696.5362   -113.61951    1.5350616   -112.08445     21456.65    4.2989375    4.2989375    4.2989375     21456.65    33278.101     37579.06   -6487.2103   -2324.3051    6876.4726    10531.906    79.448077 
   29400    1645.6556   -113.59165    1.4890238   -112.10262   -3440.4087    4.3187245    4.3187245    4.3187245   -3440.4087   -50260.212    49564.456   -9625.4707    1153.9071    3560.7768     8428.123    80.550178 
   29500    1346.2543   -113.31806    1.2181192   -112.09994   -33835.631    4.3343046    4.3343046    4.3343046   -33835.631      -105828    4944.0002   -622.89035   -3034.3118    9859.2239   -5010.9187    81.425098 
   29600    1198.4038   -113.17092     1.084341   -112.08657   -28081.364    4.3318553    4.3318553    4.3318553   -28081.364   -75600.248    7480.6904   -16124.535    8002.8807      351.803    29272.557    81.287138 
   29700    1473.6129   -113.40866    1.3333559   -112.07531    3649.5049    4.3065275    4.3065275    4.3065275    3649.5049    -30662.18    6881.3766    34729.318    2519.2872   -4623.6448    8519.5567    79.869632 
   29800    1519.9909   -113.46167    1.3753197   -112.08635    11072.162    4.3020132    4.3020132    4.3020132    11072.162   -6435.9451    32758.476    6893.9561     -12709.9    7566.1317     -19398.9    79.618722 
   29900    1342.1317   -113.31904    1.2143889   -112.10465   -21843.607    4.3306208    4.3306208    4.3306208   -21843.607   -22036.239   -33715.274   -9779.3061   -4510.8275    1794.8329    33605.637    81.217658 
   30000    1712.7095   -113.62712    1.5496955   -112.07742   -22292.631    4.3375186    4.3375186    4.3375186   -22292.631   -17527.324   -45138.003   -4212.5673   -14209.098   -3404.9078    6742.9074    81.606366 
   30100    1881.5552    -113.7682    1.7024707   -112.06573   -7324.6235     4.317516     4.317516     4.317516   -7324.6235   -9417.3423    -43231.42    30674.892   -25495.671    7817.7182   -9439.0055    80.482575 
   30200    1976.1376   -113.86903    1.7880508   -112.08098    1296.8917    4.3010458    4.3010458    4.3010458    1296.8917    60650.577   -37691.593   -19068.309   -4535.5472   -14705.035    16120.692    79.565027 
   30300    1836.0002   -113.76691    1.6612516   -112.10566    48167.264    4.2983753    4.2983753    4.2983753    48167.264    72568.308   -10946.902    82880.386    20707.786   -7213.6488    17268.752    79.416913 
   30400    1582.8042   -113.56862    1.4321545   -112.13646   -14135.253    4.3338501    4.3338501    4.3338501   -14135.253    10723.951    -29548.53    -23581.18   -14739.562       7852.8   -11387.105    81.399487 
   30500     1590.056   -113.52819    1.4387161   -112.08947   -46598.267    4.3466772    4.3466772    4.3466772   -46598.267   -42843.441   -53279.418   -43671.941   -11964.837    13202.141   -19735.835    82.124394 
   30600    1577.8824   -113.48393    1.4277012   -112.05623    13853.054    4.3139864    4.3139864    4.3139864    13853.054   -33699.558    8817.9309    66440.788    1894.6512    982.75485    7232.2556    80.285355 
   30700    1626.7367   -113.54032    1.4719056   -112.06842    11262.644    4.3093779    4.3093779    4.3093779    11262.644   -23216.677    38103.823    18900.788     -16720.3   -3051.8792     9844.927    80.028326 
   30800    1308.4026   -113.27681    1.1838701   -112.09294   -7155.3731    4.3312438    4.3312438    4.3312438   -7155.3731     4804.367   -36182.143    9911.6565    7203.4964    2091.4113    -10509.96    81.252716 
   30900    1751.7118   -113.66318    1.5849856    -112.0782   -33048.998    4.3452222    4.3452222    4.3452222   -33048.998   -58434.649   -27781.715   -12930.629    3255.0834     6165.523     30226.46    82.041947 
   31000    1687.9976   -113.58173    1.5273357   -112.05439   -20177.983    4.3394634    4.3394634    4.3394634   -20177.983   -12981.579   -24249.953   -23302.416   -7558.9529   -18199.521    224.23129    81.716186 
   31100    1098.9877   -113.05276    0.9943872   -112.05837    15207.103    4.3172722    4.3172722    4.3172722    15207.103    93110.438   -15626.632   -31862.497    124.28299   -19031.273    -15018.14    80.468944 
   31200    1452.6836   -113.38891    1.3144186   -112.07449     17119.86    4.3182972    4.3182972    4.3182972     17119.86    99824.886   -4427.6424   -44037.664     23650.13   -1524.0938    21880.512    80.526271 
   31300     1656.919   -113.58046    1.4992151   -112.08125   -14573.529    4.3426706    4.3426706    4.3426706   -14573.529    5775.9069   -27799.013    -21697.48    8216.1361   -9218.7327   -1965.0197    81.897502 
   31400    1708.4777   -113.61006    1.5458665   -112.06419   -41487.904     4.347387     4.347387     4.347387   -41487.904   -22738.278   -67973.331   -33752.103    3146.6902   -17327.664   -4860.5229    82.164631 
   31500    2192.7049   -114.03116    1.9840055   -112.04715   -18671.612    4.3341967    4.3341967    4.3341967   -18671.612      10786.5   -38338.398   -28462.939    10727.891   -4295.6979    5436.0497    81.419017 
   31600    1911.3944   -113.78876    1.7294698   -112.05929   -6803.7111    4.3217851    4.3217851    4.3217851   -6803.7111    29703.358   -39418.912    -10695.58     6857.905    33512.749   -17642.086    80.721551 
   31700    1343.8537   -113.29691     1.215947   -112.08096    21576.725    4.3096621    4.3096621    4.3096621    21576.725    107959.16   -49509.823     6280.837   -9616.7941    11169.701   -5493.8984    80.044162 
   31800    1795.4545   -113.72576     1.624565   -112.10119   -5298.4586    4.3272274    4.3272274    4.3272274   -5298.4586   -15168.972   -37716.146    36989.742    6807.6039    5290.7143    1300.9146    81.026886 
   31900    1702.5662   -113.62481    1.5405177   -112.08429   -37659.638    4.3418205    4.3418205    4.3418205   -37659.638   -31185.862   -47572.396   -34220.655   -2352.7183    21049.976   -10676.048    81.849419 
   32000    1182.7429    -113.1627    1.0701706   -112.09253   -26259.693    4.3293309    4.3293309    4.3293309   -26259.693   -10292.172   -53233.509   -15253.398   -21498.934   -14799.524    7413.8337    81.145111 
   32100    1244.2866   -113.21225    1.1258566    -112.0864    49505.916      4.29889      4.29889      4.29889    49505.916    117584.22    6400.4063    24533.124   -11927.794   -9306.5494    5164.5877    79.445446 
   32200    1285.7489   -113.28231    1.1633726   -112.11894   -7210.0796    4.3154886    4.3154886    4.3154886   -7210.0796    18437.494   -28.928575   -40038.805    5669.7072    10395.456     2812.278    80.369251 
   32300     1257.963   -113.24398    1.1382313   -112.10575   -53056.729    4.3472017    4.3472017    4.3472017   -53056.729   -26264.608   -49705.357   -83200.224    -14626.79   -1895.5334    3338.5602    82.154127 
   32400     1409.202   -113.35302    1.2750756   -112.07794     6762.591    4.3314711    4.3314711    4.3314711     6762.591    3523.7431   -14647.466    31411.495   -8674.9165   -4373.1268   -3298.2202    81.265509 
   32500    1901.8534   -113.78456    1.7208369   -112.06372    19221.162    4.3069331    4.3069331    4.3069331    19221.162    84391.468   -3674.1155   -23053.868   -848.93867    996.92865    6760.1969      79.8922 
   32600    1607.3034   -113.55836    1.4543219   -112.10404    7640.5596    4.3165828    4.3165828    4.3165828    7640.5596    55992.067   -26303.522   -6766.8662   -13473.827    4761.7565    13168.111    80.430398 
   32700    1788.5912    -113.7131    1.6183549   -112.09475    3888.4824     4.338871     4.338871     4.338871    3888.4824   -4144.6165   -25322.045    41132.109   -14778.387   -14989.089    -2983.718    81.682725 
   32800    1888.1704    -113.7823    1.7084562   -112.07384    9296.9822    4.3407056    4.3407056    4.3407056    9296.9822    25367.998   -16307.411     18830.36    9558.8794   -8983.3172    17637.657    81.786384 
   32900    1823.7964   -113.71023    1.6502093   -112.06002    13925.645    4.3323462    4.3323462    4.3323462    13925.645    5831.2519    2989.8166    32955.866   -9153.9907    2341.4878   -4652.0809    81.314775 
   33000    1931.9617   -113.80001    1.7480796   -112.05193   -4352.1943    4.3255947    4.3255947    4.3255947   -4352.1943   -10314.895    7503.9586   -10245.646   -10117.784   -14390.788   -23364.768    80.935203 
   33100    1802.5139   -113.68429    1.6309525   -112.05333   -4536.5325    4.3198584    4.3198584    4.3198584   -4536.5325   -2042.9756   -743.67359   -10822.948    809.05445   -164.91226    12140.195    80.613641 
   33200    1393.4336   -113.33396     1.260808   -112.07315    -1071.035    4.3375753    4.3375753    4.3375753    -1071.035   -3655.3664    13906.652    -13464.39    1524.4292   -13314.158    2823.1227     81.60957 
   33300     1221.636   -113.17647     1.105362   -112.07111   -8382.4568    4.3356731    4.3356731    4.3356731   -8382.4568   -22067.071    38150.178   -41230.478   -11925.448   -16224.102   -1403.0008    81.502246 
   33400    1461.5687   -113.38446     1.322458     -112.062    3548.9755    4.3072537    4.3072537    4.3072537    3548.9755    22825.677    4059.0096    -16237.76   -8341.8782    3337.4514    10984.119    79.910041 
   33500    1123.1808   -113.11349    1.0162776   -112.09722   -8704.8512    4.3192275    4.3192275    4.3192275   -8704.8512   -14915.503    22390.921   -33589.971    20925.444    840.22502    23169.337    80.578325 
   33600    1407.3871   -113.36527    1.2734335   -112.09184   -10887.547    4.3305917    4.3305917    4.3305917   -10887.547   -12478.635    15843.733   -36027.737   -5524.7238   -3683.2443   -7137.0605     81.21602 
   33700     1319.945    -113.2872     1.194314   -112.09289    17498.224    4.3160084    4.3160084    4.3160084    17498.224    3104.7564     16159.27    33230.644   -12573.471    -16814.22    10742.071    80.398297 
   33800    1247.0755   -113.23629    1.1283801   -112.10791   -5807.7572    4.3163202    4.3163202    4.3163202   -5807.7572   -11158.689   -19639.908    13375.325    19769.461    -1688.847    23928.505     80.41572 
   33900     1473.983   -113.44052    1.3336908   -112.10683   -1192.8431    4.3305859    4.3305859    4.3305859   -1192.8431    -9536.411   -37040.528    42998.409    18464.518   -17812.125   -289.60357    81.215695 
   34000    2030.9256    -113.9244    1.8376241   -112.08677   -22615.722    4.3456112    4.3456112    4.3456112   -22615.722   -15310.359   -36642.946    -15893.86    3067.9572   -22906.009    1943.2837    82.063985 
   34100    1867.0052   -113.75637    1.6893055   -112.06706    -12586.12    4.3435998    4.3435998    4.3435998    -12586.12   -2874.0331   -42457.003    7572.6778    20967.032   -15289.045    18405.032    81.950085 
   34200    2303.1851   -114.13586    2.0839702   -112.05189   -3652.0238    4.3349512    4.3349512    4.3349512   -3652.0238    23150.086   -46071.821    11965.663    4108.5941    4278.3617   -12625.934    81.461544 
   34300    1880.4712   -113.76165    1.7014899   -112.06016    12126.166    4.3375085    4.3375085    4.3375085    12126.166    45100.123   -46836.414    38114.788    1442.3831    5088.4226    4189.2589    81.605798 
   34400    1333.9307   -113.28496    1.2069685   -112.07799    21768.666    4.3408851    4.3408851    4.3408851    21768.666   -4624.7001   -50287.393    120218.09    15069.124    21675.403    19494.016    81.796527 
   34500    1588.4041   -113.51535    1.4372214   -112.07812   -16351.922    4.3531927    4.3531927    4.3531927   -16351.922    5626.7564   -58501.788    3819.2662   -16389.211    17366.801   -11360.878    82.494252 
   34600    1342.8886   -113.27407    1.2150739     -112.059   -9186.6892    4.3431786    4.3431786    4.3431786   -9186.6892   -3997.7482   -38419.437    14857.118    8857.6066    22136.485    2815.5978    81.926246 
   34700    883.70972   -112.86586   0.79959912   -112.06626    32894.066    4.3334643    4.3334643    4.3334643    32894.066    26117.019   -44700.961    117266.14    4931.2017    -18741.92   -10086.202    81.377749 
   34800    989.21645   -112.98896   0.89506383    -112.0939   -2954.4353    4.3507751    4.3507751    4.3507751   -2954.4353    82473.399   -55061.589   -36275.115   -5939.9497    -12425.08   -21109.161    82.356883 
   34900    1374.6784   -113.32604    1.2438379    -112.0822   -28771.881    4.3656922    4.3656922    4.3656922   -28771.881    25415.803   -86759.004   -24972.441    2839.4434    -18341.44    6188.4589    83.206897 
   35000    1178.6254   -113.12098     1.066445   -112.05453    26250.636    4.3487713    4.3487713    4.3487713    26250.636    97808.903   -61940.864    42883.867    7423.7586    -19478.04    8782.9037    82.243143 
   35100    2011.5585   -113.86843    1.8201004   -112.04833    152.73104    4.3351166    4.3351166    4.3351166    152.73104    24040.548   -54957.969    31375.614    1052.3346   -15786.935    6182.2568    81.470869 
   35200    1800.0224   -113.71914    1.6286981   -112.09044   -4759.6984    4.3484431    4.3484431    4.3484431   -4759.6984   -14541.941   -62429.662    62692.507    13789.576    13512.994    925.86408    82.224526 
   35300    1867.1571   -113.76797     1.689443   -112.07853   -29276.408    4.3619204    4.3619204    4.3619204   -29276.408   -39274.705   -77747.029    29192.509    15772.864   -4681.0011    23825.732     82.99142 
   35400     2020.183   -113.89257     1.827904   -112.06466   -10205.146    4.3500814    4.3500814    4.3500814   -10205.146   -22481.667    -27662.16    19528.391   -12974.875    12998.398   -16684.796    82.317495 
   35500    2585.4869   -114.41111    2.3394029   -112.07171   -25387.233    4.3409106    4.3409106    4.3409106   -25387.233   -39259.464   -47873.191    10970.955   -637.64811   -14603.603   -10655.533    81.797971 
   35600      1878.21   -113.81705    1.6994439   -112.11761   -25988.112    4.3414573    4.3414573    4.3414573   -25988.112   -41003.977   -59233.069    22272.711    2031.3839    9185.5846    6181.0858    81.828881 
   35700    1096.4424   -113.12625   0.99208413   -112.13416    11882.613    4.3387397    4.3387397    4.3387397    11882.613   -31516.272   -9158.4831    76322.595    -6592.902   -9634.0003   -6047.4312    81.675308 
   35800    1925.1166   -113.88888     1.741886   -112.14699   -18333.504    4.3445126    4.3445126    4.3445126   -18333.504   -17819.172   -37564.837    383.49821    1807.9805    3366.6772    4222.3678    82.001763 
   35900    1360.0072   -113.36345    1.2305631   -112.13289    33189.883    4.3270628    4.3270628    4.3270628    33189.883    -10880.81   -41924.002    152374.46    -13887.88   -13176.319   -4688.7511    81.017639 
   36000    635.65724   -112.71437   0.57515603   -112.13921   -728.35525    4.3342859    4.3342859    4.3342859   -728.35525    39608.877   -5165.1801   -36628.763   -5306.2558    125.35227   -6549.2682    81.424046 
   36100    1980.0751   -113.89943    1.7916136   -112.10782   -24098.643    4.3464661    4.3464661    4.3464661   -24098.643   -22752.003   -37894.254   -11649.671    2918.1494   -9530.9527    14527.367    82.112429 
   36200    1511.3718   -113.46429     1.367521   -112.09677    4663.3701    4.3382848    4.3382848    4.3382848    4663.3701   -11757.616    -6452.368    32200.094   -17025.046    1882.7167    2367.7554     81.64962 
   36300     1576.158   -113.50678    1.4261409   -112.08064    25538.175    4.3223149    4.3223149    4.3223149    25538.175    9446.3713   -5410.2839    72578.437    -10064.17    20168.284   -3911.5609     80.75124 
   36400    1880.9693    -113.7977    1.7019406   -112.09576   -2434.3099    4.3411298    4.3411298    4.3411298   -2434.3099   -3691.0067   -41355.519    37743.596   -4015.8643   -6702.4039    12461.108    81.810365 
   36500    2020.7021    -113.9142    1.8283737   -112.08582   -29476.383    4.3570757    4.3570757    4.3570757   -29476.383   -90160.146   -69073.453    70804.451   -11524.645    19105.292    763.19247    82.715201 
   36600     1956.413   -113.84255    1.7702036   -112.07234   -8492.5273    4.3486477    4.3486477    4.3486477   -8492.5273   -20554.919   -59562.616    54639.954    7047.7829   -15571.302   -23110.048     82.23613 
   36700    1251.2172   -113.20898    1.1321276   -112.07685    15248.081    4.3346551    4.3346551    4.3346551    15248.081   -4329.7784   -33778.944    83852.965    -17661.18     9679.267     6197.949    81.444852 
   36800    2031.5645   -113.93866    1.8382023   -112.10046   -19425.937    4.3370145    4.3370145    4.3370145   -19425.937   -50014.901   -54226.333    45963.423   -9880.0826    23805.073    20358.258     81.57792 
   36900    1660.4508   -113.60718    1.5024108   -112.10477   -23933.234    4.3612456    4.3612456    4.3612456   -23933.234   -68427.177    -31152.85    27780.324    9535.4793   -3784.6437   -16971.921    82.952911 
   37000    687.12045   -112.71595   0.62172102   -112.09423    -19821.38    4.3625785    4.3625785    4.3625785    -19821.38   -31106.221   -50716.722    22358.803   -20593.869     16483.24    8015.8211    83.028992 
   37100    1528.9557   -113.45153    1.3834312    -112.0681    38349.807    4.3245993    4.3245993    4.3245993    38349.807    17229.955   -4464.3096    102283.77   -8093.5239    1745.3475   -12950.281    80.879343 
   37200    1892.4997    -113.7762    1.7123735   -112.06382    20667.618    4.3112795    4.3112795    4.3112795    20667.618     29080.94    23313.032    9608.8813   -411.84049    843.88293    9393.6631    80.134314 
   37300    1472.2545   -113.44034    1.3321269   -112.10821   -31604.966    4.3376603    4.3376603    4.3376603   -31604.966   -2492.7856   -64108.533   -28213.578   -33374.235   -9089.5732     4266.869    81.614369 
   37400    1507.2837   -113.45981     1.363822   -112.09599    13181.728    4.3494967    4.3494967    4.3494967    13181.728   -32294.481    -20741.32    92580.987   -7775.5147     17401.95    5970.6422    82.284309 
   37500    2028.3997   -113.92419    1.8353387   -112.08885   -27053.026    4.3442308    4.3442308    4.3442308   -27053.026   -70775.788   -61422.028    51038.737    17973.652   -6948.4328   -17642.681    81.985806 
   37600    1393.9139   -113.36052    1.2612426   -112.09928   -9177.5376    4.3208919    4.3208919    4.3208919   -9177.5376   -45892.886   -36517.444    54877.717   -25185.309    -9336.959   -10921.298    80.671513 
   37700    2168.2979   -114.07894    1.9619215   -112.11702    -9504.689    4.3156909    4.3156909    4.3156909    -9504.689    -47294.72   -23222.835    42003.488    7212.1154    2189.8573    33096.277    80.380557 
   37800    1716.5854   -113.69176    1.5532026   -112.13855   -23814.007    4.3447529    4.3447529    4.3447529   -23814.007   -78306.795    -48064.69    54929.464    20532.122   -6680.6682   -7225.5274    82.015368 
   37900    1407.2057   -113.37478    1.2732693   -112.10151   -10210.284    4.3516279    4.3516279    4.3516279   -10210.284    -36661.76   -45231.735    51262.643   -14394.411   -3970.3332    14185.581     82.40532 
   38000    1778.2617    -113.6887    1.6090085   -112.07969   -38606.649    4.3440157    4.3440157    4.3440157   -38606.649   -69049.059   -58553.267    11782.378    20836.849     4733.976   -17513.641     81.97363 
   38100    1898.5966   -113.78872    1.7178901   -112.07083   -26077.988    4.3368577    4.3368577    4.3368577   -26077.988   -20697.518   -60094.634    2558.1874    15053.871    15781.973    3265.2045    81.569069 
   38200    1934.7707   -113.82922    1.7506212    -112.0786   -6822.6066     4.331557     4.331557     4.331557   -6822.6066   -4619.1409   -36639.272    20790.593   -20700.354   -4979.8797    11556.817    81.270344 
   38300    1516.2176   -113.47163    1.3719056   -112.09972    20082.953     4.328187     4.328187     4.328187    20082.953    38292.429   -43493.131    65449.561    32598.271    16183.439    8543.4236    81.080803 
   38400    1947.1261   -113.86391    1.7618006   -112.10211   -19191.099    4.3318058    4.3318058    4.3318058   -19191.099    15949.455    -55857.02   -17665.731    6356.8481   -16310.682   -1110.5041     81.28435 
   38500    1378.2833   -113.33907    1.2470997   -112.09197    13650.875    4.3307491    4.3307491    4.3307491    13650.875    21154.215   -23411.879    43210.288    -19665.91   -11921.054    7637.3724    81.224881 
   38600    1168.2066   -113.14909    1.0570179   -112.09207   -3327.0662    4.3411701    4.3411701    4.3411701   -3327.0662   -22145.503   -67755.391    79919.696    15142.998   -591.97197     1792.655    81.812641 
   38700    1630.0002   -113.54701    1.4748584   -112.07215    -49833.73     4.353783     4.353783     4.353783    -49833.73   -63503.692   -40793.081   -45204.417    5480.7977    1478.8291   -8015.6311    82.527815 
   38800    1333.6501   -113.27103    1.2067146   -112.06432    17386.592    4.3250981    4.3250981    4.3250981    17386.592   -1179.8011   -5091.4481    58431.026   -4884.3104   -5324.0813   -1008.6366    80.907332 
   38900    1097.3381   -113.06549   0.99289462   -112.07259    24184.661    4.3073261    4.3073261    4.3073261    24184.661   -21860.919    14740.822    79674.079    18270.002    11258.234     7400.447    79.914074 
   39000     1333.616   -113.32584    1.2066838   -112.11915     3185.679    4.3384235    4.3384235    4.3384235     3185.679    24229.064   -40747.501    26075.473   -8993.7731   -5738.0973   -334.45821    81.657455 
   39100    1729.0591   -113.64476     1.564489   -112.08027    2874.4609    4.3571757    4.3571757    4.3571757    2874.4609    50737.239   -39529.587   -2584.2684   -6585.2432   -12346.645    1007.6605    82.720896 
   39200    1422.7553   -113.34458    1.2873389   -112.05724    8390.9305    4.3418917    4.3418917    4.3418917    8390.9305    62455.023   -31572.017   -5710.2144    15605.364   -5050.2772   -2921.9317    81.853445 
   39300    1321.4302   -113.24586    1.1956578    -112.0502    30542.773    4.3244638    4.3244638    4.3244638    30542.773     70971.83   -19764.441    40420.932   -24607.243   -10756.633   -185.69351    80.871741 
   39400    2225.7966   -114.06494    2.0139475   -112.05099    7715.3016      4.32346      4.32346      4.32346    7715.3016    27379.635   -37731.288    33497.558   -8720.6178    10510.929   -6613.4468    80.815437 
   39500    1680.0241    -113.6103    1.5201211   -112.09018   -26900.837    4.3379567    4.3379567    4.3379567   -26900.837   -31494.633   -58711.067    9503.1878    11587.213   -11983.893   -5841.7481    81.631099 
   39600     694.4386   -112.73663   0.62834264   -112.10829    14683.588    4.3339421    4.3339421    4.3339421    14683.588   -13160.611   -33677.791    90889.165   -22982.814    7217.0968   -18123.366    81.404671 
   39700      1768.81   -113.69111    1.6004564   -112.09066   -1691.3443    4.3253602    4.3253602    4.3253602   -1691.3443   -15025.931     -21440.7    31392.598   -11915.955   -24125.356   -8421.8738    80.922044 
   39800    2024.2396   -113.91503    1.8315746   -112.08346    976.11236    4.3244105    4.3244105    4.3244105    976.11236   -2151.6795   -26363.815    31443.831    9693.2503    17149.196   -8108.8962    80.868751 
   39900    883.32912   -112.89741   0.79925475   -112.09815    18026.493    4.3359209    4.3359209    4.3359209    18026.493   -863.89348    2116.5461    52826.826   -15466.351    57.536382   -22252.415    81.516223 
   40000    1972.9829   -113.85864    1.7851964   -112.07345   -18724.907    4.3434155    4.3434155    4.3434155   -18724.907   -27203.297   -23289.913     -5681.51   -18437.635    13732.387    9014.9235    81.939654 
   40100    1835.5434   -113.71715    1.6608383   -112.05632     33426.54    4.3308073    4.3308073    4.3308073     33426.54   -4916.7109     25651.96    79544.372   -1548.2042    21105.696    21410.395    81.228155 
   40200    1390.8604   -113.33018    1.2584797    -112.0717    11055.306    4.3261982    4.3261982    4.3261982    11055.306   -3838.1746    22521.577    14482.515   -17356.852    1553.2521   -28746.515    80.969088 
   40300    1441.2254   -113.40192     1.304051   -112.09787   -39296.376    4.3453437    4.3453437    4.3453437   -39296.376   -20561.649   -45987.786   -51339.694   -7104.7991   -11027.906   -13654.928    82.048833 
   40400    1234.2936   -113.18998    1.1168148   -112.07316    3625.5935    4.3462659    4.3462659    4.3462659    3625.5935   -34555.599   -17909.165    63341.544   -41.645239    5864.9233   -3057.6099     82.10108 
   40500    1440.5085    -113.3626    1.3034023    -112.0592    1649.5127    4.3396231    4.3396231    4.3396231    1649.5127   -48466.225    34410.405    19004.358   -11780.953    1000.6428   -17860.827     81.72521 
   40600    1725.1797   -113.62892    1.5609788   -112.06794   -18433.189    4.3441531    4.3441531    4.3441531   -18433.189   -27616.709    -19661.81   -8021.0472    6041.3846   -18763.734    17927.584    81.981407 
   40700    2125.4543   -113.98218    1.9231558   -112.05903   -7630.4591    4.3394676    4.3394676    4.3394676   -7630.4591   -46184.732   -20067.899    43361.254   -1013.0108    580.51252    18278.673    81.716423 
   40800    1840.9816   -113.73731    1.6657588   -112.07155    4570.5999    4.3357367    4.3357367    4.3357367    4570.5999   -33777.765   -4025.4412    51515.006   -2499.9578   -6102.8222   -5095.0994    81.505838 
   40900    1556.3633   -113.49321    1.4082302   -112.08498   -1340.8925    4.3341455    4.3341455    4.3341455   -1340.8925    4166.5206   -28229.176    20039.978     25627.48   -7041.2374    5542.4687    81.416131 
   41000    1587.0189   -113.51096    1.4359681   -112.07499    2996.0019    4.3306376    4.3306376    4.3306376    2996.0019    10610.068   -12108.882    10486.819    14566.706    1742.5231    8959.4401    81.218606 
   41100    1321.6366   -113.27315    1.1958446    -112.0773   -15880.528    4.3413631    4.3413631    4.3413631   -15880.528     6627.851   -25087.773   -29181.663    36.240927    12306.993   -16354.796    81.823553 
   41200     1253.021   -113.20491    1.1337598   -112.07115   -31533.472    4.3371334    4.3371334    4.3371334   -31533.472    11130.358   -42047.833   -63682.941    444.69126    4616.4945   -897.76304    81.584629 
   41300     1172.126   -113.12137    1.0605642   -112.06081    34593.564    4.3171455    4.3171455    4.3171455    34593.564    37447.312    -29775.47     96108.85    14631.651    23646.125    18416.779    80.461858 
   41400    1820.8171   -113.73056    1.6475136   -112.08305    21850.837    4.3183953    4.3183953    4.3183953    21850.837    24690.309   -11624.996    52487.199   -5365.0586   -43.415139   -20492.901    80.531756 
   41500    2206.2475   -114.10533    1.9962591   -112.10907   -31910.528    4.3382927    4.3382927    4.3382927   -31910.528   -26599.265   -31714.668   -37417.651    11766.524   -17268.841   -3315.3094     81.65007 
   41600    1444.9929   -113.41224    1.3074599   -112.10478   -25277.302    4.3398513    4.3398513    4.3398513   -25277.302   -15620.334   -43772.324   -16439.247    17298.632   -1651.7659    30001.107    81.738102 
   41700    1755.6973   -113.66413    1.5885918   -112.07553    28781.617    4.3115601    4.3115601    4.3115601    28781.617   -12448.399    34610.359     64182.89   -12623.782    11268.546    3308.1548    80.149962 
   41800    2097.8426   -113.98656    1.8981721   -112.08838   -9205.4575    4.3205407    4.3205407    4.3205407   -9205.4575   -30466.187   -11578.821    14428.635    9457.5376    10503.872   -18849.579    80.651842 
   41900    812.97358   -112.83327   0.73559558   -112.09767    12864.161    4.3400948    4.3400948    4.3400948    12864.161    7198.2907    -30456.44    61850.631    5129.9948    12942.952    13842.798    81.751862 
   42000    1424.8729   -113.36303     1.289255   -112.07378   -24989.069    4.3571642    4.3571642    4.3571642   -24989.069   -40065.579   -24663.555   -10238.075   -12067.101    24181.884    1760.9489    82.720236 
   42100    1698.6612   -113.58351    1.5369843   -112.04653    -6427.049    4.3482679    4.3482679    4.3482679    -6427.049   -21967.521   -50630.748    53317.122   -6347.5691    1654.3245    1351.2914    82.214587 
   42200    1444.7013   -113.36218    1.3071961   -112.05498    13986.505    4.3073128    4.3073128    4.3073128    13986.505    80560.269   -4615.3109   -33985.445     7368.212    12663.794    22277.403    79.913329 
   42300    1853.8771   -113.75496    1.6774269   -112.07754    11474.449    4.3015687    4.3015687    4.3015687    11474.449    25671.676    17886.197   -9134.5252     5362.076    27576.146     5041.243    79.594046 
   42400    2101.4217   -113.99734    1.9014105   -112.09593    3333.7128     4.344391     4.344391     4.344391    3333.7128    27401.868   -31055.578    13654.848    4329.2058   -18023.051    5504.7877    81.994878 
   42500    1672.2217   -113.57955    1.5130614   -112.06649   -40651.594    4.3626976    4.3626976    4.3626976   -40651.594   -30114.892   -45443.239   -46396.651    7612.4032     17596.68    9625.1348    83.035793 
   42600    1345.8463   -113.26559      1.21775   -112.04784    13904.827    4.3250586    4.3250586    4.3250586    13904.827   -23930.922     8976.671    56668.731   -9036.5093    16239.844   -3458.2204    80.905117 
   42700    2122.3255   -113.95425    1.9203248   -112.03393    21809.563    4.2934838    4.2934838    4.2934838    21809.563    11622.051    25809.971    27996.668   -6788.1007    35.994994    1719.5007    79.146095 
   42800    1116.1389   -113.11257     1.009906   -112.10266   -12568.422    4.3175676    4.3175676    4.3175676   -12568.422   -17348.541   -25784.485    5427.7616    9598.1686    4662.2529   -2519.4598    80.485459 
   42900    650.56393   -112.68815   0.58864391   -112.09951    -25805.97    4.3505305    4.3505305    4.3505305    -25805.97   -82614.776   -18779.968    23976.835   -9250.5437    36383.486    12887.707    82.342995 
   43000    2153.5719   -114.01369    1.9485971    -112.0651   -23406.625    4.3394896    4.3394896    4.3394896   -23406.625   -40608.667    4420.2397   -34031.447   -2670.0254   -7044.8858   -14161.393    81.717665 
   43100    1562.0775   -113.48058    1.4134006   -112.06718   -32911.096    4.3240724    4.3240724    4.3240724   -32911.096   -24155.719   -11846.189    -62731.38    845.57584    28228.367    16820.427    80.849784 
   43200    1560.5839   -113.48979    1.4120491   -112.07774    26064.882    4.3090608    4.3090608    4.3090608    26064.882   -12096.564    35707.314    54583.897   -9184.0302     23683.68   -5587.0234    80.010663 
   43300    2386.7301   -114.25108    2.1595636   -112.09152    21781.615     4.316731     4.316731     4.316731    21781.615    51202.201     20953.81   -6811.1679    1537.4435   -7263.3494   -22599.109    80.438683 
   43400    1452.9294   -113.42584     1.314641    -112.1112    21251.868    4.3348474    4.3348474    4.3348474    21251.868    10056.314    21011.018    32688.272    14206.781    22868.051    2723.6019    81.455692 
   43500    1541.0965   -113.46949    1.3944165   -112.07507    15221.489    4.3460885    4.3460885    4.3460885    15221.489    17513.269    31450.615   -3299.4161     27300.04    28424.342    6660.3951    82.091026 
   43600    1408.5806   -113.32758    1.2745133   -112.05306    16397.609    4.3426216    4.3426216    4.3426216    16397.609    3230.4693     30283.25    15679.106    488.55786   -2213.1006   -17651.079    81.894729 
   43700     898.8016   -112.87077   0.81325457   -112.05752   -5051.8127    4.3316087    4.3316087    4.3316087   -5051.8127   -19856.307   -37100.899    41801.768    4612.4927    34668.236   -14498.153    81.273252 
   43800    1173.5835   -113.12207     1.061883   -112.06019    29345.117    4.3220159    4.3220159    4.3220159    29345.117    65885.852   -15966.401    38115.899    14818.465    12280.943    8289.0463    80.734485 
   43900    1515.8008   -113.44719    1.3715284   -112.07566    7743.0699    4.3323257    4.3323257    4.3323257    7743.0699    1126.8184    8431.7477    13670.644   -15996.547   -1924.2932   -14589.032    81.313619 
   44000    1227.6825   -113.19305    1.1108329   -112.08221   -53845.116    4.3489863    4.3489863    4.3489863   -53845.116   -67216.199   -38633.379   -55685.768   -28449.587    9378.4298   -11172.205    82.255346 
   44100    1619.8404   -113.53539    1.4656656   -112.06972    10779.619    4.3245573    4.3245573    4.3245573    10779.619    13296.433     5000.145    14042.279   -4592.3251   -11565.811    18226.654    80.876988 
   44200    2109.3377   -113.97892     1.908573   -112.07035    22282.797    4.3098131    4.3098131    4.3098131    22282.797    54110.787   -1014.1455    13751.749    11671.584   -10876.306   -2775.7552    80.052578 
   44300    1349.3236    -113.3262    1.2208964    -112.1053   -4747.3732    4.3410909    4.3410909    4.3410909   -4747.3732    25668.579    10910.848   -50821.546    -126.6582   -6627.7403    -1583.548     81.80816 
   44400    1884.9806   -113.76436    1.7055701   -112.05879   -34266.169    4.3561937    4.3561937    4.3561937   -34266.169   -13786.502   -55655.958   -33356.046    3327.7916    801.33857    9221.0305    82.664976 
   44500     1747.427   -113.62602    1.5811087   -112.04491   -544.90323    4.3265704    4.3265704    4.3265704   -544.90323   -4400.9614   -23774.877    26541.129    14458.699    6069.0703   -17896.642    80.989985 
   44600     1829.013   -113.70523    1.6549294    -112.0503    19900.994     4.303862     4.303862     4.303862    19900.994    21139.929     33909.03     4654.022     -2159.08    12885.416   -7615.6459    79.721418 
   44700    1601.0192   -113.55044    1.4486359   -112.10181    29529.392    4.3200861    4.3200861    4.3200861    29529.392    -4457.519    5519.9262    87525.769    3870.6053    4781.4715     10621.63    80.626391 
   44800    1511.3374   -113.47361    1.3674899   -112.10612   -29866.911    4.3471397    4.3471397    4.3471397   -29866.911    14676.977   -67890.844   -36386.866    27436.818   -8415.4516   -26371.261    82.150609 
   44900     1268.965   -113.23307    1.1481862   -112.08489   -13687.278    4.3438161    4.3438161    4.3438161   -13687.278     -22527.2   -19866.614    1331.9796    7032.5437    19287.453   -10185.802    81.962327 
   45000    1542.8922   -113.46174    1.3960413    -112.0657    9037.0841    4.3224422    4.3224422    4.3224422    9037.0841   -6042.2441    3816.3439    29337.153   -4406.8911    14584.216    8300.7389    80.758379 
   45100    1344.0834   -113.29945    1.2161549   -112.08329   -1707.8199    4.3156713    4.3156713    4.3156713   -1707.8199    65.851883    940.34416   -6129.6558     22084.12    4092.2885   -32908.029    80.379458 
   45200    1140.6589   -113.13293    1.0320921   -112.10084    9808.1414    4.3255851    4.3255851    4.3255851    9808.1414    32789.678    19861.354   -23226.607   -12074.657    101.28308    1038.4853    80.934664 
   45300    1926.9017    -113.8356    1.7435011    -112.0921   -37103.292    4.3483791    4.3483791    4.3483791   -37103.292   -32631.979   -17858.078   -60819.818    -20841.51    10780.136    11152.884    82.220893 
   45400    1297.9096   -113.25263    1.1743758   -112.07825    434.11603    4.3340451    4.3340451    4.3340451    434.11603    7951.4032     10871.04   -17520.095    13747.926    2994.6229   -18057.299    81.410471 
   45500    1433.6583   -113.34796    1.2972042   -112.05075    42855.161      4.29952      4.29952      4.29952    42855.161    57160.938   -12443.801    83848.346     9658.157    1631.7441   -10063.809    79.480379 
   45600    2234.3659   -114.11128    2.0217012   -112.08958   -4391.4446    4.3247799    4.3247799    4.3247799   -4391.4446   -3731.9204    20865.122   -30307.535    -9342.978    3945.5696    6010.3154    80.889475 
   45700    1656.4952   -113.57664    1.4988317   -112.07781   -15652.363     4.345301     4.345301     4.345301   -15652.363   -22606.508   -56031.264    31680.683    8824.8969    1550.6987     877.3802    82.046415 
   45800    1482.4118   -113.41294    1.3413174   -112.07162    21946.619    4.3124991    4.3124991    4.3124991    21946.619    31562.369    3829.5547    30447.934    19794.153    5713.6325   -19985.778    80.202342 
   45900    1509.9079   -113.44859    1.3661964    -112.0824    20698.049     4.309971     4.309971     4.309971    20698.049    28043.582    17771.817    16278.747   -4939.2211    26683.853    4209.5219    80.061376 
   46000    1859.9681   -113.77323    1.6829382   -112.09029   -25688.833    4.3291662    4.3291662    4.3291662   -25688.833   -30606.567   -32154.051   -14305.881    14993.499    5339.0117   -6065.2895    81.135847 
   46100    1337.8443   -113.29822    1.2105097   -112.08771    8315.0161    4.3254163    4.3254163    4.3254163    8315.0161    23466.081   -7233.4439    8712.4113    10824.734   -9124.6356   -5413.8979    80.925192 
   46200    1828.7753   -113.73786    1.6547143   -112.08314   -19530.336    4.3284779    4.3284779    4.3284779   -19530.336   -21888.612    15902.908   -52605.306   -7752.2185    29597.514    14025.552    81.097153 
   46300     1408.052   -113.35313     1.274035    -112.0791   -15535.578    4.3280991    4.3280991    4.3280991   -15535.578   -77.006683   -6240.9384    -40288.79    3621.9934    11750.543   -7552.9421    81.075864 
   46400    1369.8082   -113.32091    1.2394313   -112.08147    3228.5359    4.3187617    4.3187617    4.3187617    3228.5359   -4678.7292    26278.203   -11913.866    18109.865   -22319.804     -12765.4    80.552259 
   46500    1679.4934   -113.60731     1.519641   -112.08767      8226.47    4.3258795    4.3258795    4.3258795      8226.47    18277.927   -13896.435    20297.919   -14617.595    12161.639    6611.7286    80.951192 
   46600     1838.893    -113.7443     1.663869   -112.08043    7075.9149    4.3207191    4.3207191    4.3207191    7075.9149    53197.473   -31575.552   -394.17601   -8176.3234    4052.2913   -541.14442    80.661836 
   46700    1012.1855   -113.02123   0.91584674   -112.10539   -4301.9967    4.3278826    4.3278826    4.3278826   -4301.9967    11273.549    -26793.89    2614.3501    13346.213   -8618.5342   -9357.6348      81.0637 
   46800    1906.1234   -113.80612    1.7247005   -112.08142   -13309.469    4.3397094    4.3397094    4.3397094   -13309.469    -9850.651   -32082.426     2004.669   -2159.4918    8320.2303   -4444.3823    81.730081 
   46900    2087.1432   -113.95969     1.888491    -112.0712    14537.288    4.3217848    4.3217848    4.3217848    14537.288    74024.205   -22258.757   -8153.5839    7261.2238    8880.9919    2278.5551    80.721534 
   47000    988.01356   -112.99653   0.89397543   -112.10255    19043.419     4.319162     4.319162     4.319162    19043.419    32942.044    -7389.598    31577.811    16739.639   -16598.149   -8826.2291    80.574661 
   47100    1830.1707   -113.74539    1.6559769   -112.08941   -18212.445    4.3329482    4.3329482    4.3329482   -18212.445     7907.022   -34475.031   -28069.325    18469.791   -19745.435    11182.671    81.348678 
   47200    2257.1404   -114.10916     2.042308   -112.06686   -8410.4028    4.3296281    4.3296281    4.3296281   -8410.4028    23658.597   -18448.651   -30441.155   -16850.025    4707.0239   -24040.304    81.161822 
   47300    1214.7525   -113.17743    1.0991336    -112.0783   -13637.601    4.3357561    4.3357561    4.3357561   -13637.601   -232.28972   -21189.182    -19491.33    21235.371   -20792.763   -5500.0163    81.506927 
   47400    1678.8418   -113.59661    1.5190514   -112.07756   -25184.151    4.3199689    4.3199689    4.3199689   -25184.151   -20810.322   -12104.733   -42637.399    25591.957   -17479.026    13122.525    80.619825 
   47500    1388.3317   -113.33658    1.2561917   -112.08039    61911.602    4.2992984    4.2992984    4.2992984    61911.602    158636.07     2266.505    24832.236   -9508.0932    6718.1731   -26808.507    79.468088 
   47600     1417.607   -113.39729    1.2826806   -112.11461   -30102.261    4.3305517    4.3305517    4.3305517   -30102.261   -15725.435   -65214.805   -9366.5451    4031.0656    4621.2158    4503.9692    81.213771 
   47700    1439.2755   -113.38568    1.3022867   -112.08339   -41065.921    4.3484197    4.3484197    4.3484197   -41065.921   -27576.394   -55318.919   -40302.452    26352.999    2037.3606    2400.2025    82.223196 
   47800    1603.2384   -113.50593    1.4506438   -112.05529    14140.352    4.3346929    4.3346929    4.3346929    14140.352    59130.637   -23210.031    6500.4488   -13860.854    2968.2799   -27232.166    81.446983 
   47900    1629.1671    -113.5289    1.4741047   -112.05479   -19580.431    4.3218767    4.3218767    4.3218767   -19580.431   -29230.513    -48259.63    18748.849    26811.999    12891.729    11472.508    80.726685 
   48000    1787.1299   -113.68058    1.6170327   -112.06355    6216.1661    4.3130534    4.3130534    4.3130534    6216.1661    40166.744   -22208.653    690.40743    25946.055   -4741.8905   -10915.992    80.233271 
   48100    1716.4453   -113.64448    1.5530758   -112.09141    2114.6874    4.3349014    4.3349014    4.3349014    2114.6874    39250.102   -23840.155   -9065.8845   -2778.8626   -4595.8418   -27311.718    81.458734 
   48200    2128.0006   -114.00381    1.9254596   -112.07835   -29544.873    4.3425464    4.3425464    4.3425464   -29544.873   -38298.653   -42794.451   -7541.5151    4461.2392   -14801.016    20635.159    81.890475 
   48300     1635.809   -113.54802    1.4801144    -112.0679     33613.82    4.3213723    4.3213723    4.3213723     33613.82    55253.278    61632.509   -16044.328    37449.352    11380.497    14781.394    80.698422 
   48400    1678.0183   -113.58594    1.5183063   -112.06764    43542.919    4.3142323    4.3142323    4.3142323    43542.919    4006.5756    34511.806    92110.377    1694.9598    8185.5006   -25832.625    80.299079 
   48500    1521.3811   -113.45839    1.3765776   -112.08181    -1919.618    4.3240134    4.3240134    4.3240134    -1919.618   -14279.511    14981.101   -6460.4441    29139.343   -11020.572   -19138.089    80.846477 
   48600    1374.6572   -113.32757    1.2438187   -112.08375    18507.622    4.3315516    4.3315516    4.3315516    18507.622    5168.5986   -4208.3031     54562.57    20533.246    21177.915    1589.9525    81.270042 
   48700     1391.566   -113.33076    1.2591182   -112.07164    -8390.135      4.34295      4.34295      4.34295    -8390.135    24971.815   -44421.992   -5720.2282    607.46511    1347.6392   -4251.2926    81.913315 
   48800    1215.2866   -113.15615    1.0996168   -112.05653   -24210.745    4.3301973    4.3301973    4.3301973   -24210.745   -35653.605   -11695.023   -25283.606    40289.134   -18952.831   -12106.682    81.193836 
   48900    1507.8657   -113.41498    1.3643486   -112.05063     46670.29    4.2958859    4.2958859    4.2958859     46670.29    52581.542    33183.976    54245.351    13376.382   -871.98957    5425.6308    79.279009 
   49000    1847.2104   -113.77051    1.6713948   -112.09911     17.83109    4.3097893    4.3097893    4.3097893     17.83109     48219.89   -22309.593   -25856.804   -17885.273    19667.204   -12662.339    80.051247 
   49100    1485.2686   -113.45289    1.3439022   -112.10899   -57250.059    4.3414647    4.3414647    4.3414647   -57250.059   -70224.432   -48529.159   -52996.586     26674.62   -5022.4425   -19880.928    81.829298 
   49200    1627.8687   -113.56442    1.4729298   -112.09149   -9065.4063    4.3265924    4.3265924    4.3265924   -9065.4063   -52419.916    35365.375   -10141.678    18080.265   -21627.857   -2207.1491    80.991224 
   49300    2601.1814   -114.41958    2.3536036   -112.06597    15624.056     4.301489     4.301489     4.301489    15624.056    -6582.094     22236.92    31217.341   -14737.946    6835.8564   -6823.8719    79.589625 
   49400    1315.8001   -113.29171    1.1905635   -112.10115    23378.364    4.3066558    4.3066558    4.3066558    23378.364   -10123.424    85226.637   -4968.1217    25183.772    -16730.76    2384.7653    79.876768 
   49500    1704.6893   -113.64984    1.5424387    -112.1074    -20154.97    4.3243046    4.3243046    4.3243046    -20154.97   -36826.369   -14299.721   -9338.8192    35748.218   -6897.6947    3547.5056     80.86281 
   49600     1866.357   -113.76567     1.688719   -112.07695     6200.967    4.3358744    4.3358744    4.3358744     6200.967    18450.357    4672.6231    -4520.079   -17838.527    294.40892    15181.247    81.513601 
   49700      1602.88   -113.53863    1.4503195   -112.08831   -14191.362    4.3114202    4.3114202    4.3114202   -14191.362   -40231.882    32108.965   -34451.169    16307.925   -34062.413   -8164.9939     80.14216 
   49800    918.49158   -112.92316   0.83107048   -112.09208    24160.598    4.2851392    4.2851392    4.2851392    24160.598     8258.371     -3020.37    67243.794    20800.194    -23605.13    -6499.014    78.685516 
   49900     1714.158   -113.66427    1.5510061   -112.11326    19732.065     4.312586     4.312586     4.312586    19732.065    26498.591    6553.4438    26144.162   -8830.2173    4618.1267   -2193.0694     80.20719 
   50000    1540.5877   -113.48457    1.3939562   -112.09062   -18436.678    4.3352397    4.3352397    4.3352397   -18436.678   -15033.677    -15851.16   -24425.197     7975.198   -6529.8491   -4541.2462    81.477812 
   50100    639.33654   -112.66304   0.57848514   -112.08455   -285.53347     4.322209     4.322209     4.322209   -285.53347   -37573.303   -16746.294    53462.996    25413.715   -21975.468   -12088.571    80.745308 
   50200    1820.3035   -113.71044    1.6470488   -112.06339    9397.0078    4.3014977    4.3014977    4.3014977    9397.0078   -22043.124    15342.254    34891.894    3586.2716    18209.045   -16850.412    79.590107 
   50300    1583.1899   -113.51009    1.4325035   -112.07759    34892.309    4.2979242    4.2979242    4.2979242    34892.309    62225.233    20889.509    21562.185    6846.3982    8386.6343    5028.7507    79.391914 
   50400    1032.7284   -113.04789   0.93443436   -112.11345   -18004.105    4.3296522    4.3296522    4.3296522   -18004.105   -28672.413   -38270.355    12930.453    31707.577   -22625.951   -10695.513    81.163176 
   50500    2128.5138   -114.00712     1.925924   -112.08119   -25709.087    4.3377619    4.3377619    4.3377619   -25709.087    -19758.92   -24922.674   -32445.667     2803.404    3403.4329   -12859.037    81.620099 
   50600    2186.2706   -114.05671    1.9781836   -112.07852   -8142.9861     4.314808     4.314808     4.314808   -8142.9861   -10876.197    16730.023   -30282.784   -3221.3136    10860.653    2222.5961    80.331233 
   50700    1710.5653   -113.62382    1.5477554   -112.07607    11197.281    4.2955202    4.2955202    4.2955202    11197.281    13575.125    5739.6469    14277.072    48963.806   -17314.929   -17036.275    79.258763 
   50800    1989.2662   -113.89794    1.7999299   -112.09801     9433.957    4.3170034    4.3170034    4.3170034     9433.957    17079.729    46208.249   -34986.106   -1935.8814   -903.29134   -19416.082    80.453915 
   50900    1747.4366   -113.65724    1.5811173   -112.07612   -40564.062    4.3514061    4.3514061    4.3514061   -40564.062   -74965.275   -4459.0257   -42267.886    9809.9988     11033.02   -7738.3074    82.392719 
   51000    1091.5476   -113.04713   0.98765519   -112.05947   -38628.829    4.3357904    4.3357904    4.3357904   -38628.829   -87406.086   -3473.8263   -25006.575    32427.097   -24962.397    736.76224    81.508864 
   51100    1479.4189   -113.36939    1.3386093   -112.03078    30861.778     4.292003     4.292003     4.292003    30861.778    32021.319    54337.628    6226.3869   -19976.076    2956.0646   -20912.991    79.064232 
   51200    1364.3276   -113.29598    1.2344723   -112.06151    21226.921    4.3000545    4.3000545    4.3000545    21226.921    931.99545    23780.754    38968.015     8141.864    14135.417   -1446.0236    79.510021 
   51300    1102.2532   -113.08113   0.99734188   -112.08379   -29337.402    4.3297677    4.3297677    4.3297677   -29337.402   -65948.468   -15051.612   -7012.1267    31539.229   -19078.303    7065.1619    81.169672 
   51400    1624.2915   -113.53659    1.4696931    -112.0669   -14117.618    4.3298291    4.3298291    4.3298291   -14117.618   -47518.758   -4805.2914    9971.1951   -10488.076   -16131.008   -2780.5619    81.173127 
   51500    1714.5073   -113.62359    1.5513222   -112.07226    18795.906    4.3022109    4.3022109    4.3022109    18795.906    26806.997   -10787.812    40368.533    8562.1634    11895.719   -13882.518      79.6297 
   51600    1931.5178   -113.82904    1.7476779   -112.08137    16062.553    4.2893723    4.2893723    4.2893723    16062.553     2089.374    2263.2358    43835.048    58038.535   -6297.1642    6274.1674    78.918937 
   51700    1940.6349   -113.85761    1.7559272   -112.10168    15912.432     4.314054     4.314054     4.314054    15912.432    22162.546   -5889.8807    31464.629    3739.8878   -6422.2072   -15512.974    80.289124 
   51800    1788.3265   -113.70215    1.6181154   -112.08403   -22038.532    4.3325649    4.3325649    4.3325649   -22038.532    6379.2697   -27427.336   -45067.531    8268.0109    1982.8747    -29410.07    81.327092 
   51900    1909.1585   -113.79433    1.7274468   -112.06688   -29947.201     4.320695     4.320695     4.320695   -29947.201   -71349.132   -18899.226    406.75452    17579.804   -11634.297    10204.827    80.660487 
   52000    1651.1344   -113.55176    1.4939811   -112.05778    6142.3625    4.3053657    4.3053657    4.3053657    6142.3625   -33340.474    19584.503    32183.058   -13932.715   -24494.118   -10397.376    79.805006 
   52100    1131.0097    -113.0989    1.0233614   -112.07554   -2651.0326     4.305689     4.305689     4.305689   -2651.0326   -1842.1675    10648.864   -16759.794    27085.972    13675.686   -46399.307    79.822988 
   52200    1209.0708   -113.18309    1.0939927   -112.08909    3.8696645    4.3122317    4.3122317    4.3122317    3.8696645   -53814.475     5575.043    48251.041     17217.22    9606.4509    4081.0746    80.187421 
   52300     1584.336   -113.51647    1.4335405   -112.08293   -24242.927    4.3223328    4.3223328    4.3223328   -24242.927   -70396.022     6062.864   -8395.6238   -22173.922   -19566.132   -3945.1728    80.752246 
   52400    943.95832   -112.94376   0.85411332   -112.08965   -25531.536    4.3144988    4.3144988    4.3144988   -25531.536   -27688.193   -13235.857   -35670.557    16301.006    8428.0993   -37821.008    80.313966 
   52500    1315.3655    -113.2779    1.1901703   -112.08773    23420.395    4.2987498    4.2987498    4.2987498    23420.395    49014.414    3205.8519    18040.917    25374.668    28508.245   -2733.1019    79.437669 
   52600    2128.2297   -114.01884     1.925667   -112.09317   -10673.155     4.318547     4.318547     4.318547   -10673.155   -7143.8998   -26250.401    1374.8355   -8684.7012    2783.6187   -5781.2027    80.540248 
   52700    1391.5127   -113.35958      1.25907   -112.10051   -38007.374    4.3209985    4.3209985    4.3209985   -38007.374   -3317.5339   -60826.235   -49878.353    1847.6255    4096.9489   -41202.367    80.677486 
   52800    1638.1677   -113.57282    1.4822485   -112.09057    11096.262    4.2859693    4.2859693    4.2859693    11096.262    720.85161    23149.758     9418.177    25693.721    12468.463   -6222.2676    78.731256 
   52900    2029.0581     -113.941    1.8359344   -112.10506     25517.85    4.3029219    4.3029219    4.3029219     25517.85    35582.819    2735.1398    38235.592   -10598.155   -5497.3236    7090.2987    79.669191 
   53000    2061.0055   -113.95509    1.8648411   -112.09025    -30880.95     4.325538     4.325538     4.325538    -30880.95   -3707.0216   -29010.868   -59924.961    6151.5579    177.74225   -45834.241    80.932021 
   53100    1554.2884   -113.49157    1.4063528   -112.08521    31059.117    4.3084126    4.3084126    4.3084126    31059.117    61711.844    3372.4038    28093.105    23545.521      27435.9   -5516.7613    79.974562 
   53200    1596.7793   -113.53048    1.4447995   -112.08568   -12525.935    4.3153902    4.3153902    4.3153902   -12525.935   -25883.447    -4543.166   -7151.1935    921.17924   -505.83623    7929.4035    80.363753 
   53300     1721.997   -113.64863     1.558099   -112.09053   -15110.679    4.3004185    4.3004185    4.3004185   -15110.679    9114.4313   -17568.574   -36877.894   -7836.7003    -17084.96   -26130.328    79.530218 
   53400    1406.1032   -113.37252    1.2722717   -112.10025    42290.665      4.28974      4.28974      4.28974    42290.665    16287.033     81392.59    29192.373   -4407.4952    13167.678   -18725.247    78.939232 
   53500    1442.6164    -113.4137    1.3053097   -112.10839   -17499.439    4.3131372    4.3131372    4.3131372   -17499.439   -32778.842   -5752.5291   -13966.947     17415.68    32799.458    23620.136    80.237947 
   53600    1382.8292   -113.34704    1.2512129   -112.09582    6028.4619    4.3151554    4.3151554    4.3151554    6028.4619   -4828.9689    46764.642   -23850.288    -2607.077   -4495.3506    1914.6533    80.350635 
   53700     1463.123   -113.41882    1.3238644   -112.09495    -4952.056    4.3131962    4.3131962    4.3131962    -4952.056   -1060.7195   -12291.266    -1504.183    -4375.537    3033.0351   -24058.828    80.241244 
   53800    1127.0882   -113.11568    1.0198131   -112.09587    8467.5491    4.3083255    4.3083255    4.3083255    8467.5491     8.133885    38119.432   -12724.919    1471.2154    32957.499    4089.1683    79.969708 
   53900    1760.6415   -113.68655    1.5930654   -112.09349   -75.540216    4.3048013    4.3048013    4.3048013   -75.540216    22056.401    3310.9457   -25593.968    8418.3066   -14200.923    26581.663    79.773627 
   54000    1426.4989   -113.38973    1.2907262     -112.099   -13342.578    4.3139421    4.3139421    4.3139421   -13342.578   -19902.976    4997.4302   -25122.189   -15237.652    7560.7644   -1027.7817    80.282878 
   54100    1361.8763   -113.33247    1.2322543   -112.10022   -27572.504    4.3159101    4.3159101    4.3159101   -27572.504   -30042.558   -1109.9033   -51565.051   -19525.325    28925.934   -12398.727    80.392805 
   54200    1646.0219   -113.58118    1.4893552   -112.09182   -8106.9052    4.3140849    4.3140849    4.3140849   -8106.9052    43990.741   -4715.7373   -63595.719     7977.065   -11525.084    34384.915     80.29085 
   54300    1768.0424   -113.68709    1.5997619   -112.08733    9582.7933    4.3028342    4.3028342    4.3028342    9582.7933    20346.325    1681.3621     6720.693   -4081.9844    8674.9051    10262.301    79.664317 
   54400    1573.5471    -113.5214    1.4237785   -112.09763    4744.4077    4.2965493    4.2965493    4.2965493    4744.4077    2732.9628    28639.807   -17139.547   -17938.938    29455.261   -12407.563    79.315744 
   54500    1437.1489   -113.41307    1.3003625   -112.11271   -1032.7769    4.3181486    4.3181486    4.3181486   -1032.7769    56083.126   -23281.071   -35900.386   -12930.706   -9632.7844    21685.876    80.517957 
   54600    2369.2601   -114.23132    2.1437563   -112.08757   -9797.2573    4.3175993    4.3175993    4.3175993   -9797.2573   -9713.0634   -20096.335    417.62605    16014.257   -5108.5399    11346.013    80.487232 
   54700    1710.7835   -113.63419    1.5479529   -112.08624    36640.689    4.3005562    4.3005562    4.3005562    36640.689    41054.883    57662.959    11204.225   -2994.5111    23161.008   -1802.1059    79.537854 
   54800    1932.3776   -113.84341    1.7484559   -112.09495   -21628.587    4.3053291    4.3053291    4.3053291   -21628.587   -3283.8975   -41870.837   -19731.027   -25048.824   -579.77537   -3013.8399    79.802969 
   54900    1752.3188   -113.68667    1.5855349   -112.10113    16706.073    4.3026576    4.3026576    4.3026576    16706.073    18091.239    12642.234    19384.746    6816.9044    -8128.645    2996.1349    79.654507 
   55000    1717.7269   -113.66541    1.5542354   -112.11118    6331.1511    4.3174843    4.3174843    4.3174843    6331.1511    11752.906    -13703.48    20944.027    17485.145    11340.098    16942.435    80.480806 
   55100    1773.5407   -113.69889    1.6047369   -112.09415   -36531.796    4.3223993    4.3223993    4.3223993   -36531.796    7375.1945     -45213.4   -71757.184   -1267.0393     5810.007   -12229.021    80.755973 
   55200    1064.5948   -113.05434   0.96326772   -112.09107    29432.866    4.2888654    4.2888654    4.2888654    29432.866    77774.473    25902.279   -15378.154    -1626.592   -6438.9077   -18684.041     78.89096 
   55300     1255.768   -113.24609    1.1362453   -112.10984    6928.5423    4.2974415    4.2974415    4.2974415    6928.5423    13994.401   -12856.111    19647.336    27381.908   -15360.437    7596.3322    79.365164 
   55400    1326.1216   -113.30156    1.1999027   -112.10166   -9645.4368     4.322801     4.322801     4.322801   -9645.4368   -21602.742   -27777.352    20443.784    14035.143    7396.2738   -10175.335     80.77849 
   55500     1566.119   -113.51045    1.4170574   -112.09339   -6158.9992    4.3157212    4.3157212    4.3157212   -6158.9992    33174.859   -412.63655    -51239.22   -11670.547    14189.687   -27604.857    80.382245 
   55600    1480.6937   -113.43221    1.3397628   -112.09244    -28217.01    4.3156686    4.3156686    4.3156686    -28217.01   -34092.026   -10086.797   -40472.206    40395.857   -20574.011    319.38582    80.379308 
   55700    1501.9451   -113.45072    1.3589915   -112.09173     6850.656     4.308266     4.308266     4.308266     6850.656   -32783.851    24385.006    28950.813    31582.338   -6017.2747   -4970.4505    79.966395 
   55800    2082.0122   -113.96537    1.8838484   -112.08153    9809.3965    4.3065336    4.3065336    4.3065336    9809.3965    9784.3662   -14621.994    34265.817   -20102.001    5657.8341   -3453.5097     79.86997 
   55900    1308.7685   -113.27921    1.1842012     -112.095   -44980.521    4.3330793    4.3330793    4.3330793   -44980.521   -68455.843   -50041.568   -16444.152    23997.435   -26804.253    3553.1822     81.35606 
   56000    1416.4989   -113.36946     1.281678   -112.08778   -28874.382    4.3160881    4.3160881    4.3160881   -28874.382   -60705.757   -30921.305    5003.9166    36635.902   -26250.751    6189.5876    80.402752 
   56100    1892.2116   -113.78009    1.7121128   -112.06797    53615.207    4.2783265    4.2783265    4.2783265    53615.207    41190.664    41236.748    78418.209     -13103.1    6234.6274   -17605.703    78.310821 
   56200    1060.2014   -113.07653   0.95929252   -112.11724    14588.343    4.3067814    4.3067814    4.3067814    14588.343    23651.845   -19645.383    39758.568    21342.867   -24610.256    1518.3232    79.883759 
   56300    756.69001    -112.7772   0.68466902   -112.09253   -32628.852    4.3398199    4.3398199    4.3398199   -32628.852   -63192.086   -23933.388   -10761.083    41053.542   -31106.885    25108.768    81.736327 
   56400    1999.5578   -113.85299    1.8092419   -112.04374    10888.014    4.3307222    4.3307222    4.3307222    10888.014   -10202.917    52808.496   -9941.5358    138.14389    11829.179   -4075.1873    81.223363 
   56500    1682.2793   -113.57726    1.5221617    -112.0551    -9233.968    4.3235048    4.3235048    4.3235048    -9233.968   -18130.647    12396.125   -21967.382    20474.813    -30972.37    24257.445    80.817949 
   56600    1148.3072   -113.12259    1.0390125   -112.08358   -824.96167    4.3001827    4.3001827    4.3001827   -824.96167   -20871.488    39266.581   -20869.978    12422.966   -23568.635    4836.3211    79.517133 
   56700    2093.4902   -113.98979    1.8942339   -112.09555    29648.078     4.298891     4.298891     4.298891    29648.078    22990.178    29143.013    36811.044    6140.2405    7837.1656    9973.2025    79.445501 
   56800    2078.7061   -113.98207     1.880857   -112.10121    4427.4002    4.3300702    4.3300702    4.3300702    4427.4002   -36291.322    6719.3464    42854.176     16737.07   -4534.5784    5687.7568    81.186683 
   56900    1179.9828   -113.15137    1.0676733   -112.08369   -278.11569    4.3348564    4.3348564    4.3348564   -278.11569   -26508.032    1266.5435    24407.142    28771.256   -24160.623    7756.8649    81.456201 
   57000    1398.9319   -113.30505     1.265783   -112.03927    32110.606    4.3289868    4.3289868    4.3289868    32110.606   -1186.6044    41592.076    55926.348    1722.1791    1700.1627    21759.938    81.125763 
   57100    1078.3705   -113.02251   0.97573228   -112.04677    4207.6388    4.3234445    4.3234445    4.3234445    4207.6388   -21642.084   -9271.3163    43536.316    14449.834   -4878.3867   -14317.533    80.814571 
   57200    639.70337   -112.64301   0.57881705   -112.06419    10113.954    4.3074478    4.3074478    4.3074478    10113.954    11906.212    5639.5167    12796.133    26200.096   -34849.294    11299.799    79.920847 
   57300    1511.6446   -113.45975    1.3677678   -112.09198    24919.086    4.3068559    4.3068559    4.3068559    24919.086    51910.548    30627.145   -7780.4362   -13764.307   -18083.786    16620.463    79.887903 
   57400    1335.9309   -113.30797    1.2087784   -112.09919    33140.006    4.3218285    4.3218285    4.3218285    33140.006    69461.994    40448.999   -10490.976    28072.563   -2393.7115     4428.894    80.723986 
   57500    752.27263   -112.78509   0.68067209   -112.10442   -8898.9303    4.3353447    4.3353447    4.3353447   -8898.9303    2155.1364   -10204.232   -18647.695    20997.076   -32019.352   -7305.8391     81.48373 
   57600    1964.1448   -113.83117    1.7771995   -112.05397    -6598.927    4.3325955    4.3325955    4.3325955    -6598.927   -5022.7153    6440.4888   -21214.554    5822.9695    2931.5914    18855.224    81.328811 
   57700    1812.6302   -113.68285    1.6401059   -112.04275    17411.686     4.321516     4.321516     4.321516    17411.686    8409.0207    55912.992   -12086.954    35827.939    2593.5229    8986.3208    80.706476 
   57800     1753.412   -113.64722     1.586524    -112.0607    -5894.302    4.3247854    4.3247854    4.3247854    -5894.302   -17101.885    4430.8376   -5011.8583    9503.1733    -25007.26    9878.9024    80.889783 
   57900    1963.1209   -113.83469    1.7762731   -112.05842    737.93095     4.322527     4.322527     4.322527    737.93095    6429.8276    30612.688   -34828.722    11035.268    4582.3653    6291.9818    80.763129 
   58000    1740.2096   -113.64213    1.5745782   -112.06755    5841.1557    4.3201734    4.3201734    4.3201734    5841.1557    26935.668     6536.257   -15948.458    40730.845    11038.935    5607.7531    80.631278 
   58100    1713.6993   -113.63023    1.5505911   -112.07963   -19413.206    4.3308193    4.3308193    4.3308193   -19413.206   -27713.405    -11871.28   -18654.932    9469.0893   -26013.128   -2165.6417    81.228829 
   58200    1571.5079   -113.48986    1.4219334   -112.06792    20947.707    4.3179481    4.3179481    4.3179481    20947.707    39595.761    71253.675   -48006.316   -13225.742   -5546.0999     10311.78    80.506745 
   58300    1542.4615   -113.46348    1.3956516   -112.06783   -8978.7021    4.3164554    4.3164554    4.3164554   -8978.7021   -20840.049    25265.408   -31361.465    29725.874    25915.054    1620.6272    80.423281 
   58400    2019.7422   -113.89326    1.8275052   -112.06576   -28765.852    4.3211943    4.3211943    4.3211943   -28765.852   -49964.758   -17588.478    -18744.32    6974.2354   -21262.962   -2659.0903    80.688453 
   58500     1573.819   -113.49464    1.4240245   -112.07062    12315.267    4.3184665    4.3184665    4.3184665    12315.267    19329.381    54728.655   -37112.235   -17010.639    26584.024    11245.362    80.535742 
   58600    1537.9974   -113.46731    1.3916124    -112.0757   -27036.077    4.3322547    4.3322547    4.3322547   -27036.077   -42988.854   -15146.963   -22972.415    15737.357    10736.056    3221.4618     81.30962 
   58700    1843.7377   -113.73577    1.6682526   -112.06752   -16595.287    4.3183916    4.3183916    4.3183916   -16595.287   -46562.608    -4644.543     1421.291    18328.671   -12375.887    1588.9089    80.531552 
   58800    1740.1864   -113.63295    1.5745573    -112.0584    16963.864    4.2982633    4.2982633    4.2982633    16963.864   -20467.125    97855.999   -26497.282   -12683.943    41682.817    3179.2828    79.410703 
   58900     1301.857   -113.26835    1.1779476    -112.0904    1214.5203    4.3230705    4.3230705    4.3230705    1214.5203    31782.855    6303.6283   -34442.922     31039.96    12496.063    3603.7352      80.7936 
   59000    1546.1809   -113.47424     1.399017   -112.07523   -20030.875    4.3330499    4.3330499    4.3330499   -20030.875    12036.342   -31095.249   -41033.717    38804.236   -23604.167   -3331.4017    81.354406 
   59100    1529.0001   -113.45201    1.3834714   -112.06854   -6646.1558    4.3126251    4.3126251    4.3126251   -6646.1558    -2532.297    34560.783   -51966.953   -575.15407    2404.6308   -3055.6641    80.209373 
   59200    1680.4564   -113.59693    1.5205122   -112.07642   -2391.8211    4.3020823    4.3020823    4.3020823   -2391.8211    20179.514    18879.596   -46234.573    14468.339    8661.6877    3343.0287    79.622562 
   59300    1782.0485   -113.70626    1.6124349   -112.09382    1509.8252     4.312341     4.312341     4.312341    1509.8252    48069.562   -23876.744   -19663.342      19197.5   -10986.796   -8430.6631     80.19352 
   59400    1529.0609   -113.47976    1.3835264   -112.09623   -4571.2356    4.3221576    4.3221576    4.3221576   -4571.2356   -1391.2076    43719.342   -56041.841    -13940.35    7617.1362   -1514.4165    80.742428 
   59500    1470.2498   -113.41831    1.3303129   -112.08799    1831.4824    4.3128961    4.3128961    4.3128961    1831.4824    24189.922    23410.627   -42106.102    22355.171    10247.188    3285.6364    80.224494 
   59600    2137.9187   -114.02045    1.9344338   -112.08602   -7819.3663    4.3087675    4.3087675    4.3087675   -7819.3663   -19872.148   -6672.5868     3086.636    27069.603   -9197.6867   -1624.4148    79.994325 
   59700     1692.009   -113.62052    1.5309653   -112.08956    2206.3667    4.3112118    4.3112118    4.3112118    2206.3667     3776.736    24102.396   -21260.032   -5398.7945    14702.024   -2365.2643    80.130542 
   59800    985.17318   -112.99149    0.8914054   -112.10008    105.97878     4.317742     4.317742     4.317742    105.97878    331.25154    46318.393   -46331.709   -679.58876      13274.9    8588.3816    80.495216 
   59900    1826.8648   -113.74148    1.6529857   -112.08849    1527.0796      4.32316      4.32316      4.32316    1527.0796    25613.819     12963.36   -33995.941    93.747606   -15118.993    15742.279    80.798617 
   60000    1853.8555   -113.76165    1.6774075   -112.08424    7816.4013    4.3177048    4.3177048    4.3177048    7816.4013    20862.675    39066.939    -36480.41    15160.477    17139.694    5126.9611    80.493136 
   60100    1332.2374   -113.29913    1.2054364   -112.09369   -11787.903    4.3083312    4.3083312    4.3083312   -11787.903   -35779.377    55699.914   -55284.244   -18949.017   -3660.1992   -8291.1801    79.970026 
   60200    1913.3689   -113.81776    1.7312564    -112.0865    12918.842     4.303206     4.303206     4.303206    12918.842    54989.621    37597.558   -53830.655    1454.4813   -24352.946    2157.7105    79.684972 
   60300    1627.4589   -113.57401     1.472559   -112.10145    16754.221    4.3260963    4.3260963    4.3260963    16754.221    59003.687    57108.736   -65849.759    23180.738    17466.384   -433.73565    80.963365 
   60400      1093.57   -113.07719   0.98948512   -112.08771   -21063.249    4.3390387    4.3390387    4.3390387   -21063.249   -25368.188    64018.232   -101839.79    271.69563   -5490.0711    488.10604    81.692198 
   60500    1604.1224    -113.5037    1.4514436   -112.05225    10244.771     4.327767     4.327767     4.327767    10244.771    11383.607     67244.52   -47893.813   -1003.5429   -16057.318   -2463.7555    81.057201 
   60600    1456.7216    -113.3712    1.3180724   -112.05312    18605.596    4.3162303    4.3162303    4.3162303    18605.596     2253.886    97902.219   -44339.317    16342.869    28038.708    8252.4015    80.410697 
   60700    1567.1368    -113.4972    1.4179784   -112.07922   -20679.704    4.3212436    4.3212436    4.3212436   -20679.704   -14970.397    24475.373   -71544.088   -18053.122   -46153.072   -2753.4449    80.691213 
   60800    1877.4416   -113.79219    1.6987486   -112.09344   -5224.7558    4.3441982    4.3441982    4.3441982   -5224.7558    58675.436   -33657.777   -40691.926   -612.41041   -6713.3008    6475.8662    81.983958 
   60900    1537.7393   -113.46847    1.3913788   -112.07709   -12770.381    4.3422817    4.3422817    4.3422817   -12770.381   -9292.6847    50975.288   -79993.747   -5463.3861    7910.1357  -0.21736694    81.875502 
   61000    1453.5767    -113.3775    1.3152267   -112.06227    2446.0142     4.314955     4.314955     4.314955    2446.0142    57285.322     38580.13   -88527.409   -20443.851   -25752.613   -5471.0107    80.339443 
   61100    1957.8118   -113.83968    1.7714693   -112.06821    26343.578    4.3151493    4.3151493    4.3151493    26343.578    44440.877    85060.908   -50471.053    6171.3456    3652.0595   -480.17875    80.350296 
   61200    1430.6722    -113.3812    1.2945023    -112.0867    19885.373    4.3236811    4.3236811    4.3236811    19885.373    100238.32    47912.435   -88494.634    22391.887   -14215.754     4166.511    80.827838 
   61300    1226.5774   -113.21033     1.109833    -112.1005   -4516.5323    4.3370262    4.3370262    4.3370262   -4516.5323    538.09297    81580.374   -95668.064   -7587.3546   -20653.505    538.26917    81.578581 
   61400    1931.1589   -113.83525    1.7473532    -112.0879   -15471.384    4.3295865    4.3295865    4.3295865   -15471.384    29728.016   -15555.133   -60587.034    19519.528    9007.9428    11678.459    81.159484 
   61500    1615.9904   -113.54437    1.4621821   -112.08219    11436.257    4.3055657    4.3055657    4.3055657    11436.257    40633.057    25437.049   -31761.333    16682.015   -25759.299    5097.5224    79.816131 
   61600    1115.2937   -113.12114    1.0091412     -112.112     -6832.93    4.3219563    4.3219563    4.3219563     -6832.93   -22537.229    91260.657   -89222.218    9070.0769    7925.0653   -1351.7741    80.731146 
   61700    2268.1849   -114.15629    2.0523014   -112.10399    -24530.64    4.3323628    4.3323628    4.3323628    -24530.64   -26852.747    5073.6624   -51812.836   -27281.893    16111.841    11270.858    81.315708 
   61800    1426.4721   -113.39512    1.2907019   -112.10442    10388.959    4.3349776    4.3349776    4.3349776    10388.959     26684.76    78167.702   -73685.585    10417.904   -18415.277   -214.39278    81.463033 
   61900    1276.0216   -113.25571    1.1545711   -112.10114   -45872.023     4.329847     4.329847     4.329847   -45872.023    -64648.73    25001.302   -97968.642    14334.697    23235.177   -2266.9669    81.174131 
   62000     1605.566   -113.53468    1.4527499   -112.08193     43420.31     4.304371     4.304371     4.304371     43420.31    84988.051    93507.246   -48234.368   -3320.7262    4810.4834    7267.7718    79.749706 
   62100    2126.7163   -114.03482    1.9242976   -112.11052   -11329.879    4.3251117    4.3251117    4.3251117   -11329.879    6876.0812    36818.459   -77684.176    4851.8945   -7421.8127   -1194.9661    80.908096 
   62200    813.05659   -112.84354   0.73567069   -112.10787   -24778.788    4.3512254    4.3512254    4.3512254   -24778.788    25873.258    8293.2911   -108502.91    14660.232     16892.99   -5220.4823    82.382456 
   62300    2010.6463   -113.90573     1.819275   -112.08646   -11484.328    4.3349691    4.3349691    4.3349691   -11484.328    46630.498   -13286.354   -67797.128    11818.422   -4161.6701    7130.9191    81.462553 
   62400    2725.3509   -114.54902    2.4659548   -112.08306    17131.361     4.301129     4.301129     4.301129    17131.361    17356.382    50038.834   -16001.132   -23504.632    1861.3628    10506.643    79.569641 
   62500    1705.0497   -113.65291    1.5427648   -112.11015    53495.725    4.2905125    4.2905125    4.2905125    53495.725    104791.89    76296.723   -20601.437    10117.681    11041.136    -6795.693    78.981888 
   62600    1213.6198   -113.25094    1.0981087   -112.15284   -30945.939    4.3275357    4.3275357    4.3275357   -30945.939   -21325.535    12805.039   -84317.322   -3313.6254   -3816.1548   -3440.9234    81.044209 
   62700    1340.1859    -113.3382    1.2126284   -112.12557   -39939.903    4.3348211    4.3348211    4.3348211   -39939.903     3523.549   -18569.554    -104773.7    7631.8492   -2465.9601    2091.3157    81.454209 
   62800    1963.2068   -113.87823    1.7763508   -112.10188    26809.597    4.3021648    4.3021648    4.3021648    26809.597    55154.993    72196.257    -46922.46    6495.1499    5848.6638    5486.0276    79.627142 
   62900    2161.0291   -114.06291    1.9553446   -112.10757    8785.3689    4.2948269    4.2948269    4.2948269    8785.3689    1291.0297    71771.882   -46706.805   -17505.663   -4647.8053    498.77554    79.220392 
   63000    913.28099   -112.98669   0.82635583   -112.16033   -25119.088    4.3216644    4.3216644    4.3216644   -25119.088    30438.695    5784.4905   -111580.45    22693.028   -5227.2478   -7299.7121    80.714789 
   63100    851.28785   -112.90984   0.77026314   -112.13958   -31437.155    4.3349206    4.3349206    4.3349206   -31437.155    26159.744   -19856.853   -100614.36   -29464.318    7599.3577   -9752.0791     81.45982 
   63200    1888.4097   -113.82261    1.7086728   -112.11394    21291.814    4.3032371    4.3032371    4.3032371    21291.814   -8285.0387    76502.765   -4342.2829    3536.5439     8873.057   -3104.6305    79.686695 
   63300    2223.4073   -114.12088    2.0117856   -112.10909    19314.649    4.2892934    4.2892934    4.2892934    19314.649     23728.08    52791.716    -18575.85   -6041.4524   -14202.461    5283.4125    78.914585 
   63400    1244.1157   -113.27632     1.125702   -112.15062    20125.569    4.3164958    4.3164958    4.3164958    20125.569    13895.241    98580.248   -52098.781    15365.815   -6788.0841   -7057.9106    80.425535 
   63500    1134.4821   -113.14504    1.0265032   -112.11854   -51169.716    4.3513414    4.3513414    4.3513414   -51169.716   -50001.886    -48671.32   -54835.943   -39256.732    8013.3323   -12124.802    82.389044 
   63600    2032.3923   -113.92943    1.8389512   -112.09048   -15993.135    4.3187237    4.3187237    4.3187237   -15993.135   -18595.707   -18306.434   -11077.265   -26620.038    2501.0998    -2978.419    80.550132 
   63700    2030.0433   -113.91136    1.8368258   -112.07453    14736.915    4.2838489    4.2838489    4.2838489    14736.915    15718.168    45526.806    -17034.23    9868.3756    12589.329    6408.1453    78.614461 
   63800    1211.3509   -113.21366    1.0960558   -112.11761    5434.9966    4.2951852    4.2951852    4.2951852    5434.9966    12454.986    21670.442   -17820.439   -31518.129     8857.447   -6020.7061    79.240221 
   63900    1235.8401   -113.24986    1.1182141   -112.13165   -8653.9958    4.3312156    4.3312156    4.3312156   -8653.9958   -8451.0111    16328.489   -33839.465   -28995.878   -10868.464    -547.6007    81.251129 
   64000    1966.1674   -113.87908    1.7790296   -112.10005   -25758.933    4.3362164    4.3362164    4.3362164   -25758.933   -15377.562   -13749.097   -48150.139    35862.256    1428.0042    1164.2665     81.53289 
   64100    1616.6321   -113.55741    1.4627627   -112.09465    37668.161    4.2890043    4.2890043    4.2890043    37668.161    39523.246    79620.877   -6139.6406   -2123.5882    17222.879   -6001.5863    78.898626 
   64200    871.35815   -112.90469   0.78842316   -112.11627    12479.701    4.2850941    4.2850941    4.2850941    12479.701    23428.275   -306.50331    14317.333   -35877.709     266.3715     960.9305    78.683033 
   64300    1490.8873   -113.46816    1.3489862   -112.11918   -39114.361    4.3231165    4.3231165    4.3231165   -39114.361   -23719.447   -46907.438   -46716.198     13344.39   -8962.3426    222.98778    80.796179 
   64400    1837.9127   -113.74955     1.662982   -112.08657    8577.6238    4.3320969    4.3320969    4.3320969    8577.6238    38062.865    41025.699   -53355.692   -4054.7851     13931.74   -3833.2931    81.300736 
   64500    1717.3458   -113.63517    1.5538906   -112.08128   -29707.509    4.3272709    4.3272709    4.3272709   -29707.509   -42242.193    7266.8228   -54147.156   -20200.399   -6606.6599    286.18029    81.029331 
   64600    1432.8641   -113.38945    1.2964856   -112.09297    21021.443    4.2978275    4.2978275    4.2978275    21021.443    15803.271    61987.039   -14725.982   -20601.165   -21151.273   -5626.3705    79.386551 
   64700    2025.7042   -113.93996    1.8328997   -112.10706    23376.086    4.2965649    4.2965649    4.2965649    23376.086    62951.288    24985.057   -17808.087    1925.3125    12816.164    112.76435    79.316608 
   64800    1748.7462   -113.69409    1.5823023   -112.11178   -30122.503    4.3229692    4.3229692    4.3229692   -30122.503   -33178.179    11400.423   -68589.751    11878.823   -21044.093    9541.8103    80.787918 
   64900    1345.5415   -113.32476    1.2174742   -112.10728   -1804.0097    4.3126896    4.3126896    4.3126896   -1804.0097   -22677.032    50086.595   -32821.593   -27852.502   -33882.843   -1654.3378    80.212971 
   65000    2040.0724   -113.94801    1.8459004   -112.10211    2056.1523    4.3011626    4.3011626    4.3011626    2056.1523    28436.888    -22399.25    130.81932   -2516.8453    11631.843    12817.207    79.571504 
   65100     1807.745   -113.74647    1.6356857   -112.11078    11015.886     4.300836     4.300836     4.300836    11015.886    49474.182    18150.709   -34577.233   -972.43983   -9217.7656   -6596.9619    79.553383 
   65200    1351.3713   -113.34684    1.2227492   -112.12409    -10101.56    4.3116596    4.3116596    4.3116596    -10101.56    -10219.95    29825.489   -49910.219    3449.6416    -25777.03   -1100.4745    80.155516 
   65300    1002.8854    -113.0241   0.90743179   -112.11667   -41510.283    4.3256809    4.3256809    4.3256809   -41510.283   -47219.197   -29191.041   -48120.612   -41752.916    3200.8775    7224.9175    80.940046 
   65400    1482.4769   -113.44332    1.3413763   -112.10194   -11999.718    4.3047593    4.3047593    4.3047593   -11999.718    31999.273   -26423.963   -41574.463    192.37647    3430.2402    393.21185    79.771293 
   65500     1912.462   -113.82504    1.7304358    -112.0946    17017.077    4.2967911    4.2967911    4.2967911    17017.077    48682.303    50228.959   -47860.031    9717.7367    3465.8439   -2579.6713    79.329134 
   65600    1408.1415   -113.38333     1.274116   -112.10921   -11003.454    4.3141975    4.3141975    4.3141975   -11003.454   -3627.2268   -18127.955    -11255.18   -31611.069    5580.2693    5400.7346    80.297141 
   65700    882.21926   -112.91231   0.79825053   -112.11406   -5661.7294    4.3158187    4.3158187    4.3158187   -5661.7294    22322.537   -19817.907   -19489.818    16865.771    1277.7509   -4463.6853    80.387698 
   65800    1782.1298   -113.71933    1.6125085   -112.10682   -12286.788    4.3184525    4.3184525    4.3184525   -12286.788    9036.5819   -7241.0291   -38655.918    31461.327   -12107.807   -43.492853    80.534957 
   65900    2238.1454   -114.12044     2.025121   -112.09532    12292.919    4.3042871    4.3042871    4.3042871    12292.919    37014.125    6128.7189   -6264.0858   -18595.649    8462.9468   -1111.2844    79.745045 
   66000    1575.8451   -113.53345    1.4258578    -112.1076    7804.2965    4.3036271    4.3036271    4.3036271    7804.2965    10989.418   -14241.953    26665.425    6550.7598    17774.781   -19094.868    79.708363 
   66100    1268.4235   -113.25691    1.1476963   -112.10921   -30714.388    4.3230996    4.3230996    4.3230996   -30714.388   -51255.053   -27610.043   -13278.067    41879.794   -12327.798   -414.00947    80.795232 
   66200    2225.4333   -114.10761    2.0136189   -112.09399   -6674.7797    4.3144814    4.3144814    4.3144814   -6674.7797    -2487.241    14314.891   -31851.989   -20650.777    -32167.85    4408.2187     80.31299 
   66300    1800.8885    -113.7234    1.6294817   -112.09392     6279.879    4.3158161    4.3158161    4.3158161     6279.879    16122.834   -17172.369    19889.172    34466.031    12537.055   -900.42587    80.387552 
   66400    1947.8568   -113.85813    1.7624618   -112.09566   -502.41093    4.3082311    4.3082311    4.3082311   -502.41093    5333.5149   -32156.353    25315.605    39117.265    3050.0954    1890.5427    79.964451 
   66500    1443.1799   -113.41746    1.3058195   -112.11164    11322.424    4.3070586    4.3070586    4.3070586    11322.424    29412.321    31794.957   -27240.008   -10848.057   -20276.393   -5514.1679    79.899185 
   66600    1254.0341   -113.25105    1.1346764   -112.11638    -22638.94    4.3204793    4.3204793    4.3204793    -22638.94   -30401.831    12162.522   -49677.512    9207.6058    14069.569   -11400.578    80.648403 
   66700     1723.528   -113.65452    1.5594844   -112.09504    13859.024    4.3115445    4.3115445    4.3115445    13859.024    60577.906    1513.9566    -20514.79   -6473.7024    5294.9292   -8561.2076    80.149096 
   66800    1347.2476    -113.3183    1.2190179   -112.09928   -3942.6404    4.3157673    4.3157673    4.3157673   -3942.6404    5451.8919    44662.537   -61942.351   -1727.8992   -2597.3688    5733.8691    80.384823 
   66900    1005.2686   -113.01191   0.90958819   -112.10232   -31308.217     4.315222     4.315222     4.315222   -31308.217   -63761.886    47466.146    -77628.91    429.98611    29488.938   -1781.3323    80.354358 
   67000    1466.0482    -113.4212    1.3265112   -112.09469    21052.196    4.3067021    4.3067021    4.3067021    21052.196    44872.044    78809.975   -60525.431   -6451.1038    6872.6149   -3390.3571    79.879343 
   67100    1960.1423   -113.88136    1.7735779   -112.10779   -19179.412     4.329956     4.329956     4.329956   -19179.412    24798.266   -8791.1513   -73545.351    15845.462    5121.1844    7032.2646     81.18026 
   67200    1576.7388   -113.51985    1.4266664   -112.09318    -14673.52    4.3261509    4.3261509    4.3261509    -14673.52   -9006.3339    25324.357   -60338.584   -12557.402    26924.265    2576.9873    80.966433 
   67300    1658.0337   -113.57685    1.5002237   -112.07663    31775.188    4.2944689    4.2944689    4.2944689    31775.188    34004.795    77268.952   -15948.181   -21642.183   -3196.1126    10984.394    79.200585 
   67400    1921.6237   -113.84348    1.7387255   -112.10475   -21264.417    4.3111748    4.3111748    4.3111748   -21264.417    25239.447   -37769.613   -51263.086    463.67405   -14376.501    1679.3642    80.128476 
   67500    1879.3151   -113.79193    1.7004438   -112.09149   -30912.227    4.3312031    4.3312031    4.3312031   -30912.227   -15545.054   -10694.891   -66496.734   -5547.3501    4976.0688   -17799.802    81.250427 
   67600    1664.3127   -113.58852    1.5059051   -112.08262    -38904.78    4.3252265    4.3252265    4.3252265    -38904.78   -76189.588     1287.664   -41812.417   -27343.605   -13449.786    7331.5553     80.91454 
   67700     835.6799   -112.84025   0.75614074   -112.08411   -9300.7807    4.3124098    4.3124098    4.3124098   -9300.7807   -13034.729    41795.631   -56663.245   -13290.883   -18483.713    22231.738    80.197362 
   67800    1777.7173   -113.69024    1.6085159   -112.08172    5458.8113     4.306785     4.306785     4.306785    5458.8113    34530.309    16504.841   -34658.716    24318.384    8643.6206    3088.5869     79.88396 
   67900    1455.9126   -113.42223    1.3173403   -112.10489   -7439.4606    4.3280636    4.3280636    4.3280636   -7439.4606   -23758.993    46487.676   -45047.065   -20677.143   -13951.916   -5055.5694    81.073869 
   68000    1561.0326   -113.51868    1.4124551   -112.10622   -8549.7826    4.3181766    4.3181766    4.3181766   -8549.7826     17118.67    949.81039   -43717.828    -12662.31   -13941.172    17818.503    80.519524 
   68100    1571.1336   -113.51591    1.4215947   -112.09431    30083.213    4.2971389    4.2971389    4.2971389    30083.213    55084.294    50320.462   -15155.116    11709.787    12290.283   -7463.5301    79.348401 
   68200     1505.458   -113.47562      1.36217   -112.11345    3645.6284    4.3109226    4.3109226    4.3109226    3645.6284   -12144.662    25202.903    -2121.356   -14169.403    3890.5601   -4412.8787    80.114415 
   68300    2111.5696    -114.0118    1.9105926   -112.10121    6317.6026    4.3222395    4.3222395    4.3222395    6317.6026    11565.665   -475.36628    7862.5086   -17437.618    2800.5366   -5860.4248    80.747014 
   68400    1962.9227   -113.86622    1.7760937   -112.09013    10499.943    4.3297013    4.3297013    4.3297013    10499.943   -12404.764    28850.241    15054.352    5020.5317   -1744.0867    16451.777    81.165935 
   68500    1454.3896   -113.41591    1.3159622   -112.09995   -23476.862    4.3182657    4.3182657    4.3182657   -23476.862   -9891.9481   -34522.234   -26016.403   -6433.4295    17269.717   -2100.9351    80.524509 
   68600    1490.8287   -113.43897    1.3489332   -112.09004     35422.66    4.2957328    4.2957328    4.2957328     35422.66     40630.53    40354.347    25283.105   -35872.739    15372.371   -7924.1253    79.270531 
   68700    2347.1552   -114.22185    2.1237553   -112.09809    8824.2091     4.319988     4.319988     4.319988    8824.2091    12707.253     2237.575    11527.799    1979.6678   -22331.819    3464.5656    80.620894 
   68800    1604.9865   -113.54421    1.4522255   -112.09199   -34438.264    4.3375277    4.3375277    4.3375277   -34438.264   -40035.712   -5474.4193    -57804.66   -2356.6303    15396.235   -8673.6583     81.60688 
   68900    800.60755   -112.80664   0.72440654   -112.08224    6438.7945    4.3157671    4.3157671    4.3157671    6438.7945    69807.461   -2457.2891   -48033.788   -33250.133    10679.543   -11962.684    80.384811 
   69000    1723.0416   -113.63967    1.5590442   -112.08062    21323.869    4.3062819    4.3062819    4.3062819    21323.869    57299.071    20957.513   -14284.977    6941.6428    2252.7773    -2604.085    79.855965 
   69100    1791.7497   -113.72331    1.6212128   -112.10209    10895.355    4.3165574    4.3165574    4.3165574    10895.355     35309.11    22292.556   -24915.602   -11165.506    2546.4584   -3191.9952    80.428979 
   69200    960.29577   -112.98039   0.86889579    -112.1115   -27253.951    4.3344736    4.3344736    4.3344736   -27253.951   -32798.933    13200.305   -62163.226   -23504.621    10005.534   -13407.021    81.434621 
   69300    1581.0965   -113.51917    1.4306093   -112.08856   -8002.8639     4.320595     4.320595     4.320595   -8002.8639    22104.876   -1517.2625   -44596.205    4166.1008   -20102.645   -7674.6365    80.654885 
   69400    2284.5804   -114.14445    2.0671363   -112.07731    8725.6332    4.3029715    4.3029715    4.3029715    8725.6332    11952.213    11627.102    2597.5845    6830.1408   -11411.672    14217.985    79.671943 
   69500    1751.3617   -113.68194    1.5846689   -112.09727   -1860.2106    4.3118822    4.3118822    4.3118822   -1860.2106   -23841.078    917.16825    17343.278   -39274.732    4645.3432   -15382.978    80.167928 
   69600    1478.1305    -113.4403    1.3374436   -112.10285   -18947.332    4.3211866    4.3211866    4.3211866   -18947.332    6512.3491    -46918.01   -16436.334   -11094.686    -6705.796   -25845.359    80.688023 
   69700    1696.4261   -113.62801     1.534962   -112.09304   -14705.093    4.3232703    4.3232703    4.3232703   -14705.093   -1958.0126   -24635.696   -17521.569     6934.874   -10396.871    7500.2924    80.804804 
   69800    2028.9868    -113.9242    1.8358699   -112.08833   -10279.728    4.3174286    4.3174286    4.3174286   -10279.728   -40195.796   -486.65198     9843.263    -40923.85    8305.3997    7100.7708    80.477687 
   69900    1565.7266   -113.50561    1.4167023   -112.08891    18353.737    4.3022446    4.3022446    4.3022446    18353.737    47675.847   -11940.417    19325.781    5422.5738   -26094.088   -16133.133     79.63157 
   70000    1435.7459   -113.40423     1.299093   -112.10514   -15989.071    4.3123535    4.3123535    4.3123535   -15989.071    17592.079    -20603.16   -44956.131   -5422.5554   -12491.317   -15513.683    80.194217 
   70100    1406.7147   -113.37365     1.272825   -112.10082   -9013.5856    4.3241419    4.3241419    4.3241419   -9013.5856   -42521.107   -12677.734    28158.084   -19191.111    12729.955    17926.321    80.853683 
   70200    1579.5449   -113.51775    1.4292054   -112.08855   -8339.5575    4.3193126    4.3193126    4.3193126   -8339.5575    3940.8912    12251.144   -41210.707    -4285.779    17175.022   -25054.341    80.583087 
   70300    1341.4481   -113.30383    1.2137704   -112.09006    -7255.418    4.3131331    4.3131331    4.3131331    -7255.418    28285.735   -20255.348   -29796.641    -4141.093   -16933.733   -25853.299     80.23772 
   70400    1621.3754   -113.56243    1.4670545   -112.09538   -21355.672    4.3111266    4.3111266    4.3111266   -21355.672   -11791.833   -3451.4521   -48823.731    1198.9842    14714.265    12670.667    80.125793 
   70500    1286.3703   -113.26772    1.1639349   -112.10379    5649.0971    4.3081491    4.3081491    4.3081491    5649.0971    6808.4012    47522.627   -37383.737     6229.798    20504.619   -5532.0182    79.959886 
   70600    1544.5798   -113.50541    1.3975682   -112.10785   -3108.8762    4.3217339    4.3217339    4.3217339   -3108.8762    20836.333   -27938.974   -2223.9879    7160.7478   -9403.1959    -53151.25    80.718682 
   70700    1864.0362   -113.76967    1.6866191   -112.08305    -26722.91    4.3372195    4.3372195    4.3372195    -26722.91   -51486.789    -36802.21    8120.2691     6639.666    10408.308    18783.894    81.589489 
   70800    1794.3946   -113.69593     1.623606   -112.07232   -3285.5678    4.3118054    4.3118054    4.3118054   -3285.5678   -39631.546    30994.491    -1219.648   -2097.6703    20131.112   -14510.457    80.163645 
   70900    1703.4901   -113.62122    1.5413536   -112.07987    5227.4671    4.3057388    4.3057388    4.3057388    5227.4671    8933.7412   -3143.4685    9892.1286   -3339.1413    2094.1163   -51967.322    79.825757 
   71000    1745.3131   -113.66931     1.579196   -112.09012   -9218.7343    4.3256506    4.3256506    4.3256506   -9218.7343   -14922.565    -14533.64    1800.0013    7681.6505    -3648.131    32706.422    80.938341 
   71100    1523.2401    -113.4649    1.3782596   -112.08664    14622.725    4.3155285    4.3155285    4.3155285    14622.725   -32950.741    28127.135    48691.779    3435.3063    10738.247    13725.648    80.371483 
   71200    1452.4897   -113.40458    1.3142432   -112.09034    -878.2458    4.3174503    4.3174503    4.3174503    -878.2458    4228.1071   -14432.705    7569.8609    -8704.681    4081.6755   -34163.814    80.478901 
   71300    1590.5889   -113.52127    1.4391982   -112.08207   -24005.581    4.3230511    4.3230511    4.3230511   -24005.581   -6799.3016   -18320.207   -46897.234    6531.4423    -15070.56    3071.8727    80.792514 
   71400    1552.3102   -113.48864    1.4045629   -112.08408   -10411.556    4.3053972    4.3053972    4.3053972   -10411.556   -21484.085     23182.82   -32933.403    13483.824    24947.632    18812.888    79.806756 
   71500    1603.0458   -113.55242    1.4504696   -112.10196     13954.22    4.3127187    4.3127187    4.3127187     13954.22    9208.8842    7649.9595    25003.817    10690.362    11730.483   -33287.731    80.214594 
   71600    1873.7257    -113.7852    1.6953864   -112.08982   -40021.647    4.3373294    4.3373294    4.3373294   -40021.647   -14094.646    -55215.02   -50755.275   -8211.3089    963.41271    -3708.545    81.595691 
   71700    1089.2966   -113.06902   0.98561845    -112.0834   -41714.496    4.3304818    4.3304818    4.3304818   -41714.496   -31778.672   -8468.4954   -84896.319    1072.0999    26999.685    40000.246    81.209837 
   71800    1834.4792    -113.7371    1.6598753   -112.07723    10428.765    4.2991827    4.2991827    4.2991827    10428.765   -8963.9759    39924.299    325.97063    9958.3307    2714.4578    -879.0566    79.461671 
   71900     2044.207   -113.92775    1.8496414   -112.07811    46067.252       4.2838       4.2838       4.2838    46067.252    32143.628    59137.658     46920.47   -17545.282    3888.1239   -1069.3451    78.611768 
   72000    1227.0108    -113.2441    1.1102252   -112.13387   -24311.033    4.3186397    4.3186397    4.3186397   -24311.033   -11160.206    9328.6241   -71101.517   -14741.952    20605.564    43247.483    80.545434 
   72100    1657.7423   -113.58734      1.49996   -112.08738    -50060.92    4.3419034    4.3419034    4.3419034    -50060.92   -42300.477   -38963.875   -68918.409    11481.992   -4388.8594    17582.197    81.854106 
   72200    2178.7033   -114.03164    1.9713365   -112.06031    11541.878    4.3106775    4.3106775    4.3106775    11541.878    17320.666     15164.61    2140.3593   -2294.5729   -6752.6001   -13345.539    80.100756 
   72300    1427.3592   -113.36295    1.2915046   -112.07144    6661.7209     4.297556     4.297556     4.297556    6661.7209    87867.841   -20141.392   -47741.286   -15977.905    14618.832    47836.029    79.371507 
   72400    1312.5218    -113.2691    1.1875973    -112.0815    986.46392    4.3097174    4.3097174    4.3097174    986.46392    64203.846   -34151.328   -27093.127   -2084.3895    12764.933    24150.007    80.047242 
   72500    1611.7216   -113.54238    1.4583196   -112.08406   -7541.8663    4.3253427    4.3253427    4.3253427   -7541.8663    41670.367   -43139.038   -21156.928    15337.584   -7375.9231    -29226.81    80.921059 
   72600    879.03235   -112.88737   0.79536694     -112.092   -37550.224    4.3303762    4.3303762    4.3303762   -37550.224    15169.805    -88400.71   -39419.766   -12006.477    4206.2075    22750.293    81.203899 
   72700    981.15704   -112.98347   0.88777151    -112.0957   -6201.3938    4.3003213    4.3003213    4.3003213   -6201.3938    41897.533   -57784.416   -2717.2991   -22366.322    27522.905    32105.958    79.524824 
   72800    1986.8892   -113.89501    1.7977791   -112.09723    42890.382    4.2863118    4.2863118    4.2863118    42890.382    69492.408    35016.634    24162.105    18078.226    1163.4433   -24437.289    78.750131 
   72900    1670.1979     -113.632    1.5112302   -112.12077   -5630.1806    4.3179844    4.3179844    4.3179844   -5630.1806    5923.6227    -56874.74    34060.575    2626.7082   -2189.6911    3189.7768    80.508774 
   73000    1088.3938   -113.08759   0.98480155   -112.10279   -14858.367    4.3401882    4.3401882    4.3401882   -14858.367   -18104.535   -60723.109    34252.543   -16179.017    22016.003    22021.406    81.757138 
   73100    2215.7835   -114.06406    2.0048875   -112.05918   -8176.2001    4.3332979    4.3332979    4.3332979   -8176.2001   -4163.6304   -3622.0157   -16742.954   -13841.539    8371.4124   -1844.2215    81.368375 
   73200    2349.7781   -114.19459    2.1261286   -112.06846    25893.686    4.2940721    4.2940721    4.2940721    25893.686    26336.824    21130.349    30213.884   -4651.6657   -24553.042    9964.6598    79.178635 
   73300    955.36467   -112.96178   0.86443403   -112.09735    44305.869    4.2750231    4.2750231    4.2750231    44305.869    76907.553    22984.004     33026.05    -17624.17    36830.671    19937.593    78.129565 
   73400    1424.4302   -113.43338    1.2888544   -112.14452   -6693.4609    4.3223568    4.3223568    4.3223568   -6693.4609   -12847.945    11301.978   -18534.416   -6954.3152     18638.22    -12536.49    80.753591 
   73500    2081.8182   -113.95677    1.8836729    -112.0731   -24551.593     4.347937     4.347937     4.347937   -24551.593    18373.069   -54058.844   -37969.005   -4468.3054    2613.1357   -4109.9377    82.195821 
   73600    1314.1421   -113.25319    1.1890634   -112.06412   -17925.666    4.3132183    4.3132183    4.3132183   -17925.666   -8433.9787   -56414.926    11071.907   -36377.679    31652.832    25653.417    80.242476 
   73700    1090.1172   -113.04851   0.98636096   -112.06215    21152.947    4.2872956    4.2872956    4.2872956    21152.947    92294.456   -24119.166   -4716.4496   -6808.2232    13823.999   -1780.0125    78.804368 
   73800     2241.777   -114.12424    2.0284069   -112.09583    3891.0279    4.3009525    4.3009525    4.3009525    3891.0279    20900.176   -29518.025    20290.933    19166.483    -24150.72   -22533.703    79.559848 
   73900    1398.3189   -113.38245    1.2652283   -112.11722   -16903.559    4.3278472    4.3278472    4.3278472   -16903.559    2426.2553   -54464.519    1327.5879   -22598.161    15877.159    8483.5184    81.061712 
   74000    1045.2742    -113.0559   0.94578604   -112.11011   -20697.097    4.3205537    4.3205537    4.3205537   -20697.097     32639.58   -60327.097   -34403.774   -19680.357    47926.907   -1786.3871    80.652571 
   74100    1849.2716   -113.76012    1.6732598   -112.08686      10189.3    4.3024146    4.3024146    4.3024146      10189.3     81166.81   -56345.883    5746.9726    14564.386   -1604.4331   -25952.857    79.641015 
   74200    2183.4762   -114.06331    1.9756552   -112.08766    7457.9673    4.3055522    4.3055522    4.3055522    7457.9673   -6475.5956   -21522.093     50371.59   -4582.1374     20968.07    10943.092    79.815378 
   74300    1767.5616   -113.70359    1.5993269   -112.10426   -3688.8307    4.3145962    4.3145962    4.3145962   -3688.8307   -34940.939   -12439.448    36313.896   -27808.236    25487.372   -4177.0709    80.319405 
   74400    1567.1751   -113.52087     1.418013   -112.10286    938.66377     4.316092     4.316092     4.316092    938.66377   -13838.589   -65309.089    81963.669    27856.882   -12083.445   -22039.635     80.40297 
   74500    2174.2202   -114.06052    1.9672801   -112.09324   -21752.434    4.3182193    4.3182193    4.3182193   -21752.434   -24514.448   -55545.355    14802.501    16724.666   -3594.8026   -8781.5454    80.521911 
   74600    1592.5644   -113.53548    1.4409857   -112.09449    20802.067    4.3088274    4.3088274    4.3088274    20802.067   -16808.299   -8365.3879    87579.888   -5259.6632    13179.771    19099.782    79.997664 
   74700    1303.1481   -113.27983    1.1791157   -112.10071   -478.43649    4.3079366    4.3079366    4.3079366   -478.43649   -22673.274   -30807.489    52045.454    41810.676   -3466.4295   -20395.031    79.948058 
   74800    1697.8442   -113.62776    1.5362451   -112.09151   -7403.5548    4.3087972    4.3087972    4.3087972   -7403.5548    35200.913   -52198.423   -5213.1543    2275.7938   -4357.2702   -5482.1578     79.99598 
   74900    1451.0869    -113.4061    1.3129739   -112.09313   -25512.844    4.3077251    4.3077251    4.3077251   -25512.844   -30138.565   -18274.348   -28125.618    1988.1244    25773.154    22338.162    79.936281 
   75000    1010.7183   -113.01179   0.91451915   -112.09727   -5721.9265    4.3045638    4.3045638    4.3045638   -5721.9265   -41343.775   -23718.098    47896.093    39151.077     18757.83   -14169.385     79.76042 
   75100    2007.4946   -113.90397    1.8164233   -112.08755    7941.7322     4.292179     4.292179     4.292179    7941.7322    10482.538   -11762.098    25104.757   -7335.8902    3433.7123   -12587.909     79.07396 
   75200    1204.5073   -113.20606    1.0898635   -112.11619    14598.126    4.2964669    4.2964669    4.2964669    14598.126    11739.102    15020.712    17034.564   -1104.8268    4609.8069    20384.437    79.311178 
   75300    775.98425   -112.82764   0.70212686   -112.12552   -36371.092    4.3169532    4.3169532    4.3169532   -36371.092   -66640.819   -42961.693     489.2362    43178.933    36161.727    12383.901    80.451104 
   75400    1947.6759   -113.85645    1.7622981   -112.09415   -8403.4217    4.3154854    4.3154854    4.3154854   -8403.4217   -83.784549   -17174.694   -7951.7863    656.81639    355.59132   -547.70565    80.369072 
   75500    1871.4689   -113.78041    1.6933444   -112.08706   -16456.787    4.3050807    4.3050807    4.3050807   -16456.787    245.29925   -36979.397   -12636.263   -6927.6239    -7428.316   -745.65695    79.789162 
   75600    916.93144   -112.92816   0.82965884    -112.0985   -9156.9422    4.2977324    4.2977324    4.2977324   -9156.9422   -23307.861   -15833.291    11670.325    44751.036    22460.749    12395.409    79.381283 
   75700    1739.0935   -113.67827    1.5735683    -112.1047    9688.8957    4.3093105    4.3093105    4.3093105    9688.8957     49922.28    -12095.49   -8760.1031    1295.8796    18432.405   -10919.218    80.024573 
   75800    2233.2857   -114.10913    2.0207238   -112.08841   -24086.601    4.3201542    4.3201542    4.3201542   -24086.601   -16408.351   -33043.885   -22807.568    2894.9276   -17753.289   -11953.177      80.6302 
   75900     1364.044    -113.3225    1.2342157   -112.08828    10261.739    4.2985817    4.2985817    4.2985817    10261.739   -809.35769   -17716.386    49310.962    47807.676    2441.4862    8044.1122    79.428352 
   76000    1459.3871   -113.41926    1.3204841   -112.09877   -9842.6152    4.3095147    4.3095147    4.3095147   -9842.6152    7356.8867   -8396.2916   -28488.441    9225.8058    23911.075   -8955.8457    80.035951 
   76100    2030.7788   -113.91245    1.8374913   -112.07496   -20782.466     4.315919     4.315919     4.315919   -20782.466   -10708.215   -24236.648   -27402.535    1415.5202   -2213.6067   -9950.3483    80.393302 
   76200    1583.1646   -113.50519    1.4324806   -112.07271    17011.591    4.2973984    4.2973984    4.2973984    17011.591    19128.028   -14495.559    46402.306    40339.407    2540.0733   -2682.3606    79.362778 
   76300     1235.445   -113.21413    1.1178566   -112.09627   -34945.874     4.311475     4.311475     4.311475   -34945.874    -63485.62    -23022.04   -18329.963    8234.0799     36021.65    3050.2067     80.14522 
   76400    1894.4899   -113.80546    1.7141742   -112.09128   -14823.585     4.307811     4.307811     4.307811   -14823.585    6901.6046   -23705.179    -27667.18   -11264.252    7809.9298   -16523.622    79.941063 
   76500    2002.7789    -113.8969    1.8121565   -112.08474    18984.446    4.2987645    4.2987645    4.2987645    18984.446   -3665.8355   -16976.695    77595.868    26234.007    10135.052   -3764.0306    79.438487 
   76600    1476.8862   -113.43285    1.3363177   -112.09653   -37836.514    4.3146958    4.3146958    4.3146958   -37836.514    -59065.59   -7995.2601   -46448.691    14399.733    49570.966    12622.486    80.324967 
   76700    2008.5349   -113.90344    1.8173646   -112.08607   -10779.163    4.3051204    4.3051204    4.3051204   -10779.163    28146.378   -36531.479   -23952.389   -7252.7096   -8507.8588   -6422.3702    79.791367 
   76800    1825.5698   -113.73539    1.6518139   -112.08357    14856.319     4.303387     4.303387     4.303387    14856.319    23968.977    -27358.91    47958.891   -6494.8115    5843.5373   -6090.3805    79.695023 
   76900    1751.4741   -113.67283    1.5847706   -112.08806   -22580.534    4.3145843    4.3145843    4.3145843   -22580.534   -38059.728   -833.50563   -28848.369    1540.7566    57617.843    9196.0559    80.318738 
   77000    1893.0154   -113.79209    1.7128401   -112.07925    23364.635    4.3020741    4.3020741    4.3020741    23364.635    49333.343    7248.7015     13511.86   -8913.9358   -1295.1949    6567.8061    79.622103 
   77100    1298.2014   -113.26774    1.1746399    -112.0931    10571.395     4.303023     4.303023     4.303023    10571.395    22771.458   -6697.4714    15640.198   -21247.274    1000.9997   -9234.1744    79.674806 
   77200    1271.8289   -113.24804    1.1507775   -112.09726   -22218.094    4.3183429    4.3183429    4.3183429   -22218.094   -54289.687    27285.905   -39650.499    -8688.027    41818.849   -1147.8685    80.528825 
   77300    1660.2066   -113.58038    1.5021898   -112.07819    21833.449    4.3135551    4.3135551    4.3135551    21833.449   -5935.9956    41733.174    29703.169    13393.627   -5808.1184    21255.992    80.261277 
   77400    1129.7669    -113.1095    1.0222369   -112.08726    3234.3504     4.306045     4.306045     4.306045    3234.3504   -6051.5432    28260.149   -12505.554    519.16039    16617.205   -2741.6367    79.842787 
   77500     740.2771   -112.76736   0.66981828   -112.09755   -15387.738      4.31237      4.31237      4.31237   -15387.738   -64044.161    38315.489   -20434.542   -12329.035    42507.712    6631.3886    80.195139 
   77600    1834.5755   -113.73867    1.6599625   -112.07871    5948.2334    4.3174311    4.3174311    4.3174311    5948.2334   -32355.833    26364.507    23836.026     24416.83   -23953.547    7371.5731    80.477829 
   77700    1406.1742   -113.35068    1.2723359   -112.07834   -21867.473    4.3239124    4.3239124    4.3239124   -21867.473   -51646.961    17319.261   -31274.719   -4679.4372    49488.826    19039.896    80.840812 
   77800     1246.517   -113.19859    1.1278748   -112.07072   -18917.524    4.3181781    4.3181781    4.3181781   -18917.524   -43069.077    4554.0119   -18237.506   -5835.4737    31284.931    -11977.17    80.519608 
   77900    2124.5758   -113.97899    1.9223609   -112.05663   -1750.9185    4.3039267    4.3039267    4.3039267   -1750.9185   -18377.256   -7612.7459    20737.247    11230.275   -29188.014    3954.1958    79.725014 
   78000    1374.5182    -113.3238    1.2436929   -112.08011    1382.9209    4.2996893    4.2996893    4.2996893    1382.9209   -40921.433    53637.169    -8566.974    2406.1861    69813.699    3646.5572    79.489766 
   78100    2074.3235   -113.95859    1.8768915    -112.0817   -18220.921    4.3104169    4.3104169    4.3104169   -18220.921   -32381.544    6511.8983   -28793.118   -24941.291    12794.961    10429.124    80.086224 
   78200    1545.6716   -113.48056    1.3985562   -112.08201   -4814.5742    4.3212223    4.3212223    4.3212223   -4814.5742   -50410.972    12958.897    23008.352    12951.681   -4309.1733   -6123.4595    80.690022 
   78300    1434.9554    -113.3804    1.2983778   -112.08202   -22363.297    4.3188242    4.3188242    4.3188242   -22363.297   -69599.732    24416.519   -21906.678   -970.67588    72011.029   -11820.235    80.555753 
   78400    2581.5646   -114.39592    2.3358539   -112.06006     19999.22    4.2984749    4.2984749    4.2984749     19999.22     22528.72    25872.405    11596.536    1444.4233   -2895.8158   -15598.334    79.422435 
   78500    1389.7355   -113.34663    1.2574618   -112.08917    29154.029     4.298489     4.298489     4.298489    29154.029    8892.4728    36859.897    41709.716    8743.8756    11770.383   -11532.493    79.423212 
   78600    1251.3063   -113.23307    1.1322082   -112.10086    -40291.91    4.3175846    4.3175846    4.3175846    -40291.91   -60547.882   -4068.1981   -56259.649    18460.189    54550.247    14129.083     80.48641 
   78700     2089.834   -113.97198    1.8909257   -112.08106    8536.0799     4.309633     4.309633     4.309633    8536.0799    9046.5476   -15098.236    31659.928    3857.3651   -21436.647     15175.09     80.04254 
   78800    1143.0341    -113.1214    1.0342413   -112.08716    10486.544    4.3052295    4.3052295    4.3052295    10486.544    -1683.042    75751.405    -42608.73   -9621.6838    40835.867   -13364.098    79.797433 
   78900    1388.9387   -113.35505    1.2567409   -112.09831   -26185.986    4.3066467    4.3066467    4.3066467   -26185.986   -8808.6873    5577.9258   -75327.197    584.41005    48042.108   -7813.2768    79.876263 
   79000    1908.7755   -113.81375    1.7271002   -112.08665    22997.407    4.3081249    4.3081249    4.3081249    22997.407    13547.909    36807.912    18636.399    13539.094   -27978.784   -2076.5009     79.95854 
   79100    906.68672   -112.91712    0.8203892   -112.09673   -6771.6541    4.3204184    4.3204184    4.3204184   -6771.6541   -15093.872    36952.584   -42173.674    -5299.695    43204.954    -3439.115    80.644994 
   79200    1619.2565   -113.54522    1.4651373   -112.08008    -30324.84    4.3156962    4.3156962    4.3156962    -30324.84   -22612.405   -19455.576   -48906.538   -2147.4638    25896.082   -13808.628    80.380852 
   79300    2062.2015   -113.92039    1.8659232   -112.05446     35248.12    4.2977835    4.2977835    4.2977835     35248.12    29799.043    47295.319    28649.997    2367.3856   -10962.483   -75.790022    79.384112 
   79400    916.06086   -112.92127   0.82887112    -112.0924   -16729.647    4.3082531    4.3082531    4.3082531   -16729.647   -46719.356    52452.139   -55921.724    6365.7753    55903.488     115.6795    79.965681 
   79500    1440.3784    -113.3861    1.3032847   -112.08281   -11393.754    4.3128493    4.3128493    4.3128493   -11393.754   -280.67639    655.33987   -34555.926   -14782.543    3075.0717    8156.2773    80.221882 
   79600    1956.0028   -113.84221    1.7698325   -112.07238    7758.7873    4.3048534    4.3048534    4.3048534    7758.7873   -6626.1493      24883.8    5018.7116   -22481.365    3620.7037    9730.2836    79.776521 
   79700    1183.9239   -113.16324    1.0712392     -112.092    -20747.43    4.3089626    4.3089626    4.3089626    -20747.43   -24014.102    17978.449   -56206.636    4565.2885    55349.697   -7791.8769    80.005194 
   79800    1785.5366   -113.70116     1.615591   -112.08557    6219.7549    4.3023535    4.3023535    4.3023535    6219.7549    49006.985   -6257.6455   -24090.075   -9435.2429   -3155.4922   -16047.195    79.637618 
   79900    1545.6778   -113.48641    1.3985617   -112.08785    17251.162    4.3083766    4.3083766    4.3083766    17251.162    11855.051    28768.988    11129.446   -8605.1561    9563.6594    2458.3032    79.972558 
   80000     1169.123   -113.13997     1.057847   -112.08213   -24436.248    4.3197427    4.3197427    4.3197427   -24436.248   -25677.876     21167.66   -68798.528    3641.1776    53838.587    4385.9281    80.607161 
   80100    1929.7069    -113.8102    1.7460394   -112.06416    954.96024    4.3031003    4.3031003    4.3031003    954.96024    42405.881   -14550.839   -24990.161   -1028.2031   -33416.068   -11227.462    79.679096 
   80200    1808.2284   -113.70319    1.6361231   -112.06707    285.17018    4.3012772    4.3012772    4.3012772    285.17018   -13437.636    31160.372   -16867.225   -7486.3363    22100.432     7546.887    79.577865 
   80300    1003.1596   -112.99389   0.90767992   -112.08621   -9659.1621    4.3110112    4.3110112    4.3110112   -9659.1621   -37660.866    45836.062   -37152.683    5224.1755    53293.907   -764.00469    80.119358 
   80400    1815.6613   -113.71818    1.6428485   -112.07533   -2129.8791      4.31143      4.31143      4.31143   -2129.8791    9631.4058   -6730.0102    -9291.033    7236.3594   -36606.177    -20218.91     80.14271 
   80500    1811.6184   -113.71245    1.6391904   -112.07325   -17288.583    4.3122866    4.3122866    4.3122866   -17288.583   -49694.434    22213.642   -24384.957    1565.7511    32007.799   -1511.8557    80.190484 
   80600    1352.0533   -113.30592    1.2233662   -112.08256   -873.34417    4.3061671    4.3061671    4.3061671   -873.34417   -33205.609    45444.999   -14859.423   -9258.4609    62442.407    18308.433     79.84958 
   80700    2083.5459    -113.9666    1.8852361   -112.08136    7321.7078    4.3057949    4.3057949    4.3057949    7321.7078    4581.5879    8812.6299    8570.9055    6088.8964   -35605.959   -1169.1061    79.828879 
   80800    1716.2115   -113.64734    1.5528643   -112.09447   -10013.333    4.3092361    4.3092361    4.3092361   -10013.333   -49337.247    34940.785   -15643.538    8927.2319    34660.133   -11004.509    80.020429 
   80900    1522.9392   -113.47524    1.3779874   -112.09725    12317.237    4.3114519    4.3114519    4.3114519    12317.237   -45238.935    44384.755    37805.891   -8470.5901    44983.531    5718.7357    80.143931 
   81000    2249.6886   -114.11141    2.0355655   -112.07585    16590.603    4.3162098    4.3162098    4.3162098    16590.603     27777.61   -881.45849    22875.657   -11779.051   -21645.773    21727.676    80.409554 
   81100    1253.2968    -113.2187    1.1340093   -112.08469    8034.9025    4.3120877    4.3120877    4.3120877    8034.9025   -51800.737    69867.244    6038.2003    10304.095    64619.158   -5947.7588    80.179391 
   81200    1593.4951   -113.51852    1.4418278    -112.0767   -21920.508    4.3171813    4.3171813    4.3171813   -21920.508   -41568.866   -6332.4392   -17860.218   -12418.135    29065.761   -2001.9016    80.463862 
   81300    1555.5732    -113.4766    1.4075153   -112.06908    9406.7784    4.3090195    4.3090195    4.3090195    9406.7784    12467.115    4025.1446    11728.076   -4085.5325   -2221.6039   -933.35904    80.008361 
   81400    1474.1094   -113.40833    1.3338052   -112.07453   -21405.441    4.3116209    4.3116209    4.3116209   -21405.441   -36053.278    34919.049   -63082.094    -4646.202    59968.807   -9035.8037    80.153355 
   81500    1829.6965   -113.71604    1.6555479    -112.0605   -24690.468    4.3264077    4.3264077    4.3264077   -24690.468   -16889.259   -28341.429   -28840.717   -440.06466    -3063.826   -5429.1717    80.980851 
   81600    1051.5262    -113.0129   0.95144304   -112.06145   -25093.948    4.3231684    4.3231684    4.3231684   -25093.948    -26804.78    -37242.42   -11234.644    3703.3513    18101.141   -6530.0182    80.799087 
   81700     1567.963   -113.47746    1.4187259   -112.05873    7436.4658    4.3097004    4.3097004    4.3097004    7436.4658   -26179.696     84767.44   -36278.347   -3137.5671    33761.693    1895.5023    80.046298 
   81800    2366.3091    -114.2046    2.1410862   -112.06351    15916.177    4.2930736    4.2930736    4.2930736    15916.177    21236.557    17821.812    8690.1624    13514.611    -21068.69   -4550.8547     79.12341 
   81900    1386.8076   -113.36126    1.2548127   -112.10645    11605.406    4.2987935    4.2987935    4.2987935    11605.406   -37258.785    74754.308   -2679.3041   -14504.216    22235.405   -24.336013    79.440097 
   82000    1849.7917   -113.77779    1.6737304   -112.10406   -38241.396    4.3285921    4.3285921    4.3285921   -38241.396    -59655.42    5722.5956   -60791.365    5777.0985    42181.322    10485.281    81.103572 
   82100    2116.7165    -113.9845    1.9152496   -112.06925   -873.97206    4.3230303    4.3230303    4.3230303   -873.97206    3048.4552    28708.862   -34379.233   -701.97683    -16417.02    -3909.486    80.791347 
   82200    1486.4756    -113.4057    1.3449944   -112.06071   -10851.788    4.3147535    4.3147535    4.3147535   -10851.788    -40584.48    41696.365   -33667.249   -15549.911     25286.87     886.7067    80.328189 
   82300    2005.1185   -113.86046    1.8142733   -112.04619   -13230.645    4.3185912    4.3185912    4.3185912   -13230.645   -13000.962    25707.687    -52398.66    4901.7633    12479.758     3709.263    80.542717 
   82400    1766.4705    -113.6497    1.5983396   -112.05136     -5776.49     4.311391     4.311391     4.311391     -5776.49     18546.06    5205.5222   -41081.052   -8326.3338   -16031.491    4441.4481    80.140532 
   82500    916.96177   -112.90826   0.82968628   -112.07857   -42352.209    4.3184326    4.3184326    4.3184326   -42352.209   -39797.653   -11771.498   -75487.475   -18814.128    27285.296     890.3603    80.533844 
   82600    1957.8916    -113.8454    1.7715415   -112.07386   -11940.663    4.3215855    4.3215855    4.3215855   -11940.663   -11660.507    28666.174   -52827.655   -2943.3255    6104.5203    7127.2661    80.710369 
   82700    2011.3359   -113.88822     1.819899   -112.06832     14781.38    4.3129653    4.3129653    4.3129653     14781.38    42301.674    32538.865     -30496.4    4641.8174   -10133.391    6421.7831    80.228358 
   82800    1222.3109   -113.19334    1.1059726   -112.08737   -35484.073    4.3253025    4.3253025    4.3253025   -35484.073   -11182.392   -20766.498    -74503.33   -12861.271    21090.833    3186.6269    80.918806 
   82900    2307.0796   -114.15101    2.0874941   -112.06352   -21474.319    4.3249551    4.3249551    4.3249551   -21474.319    4878.0768   -18116.932   -51184.102    10705.117    2271.5729    8167.7338    80.899308 
   83000     2001.044    -113.8591    1.8105866   -112.04851    19251.513     4.310918     4.310918     4.310918    19251.513    44236.077    22998.219   -9479.7568   -11867.969    1089.3282    3033.6293    80.114158 
   83100    1467.2964   -113.39083    1.3276406   -112.06319    -28982.32    4.3230457    4.3230457    4.3230457    -28982.32   -46917.965   -7500.0846   -32528.911   -24009.293     20252.68     1753.764    80.792211 
   83200    2199.0485   -114.03306    1.9897453   -112.04332   -14065.503    4.3304749    4.3304749    4.3304749   -14065.503    696.66775   -8448.4316   -34444.744     3341.834   -17065.943    8227.9536    81.209449 
   83300    1600.9164    -113.4921    1.4485428   -112.04355    -27425.14    4.3263584    4.3263584    4.3263584    -27425.14   -44089.785      -8868.4   -29317.235   -6958.2174    10695.769    13867.373    80.978081 
   83400    1235.3105    -113.1727    1.1177349   -112.05497   -11424.983    4.3147518    4.3147518    4.3147518   -11424.983   -35003.228    6195.8963   -5467.6163   -18554.505    9381.1392    4783.5514    80.328093 
   83500     2502.786   -114.31123    2.2645733   -112.04666    15724.547    4.3047835    4.3047835    4.3047835    15724.547    36702.264    12084.299   -1612.9226    703.40625   -16479.422    1213.5307    79.772637 
   83600    1152.5331   -113.13224    1.0428362    -112.0894   -9971.1508    4.3160613    4.3160613    4.3160613   -9971.1508    -28299.17    16750.042   -18364.324    1666.2849    17305.646    18537.239     80.40125 
   83700    1116.5363    -113.1021    1.0102655   -112.09184   -22252.578    4.3243673    4.3243673    4.3243673   -22252.578   -32299.481   -5328.6665   -29129.585   -6890.9834     2364.085    16762.146     80.86633 
   83800    2183.3122    -114.0439    1.9755068   -112.06839    693.18649     4.318122     4.318122     4.318122    693.18649    27262.942    11451.373   -36634.755    8435.7069    1807.7169   -324.20647    80.516467 
   83900    1709.5057   -113.62285    1.5467967   -112.07605    -2772.353    4.3072898    4.3072898    4.3072898    -2772.353   -38967.887    39585.827   -8934.9998   -16820.232    16066.043   -6524.1281     79.91205 
   84000    1532.3164   -113.47162    1.3864721   -112.08514    12660.267    4.3101103    4.3101103    4.3101103    12660.267    7247.7533    22300.781    8432.2662   -8312.5901    10959.632    11551.917    80.069137 
   84100    2190.1077   -114.05895    1.9816554   -112.07729    -23999.94    4.3191883    4.3191883    4.3191883    -23999.94    -7587.133   -25194.103   -39218.584    11753.304   -6175.2177   -21385.697     80.57613 
   84200    1092.2516   -113.07923   0.98829221   -112.09094    4200.7088    4.3071661    4.3071661    4.3071661    4200.7088   -15120.115    54196.608   -26474.367   -17036.572    5890.4222   -19417.996    79.905169 
   84300    1294.3081   -113.26349    1.1711172   -112.09237    28561.311    4.3102771    4.3102771    4.3102771    28561.311    55748.548    14898.262    15037.122   -11907.507    27313.682    12062.366    80.078435 
   84400    2114.8123   -113.99021    1.9135266   -112.07668   -18967.134    4.3250017    4.3250017    4.3250017   -18967.134    23759.515   -38498.999   -42161.919    365.41574   -13063.402   -20395.573    80.901926 
   84500    1100.4498   -113.08559   0.99571014   -112.08988    16171.117    4.2999478    4.2999478    4.2999478    16171.117    1546.0909    61395.295   -14428.034    2731.7839   -10365.342   -17300.924    79.504107 
   84600    1611.2208   -113.55638    1.4578664   -112.09851   -1708.4395    4.2982793    4.2982793    4.2982793   -1708.4395    8687.8416    -1680.142   -12133.018   -19547.313    18794.286   -1410.6194    79.411593 
   84700     2247.091   -114.12204    2.0332152   -112.08882    -17446.25    4.3231497    4.3231497    4.3231497    -17446.25    36165.082    -27079.92   -61423.911    6726.9821     15101.69    19366.351    80.798041 
   84800    1715.1915   -113.62905    1.5519413   -112.07711    190.78027    4.3208162    4.3208162    4.3208162    190.78027    18434.248    24513.888   -42375.795    5294.0834   -17855.428   -8256.2071    80.667272 
   84900    1599.0237   -113.52208    1.4468302   -112.07525    -12041.33    4.3173351    4.3173351    4.3173351    -12041.33    1863.0709    -9782.695   -28204.366   -23013.927    622.26565    1544.1597     80.47246 
   85000    1898.4909   -113.79275    1.7177944   -112.07496   -2888.9967    4.3076919    4.3076919    4.3076919   -2888.9967    3882.3755    6409.8875   -18959.253   -246.40738    5001.5611    38502.006    79.934435 
   85100    1344.6733   -113.30251    1.2166887   -112.08582    21425.945    4.2967497    4.2967497    4.2967497    21425.945    3089.5911    81655.581   -20467.338   -48.673396     -12993.3   -1451.8409     79.32684 
   85200     1383.505   -113.35698    1.2518244   -112.10515   -14571.544    4.3179696    4.3179696    4.3179696   -14571.544   -42950.527    27251.764   -28015.869   -32654.082    5097.9805   -5421.4307    80.507942 
   85300    1787.2486   -113.69899    1.6171401   -112.08185    4584.4479    4.3262444    4.3262444    4.3262444    4584.4479    18829.953    21032.448   -26109.057   -249.64475    5591.7005    28069.043    80.971682 
   85400    1366.7556   -113.32182    1.2366692   -112.08515   -37258.145    4.3159202    4.3159202    4.3159202   -37258.145   -45801.618   -27582.296   -38390.521    4341.6683   -26661.963    12224.323    80.393367 
   85500    1361.3376   -113.31642    1.2317669   -112.08466   -483.81675    4.2959525    4.2959525    4.2959525   -483.81675   -16518.479    24083.408   -9016.3797   -27183.264   -4085.8986   -393.65121    79.282694 
   85600    1804.3316   -113.73164    1.6325972   -112.09904    32398.285    4.3081308    4.3081308    4.3081308    32398.285    24636.178    52245.372    20313.305   -2791.5549    -578.8821   -1974.6729     79.95887 
   85700     1113.823    -113.1101    1.0078104   -112.10229   -3752.8904    4.3286793    4.3286793    4.3286793   -3752.8904   -38199.397     66381.23   -39440.504    13938.479   -30209.493   -1291.9343    81.108474 
   85800    1429.9192   -113.37601    1.2938209   -112.08218   -17559.968     4.319618     4.319618     4.319618   -17559.968    -9790.356   -2106.9048   -40782.643   -12338.783   -5995.1426   -8541.4982     80.60018 
   85900     1858.443   -113.75487    1.6815583   -112.07331    2851.7689    4.3049465    4.3049465    4.3049465    2851.7689     41052.64   -15887.558   -16609.775   -7863.5598    4378.9507   -37726.688    79.781701 
   86000    1296.9483   -113.26214    1.1735061   -112.08864   -9841.1272    4.3150354    4.3150354    4.3150354   -9841.1272    16917.703   -15704.457   -30736.627    2037.4376   -31714.748   -6037.3241    80.343933 
   86100    1733.9862   -113.64928    1.5689472   -112.08033   -28334.258    4.3333254    4.3333254    4.3333254   -28334.258   -14740.453   -29984.276   -40278.046    4832.9635    8497.0268   -1109.2395    81.369921 
   86200    2063.4654   -113.92708    1.8670669   -112.06002    2202.1113    4.3250323    4.3250323    4.3250323    2202.1113    39828.499   -1291.7933   -31930.372   -23681.801   -3632.7214   -34962.196    80.903639 
   86300    1542.8112   -113.46156     1.395968   -112.06559   -2625.2701    4.3027825    4.3027825    4.3027825   -2625.2701   -39951.151    68106.948   -36031.607    11908.473   -28083.648   -3871.2235    79.661446 
   86400    1597.8207   -113.52785    1.4457418   -112.08211    13601.431    4.2945937    4.2945937    4.2945937    13601.431   -7700.1423    53778.944   -5274.5095    17329.077    11401.796    389.78619    79.207491 
   86500    1999.1666   -113.90251    1.8088879   -112.09362     25968.42    4.3138767    4.3138767    4.3138767     25968.42    40232.046     48683.74   -11010.525   -4548.5674    3048.1616   -16966.888    80.279227 
   86600    1817.5147   -113.73587    1.6445255   -112.09134   -4965.9846    4.3314823    4.3314823    4.3314823   -4965.9846   -14427.042    24135.724   -24606.636    63.147729   -25054.993   -9472.6272    81.266142 
   86700    1577.9933    -113.4978    1.4278015      -112.07   -1285.6529    4.3303051    4.3303051    4.3303051   -1285.6529    119.44514      44261.2   -48237.603    21545.701    4330.4663    20247.381      81.1999 
   86800    1833.7849   -113.72135    1.6592471    -112.0621    11110.538    4.3053406    4.3053406    4.3053406    11110.538    30493.626    17430.194   -14592.207   -19332.838    8533.3139   -1697.9933    79.803609 
   86900    1603.6468   -113.52671    1.4510133    -112.0757    11934.551    4.2899174    4.2899174    4.2899174    11934.551     7170.834    34048.355   -5415.5367   -47784.876   -6832.8015   -25858.061    78.949026 
   87000    1770.6803   -113.70866    1.6021487   -112.10651   -3138.5183    4.3138561    4.3138561    4.3138561   -3138.5183    9494.7409    10350.521   -29260.817    14471.293    7849.9377    22529.159    80.278079 
   87100    1776.5703   -113.69433    1.6074781   -112.08685   -24026.583    4.3279641    4.3279641    4.3279641   -24026.583    2964.1475   -47369.151   -27674.745   -3127.3767    3044.8631    15279.823    81.068278 
   87200    1210.5902   -113.17627    1.0953674    -112.0809    15209.119    4.3119798    4.3119798    4.3119798    15209.119    12613.566    16923.807    16089.983   -37350.382    -5455.935   -12786.647    80.173371 
   87300    1841.3433   -113.74677    1.6660861   -112.08069   -4484.7388    4.3069034    4.3069034    4.3069034   -4484.7388    7166.5897    633.52676   -21254.333    9244.0231   -4383.3946    4177.8652    79.890544 
   87400    1701.1167   -113.62989    1.5392061   -112.09069    19934.119    4.2966433    4.2966433    4.2966433    19934.119    34485.158     16569.21    8747.9904   -8746.0044    6694.7301    15997.071    79.320949 
   87500    1420.1454   -113.39722    1.2849774   -112.11224    28455.914    4.3101475    4.3101475    4.3101475    28455.914    67204.308   -2495.2964    20658.732   -33205.072   -13278.457    2801.2544     80.07121 
   87600     1552.511   -113.49617    1.4047446   -112.09143    -33436.97    4.3359671    4.3359671    4.3359671    -33436.97   -30921.463   -17310.735   -52078.712    18410.004   -26079.951    -6803.003    81.518829 
   87700    1252.6576   -113.22768     1.133431   -112.09425   -4316.1274    4.3068745    4.3068745    4.3068745   -4316.1274   -8314.7645    31610.814   -36244.432    6593.8068    8841.9529    18750.764    79.888941 
   87800      1671.34   -113.58894    1.5122636   -112.07667    39767.164    4.2783711    4.2783711    4.2783711    39767.164    55062.346     24648.45    39590.698   -20565.772     7521.502    25118.277    78.313269 
   87900    1749.8135   -113.69507     1.583268    -112.1118   -2358.6913    4.3039364    4.3039364    4.3039364   -2358.6913     8952.803    3409.9014   -19438.778   -12633.928   -29693.461   -8294.1568    79.725553 
   88000    958.55694    -112.9834   0.86732247   -112.11608    12605.978    4.3305507    4.3305507    4.3305507    12605.978    62931.229    21582.423   -46695.718    14543.322    9872.6362     15084.77    81.213713 
   88100    1533.4548   -113.47181    1.3875022   -112.08431    12929.736    4.3376418    4.3376418    4.3376418    12929.736    54641.981   -23305.457    7452.6854    6107.8201    27482.334    15298.738    81.613322 
   88200    2266.7296   -114.12775    2.0509845   -112.07677    9530.2942    4.3081167    4.3081167    4.3081167    9530.2942    41253.343   -8056.5747   -4605.8852    -5011.187   -28745.012   -16670.346    79.958085 
   88300    1812.5017    -113.7194    1.6399896   -112.07941    30070.642    4.2763174    4.2763174    4.2763174    30070.642    35200.523    48437.719    6573.6833   -343.48976   -17283.653    7549.0728    78.200549 
   88400    1438.1779   -113.42759    1.3012936   -112.12629   -14175.084    4.3027987    4.3027987    4.3027987   -14175.084    3188.8942   -25931.182   -19782.963    17466.332    31541.025    14948.771    79.662347 
   88500    1518.0686   -113.48116    1.3735804   -112.10758   -34739.025    4.3405264    4.3405264    4.3405264   -34739.025    23323.589   -87238.077   -40302.587   -2934.3689    4966.4279   -47653.617    81.776254 
   88600    1970.4932   -113.85247    1.7829436   -112.06953    988.49241    4.3264856    4.3264856    4.3264856    988.49241   -4464.8151   -2301.3754    9731.6677    3053.1246   -7555.8142   -14549.614    80.985224 
   88700    1187.1119   -113.14181    1.0741238   -112.06768     3069.272    4.3083351    4.3083351    4.3083351     3069.272   -52550.741    19704.154    42054.403    5948.4891    36116.909    14618.767    79.970246 
   88800    1300.8985   -113.25545    1.1770803   -112.07837   -12906.569    4.3074485    4.3074485    4.3074485   -12906.569    1736.5569   -25064.083    -15392.18     683.0809   -3171.3408   -37045.607    79.920886 
   88900    1557.8082   -113.49973    1.4095376   -112.09019    10001.567     4.313603     4.313603     4.313603    10001.567    40132.747    26856.345   -36984.392    13487.725   -7859.4626   -23357.178     80.26395 
   89000    1537.5459   -113.48362    1.3912039   -112.09241   -8530.1615    4.3227078    4.3227078    4.3227078   -8530.1615   -27249.502    30074.223   -28415.205   -1089.6069    12842.029    15646.112    80.773263 
   89100    1677.4038   -113.59783    1.5177502   -112.08008   -25172.334    4.3167468    4.3167468    4.3167468   -25172.334    9724.2628   -34345.571   -50895.694   -5481.6142    3398.3477    3014.2827    80.439565 
   89200    994.75153    -112.9832   0.90007209   -112.08312    26928.769    4.3002873    4.3002873    4.3002873    26928.769    74127.283    2982.2539    3676.7709    16239.429   -32610.606   -5543.0934    79.522937 
   89300    1448.1522   -113.41186    1.3103186   -112.10154    14972.837    4.3073373    4.3073373    4.3073373    14972.837    4749.2815    17868.189     22301.04    2648.7189   -17415.962    7975.9386    79.914693 
   89400    1442.0652   -113.39594    1.3048109   -112.09113   -24186.318    4.3296098    4.3296098    4.3296098   -24186.318    29153.266   -63527.712   -38184.508   -8477.2959    12188.446    39143.123    81.160793 
   89500    1658.8564   -113.57258    1.5009681   -112.07161   -7142.9107    4.3196482    4.3196482    4.3196482   -7142.9107    3447.1193   -32405.476    7529.6242    13030.036    -4929.904   -13971.268    80.601876 
   89600    1578.4875   -113.49363    1.4282487   -112.06538   -5624.6198     4.313747     4.313747     4.313747   -5624.6198   -30459.552   -24582.382    38168.075    14823.722   -13464.664    19046.789    80.271985 
   89700     1419.071   -113.35339    1.2840053   -112.06939   -9420.7428    4.3144646    4.3144646    4.3144646   -9420.7428    2816.0959    -17643.78   -13434.544    18.225925    17806.189    54199.107    80.312056 
   89800     2082.919   -113.95581    1.8846688   -112.07114   -6423.9541    4.3085718    4.3085718    4.3085718   -6423.9541   -22150.917    6983.9703   -4104.9159   -5877.0629    20878.402   -17498.801    79.983428 
   89900    1507.4412    -113.4526    1.3639645   -112.08863   -15496.615    4.3191213    4.3191213    4.3191213   -15496.615   -7760.4935   -25105.868   -13623.485     20408.95   -2906.8754     8057.025    80.572382 
   90000    1125.4323   -113.10974    1.0183148   -112.09143   -13579.658    4.3140606    4.3140606    4.3140606   -13579.658     14386.38    -17350.31   -37775.044    7138.4285    13817.503    55009.635    80.289494 
   90100    2173.9016   -114.03624    1.9669918   -112.06925   -4856.7966    4.3029416    4.3029416    4.3029416   -4856.7966   -13538.164     12227.53   -13259.755   -3975.3358    11937.573   -9271.7846    79.670282 
   90200    1322.6765   -113.28336    1.1967855   -112.08658    8079.0618    4.3122012    4.3122012    4.3122012    8079.0618    46473.176   -24768.172    2532.1806    29497.949   -1475.3417    14885.577    80.185724 
   90300    1225.3029   -113.20315    1.1086799   -112.09447   -6987.1165    4.3254743    4.3254743    4.3254743   -6987.1165    40049.954   -35571.601   -25439.702     19363.83   -491.83218    55914.578    80.928445 
   90400    2062.2601   -113.93991    1.8659763   -112.07393   -6305.2575    4.3311662    4.3311662    4.3311662   -6305.2575   -4452.1249   -7272.4602   -7191.1875   -11396.732    10446.837   -8143.5937    81.248348 
   90500    1280.6383   -113.22832    1.1587485   -112.06957    14163.841    4.3183194    4.3183194    4.3183194    14163.841     46645.92    9448.8988   -13603.295    22341.471   -11597.066    36176.807    80.527515 
   90600    1435.9173   -113.36776    1.2992482   -112.06851    517.38208    4.3099563    4.3099563    4.3099563    517.38208    15289.355   -40519.124    26781.915    6519.5022    -3261.559    57962.326    80.060555 
   90700    1963.3662   -113.84226     1.776495   -112.06577    19215.184    4.3135389    4.3135389    4.3135389    19215.184   -3282.7013    898.99364     60029.26   -22943.385   -7693.4584   -12465.487    80.260372 
   90800     1230.413   -113.20311    1.1133035   -112.08981    856.57716    4.3188673    4.3188673    4.3188673    856.57716    40799.479   -43560.579    5330.8311    4226.3926    12850.283    43013.989    80.558168 
   90900    1585.2137   -113.51942    1.4343347   -112.08509   -7521.7658    4.3251969    4.3251969    4.3251969   -7521.7658   -32683.406   -12388.004    22506.113    36244.682   -1232.1713    25186.522    80.912877 
   91000    2210.3742   -114.06176     1.999993   -112.06177   -3896.1631    4.3215198    4.3215198    4.3215198   -3896.1631   -12493.663   -12401.267     13206.44   -10876.743    22190.324    -8801.719    80.706686 
   91100    1265.4311   -113.21437    1.1449886   -112.06938    -19673.55    4.3147609    4.3147609    4.3147609    -19673.55      10528.1   -35344.568   -34204.181   -1432.2737    2426.8365    65772.881    80.328604 
   91200    1313.8188   -113.26442    1.1887709   -112.07565   -3844.8933    4.3279659    4.3279659    4.3279659   -3844.8933   -24571.785    -612.4628    13649.567    32362.153    8230.2653   -8346.9196     81.06838 
   91300    1815.5584    -113.6974    1.6427554   -112.05465   -27694.017    4.3272249    4.3272249    4.3272249   -27694.017   -2828.1488   -46486.642    -33767.26    8807.8815     4662.636    9039.3203    81.026746 
   91400    1419.1268   -113.32935    1.2840557    -112.0453    777.06019    4.3092151    4.3092151    4.3092151    777.06019    31776.486   -6982.8701   -22462.436   -1349.0993   -9469.6624    53646.025    80.019259 
   91500    1878.4658   -113.75797    1.6996753    -112.0583   -21128.747    4.3302552    4.3302552    4.3302552   -21128.747   -45456.778   -31445.335    13515.871     11993.36    12076.828   -20848.703    81.197089 
   91600     1313.969   -113.24004    1.1889067   -112.05114   -31277.011    4.3365785    4.3365785    4.3365785   -31277.011    69010.876   -89983.064   -72858.844    6079.3439    3527.8194    43179.401    81.553319 
   91700    1988.1718   -113.83825    1.7989397   -112.03931    8977.1704    4.3100618    4.3100618    4.3100618    8977.1704    39572.486   -17968.384    5327.4085   -856.04142    13878.773    20289.824    80.066434 
   91800    1815.8005   -113.68995    1.6429745   -112.04698    4397.2858    4.3137231    4.3137231    4.3137231    4397.2858    34907.516   -41252.257    19536.599    18024.894    5334.7821   -321.61633    80.270653 
   91900    1412.8039   -113.34875    1.2783347   -112.07041    -19961.83     4.320273     4.320273     4.320273    -19961.83    29435.767   -65978.848   -23342.407    2042.2276    130.19002    64707.849    80.636856 
   92000    2161.8403   -114.01825    1.9560785   -112.06217     3586.179    4.3313236    4.3313236    4.3313236     3586.179    19034.064   -2925.0737    -5350.453   -13312.995    1024.4236   -16229.773    81.257209 
   92100    1277.1729   -113.22519    1.1556129   -112.06957   -37103.656     4.333081     4.333081     4.333081   -37103.656   -11499.307   -41697.909   -58113.753    3811.5637   -6483.8091     45961.02    81.356158 
   92200    778.00774   -112.76839   0.70395775   -112.06443    15364.959    4.3037228    4.3037228    4.3037228    15364.959    78796.792   -10833.674   -21868.239   -4358.1022    16014.464     59226.23    79.713682 
   92300    2186.1452   -114.02902    1.9780701   -112.05095    37120.958    4.3010414    4.3010414    4.3010414    37120.958    35417.453    60357.799    15587.621   -18951.397    5434.0003   -23324.265    79.564779 
   92400    1413.9981   -113.36414    1.2794152   -112.08473   -36212.703    4.3294996    4.3294996    4.3294996   -36212.703    20645.158   -74255.683   -55027.585    11028.152   -4809.1915    70276.803    81.154596 
   92500    1135.1349   -113.09991    1.0270939   -112.07281   -24230.697    4.3335632    4.3335632    4.3335632   -24230.697    5858.9481   -90108.062    11557.024    30456.772    13975.588    41099.129    81.383319 
   92600    2139.5639   -113.98642    1.9359223   -112.05049    27974.353    4.3020189    4.3020189    4.3020189    27974.353   -4397.6961    -8707.978    97028.733    13500.166   -5000.1605   -8280.8338    79.619041 
   92700    1462.3239    -113.4022    1.3231414   -112.07906     10058.22    4.3035207    4.3035207    4.3035207     10058.22    59091.433   -32731.544    3814.7701   -19378.669     20132.82    42243.741    79.702454 
   92800    1289.4627   -113.24863     1.166733    -112.0819    -11016.83    4.3213289    4.3213289    4.3213289    -11016.83    20790.744   -69570.005    15728.771    38721.307    2674.1271    29679.855     80.69599 
   92900     2154.776   -114.01568    1.9496866   -112.06599   -14060.168    4.3227969    4.3227969    4.3227969   -14060.168   -30127.388   -24346.593    12293.475    12934.825     3740.662   -24615.575    80.778258 
   93000    1023.5229   -113.00929     0.926105   -112.08319   -33945.793    4.3177168    4.3177168    4.3177168   -33945.793    54909.833      -109957   -46790.211   -9096.8277   -11508.595    36355.456    80.493804 
   93100    1398.8305   -113.34263    1.2656912   -112.07694    6407.8402    4.2945062    4.2945062    4.2945062    6407.8402    35389.974    -45944.01    29777.556    24394.096    12827.784    24235.888    79.202649 
   93200     2002.188   -113.90103    1.8116218   -112.08941    8602.1235    4.3077096    4.3077096    4.3077096    8602.1235   -5362.1778   -27988.801     59157.35   -5363.1361   -5372.0754   -8208.4479    79.935418 
   93300    750.82866   -112.77157   0.67936555   -112.09221   -54164.379    4.3321985    4.3321985    4.3321985   -54164.379    10410.866   -131979.97    -40924.03   -10254.626   -1715.3446    44891.441     81.30646 
   93400    1989.6371   -113.85929    1.8002654   -112.05902    419.73702    4.3094535    4.3094535    4.3094535    419.73702      6595.13   -41441.258    36105.339    20205.965   -816.34543    10115.114    80.032537 
   93500    2235.3019   -114.08483    2.0225482   -112.06228     6547.921    4.3109334    4.3109334    4.3109334     6547.921   -17462.838   -16261.325    53367.925   -7061.8952    9931.9963    4492.7591    80.115017 
   93600    1344.4713   -113.30905    1.2165059   -112.09254   -23700.502    4.3019474    4.3019474    4.3019474   -23700.502    5839.2291   -68634.851   -8305.8845   -9308.6801    6758.3925    38996.854    79.615069 
   93700    1751.2359   -113.67561     1.584555   -112.09105    41618.871    4.2964285    4.2964285    4.2964285    41618.871    41595.722   -614.65659    83875.548   -8573.8558   -6689.0977   -7502.9395    79.309054 
   93800    2014.5095   -113.90934    1.8227705   -112.08657   -24869.028    4.3293321    4.3293321    4.3293321   -24869.028   -58703.354   -19383.385    3479.6559   -14613.603    4139.0547   -10476.798    81.145175 
   93900    1005.6042   -112.98503   0.90989179   -112.07514   -16176.445    4.3191264    4.3191264    4.3191264   -16176.445     -16984.8   -66342.888    34798.353   -7508.2831   -3009.2582    47503.624    80.572666 
   94000    1749.3875   -113.63644    1.5828825   -112.05356    15090.824    4.3068423    4.3068423    4.3068423    15090.824    12048.744    6888.4186    26335.311     1639.298   -3465.8932    18812.113    79.887149 
   94100    1791.3945   -113.68346    1.6208914   -112.06256   -1552.6333    4.3120494    4.3120494    4.3120494   -1552.6333   -11661.282   -40840.087     47843.47   -1112.2393    1123.4298   -10011.367    80.177254 
   94200    667.95371   -112.69255   0.60437856   -112.08817    35498.152    4.3067833    4.3067833    4.3067833    35498.152    7380.4214    14199.628    84914.406   -6560.9938   -8747.3517    67707.018    79.883863 
   94300    2049.5136   -113.94188     1.854443   -112.08743   -11427.262    4.3194774    4.3194774    4.3194774   -11427.262   -11143.089   -1310.8093   -21827.888   -11456.952    1348.2897    18942.387    80.592312 
   94400    1985.3546   -113.88351    1.7963905   -112.08712    39654.154     4.300361     4.300361     4.300361    39654.154    19134.114    75443.367    24384.982    5559.5149   -4247.2946    -17028.81    79.527029 
   94500    1238.5036   -113.22672    1.1206241    -112.1061   -10293.231    4.3019307    4.3019307    4.3019307   -10293.231    15269.568    -38792.93   -7356.3322    8704.4038    10407.731    80513.495    79.614145 
   94600    1786.7669   -113.70805    1.6167043   -112.09134    -16754.53     4.318423     4.318423     4.318423    -16754.53   -32929.188   -13517.266   -3817.1353    -4029.901   -8932.5858    7736.5897    80.533309 
   94700    1848.8661   -113.75624    1.6728929   -112.08334    30571.552     4.307391     4.307391     4.307391    30571.552   -2010.2637    39491.152    54233.768    5689.7278   -7126.9126   -23363.377    79.917685 
   94800     1150.523   -113.14006    1.0410174   -112.09905   -33218.467    4.3136072    4.3136072    4.3136072   -33218.467    17877.563   -80031.414   -37501.549   -3747.6217    15987.045    72203.545    80.264183 
   94900    1790.4703    -113.7017    1.6200551   -112.08164   -3226.5417    4.3048088    4.3048088    4.3048088   -3226.5417   -20577.694   -24984.693    35882.762    3381.5866   -15834.692    7797.3807    79.774042 
   95000    1730.2098   -113.65358    1.5655302   -112.08805   -4762.2619    4.3033306    4.3033306    4.3033306   -4762.2619    -2626.049   -39402.714    27741.977   -7543.3579   -10391.804    1644.5052    79.691889 
   95100    596.89545   -112.64476   0.54008354   -112.10468   -6448.7557     4.312754     4.312754     4.312754   -6448.7557    36889.441   -16252.801   -39982.907    3261.9425    5619.7148    47177.436    80.216567 
   95200    1974.7956   -113.87398    1.7868366   -112.08714   -12207.375    4.3154171    4.3154171    4.3154171   -12207.375   -25826.606   -40413.712    29618.194     7984.538   -8045.1839    1991.3666    80.365256 
   95300    1917.7969   -113.82328    1.7352629   -112.08802   -14573.924    4.3119672    4.3119672    4.3119672   -14573.924   -11261.019   -32260.552   -200.19997    -5415.542   -870.88862    12821.806    80.172669 
   95400    794.30061   -112.82323   0.71869988   -112.10453    18031.333     4.294762     4.294762     4.294762    18031.333    37494.553   -7829.8189    24429.264    11404.212   -74.965232    67933.515    79.216801 
   95500     2186.156   -114.08187    1.9780799   -112.10379    5510.5803    4.2994428    4.2994428    4.2994428    5510.5803    12551.191   -11400.452    15381.001    2440.9293    4377.8172   -29792.137    79.476098 
   95600    1805.0024   -113.73765    1.6332041   -112.10444   -2815.0154    4.3132215    4.3132215    4.3132215   -2815.0154     -17727.4    15500.778   -6218.4244   -10033.966    9718.3552    28112.851    80.242654 
   95700    1429.2278   -113.39882    1.2931954   -112.10562    -23712.08    4.3150472    4.3150472    4.3150472    -23712.08    -7716.496   -31115.721   -32304.022    2493.9017   -8386.3533    55371.744     80.34459 
   95800     2014.429   -113.91373    1.8226977   -112.09103   -4516.3107    4.3077774    4.3077774    4.3077774   -4516.3107   -25619.933    7604.7944    4466.2068    502.94679    7525.9713    -36489.04    79.939193 
   95900    1476.5427   -113.42793    1.3360068   -112.09192     26956.55    4.2952773    4.2952773    4.2952773     26956.55    14119.264    52492.204    14258.182   -1849.6644    12817.125    32815.401    79.245322 
   96000    1352.2226   -113.32508    1.2235194   -112.10156   -3146.1908    4.3078023    4.3078023    4.3078023   -3146.1908    3738.8245   -20430.409    7253.0119    9011.0604   -6879.6448    47063.437    79.940577 
   96100    1986.6421   -113.88054    1.7975555   -112.08298   -9052.4855    4.3178054    4.3178054    4.3178054   -9052.4855   -46690.348    3078.7614     16454.13     234.6527    9484.8686    -22331.77     80.49876 
   96200    1202.7679   -113.17461    1.0882897   -112.08632    23864.561    4.3089772    4.3089772    4.3089772    23864.561   -5744.1667    70114.739      7223.11   -2398.6843    14829.121    25126.783    80.006007 
   96300    1619.8695    -113.5517     1.465692   -112.08601   -979.61262     4.308277     4.308277     4.308277   -979.61262    2382.3028   -875.82156   -4445.3191   -7301.7459   -7499.1606    66342.984     79.96701 
   96400    1783.9476   -113.69465    1.6141533    -112.0805    28514.893    4.3021616    4.3021616    4.3021616    28514.893   -29315.501    59115.602    55744.579    1735.8875    5451.1661   -28726.114    79.626964 
   96500    1170.5877   -113.16358    1.0591724   -112.10441    4323.4314    4.3025001    4.3025001    4.3025001    4323.4314   -3782.2631    27258.202   -10505.644    14536.382     13014.05    35228.726    79.645761 
   96600    1646.8841   -113.59596    1.4901353   -112.10583   -5150.0775    4.3154124    4.3154124    4.3154124   -5150.0775   -5175.2863   -19494.825    9219.8786   -11080.476   -1780.5999    35942.673    80.364993 
   96700    2264.2635   -114.13252    2.0487532   -112.08377   -17196.272    4.3227417    4.3227417    4.3227417   -17196.272   -48911.791    21433.404   -24110.428   -9939.3902    2640.2158    -18756.37    80.775168 
   96800    1303.4344   -113.27096    1.1793748   -112.09158   -5888.9749     4.304878     4.304878     4.304878   -5888.9749   -16858.246    26923.123   -27731.802    14942.375    17025.268    9865.6156    79.777889 
   96900    1690.6943   -113.61206    1.5297757   -112.08229    30984.975    4.2875863    4.2875863    4.2875863    30984.975    10756.449    41517.868     40680.61   -16863.194   -278.02137    41891.285    78.820396 
   97000    1911.6487    -113.8235    1.7296999    -112.0938   -8554.8075    4.3087682    4.3087682    4.3087682   -8554.8075   -47524.736    33585.113   -11724.799   -24695.873    13618.801    77.661877    79.994364 
   97100    1278.9105   -113.25218    1.1571851     -112.095   -1374.9961    4.3169531    4.3169531    4.3169531   -1374.9961   -56231.654    75867.849   -23761.183    10279.303    6990.1677   -4917.5231    80.451103 
   97200    1897.4428   -113.78871    1.7168461   -112.07187    605.76306    4.3157661    4.3157661    4.3157661    605.76306   -4782.5652    1092.0091    5507.8453   -16513.464   -9226.8208    37159.262    80.384758 
   97300    1504.0865   -113.43163    1.3609291    -112.0707   -11157.461    4.3155785    4.3155785    4.3155785   -11157.461   -38739.156    12383.228   -7116.4556   -16611.721    12359.826   -12067.068    80.374272 
   97400    821.50168   -112.82792   0.74331198   -112.08461   -16904.508     4.299107     4.299107     4.299107   -16904.508   -71258.903    37739.349    -17193.97    4610.0875    9603.6979   -6244.0775    79.457477 
   97500     1568.508   -113.50996     1.419219   -112.09074    22266.241    4.3008642    4.3008642    4.3008642    22266.241   -39190.354    28204.931    77784.147    18260.353    -8039.546    8307.4073    79.554948 
   97600    2208.5814   -114.08544    1.9983709   -112.08706   -6600.4354    4.3152439    4.3152439    4.3152439   -6600.4354   -16852.622   -8683.3479    5734.6637   -1111.2076    2157.2786    -3853.122    80.355583 
   97700    721.20188   -112.75497   0.65255861   -112.10241    26782.216     4.316528     4.316528     4.316528    26782.216   -39341.569     59430.28    60257.938     4167.991    20711.999   -9936.3351    80.427336 
   97800    2223.4776   -114.08796    2.0118493   -112.07611   -22811.656    4.3227536    4.3227536    4.3227536   -22811.656   -51234.794    -26530.64    9330.4653     30432.49   -15616.602   -7601.9444    80.775831 
   97900    2082.9303   -113.96058    1.8846791    -112.0759    41330.512    4.2918139    4.2918139    4.2918139    41330.512    36650.542    24858.502    62482.492   -5461.8337    8739.7336      18548.7    79.053782 
   98000    1133.9387   -113.12732    1.0260116   -112.10131    32909.479    4.2867078    4.2867078    4.2867078    32909.479   -17396.251    98442.193    17682.495    9380.3858    29115.074   -7680.0382    78.771961 
   98100    2027.1878   -113.93095    1.8342421   -112.09671   -10788.079    4.3200115    4.3200115    4.3200115   -10788.079   -32391.447   -3715.5574    3742.7675    14615.168   -1085.0541   -14303.216     80.62221 
   98200    1555.5645     -113.487    1.4075074   -112.07949    20372.787    4.3244093    4.3244093    4.3244093    20372.787   -594.05868    54531.125    7181.2955   -5433.8461    6683.8178      28713.4    80.868686 
   98300     1130.688   -113.09309    1.0230703   -112.07002   -14534.859    4.3214715    4.3214715    4.3214715   -14534.859   -15291.509    36144.698   -64457.768    4801.2137    15939.402   -2568.3306    80.703979 
   98400    2090.1601   -113.94761    1.8912208   -112.05638    6344.9702     4.302266     4.302266     4.302266    6344.9702   -27986.231    27523.194    19497.947   -6335.5147    3535.3278   -9194.7082    79.632764 
   98500    1267.1908   -113.21814    1.1465809   -112.07156     24932.75     4.289183     4.289183     4.289183     24932.75    17483.389    31013.154    26301.706    1887.4268   -1736.5889    53504.999    78.908489 
   98600    1115.1383   -113.10759    1.0090006   -112.09859   -27771.877    4.3187679    4.3187679    4.3187679   -27771.877   -46001.563    -15415.54   -21898.528   -5337.8015    20230.808    6401.6657    80.552604 
   98700    2075.5941   -113.94069    1.8780412   -112.06265    112.98365    4.3279869    4.3279869    4.3279869    112.98365   -34283.817    824.51243    33798.255    1750.0276   -10234.649    -23306.59    81.069558 
   98800    1307.7268   -113.24961    1.1832587   -112.06635    -8594.876    4.3198438    4.3198438    4.3198438    -8594.876    14583.367   -15245.484   -25122.511    8126.1949   -4418.9495    72261.417    80.612825 
   98900    1915.2947   -113.79443    1.7329989   -112.06143    9806.5026    4.3069148    4.3069148    4.3069148    9806.5026    1797.6499    7357.8862    20263.972    3656.4963    13565.216   -4220.1727    79.891183 
   99000    1624.0056    -113.5384    1.4694344   -112.06897    34572.102    4.3002407    4.3002407    4.3002407    34572.102    9369.2846    9955.3792    84391.643    18448.651   -7280.1659    27492.081    79.520354 
   99100       1320.9   -113.28509    1.1951781   -112.08992    7142.3817    4.3184347    4.3184347    4.3184347    7142.3817    33945.491    -72.86557    -12445.48   -3214.6389    3639.0854    81865.413     80.53396 
   99200    2745.0442   -114.53601    2.4837736   -112.05224   -6237.7596    4.3293344    4.3293344    4.3293344   -6237.7596   -18951.028   -18076.012    18313.761   -3779.7471   -12487.318   -26383.857    81.145306 
   99300    1065.7051   -113.04345   0.96427238   -112.07918    4185.5198    4.3056479    4.3056479    4.3056479    4185.5198    53254.691    8103.5259   -48801.657    3611.6441   -4761.7992    65934.938    79.820703 
   99400    1626.4383   -113.55389    1.4716356   -112.08225    6736.6449    4.2864199    4.2864199    4.2864199    6736.6449    43647.414   -23591.869    154.39067    23642.451    3319.4112    53992.196    78.756088 
   99500    2367.2129   -114.22779     2.141904   -112.08589    27006.769    4.3057984    4.3057984    4.3057984    27006.769    15514.705    25311.568    40194.035    12068.782   -11972.608   -32835.544    79.829071 
   99600    1530.7326   -113.47547     1.385039   -112.09043   -17863.296    4.3292361    4.3292361    4.3292361   -17863.296    21899.236   -26248.805   -49240.319    -2867.314   -7507.8289    80399.193    81.139776 
   99700    1670.6457   -113.57286    1.5116353   -112.06123    9424.2464    4.3277459    4.3277459    4.3277459    9424.2464   -18498.936   -28767.029    75538.704    19056.302   -7671.1985    4454.0855    81.056018 
   99800    1918.9079    -113.7886    1.7362682   -112.05233   -4783.2849    4.3097368    4.3097368    4.3097368   -4783.2849    4123.2747    4022.7611    -22495.89    5792.6457    13800.585    1545.0255    80.048327 
   99900    1067.4166    -113.0311   0.96582093   -112.06528    27906.714    4.2962752    4.2962752    4.2962752    27906.714    56256.028    13587.402    13876.712    4871.7286    2078.5569    76563.811    79.300564 
  100000    1924.5219   -113.81089    1.7413479   -112.06954    21883.903    4.3158346    4.3158346    4.3158346    21883.903   -31836.432     66775.78    30712.362    1173.2084    4279.0952   -13413.455    80.388581 
Loop time of 22.386 on 1 procs for 100000 steps with 8 atoms

Pair  time (%) = 7.01849 (31.3522)
Kspce time (%) = 5.31734 (23.753)
Neigh time (%) = 0.122972 (0.549326)
Comm  time (%) = 1.09902 (4.90941)
Outpt time (%) = 0.0255716 (0.11423)
Other time (%) = 8.80256 (39.3218)

Nlocal:    8 ave 8 max 8 min
Histogram: 1 0 0 0 0 0 0 0 0 0
Nghost:    2069 ave 2069 max 2069 min
Histogram: 1 0 0 0 0 0 0 0 0 0
Neighs:    2225 ave 2225 max 2225 min
Histogram: 1 0 0 0 0 0 0 0 0 0

Total # of neighbors = 2225
Ave neighs/atom = 278.125
Neighbor list builds = 1438
Dangerous builds = 0
unfix 20
unfix 21
print "seeds:3185779"
seeds:3185779
