LAMMPS (10 Feb 2015)
# ---- initialize simulations
clear
units metal
dimension 3
boundary p p p
atom_style charge
atom_modify map array
# ---- create atoms
read_data /Users/eugeneragasa/pyflamestk_git/pypospack/tests/tests_integration/workflow/WorkflowLammpsThermalExpansion/param_2424/MgO_NaCl_unit.npt.T500/lammps.structure
  triclinic box = (0 0 0) to (4.2565 4.2565 4.2565) with tilt (0 0 0)
  1 by 1 by 1 MPI processor grid
  reading atoms ...
  8 atoms
# ---- define interatomic potential
include potential.mod
mass 1 24.305
mass 2 15.999

group Mg type 1
4 atoms in group Mg
group O type 2
4 atoms in group O

set group Mg charge 1.67924051174
  4 settings made for charge
set group O charge -1.67924051174
  4 settings made for charge

variable R_cut equal 10.0

pair_style buck/coul/long ${R_cut}
pair_style buck/coul/long 10
pair_coeff 1 1 0.0 0.5 0.0 ${R_cut}
pair_coeff 1 1 0.0 0.5 0.0 10
pair_coeff 1 2 1306.98043044 0.288034123545 0.0 ${R_cut}
pair_coeff 1 2 1306.98043044 0.288034123545 0.0 10
pair_coeff 2 2 2032.48006166 0.252585756474 14.8401495582 ${R_cut}
pair_coeff 2 2 2032.48006166 0.252585756474 14.8401495582 10

kspace_style pppm 1.0e-5

neighbor 1.0 bin
neigh_modify every 1 delay 0 check yes
# ---- define settings
compute eng all pe/atom
compute eatoms all reduce sum c_eng
# ---- run minimization
reset_timestep 0
fix 1 all box/relax iso 0.0 vmax 0.001
thermo 10
thermo_style custom step pe lx ly lz xy xz yz press pxx pyy pzz pxy pxz pyz c_eatoms
min_style cg
minimize 1e-25 1e-25 5000 10000
PPPM initialization ...
  G vector (1/distance) = 0.352997
  grid = 8 8 8
  stencil order = 5
  estimated absolute RMS force accuracy = 4.02799e-05
  estimated relative force accuracy = 2.79728e-06
  using double precision FFTs
  3d grid and FFT values/proc = 3375 512
Neighbor list info ...
  1 neighbor list requests
  update every 1 steps, delay 0 steps, check yes
  master list distance cutoff = 11
Memory usage per processor = 4.06549 Mbytes
Step PotEng Lx Ly Lz Xy Xz Yz Press Pxx Pyy Pzz Pxy Pxz Pyz eatoms 
       0   -114.09861       4.2565       4.2565       4.2565            0            0            0    83013.551    83013.551    83013.551    83013.551 1.023811e-10 -6.100653e-11 -2.0427431e-10   -114.09861 
      10   -114.17745     4.299065     4.299065     4.299065            0            0            0    27173.213    27173.213    27173.213    27173.213 -1.7620305e-11 8.177727e-11 3.0587737e-11   -114.17745 
      19   -114.18814    4.3219883    4.3219883    4.3219883            0            0            0 -0.014642896 -0.014642896 -0.014642896 -0.014642896 -4.2788838e-11 1.5607732e-10 -4.5124802e-11   -114.18814 
Loop time of 0.00824189 on 1 procs for 19 steps with 8 atoms

Minimization stats:
  Stopping criterion = linesearch alpha is zero
  Energy initial, next-to-last, final = 
        -114.098610965     -114.188144107     -114.188144107
  Force two-norm initial, final = 11.9872 7.95763e-05
  Force max component initial, final = 11.9872 1.65313e-05
  Final line search alpha, max atom move = 0.5 8.26564e-06
  Iterations, force evaluations = 19 24

Pair  time (%) = 0.00230336 (27.947)
Kspce time (%) = 0.00129819 (15.7511)
Neigh time (%) = 0 (0)
Comm  time (%) = 0.000261545 (3.17336)
Outpt time (%) = 1.19209e-05 (0.144638)
Other time (%) = 0.00436687 (52.9839)

Nlocal:    8 ave 8 max 8 min
Histogram: 1 0 0 0 0 0 0 0 0 0
Nghost:    2189 ave 2189 max 2189 min
Histogram: 1 0 0 0 0 0 0 0 0 0
Neighs:    2344 ave 2344 max 2344 min
Histogram: 1 0 0 0 0 0 0 0 0 0

Total # of neighbors = 2344
Ave neighs/atom = 293
Neighbor list builds = 0
Dangerous builds = 0
unfix 1
# ---- define output variables ----
variable natoms equal "count(all)"
variable tot_energy equal "c_eatoms"
variable length_x equal "lx"
variable length_y equal "ly"
variable length_z equal "lz"
variable tilt_xy equal "xy"
variable tilt_xz equal "xz"
variable tilt_yz equal "yz"
variable tot_press equal "press"
variable press_xx equal "pxx"
variable press_yy equal "pyy"
variable press_zz equal "pzz"
variable press_xy equal "pxy"
variable press_xz equal "pxz"
variable press_yz equal "pyz"

# ---- output ----
print "pypospack:output_section:begin"
pypospack:output_section:begin
print "tot_energy = ${tot_energy}"
tot_energy = -114.188144106894
print "num_atoms = ${natoms}"
num_atoms = 8
print "xx = ${length_x}"
xx = 4.32198834005221
print "yy = ${length_y}"
yy = 4.32198834005221
print "zz = ${length_z}"
zz = 4.32198834005221
print "xy = ${tilt_xy}"
xy = 0
print "xz = ${tilt_xz}"
xz = 0
print "yz = ${tilt_yz}"
yz = 0
print "tot_press = ${tot_press}"
tot_press = -0.0146428956780545
print "pxx = ${press_xx}"
pxx = -0.0146428956419126
print "pyy = ${press_yy}"
pyy = -0.0146428958165915
print "pzz = ${press_zz}"
pzz = -0.0146428955756593
print "pxy = ${press_xy}"
pxy = -4.27888380608005e-11
print "pxz = ${press_xz}"
pxz = 1.56077321107314e-10
print "pyz = ${press_yz}"
pyz = -4.51248020389503e-11
print "pypospack:output_section:done"
pypospack:output_section:done
print "pypospack:lammps_sim:done"
pypospack:lammps_sim:done
#------------------------------------------------------------------------------
# RUN THERMOSTAT
# running using an NPT Nose-Hoover style thermostat
#------------------------------------------------------------------------------
variable tempdamp equal 0.1
variable pressdamp equal 1.0
# set initial velocities
velocity all create 500 3188085 mom yes dist gaussian loop all
# fix for Nose-Hoover style thermostat
fix 20 all npt temp 500 500 0.1 aniso 0.0 0.0 1.0 drag 1.0 couple xyz
variable boxx equal lx
variable boxy equal ly
variable boxz equal lz
variable boxp equal press
variable boxt equal temp
# calculate averages every 10000 steps
reset_timestep 0
fix 21 all ave/time 10 10 100 v_boxx v_boxy v_boxz v_boxp v_boxt file lattice.out
thermo_style custom step temp pe ke etotal press lx ly lz press pxx pyy pzz pxy pxz pyz vol
thermo_modify flush yes
thermo 100
run 100000
PPPM initialization ...
  G vector (1/distance) = 0.35233
  grid = 8 8 8
  stencil order = 5
  estimated absolute RMS force accuracy = 4.15437e-05
  estimated relative force accuracy = 2.88505e-06
  using double precision FFTs
  3d grid and FFT values/proc = 3375 512
Memory usage per processor = 3.06549 Mbytes
Step Temp PotEng KinEng TotEng Press Lx Ly Lz Press Pxx Pyy Pzz Pxy Pxz Pyz Volume 
       0          500   -114.18815   0.45241051   -113.73574     5983.663    4.3219883    4.3219883    4.3219883     5983.663    8072.3843    4273.2522    5605.3524   -740.49098    3074.8108    2672.7973    80.732941 
     100     174.0828   -113.82637   0.15751378   -113.66886   -7590.1704    4.3514327    4.3514327    4.3514327   -7590.1704    9054.1141   -22141.166   -9683.4589   -3928.3058   -89.441895   -4829.2619     82.39423 
     200    438.68726   -113.95337   0.39693345   -113.55644    2826.8467    4.3342219    4.3342219    4.3342219    2826.8467    8929.3878   -1487.1296    1038.2817    341.43027    -2970.033   -1694.7434    81.420439 
     300    463.36756   -113.86434   0.41926471   -113.44507   -1929.2032     4.351276     4.351276     4.351276   -1929.2032    9502.7944   -21411.254    6120.8496    1941.9722   -3755.1924    1363.3844    82.385331 
     400    296.47632   -113.63366     0.268258    -113.3654    2634.2691    4.3556227    4.3556227    4.3556227    2634.2691    17970.266   -15152.994     5085.535   -2436.8318   -3342.0014   -5466.6797    82.632473 
     500    548.63522       -113.8   0.49641668   -113.30359    9248.0977    4.3359248    4.3359248    4.3359248    9248.0977    1037.0678    5630.0919    21077.134   -1163.4019    -1302.952    8872.5383    81.516445 
     600    337.00568   -113.58467   0.30492982   -113.27974    -7955.314    4.3707344    4.3707344    4.3707344    -7955.314    7165.5592   -38759.432    7727.9312    -5537.467    557.53836    -2822.444    83.495534 
     700    503.98223    -113.7246   0.45601371   -113.26858    8051.0195     4.341382     4.341382     4.341382    8051.0195    4460.0063    12152.295    7540.7573   -3522.4094    1236.5916   -1653.8035     81.82462 
     800    415.82666   -113.64968    0.3762487   -113.27343    3774.6583    4.3486292    4.3486292    4.3486292    3774.6583     8615.392   -13984.064    16692.647    3498.1838    990.90489    5975.0655    82.235084 
     900     405.6913   -113.63907   0.36707801   -113.27199   -9805.1061    4.3678333    4.3678333    4.3678333   -9805.1061    -1211.428   -8588.1595   -19615.731   -9902.8579    1854.3093   -2396.4166    83.329382 
    1000    533.88688   -113.75254   0.48307207   -113.26946    10167.799    4.3358005    4.3358005    4.3358005    10167.799    1295.5228    18459.366    10748.508   -1232.3481    1785.9532    8282.7479    81.509433 
    1100    547.79589   -113.77224   0.49565723   -113.27658   -13223.501     4.358413     4.358413     4.358413   -13223.501   -7676.4325   -17439.323   -14554.747      513.134    -3027.857   -1989.4924    82.791385 
    1200    309.51883   -113.55591   0.28005914   -113.27586    3311.9233     4.361079     4.361079     4.361079    3311.9233   -9625.8467    25717.905    -6156.288    -10952.75    -7251.742   -136.81709    82.943404 
    1300    524.22161   -113.74645   0.47432673   -113.27212    11368.569    4.3372231    4.3372231    4.3372231    11368.569   -3885.7383    859.25451    37132.192   -1572.0609   -3510.6588   -6949.8442    81.589691 
    1400    491.84869    -113.7237   0.44503504   -113.27867    -5614.443    4.3594355    4.3594355    4.3594355    -5614.443   -15329.603    2175.9275   -3689.6537   -2772.9033    1914.2879    435.72902    82.849667 
    1500    249.62148   -113.50135   0.22586276   -113.27548    9503.1874    4.3601912    4.3601912    4.3601912    9503.1874    -2072.441    3970.3382    26611.665   -6579.0487   -2673.5416    4078.9565    82.892762 
    1600    669.55461   -113.87614   0.60582708   -113.27031     2598.999    4.3393491    4.3393491    4.3393491     2598.999   -2767.2693   -1860.4456    12424.712    433.59652   -4549.2359   -4571.7879    81.709727 
    1700    463.48064   -113.69607   0.41936702    -113.2767   -3069.8872    4.3591015    4.3591015    4.3591015   -3069.8872   -10845.437    -1999.109    3634.8844     115.1201    -4072.461    12322.369    82.830624 
    1800    515.02519   -113.73852   0.46600562   -113.27252   -5615.4353    4.3582994    4.3582994    4.3582994   -5615.4353   -3287.8551    -727.0744   -12831.376   -5316.1871   -170.94632   -420.90674     82.78491 
    1900    630.70918   -113.84379   0.57067892   -113.27311    5575.8457     4.340026     4.340026     4.340026    5575.8457   -1916.5385    7108.6558     11535.42    3140.2817    6613.5448     5708.096    81.747973 
    2000    454.37736   -113.69336   0.41113019   -113.28223   -652.74451    4.3612469    4.3612469    4.3612469   -652.74451   -11037.198   -1430.6268    10509.591    -1647.549    3637.6116    1362.1518    82.952987 
    2100    682.01318   -113.89573   0.61709986   -113.27863   -6890.9623    4.3512013    4.3512013    4.3512013   -6890.9623    -5139.794   -8769.3751   -6763.7179    4125.3931   -1451.0019   -8118.8049    82.381087 
    2200    459.19027   -113.69285     0.415485   -113.27736     14410.84    4.3422303    4.3422303    4.3422303     14410.84   -4236.5264    11727.164    35741.884   -207.86629    -3564.143    8533.8502    81.872594 
    2300    647.71058   -113.86042   0.58606214   -113.27436     -17922.3    4.3669732    4.3669732    4.3669732     -17922.3   -20204.805   -24428.616   -9133.4801   -10303.169    923.67657    72.177492    83.280165 
    2400    623.86071   -113.83922   0.56448228   -113.27473    4824.9304    4.3419221    4.3419221    4.3419221    4824.9304   -1144.9671    12194.399    3425.3597     1539.256    1168.3183    7161.3424    81.855166 
    2500    526.30166   -113.75784    0.4762088   -113.28163    1955.5071    4.3498484    4.3498484    4.3498484    1955.5071   -18823.478    6340.9832    18349.016    312.11723   -1435.1694    4447.5713     82.30427 
    2600    515.11396   -113.74257   0.46608594   -113.27648   -12830.454    4.3650048    4.3650048    4.3650048   -12830.454   -25532.698   -2153.4057   -10805.257   -3618.6205   -2377.9337   -7379.0192    83.167603 
    2700    431.88348    -113.6624   0.39077725   -113.27162    16226.752     4.337566     4.337566     4.337566    16226.752    2552.2614    36364.184    9763.8119    3950.4255    -3890.064    6420.9552    81.609043 
    2800    537.55512   -113.76558   0.48639117   -113.27919   -13499.363    4.3592824    4.3592824    4.3592824   -13499.363    -30450.24   -14657.829    4609.9808    1610.6755   -1070.7148   -8049.2502    82.840936 
    2900    433.12223   -113.66806   0.39189809   -113.27616   -2840.5875    4.3557489    4.3557489    4.3557489   -2840.5875   -10772.264    17884.485   -15633.983    3047.8561   -2509.6241   -1367.0521    82.639657 
    3000    556.15634   -113.77725   0.50322195   -113.27403    4339.8985    4.3429062    4.3429062    4.3429062    4339.8985    107.15471   -8544.4588    21456.999    1442.7984    2860.6929    1669.8135    81.910835 
    3100    460.88913   -113.69809   0.41702217   -113.28106   -10598.877    4.3592978    4.3592978    4.3592978   -10598.877   -28922.263    16700.211   -19574.581    4573.2556    -52.03921   -925.60662    82.841818 
    3200    560.24105   -113.78634   0.50691788   -113.27942   -3455.1542    4.3458872    4.3458872    4.3458872   -3455.1542    3589.1136    3047.2395   -17001.816     605.7704    1480.8831    6909.5855    82.079623 
    3300    325.31255   -113.57446   0.29434963   -113.28011    11791.801    4.3494451    4.3494451    4.3494451    11791.801   -3426.5797    36312.071    2489.9124   -2542.7713    1674.7208   -7931.8452    82.281381 
    3400    702.95754   -113.91332   0.63605076   -113.27727   -14865.998    4.3534047    4.3534047    4.3534047   -14865.998   -24791.532    -108.0211    -19698.44    5778.4869    -907.5047    2238.8825      82.5063 
    3500    431.33144   -113.66992   0.39027775   -113.27964    7437.7876      4.34451      4.34451      4.34451    7437.7876    8225.6887    16042.651   -1954.9774   -8776.5497    249.10079   -4328.5154    82.001613 
    3600    519.17684   -113.74761   0.46976212   -113.27785   -7848.6311    4.3598867    4.3598867    4.3598867   -7848.6311   -10310.366   -3971.5503   -9263.9774   -2302.5117    1115.9232   -8642.3257    82.875393 
    3700    672.47171   -113.88446   0.60846654   -113.27599   -2765.0231    4.3426691    4.3426691    4.3426691   -2765.0231   -17451.185    8305.2623    850.85343    8022.7355    1116.7595    3468.5888    81.897419 
    3800    323.57339   -113.57783     0.292776   -113.28505    11353.525    4.3506005    4.3506005    4.3506005    11353.525    8754.2578   -543.24218     25849.56   -3296.4569   -3941.4526    90.806791    82.346967 
    3900    636.63944   -113.85685   0.57604475   -113.28081   -15013.425    4.3620282    4.3620282    4.3620282   -15013.425   -16371.421   -21341.547   -7327.3085    2065.4327   -3351.3058     8111.037    82.997575 
    4000    513.00288   -113.73854   0.46417579   -113.27436    20261.672    4.3295289    4.3295289    4.3295289    20261.672    1681.5055    23465.593    35637.917    1950.5665    1650.6836   -6638.7119     81.15624 
    4100    512.30817   -113.74558    0.4635472   -113.28203   -12540.089    4.3637358    4.3637358    4.3637358   -12540.089   -1574.8953   -33246.622   -2798.7505    3753.9529   -398.21404   -1123.9966    83.095088 
    4200    550.50371   -113.77932   0.49810733   -113.28121   -2583.6526    4.3524294    4.3524294    4.3524294   -2583.6526   -10128.938    13518.228   -11140.248    142.71649   -220.45058   -6794.8097    82.450861 
    4300    622.72366   -113.83855   0.56345346   -113.27509    15342.286    4.3304149    4.3304149    4.3304149    15342.286    3482.9516    -2114.841    44658.747   -2358.7606    -3640.175    2897.3764    81.206077 
    4400    411.40268   -113.65005   0.37224579    -113.2778   -11855.883    4.3693909    4.3693909    4.3693909   -11855.883   -14668.235    5141.0645   -26040.477    5145.7329   -1146.0134    5346.6745     83.41856 
    4500    370.78487   -113.61122   0.33549394   -113.27573    20181.156    4.3405831    4.3405831    4.3405831    20181.156    12484.939    12235.017    35823.513   -725.07268    2279.5179   -9042.1612     81.77946 
    4600    718.29333   -113.92667    0.6499269   -113.27675    411.07485    4.3423152    4.3423152    4.3423152    411.07485   -11993.766    2625.6733    10601.318   -275.61721    2020.2717    6902.4186    81.877401 
    4700    273.97644   -113.52633   0.24789964   -113.27843    3176.6301    4.3620978    4.3620978    4.3620978    3176.6301   -514.91771    9869.3613    175.44667    5752.0083    1605.4815    -5521.419    83.001549 
    4800     600.7843   -113.81658   0.54360226   -113.27298    4123.5115    4.3408209    4.3408209    4.3408209    4123.5115    8092.0497   -4707.5321    8986.0171   -3418.4433   -6353.5531     1086.128      81.7929 
    4900    592.41344   -113.81465   0.53602813   -113.27862   -4391.3803    4.3514757    4.3514757    4.3514757   -4391.3803   -15466.483    12910.055   -10617.713    3458.8922    1098.6787   -6130.3523    82.396674 
    5000    345.37837   -113.59361   0.31250561    -113.2811    9075.3454    4.3513594    4.3513594    4.3513594    9075.3454    14741.932   -5035.7065    17519.811    5146.0775   -511.76988   -3034.8459    82.390067 
    5100    619.84245   -113.83883   0.56084647   -113.27798   -7968.5887    4.3472364    4.3472364    4.3472364   -7968.5887   -12874.915   -5837.6449   -5193.2059   -1107.6003   -3544.4839    7886.8507     82.15609 
    5200    358.74174   -113.60542   0.32459707   -113.28082     6464.056    4.3491017    4.3491017    4.3491017     6464.056   -11420.555    8911.0173    21901.706    381.51156   -3430.9671   -4024.1926    82.261891 
    5300    571.54948   -113.79912   0.51714998   -113.28197   -3320.8635    4.3490536    4.3490536    4.3490536   -3320.8635   -2553.7218   -15496.509    8087.6399    370.19241    2219.1467    3046.7623    82.259163 
    5400    423.46403   -113.66607   0.38315915   -113.28292   -5175.9407    4.3528468    4.3528468    4.3528468   -5175.9407   -16674.095   -15991.319    17137.592    1609.5418    3541.4181   -5245.1651    82.474587 
    5500    527.10928    -113.7561   0.47693956   -113.27916    1153.7568    4.3430724    4.3430724    4.3430724    1153.7568     -5579.96   -293.94574    9335.1763     1604.508   -7108.9124   -5192.3229     81.92024 
    5600    533.82587   -113.76296   0.48301686   -113.27994   -7310.5287     4.354297     4.354297     4.354297   -7310.5287   -11204.664   -27626.433    16899.511   -1130.0438   -699.96528     4682.934    82.557049 
    5700    364.57108    -113.6094   0.32987158   -113.27953   -4562.7021    4.3530357    4.3530357    4.3530357   -4562.7021   -15848.536   -17572.421    19732.851    2308.9206   -3769.9019   -348.60534    82.485325 
    5800    545.29527    -113.7702   0.49339462    -113.2768    6480.8316    4.3356718    4.3356718    4.3356718    6480.8316    11399.227    1303.7966    6739.4713    2314.1535   -7382.8389    4226.0432    81.502173 
    5900    527.99975    -113.7569   0.47774527   -113.27916   -18493.894    4.3650783    4.3650783    4.3650783   -18493.894   -15280.974   -41715.778    1515.0691   -65.123844    421.97022   -4826.3376    83.171806 
    6000    426.77455   -113.66518   0.38615458   -113.27902    2458.2401    4.3417481    4.3417481    4.3417481    2458.2401    14014.081   -8237.9181    1598.5569    8885.7502   -3058.6778    1329.2984    81.845325 
    6100    450.27169   -113.68914   0.40741529   -113.28172     11407.84    4.3411956    4.3411956    4.3411956     11407.84     10048.84    -8161.386    32336.066    875.07619    3385.1393     2314.067    81.814083 
    6200    591.98695   -113.81349   0.53564224   -113.27784   -27502.994    4.3714308    4.3714308    4.3714308   -27502.994   -22284.229   -42083.827   -18140.924   -14.393003   -559.41135   -1720.4694    83.535453 
    6300    361.69257   -113.60004   0.32726704   -113.27278    21996.869    4.3270452    4.3270452    4.3270452    21996.869    28525.137   -3351.8038    40817.275    14989.922    5050.4111    8140.8685    81.016655 
    6400    629.82189   -113.85222   0.56987609   -113.28234   -13548.355    4.3573456    4.3573456    4.3573456   -13548.355   -18057.085    -20266.25   -2321.7298    702.98107   -3300.6518   -4103.7075    82.730572 
    6500    615.18097   -113.83554   0.55662867   -113.27891   -20870.066    4.3621212    4.3621212    4.3621212   -20870.066   -10572.868   -29690.533   -22346.799    3088.4105   -1458.2379   -4674.2744    83.002883 
    6600     466.2204   -113.69245   0.42184602    -113.2706      18328.1    4.3243878    4.3243878    4.3243878      18328.1    10968.659    736.49898    43279.142    7704.0197   -1760.9632    9006.2954    80.867479 
    6700    588.20764   -113.80967   0.53222263   -113.27745   -20257.317    4.3670705    4.3670705    4.3670705   -20257.317   -11667.872   -31910.802   -17193.277   -4296.2401    -935.8613    2210.3435    83.285733 
    6800    421.32421   -113.65883     0.381223   -113.27761    7099.6938    4.3472557    4.3472557    4.3472557    7099.6938    9845.2189   -15811.647     27265.51    5796.4201     1390.241    2864.0012    82.157187 
    6900    551.56181   -113.77351   0.49906472   -113.27444    3706.5473    4.3368843    4.3368843    4.3368843    3706.5473    5773.5042   -4851.6599    10197.797    5225.7855     1968.683    6049.8033     81.57057 
    7000    350.60336   -113.59383   0.31723329    -113.2766   -3927.3645    4.3647951    4.3647951    4.3647951   -3927.3645    10050.863    -34832.81    12999.853   -2980.0207    7912.9519    390.27699    83.155614 
    7100    600.82012   -113.81722   0.54363467   -113.27358    9947.0159      4.34065      4.34065      4.34065    9947.0159    12379.771    10933.951    6527.3263   -3761.1057   -3546.9912     8818.309    81.783239 
    7200    409.32965   -113.64888   0.37037007   -113.27851     4496.313    4.3489928    4.3489928    4.3489928     4496.313    13790.746    -5700.214     5398.407   -3458.1651    1641.0293   -2280.2195    82.255714 
    7300    551.68732   -113.77694   0.49917828   -113.27777   -6341.8499    4.3550208    4.3550208    4.3550208   -6341.8499   -758.07129   -13196.907   -5070.5718    120.70967    1365.3845    6123.6022    82.598223 
    7400    525.70601   -113.75439   0.47566985   -113.27872     7383.015    4.3422439    4.3422439    4.3422439     7383.015    9526.9819    17422.624   -4800.5606   -2448.5261   -1698.5757    -958.5361    81.873366 
    7500    440.81892   -113.68111   0.39886222   -113.28225     1584.304    4.3516828    4.3516828    4.3516828     1584.304    -2979.948   -1537.2483    9270.1082   -2552.3624   -3061.9595   -3129.2354    82.408438 
    7600    603.17509   -113.82452   0.54576549   -113.27876   -12404.798    4.3544475    4.3544475    4.3544475   -12404.798   -16037.837   -2900.2068    -18276.35    3551.0018    -5264.536    1508.8031    82.565609 
    7700     351.4219   -113.59558   0.31797392   -113.27761    13175.927    4.3430149    4.3430149    4.3430149    13175.927    17508.189     6048.689    15970.902      87.6495    5220.9343   -6200.0263    81.916985 
    7800    579.66938   -113.80016   0.52449704   -113.27566   -9635.2296    4.3564118    4.3564118    4.3564118   -9635.2296   -16476.212   -10234.005   -2195.4717    4606.4784   -240.83989    -2677.653    82.677396 
    7900    362.99841   -113.60691   0.32844859   -113.27846    3562.2697     4.349729     4.349729     4.349729    3562.2697     17931.48   -11881.419    4636.7476    7986.3864    3265.4891   -25.929637    82.297492 
    8000    438.24587   -113.67575   0.39653408   -113.27921    12744.788     4.345107     4.345107     4.345107    12744.788     19258.88    3390.2119    15585.273    2224.8125    7280.8447    -5030.769    82.035424 
    8100    460.62293   -113.69371   0.41678131   -113.27693   -9193.2221    4.3628611    4.3628611    4.3628611   -9193.2221     494.1202   -22065.355   -6008.4318    3499.4824    2340.0981   -5753.4511    83.045129 
    8200    327.73365   -113.57079   0.29654029   -113.27425    19309.171    4.3370791    4.3370791    4.3370791    19309.171    17306.648    7784.1263    32836.738    9368.2611    6032.9016   -5668.6786    81.581562 
    8300     468.1796   -113.70445   0.42361874   -113.28084   -4163.6878    4.3614935    4.3614935    4.3614935   -4163.6878   -7449.2017   -5674.4997     632.6379   -96.718257    3858.7252   -1388.3009    82.967057 
    8400    384.25972   -113.62596   0.34768627   -113.27828     3621.664    4.3533659    4.3533659    4.3533659     3621.664    7047.6044   -9763.6364    13581.024    6825.6087   -3227.8813    -3364.862    82.504097 
    8500    477.72642   -113.70344   0.43225691   -113.27118     12872.85    4.3324943    4.3324943    4.3324943     12872.85   -9247.7362    23901.136    23965.149    3766.5854   -7030.7193   -6651.2505    81.323114 
    8600    414.41779   -113.65083   0.37497392   -113.27586   -16671.523    4.3718419    4.3718419    4.3718419   -16671.523   -13410.096    -15251.77   -21352.703   -4663.9398   -1962.0986   -1427.0843    83.559021 
    8700    488.34486    -113.7143   0.44186469   -113.27243    15262.527    4.3353603    4.3353603    4.3353603    15262.527    17010.205    13640.262    15137.115    1306.0925   -2855.2245     -4145.26     81.48461 
    8800    530.40475   -113.75628   0.47992137   -113.27636    1556.0274    4.3436324    4.3436324    4.3436324    1556.0274    4161.5561    9532.2395   -9025.7133   -2102.6163   -9505.3075     2790.243    81.951932 
    8900    321.13477   -113.56681   0.29056949   -113.27624   -6458.2069    4.3673601    4.3673601    4.3673601   -6458.2069    1112.2424   -19076.253   -1410.6097   -2179.5934    3874.0159    5046.1669    83.302302 
    9000    616.26495   -113.82586   0.55760948   -113.26825    17862.762     4.327207     4.327207     4.327207    17862.762    10233.449    10717.202    32637.633   -1301.9135    6376.0399    2466.0358    81.025741 
    9100     373.4241   -113.61627   0.33788197   -113.27839    5433.9876    4.3537528    4.3537528    4.3537528    5433.9876    5445.3687   -13621.087    24477.681   -2728.8186   -2139.6312    3919.7925    82.526096 
    9200    258.18191   -113.51167   0.23360842   -113.27806    11966.557    4.3565304    4.3565304    4.3565304    11966.557    12663.035    -3480.027    26716.664   -3689.7469    434.10199    6178.5436    82.684148 
    9300    749.54161   -113.94982     0.678201   -113.27162     7935.197    4.3342415    4.3342415    4.3342415     7935.197    2806.6786    4637.2136    16361.699    2197.8188    1804.2736    4590.4078     81.42154 
    9400    516.35721    -113.7448   0.46721086   -113.27759   -2841.2317    4.3571711    4.3571711    4.3571711   -2841.2317   -1085.1217   -17765.895    10327.322    3110.7013    -2513.935   -1486.0966    82.720632 
    9500    554.52593   -113.77691   0.50174671   -113.27517   -13.733736    4.3491083    4.3491083    4.3491083   -13.733736    9833.8559    7316.5337   -17191.591    -874.5744   -8952.4876    1260.6141    82.262265 
    9600    685.70387   -113.89481   0.62043927   -113.27437    2236.7846    4.3443026    4.3443026    4.3443026    2236.7846   -6885.6248   -1879.1035    15475.082   -1149.5091   -1031.3397    1805.3359    81.989872 
    9700    514.95439   -113.74297   0.46594155   -113.27703    2334.2021    4.3540332    4.3540332    4.3540332    2334.2021    15732.649   -15048.986     6318.943   -1980.3321    106.12093   -8459.1639    82.542041 
    9800    465.99299    -113.6976   0.42164025   -113.27596    12347.167    4.3425583    4.3425583    4.3425583    12347.167    3755.6713    14191.467    19094.363    2499.6267    -6609.694   -1212.0098    81.891152 
    9900    557.26861    -113.7816   0.50422835   -113.27738   -5770.0341    4.3535087    4.3535087    4.3535087   -5770.0341   -2010.0486   -21191.025    5890.9713    4253.2145    1684.7121    827.26951    82.512218 
   10000    476.61915   -113.70817   0.43125502   -113.27691    5708.2582    4.3450368    4.3450368    4.3450368    5708.2582    17905.183   -12453.932    11673.524    14.265923     35.66466    4120.5591    82.031448 
   10100    467.64615   -113.70148   0.42313607   -113.27834    3991.5661    4.3456215    4.3456215    4.3456215    3991.5661    4158.1978      5607.52    2208.9804    658.07764    3246.6283    1248.3983     82.06457 
   10200    488.00032   -113.71931   0.44155294   -113.27776   -10243.393    4.3540507    4.3540507    4.3540507   -10243.393    5939.5306   -15565.368   -21104.341   -4658.8131    2018.1256    4320.7058    82.543034 
   10300    447.55126   -113.68081   0.40495379   -113.27586    4524.6767    4.3380767    4.3380767    4.3380767    4524.6767    10474.953    5820.8319   -2721.7544    3668.8328    1426.7332    12175.911    81.637875 
   10400    441.25477   -113.67775   0.39925658    -113.2785   -12648.335    4.3554844    4.3554844    4.3554844   -12648.335   -18635.045    4580.4208    -23890.38    1005.0326   -3292.8168   -1620.9757    82.624602 
   10500    365.83874   -113.60887   0.33101858   -113.27785    2209.1358    4.3440059    4.3440059    4.3440059    2209.1358    9477.5794    17664.328     -20514.5   -8836.9739   -2563.7939     10648.87    81.973076 
   10600     437.2633   -113.67619   0.39564502   -113.28055    -178.5661     4.341974     4.341974     4.341974    -178.5661    -7842.634    22743.401   -15436.465    3079.4084    3387.8103    7345.2752    81.858101 
   10700    403.70042   -113.64548   0.36527663   -113.28021   -16045.075    4.3578537    4.3578537    4.3578537   -16045.075   -26291.919    4591.8426   -26435.149    1964.9654    1971.3181     -4621.12    82.759514 
   10800    470.77586   -113.70223   0.42596789   -113.27626    8.5058949    4.3377953    4.3377953    4.3377953    8.5058949     8027.571    5084.7546   -13086.808    7591.6373   -10633.107    8803.1492    81.621986 
   10900    574.23652   -113.79616   0.51958127   -113.27658   -14462.139    4.3516385    4.3516385    4.3516385   -14462.139   -8477.2287   -14630.629   -20278.561   -3486.0087    4974.8411    2339.9437    82.405925 
   11000    484.09792   -113.71296   0.43802197   -113.27494   -9774.6089    4.3511629    4.3511629    4.3511629   -9774.6089   -15074.529    7195.6081   -21444.906   -1035.2678    1716.4043   -4048.8891    82.378905 
   11100    617.70965   -113.83387   0.55891667   -113.27496   -9213.6685    4.3412466    4.3412466    4.3412466   -9213.6685   -11607.361   -3868.1544    -12165.49    4180.1998   -5946.2722    3923.5225    81.816966 
   11200    390.44716   -113.63305   0.35328479   -113.27977    2050.8513    4.3511516    4.3511516    4.3511516    2050.8513    8102.1264    15918.982   -17868.554   -1452.8912    6456.7542    2835.8223    82.378266 
   11300    616.60744   -113.83668   0.55791937   -113.27876   -4055.0569    4.3431434    4.3431434    4.3431434   -4055.0569    -15454.76    18722.072   -15432.482    1888.5136   -4893.5887    4732.4177    81.924257 
   11400    398.96732   -113.64198   0.36099401   -113.28098     3691.337    4.3468177    4.3468177    4.3468177     3691.337   -4648.8254    23665.896   -7943.0594   -1401.9416   -8040.7807   -2062.1554    82.132357 
   11500    522.48365   -113.75088   0.47275418   -113.27813   -2240.0726    4.3491702    4.3491702    4.3491702   -2240.0726    6223.0904   -797.41571   -12145.892    2674.5744    4824.7938     4821.927    82.265778 
   11600    666.91652   -113.88044   0.60344009     -113.277   -4981.5211    4.3399393    4.3399393    4.3399393   -4981.5211   -3799.1495    1294.4962    -12439.91    6403.4914    1712.1601    6324.6514    81.743074 
   11700    433.84148   -113.67201   0.39254889   -113.27946   -7570.5404    4.3529954    4.3529954    4.3529954   -7570.5404   -2990.2393   -8961.5756   -10759.806    1167.0512    -5239.831   -6681.7513    82.483033 
   11800    637.42631   -113.85329   0.57675672   -113.27653   -3064.9073    4.3434798    4.3434798    4.3434798   -3064.9073    1151.8721   -2350.7672   -7995.8267   -726.63729   -4193.7971     4324.339    81.943294 
   11900    617.92097   -113.83626   0.55910788   -113.27715   -3890.8407    4.3443222    4.3443222    4.3443222   -3890.8407    -200.7152    3030.0035    -14501.81   -1675.2801   -3271.7651   -760.37153    81.990983 
   12000    369.21321   -113.61326   0.33407188   -113.27919   -4669.8675    4.3545051    4.3545051    4.3545051   -4669.8675   -12034.317    343.82812   -2319.1136    7556.4645   -6162.0761   -4052.0752    82.568885 
   12100    523.90641   -113.75122   0.47404153   -113.27717    7326.0032    4.3386692    4.3386692    4.3386692    7326.0032   -5981.4022    30024.785   -2065.3734    854.32838    435.18942    4096.0901    81.671328 
   12200    533.55208   -113.76404   0.48276914   -113.28127    5905.1638    4.3464625    4.3464625    4.3464625    5905.1638    5228.1687    18823.507    -6336.184    1435.5299    6465.4946   -737.04444    82.112222 
   12300    285.87687   -113.53898    0.2586674   -113.28031   -4471.8639    4.3583528    4.3583528    4.3583528   -4471.8639   -27818.529     15942.72   -1539.7822    3524.2433   -6166.6391    6400.4917    82.787953 
   12400    617.97173    -113.8326    0.5591538   -113.27344   -133.81213    4.3322487    4.3322487    4.3322487   -133.81213   -9567.5617    3725.7404    5440.3849    5154.1754   -8004.4818    4326.5815    81.309282 
   12500    421.23851   -113.66084   0.38114546   -113.27969    4289.0745    4.3526316    4.3526316    4.3526316    4289.0745     51.56361     2915.563    9900.0968    1536.1707    5559.7874    4532.2794    82.462352 
   12600    396.47776   -113.63562   0.35874141   -113.27688   -6388.0293     4.356457     4.356457     4.356457   -6388.0293   -20139.536   -14739.206    15714.655   -1069.6063   -4709.7733    2520.3722    82.679967 
   12700    518.38689   -113.74118   0.46904735   -113.27213    7667.1152    4.3295106    4.3295106    4.3295106    7667.1152   -4706.1974    6086.2899    21621.253    7464.4948   -5736.9658   -5684.2318    81.155214 
   12800    440.93787   -113.67791   0.39896985   -113.27894   -2675.4904    4.3576788    4.3576788    4.3576788   -2675.4904   -6543.9454   -7975.1827    6492.6569    1346.9477   -1191.9598    2447.1476    82.749552 
   12900    557.73143   -113.78217   0.50464712   -113.27752   -13005.718    4.3501604    4.3501604    4.3501604   -13005.718   -20368.733   -9853.1448   -8795.2775   -5096.7802   -3002.8745    875.01974     82.32198 
   13000    437.28841   -113.67179   0.39566774   -113.27612    10960.403    4.3294145    4.3294145    4.3294145    10960.403    4882.1098     15245.93     12753.17    8780.1443   -1725.8233   -803.77111    81.149811 
   13100    613.91423   -113.83253   0.55548249   -113.27705   -16688.344    4.3621544    4.3621544    4.3621544   -16688.344   -22908.549   -18611.906   -8544.5767    1677.5209    1781.8642    1733.4407    83.004781 
   13200    663.94695   -113.87778   0.60075316   -113.27703   -6391.8729    4.3405361    4.3405361    4.3405361   -6391.8729   -13528.245   -10172.877    4525.5034   -198.32561    3063.9684    -1814.645    81.776801 
   13300    391.46279   -113.63349   0.35420376   -113.27929    8086.2209    4.3385675    4.3385675    4.3385675    8086.2209   -6234.0308    2677.2682    27815.425    14823.849    -6493.795    4517.9772    81.665587 
   13400     611.8128   -113.82706   0.55358108   -113.27347   -13600.345    4.3620699    4.3620699    4.3620699   -13600.345   -22300.986   -19378.274    878.22406   -532.31224   -1512.2192    1663.0966    82.999955 
   13500    626.96566   -113.83873    0.5672917   -113.27144    5317.6914    4.3367418    4.3367418    4.3367418    5317.6914    15673.471   -11602.464    11882.067    88.398091   -1908.9574    3525.4219    81.562529 
   13600    336.83372   -113.58331   0.30477422   -113.27853     5572.772    4.3468277    4.3468277    4.3468277     5572.772   -428.91592    437.52466    16709.707    11122.198   -9814.0697    611.91467    82.132922 
   13700    506.11222   -113.73141   0.45794098   -113.27347   -4938.8056    4.3567865    4.3567865    4.3567865   -4938.8056    7065.8688    -20087.24   -1795.0454    1293.7711    -9066.498   -1962.4699    82.698731 
   13800    551.65144   -113.77032   0.49914581   -113.27117    11078.083    4.3360224    4.3360224    4.3360224    11078.083    35955.588    126.41277   -2847.7534    3607.9903   -704.17001    6171.4548    81.521946 
   13900     281.0649   -113.53397   0.25431343   -113.27966    2646.6268    4.3519396    4.3519396    4.3519396    2646.6268    10358.695    699.64297   -3118.4576       3837.6   -2826.6057   -488.88841    82.423032 
   14000    501.78116   -113.72821   0.45402214   -113.27419    -5519.112     4.353046     4.353046     4.353046    -5519.112    10207.587   -20155.152    -6609.771    1838.4508   -5718.5032    1542.1139    82.485907 
   14100    450.85708   -113.67986   0.40794496   -113.27192    13493.757    4.3377242    4.3377242    4.3377242    13493.757    19397.821    19136.765    1946.6841    4319.0208    4356.4882    4513.6571    81.617974 
   14200    480.16013   -113.71145   0.43445897   -113.27699   -10460.847    4.3536425    4.3536425    4.3536425   -10460.847   -16960.782   -11087.054   -3334.7038    7565.2161    -664.8756   -2126.0895    82.519823 
   14300     405.7544   -113.64159   0.36713511   -113.27445    -3559.323    4.3511289    4.3511289    4.3511289    -3559.323   -9492.3665     3845.769   -5031.3714    1342.3148   -2654.9456    3951.5731    82.376976 
   14400    626.87938   -113.83826   0.56721364   -113.27104    3999.1948    4.3358038    4.3358038    4.3358038    3999.1948   -1336.9132    16094.248   -2759.7502   -1450.2852    4939.6385    2502.3896    81.509617 
   14500    497.38527   -113.72658   0.45004464   -113.27653   -9269.4987    4.3540936    4.3540936    4.3540936   -9269.4987   -35235.652   -2329.5648    9756.7208   -1308.3389    970.03411   -4462.8871    82.545476 
   14600    404.66627   -113.64196   0.36615055   -113.27581   -2946.8254    4.3503796    4.3503796    4.3503796   -2946.8254   -21928.313    16152.164   -3064.3265    3780.1482   -3323.7866    4199.6625    82.334424 
   14700    711.49013   -113.91559   0.64377122   -113.27182    4253.4341    4.3335977    4.3335977    4.3335977    4253.4341    8191.9587   -625.56743    5193.9109    -5413.672    2196.7186    1951.6446    81.385262 
   14800    488.10124   -113.71838   0.44164426   -113.27673   -3954.9526    4.3540878    4.3540878    4.3540878   -3954.9526   -27983.842     19321.27    -3202.286   -3861.1605    3251.4366   -944.22142    82.545148 
   14900    482.67548   -113.71285   0.43673492   -113.27611   -429.41713    4.3478211    4.3478211    4.3478211   -429.41713    2017.0521   -4670.0591    1364.7556    5671.8001   -3297.1317    660.45958    82.189248 
   15000    581.65437   -113.80161    0.5262931   -113.27531    8101.2888    4.3373422    4.3373422    4.3373422    8101.2888    8763.8136    16115.581   -575.52863     1663.589    221.24942   -993.82944    81.596415 
   15100    561.83227   -113.78753   0.50835764   -113.27918    1223.5321    4.3506215    4.3506215    4.3506215    1223.5321   -335.10814    4149.6848   -143.98024    3138.3443    3299.7047    4785.6818    82.348162 
   15200    464.57934    -113.6998   0.42036115   -113.27943     80.55186    4.3491849    4.3491849    4.3491849     80.55186     12997.17     -7630.13   -5125.3842    116.07903    -5404.619    2877.2297    82.266612 
   15300    572.58866   -113.79469   0.51809025    -113.2766    4723.8552    4.3372557    4.3372557    4.3372557    4723.8552   -4520.3631    14887.961    3803.9681    6524.5039   -5417.1829    274.66464     81.59153 
   15400    532.16754   -113.75976   0.48151638   -113.27824    1602.1288    4.3501403    4.3501403    4.3501403    1602.1288    11351.764   -10934.424    4389.0467   -835.94972    2172.1858    1668.6869     82.32084 
   15500    522.59574   -113.75141   0.47285561   -113.27856   -7319.4433    4.3503318    4.3503318    4.3503318   -7319.4433   -13627.398     376.2146   -8707.1464   -1952.3709   -958.49598   -1066.9675     82.33171 
   15600    498.22373   -113.72948    0.4508033   -113.27868    5908.2514    4.3322323    4.3322323    4.3322323    5908.2514    5118.3706    3261.6601    9344.7235    9070.0608   -9557.9762    3012.3176    81.308361 
   15700    514.36619   -113.74699   0.46540934   -113.28158   -6646.3328    4.3528199    4.3528199    4.3528199   -6646.3328    -10398.78   -2884.2111   -6656.0073   -6601.1576    3120.9146   -2698.0926    82.473058 
   15800    481.42694   -113.71449   0.43560522   -113.27889   -8207.2093    4.3499851    4.3499851    4.3499851   -8207.2093   -14311.846   -2305.2379   -8004.5439    3743.5702    5185.4699   -1573.6961     82.31203 
   15900    406.51184    -113.6426   0.36782046   -113.27478    13766.618    4.3283661    4.3283661    4.3283661    13766.618    14651.873    11581.204    15066.778     9975.816   -9276.8978   -668.38351    81.090872 
   16000    546.06924   -113.77198   0.49409493   -113.27788   -15069.031    4.3585558    4.3585558    4.3585558   -15069.031   -15646.021   -3870.3859   -25690.686   -2507.8514    2575.2305   -3684.4613    82.799525 
   16100    342.07404   -113.58781   0.30951578    -113.2783    2258.0425    4.3450714    4.3450714    4.3450714    2258.0425    18994.827    5999.4147   -18220.114    4106.8137    1755.1722    1526.5405    82.033407 
   16200    576.98137   -113.79528   0.52206487   -113.27322    5867.9233    4.3268827    4.3268827    4.3268827    5867.9233   -3838.2094    12842.474    8599.5052    5351.3072   -7025.9601   -2875.9117    81.007527 
   16300    367.71332    -113.6096   0.33271474   -113.27688   -7735.5182    4.3629345    4.3629345    4.3629345   -7735.5182    12275.884   -4085.2761   -31397.163    3565.8125    2140.8613   -1613.4818    83.049318 
   16400    542.22296   -113.76745   0.49061473   -113.27684    5675.9715    4.3355165    4.3355165    4.3355165    5675.9715    12895.809    10055.218   -5923.1123   -1199.7633    187.32375    3499.6106    81.493418 
   16500    437.79444   -113.67603   0.39612561    -113.2799    11029.333    4.3345014    4.3345014    4.3345014    11029.333    20140.016    21358.086   -8410.1024     2478.657   -2712.5044    993.01735    81.436188 
   16600    470.85407   -113.70222   0.42603866   -113.27618   -11396.383    4.3610743    4.3610743    4.3610743   -11396.383   -5014.6122   -6639.8686    -22534.67      4429.15   -2106.7669    3322.1544    82.943137 
   16700     537.1295    -113.7573   0.48600606   -113.27129    17983.365     4.328136     4.328136     4.328136    17983.365    16431.653    25396.247    12122.194   -4783.0467    8713.3239   -502.64362     81.07794 
   16800    488.11988   -113.71848   0.44166113   -113.27681   -2573.1477    4.3469674    4.3469674    4.3469674   -2573.1477    6213.5127    6261.1823   -20194.138    4047.9656   -45.413397    1383.9726    82.140842 
   16900    483.36204   -113.71337   0.43735614   -113.27602   -2456.0786    4.3484043    4.3484043    4.3484043   -2456.0786   -21528.537    16075.323   -1915.0216    1720.1444   -10549.889    987.57919    82.222323 
   17000    494.09062   -113.72223   0.44706357   -113.27516    12937.826    4.3328353    4.3328353    4.3328353    12937.826    17964.485    12760.004    8088.9894   -2418.6941    5595.2398    118.17951    81.342315 
   17100    578.64664   -113.80003   0.52357164   -113.27646   -7868.8919    4.3498017    4.3498017    4.3498017   -7868.8919   -18421.822    6965.1245   -12149.978    2391.5759    6876.9837    3995.0327    82.301619 
   17200    440.26666   -113.67633   0.39836252   -113.27797    4301.2236    4.3425381    4.3425381    4.3425381    4301.2236   -6311.0865     7420.939    11793.818    894.67268   -6534.6343   -4556.8234     81.89001 
   17300    515.12811   -113.74432   0.46609874   -113.27822    2574.5733    4.3401466    4.3401466    4.3401466    2574.5733   -2217.1503    13168.426   -3227.5557    5787.5506   -3128.1345   -3494.8075     81.75479 
   17400    626.48724   -113.84469   0.56685882   -113.27784   -5867.6975    4.3472627    4.3472627    4.3472627   -5867.6975   -12829.261     259.7929   -5033.6243   -4219.8083    648.68789    722.09212    82.157584 
   17500    400.71982    -113.6413   0.36257971   -113.27872    6828.4133     4.343151     4.343151     4.343151    6828.4133    4358.1102    4471.4048    11655.725   -1490.6486   -6248.3707   -1279.5486    81.924688 
   17600    636.69754   -113.85405   0.57609731   -113.27795   -4433.5234    4.3396995    4.3396995    4.3396995   -4433.5234   -9521.0332      2429.07   -6208.6069    9825.6648    1087.6853    463.78848    81.729522 
   17700    440.92995   -113.67927   0.39896268   -113.28031    1124.0581     4.346964     4.346964     4.346964    1124.0581    15188.664   -11716.325   -100.16443   -7588.7692     7909.415   -4924.9159     82.14065 
   17800    606.12767   -113.82759   0.54843705   -113.27915   -2074.0675    4.3385079    4.3385079    4.3385079   -2074.0675    4740.0873    -1644.738   -9317.5519    3982.8637   -6336.7952    2230.4416    81.662221 
   17900    575.86245   -113.80078   0.52105245   -113.27973   -5612.6172    4.3429931    4.3429931    4.3429931   -5612.6172    312.15868   -5066.0901    -12083.92   -86.641262   -7027.0405   -1523.7546     81.91575 
   18000    472.42059    -113.7063   0.42745608   -113.27884   -7770.5057    4.3493155    4.3493155    4.3493155   -7770.5057      11008.1   -19263.288   -15056.329   -7613.8192    5354.9374   -4415.0436    82.274025 
   18100    609.38781   -113.82673    0.5513869   -113.27534    754.64081    4.3345389    4.3345389    4.3345389    754.64081    4750.0077    7184.5926   -9670.6779    6677.0999    6532.2109    6079.7399    81.438303 
   18200    524.29245    -113.7519   0.47439083   -113.27751   -5872.9673    4.3484651    4.3484651    4.3484651   -5872.9673    6032.7024    -4760.614    -18890.99    471.90002   -892.45241   -1617.0996    82.225776 
   18300    507.98277   -113.73738   0.45963348   -113.27775   -9166.0506    4.3458996    4.3458996    4.3458996   -9166.0506   -1222.9915   -8451.9653   -17823.195    1699.3506   -1331.8402   -6584.2601    82.080327 
   18400    505.31287   -113.73387   0.45721771   -113.27666    2150.6648    4.3349562    4.3349562    4.3349562    2150.6648    3542.1015    18034.905   -15125.012   -762.87796    6901.8451    2985.4444    81.461827 
   18500    510.68374   -113.74028   0.46207738    -113.2782   -2434.1539    4.3483958    4.3483958    4.3483958   -2434.1539    7223.3599    2159.1846   -16685.006   -4958.8788   -2011.2598    3873.0079    82.221842 
   18600    490.08864     -113.722    0.4434425   -113.27856   -2168.1793    4.3434546    4.3434546    4.3434546   -2168.1793   -16772.155    23331.321   -13063.704    2617.4239   -1053.0559    -4978.632    81.941871 
   18700    399.00622   -113.64177   0.36102922   -113.28074    5510.9667    4.3369661    4.3369661    4.3369661    5510.9667   -3998.1196    24642.957   -4111.9379   -4319.1828      11202.7   -3306.0177     81.57519 
   18800    465.85499   -113.70275   0.42151538   -113.28124   -2162.5285    4.3515741    4.3515741    4.3515741   -2162.5285   -3401.7782    14393.238   -17479.045     3630.865   -5621.3183    4200.4881    82.402267 
   18900    535.84204   -113.76321   0.48484114   -113.27837   -5431.0084    4.3435355    4.3435355    4.3435355   -5431.0084   -26338.925    10058.771   -12.871136   -184.44732   -1215.8954   -873.77471    81.946449 
   19000    317.47201   -113.56615   0.28725535    -113.2789    9781.1156    4.3348779    4.3348779    4.3348779    9781.1156   -5896.0475    32189.325    3050.0691     2101.617     12396.79   -1850.3964    81.457414 
   19100    501.02949   -113.73047   0.45334201   -113.27713   -14471.426    4.3546257    4.3546257    4.3546257   -14471.426   -23724.289   -2753.6604   -16936.329    605.91147   -2425.7175    6784.5076    82.575744 
   19200    451.34703   -113.68429   0.40838828    -113.2759   -820.52358    4.3394829    4.3394829    4.3394829   -820.52358   -11147.369    10003.494   -1317.6955   -5076.8451    1847.9716    4843.1873    81.717286 
   19300    348.75835   -113.59399   0.31556388   -113.27842    3156.7588    4.3383133    4.3383133    4.3383133    3156.7588   -14515.543    22291.852    1693.9675    6153.3835    10364.704   -1962.1233    81.651232 
   19400    610.38535   -113.82781   0.55228949   -113.27552   -18966.625    4.3533784    4.3533784    4.3533784   -18966.625   -16731.746   -16782.444   -23385.686   -1708.4578    857.64433    4720.1956    82.504809 
   19500    383.77539   -113.62351   0.34724804   -113.27626    2760.6281    4.3399066    4.3399066    4.3399066    2760.6281    7884.7157     4242.115   -3844.9466    903.92283    6627.0559    4385.6012    81.741229 
   19600    516.93999    -113.7458   0.46773816   -113.27806   -6375.6782    4.3413372    4.3413372    4.3413372   -6375.6782   -9158.5268    3953.9352   -13922.443   -3584.3927     4619.278   -1324.2599    81.822088 
   19700    530.17456    -113.7575   0.47971308   -113.27779   -7501.6056    4.3519452    4.3519452    4.3519452   -7501.6056    10532.001   -14349.254   -18687.564   -6687.9384    250.67821   -476.61093    82.423349 
   19800    542.47438   -113.76734   0.49084221    -113.2765    95.497268    4.3412836    4.3412836    4.3412836    95.497268    14708.212   -6628.1966   -7793.5239    4420.2815    3977.4899    5541.4175    81.819055 
   19900    513.75634   -113.74242   0.46485753   -113.27757   -1313.8066    4.3423149    4.3423149    4.3423149   -1313.8066     9005.652    1471.8463   -14418.918   -2635.1235    1745.2865   -100.24996    81.877379 
   20000    632.17066    -113.8482    0.5720013   -113.27619    -9243.851    4.3519099    4.3519099    4.3519099    -9243.851    10095.059   -17515.574   -20311.039    4754.2866    76.458682   -3160.9549     82.42134 
   20100    649.73686   -113.86227   0.58789557   -113.27438    675.57753    4.3396241    4.3396241    4.3396241    675.57753    6546.2389   -5149.5086    630.00229   -2094.9203   -2647.4729    6228.9668    81.725265 
   20200    578.40752   -113.80105   0.52335528   -113.27769   -2472.5604    4.3427233    4.3427233    4.3427233   -2472.5604    10318.092    732.69702   -18468.471   -5632.8127   -2843.0433    967.69588    81.900488 
   20300    557.02902   -113.78187   0.50401157   -113.27786     -6399.07    4.3518528    4.3518528    4.3518528     -6399.07    561.45603   -8966.8073   -10791.859    5719.1972    3728.3165   -3021.5045      82.4181 
   20400    636.65746   -113.84987   0.57606105   -113.27381    8832.7958    4.3373429    4.3373429    4.3373429    8832.7958    15693.153    3007.8495    7797.3848   -1816.4602   -227.91589    3701.6999    81.596451 
   20500     458.2335   -113.69149    0.4146193   -113.27688    539.04385     4.347552     4.347552     4.347552    539.04385    12537.414    834.10614   -11754.389    1083.0813     1420.219    -489.8262    82.173986 
   20600    450.99666   -113.68587   0.40807126    -113.2778   -3354.2496    4.3485166    4.3485166    4.3485166   -3354.2496    1034.6833   -7626.1562   -3471.2758    1485.7859     2481.964   -2975.3234    82.228696 
   20700    439.95481   -113.67498   0.39808036    -113.2769     11624.56    4.3401283    4.3401283    4.3401283     11624.56    9346.8263    11811.745    13715.109   -6216.3847    1410.3361    3260.1087    81.753753 
   20800    527.03426   -113.75471   0.47687168   -113.27784   -3032.2218    4.3456477    4.3456477    4.3456477   -3032.2218   -4113.2062   -5835.7784    852.31929    4947.9429    4542.5492    5879.8617    82.066053 
   20900    342.59018   -113.58882   0.30998279   -113.27883    -1856.345     4.346368     4.346368     4.346368    -1856.345   -3572.3776    2266.0041   -4262.6615   -2838.4093    93.579959    566.77113    82.106868 
   21000    431.32682   -113.66831   0.39027357   -113.27804    3497.3951    4.3401417    4.3401417    4.3401417    3497.3951   -9961.6997    21311.028   -857.14276    -1870.704   -1283.0658   -1277.4979    81.754514 
   21100    600.77898   -113.82109   0.54359744    -113.2775   -2775.5787    4.3424354    4.3424354    4.3424354   -2775.5787   -7862.6104   -492.80406     28.67818    1473.7857    804.74987    5797.9274    81.884198 
   21200    331.37087   -113.58032   0.29983133   -113.28049   -5507.6344    4.3486048    4.3486048    4.3486048   -5507.6344   -10545.512    5874.1949   -11851.586   -4269.9704   -8.2251636   -2030.0169      82.2337 
   21300    361.32735   -113.60501   0.32693658   -113.27807    5999.2027    4.3379948    4.3379948    4.3379948    5999.2027   -14701.261    29747.187     2951.682    -25.16362    1985.1162    -3328.013    81.633248 
   21400    692.65815   -113.90249   0.62673165   -113.27576   -3819.9773    4.3433722    4.3433722    4.3433722   -3819.9773   -8681.1797   -5068.4944    2289.7422   -2640.5307   -1623.0313    1741.6703    81.937204 
   21500    287.73928   -113.53912   0.26035255   -113.27876    1629.4271    4.3498222    4.3498222    4.3498222    1629.4271   -13323.841    18662.151   -450.02915   -2254.4767     186.6929   -6108.9669    82.302781 
   21600     479.6374   -113.71193     0.433986   -113.27794   -1851.2251    4.3367958    4.3367958    4.3367958   -1851.2251   -16453.904    17008.162   -6107.9332    964.07012    4369.1894   -244.34432    81.565576 
   21700    665.55279   -113.88108   0.60220615   -113.27888    1627.8312    4.3431015    4.3431015    4.3431015    1627.8312    -1449.921    3217.8916    3115.5231      2217.69    1591.5782   -328.37831    81.921884 
   21800    465.79063   -113.70088   0.42145715   -113.27942    1123.9805    4.3496311    4.3496311    4.3496311    1123.9805   -9292.9592    10168.432    2496.4689   -4068.2789    3862.0674    4451.8917    82.291937 
   21900    592.21806   -113.81444   0.53585135   -113.27858   -8210.8093    4.3374982    4.3374982    4.3374982   -8210.8093   -14059.107    10913.182   -21486.502    1614.1874    -363.0955   -836.62749    81.605219 
   22000    517.94598   -113.75011    0.4686484   -113.28146    7839.2048     4.343971     4.343971     4.343971    7839.2048   -6251.3974    16706.659    13062.352    500.65148   -4505.5022   -4041.8577    81.971096 
   22100    728.33359   -113.93669   0.65901154   -113.27768   -2007.5011    4.3457433    4.3457433    4.3457433   -2007.5011    -3513.479    4680.2358   -7189.2601   -4237.4178    6255.7105    4943.4463    82.071467 
   22200    449.40289   -113.68663   0.40662918      -113.28   -2443.0443    4.3404855    4.3404855    4.3404855   -2443.0443   -14314.804    9641.2669    -2655.596    3246.4426    2609.3055    654.00076    81.773938 
   22300    423.46091   -113.66377   0.38315633   -113.28062    2782.9583    4.3440137    4.3440137    4.3440137    2782.9583   -14287.813    14777.176    7859.5116   -7713.8483   -6122.5252   -1174.2492    81.973513 
   22400    691.86747   -113.90205   0.62601623   -113.27604   -650.04188    4.3449885    4.3449885    4.3449885   -650.04188   -6495.9157    3699.5867    846.20336   -1628.5104   -2735.7775   -3236.5397    82.028712 
   22500    485.49403    -113.7177    0.4392852   -113.27841   -4602.1137    4.3421894    4.3421894    4.3421894   -4602.1137   -17916.525    3494.3098    615.87449    3809.9072   -3338.4508   -3437.6614    81.870281 
   22600    302.06233   -113.55387   0.27331234   -113.28055    610.58741    4.3417764    4.3417764    4.3417764    610.58741   -19083.931    29518.607   -8602.9141   -4833.0972    1444.9696   -2297.1689    81.846923 
   22700    644.67042   -113.85932   0.58331134   -113.27601   -9191.1898    4.3475374    4.3475374    4.3475374   -9191.1898   -9673.5799   -11554.391   -6345.5979    2840.5957   -1050.6337   -5330.3532    82.173161 
   22800    525.37111   -113.75162   0.47536682   -113.27626   -2581.2496    4.3405326    4.3405326    4.3405326   -2581.2496   -7609.5739    9854.0396   -9988.2145   -3831.7927   -1597.5467    1649.4537    81.776603 
   22900    236.11512   -113.49572   0.21364192   -113.28208      -889.38    4.3429802    4.3429802    4.3429802      -889.38   -19110.735    19087.106   -2644.5102   -2465.5795     5653.102   -180.27216    81.915019 
   23000    582.94737    -113.8071   0.52746303   -113.27963   -12443.569    4.3460741    4.3460741    4.3460741   -12443.569   -4229.8248   -17171.005   -15929.877     2008.131   -49.472802   -9258.9455    82.090213 
   23100    442.53495   -113.68002   0.40041492   -113.27961    7708.7699    4.3401548    4.3401548    4.3401548    7708.7699   -5362.9465     15918.91    12570.346   -2357.6879     5547.422   -1177.0947    81.755251 
   23200     333.3266    -113.5835   0.30160092    -113.2819   -2814.8479    4.3454539    4.3454539    4.3454539   -2814.8479    -17360.94    11888.485   -2972.0892   -329.05559    4999.7433    1395.1859    82.055073 
   23300    543.76333   -113.77074   0.49200849   -113.27874   -4391.6265     4.341441     4.341441     4.341441   -4391.6265   -1744.7426   -3299.8591   -8130.2779   -295.50451    -866.4212   -1373.0265    81.827956 
   23400    438.34128   -113.67516    0.3966204   -113.27854    4040.5921    4.3465807    4.3465807    4.3465807    4040.5921   -3705.8327    6780.6879     9046.921    575.66952    7965.4039   -4404.1556    82.118923 
   23500    554.89613   -113.78016   0.50208168   -113.27808   -2981.7721    4.3404756    4.3404756    4.3404756   -2981.7721   -7210.0314    9415.7017   -11150.987   -671.85297   -1086.3381    -1667.331     81.77338 
   23600    479.00249   -113.71243   0.43341152   -113.27902    159.71449    4.3419747    4.3419747    4.3419747    159.71449   -3292.8423    6758.1839   -2986.1981    1049.2132   -7360.3466     -2265.74    81.858138 
   23700    533.93524   -113.75929   0.48311583   -113.27617   -2969.6711    4.3497438    4.3497438    4.3497438   -2969.6711    3135.7892    2255.1365   -14299.939   -1690.0292    3077.3112   -2537.8837     82.29833 
   23800    704.38722    -113.9124   0.63734436   -113.27506   -1898.1192    4.3357163    4.3357163    4.3357163   -1898.1192   -3434.6018    2778.0534   -5037.8093    103.90185   -4023.3812    1240.3776    81.504686 
   23900    399.84671   -113.64266    0.3617897   -113.28087    1925.6948    4.3472565    4.3472565    4.3472565    1925.6948   -7309.7117    16857.281   -3770.4852   -2480.5041   -5275.5534   -2310.5604    82.157234 
   24000    649.46676    -113.8651   0.58765117   -113.27745   -6919.0488    4.3464413    4.3464413    4.3464413   -6919.0488    8670.0999   -10997.737   -18429.509   -5922.4155   -4066.5317   -7574.9481    82.111023 
   24100    567.01817   -113.78921   0.51304995   -113.27616    10968.251    4.3337738    4.3337738    4.3337738    10968.251    275.30785     12079.31    20550.136    3732.5658   -831.01682   -2695.2469    81.395186 
   24200    489.12007   -113.72079   0.44256612   -113.27823   -6798.7289    4.3526928    4.3526928    4.3526928   -6798.7289   -4164.4189    5915.0974   -22146.865   -2802.7181    4286.8468    2915.7211    82.465833 
   24300    474.76655   -113.70571   0.42957875   -113.27613    3936.2982    4.3409425    4.3409425    4.3409425    3936.2982    10520.924   -2606.3222    3894.2924    -665.6729     -2471.25   -4983.6696    81.799771 
   24400    630.06789   -113.84495   0.57009867   -113.27485   -1264.4944     4.337907     4.337907     4.337907   -1264.4944   -892.68577   -4426.0027    1525.2052    6188.4239    1046.6974   -4235.2836     81.62829 
   24500    361.25911   -113.60543   0.32687483   -113.27855    237.94589    4.3499842    4.3499842    4.3499842    237.94589    4067.9138    13754.599   -17108.675   -5377.5961     2540.987    4235.8149    82.311977 
   24600    510.84678   -113.74023   0.46222491     -113.278   -4963.9753    4.3417266    4.3417266    4.3417266   -4963.9753    -4362.627   -5599.8179   -4929.4811    4699.7101    2556.0268   -2555.7441    81.844109 
   24700    497.94837   -113.72844   0.45055415   -113.27789    1755.7621     4.337554     4.337554     4.337554    1755.7621    2016.0158    1212.3282    2038.9423    610.20257    2562.8477    -1123.288    81.608367 
   24800    394.09554   -113.63693   0.35658593   -113.28034   -122.00292    4.3483794    4.3483794    4.3483794   -122.00292   -3169.8564    484.64414    2319.2035   -4185.7108   -3237.2759    476.37547     82.22091 
   24900    458.36141   -113.69367   0.41473503   -113.27894   -3932.7519    4.3442408    4.3442408    4.3442408   -3932.7519   -12368.078    6381.0511   -5811.2283    2713.8632    2006.9925   -3058.1335    81.986371 
   25000    401.66048   -113.64038   0.36343084   -113.27695    12562.629    4.3345872    4.3345872    4.3345872    12562.629    3815.1012    9611.2399    24261.545   -5990.3887   -909.18578   -2585.9134    81.441027 
   25100    450.52038   -113.68505   0.40764031   -113.27741   -2708.6844    4.3509105    4.3509105    4.3509105   -2708.6844   -9411.8035     2294.957   -1009.2067    2093.5779   -3208.0617    -1632.866     82.36457 
   25200    502.33164   -113.73016   0.45452023   -113.27564   -4760.1108    4.3442121    4.3442121    4.3442121   -4760.1108   -11817.155    2909.9033    -5373.081     1144.656     268.2872    2238.4996    81.984747 
   25300    400.30406   -113.63793   0.36220352   -113.27572    14910.478    4.3341618    4.3341618    4.3341618    14910.478    4510.4115    23973.888    16247.134   -8015.8069   -1131.4146    -5252.729    81.417051 
   25400    621.43718   -113.83947   0.56228942   -113.27718   -11219.797    4.3512666    4.3512666    4.3512666   -11219.797   -9877.8585   -6210.8028   -17570.728    5543.4739    351.17957   -5062.4429    82.384797 
   25500    493.90431   -113.72417     0.446895   -113.27727    -2733.754    4.3425258    4.3425258    4.3425258    -2733.754   -6475.6353    5890.9412   -7616.5681    -3047.319   -3161.7211    3912.4126    81.889309 
   25600    502.51797   -113.73308   0.45468882   -113.27839    6230.3308    4.3374474    4.3374474    4.3374474    6230.3308    -1560.987    15057.855     5194.124   -1505.5128   -825.35802    559.42118    81.602352 
   25700    682.84728   -113.89501   0.61785457   -113.27715   -11436.551     4.351364     4.351364     4.351364   -11436.551   -11879.064   -11609.574   -10821.014    4663.7033    3225.0564    50.906662    82.390327 
   25800    477.52523   -113.71185   0.43207486   -113.27977    118.82937     4.341409     4.341409     4.341409    118.82937    1999.1774    -5121.447    3478.7577   -5604.0922    426.78486    1767.4273    81.826148 
   25900    454.78795   -113.69154    0.4115017   -113.28004    1201.7833    4.3410599    4.3410599    4.3410599    1201.7833   -7914.4421    9763.4516    1756.3404   -3163.2437    5543.3278    1021.9307     81.80641 
   26000    688.34693   -113.89879   0.62283076   -113.27596   -10789.718    4.3497016    4.3497016    4.3497016   -10789.718   -8392.0869   -23608.848   -368.21997    6553.2451   -223.14322   -3261.2762    82.295935 
   26100     441.4547   -113.67691   0.39943749   -113.27747    2891.8875    4.3415786    4.3415786    4.3415786    2891.8875    10342.736   -4474.3051    2807.2321    323.99676   -6509.5103   -403.19245    81.835736 
   26200    515.87785   -113.74359   0.46677712   -113.27681   -49.200614    4.3391527    4.3391527    4.3391527   -49.200614   -3758.2232    2089.2035    1521.4178    -4310.732    2219.7443    912.04544    81.698638 
   26300    597.16253   -113.81747   0.54032521   -113.27715   -6425.7574    4.3515663    4.3515663    4.3515663   -6425.7574    6896.3141   -11818.581   -14355.006    3133.6865    2637.7708   -2411.6503    82.401821 
   26400    537.56673    -113.7641   0.48640167    -113.2777     4447.557    4.3388846    4.3388846    4.3388846     4447.557    11120.968   -7610.5188    9832.2213    6771.7821   -2503.7169   -1431.4989    81.683492 
   26500    482.91588   -113.71612   0.43695244   -113.27917    1133.3516    4.3393748    4.3393748    4.3393748    1133.3516    6529.1611    7044.5371   -10173.643    1696.5261   -4799.3185    1819.1535    81.711179 
   26600      505.372   -113.73522   0.45727121   -113.27795   -10143.068    4.3544984    4.3544984    4.3544984   -10143.068     9447.333   -13131.949   -26744.588   -1106.7791    2555.9341   -580.83089    82.568502 
   26700    474.32292   -113.70571   0.42917735   -113.27653    15634.008    4.3314347    4.3314347    4.3314347    15634.008    6535.7146    13938.149     26428.16    3638.1532    618.55971   -286.52375    81.263461 
   26800    475.77529   -113.71167   0.43049148   -113.28118   -1742.2166    4.3434524    4.3434524    4.3434524   -1742.2166    7282.1125   -3864.0627   -8644.6997    4443.5865   -1029.3805    3213.1569    81.941742 
   26900    397.30317   -113.63826   0.35948825   -113.27878   -11840.495    4.3538752    4.3538752    4.3538752   -11840.495   -13262.234   -11216.214   -11043.037   -3030.6584    2703.4469    1427.8118    82.533058 
   27000    397.51959   -113.63395   0.35968408   -113.27426    14842.737    4.3291161    4.3291161    4.3291161    14842.737    4377.5842     7554.792    32595.835    5749.4024   -1036.0221    1158.6582    81.133033 
   27100    471.49412   -113.70412   0.42661779    -113.2775   -7357.8442     4.350022     4.350022     4.350022   -7357.8442    -5069.416    -11887.39   -5116.7261    5510.8682    1654.3556    96.499209    82.314122 
   27200    406.84328   -113.64517   0.36812035   -113.27705   -12230.951    4.3472917    4.3472917    4.3472917   -12230.951   -25618.191   -8417.1936   -2657.4689   -4702.5798   -1226.2374    516.23247    82.159228 
   27300    362.72519    -113.6049   0.32820137    -113.2767   -128.14329    4.3323697    4.3323697    4.3323697   -128.14329   -8126.6235    905.55193    6836.6417    14506.247    2253.6387    1100.5125    81.316099 
   27400    591.56931   -113.81235   0.53526434   -113.27709   -15790.345    4.3487968    4.3487968    4.3487968   -15790.345   -11711.654   -28358.229   -7301.1515    8757.8532   -2819.3762   -3903.1387    82.244589 
   27500    449.98719    -113.6863   0.40715787   -113.27914   -7461.6363    4.3446429    4.3446429    4.3446429   -7461.6363   -9656.7524    83.493719    -12811.65   -5537.1318   -4945.0427   -4293.4845    82.009143 
   27600    440.70324   -113.67802   0.39875755   -113.27926   -3232.4491    4.3334711    4.3334711    4.3334711   -3232.4491   -10259.493    2482.2468   -1920.1011    12194.865    8116.1286   -385.55976    81.378131 
   27700    523.65529   -113.75385   0.47381431   -113.28003   -10312.708    4.3500928    4.3500928    4.3500928   -10312.708    2925.7504   -26427.223   -7436.6515    5065.7838   -1885.8138   -631.44709    82.318146 
   27800    593.01391   -113.81478   0.53657144   -113.27821   -6092.2361    4.3440482    4.3440482    4.3440482   -6092.2361    5613.9135   -5818.7604   -18071.861   -3299.5078   -1017.8427    932.61763     81.97547 
   27900      414.709   -113.65222   0.37523742   -113.27698    12685.249    4.3314496    4.3314496    4.3314496    12685.249    5121.2862    16794.168    16140.293    3812.3457    2435.2047   -2453.9475    81.264301 
   28000    535.77802   -113.76241   0.48478321   -113.27762   -9809.1357    4.3540978    4.3540978    4.3540978   -9809.1357    8524.1187    -28267.45   -9684.0753    6827.3765    3054.0351    337.31463    82.545716 
   28100    580.15902   -113.80212   0.52494007   -113.27718    6429.6939    4.3373775    4.3373775    4.3373775    6429.6939    3315.7982    6489.9754     9483.308   -1975.5163    4200.4377    871.61163    81.598406 
   28200    538.14176   -113.76588   0.48692197   -113.27896    8674.4709    4.3362691    4.3362691    4.3362691    8674.4709    16515.877   -2111.8317    11619.367   -3786.8247   -4818.1853    224.89758    81.535862 
   28300    499.62595   -113.73047   0.45207206    -113.2784   -6631.9535    4.3555529    4.3555529    4.3555529   -6631.9535    4796.7621   -13945.629   -10746.994     8598.522    2134.6518    1330.6475    82.628504 
   28400    571.96241   -113.79188   0.51752361   -113.27436     11589.62    4.3325361    4.3325361    4.3325361     11589.62    2600.3672    6814.4672    25354.026   -2826.0134   -3002.7321   -435.78105    81.325468 
   28500     549.2471   -113.77526   0.49697031   -113.27829   -678.08648    4.3442547    4.3442547    4.3442547   -678.08648    12432.541    -13722.48   -744.32045   -7628.4618   -2985.3971   -412.68543    81.987158 
   28600     563.7424   -113.78743   0.51008597   -113.27734   -10543.466    4.3502681    4.3502681    4.3502681   -10543.466    -13147.93   -5735.5132   -12746.953    8618.5726   -1866.0689   -3747.8755    82.328093 
   28700    419.07734   -113.65477   0.37918998   -113.27558    10401.049    4.3327961    4.3327961    4.3327961    10401.049    3569.5084    8492.1463    19141.491   -8912.4736   -5364.3689   -1665.5326     81.34011 
   28800    607.38875   -113.82564   0.54957811   -113.27606   -9703.2875    4.3468446    4.3468446    4.3468446   -9703.2875    1831.5857   -18507.882   -12433.566   -9225.0644    135.58705    705.08095    82.133883 
   28900    528.82898   -113.75502   0.47849558   -113.27652   -8720.9148    4.3472181    4.3472181    4.3472181   -8720.9148   -9373.6296    1449.6383   -18238.753    2514.0712   -4413.8357   -3593.0817    82.155052 
   29000    412.78138   -113.65106   0.37349326   -113.27757      2334.26    4.3341851    4.3341851    4.3341851      2334.26   -2504.7476    3924.0304    5583.4972   -4532.6082    1523.0791    659.07349    81.418361 
   29100    527.55418   -113.75593   0.47734211   -113.27859   -13404.933    4.3505384    4.3505384    4.3505384   -13404.933   -7041.8369   -17515.219   -15657.744    -4945.665     1405.923    224.75244    82.343441 
   29200     572.7685   -113.79494   0.51825298   -113.27669   -2263.5099    4.3417049    4.3417049    4.3417049   -2263.5099    1122.2477    8187.6422    -16100.42   -3515.5749   -6095.3881   -4465.8066     81.84288 
   29300    446.27448   -113.68101   0.40379853   -113.27722    1723.4843    4.3371304    4.3371304    4.3371304    1723.4843   -12056.411    14351.834    2875.0301   -1847.8481    5629.6497    2043.9592     81.58446 
   29400    486.92594   -113.71914   0.44058083   -113.27856   -13534.593    4.3508727    4.3508727    4.3508727   -13534.593     360.0205   -26991.514   -13972.284   -1959.9017    296.22406    2090.0357    82.362427 
   29500    536.62529   -113.76304   0.48554984   -113.27749    10223.189    4.3374403    4.3374403    4.3374403    10223.189    11385.855    20309.267   -1025.5551   -3182.3136   -300.79182     1845.784    81.601949 
   29600    655.87086   -113.87116   0.59344574   -113.27772   -1025.9473    4.3408511    4.3408511    4.3408511   -1025.9473    6358.3738    412.77161   -9848.9873    5336.7071    2440.4505    1637.2217    81.794608 
   29700    329.68377   -113.57883    0.2983048   -113.28052   -2075.5412    4.3488742    4.3488742    4.3488742   -2075.5412      9685.28   -13082.711   -2829.1929   -1291.2987   -2866.6016    1743.9631    82.248984 
   29800     510.3299   -113.73956   0.46175722    -113.2778    6220.8909    4.3383216    4.3383216    4.3383216    6220.8909    2223.1398    13956.612    2482.9205   -286.78949     3133.916   -20.271982      81.6517 
   29900    694.20081   -113.90423   0.62812748    -113.2761    -3622.766    4.3435186    4.3435186    4.3435186    -3622.766    14303.818   -11321.841   -13850.275    230.99832    338.50593   -4351.7864    81.945488 
   30000    288.80805   -113.54156   0.26131959   -113.28024    2898.6468    4.3451212    4.3451212    4.3451212    2898.6468   -1858.2877    8387.5697    2166.6585    2110.3842   -544.70733   -451.46781    82.036228 
   30100    497.81532   -113.72899   0.45043376   -113.27856   -2367.8225    4.3418737    4.3418737    4.3418737   -2367.8225   -846.39951   -12472.192    6215.1242    576.20526    2985.7402   -1263.3427    81.852426 
   30200    616.35005   -113.83361   0.55768648   -113.27592     3877.286    4.3413383    4.3413383    4.3413383     3877.286    11721.069    3985.9325   -4075.1431   -3860.2587   -6268.4954   -2857.8066     81.82215 
   30300    457.11573   -113.69292   0.41360792   -113.27931   -506.29147    4.3452283    4.3452283    4.3452283   -506.29147   -274.78563   -6800.6094    5556.5206   -1878.0458   -183.81782   -4257.4192    82.042293 
   30400    422.56595   -113.66325   0.38234655   -113.28091   -5145.4681    4.3451377    4.3451377    4.3451377   -5145.4681   -5697.5333   -10273.147    534.27583   -439.47841   -1069.9502   -1320.1245    82.037163 
   30500    537.47739   -113.76391   0.48632084   -113.27759    14516.293    4.3344529    4.3344529    4.3344529    14516.293    10881.978    9528.1629    23138.737   -281.92049   -5037.8106    1808.5686    81.433455 
   30600    568.48066   -113.79351   0.51437325   -113.27914   -9180.7803    4.3522909    4.3522909    4.3522909   -9180.7803   -6523.3458   -14563.506   -6455.4887   -374.84908    519.13957   -391.62974    82.442991 
   30700    277.38729   -113.53284   0.25098585   -113.28186    7073.1959    4.3383864    4.3383864    4.3383864    7073.1959   -7269.9039    9094.0635    19395.428     -2984.28   -4587.9595    3509.6996    81.655361 
   30800    555.82238   -113.78329   0.50291977   -113.28037    8244.8373    4.3379962    4.3379962    4.3379962    8244.8373   -2522.2105    7029.5994    20227.123    3457.5494    2295.4976   -41.428271     81.63333 
   30900     553.4397   -113.77725   0.50076387   -113.27649   -7126.2672    4.3546224    4.3546224    4.3546224   -7126.2672   -6253.3022   -4238.8261   -10886.673   -534.89831   -2479.4701   -1910.8217    82.575554 
   31000    345.15912   -113.58873   0.31230723   -113.27643     10754.12    4.3293298    4.3293298    4.3293298     10754.12   -8558.4081     8085.873    32734.894   -7430.5238   -4953.2362    1212.9853    81.145046 
   31100     510.1433    -113.7405   0.46158838   -113.27891   -9776.0226    4.3472504    4.3472504    4.3472504   -9776.0226   -23569.399   -4690.9156   -1067.7534    69.164876    1295.4313   -2022.4519    82.156887 
   31200    585.17177   -113.80544   0.52947572   -113.27597    -3076.872    4.3466072    4.3466072    4.3466072    -3076.872    -9164.424    9455.2146   -9521.4066   -109.11222    169.67827    421.92805    82.120422 
   31300    419.59538   -113.65742   0.37965872   -113.27776    3365.3628    4.3330832    4.3330832    4.3330832    3365.3628    1019.7731   -3240.7058    12317.021   -7013.7392    1540.0941   -6958.7339    81.356281 
   31400    493.06104   -113.72488   0.44613199   -113.27875   -11713.804    4.3459557    4.3459557    4.3459557   -11713.804    -22722.17   -3838.8365   -8580.4046    4044.6738   -1773.3534    1952.3296    82.083502 
   31500    545.93542   -113.76941   0.49397384   -113.27543   -4390.2186    4.3467206    4.3467206    4.3467206   -4390.2186   -9592.8811   -186.09988   -3391.6748    2131.6885    1001.9221    2260.9739    82.126853 
   31600    543.35136   -113.76745   0.49163573   -113.27581   -5643.9748    4.3357696    4.3357696    4.3357696   -5643.9748   -150.45077   -6211.3104   -10570.163   -11433.159    2683.7421   -8736.1558    81.507693 
   31700    415.92472   -113.65621   0.37633743   -113.27987   -3775.0238    4.3422399    4.3422399    4.3422399   -3775.0238   -10047.572   -2189.9553     912.4562    2407.9759    1146.6847    3537.9169    81.873138 
   31800    635.94066   -113.85255   0.57541247   -113.27714   -13283.152    4.3493792    4.3493792    4.3493792   -13283.152   -7936.1073   -17799.583   -14113.767    10386.587    4539.1018    205.23942    82.277641 
   31900    536.72662   -113.76182   0.48564152   -113.27618    3040.9783    4.3330427    4.3330427    4.3330427    3040.9783    10983.422    4871.2885   -6731.7754   -6124.7805   -1398.2385     352.2305    81.353999 
   32000    442.45121   -113.68149   0.40033916   -113.28115   -5128.9178    4.3450375    4.3450375    4.3450375   -5128.9178   -17605.224   -5734.4089     7952.879   -4912.9874   -1845.3025   -1591.1896    82.031487 
   32100    543.13413   -113.77089   0.49143918   -113.27945   -2499.0537    4.3445458    4.3445458    4.3445458   -2499.0537    5241.4793    3035.6314   -15774.272    1459.6241    1684.9651   -4013.3467    82.003643 
   32200    661.83869   -113.87639   0.59884556   -113.27754    2983.7653    4.3337613    4.3337613    4.3337613    2983.7653     7354.071    4062.8357   -2465.6107    1413.8676    1957.7224    1938.1703    81.394483 
   32300    357.25049   -113.60618   0.32324775   -113.28293    2217.5465    4.3499622    4.3499622    4.3499622    2217.5465   -1917.7869    10009.501   -1439.0747   -5682.3488   -2168.2621    -5207.774    82.310732 
   32400    558.16488   -113.78452   0.50503931   -113.27948    3373.0133    4.3389749    4.3389749    4.3389749    3373.0133    12693.494    2472.7522   -5047.2067   -2829.1232   -3135.1988    916.82492    81.688593 
   32500    601.03256   -113.82165   0.54382689   -113.27783    2550.9168    4.3378788    4.3378788    4.3378788    2550.9168    1764.2485    6752.8664   -864.36449   -953.72104     1740.366    1928.7733    81.626702 
   32600    361.84166   -113.60742   0.32740193   -113.28002    5243.6579    4.3466904    4.3466904    4.3466904    5243.6579   -4851.2638    25079.781   -4497.5436   -6854.2195    57.218883   -3701.1029    82.125143 
   32700    551.82549   -113.77634    0.4993033   -113.27703    3574.9132    4.3399963    4.3399963    4.3399963    3574.9132    10813.438   -6018.2213    5929.5234    3497.8107   -404.42467    3892.9547    81.746295 
   32800    467.11425   -113.69985   0.42265479   -113.27719    8844.2668    4.3394121    4.3394121    4.3394121    8844.2668   -4580.7269    27286.892    3826.6355    6394.7777    2955.3919    1949.0562     81.71329 
   32900    475.56338   -113.70947   0.43029974   -113.27917   -3120.6495    4.3433934    4.3433934    4.3433934   -3120.6495   -6895.4061    1049.6956   -3516.2381   -7676.6373   -2214.3301   -1243.1163    81.938407 
   33000    481.68267   -113.71641    0.4358366   -113.28058   -3660.6501    4.3419086    4.3419086    4.3419086   -3660.6501   -6972.9554   -3484.1983   -524.79658    377.57599    1048.8229   -5384.1101    81.854398 
   33100    409.29844   -113.64963   0.37034183   -113.27929    10779.905    4.3392832    4.3392832    4.3392832    10779.905    8368.7398    18192.081    5778.8933    5410.9255    827.84377   -1693.8773    81.706007 
   33200    486.52607    -113.7191   0.44021901   -113.27888   -5903.5803    4.3453908    4.3453908    4.3453908   -5903.5803   -15452.114     9267.122   -11525.749   -1506.3564    1904.3173    3098.9114      82.0515 
   33300    405.61299   -113.64723   0.36700716   -113.28023   -3073.9525    4.3410705    4.3410705    4.3410705   -3073.9525   -10158.015    -851.1467    1787.3047   -2052.6517    378.92196   -7660.4502    81.807008 
   33400    437.30154   -113.67571   0.39567963   -113.28003    3308.8931     4.340069     4.340069     4.340069    3308.8931   -9264.4101    12354.664    6836.4254    1765.4488   -4346.4749    -1320.612      81.7504 
   33500    512.14705    -113.7425   0.46340141    -113.2791   -2400.4771    4.3428473    4.3428473    4.3428473   -2400.4771    1143.9205    6250.8979    -14596.25    2220.0305      5612.67    7394.5583    81.907502 
   33600    483.19136   -113.71636    0.4372017   -113.27915   -5599.0375    4.3412436    4.3412436    4.3412436   -5599.0375    2680.3683   -11980.048   -7497.4332   -9444.0077    1248.9026   -4946.3042    81.816798 
   33700    424.27912   -113.66361   0.38389667   -113.27971     460.8743    4.3429615    4.3429615    4.3429615     460.8743   -11887.751    12246.929    1023.4448   -1787.7577   -3677.8713    303.26297    81.913961 
   33800    714.16667    -113.9247   0.64619301   -113.27851   -6238.1568    4.3392114    4.3392114    4.3392114   -6238.1568   -3708.7267   -1487.1309   -13518.613    8171.6172    3703.0064    6292.1633    81.701951 
   33900    362.62351   -113.60966   0.32810937   -113.28155    4609.0623    4.3443184    4.3443184    4.3443184    4609.0623    13230.727    8496.7534   -7900.2938   -6464.2081   -4485.6539    1041.0534    81.990764 
   34000    541.23318   -113.76943   0.48971916   -113.27971   -1460.5897    4.3406977    4.3406977    4.3406977   -1460.5897   -8289.0643    8118.4759   -4211.1807   -5237.4371    2623.9173   -5451.2096    81.785933 
   34100    647.14602   -113.86399   0.58555132   -113.27844    3124.0303    4.3375913    4.3375913    4.3375913    3124.0303    2769.8541    2178.5423    4423.6943    5549.7919    153.46539   -794.45682    81.610471 
   34200    451.91783   -113.68959   0.40890475   -113.28069   -1991.6263    4.3482636    4.3482636    4.3482636   -1991.6263    1021.5567   -498.09917   -6498.3365   -3496.1276   -2303.6894    6800.1652    82.214343 
   34300    615.31271   -113.83686   0.55674787   -113.28012   -4744.6076    4.3363406    4.3363406    4.3363406   -4744.6076   -669.40408   -9244.6398   -4319.7791    -3857.107    1469.5806    -5581.521    81.539899 
   34400    528.00204   -113.75915   0.47774734    -113.2814    3483.9338     4.341544     4.341544     4.341544    3483.9338   -3491.0003    5845.1897    8097.6121    3732.8685   -8017.5051   -938.70021    81.833781 
   34500    603.49163   -113.82512   0.54605191   -113.27906   -3505.8407    4.3462915    4.3462915    4.3462915   -3505.8407    2421.6331   -8141.7527   -4797.4026   -2642.2389    1435.9578    7128.9047    82.102533 
   34600    537.18115   -113.76395    0.4860528   -113.27789   -403.74845    4.3369176    4.3369176    4.3369176   -403.74845   -4287.1949    8293.1934   -5217.2438   -4800.9333     4908.029   -2581.0917    81.572449 
   34700    463.95058   -113.69957   0.41979224   -113.27978      995.125    4.3437798    4.3437798    4.3437798      995.125   -6914.9596    6206.1431    3694.1915    2841.3658   -5885.9237   -3111.6024    81.960272 
   34800    651.44191   -113.86922   0.58943833   -113.27978   -2812.5533    4.3419689    4.3419689    4.3419689   -2812.5533   -506.11856    1515.8643   -9447.4055    6915.4804    3524.9761     9081.578    81.857814 
   34900    440.28547   -113.68015   0.39837955   -113.28177    3461.0901    4.3389226    4.3389226    4.3389226    3461.0901     1590.336    11326.517   -2533.5829   -5887.0414   -4166.9351    4781.5997    81.685638 
   35000    468.60094   -113.70433   0.42399998   -113.28033   -2575.9491    4.3440386    4.3440386    4.3440386   -2575.9491   -1272.3674   -828.89422   -5626.5856   -6506.4189   -2220.8254      -8503.6    81.974927 
   35100     510.0484   -113.73854   0.46150251   -113.27704    3168.0156    4.3420642    4.3420642    4.3420642    3168.0156   -5350.4242    16447.118   -1592.6468    4157.9661    2858.7704    2027.1284    81.863201 
   35200    494.91994   -113.72497   0.44781396   -113.27715    1302.8607    4.3389779    4.3389779    4.3389779    1302.8607    469.28426    8426.2542   -4986.9565   -3137.9662   -5871.0831    10049.921    81.688763 
   35300    283.23035   -113.53673   0.25627277   -113.28045    2929.6468    4.3449307    4.3449307    4.3449307    2929.6468   -1568.3993    19990.466   -9633.1259   -7875.3643    937.13723   -6436.2238    82.025438 
   35400    544.40533   -113.77056   0.49258938   -113.27797    552.45071      4.33937      4.33937      4.33937    552.45071   -3158.0471    6849.8777   -2034.4785    452.00475    807.31708   -5134.3485     81.71091 
   35500    470.73835    -113.7053   0.42593395   -113.27937    2501.6649    4.3392301    4.3392301    4.3392301    2501.6649   -3609.5889    12576.464   -1461.8802    160.76347   -3091.2665    8919.6155     81.70301 
   35600    369.41479   -113.61543   0.33425426   -113.28117   -9926.0546    4.3444211    4.3444211    4.3444211   -9926.0546   -16806.122    1303.1907   -14275.232   -5848.9505    4396.6968   -3018.8683    81.996583 
   35700    482.56326   -113.71661   0.43663338   -113.27998   -1279.4909    4.3386378    4.3386378    4.3386378   -1279.4909   -24.771992   -527.04633   -3286.6542   -4052.7557   -2856.9824   -10555.364    81.669552 
   35800    485.55063   -113.71846   0.43933641   -113.27912   -3053.3003    4.3466432    4.3466432    4.3466432   -3053.3003   -4561.6665    14030.734   -18628.968    7480.5974   -1256.2694    6696.8259    82.122467 
   35900    464.67341   -113.70036   0.42044626   -113.27991    -7348.174    4.3385788    4.3385788    4.3385788    -7348.174   -6917.0989   -5704.0264   -9423.3967   -2195.6776    2829.0567    4907.2888    81.666221 
   36000    374.75532   -113.62159   0.33908649    -113.2825    -855.8105    4.3399192    4.3399192    4.3399192    -855.8105    5465.9386      3978.01    -12011.38    -4157.653   -1972.0761   -14854.703    81.741938 
   36100    559.57622    -113.7847   0.50631633   -113.27839    -4295.618    4.3482536    4.3482536    4.3482536    -4295.618    10650.629   -6608.2464   -16929.237   -2522.8183    260.68316    1098.1956    82.213777 
   36200    633.28909   -113.85027   0.57301327   -113.27726   -121.08486    4.3332913    4.3332913    4.3332913   -121.08486    3599.8639    5627.6913   -9590.8098    -3663.168   -1153.6192    7784.8956    81.368002 
   36300    300.94551   -113.55601   0.27230182   -113.28371   -498.50221    4.3448092    4.3448092    4.3448092   -498.50221    16234.338    -7456.489   -10273.355   -981.82827   -3112.4737   -11992.247    82.018557 
   36400    616.62232   -113.83606   0.55793283   -113.27813   -6014.0232    4.3462769    4.3462769    4.3462769   -6014.0232    8827.2606   -5770.7722   -21098.558   -1800.2941    33.705108    -4879.898    82.101703 
   36500    635.43712   -113.85055   0.57495686   -113.27559    16099.322    4.3305186    4.3305186    4.3305186    16099.322    21068.848    18708.386    8520.7312    3510.0457    1344.0585    6156.1172    81.211909 
   36600    430.41288   -113.67126   0.38944662   -113.28181   -3887.6347    4.3477168    4.3477168    4.3477168   -3887.6347    22047.054   -9446.4383    -24263.52   -6354.8223   -1730.4363   -6851.1863    82.183332 
   36700    507.55645   -113.73952   0.45924775   -113.28027   -4534.8915    4.3434444    4.3434444    4.3434444   -4534.8915   -2207.3461    5013.4756   -16410.804   -5028.6748   -1760.0495   -10334.637    81.941289 
   36800    694.39511   -113.90563   0.62830329   -113.27732     11612.44    4.3324707    4.3324707    4.3324707     11612.44    24779.474    10841.461   -783.61409    6262.6638   -1351.6637     8196.754    81.321783 
   36900    534.47326   -113.76503   0.48360264   -113.28143   -4366.7788    4.3493492    4.3493492    4.3493492   -4366.7788    10217.276   -7130.4119   -16187.201   -4001.3951   -3080.8134   -1731.2706    82.275937 
   37000    419.76512   -113.66225    0.3798123   -113.28244   -5511.0931     4.339933     4.339933     4.339933   -5511.0931    2261.4331    -6111.674   -12683.038   -8242.8129    2533.9758   -13514.309    81.742717 
   37100    580.83261   -113.80509   0.52554955   -113.27954    8108.8008    4.3336993    4.3336993    4.3336993    8108.8008    18137.567    4106.6395    2082.1956   -5797.5274   -5578.5553     1401.107    81.390991 
   37200     683.4167   -113.89572   0.61836979   -113.27735   -12675.672    4.3517013    4.3517013    4.3517013   -12675.672   -6166.4596   -10700.922   -21159.633    5580.4832   -795.42921    57.331994    82.409489 
   37300    342.62417   -113.59119   0.31001355   -113.28118    720.58504     4.335705     4.335705     4.335705    720.58504    12700.905   -1108.5314   -9430.6182   -2934.8535   -729.74707   -11261.426    81.504045 
   37400    502.73223   -113.73612   0.45488269   -113.28124    3400.0109    4.3372622    4.3372622    4.3372622    3400.0109    6813.9125    -138.9391    3525.0594    -6538.501   -4136.3187   -2839.7616    81.591899 
   37500     744.9855    -113.9518   0.67407853   -113.27772   -7840.8933    4.3487589    4.3487589    4.3487589   -7840.8933    1825.4228   -6932.3369   -18415.766    2129.1184    6051.9281    23.750222    82.242442 
   37600    324.03164   -113.57567   0.29319064   -113.28248    7979.0908    4.3351423    4.3351423    4.3351423    7979.0908    23126.662    4156.0338   -3345.4238   -4573.4929    -3558.602    -10509.32    81.472321 
   37700    474.12468   -113.71208   0.42899798   -113.28308   -748.38272    4.3405935    4.3405935    4.3405935   -748.38272    8574.0997   -7643.7787   -3175.4691   -3381.4721    303.16714   -5945.6556    81.780048 
   37800    591.07083   -113.81308   0.53481331   -113.27827    8264.0743    4.3449454    4.3449454    4.3449454    8264.0743    29005.229    3545.5418   -7758.5484   -3830.4894    754.89525    5553.5723    82.026274 
   37900     563.4973    -113.7886    0.5098642   -113.27873    3233.8693    4.3356948    4.3356948    4.3356948    3233.8693    2866.2811    2196.3951    4638.9318    539.32693   -1024.2916   -5178.4379    81.503474 
   38000    346.49446   -113.59582   0.31351547   -113.28231   -804.09914    4.3434157    4.3434157    4.3434157   -804.09914    15772.375   -11993.531   -6191.1411   -6366.0811    1508.9114   -8729.0081    81.939669 
   38100    536.31494   -113.76322   0.48526903   -113.27795    7245.2584    4.3424566    4.3424566    4.3424566    7245.2584    29217.172    1685.3273   -9166.7241   -1709.6091    1508.0504     3464.787    81.885395 
   38200    615.51603   -113.83394   0.55693184   -113.27701    6743.1998    4.3356058    4.3356058    4.3356058    6743.1998    3062.5937    5430.1346    11736.871    4854.9365   -261.11976   -5592.5153    81.498454 
   38300    310.86493    -113.5633   0.28127712   -113.28202   -1863.2397    4.3450397    4.3450397    4.3450397   -1863.2397    21366.824   -14012.301   -12944.242   -4806.3059    1923.9543   -8650.8373    82.031611 
   38400    549.45069   -113.77651   0.49715453   -113.27935   -2152.9031    4.3390973    4.3390973    4.3390973   -2152.9031   -2711.9147   -245.57892   -3501.2158   -3732.0992    2226.3818    3166.8285    81.695503 
   38500     478.2363   -113.71122   0.43271825    -113.2785     9272.801    4.3381694    4.3381694    4.3381694     9272.801    20954.121    5180.6304    1683.6512   -1059.0421    1722.4218   -1397.1184    81.643106 
   38600    487.10492   -113.72004   0.44074277    -113.2793   -10100.802    4.3449909    4.3449909    4.3449909   -10100.802    -5249.026   -15935.364   -9118.0149    2664.6435    3304.7836   -10249.757     82.02885 
   38700    387.02814    -113.6297    0.3501912   -113.27951   -3142.1444    4.3392895    4.3392895    4.3392895   -3142.1444   -5085.5728    6365.8319   -10706.692   -6479.5367   -5950.0424   -2770.9847    81.706362 
   38800     421.4154   -113.65984   0.38130551   -113.27853    6748.6959    4.3393846    4.3393846    4.3393846    6748.6959    11966.431    2463.0438    5816.6128   -2686.5516    3846.4846    4204.1525    81.711737 
   38900    616.29617   -113.83439   0.55763773   -113.27676   -7966.8932    4.3433456    4.3433456    4.3433456   -7966.8932     1432.988   -15099.314   -10234.353     5056.226    740.03353    -4616.494    81.935696 
   39000    274.82657   -113.52923   0.24866886   -113.28056    2550.8211    4.3391848    4.3391848    4.3391848    2550.8211    7318.9847    10378.279     -10044.8   -3792.6222   -2382.3431   -6163.8826    81.700448 
   39100    521.01373   -113.75209   0.47142418   -113.28067   -3112.5553    4.3383087    4.3383087    4.3383087   -3112.5553   -12430.192    3763.5215   -670.99572   -1527.6761     7023.134    8172.6746    81.650974 
   39200    459.32328   -113.69533   0.41560535   -113.27972    2831.8104     4.346653     4.346653     4.346653    2831.8104    30938.621   -9961.8363   -12481.353   -2082.0049   -3812.0613   -1848.7332     82.12302 
   39300    502.76451   -113.73352   0.45491189   -113.27861    7574.9424    4.3332423    4.3332423    4.3332423    7574.9424    11311.226    10874.791    538.81088    -1099.635     1944.018   -8380.0917    81.365243 
   39400    397.94576   -113.64252   0.36006969   -113.28245    -2571.092    4.3433951    4.3433951    4.3433951    -2571.092    4913.2017   -7926.2509   -4700.2267   -3433.1589    472.06902    8444.5291    81.938499 
   39500    467.76925   -113.70243   0.42324745   -113.27918    6.3084674     4.345709     4.345709     4.345709    6.3084674    28716.003   -5473.0901   -23223.988   -2123.5605    2362.6351      1858.19    82.069527 
   39600    650.94491   -113.86455   0.58898864   -113.27556    13899.614    4.3283829    4.3283829    4.3283829    13899.614    21467.596    11403.661    8827.5842    4586.5285     1305.204   -7411.4461    81.091814 
   39700     414.1712   -113.65584   0.37475081   -113.28109    -6936.672    4.3507243    4.3507243    4.3507243    -6936.672    16272.556   -23823.572   -13259.001   -3791.5482   -5562.5325    4577.1651    82.353998 
   39800    466.03107   -113.70111   0.42167471   -113.27943   -5014.3918    4.3411408    4.3411408    4.3411408   -5014.3918    17629.774   -12464.521   -20208.428   -1786.5473    1773.6408    7875.3009    81.810983 
   39900    653.41328   -113.86847   0.59122207   -113.27724    12587.805    4.3290709    4.3290709    4.3290709    12587.805    22454.491    15216.942    91.980677    5108.1423   -1401.8558   -1235.5708    81.130489 
   40000    519.12002   -113.74948    0.4697107   -113.27977    -12893.72    4.3546205    4.3546205    4.3546205    -12893.72    8276.9943   -29640.002   -17318.154   -4396.4068   -97.811656   -189.25461    82.575451 
   40100    412.35482    -113.6532   0.37310731   -113.28009   -6774.7231    4.3363587    4.3363587    4.3363587   -6774.7231    1998.9505   -13109.391   -9213.7288   -9227.9333     3069.024    10410.201    81.540916 
   40200    605.10187   -113.82749   0.54750889   -113.27999    5616.1282    4.3323499    4.3323499    4.3323499    5616.1282    16218.454     11281.91   -10651.979   -2997.4124    4594.2022    3768.7983    81.314982 
   40300    647.22072    -113.8642   0.58561891   -113.27858   -10366.798     4.352746     4.352746     4.352746   -10366.798   -6549.7708   -14283.466   -10267.158    6268.1624   -3430.5825    -3543.985    82.468857 
   40400    425.09841   -113.66612   0.38463797   -113.28149   -4246.8011    4.3352304    4.3352304    4.3352304   -4246.8011    3409.0997   -340.18291    -15809.32   -700.97948   -1362.6476    11727.228    81.477284 
   40500    467.62889   -113.70589   0.42312045   -113.28277     2028.561    4.3375361    4.3375361    4.3375361     2028.561    5728.7202    13834.878   -13477.915    -4955.121   -937.89997    4041.3832    81.607355 
   40600    763.47409   -113.96791    0.6908074    -113.2771   -10600.094    4.3492887    4.3492887    4.3492887   -10600.094   -10190.027   -9712.4047   -11897.849    2001.7536    1891.1322    -5823.615    82.272504 
   40700    403.81169    -113.6449    0.3653773   -113.27952    4290.4044    4.3359138    4.3359138    4.3359138    4290.4044    14262.626    8210.9154   -9602.3278   -3850.6099   -777.02043    9888.3426    81.515823 
   40800    475.62045   -113.71116   0.43035138   -113.28081   -842.56662     4.338089     4.338089     4.338089   -842.56662      4325.65    7104.8617   -13958.212    2147.0224    556.09698    7182.7892    81.638565 
   40900    670.57281   -113.88281   0.60674837   -113.27606   -6122.4762    4.3490273    4.3490273    4.3490273   -6122.4762    8707.4989   -9957.0523   -17117.875    1459.8646    2115.5677    -3423.838    82.257669 
   41000    499.69958   -113.73024   0.45213868    -113.2781    2719.4423    4.3361352    4.3361352    4.3361352    2719.4423     18356.78    2847.0462     -13045.5    275.59913   -5645.2646    3540.7198    81.528311 
   41100    522.15098   -113.75297   0.47245318   -113.28051   -375.59414    4.3361918    4.3361918    4.3361918   -375.59414    8596.3798   -6170.6329   -3552.5293   -5359.5813    6059.5679    8772.2973    81.531505 
   41200     499.4874   -113.73053    0.4519467   -113.27858    -4554.819    4.3519644    4.3519644    4.3519644    -4554.819    31284.421    -17096.45   -27852.428   -793.03169   -170.28923    -3752.506    82.424442 
   41300     595.6167   -113.81543   0.53892651    -113.2765    1406.6275    4.3332637    4.3332637    4.3332637    1406.6275     10063.51   -283.15456   -5560.4725    9286.8008   -535.61597   -6026.5196    81.366447 
   41400     508.6532   -113.73933    0.4602401   -113.27909   -2652.2586    4.3388476    4.3388476    4.3388476   -2652.2586    17458.976   -11302.018   -14113.734    -514.2911   -285.93661    12301.865    81.681405 
   41500    385.60403   -113.62731   0.34890263   -113.27841   -5637.4983     4.351566     4.351566     4.351566   -5637.4983    24929.032   -19941.334   -21900.192   -1886.1905   -2510.9539   -2365.4733    82.401804 
   41600    608.32601   -113.82582   0.55042615    -113.2754    1944.8816    4.3303316    4.3303316    4.3303316    1944.8816    8782.5528    4247.1394   -7195.0473    1116.3533    4158.6925   -15618.571    81.201388 
   41700    366.23348   -113.61161   0.33137575   -113.28024    1681.8297    4.3442424    4.3442424    4.3442424    1681.8297    25927.204   -3613.0638   -17268.651    1409.3185   -1062.5767    8463.8165    81.986465 
   41800    502.55931    -113.7334   0.45472622   -113.27868   -14071.629    4.3473567    4.3473567    4.3473567   -14071.629   -4690.7744   -13497.571   -24026.542    109.36759    5218.9524   -838.71967    82.162913 
   41900    322.31647   -113.57012   0.29163871   -113.27848    8221.8609    4.3320679    4.3320679    4.3320679    8221.8609    26380.011    8020.0263   -9734.4546   -2382.2922    3848.9977    -14732.49    81.299107 
   42000     490.8225   -113.72124   0.44410651   -113.27713    -4647.431    4.3447762    4.3447762    4.3447762    -4647.431    6774.7013   -2922.0089   -17794.985    1770.8922   -2286.2281    4626.1455    82.016688 
   42100    453.83573    -113.6873    0.4106401   -113.27666   -9061.0892    4.3458215    4.3458215    4.3458215   -9061.0892   -10252.513   -3052.7649    -13877.99   -1849.0651    1550.3438    420.76341    82.075898 
   42200    289.88135   -113.54063   0.26229073   -113.27833   -593.61123    4.3358262    4.3358262    4.3358262   -593.61123    15835.834    5379.3541   -22996.022    1005.8944    6385.5852   -15801.712    81.510884 
   42300    520.16413   -113.74786   0.47065544    -113.2772   -5238.4578    4.3430212    4.3430212    4.3430212   -5238.4578    5165.6129    -7920.033   -12960.953    1387.5499   -528.29972   -3601.2989    81.917342 
   42400    561.22001   -113.78467   0.50780366   -113.27686   -10303.144    4.3451244    4.3451244    4.3451244   -10303.144   -12748.853   -5248.6918   -12911.888   -958.20435    2383.2845    4640.3805    82.036411 
   42500    304.24974   -113.55568   0.27529156   -113.28039    -2593.482    4.3355471    4.3355471    4.3355471    -2593.482    2217.6735    8657.1053   -18655.225    735.63178    4118.1386   -12108.144    81.495144 
   42600    464.58323   -113.70243   0.42036467   -113.28206   -4117.6455       4.3428       4.3428       4.3428   -4117.6455    18092.018   -14592.813   -15852.141    722.28818   -2070.4226   -13128.101    81.904825 
   42700    693.78291   -113.90592   0.62774936   -113.27817   -6235.1141    4.3443923    4.3443923    4.3443923   -6235.1141   -957.32947   -8925.2102   -8822.8025    4829.1317    5588.1996    4090.0658    81.994948 
   42800    355.37911   -113.60247   0.32155449   -113.28091   -117.32395    4.3374581    4.3374581    4.3374581   -117.32395    12347.635    764.74683   -13464.354   -2774.9232    1967.7195   -9714.6476    81.602953 
   42900    436.27474   -113.67573   0.39475055   -113.28098   -8800.4312    4.3452883    4.3452883    4.3452883   -8800.4312    8103.5202   -11219.242   -23285.571   -1525.2167    1531.5991   -14377.856    82.045692 
   43000    616.63788   -113.83498   0.55794691   -113.27703    9111.5182    4.3395633    4.3395633    4.3395633    9111.5182    22258.514    4683.2244    392.81595      1666.07    -1071.866    5204.4282    81.721829 
   43100    564.63839   -113.78919   0.51089668    -113.2783   -1319.2608    4.3383469    4.3383469    4.3383469   -1319.2608    4179.4657     4228.751   -12365.999   -866.65285   -1735.4211   -6336.9996    81.653129 
   43200    261.68283   -113.51981   0.23677613   -113.28303   -2381.3737     4.343583     4.343583     4.343583   -2381.3737    24557.235   -6559.5134   -25141.842    -57.27237    6385.8495   -16478.679    81.949135 
   43300    567.97757   -113.79324   0.51391804   -113.27932     2705.903    4.3403515    4.3403515    4.3403515     2705.903    4757.5219    8940.7786   -5580.5914   -4833.0323   -4200.8356    5872.4752    81.766369 
   43400     591.2446   -113.81206   0.53497054   -113.27709    8181.0629     4.337816     4.337816     4.337816    8181.0629    16594.238    10504.445   -2555.4941    2542.4423    290.31536    1765.9441    81.623156 
   43500    367.97649   -113.61466   0.33295286   -113.28171   -4093.9385    4.3435485    4.3435485    4.3435485   -4093.9385    6227.2961   -1186.3065   -17322.805    3032.7508    2276.3134   -14022.575    81.947182 
   43600    439.07239   -113.67774   0.39728192   -113.28046   -3852.7623    4.3437194    4.3437194    4.3437194   -3852.7623    1180.0857   -588.83848   -12149.534    1693.3631   -2307.8091   -2129.9716    81.956853 
   43700    695.46148   -113.90576   0.62926816   -113.27649    2986.1055     4.336707     4.336707     4.336707    2986.1055    259.17446    13690.638   -4991.4961    4270.8478    1049.2041    3810.3815    81.560566 
   43800     448.1877    -113.6854   0.40552965   -113.27987      1691.55    4.3426136    4.3426136    4.3426136      1691.55    13247.187   -9856.7027    1684.1655   -2551.8614     2508.637   -11215.852    81.894278 
   43900    539.85197   -113.76823   0.48846941   -113.27976   -11987.846    4.3439509    4.3439509    4.3439509   -11987.846   -5989.9487    -7391.835   -22581.754    1829.4664    2397.9198   -7229.9212    81.969962 
   44000     559.2796   -113.78482   0.50604794   -113.27878     9588.406     4.335572     4.335572     4.335572     9588.406    1687.6091    27934.904   -857.29486     1262.595    785.88349    8068.9117    81.496545 
   44100    678.06954    -113.8921   0.61353157   -113.27857   -1990.6909    4.3420177    4.3420177    4.3420177   -1990.6909   -1686.0913    -6173.087    1887.1055   -971.25881   -10.061217   -5299.5538    81.860572 
   44200    422.12597   -113.66221   0.38194845   -113.28026    3914.0923    4.3433777    4.3433777    4.3433777    3914.0923   -2751.0081    27464.123   -12970.838   -1322.2572    3225.2748   -13655.082    81.937514 
   44300    567.57249   -113.79142   0.51355152   -113.27787    2903.4606    4.3384563    4.3384563    4.3384563    2903.4606   -8850.0782    22704.548   -5144.0881   -859.54842    2115.4263    5491.7974    81.659305 
   44400    599.10003   -113.81986   0.54207829   -113.27778    6663.0715    4.3383785    4.3383785    4.3383785    6663.0715     874.8534     15618.56    3495.8006   -2160.0217   -2293.7617    5845.6744    81.654914 
   44500     597.7473   -113.82166   0.54085432    -113.2808   -14237.021    4.3463545    4.3463545    4.3463545   -14237.021   -11580.804   -8834.6206   -22295.639   -2229.4284     5605.035   -12180.041      82.1061 
   44600    357.74231   -113.60684   0.32369276   -113.28315    10647.232    4.3306057    4.3306057    4.3306057    10647.232    6755.5757     20748.02    4438.1015    -119.0052    10707.378   -3333.9629    81.216811 
   44700    720.82296   -113.93445   0.65221577   -113.28223   -15792.964    4.3472607    4.3472607    4.3472607   -15792.964   -13930.497   -14555.136   -18893.259     2392.461   -5014.6038    7368.4276    82.157467 
   44800    497.06699   -113.72948   0.44975665   -113.27973   -9648.7768    4.3474151    4.3474151    4.3474151   -9648.7768   -2422.2016   -10292.316   -16231.813    3750.2977    3528.1232   -12057.436    82.166223 
   44900    434.29854   -113.66878   0.39296245   -113.27582    7622.8524    4.3262372    4.3262372    4.3262372    7622.8524    10790.045     16264.19   -4185.6774   -1962.9447    13038.733   -6559.0953    80.971274 
   45000    542.41001   -113.76826   0.49078398   -113.27747   -13554.909    4.3521984    4.3521984    4.3521984   -13554.909    -15209.04   -233.18726   -25222.501   -461.97222   -5285.0048    10921.817    82.437733 
   45100    518.80066   -113.74703   0.46942174   -113.27761   -1584.2743    4.3409704    4.3409704    4.3409704   -1584.2743    442.99265    7148.4948    -12344.31    2056.7588    1715.5301   -990.49929    81.801353 
   45200    395.90811   -113.63559   0.35822598   -113.27736    8946.7728    4.3315342    4.3315342    4.3315342    8946.7728    10243.924    17030.593   -434.19762    2067.0921    10276.541   -11990.762    81.269063 
   45300    565.74363   -113.78911   0.51189672   -113.27721   -12479.781    4.3490232    4.3490232    4.3490232   -12479.781   -11241.574   -2308.9544   -23888.815    2958.0635   -4642.1402    1471.3986    82.257437 
   45400    400.34233   -113.64014   0.36223816    -113.2779    6051.0192    4.3392094    4.3392094    4.3392094    6051.0192    9617.3925     15250.59    -6714.925   -2918.4127   -906.73172     10657.63    81.701839 
   45500    580.95296   -113.80385   0.52565845    -113.2782   -5538.2061     4.338394     4.338394     4.338394   -5538.2061   -9841.7662    3888.8102   -10661.662    -1895.291    4323.9281   -7344.9504    81.655786 
   45600    452.05696   -113.68818   0.40903064   -113.27915   -2216.9774    4.3479775    4.3479775    4.3479775   -2216.9774    2477.8874    1611.2737   -10740.093   -3605.6815    2221.8794   -296.33423    82.198114 
   45700    500.60684    -113.7299   0.45295959   -113.27694    625.28865    4.3384903    4.3384903    4.3384903    625.28865    13987.766   -3787.9896   -8323.9106   -172.78468   -383.31538    10445.736    81.661227 
   45800    437.21302   -113.67288   0.39559953   -113.27728    4124.2648    4.3358228    4.3358228    4.3358228    4124.2648   -10030.463    26114.315   -3711.0582   -806.59363   -616.68086   -3568.5186     81.51069 
   45900    485.25748   -113.71705   0.43907117   -113.27798   -11094.188    4.3499645    4.3499645    4.3499645   -11094.188   -4328.6071   -7009.5094   -21944.449   -214.16023    6593.9577   -4673.2252    82.310859 
   46000    332.21989   -113.57845   0.30059954   -113.27785    10925.988    4.3367797    4.3367797    4.3367797    10925.988    23887.838    8897.9742    -7.849198    2763.6351   -689.78178    4725.2117    81.564671 
   46100    451.45192   -113.68641   0.40848318   -113.27793     1117.464    4.3393699    4.3393699    4.3393699     1117.464   -5847.9358    17917.704   -8717.3758    37.049552   -5358.8229    6254.6272    81.710906 
   46200    393.45601   -113.63401   0.35600726     -113.278    -3495.263    4.3463442    4.3463442    4.3463442    -3495.263    1321.0215    3766.4379   -15573.248    3479.1244    6148.5644    -10424.91    82.105517 
   46300    415.25039    -113.6526   0.37572728   -113.27687    3881.7964    4.3379787    4.3379787    4.3379787    3881.7964     12253.81    2967.3057   -3575.7262    2385.1833   -783.15672    -1240.175    81.632338 
   46400    502.89728   -113.73254   0.45503203   -113.27751   -325.84688    4.3423576    4.3423576    4.3423576   -325.84688    3213.7962    1419.6716   -5611.0085    946.75005   -5040.3437    8126.7674    81.879799 
   46500    466.48876   -113.70084   0.42208883   -113.27875    3713.4116    4.3407739    4.3407739    4.3407739    3713.4116     4334.392    6564.0056    241.83718    3969.1094    4783.2939   -10753.848    81.790243 
   46600    517.80193     -113.747   0.46851807   -113.27848   -1754.0007    4.3392502    4.3392502    4.3392502   -1754.0007    2366.3585   -11727.674    4099.3134   -2685.7858    3422.3408   -2246.4785    81.704143 
   46700    528.59357   -113.75732   0.47828257   -113.27904    -1013.728    4.3415987    4.3415987    4.3415987    -1013.728   -9724.1968    13524.473   -6841.4603    1254.6861   -5516.1605    9566.0795    81.836875 
   46800    463.89584   -113.69915   0.41974271   -113.27941    9001.0199    4.3397574    4.3397574    4.3397574    9001.0199    11190.423     2846.407    12966.229    -628.1775    217.26636   -3978.1948    81.732795 
   46900    619.10956   -113.83829   0.56018334    -113.2781   -457.10714    4.3404504    4.3404504    4.3404504   -457.10714   -9462.6574    8790.5437   -699.20764    -3199.036    5617.7755   -6666.5795    81.771955 
   47000    475.73928   -113.71054    0.4304589   -113.28008    3054.3633    4.3412692    4.3412692    4.3412692    3054.3633    1394.8704    13001.983   -5233.7637    1189.7283   -1333.9689    8162.4121    81.818241 
   47100    566.84481   -113.79198    0.5128931   -113.27909   -1374.1527    4.3388175    4.3388175    4.3388175   -1374.1527   -4595.4965   -892.52206    1365.5606   -5477.4022   -2818.0038    9355.2363    81.679704 
   47200     522.6108   -113.75131   0.47286923   -113.27844    5534.4406    4.3386234    4.3386234    4.3386234    5534.4406    4312.9335    18112.705   -5822.3171    1661.5766    2789.9886    -9574.534    81.668743 
   47300     637.3037   -113.85539   0.57664578   -113.27874   -12009.838    4.3443843    4.3443843    4.3443843   -12009.838   -8656.0847   -10082.871   -17290.557    3823.6231    128.61367    -2135.823    81.994499 
   47400    436.18371   -113.67503   0.39466819   -113.28036    4335.5978    4.3351827    4.3351827    4.3351827    4335.5978     5880.212   -1098.3361    8224.9176   -3196.6001   -4020.3812    13641.609    81.474596 
   47500    671.34502   -113.88736   0.60744708   -113.27991   -14326.843     4.342884     4.342884     4.342884   -14326.843   -15784.834   -7168.0246   -20027.671   -482.54654    1601.8382   -1680.0411    81.909578 
   47600    483.81497   -113.71865   0.43776595   -113.28088   -3104.1133    4.3412217    4.3412217    4.3412217   -3104.1133    6219.0694   -3971.3931   -11560.016   -2037.4166    12168.249   -2627.3022    81.815558 
   47700    593.79888   -113.81611   0.53728171   -113.27882   -3800.1118    4.3341448    4.3341448    4.3341448   -3800.1118   -3308.0813   -4065.9553   -4026.2987    7453.6551   -3514.6136    7297.0576    81.416094 
   47800    483.93396   -113.71819   0.43787361   -113.28031   -8250.9911    4.3479525    4.3479525    4.3479525   -8250.9911    581.38421   -5206.1527   -20128.205   -175.11682   -4121.5315    243.31886      82.1967 
   47900    581.35841   -113.80492    0.5260253    -113.2789    4294.4792    4.3329871    4.3329871    4.3329871    4294.4792   -2712.8352    16777.325   -1181.0522   -6097.9473    9594.4592   -3961.7762    81.350865 
   48000    528.76521   -113.75843   0.47843787   -113.27999   -22.940076     4.339268     4.339268     4.339268   -22.940076    5111.3525    2943.2415   -8123.4142    2022.9762    126.46054    6695.6726    81.705146 
   48100    523.89574   -113.75402   0.47403188   -113.27999   -6919.3034    4.3462173    4.3462173    4.3462173   -6919.3034    -6558.254    7176.3993   -21376.055   -6182.9042   -5525.0163    7869.7956     82.09833 
   48200    437.50277   -113.67398    0.3958617   -113.27812    18065.991    4.3336574    4.3336574    4.3336574    18065.991    9339.5527     30978.58    13879.839    2259.1398    1800.3447   -4401.4455    81.388626 
   48300    693.93605   -113.90412   0.62788792   -113.27623   -5380.5394    4.3424248    4.3424248    4.3424248   -5380.5394   -3895.4583    1072.0632   -13318.223    3584.6089   -22.113019   -3660.5081      81.8836 
   48400    360.42785   -113.60539   0.32612269   -113.27927    6260.6889    4.3399907    4.3399907    4.3399907    6260.6889    6028.7411    20923.826      -8170.5   -3138.2596   -5190.1418    5184.0589    81.745978 
   48500    555.15217    -113.7813   0.50231335   -113.27899   -4128.4566    4.3410243    4.3410243    4.3410243   -4128.4566   -20094.219    14568.029   -6859.1805    1816.6373   -6753.7175     581.9037    81.804396 
   48600    602.08409   -113.82228   0.54477834    -113.2775     6881.994     4.339193     4.339193     4.339193     6881.994     11147.74    7225.4029    2272.8394   -1193.3778     4307.424   -5252.7996    81.700911 
   48700    498.28797   -113.72967   0.45086142   -113.27881   -1236.6079    4.3411859    4.3411859    4.3411859   -1236.6079   -4797.2177    7353.9298   -6266.5358    4913.8452   -1469.5293    240.24054    81.813536 
   48800     410.2654    -113.6516   0.37121675   -113.28038   -7743.9979    4.3411453    4.3411453    4.3411453   -7743.9979   -20499.449    1359.8244   -4092.3694   -873.74299   -13830.521    2988.0829    81.811238 
   48900     533.5564   -113.76216   0.48277304   -113.27939    3515.8937     4.339574     4.339574     4.339574    3515.8937   -15913.882    21205.742    5255.8207   -6491.8539    3354.5165   -870.26218    81.722436 
   49000    490.94604   -113.72253   0.44421829   -113.27831    2590.4842    4.3440716    4.3440716    4.3440716    2590.4842    -1109.397     7146.404    1734.4458    2791.6456     1499.908    626.64564    81.976795 
   49100    378.28466   -113.62164   0.34227991   -113.27936   -5433.2761    4.3397063    4.3397063    4.3397063   -5433.2761   -20887.262    11593.051   -7005.6176   -5274.6183   -13367.859    3104.4596    81.729908 
   49200    412.80611    -113.6528   0.37351565   -113.27928    -179.4589    4.3419364    4.3419364    4.3419364    -179.4589   -19377.509    14951.386    3887.7465   -4461.0481    1297.3464    2971.9575    81.855975 
   49300     622.4391   -113.84057   0.56319597   -113.27737   -5051.4688    4.3437337    4.3437337    4.3437337   -5051.4688   -8605.8672    1160.8346   -7709.3739   -1048.0618    2795.8647   -6445.3011    81.957665 
   49400    338.50274   -113.58752   0.30628439   -113.28124    2273.6118     4.337672     4.337672     4.337672    2273.6118   -4724.0774    11436.907    108.00578   -3717.3606   -8108.1923     4591.383    81.615029 
   49500    472.74387   -113.70902   0.42774859   -113.28127   -8551.6316     4.342084     4.342084     4.342084   -8551.6316   -9149.9567   -8508.0694   -7996.8685   -3430.6075   -3588.8892    -521.2625    81.864323 
   49600    538.51844   -113.76611    0.4872628   -113.27885    5299.3138    4.3406412    4.3406412    4.3406412    5299.3138   -2794.7999    19022.358   -329.61662   -1391.0312    4441.0138   -5883.0942     81.78274 
   49700    461.82715   -113.69729   0.41787091   -113.27942    -1132.519    4.3427285    4.3427285    4.3427285    -1132.519   -9297.6782    15735.027   -9834.9057    2556.7541   -4948.1016    3858.1569    81.900778 
   49800    360.26782   -113.60589   0.32597789   -113.27992    3784.6832    4.3386732    4.3386732    4.3386732    3784.6832    2330.4597    8848.3458    175.24425     999.3284   -10081.174    6463.4087    81.671551 
   49900    517.09231    -113.7463   0.46787599   -113.27842    3993.7156    4.3419181    4.3419181    4.3419181    3993.7156   -2579.1944    22302.415   -7742.0741   -1827.8435    5062.9944    3027.8201    81.854936 
   50000    518.85689   -113.74864   0.46947262   -113.27916    3791.7583    4.3402151    4.3402151    4.3402151    3791.7583    -3595.136    8020.0265    6950.3844    883.96613    675.64751   -2177.7481     81.75866 
   50100     395.5365   -113.63935   0.35788973   -113.28146   -491.87585    4.3386569    4.3386569    4.3386569   -491.87585   -3017.2753    14523.924   -12982.276   -416.21817   -15149.919    4591.4925    81.670632 
   50200    506.56033   -113.73805   0.45834643   -113.27971   -9013.3321     4.345759     4.345759     4.345759   -9013.3321   -10442.413   -4000.6729    -12596.91   -4468.4878    666.28023    5479.0168     82.07236 
   50300    582.22871    -113.8041   0.52681277   -113.27729    1286.4706    4.3389985    4.3389985    4.3389985    1286.4706   -6077.1224    4610.1354    5326.3988    -3180.325    260.03418    -7592.678    81.689923 
   50400     361.5974   -113.60816   0.32718093   -113.28098    3690.8589    4.3422614    4.3422614    4.3422614    3690.8589    -7625.689    28998.818   -10300.552   -2702.3204   -11826.173    2008.9852    81.874357 
   50500     442.4837   -113.68039   0.40036855   -113.28003    -7373.659    4.3461154    4.3461154    4.3461154    -7373.659   -12137.296    8593.6371   -18577.318   -9539.9703   -695.38642    1398.7821    82.092552 
   50600    474.32463   -113.70668   0.42917889   -113.27751    3747.9142    4.3398239    4.3398239    4.3398239    3747.9142    -9547.582    21708.142   -916.81723   -6221.5953    2577.9353   -3653.3517    81.736555 
   50700    467.16686   -113.70114   0.42270239   -113.27844    -4599.884    4.3447835    4.3447835    4.3447835    -4599.884   -6630.2354     11101.27   -18270.687   -2978.3354   -10412.421    1597.7272    82.017102 
   50800    400.60423   -113.64209   0.36247513   -113.27961    1144.7806    4.3389095    4.3389095    4.3389095    1144.7806    524.79255    10328.636   -7419.0868   -1270.1846   -1071.8869    4210.2608      81.6849 
   50900    512.34481   -113.74294   0.46358035   -113.27936   -4687.6541     4.345159     4.345159     4.345159   -4687.6541   -7813.5317   -6594.8188    345.38805   -5641.3468    5380.3062    6188.7043    82.038367 
   51000    599.28114   -113.82055   0.54224217   -113.27831   -1648.0837    4.3414299    4.3414299    4.3414299   -1648.0837   -6084.1787    10890.512    -9750.585    627.34184   -2260.7699   -3209.0409    81.827331 
   51100    521.95237   -113.75135   0.47227347   -113.27908    4882.7303     4.337252     4.337252     4.337252    4882.7303    4717.5522   -465.66282    10396.302   -1100.9269   -1241.7984    2067.6056    81.591322 
   51200    466.38961   -113.70142   0.42199912   -113.27942   -4793.1468    4.3500961    4.3500961    4.3500961   -4793.1468   -16393.845   -2927.9849    4942.3896   -4214.8952    1071.9883    3549.6731    82.318331 
   51300    582.92612   -113.80329    0.5274438   -113.27585    8865.3248     4.335241     4.335241     4.335241    8865.3248   -2340.5646    23962.212    4974.3269    5236.2551   -1212.9241   -4885.4694    81.477884 
   51400     606.7367   -113.82611   0.54898812   -113.27712    4524.8462    4.3381797    4.3381797    4.3381797    4524.8462   -70.718729    5668.2845    7976.9728    3320.6401   -6084.7354    6432.6362    81.643687 
   51500    420.01697    -113.6588   0.38004018   -113.27876    -3029.679    4.3500422    4.3500422    4.3500422    -3029.679   -18797.797    13352.525    -3643.765   -2437.4045   -876.74528    5837.8988    82.315268 
   51600    595.93009   -113.81656   0.53921007   -113.27735     5044.619     4.331872     4.331872     4.331872     5044.619   -3941.2048    8558.8274    10516.235   -3046.5728    1232.7095   -2343.9905    81.288075 
   51700    527.85432   -113.75854   0.47761368   -113.28093     7944.349    4.3405632    4.3405632    4.3405632     7944.349     3509.082    12652.058    7671.9071    4136.2669   -4520.5545     1861.049    81.778333 
   51800    617.51012    -113.8368   0.55873614   -113.27807   -13616.067    4.3487348    4.3487348    4.3487348   -13616.067   -18575.972   -5157.6556   -17114.573   -10.687779   -1622.3412    8178.3721    82.241072 
   51900    385.36297   -113.62749   0.34868451   -113.27881     5956.571    4.3299129    4.3299129    4.3299129     5956.571    5069.8078   -8844.6669    21644.572   -6642.1941    408.37785    10601.139     81.17784 
   52000    550.91715   -113.77929   0.49848142   -113.28081   -8957.6776    4.3467797    4.3467797    4.3467797   -8957.6776    -17804.88   -10222.032    1153.8793    1284.5058    437.74983   -5378.5077      82.1302 
   52100    626.29192    -113.8442   0.56668209   -113.27751   -7986.3602     4.343969     4.343969     4.343969   -7986.3602   -6086.5363   -10678.217   -7194.3274    834.96099   -1337.4502    5618.2454    81.970983 
   52200    341.96375   -113.58839   0.30941598   -113.27898    7776.4219    4.3284475    4.3284475    4.3284475    7776.4219    7459.4241   -10234.358      26104.2   -3713.0909    4339.4534    8708.5141    81.095447 
   52300    487.84289   -113.72189    0.4414105   -113.28048     -19809.1    4.3524045    4.3524045    4.3524045     -19809.1   -27102.631   -29131.456   -3193.2145    463.74079    3390.6536    -2910.393    82.449447 
   52400    544.10739   -113.77071    0.4923198   -113.27839    3794.6065    4.3390362    4.3390362    4.3390362    3794.6065   -5523.7876    16226.545    681.06238    2944.2464   -3053.3811    9341.8667    81.692057 
   52500    555.45926   -113.78106   0.50259121   -113.27847    9674.7697    4.3279842    4.3279842    4.3279842    9674.7697    15157.673   -743.62163    14610.258   -244.04928    2617.7565     1320.343    81.069407 
   52600      384.552    -113.6297   0.34795073   -113.28175   -17799.289    4.3561012    4.3561012    4.3561012   -17799.289   -39193.424   -574.47277   -13629.971   -2768.9222    1725.0268   -2097.9094     82.65971 
   52700    520.87871   -113.75104     0.471302   -113.27974    8635.5084    4.3318171    4.3318171    4.3318171    8635.5084    2769.4608    18195.277    4941.7875    4231.1316   -1503.8286    2823.9103    81.284988 
   52800    744.90429   -113.95314   0.67400506   -113.27913    9180.9338    4.3315575    4.3315575    4.3315575    9180.9338    5687.5684     17480.69    4374.5429   -5064.9492    -581.2031    681.51332    81.270375 
   52900    326.89362   -113.57598   0.29578022    -113.2802   -11878.392    4.3574748    4.3574748    4.3574748   -11878.392   -36575.478    11197.693   -10257.391   -5056.6766   -392.53597     2935.524    82.737931 
   53000    473.14641   -113.70621   0.42811282    -113.2781     5492.388    4.3233525    4.3233525    4.3233525     5492.388    1726.6322    6496.3589    8254.1727    2230.8259    315.22792   -9551.4086    80.809413 
   53100    634.86303   -113.85705   0.57443741   -113.28261    3512.6224    4.3394943    4.3394943    4.3394943    3512.6224   -2729.2183    16780.007   -3512.9219   -929.29556   -2589.3876    2590.7201    81.717935 
   53200    505.52729   -113.73711   0.45741172    -113.2797   -19350.209    4.3548052    4.3548052    4.3548052   -19350.209   -37497.607   -14598.129   -5954.8908   -4788.0006    1460.6806    2195.7539    82.585954 
   53300    247.68426   -113.50288   0.22410992   -113.27877    10831.317    4.3180261    4.3180261    4.3180261    10831.317   -229.47177     10689.74    22033.683   -2960.1217    5381.7483   -9150.3703    80.511108 
   53400    620.97661   -113.84343   0.56187269   -113.28155   -16769.366    4.3496168    4.3496168    4.3496168   -16769.366   -21361.615    -17019.51   -11926.974    6441.2223   -1334.3555    -5605.909    82.291126 
   53500    499.23618   -113.73263   0.45171939   -113.28091   -9280.1047    4.3472799    4.3472799    4.3472799   -9280.1047   -22693.313    7025.3926   -12172.394   -5224.8556    2204.4152    212.10017    82.158557 
   53600    343.58403   -113.58735   0.31088205   -113.27647     13600.11    4.3171665    4.3171665    4.3171665     13600.11    210.84627    16112.861    24476.623   -5612.3416    4647.7514    555.12885     80.46303 
   53700    429.56447    -113.6673   0.38867896   -113.27862   -13982.879    4.3563712    4.3563712    4.3563712   -13982.879   -26752.289    11521.926   -26718.273    4750.5782   -656.29865   -7171.9649    82.675083 
   53800    562.36757   -113.78767     0.508842   -113.27883    5147.8608    4.3349673    4.3349673    4.3349673    5147.8608   -5479.3295    25073.191   -4150.2796   -2764.3212    810.78333   -4665.4054    81.462449 
   53900    431.19818   -113.66863   0.39015718   -113.27847    12556.544    4.3259404    4.3259404    4.3259404    12556.544   -1154.6421    31820.508    7003.7672   -5382.0107     5018.463    6268.4954    80.954612 
   54000    402.67735   -113.64169   0.36435093   -113.27734   -9470.5398     4.354771     4.354771     4.354771   -9470.5398   -21546.133    11655.105   -18520.592    2663.2385    1577.3107    -6295.277    82.584011 
   54100    531.31217   -113.75663   0.48074242   -113.27589    7957.2864    4.3294599    4.3294599    4.3294599    7957.2864    5210.4009    11835.562    6825.8964    1577.1258    169.29933   -607.01767    81.152364 
   54200    439.56465   -113.67666   0.39772733   -113.27893   -790.95256    4.3349664    4.3349664    4.3349664   -790.95256    -7981.417     23950.02    -18341.46   -3078.7815    3215.6803    4797.3763    81.462401 
   54300    476.31314   -113.71021   0.43097814   -113.27923   -9830.9739    4.3482603    4.3482603    4.3482603   -9830.9739   -17697.618   -14941.063    3145.7596    3419.4057    729.38768   -2322.1735    82.214154 
   54400    463.41947   -113.69903   0.41931167   -113.27972    6849.1569    4.3307032    4.3307032    4.3307032    6849.1569    14119.224   -2079.7616     8508.008    2420.9281   -977.50878   -168.44595    81.222295 
   54500    480.20955   -113.71628   0.43450369   -113.28177   -5225.9271    4.3359608    4.3359608    4.3359608   -5225.9271   -4078.4488    61.037523    -11660.37   -1542.7977   -1498.2801   -1362.8256    81.518472 
   54600    376.51884   -113.62222   0.34068216   -113.28154   -9765.8478     4.348277     4.348277     4.348277   -9765.8478   -18196.416    -17346.85    6245.7229     -2817.62    502.75001    1123.1408    82.215101 
   54700    606.37997   -113.82589   0.54866534   -113.27722    3944.5339      4.32948      4.32948      4.32948    3944.5339    7883.5574   -4437.5402    8387.5844    4093.4217   -35.684516   -3056.9941    81.153493 
   54800    495.70096   -113.72854   0.44852064   -113.28002    1343.2068    4.3385409    4.3385409    4.3385409    1343.2068    6467.0712    -2401.371   -36.079957    1313.7905    -1631.809    3223.8387    81.664085 
   54900    413.30675   -113.65537   0.37396863    -113.2814     -10433.6    4.3471838    4.3471838    4.3471838     -10433.6   -12373.291     -7044.88    -11882.63   -6118.1097     1868.458    5055.1131    82.153109 
   55000    648.70642    -113.8641    0.5869632   -113.27714    4531.9361    4.3283303    4.3283303    4.3283303    4531.9361    1212.0074    2567.8867    9815.9141    5136.8449    972.56059   -5431.4279    81.088859 
   55100     656.2424   -113.87205   0.59378191   -113.27826    1288.2406     4.341204     4.341204     4.341204    1288.2406    1371.5925    545.88397    1947.2452    2496.1212    489.80206   -2349.5234    81.814555 
   55200    417.00431   -113.65927   0.37731427   -113.28196   -3313.5247    4.3434757    4.3434757    4.3434757   -3313.5247    2816.6856    3757.4768   -16514.736    -2973.187    4463.6388    2609.7284    81.943061 
   55300    480.49056   -113.71649   0.43475795   -113.28174    3637.1689    4.3322169    4.3322169    4.3322169    3637.1689   -6539.1635    4958.7006     12491.97    4171.3597    4598.2162    3171.7465    81.307493 
   55400    737.05716   -113.94581   0.66690481   -113.27891     549.8821    4.3414581    4.3414581    4.3414581     549.8821     30.19772    4555.6154   -2936.1668   -1686.5735   -1712.9927   -245.83641    81.828926 
   55500    434.29234   -113.67487   0.39295684   -113.28191   -772.35979    4.3433983    4.3433983    4.3433983   -772.35979    6633.3003   -2605.3782   -6345.0015    -1579.963   -889.23053    1659.0173    81.938683 
   55600    343.48786    -113.5935   0.31079503   -113.28271     3595.691    4.3307119    4.3307119    4.3307119     3595.691    1943.6289    8396.5131    446.93098    147.25089    5099.9064    1983.7443    81.222787 
   55700    589.79248    -113.8155   0.53365663   -113.28184    1295.1245    4.3436224    4.3436224    4.3436224    1295.1245    4679.1284    2891.9561   -3685.7111    867.60139    -2988.078   -933.51447    81.951366 
   55800    618.67365   -113.83906   0.55978892   -113.27927   -2344.8126    4.3424077    4.3424077    4.3424077   -2344.8126    1052.7951   -6610.3995   -1476.8335    398.77701   -287.52132    3403.1881     81.88263 
   55900    261.39306   -113.51985   0.23651393   -113.28334    2137.5339    4.3297352    4.3297352    4.3297352    2137.5339    4970.9055    14893.217   -13451.521   -5862.2072    5409.0911    4394.1917    81.167846 
   56000    492.73638   -113.72832   0.44583823   -113.28248   -9438.0076    4.3470859    4.3470859    4.3470859   -9438.0076    -11897.85    -561.2386   -15854.934    4396.0247   -2436.9713   -1679.3007    82.147562 
   56100    680.41454   -113.89202   0.61565338   -113.27637    404.54675    4.3406653    4.3406653    4.3406653    404.54675     8069.973   -6334.3719   -521.96091    1528.5493    4870.9663   -1988.8908    81.784106 
   56200    460.24363   -113.69689   0.41643811   -113.28046    1007.7488    4.3266888    4.3266888    4.3266888    1007.7488   -2884.0047    15740.321     -9833.07   -3800.8928    2562.9323    4257.8748    80.996637 
   56300    253.44808   -113.51496   0.22932515   -113.28563   -8130.0064    4.3491324    4.3491324    4.3491324   -8130.0064   -5226.7138   -1909.8647   -17253.441     2360.762    3028.9894    1768.5148    82.263634 
   56400    697.21087   -113.90975   0.63085105    -113.2789    1885.3916     4.337138     4.337138     4.337138    1885.3916    19542.104   -4591.5768   -9294.3519   -3197.6494    625.28416   -4858.0713    81.584891 
   56500    477.26852   -113.71049   0.43184259   -113.27865    15819.587     4.327896     4.327896     4.327896    15819.587    14112.582    14536.826    18809.354   -767.77312    -3326.097    591.06193    81.064452 
   56600    273.13794   -113.52916   0.24714095   -113.28202   -7299.1838    4.3496687    4.3496687    4.3496687   -7299.1838    4137.2979   -7563.8494       -18471    2270.4409    9672.2171    3042.8741    82.294067 
   56700    483.71526   -113.71753   0.43767573   -113.27985    7790.8334    4.3325426    4.3325426    4.3325426    7790.8334    33161.615    1049.4657    -10838.58   -127.71509   -3247.5688   -2048.9179    81.325835 
   56800    612.76896   -113.83454   0.55444624   -113.28009    11444.072    4.3321708    4.3321708    4.3321708    11444.072    16536.701    6725.5428    11069.974    322.34079    339.90788   -2587.7987    81.304898 
   56900    359.99313   -113.60767   0.32572935   -113.28194   -2836.5143    4.3496356    4.3496356    4.3496356   -2836.5143    15975.266   -6568.9568   -17915.853   -3662.8818    7354.9257    2148.4414    82.292192 
   57000    452.20403   -113.68958   0.40916371   -113.28042     2088.116     4.329812     4.329812     4.329812     2088.116    15980.216     3621.011   -13336.879    4078.2502    3301.3038   -985.08752    81.172166 
   57100    571.10628   -113.79723   0.51674897   -113.28049     3553.968    4.3339037    4.3339037    4.3339037     3553.968    22345.614    174.51967    -11858.23   -1837.8899    2724.5238    -8423.652    81.402504 
   57200    517.10069   -113.74664   0.46788357   -113.27876   -6734.3907    4.3494386    4.3494386    4.3494386   -6734.3907    12164.732   -10390.308   -21977.596   -4868.2936    3628.3832    2404.3169    82.281012 
   57300    429.58482   -113.66869   0.38869738   -113.27999     727.8346    4.3302751    4.3302751    4.3302751     727.8346      5910.75     3762.273   -7489.5191    1490.1119    11037.591    2926.2149    81.198209 
   57400    464.12033   -113.70117   0.41994583   -113.28122    1025.6673    4.3345709    4.3345709    4.3345709    1025.6673    23347.016   -3587.7831   -16682.231   -1542.7054   -1789.1896   -11130.302    81.440105 
   57500    718.12693   -113.92708   0.64977634    -113.2773   -18122.015    4.3497479    4.3497479    4.3497479   -18122.015   -17948.655   -14098.959    -22318.43    4152.5184   -930.37186   -1827.4356    82.298565 
   57600    459.01359   -113.69579   0.41532514   -113.28047    4417.7366    4.3284153    4.3284153    4.3284153    4417.7366    7326.7968    12307.467   -6381.0541   -1766.9494    14640.652    1240.7494    81.093636 
   57700     520.9107    -113.7541   0.47133095   -113.28277    -4123.484    4.3335579    4.3335579    4.3335579    -4123.484    1773.8988   -3057.3306    -11087.02    59.282838    2745.2821   -8838.6188     81.38302 
   57800    603.40051   -113.82685   0.54596946   -113.28088   -11362.228    4.3509204    4.3509204    4.3509204   -11362.228    1840.8699   -10178.188   -25749.366   -2570.2203   -3417.7931   -1801.9297    82.365133 
   57900    626.61582   -113.84552   0.56697516   -113.27854    9519.9715    4.3265943    4.3265943    4.3265943    9519.9715    7918.3775    14769.702     5871.835   -4144.6099    9335.5239    2169.2105    80.991327 
   58000     473.6664   -113.71186   0.42858331   -113.28328    1798.7838    4.3358076    4.3358076    4.3358076    1798.7838     17260.98    521.94981   -12386.579    4987.0814    5483.5188   -4962.4253    81.509835 
   58100    475.93548   -113.71208   0.43063642   -113.28145   -5685.3948    4.3491684    4.3491684    4.3491684   -5685.3948    15253.443   -3853.2698   -28456.358   -3464.5778   -304.65601   -8944.0154    82.265678 
   58200    705.63251   -113.91418   0.63847112   -113.27571    10267.268    4.3272544    4.3272544    4.3272544    10267.268    8845.1551    14310.051    7646.5973    413.43655    3055.5509    268.35237    81.028403 
   58300    527.10962   -113.75908   0.47693986   -113.28214    3199.3651    4.3382863    4.3382863    4.3382863    3199.3651    11209.345    5256.0464   -6867.2957    1676.1826    621.62941   -16.456349    81.649709 
   58400    442.78144   -113.68198   0.40063795   -113.28134   -11673.401    4.3473433    4.3473433    4.3473433   -11673.401    2355.0812   -8141.4885   -29233.796    376.57281   -836.15881   -8850.1128    82.162152 
   58500    590.27625    -113.8125   0.53409436   -113.27841    7577.3104    4.3263773    4.3263773    4.3263773    7577.3104    10081.522    13187.475   -537.06559    4541.0657   -7618.0615    3301.1882    80.979143 
   58600    710.56461   -113.92377    0.6429338   -113.28084    -4946.721    4.3406852    4.3406852    4.3406852    -4946.721    -6204.695   -106.90236   -8528.5657   -4547.8952    1747.2731    -2236.929     81.78523 
   58700    321.08481   -113.57425   0.29052428   -113.28373    -5316.776    4.3452263    4.3452263    4.3452263    -5316.776    4352.7848    -12048.74    -8254.373    2404.0761    416.56024   -8885.5099    82.042179 
   58800    459.80791    -113.6968   0.41604386   -113.28075    456.41962    4.3282159    4.3282159    4.3282159    456.41962    16749.056    3236.8434    -18616.64    -1418.352   -9112.0903    2268.1159    81.082427 
   58900    620.52985   -113.84011   0.56146844   -113.27864   -4101.7496    4.3435363    4.3435363    4.3435363   -4101.7496    3532.6365   -4586.1081   -11251.777    1008.8002    1410.7805    2883.1358    81.946494 
   59000    364.09165   -113.61029   0.32943777   -113.28085   -235.14905    4.3429528    4.3429528    4.3429528   -235.14905     10335.18   -7223.7905   -3816.8363     2147.156    984.23323   -7399.9684     81.91347 
   59100    276.40486   -113.53158   0.25009693   -113.28149    7844.9332    4.3279921    4.3279921    4.3279921    7844.9332    28120.135    5699.0615   -10284.397   -2535.6281   -309.84981   -4961.9908     81.06985 
   59200      473.844   -113.70927   0.42874401   -113.28052   -1102.3124    4.3432573    4.3432573    4.3432573   -1102.3124    10812.404   -2717.9679   -11401.374    1161.0511   -2927.9397     5004.975    81.930701 
   59300    510.59127   -113.74037   0.46199371   -113.27837   -1636.6016    4.3421897    4.3421897    4.3421897   -1636.6016    16361.277   -4064.8683   -17206.213    -5064.369   -2669.0331   -5589.7517    81.870301 
   59400    315.24303   -113.56574   0.28523852   -113.28051    5967.8717    4.3305397    4.3305397    4.3305397    5967.8717    24779.975    2374.1369   -9250.4968    1157.4425    3195.0048   -10958.347      81.2131 
   59500    411.33644   -113.65328   0.37218586   -113.28109     -1288.53    4.3419649    4.3419649    4.3419649     -1288.53    11113.262   -7266.7609   -7712.0912   -1197.0433   -7125.9057    7258.2347    81.857587 
   59600    625.84395   -113.84424   0.56627676   -113.27796   -5625.9198    4.3404392    4.3404392    4.3404392   -5625.9198    6222.7782   -4012.9307   -19087.607   -4098.4964   -3149.2041    -1413.619    81.771323 
   59700    463.75447   -113.69933   0.41961479   -113.27972   -2220.3732    4.3327423    4.3327423    4.3327423   -2220.3732    11708.246   -9216.9185   -9152.4468     7558.656   -499.66204   -13816.767    81.337081 
   59800    387.98927    -113.6329   0.35106085   -113.28184   -3511.3323    4.3412591    4.3412591    4.3412591   -3511.3323    10532.575   -11604.481   -9462.0908   -1317.5935    -4958.377    6695.5459    81.817673 
   59900    617.10784   -113.83693   0.55837215   -113.27856   -4146.3977    4.3394581    4.3394581    4.3394581   -4146.3977    2044.6165   -4597.7154   -9886.0941    2441.4624   -1032.1409     4009.857    81.715884 
   60000    581.02061   -113.80336   0.52571966   -113.27764   -231.01493    4.3332291    4.3332291    4.3332291   -231.01493    8748.3535   -6484.7385   -2956.6598    1736.8863   -202.04246   -13889.333    81.364501 
   60100    459.29029   -113.69615   0.41557551   -113.28057   -12786.472    4.3440022    4.3440022    4.3440022   -12786.472    8192.2432   -26293.134   -20258.525    1185.4514    1294.3578    6431.0849    81.972863 
   60200    465.62733   -113.70129   0.42130939   -113.27998    1510.4032    4.3366998    4.3366998    4.3366998    1510.4032    13644.855   -810.41212   -8303.2336    3626.5479   -3810.5858    10454.312    81.560164 
   60300    687.81452   -113.89983   0.62234904   -113.27748    1515.3998    4.3327979    4.3327979    4.3327979    1515.3998    6747.7091    2852.5574   -5054.0671   -3372.4037   -8.3653933   -7367.7796    81.340209 
   60400    465.68509   -113.70266   0.42136165    -113.2813   -2961.0062    4.3429653    4.3429653    4.3429653   -2961.0062    21925.363   -20406.732   -10401.649    2255.9662    2530.7693    2126.3709    81.914176 
   60500    467.33108   -113.70431   0.42285099   -113.28145   -3864.9748    4.3366594    4.3366594    4.3366594   -3864.9748    5005.2185    1691.5555   -18291.698   -601.13853   -9152.7105    12043.167    81.557881 
   60600    572.83904   -113.79714    0.5183168   -113.27882    4772.1673    4.3354709    4.3354709    4.3354709    4772.1673    10582.187    8505.7257    -4771.411   -3183.9551   -5295.9101    310.12163    81.490843 
   60700    643.61388   -113.86137   0.58235537   -113.27901   -5649.4358    4.3409984    4.3409984    4.3409984   -5649.4358   -501.69683   -10409.029   -6037.5816    3105.4997    641.21021    141.15127    81.802933 
   60800    402.53826   -113.64713   0.36422508   -113.28291   -1035.3277    4.3343731    4.3343731    4.3343731   -1035.3277   -941.73947    8980.0677   -11144.311    2643.0197   -5251.8023    9982.1031    81.428957 
   60900    487.23114   -113.72368   0.44085698   -113.28283    -258.9755     4.337435     4.337435     4.337435    -258.9755   -6598.1373    2308.5589    3512.6519    1105.2478   -4693.9485   -68.986042    81.601651 
   61000    591.71418   -113.81492   0.53539543   -113.27952    4160.6254    4.3394507    4.3394507    4.3394507    4160.6254    12222.979    3564.4023   -3305.5046   -3537.7196    3108.0267    -4894.827    81.715469 
   61100    441.97246   -113.68102   0.39990597   -113.28112    1562.3032    4.3354501    4.3354501    4.3354501    1562.3032    11923.672    2928.6877    -10165.45    3975.7476    2210.3596    10552.167    81.489674 
   61200    314.79315   -113.56764   0.28483146    -113.2828    1629.4859    4.3384596    4.3384596    4.3384596    1629.4859    6507.8445   -9871.3353    8251.9485    232.33986   -1960.0249    4972.0805    81.659494 
   61300    487.51336   -113.72134   0.44111234   -113.28023    8216.7234     4.337765     4.337765     4.337765    8216.7234    27737.786    3500.6678   -6588.2838   -5458.6961    444.63509   -3780.4766    81.620275 
   61400    596.76503   -113.81979   0.53996554   -113.27982   -760.71939    4.3359432    4.3359432    4.3359432   -760.71939     8079.156   -5610.0231   -4751.2911      3207.13    1322.5542    3623.6669    81.517484 
   61500    278.84486   -113.53511   0.25230469   -113.28281   -5215.2758    4.3416498    4.3416498    4.3416498   -5215.2758    13898.834   -20736.878   -8807.7836    1202.6003   -3841.8272    8142.2984    81.839767 
   61600    546.72709   -113.77379   0.49469016    -113.2791   -6287.1012    4.3380761    4.3380761    4.3380761   -6287.1012   -4599.1892   -2609.9293   -11652.185   -1816.4165   -6937.3928    1357.5641    81.637841 
   61700    612.26697   -113.83154   0.55399202   -113.27755    836.99286    4.3371354    4.3371354    4.3371354    836.99286    7017.0808   -652.45732   -3853.6449   -2467.7487   -3113.2786    49.234239    81.584741 
   61800    455.86659   -113.69248   0.41247768      -113.28   -13162.133    4.3432229    4.3432229    4.3432229   -13162.133    2249.6586   -20872.043   -20864.014      2743.93    -2508.086    9017.2667    81.928754 
   61900    386.98107   -113.63101    0.3501486   -113.28086   -6900.3143    4.3382554    4.3382554    4.3382554   -6900.3143    409.63104   -1831.6561   -19278.918    1140.1724   -5803.7654    1254.8776    81.647962 
   62000    538.54753   -113.76591   0.48728912   -113.27862    2210.7783    4.3408398    4.3408398    4.3408398    2210.7783    10305.391    2569.7721   -6242.8282   -1091.2832   -412.62189   -2736.5478    81.793967 
   62100    524.98366   -113.75344   0.47501625   -113.27842   -3613.9637    4.3413472    4.3413472    4.3413472   -3613.9637    12573.458   -15112.473   -8302.8757    5473.5588    1818.1819    9272.4809    81.822656 
   62200     292.4349   -113.54576   0.26460125   -113.28116    947.82362    4.3368857    4.3368857    4.3368857    947.82362    8400.9394   -2679.2668   -2878.2018    1970.0553    16.965682    1715.9384    81.570648 
   62300    460.20548    -113.6968   0.41640359   -113.28039   -546.39417    4.3433258    4.3433258    4.3433258   -546.39417   -6922.8036   -1066.2664    6349.8875   -617.86394     6363.918   -4699.8154     81.93458 
   62400    581.02879   -113.80341   0.52572706   -113.27768    6114.5821    4.3373025    4.3373025    4.3373025    6114.5821    11678.075   -7989.4973    14655.169    4071.3357    7887.3067    1457.8141    81.594171 
   62500    369.60822   -113.61536   0.33442929   -113.28093    1803.9896     4.340614     4.340614     4.340614    1803.9896   -5141.5244   -4451.6218    15005.115    6436.3694    999.73134    3715.4315    81.781204 
   62600    452.67488   -113.68906   0.40958974   -113.27947   -3330.8305    4.3440313    4.3440313    4.3440313   -3330.8305   -15257.384   -4182.2444    9447.1371   -3231.5567   -3204.1183   -5100.2854     81.97451 
   62700    693.35952   -113.90331   0.62736626   -113.27594    5371.1395    4.3328692    4.3328692    4.3328692    5371.1395    4117.4237    1381.3746     10614.62   -2812.9681   -1748.1685   -3341.0609    81.344225 
   62800    564.25749   -113.79006   0.51055203   -113.27951   -3178.5436    4.3417473    4.3417473    4.3417473   -3178.5436   -8228.6447   -5995.8794    4688.8935    8627.1291    3620.8579    7087.5453    81.845276 
   62900    502.47525   -113.73595   0.45465017    -113.2813   -6792.9396    4.3408242    4.3408242    4.3408242   -6792.9396   -14445.909   -1481.2719   -4451.6376   -3845.7391   -885.62413   -731.22753    81.793087 
   63000    698.50336   -113.91103   0.63202052   -113.27901    337.73639    4.3341194    4.3341194    4.3341194    337.73639    7185.3826   -1721.5661   -4450.6074   -2173.2784   -7818.6445   -4639.6147    81.414663 
   63100    625.01608   -113.84499   0.56552768   -113.27946   -410.95747    4.3414292    4.3414292    4.3414292   -410.95747   -1623.0628   -5082.7625    5472.9528    6585.5412   -1618.1795    2579.0778    81.827291 
   63200    455.99079   -113.69496   0.41259005   -113.28237    2131.8999    4.3384844    4.3384844    4.3384844    2131.8999   -6320.3347   -14592.021    27308.055    -2505.683   -82.664176    5538.3337    81.660895 
   63300    567.23802   -113.79413   0.51324888   -113.28088    8645.8656    4.3327007    4.3327007    4.3327007    8645.8656    11496.736   -3872.8125    18313.674   -2841.4262    2445.8305   -4458.6213    81.334736 
   63400     523.3909   -113.75453   0.47357509   -113.28095    5071.9227    4.3447708    4.3447708    4.3447708    5071.9227    4966.6099   -19051.312     29300.47    2074.0719    790.40953   -1302.2676    82.016381 
   63500    515.49562   -113.74725   0.46643127   -113.28081    2622.5692     4.336294     4.336294     4.336294    2622.5692   -5488.8637   -9080.4443    22437.016    4778.9816    -814.2169    6240.8996    81.537269 
   63600    553.69705   -113.78085   0.50099673   -113.27986    8123.6479    4.3315218    4.3315218    4.3315218    8123.6479    15172.795   -4451.3084    13649.458   -961.56215    -506.9491   -2539.0651    81.268362 
   63700    616.66089   -113.83613   0.55796773   -113.27816    -15274.07    4.3508568    4.3508568    4.3508568    -15274.07   -9369.0166   -24257.884   -12195.309   -1105.6452   -800.24418   -8638.8057    82.361524 
   63800    567.96083   -113.79283   0.51390289   -113.27892    2244.7652    4.3263765    4.3263765    4.3263765    2244.7652    4953.1548   -6989.1464    8770.2873    12707.401    1531.2969   -452.67304    80.979098 
   63900    542.52123   -113.77257   0.49088461   -113.28169   -8512.1343    4.3437324    4.3437324    4.3437324   -8512.1343   -4438.8041   -15921.319   -5176.2802    1199.3948   -1819.8975    10504.533     81.95759 
   64000    482.52409   -113.71583   0.43659793   -113.27923   -3970.4373    4.3433176    4.3433176    4.3433176   -3970.4373   -3254.6712    -12625.64    3968.9987   -1441.2758   -4501.2983   -7359.8884    81.934112 
   64100    416.68844   -113.65531   0.37702846   -113.27828    8669.6965     4.328717     4.328717     4.328717    8669.6965   -4133.1483   -1310.8168    31453.055    12962.857   -2407.5068   -1720.1613    81.110593 
   64200    414.78456   -113.65374   0.37530579   -113.27844   -5858.2972    4.3492578    4.3492578    4.3492578   -5858.2972   -13653.496   -13985.273    10063.878    1927.6894    715.81483    11202.117    82.270751 
   64300    423.73595   -113.66052   0.38340519   -113.27711    8511.3013    4.3356038    4.3356038    4.3356038    8511.3013    125.76343     5576.238    19831.903    -2197.528    411.70428   -1567.3474    81.498338 
   64400      380.068   -113.62287   0.34389351   -113.27898   -3605.2478    4.3405313    4.3405313    4.3405313   -3605.2478   -19732.292   -1754.1286    10670.677    10498.914   -1620.2283   -1537.5007     81.77653 
   64500    462.78993   -113.69616   0.41874205   -113.27742   -1073.7398    4.3409139    4.3409139    4.3409139   -1073.7398   -8139.3796    5761.8258    -843.6657     5820.768    498.25595    3303.5849    81.798159 
   64600    641.71499   -113.85715   0.58063721   -113.27652   -7115.9825    4.3409745    4.3409745    4.3409745   -7115.9825   -6773.7915    3421.3811   -17995.537   -3458.8434   -1077.2755    2519.1222    81.801581 
   64700    401.86362   -113.64277   0.36361465   -113.27916   -4477.9802    4.3397591    4.3397591    4.3397591   -4477.9802   -15584.082    8831.8653   -6681.7242    7823.5596    2415.4425   -11383.556    81.732893 
   64800    475.10596   -113.70899   0.42988585    -113.2791   -3738.7147    4.3367081    4.3367081    4.3367081   -3738.7147   -9914.0344   -5627.9923    4325.8825    11764.638    494.03234   -5382.0844    81.560632 
   64900    630.93292   -113.84809   0.57088136   -113.27721   -10626.214    4.3456986    4.3456986    4.3456986   -10626.214   -15033.838   -2181.3671   -14663.437    -4143.434    2151.3541    2445.8078    82.068938 
   65000    401.15078   -113.64116   0.36296965    -113.2782    3517.7096    4.3343745    4.3343745    4.3343745    3517.7096   -11039.739    12084.592    9508.2757    5646.8627   -18.548084   -9121.7298    81.429035 
   65100    296.31632   -113.54896   0.26811323   -113.28084   -1946.8329    4.3398139    4.3398139    4.3398139   -1946.8329    -15217.98   -12823.776    22201.257    13132.799   -1985.3845   -4192.8938    81.735991 
   65200     599.6167   -113.81965    0.5425458    -113.2771   -4519.3764    4.3406819    4.3406819    4.3406819   -4519.3764   -8548.5897   -2103.9429   -2905.5967    -4092.163    4889.0528    2533.2845    81.785043 
   65300    392.29574   -113.63276   0.35495743   -113.27781    4076.8994    4.3366392    4.3366392    4.3366392    4076.8994   -11095.843    12379.591     10946.95    2752.5135    568.40999    2705.5529    81.556745 
   65400    336.46816   -113.58552   0.30444347   -113.28108   -11339.199    4.3396005    4.3396005    4.3396005   -11339.199   -20004.575   -18379.334     4366.311    15359.648    -758.1202   -7717.3856    81.723934 
   65500    494.76045   -113.72765   0.44766966   -113.27998    4294.1754    4.3337181    4.3337181    4.3337181    4294.1754    6780.1693    1892.1682    4210.1888    1534.3749   -1809.8469   -707.94178    81.392049 
   65600     650.8828   -113.86759   0.58893244   -113.27865   -11295.763    4.3437049    4.3437049    4.3437049   -11295.763   -13770.635   -2493.8359   -17622.818   -1394.0876   -1187.3193    7432.3366    81.956036 
   65700      384.551   -113.63079   0.34794982   -113.28284   -6298.1169    4.3324094    4.3324094    4.3324094   -6298.1169    -7193.774    -7667.047   -4033.5299    13354.278    1516.1497   -13016.529    81.318334 
   65800    404.40051   -113.65063   0.36591008   -113.28472    4051.3731    4.3370497    4.3370497    4.3370497    4051.3731    17934.634   -11585.773    5805.2579    7430.3379   -2598.3612   -9444.8191    81.579904 
   65900    774.82242   -113.97847   0.70107561   -113.27739   -7189.7198    4.3443171    4.3443171    4.3443171   -7189.7198   -12537.125   -9332.3055    300.27125   -4067.4088    2506.7081    2059.6379    81.990692 
   66000     405.3519   -113.64724   0.36677092   -113.28047    8877.3343    4.3273461    4.3273461    4.3273461    8877.3343    10780.952   -8895.0706    24746.121    9077.0472   -201.13428   -7545.6286    81.033553 
   66100     319.7435   -113.57413   0.28931063   -113.28482   -2752.7611    4.3437981    4.3437981    4.3437981   -2752.7611    3190.6234   -18874.567    7425.6602    12586.033   -190.17917   -10821.895    81.961308 
   66200    724.84304   -113.93473   0.65585322   -113.27888     6830.426    4.3369451    4.3369451    4.3369451     6830.426   -6755.7241    -2009.268     29256.27   -5602.2619    3226.3622    2858.8431    81.574003 
   66300    574.55468   -113.80025   0.51986915   -113.28038    7169.2488     4.332912     4.332912     4.332912    7169.2488    13545.144   -8128.4065    16091.009    3314.3578    1483.6621    1362.6586    81.346639 
   66400    370.63343   -113.61927   0.33535691   -113.28391   -7209.0954    4.3440366    4.3440366    4.3440366   -7209.0954   -9361.3891   -14930.583    2664.6861    15200.682   -810.98467   -10401.096    81.974809 
   66500    683.26769   -113.89747   0.61823496   -113.27923    3542.0136    4.3357285    4.3357285    4.3357285    3542.0136   -7835.6367    14532.221     3929.457   -3189.1552    -6132.916   -1310.9743    81.505372 
   66600    787.14512   -113.98961   0.71222544   -113.27738    4313.2407    4.3331667    4.3331667    4.3331667    4313.2407    5693.2462    912.49575    6333.9802    2199.9198    3156.6885    4505.5336    81.360987 
   66700     395.8344   -113.64233   0.35815928   -113.28417   -5860.2811    4.3452445    4.3452445    4.3452445   -5860.2811   -25560.504    7555.0256    424.63565    13743.594    1492.2733   -1388.6318     82.04321 
   66800    538.86818   -113.76952   0.48757925   -113.28194    997.23802    4.3364275    4.3364275    4.3364275    997.23802   -12951.141    7751.7673    8191.0877    2644.5877   -2578.2988   -12579.812    81.544799 
   66900    753.08446   -113.95922   0.68140664   -113.27781    13774.857    4.3296732    4.3296732    4.3296732    13774.857    2806.5611    17213.002    21305.007   -2782.0069   -1084.9046   -1734.7898    81.164356 
   67000     436.5144   -113.67739    0.3949674   -113.28242   -6257.0974    4.3499734    4.3499734    4.3499734   -6257.0974   -34525.131    7335.0847    8418.7539    9501.9925   -754.26082     1629.059    82.311365 
   67100    375.46281    -113.6215   0.33972665   -113.28177    4425.6019    4.3314992    4.3314992    4.3314992    4425.6019   -10158.711    1584.8993    21850.618    8739.1642    633.73782   -8572.0902    81.267092 
   67200    659.59232   -113.87755   0.59681299   -113.28074    11912.828    4.3292061    4.3292061    4.3292061    11912.828    1332.7382    19805.681    14600.065   -4968.9953    -1669.116   -3237.7123    81.138092 
   67300    571.38062   -113.79655    0.5169972   -113.27955    -12220.37    4.3529779    4.3529779    4.3529779    -12220.37   -33327.042   -3221.1442   -112.92531    10443.253     2816.088   -1945.7175    82.482037 
   67400    435.31141   -113.67388   0.39387891      -113.28   -1140.2924    4.3276042    4.3276042    4.3276042   -1140.2924   -9175.2905   -1615.1898    7369.6031    13662.368    2510.1135   -7498.7859    81.048056 
   67500    560.75057   -113.78983    0.5073789   -113.28245    709.25095    4.3350438    4.3350438    4.3350438    709.25095   -931.53427    6123.7909   -3064.5038   -2926.9057   -79.828026   -8460.3196    81.466765 
   67600    722.60435   -113.93129   0.65382761   -113.27746   -17874.137    4.3483964    4.3483964    4.3483964   -17874.137   -23968.408   -11769.826   -17884.175     5796.139   -509.32361    5634.3969    82.221876 
   67700    444.56955   -113.68196   0.40225587   -113.27971    39.488051    4.3259616    4.3259616    4.3259616    39.488051   -9035.9937    776.15189    8378.3059    12117.615    2240.3154   -2694.8885    80.955803 
   67800    445.36332   -113.68619   0.40297409   -113.28321   -6392.3266    4.3410064    4.3410064    4.3410064   -6392.3266   -9393.8283   -4771.7531   -5011.3983   -138.91474     3305.633   -18446.423    81.803386 
   67900    612.05389   -113.83187   0.55379922   -113.27807   -10049.294    4.3450765    4.3450765    4.3450765   -10049.294   -18457.536   -11867.936    177.59042    1538.9822   -1293.0258    1748.3377    82.033696 
   68000    371.45988   -113.61449    0.3361047   -113.27838     7022.623    4.3272449    4.3272449    4.3272449     7022.623   -10527.203    4418.6072    27176.465    15381.893    495.84634     1885.049    81.027869 
   68100    453.17837   -113.69088   0.41004532   -113.28084   -7338.7535    4.3419984    4.3419984    4.3419984   -7338.7535    -16312.25   -5365.6641   -338.34639   -93.976529   -2285.6303    -10641.48    81.859482 
   68200    440.24067    -113.6765   0.39833901   -113.27816    84.470838    4.3444522    4.3444522    4.3444522    84.470838   -12602.911      3981.42    8874.9037   -2292.1841   -1276.8136   -7047.3219     81.99834 
   68300    503.97561   -113.73233   0.45600772   -113.27633    4586.8417    4.3278421    4.3278421    4.3278421    4586.8417   -8501.7067    805.74733    21456.485     14202.24   -1823.8368    3041.3956    81.061423 
   68400    477.66091   -113.71148   0.43219763   -113.27928    -10779.27    4.3435553    4.3435553    4.3435553    -10779.27   -21289.203    3440.0566   -14488.665    1252.5563    3246.0609   -3484.0173    81.947569 
   68500    505.83611   -113.73588   0.45769114   -113.27819   -3289.2455    4.3410458    4.3410458    4.3410458   -3289.2455   -10269.717    7137.6512   -6735.6704   -1065.2029    3503.1486   -9496.4521    81.805611 
   68600    493.37833   -113.72374   0.44641908   -113.27733    7980.2167    4.3292495    4.3292495    4.3292495    7980.2167   -1357.8459      13226.4    12072.096    9577.1091   -3749.5072    9309.9079    81.140529 
   68700    401.28171   -113.64279   0.36308812    -113.2797    -2124.836    4.3426599    4.3426599    4.3426599    -2124.836    -22827.21    7658.5844     8794.118    1542.0358    2701.7788   -270.24744    81.896898 
   68800    475.84174   -113.71015   0.43055161    -113.2796    698.89975    4.3377693    4.3377693    4.3377693    698.89975   -9285.1958    9463.0458    1918.8492   -2867.5453    1959.3953   -9529.8068    81.620518 
   68900    403.16764   -113.64446   0.36479455   -113.27967    11773.369    4.3313383    4.3313383    4.3313383    11773.369   -5265.2298    12068.192    28517.144    5939.4803    254.44217    260.57116    81.258033 
   69000    338.52535   -113.58657   0.30630485   -113.28027    4471.6874    4.3421382    4.3421382    4.3421382    4471.6874    -19090.37    12813.116    19692.316    5834.0342    159.05243    2018.4041    81.867389 
   69100     527.7571    -113.7554   0.47752571   -113.27787   -3692.5044    4.3361648    4.3361648    4.3361648   -3692.5044   -7767.1721   -1326.5858   -1983.7554   -3711.1402    2113.8578   -9233.7124     81.52998 
   69200    460.55412   -113.69523   0.41671904   -113.27851    2184.1754    4.3321389    4.3321389    4.3321389    2184.1754   -4283.1985    3654.1936    7181.5311    4549.0074    663.52814    -9903.598      81.3031 
   69300    400.35458   -113.64207   0.36224924   -113.27982   -7414.7737    4.3426825    4.3426825    4.3426825   -7414.7737   -23298.075   -4500.8792     5554.633     9802.809   -1408.3442    10707.292    81.898178 
   69400    543.91787   -113.77091   0.49214832   -113.27876   -3417.8514     4.331846     4.331846     4.331846   -3417.8514   -7034.4378   -2793.6444   -425.47203   -5804.8989    1997.7205     -2799.98    81.286614 
   69500    504.69303   -113.73567   0.45665686   -113.27901   -5985.6921    4.3385747    4.3385747    4.3385747   -5985.6921   -4450.5032   -5983.6008   -7522.9724   -1783.5926    352.43259   -11290.238     81.66599 
   69600    483.13218   -113.71637   0.43714815   -113.27922   -12292.141    4.3402306    4.3402306    4.3402306   -12292.141   -22511.183   -20067.153    5701.9126    12206.932    666.41019    6767.8779    81.759533 
   69700    410.72075   -113.65181   0.37162876   -113.28018    1532.7461    4.3332635    4.3332635    4.3332635    1532.7461   -14125.866   -4138.2316    22862.336   -4215.2448   -1753.3347    739.26921    81.366437 
   69800    598.54602   -113.81903   0.54157702   -113.27746   -6373.5561    4.3410582    4.3410582    4.3410582   -6373.5561   -14860.408   -7632.7828    3372.5226   -6593.9915    1038.6067   -4592.3717    81.806313 
   69900    499.28274   -113.73025   0.45176151   -113.27849   -2007.8638     4.336014     4.336014     4.336014   -2007.8638     -13060.8   -9009.0959    16046.305    12198.711   -3564.3165    2215.6035    81.521474 
   70000    414.18593   -113.65551   0.37476414   -113.28074   -884.80163    4.3351438    4.3351438    4.3351438   -884.80163   -16448.075   -3254.8147    17048.485   -3343.9592   -940.22345    4997.1441      81.4724 
   70100    616.44108   -113.83636   0.55776884   -113.27859   -378.41458     4.338615     4.338615     4.338615   -378.41458   -11832.632     3037.603    7659.7854    -9023.795    4241.3728    -6697.021     81.66827 
   70200    654.59431   -113.87028   0.59229069   -113.27799    2409.3183    4.3363876    4.3363876    4.3363876    2409.3183   -13018.849    8507.9591    11738.845    13083.587   -3494.2323   -5645.3374    81.542547 
   70300     445.6255   -113.68455   0.40321132   -113.28134    384.18786    4.3362086    4.3362086    4.3362086    384.18786   -15649.036    8374.3383    8427.2616    -132.9875   -1074.4946    6066.3543    81.532453 
   70400    589.34528   -113.81264   0.53325199   -113.27939   -1947.6573    4.3377675    4.3377675    4.3377675   -1947.6573   -15163.196    3310.5913    6009.6328   -13370.463     -408.801     5610.263    81.620418 
   70500    701.69159   -113.91153    0.6349053   -113.27663    4070.8953    4.3372206    4.3372206    4.3372206    4070.8953   -10894.781    18201.901    4905.5667    5674.1097   -1240.4447   -1076.7711     81.58955 
   70600    563.97955    -113.7899   0.51030055    -113.2796   -532.57586     4.336023     4.336023     4.336023   -532.57586   -14047.842    2687.3376    9762.7766    7257.4272    267.25189    1792.0212    81.521984 
   70700    430.73969   -113.67137   0.38974232   -113.28163   -1623.2281    4.3376778    4.3376778    4.3376778   -1623.2281   -17806.858       9751.4    3185.7734   -11779.704    299.04657    7043.5694    81.615352 
   70800    650.47804   -113.86734    0.5885662   -113.27877    2801.9798    4.3358124    4.3358124    4.3358124    2801.9798   -11631.349    5775.1944    14262.094   -5549.5253    416.10279   -723.40211    81.510104 
   70900    664.94959   -113.88115   0.60166036   -113.27949   -1569.0947    4.3354974    4.3354974    4.3354974   -1569.0947   -14981.767    10242.217    32.266647    7294.0604   -5862.2618   -731.22517    81.492341 
   71000    243.38017   -113.50412   0.22021549    -113.2839    4803.4816    4.3375686    4.3375686    4.3375686    4803.4816   -13210.347    5213.5543    22407.237   -8719.3528    792.33477    2589.1728    81.609188 
   71100    536.11052   -113.76531   0.48508407   -113.28022    101.00943    4.3350235    4.3350235    4.3350235    101.00943   -14024.046    2583.7229    11743.351   -7944.1367    2965.3089    620.52232    81.465622 
   71200    568.18476   -113.79283   0.51410551   -113.27873    2106.7868     4.336495     4.336495     4.336495    2106.7868   -15577.214    20941.408    956.16642    6405.2808   -3519.7106   -3480.2182    81.548608 
   71300    353.48647   -113.60351   0.31984198   -113.28367   -4794.6188    4.3379205    4.3379205    4.3379205   -4794.6188   -24214.984   -9966.4487    19797.576   -6051.9193   -1647.5048    2751.2701    81.629052 
   71400    327.01485    -113.5793   0.29588991   -113.28341    4154.3006    4.3343514    4.3343514    4.3343514    4154.3006   -13365.426    7752.1971    18076.131   -13814.849    1780.1624    5046.6914    81.427733 
   71500    602.48166   -113.82373   0.54513807    -113.2786    1265.1624    4.3368102    4.3368102    4.3368102    1265.1624   -9917.0662    16790.353    -3077.799    3405.6089   -959.01235   -657.80063     81.56639 
   71600    483.22508   -113.71751    0.4372322   -113.28028    -6914.682    4.3379664    4.3379664    4.3379664    -6914.682   -20187.016   -2868.0639    2311.0335   -2839.5638   -5189.7143    180.72879    81.631644 
   71700     282.6126   -113.53856   0.25571382   -113.28284    63.280286    4.3352568    4.3352568    4.3352568    63.280286   -18049.703    10564.125    7675.4189   -17567.687    1496.4722    6197.4552    81.478773 
   71800    503.34829    -113.7351   0.45544011   -113.27966    1642.2859    4.3369021    4.3369021    4.3369021    1642.2859   -7750.4534    17084.352   -4407.0404    2146.1145   -3140.0536    4071.3109    81.571577 
   71900    578.46711   -113.80142   0.52340919   -113.27801   -4052.5247    4.3359624    4.3359624    4.3359624   -4052.5247   -10516.124    3569.4368   -5210.8874    218.39572   -4790.4564   -3645.0691    81.518566 
   72000    294.05895   -113.54758   0.26607072    -113.2815   -4739.2592    4.3381588    4.3381588    4.3381588   -4739.2592   -21121.608   -3119.9186    10023.749   -16892.229    1569.8162   -1594.6964    81.642506 
   72100    503.66291   -113.73597   0.45572479   -113.28025   -4720.9713     4.334747     4.334747     4.334747   -4720.9713    -8668.831   -6544.7943    1050.7115   -3586.0916   -1763.8654    9515.8862    81.450034 
   72200    466.84345   -113.70185   0.42240976   -113.27944    3329.0522    4.3373693    4.3373693    4.3373693    3329.0522   -8005.6646    5581.3044    12411.517    426.54775   -6859.3505    -2966.743    81.597944 
   72300    444.04513   -113.68232   0.40178137   -113.28054   -7014.1903    4.3388925    4.3388925    4.3388925   -7014.1903    -18390.25   -13123.624    10471.303     -10309.5   -4275.0955   -1804.8237    81.683939 
   72400    491.62828   -113.72419    0.4448356   -113.27935   -2036.1559    4.3345879    4.3345879    4.3345879   -2036.1559   -8832.9979   -6839.2317    9563.7618    -3935.321    4674.3628    7993.3205    81.441066 
   72500    522.97214   -113.75239   0.47319618    -113.2792   -937.99189     4.338285     4.338285     4.338285   -937.99189   -4491.9859   -3894.1908     5572.201    2439.7027   -5742.1307   -793.82047    81.649631 
   72600    530.40047   -113.76132   0.47991749    -113.2814   -3640.7767    4.3353011    4.3353011    4.3353011   -3640.7767   -11754.542    8533.4405   -7701.2281   -10638.902   -8151.0904   -1806.8004    81.481273 
   72700    531.45751   -113.76252   0.48087392   -113.28165   -3335.6853    4.3391372    4.3391372    4.3391372   -3335.6853   -14396.022   -989.96906    5378.9356   -9019.2679    1036.0776   -1159.8444    81.697759 
   72800    619.41996    -113.8409   0.56046419   -113.28044   -278.31848     4.336649     4.336649     4.336649   -278.31848   -3372.5812   -1901.2298    4438.8555     8260.411    455.66223    583.22807    81.557296 
   72900    496.97906   -113.73046    0.4496771   -113.28078    6291.9636    4.3346696    4.3346696    4.3346696    6291.9636    -4815.429    18753.295    4938.0252   -3995.0396   -3491.2496    -4527.767     81.44567 
   73000    480.32253   -113.71437   0.43460591   -113.27977    240.40309    4.3448396    4.3448396    4.3448396    240.40309   -21568.107   -4579.3113    26868.627   -10766.796   -2174.6708   -2767.3768    82.020277 
   73100    654.32459   -113.86876   0.59204664   -113.27672    9343.3343     4.329882     4.329882     4.329882    9343.3343   -1441.0488    5804.1921     23666.86     3737.519    225.30285    7645.3632      81.1761 
   73200    472.83364    -113.7094   0.42782982   -113.28157    3969.6103    4.3375014    4.3375014    4.3375014    3969.6103   -8553.5305    7401.9268    13060.435   -1701.6176   -5978.8965   -2222.4142    81.605395 
   73300     530.6316   -113.76148   0.48012663   -113.28136    -9065.352     4.343624     4.343624     4.343624    -9065.352   -27519.138   -5753.7246    6076.8069   -10337.277   -2053.9858   -3114.5058    81.951455 
   73400    684.10224   -113.89791   0.61899009   -113.27892    7736.4271    4.3279019    4.3279019    4.3279019    7736.4271    1981.9683    6196.9467    15030.366    1613.5646    3027.1343    4511.5643    81.064785 
   73500    591.71215   -113.81656   0.53539359   -113.28117   -5541.3592    4.3439375    4.3439375    4.3439375   -5541.3592   -13568.427    2502.0425    -5557.693    1258.8427   -4571.7359    1457.7976    81.969199 
   73600    411.71542   -113.65487   0.37252877   -113.28234   -4849.1049    4.3396532    4.3396532    4.3396532   -4849.1049   -22600.422   -1358.7696     9411.877   -13330.272   -7469.3323   -1797.8581    81.726909 
   73700    537.95114   -113.76695   0.48674949    -113.2802    9124.1333    4.3278608    4.3278608    4.3278608    9124.1333    -8122.968    3334.1102    32161.258    326.94603   -1667.3335   -6124.3676    81.062472 
   73800    591.80721   -113.81575    0.5354796   -113.28027   -3373.7453    4.3457117    4.3457117    4.3457117   -3373.7453   -17618.936   -5771.2027    13268.903    8807.6983    1655.7777    4146.8849     82.06968 
   73900    301.18777   -113.55513   0.27252102   -113.28261   -1729.2931    4.3385331    4.3385331    4.3385331   -1729.2931    -14780.62   -6595.8205    16188.561   -11829.767   -9550.1379   -6875.1688    81.663644 
   74000    413.87537   -113.65504   0.37448313   -113.28056    4305.0665     4.328201     4.328201     4.328201    4305.0665   -10407.587    3260.5294    20062.257   -2196.3385   -4509.6538   -3358.4637     81.08159 
   74100    671.19152   -113.88441   0.60730819   -113.27711   -12058.457    4.3470641    4.3470641    4.3470641   -12058.457    -20662.94   -15847.677     335.2465    7531.1347    2442.1341    3245.5251    82.146321 
   74200    456.32145    -113.6943   0.41288924   -113.28141   -6673.6156    4.3351037    4.3351037    4.3351037   -6673.6156   -6957.3055    -8459.692   -4603.8492   -9445.7782   -7112.0171   -3873.7936     81.47014 
   74300    289.71438   -113.54592   0.26213966   -113.28378   -272.20953    4.3294565    4.3294565    4.3294565   -272.20953   -6382.4599   -60.315022    5626.1464   -4931.0574    -8677.954    999.68366    81.152168 
   74400    604.45252   -113.82633   0.54692135    -113.2794   -10036.317    4.3478956    4.3478956    4.3478956   -10036.317   -22004.475   -8578.9891    474.51321    5095.4217    2195.8094    -3468.553    82.193473 
   74500    529.95959   -113.75818   0.47951857   -113.27866    2267.1108    4.3320886    4.3320886    4.3320886    2267.1108   -2594.4594    1023.6348    8372.1569   -3535.2189   -827.20248     3182.503    81.300269 
   74600    223.90481   -113.48531   0.20259378   -113.28272   -454.91522     4.332598     4.332598     4.332598   -454.91522   -12972.528   -4607.2172    16214.999   -10458.093   -8466.0842     183.7791    81.328952 
   74700    409.73635   -113.65348   0.37073806   -113.28274   -2381.8259    4.3441326    4.3441326    4.3441326   -2381.8259   -14960.182    11128.868   -3314.1641    2542.8018   -989.19735   -4671.8029    81.980247 
   74800    629.18241   -113.84834   0.56929747   -113.27904    14144.685    4.3277113    4.3277113    4.3277113    14144.685    5864.3819    9112.2428     27457.43    6890.9642    1509.4852    3106.4196    81.054075 
   74900    347.22817   -113.59888   0.31417935    -113.2847   -1027.6397    4.3380549    4.3380549    4.3380549   -1027.6397   -19484.151     10372.36    6028.8718   -11496.345   -5838.9408   -3798.3763    81.636641 
   75000    367.39178   -113.61522   0.33242381   -113.28279   -7541.8233    4.3417418    4.3417418    4.3417418   -7541.8233   -16155.826    9504.9583   -15974.603   -1684.9915   -4080.9995   -2594.6367    81.844966 
   75100    652.72243   -113.86811   0.59059697   -113.27752    8710.4615     4.327636     4.327636     4.327636    8710.4615    13793.521    5168.7795    7169.0838    6207.4236    2139.3349   -6379.0003     81.04984 
   75200    527.64664    -113.7587   0.47742577   -113.28127   -3473.7108    4.3395944    4.3395944    4.3395944   -3473.7108   -16071.901    12723.638   -7072.8693   -7678.7304   -5878.4302    2561.5902     81.72359 
   75300    427.82706   -113.67022   0.38710692   -113.28311   -11859.349    4.3388758    4.3388758    4.3388758   -11859.349   -12585.684   -7166.4184   -15825.945   -4836.6022    -9142.305   -3389.0277    81.682994 
   75400    561.65614   -113.78875   0.50819828   -113.28055   -748.36256    4.3317197    4.3317197    4.3317197   -748.36256    7360.3342   -7378.0475   -2227.3744    4117.9962    1718.1497    -7254.364    81.279502 
   75500     591.6617   -113.81471   0.53534794   -113.27936   -1832.3429    4.3389826    4.3389826    4.3389826   -1832.3429   -4937.6023   -644.97402    85.547612    -855.0273       1863.2    8860.1741     81.68903 
   75600    467.55144   -113.70502   0.42305037   -113.28197   -4040.2999    4.3373265    4.3373265    4.3373265   -4040.2999   -9313.5065   -3632.5057    825.11259   -5153.1924   -6807.7615    -5673.427    81.595527 
   75700     477.3812   -113.71339   0.43194454   -113.28145    3333.7494    4.3338275    4.3338275    4.3338275    3333.7494    6166.9181   -7348.7529    11183.083   -420.19469   -1429.0506   -5742.9102    81.398212 
   75800     655.1468   -113.87186   0.59279059   -113.27907   -1401.3801    4.3380977    4.3380977    4.3380977   -1401.3801   -1147.5802   -5320.2423    2263.6823    2112.0492    3290.8984    4579.3763     81.63906 
   75900    489.92609   -113.72419   0.44329542   -113.28089    2704.4229    4.3372799    4.3372799    4.3372799    2704.4229   -2659.8391    10685.567    87.541184   -6041.1901   -3633.2393    4789.5011    81.592894 
   76000    597.00179   -113.82012   0.54017977   -113.27994    2501.5233    4.3335265    4.3335265    4.3335265    2501.5233   -758.46816    806.55452    7456.4835   -2953.3613   -4806.3745   -6419.2597    81.381252 
   76100    635.27959   -113.85487   0.57481432   -113.28005    2816.1763    4.3391516    4.3391516    4.3391516    2816.1763    5662.0138    16668.374   -13881.859    2887.8142    271.15987   -6571.7114    81.698573 
   76200     546.9278   -113.77548   0.49487176   -113.28061    834.79192    4.3381386    4.3381386    4.3381386    834.79192     1437.122    6023.9095   -4956.6557   -5845.1279   -3570.8581    8621.1502    81.641365 
   76300    592.07715   -113.81481   0.53572385   -113.27909    1221.1343    4.3328569    4.3328569    4.3328569    1221.1343   -3952.7636    10934.127   -3317.9602   -3208.0568   -7297.4958   -198.51066    81.343533 
   76400    566.80755   -113.79125   0.51285938   -113.27839    1799.3735    4.3405098    4.3405098    4.3405098    1799.3735   -4962.8826    18398.692    -8037.689    3398.7976   -1667.1038   -4289.7177    81.775317 
   76500    500.60082   -113.73211   0.45295414   -113.27916    1504.9704    4.3375141    4.3375141    4.3375141    1504.9704     9413.036   -6572.8469     1674.722   -2681.3006   -897.64493    3987.2652    81.606112 
   76600    423.56172   -113.66393   0.38324755   -113.28068    2766.6484    4.3326658    4.3326658    4.3326658    2766.6484   -8572.9551    12413.609    4459.2908   -663.46943   -7466.0064    2964.5764    81.332771 
   76700    471.63074   -113.70654   0.42674141    -113.2798   -2517.5769    4.3402122    4.3402122    4.3402122   -2517.5769   -12092.221     1407.677    3131.8132    1647.3719   -3187.7731   -2214.3287    81.758497 
   76800     490.1852   -113.72269   0.44352987   -113.27916    -5385.501    4.3382765    4.3382765    4.3382765    -5385.501    1636.9115   -17313.633   -479.78206    613.91432    3138.9675    4306.0881    81.649154 
   76900    303.75396   -113.55581   0.27484296   -113.28096    4217.4178     4.333623     4.333623     4.333623    4217.4178    3153.4168    7641.5163    1857.3203     763.6787   -5475.1898    10030.625    81.386691 
   77000    544.93716   -113.77159   0.49307059   -113.27852    -9401.594    4.3405726    4.3405726    4.3405726    -9401.594   -10419.459   -6502.1156   -11283.207    -4216.166   -885.14344    -4973.287    81.778866 
   77100    479.25422   -113.71235   0.43363929   -113.27871   -10204.943    4.3399556    4.3399556    4.3399556   -10204.943    1926.2919   -17978.168   -14562.952   -262.90918    5588.4292    3608.4879    81.743993 
   77200    386.39511   -113.62927   0.34961842   -113.27965   -3113.3381    4.3314604    4.3314604    4.3314604   -3113.3381     6969.318   -1443.6282   -14865.704     -672.841   -5657.6657    14272.924    81.264907 
   77300     480.5006   -113.71469   0.43476704   -113.27993   -6356.6354    4.3415759    4.3415759    4.3415759   -6356.6354   -8923.2331   -1075.8561   -9070.8171   -4202.0335     -4821.62   -2947.1081    81.835588 
   77400      468.656   -113.70334   0.42404979   -113.27929    -595.3202    4.3379835    4.3379835    4.3379835    -595.3202    9817.0509   -7684.4522   -3918.5592    2344.5904    400.08563    30.248844     81.63261 
   77500    407.36743   -113.64806   0.36859461   -113.27947    1799.1735    4.3307573    4.3307573    4.3307573    1799.1735    15568.374   -8041.8225   -2129.0313   -2783.8296   -2739.8534    9261.7413    81.225339 
   77600    391.78176   -113.63497   0.35449237   -113.28047   -5471.8542    4.3459857    4.3459857    4.3459857   -5471.8542   -10952.319   -7069.3449    1606.1014     -1882.67   -7232.8574    1428.3639    82.085201 
   77700    481.42317   -113.71289    0.4356018   -113.27728    11409.134    4.3338576    4.3338576    4.3338576    11409.134     16445.48    6588.7132    11193.209    2573.6443   -2242.1002   -1965.8279    81.399905 
   77800    511.54423   -113.74113   0.46285597   -113.27828    1600.3286    4.3335483    4.3335483    4.3335483    1600.3286    18436.779   -10908.567    -2727.227   -1651.3069    113.81934    6545.3078    81.382481 
   77900    414.20507   -113.65516   0.37478145   -113.28037   -2934.2412    4.3432714    4.3432714    4.3432714   -2934.2412    7298.9995   -5916.6892   -10185.034    2452.0017   -8669.5768    7053.1092      81.9315 
   78000     588.3913      -113.81   0.53238881   -113.27761    5529.4939    4.3353349    4.3353349    4.3353349    5529.4939    10766.054    8589.0929   -2766.6649    1179.4099   -571.56001   -1671.6039     81.48318 
   78100    630.71537   -113.84836   0.57068452   -113.27767    1160.6951    4.3350242    4.3350242    4.3350242    1160.6951    5436.1978    4101.5587   -6055.6711     680.9675    5745.9762    7837.1782    81.465661 
   78200    485.27621   -113.71854   0.43908811   -113.27946   -1566.3731    4.3417335    4.3417335    4.3417335   -1566.3731    8048.1162    9017.8556   -21765.091    280.68951   -2376.0453    8186.7871      81.8445 
   78300    664.57713   -113.87908   0.60132336   -113.27775   -5917.7242    4.3388043    4.3388043    4.3388043   -5917.7242    -9009.798     10600.94   -19344.315   -4105.5867   -866.85566   -3623.9201    81.678957 
   78400     649.9688   -113.86547   0.58810543   -113.27736    4457.2929    4.3315135    4.3315135    4.3315135    4457.2929   -2588.0706      25060.9   -9100.9505    2269.0985    8334.3396    2379.2775    81.267899 
   78500    537.47324   -113.76534   0.48631709   -113.27902   -5440.5278    4.3448251    4.3448251    4.3448251   -5440.5278    -2125.482    5279.1526   -19475.254   -2312.1272     2722.911     5598.784    82.019459 
   78600     625.0012   -113.84357   0.56551422   -113.27806   -4724.0619    4.3370997    4.3370997    4.3370997   -4724.0619   -3315.2499    6039.7031   -16896.639   -2143.6424   -5965.4266    -2748.536    81.582727 
   78700    572.50017    -113.7955   0.51801018   -113.27749    6899.5686    4.3340839    4.3340839    4.3340839    6899.5686    5760.1216    20720.888    -5782.304   -2405.5186    4773.6645   -2348.1771    81.412658 
   78800    551.76109   -113.77606   0.49924503   -113.27681   -11308.002    4.3475446    4.3475446    4.3475446   -11308.002    532.89771   -12381.728   -22075.176   -4275.1903    3425.6803    4228.1796    82.173566 
   78900    474.25649   -113.70594   0.42911724   -113.27683    7316.0907    4.3305304    4.3305304    4.3305304    7316.0907    20148.511    3271.3107   -1471.5495   -374.10489   -8571.1391   -458.57394    81.212576 
   79000    535.47683   -113.76252   0.48451069   -113.27801    485.67987    4.3396756    4.3396756    4.3396756    485.67987    -1212.108    9013.4762   -6344.3286   -580.14498   -429.98329   -3854.8704    81.728176 
   79100     454.9751   -113.68874   0.41167103   -113.27707     2170.473    4.3422009    4.3422009    4.3422009     2170.473    13427.119   -2150.0015    -4765.698    3093.7171    5055.0519    8624.6814    81.870933 
   79200    454.23654   -113.68719   0.41100277   -113.27619    4785.6926     4.333595     4.333595     4.333595    4785.6926    12366.983    7470.5778   -5480.4834    3223.3828   -6255.4232    5826.8101    81.385111 
   79300    375.39863   -113.61653   0.33966857   -113.27686    110.32142    4.3416995    4.3416995    4.3416995    110.32142   -5111.5107    8369.1277   -2926.6527    2877.7994   -4210.5188    -4748.832    81.842574 
   79400    475.70369   -113.70644    0.4304267   -113.27602    3424.0079    4.3364065    4.3364065    4.3364065    3424.0079   -663.17772    16946.277   -6011.0753    7124.1759    8049.3026    7679.1274    81.543613 
   79500    376.88543   -113.61871   0.34101386    -113.2777    4747.7191    4.3379483    4.3379483    4.3379483    4747.7191     12158.09    9822.5561   -7737.4889    1569.0092   -2508.9279    9398.4272    81.630622 
   79600    401.38399   -113.64166   0.36318067   -113.27848   -4371.5781    4.3360643    4.3360643    4.3360643   -4371.5781   -6250.4264   -1660.6824   -5203.6256    1694.7864   -6681.1561   -437.50423    81.524311 
   79700     352.9723   -113.59904   0.31937675   -113.27966   -4254.9051    4.3390234    4.3390234    4.3390234   -4254.9051   -11991.767    7942.5446   -8715.4926    1373.0479    10159.162    518.75544    81.691329 
   79800    542.07083   -113.76749   0.49047708   -113.27701   -7608.6745    4.3379105    4.3379105    4.3379105   -7608.6745   -6046.4474   -622.11995   -16157.456   -1265.6916    2022.3553    6061.1352    81.628491 
   79900    399.65316   -113.63955   0.36161458   -113.27793     337.1968    4.3343607    4.3343607    4.3343607     337.1968     9148.031   -7778.8747   -357.56593   -1156.5553   -5744.5945    144.50631    81.428258 
   80000    440.58692   -113.67666    0.3986523     -113.278   -15556.688    4.3421335    4.3421335    4.3421335   -15556.688    -21194.95   -10222.556   -15252.557   -5271.8413    10338.105   -2482.5906    81.867122 
   80100    500.37944   -113.73021   0.45275383   -113.27746   -1123.7152    4.3341865    4.3341865    4.3341865   -1123.7152    -167.7431    9443.0657   -12646.468   -2830.7991    9314.9278    5880.3364    81.418442 
   80200     645.0503   -113.86114   0.58365507   -113.27749   -3079.3381    4.3346831    4.3346831    4.3346831   -3079.3381    2473.9375   -1691.4955   -10020.456    1078.7763   -4981.1971    100.14832    81.446429 
   80300    333.05039   -113.58352   0.30135099   -113.28217    997.18398      4.33969      4.33969      4.33969    997.18398    7477.9941    6268.3374    -10754.78    1007.9602    3674.3433   -7362.0353    81.728989 
   80400    486.28497   -113.72071   0.44000086   -113.28071   -235.77153    4.3362266    4.3362266    4.3362266   -235.77153   -944.94002    17343.121   -17105.495     1413.143    15360.725    1914.0013    81.533467 
   80500    630.22732   -113.84746   0.57024292   -113.27722    8393.2482    4.3330587    4.3330587    4.3330587    8393.2482    15547.182    17764.459   -8131.8968    807.01849   -4079.9644    2477.0379    81.354901 
   80600    453.70209    -113.6913   0.41051918   -113.28079   -2760.5641    4.3411191    4.3411191    4.3411191   -2760.5641    -50.42021    13535.268    -21766.54     1264.302   -4159.2994   -2776.9706    81.809757 
   80700    380.58829   -113.62755   0.34436428   -113.28319    2909.6602    4.3323258    4.3323258    4.3323258    2909.6602    391.81751     17406.89   -9069.7268    547.15248    15139.984   -3282.0095    81.313625 
   80800    671.20896   -113.88815   0.60732397   -113.28082    4013.1866    4.3348137    4.3348137    4.3348137    4013.1866    2370.8318    15827.186   -6158.4574   -464.89473   -714.50965    881.02872    81.453794 
   80900    621.11728   -113.84208   0.56199997   -113.28008   -8556.7986    4.3429104    4.3429104    4.3429104   -8556.7986   -12259.936    8754.2347   -22164.694   -25.865819    -9766.516    -607.0195    81.911073 
   81000     412.8061   -113.65545   0.37351563   -113.28193   -2934.7532    4.3290901    4.3290901    4.3290901   -2934.7532   -5550.3683    10853.103   -14106.994   -5056.6686    12474.181   -4389.2743    81.131567 
   81100    544.59754   -113.77361    0.4927633   -113.28085   -4573.2403    4.3409498    4.3409498    4.3409498   -4573.2403   -2331.9791   -1474.9856   -9912.7563   -4630.6392    9127.5134   -613.81103    81.800184 
   81200    747.09836   -113.95258    0.6759903   -113.27659   -2614.5102    4.3375861    4.3375861    4.3375861   -2614.5102    246.41818    1059.7576   -9149.7063    1581.8758   -9132.7523    3190.6363    81.610176 
   81300    351.49806   -113.59857   0.31804283   -113.28053    2846.3822    4.3324071    4.3324071    4.3324071    2846.3822     13420.69    7965.8548   -12847.398    703.51485    8540.6313   -2970.3776    81.318203 
   81400    427.02443   -113.66813   0.38638068   -113.28175   -5569.9622    4.3406037    4.3406037    4.3406037   -5569.9622    1231.5214   -4021.5336   -13919.874    660.30937    16192.638   -2184.9785    81.780624 
   81500    714.51287   -113.92369   0.64650626   -113.27718    4774.4181    4.3357196    4.3357196    4.3357196    4774.4181    5684.5701    6477.8088    2160.8753    604.89072   -7003.3621    1053.9114    81.504868 
   81600    461.43385   -113.69833   0.41751504   -113.28081    4713.0289    4.3362975    4.3362975    4.3362975    4713.0289    8680.2994    15413.633   -9954.8457    4327.5987    2651.7973   -5508.6058    81.537463 
   81700    409.67361   -113.65322   0.37068129   -113.28254   -948.43263    4.3365303    4.3365303    4.3365303   -948.43263   -6668.0884    13612.881   -9790.0902    1661.8448    18089.534   -2687.3575    81.550596 
   81800     603.2095   -113.82421   0.54579663   -113.27842    2377.1238    4.3396138    4.3396138    4.3396138    2377.1238   -6767.6835    13980.677   -81.622455    1375.6316   -3243.3457   -1048.1651     81.72468 
   81900    594.61007   -113.81637   0.53801569   -113.27836    3904.3628    4.3343187    4.3343187    4.3343187    3904.3628    2841.2528    16670.092   -7798.2559   -2742.9329   -7708.3511   -2989.7881    81.425893 
   82000    306.62411   -113.55959   0.27743994   -113.28215    2230.7367    4.3386883    4.3386883    4.3386883    2230.7367    4881.7615    15783.149   -13972.701   -964.66854    15273.466    -1477.658    81.672408 
   82100    540.22121   -113.76791    0.4888035    -113.2791    3731.8711    4.3368764    4.3368764    4.3368764    3731.8711   -2239.8043    19871.177   -6435.7598   -1593.6294    6277.3948    -290.7497    81.570124 
   82200    641.28536   -113.85788   0.58024847   -113.27763    5647.0088    4.3336639    4.3336639    4.3336639    5647.0088    16001.766    2469.9888   -1530.7282   -4520.2893    -8807.435    3553.1655    81.388992 
   82300    350.47447   -113.59871   0.31711667   -113.28159   -9702.7856    4.3419169    4.3419169    4.3419169   -9702.7856   -11570.252    9220.8718   -26758.977    565.06493    12635.109   -787.48459    81.854872 
   82400    487.71562   -113.72073   0.44129534   -113.27943    3046.4206    4.3301999    4.3301999    4.3301999    3046.4206    4751.0132    12678.716   -8290.4675   -4040.5588    10954.585    1249.3771    81.193979 
   82500    715.43925   -113.92416   0.64734447   -113.27681   -9558.1719    4.3423096    4.3423096    4.3423096   -9558.1719   -1739.5701   -7823.9588   -19110.987    2977.7928   -6250.3192    6552.3216    81.877083 
   82600     377.9962   -113.62246   0.34201891   -113.28044   -8633.1922    4.3364961    4.3364961    4.3364961   -8633.1922   -15665.971    11481.464    -21715.07    1787.0151    11301.989    1172.3453     81.54867 
   82700    442.25118   -113.68087   0.40015816   -113.28071    -4585.729    4.3323771    4.3323771    4.3323771    -4585.729   -6873.3774    9679.2577   -16563.067   -1443.1224    15575.786   -979.01464    81.316514 
   82800    648.89802   -113.86342   0.58713656   -113.27629   -9002.4778    4.3442843    4.3442843    4.3442843   -9002.4778    4402.6422   -6199.2494   -25210.826    1486.8238   -4914.2255    3008.2127    81.988834 
   82900    413.06422   -113.65186   0.37374919   -113.27811    2541.7895     4.330249     4.330249     4.330249    2541.7895    2952.6619    23682.726    -19010.02   -3046.4512    4241.2745    1922.4933    81.196744 
   83000    285.78827    -113.5403   0.25858723   -113.28171   -7358.8385    4.3414558    4.3414558    4.3414558   -7358.8385   -7953.8795    9980.6776   -24103.314    460.11615    17362.287   -1938.5666    81.828796 
   83100    619.55588   -113.83714   0.56058718   -113.27655    4552.7501    4.3352333    4.3352333    4.3352333    4552.7501     15337.89    4527.7037   -6207.3437   -5132.3707   -2368.7597    762.61214     81.47745 
   83200    455.08751   -113.69041   0.41177275   -113.27864    5946.2281    4.3342746    4.3342746    4.3342746    5946.2281    7372.8099    22378.803   -11912.928    -4507.498    77.563827    1081.7858    81.423408 
   83300    258.25302   -113.51631   0.23367276   -113.28263   -2358.6615    4.3404232    4.3404232    4.3404232   -2358.6615   -1822.0777    23963.472   -29217.379   -297.26616    16649.217   -2812.0787    81.770422 
   83400    556.62809   -113.78136   0.50364879   -113.27771    9581.1706     4.334665     4.334665     4.334665    9581.1706    17831.212     14627.31   -3715.0098   -3083.6828   -1779.2533   -1458.9615    81.445412 
   83500    574.58053   -113.79681   0.51989253   -113.27691    3846.3791    4.3377215    4.3377215    4.3377215    3846.3791    6005.7102    10503.966   -4970.5392    3598.1338   -56.080653    21.804575    81.617819 
   83600    302.80311   -113.55535   0.27398261   -113.28137   -2737.2071    4.3369796    4.3369796    4.3369796   -2737.2071   -270.57983    19260.253   -27201.295   -1138.3477     17338.46    680.96478     81.57595 
   83700    528.11374   -113.75675   0.47784841    -113.2789     1856.511    4.3375557    4.3375557    4.3375557     1856.511     9798.111    9653.7859   -13882.364    3528.7582    3127.4838    -2492.179    81.608462 
   83800    724.72867   -113.93074   0.65574973   -113.27499    206.98252    4.3378026    4.3378026    4.3378026    206.98252    7607.9882   -2006.8465   -4980.1941    3470.5081   -792.74791    1949.1392    81.622396 
   83900    394.75504   -113.63632   0.35718266   -113.27913   -8236.8843    4.3382458    4.3382458    4.3382458   -8236.8843   -786.82039    577.75273   -24501.585    879.02154    18579.585    3403.6609    81.647421 
   84000    504.42083   -113.73546   0.45641056   -113.27905    -3991.028    4.3363979    4.3363979    4.3363979    -3991.028   -7425.6754    13230.006   -17777.415    3556.6038    8995.1052    731.54197     81.54313 
   84100    747.93595   -113.95266   0.67674816   -113.27591     666.9621    4.3377554    4.3377554    4.3377554     666.9621    15493.538    -6326.267   -7166.3852   -4201.9251   -6429.2544    2279.6018    81.619733 
   84200    448.45206   -113.68592   0.40576885   -113.28015   -5239.8547    4.3388131    4.3388131    4.3388131   -5239.8547    4916.6917    3960.2106   -24596.467    538.37925    18010.046    2992.0389    81.679452 
   84300    415.46498   -113.65631   0.37592144   -113.28039   -6276.2372    4.3374708    4.3374708    4.3374708   -6276.2372   -12268.803    15303.938   -21863.847   -3824.9547    11243.199    3983.7408    81.603673 
   84400     667.6233   -113.87949    0.6040796   -113.27541   -741.08575    4.3387042    4.3387042    4.3387042   -741.08575   -3001.2435    13756.095   -12978.109    -2915.699   -11368.063      -1267.9    81.673304 
   84500    439.00377   -113.67531   0.39721983   -113.27809    1839.0372    4.3377977    4.3377977    4.3377977    1839.0372    3724.1367    20409.407   -18616.432   -146.83914    15318.777    388.44419    81.622123 
   84600    396.07626   -113.63858   0.35837812    -113.2802   -2467.6225    4.3358713    4.3358713    4.3358713   -2467.6225   -18515.679    34415.654   -23302.842   -948.88486    9843.6385    302.73666    81.513429 
   84700    549.20606   -113.77396   0.49693318   -113.27702   -629.95909     4.340445     4.340445     4.340445   -629.95909   -7955.5546    23894.856   -17829.178    1118.3913   -11787.532   -1897.1656    81.771651 
   84800    518.76101   -113.74735   0.46938586   -113.27796   -2806.7453     4.337172     4.337172     4.337172   -2806.7453   -6363.0809    19312.301   -21369.456   -1239.9523    10463.712   -3808.1626    81.586809 
   84900    305.53485   -113.55711   0.27645435   -113.28066    6048.8465    4.3355027    4.3355027    4.3355027    6048.8465    6324.6607    29104.672   -17282.793    3849.0781    14657.821   -809.23977    81.492638 
   85000    644.47727   -113.85922   0.58313658   -113.27608      -5632.5    4.3420089    4.3420089    4.3420089      -5632.5    1296.2093    972.55873   -19166.268    4316.3798   -6867.1014   -364.35192    81.860072 
   85100    446.22225   -113.68148   0.40375127   -113.27773    2041.8063    4.3356222    4.3356222    4.3356222    2041.8063    14943.932    6897.4766    -15715.99    2116.1463    4311.5467   -7115.2989    81.499377 
   85200    455.37681   -113.69125    0.4120345   -113.27921   -5404.2962     4.334763     4.334763     4.334763   -5404.2962   -4538.9302    7580.9936   -19254.952    -1044.742    21033.855   -1765.5873    81.450934 
   85300    536.56335   -113.76334   0.48549379   -113.27785   -1907.1146    4.3427787    4.3427787    4.3427787   -1907.1146    15242.672   -3392.9232   -17571.093   -2616.4149   -4200.1432    390.56488    81.903618 
   85400    620.53293   -113.83863   0.56147124   -113.27716    2556.6691    4.3317196    4.3317196    4.3317196    2556.6691     6024.072    923.38821    722.54694    163.21861   -5291.0495   -4188.1369    81.279497 
   85500    395.75704   -113.63891   0.35808928   -113.28082   -6102.3332    4.3393468    4.3393468    4.3393468   -6102.3332    2038.4111     371.7038   -20717.115   -2026.4726    20249.233   -4103.2489    81.709598 
   85600    537.03427   -113.76462    0.4859199    -113.2787   -4633.1654    4.3404237    4.3404237    4.3404237   -4633.1654    4744.4478    3082.3578   -21726.302   -1078.6328    -787.3855    3020.0621    81.770447 
   85700    660.64177   -113.87325   0.59776255   -113.27548     8477.515    4.3289867    4.3289867    4.3289867     8477.515    16488.146    5922.2191    3022.1798   -2205.8522   -9426.6546    1866.1776    81.125753 
   85800    398.55195   -113.64111   0.36061818   -113.28049   -2286.3403    4.3413698    4.3413698    4.3413698   -2286.3403    5767.8263     6196.745   -18823.592   -1850.8737    12734.112   -4529.8856    81.823933 
   85900    483.14777   -113.71666   0.43716226    -113.2795   -820.21318    4.3383727    4.3383727    4.3383727   -820.21318    10172.847    4588.7815   -17222.268    3651.0516    10426.127    4260.3351    81.654584 
   86000    714.41985   -113.92253   0.64642209   -113.27611    4229.4978    4.3311898    4.3311898    4.3311898    4229.4978     7619.508    7124.7198   -2055.7344    1924.1054   -9192.5016    3124.2354     81.24968 
   86100    473.50325   -113.70882   0.42843569   -113.28038    631.81476    4.3389119    4.3389119    4.3389119    631.81476    4111.5567    11662.177    -13878.29    1716.0702    4719.3862   -4541.6155    81.685032 
   86200     455.5735   -113.69324   0.41221247   -113.28103   -7171.8684    4.3400962    4.3400962    4.3400962   -7171.8684   -8625.2611   -3685.1455   -9205.1986   -1320.4962    18275.287    1086.8933     81.75194 
   86300    670.05042    -113.8836    0.6062757   -113.27732     9944.239    4.3283775    4.3283775    4.3283775     9944.239     9202.252    13322.706    7307.7589    682.21993   -8653.4949    1125.1455    81.091508 
   86400    622.39569   -113.84302    0.5631567   -113.27986   -1460.1022    4.3402086    4.3402086    4.3402086   -1460.1022   -9366.5617    5160.4823   -174.22727    2480.7129   -166.08493   -5745.7365    81.758293 
   86500    356.27489   -113.60508   0.32236501   -113.28272   -6875.4853    4.3401217    4.3401217    4.3401217   -6875.4853   -17792.041   -4315.9973     1481.582   -2311.6606    19354.444   -7463.6731    81.753381 
   86600    540.58129   -113.76851   0.48912931   -113.27938    12214.217    4.3274274    4.3274274    4.3274274    12214.217    11344.086    12387.465    12911.102   -2222.1725   -3407.9317    287.34058    81.038121 
   86700    681.08064   -113.89367   0.61625607   -113.27741    -3404.981    4.3445083    4.3445083    4.3445083    -3404.981   -1903.8373   -9168.7676    857.66188   -1814.8384   -4626.6616    2462.8052     82.00152 
   86800    302.08582   -113.55563   0.27333359    -113.2823   -4011.3432    4.3361626    4.3361626    4.3361626   -4011.3432   -9160.9536   -2604.8956   -268.18043   -2935.6817    15993.073   -7131.8167    81.529859 
   86900    410.99912   -113.65456   0.37188064   -113.28268   -594.04366    4.3288949    4.3288949    4.3288949   -594.04366   -869.34523    7251.9999   -8164.7857   -1846.2261    12743.562   -1974.4495    81.120597 
   87000    699.07482   -113.90989   0.63253759   -113.27735    -6940.961    4.3457624    4.3457624    4.3457624    -6940.961    2438.4659   -14012.812   -9248.5368   -2323.2843   -4462.6582    2353.0918    82.072551 
   87100    423.35609   -113.66446   0.38306149    -113.2814   -7912.4052    4.3358631    4.3358631    4.3358631   -7912.4052   -13929.321   -927.08471   -8880.8094    872.12676    11371.465   -5956.3127    81.512965 
   87200    235.47831   -113.49589   0.21306572   -113.28283   -854.72655    4.3284841    4.3284841    4.3284841   -854.72655   -7417.7791    5341.7714   -488.17193   -3714.9999    19749.446   -910.30013      81.0975 
   87300     672.3198   -113.88606   0.60832909   -113.27773    -11659.27    4.3460914    4.3460914    4.3460914    -11659.27   -13686.615   -10837.313   -10453.884   -1459.2055   -4287.5223    5756.3485    82.091195 
   87400    474.14265   -113.70959   0.42901423   -113.28058   -492.41714    4.3345983    4.3345983    4.3345983   -492.41714   -1162.9691   -1110.5184    796.23611    3950.6493    6850.8564   -678.53662    81.441654 
   87500    175.56223     -113.443    0.1588524   -113.28414    3848.8655    4.3291319    4.3291319    4.3291319    3848.8655   -5585.6334    4114.7127    13017.517   -2323.8375    18004.524   -5844.6901    81.133921 
   87600    548.30607   -113.77565   0.49611885   -113.27953   -10037.674    4.3474647    4.3474647    4.3474647   -10037.674    -10100.26   -13483.214   -6529.5471    94.284713   -3199.2703    2679.1434    82.169034 
   87700    602.14431    -113.8219   0.54483283   -113.27706    2531.7239    4.3325906    4.3325906    4.3325906    2531.7239    2713.5109    3295.0827     1586.578    4051.3303    -568.0692    95.445931    81.328537 
   87800    277.11114   -113.53345   0.25073598   -113.28272   -1327.6264    4.3324253    4.3324253    4.3324253   -1327.6264    5155.8736    5477.1992   -14615.952    1509.6819    15739.481   -4288.3878    81.319228 
   87900     415.3411   -113.65652   0.37580935   -113.28071   -1312.1989    4.3453903    4.3453903    4.3453903   -1312.1989   -6444.2764   -8716.6873    11224.367    1648.5047    8641.5031   -4256.0133    82.051472 
   88000    688.28272   -113.89892   0.62277267   -113.27614    5625.0025    4.3309192    4.3309192    4.3309192    5625.0025    8781.2967    1892.0669    6201.6438   -424.82628   -6265.2916   -1591.8738     81.23445 
   88100    302.99292   -113.55658   0.27415436   -113.28242    1915.6057    4.3329799    4.3329799    4.3329799    1915.6057   -4273.1805    1921.4223    8098.5755    3804.6101    9182.9166   -1346.7914    81.350465 
   88200    323.58712   -113.57408   0.29278843   -113.28129   -4924.5794    4.3460323    4.3460323    4.3460323   -4924.5794   -5047.2773   -7690.3999   -2036.0611   -247.63449    17013.695   -8834.1117    82.087846 
   88300    647.06657   -113.86146   0.58547943   -113.27598      11375.3    4.3286333    4.3286333    4.3286333      11375.3    9471.3845    4388.9985    20265.518   -3236.5224   -7144.8741    2187.6801    81.105888 
   88400     472.3964   -113.70773   0.42743419    -113.2803   -2022.6435    4.3352857    4.3352857    4.3352857   -2022.6435   -3698.4699   -1476.0627   -893.39794     6395.384    1712.8697    -687.8641    81.480404 
   88500    331.93019   -113.58223   0.30033741    -113.2819   -11829.845    4.3444249    4.3444249    4.3444249   -11829.845   -10062.381    556.86387   -25984.019   -2250.5262    15622.364   -6355.7286    81.996795 
   88600    644.10337   -113.85972   0.58279826   -113.27692     5414.636    4.3292853    4.3292853    4.3292853     5414.636    8205.3248    8983.3027   -944.71939   -654.23781   -2618.2878   -766.98237    81.142544 
   88700    600.04773   -113.82053    0.5429358   -113.27759   -1611.5583    4.3373325    4.3373325    4.3373325   -1611.5583   -3733.1608   -3521.1901    2419.6762    4140.9245   -1951.4267     412.8101    81.595867 
   88800    348.87311   -113.59764   0.31566772   -113.28197   -5093.3559    4.3402689    4.3402689    4.3402689   -5093.3559   -3101.2395     5066.861   -17245.689   -482.42526    12243.527    1729.4444    81.761697 
   88900    547.01236   -113.77463   0.49494828   -113.27968    1527.4509    4.3336879    4.3336879    4.3336879    1527.4509      1724.75    2006.4339    851.16865    2238.7506    4763.2586   -8748.8265    81.390347 
   89000    599.03406   -113.82006    0.5420186   -113.27804    5359.3432    4.3356786    4.3356786    4.3356786    5359.3432     1500.031   -894.44075    15472.439   -2088.4041   -7385.9296  -0.82085272    81.502558 
   89100     443.1953   -113.68138   0.40101242   -113.28036   -5247.2399    4.3399165    4.3399165    4.3399165   -5247.2399   -14085.974     2435.496   -4091.2412    361.64635    10644.109   -308.99571    81.741785 
   89200    433.79733   -113.67261   0.39250894    -113.2801   -63.380772    4.3352044    4.3352044    4.3352044   -63.380772    1314.0155   -4466.0156    2961.8578   -1289.2605    13181.791   -13375.825    81.475822 
   89300     637.6998   -113.85501   0.57700418   -113.27801    3723.2121    4.3329271    4.3329271    4.3329271    3723.2121    3609.8338    5579.9841    1979.8185   -1255.1522   -8200.3797   -4178.6102    81.347491 
   89400    537.62977   -113.76632   0.48645871   -113.27986   -3060.6375    4.3396373    4.3396373    4.3396373   -3060.6375   -15621.766    14683.474     -8243.62    5244.2268   -355.25139    374.51717    81.726013 
   89500    409.91831   -113.65151    0.3709027   -113.28061   -4909.9537    4.3392663    4.3392663    4.3392663   -4909.9537   -8608.0529    3837.7575   -9959.5656   -2409.9941     11932.55   -7777.3033    81.705051 
   89600    636.78599   -113.85307   0.57617735   -113.27689    2220.2609    4.3318133    4.3318133    4.3318133    2220.2609    8332.3931    3072.9502   -4744.5607     2966.871   -2670.9446   -10628.969    81.284772 
   89700    536.39643     -113.763   0.48534276   -113.27766    361.95965    4.3402437    4.3402437    4.3402437    361.95965   -13219.367    24758.271   -10453.025    2546.4705   -3616.2184    2313.1793    81.760274 
   89800    464.52329   -113.70023   0.42031044   -113.27992    -3121.219    4.3354978    4.3354978    4.3354978    -3121.219   -7662.1165    8253.9288   -9955.4694    1238.3443     11413.04    3651.6595    81.492361 
   89900    524.79518   -113.75414   0.47484571   -113.27929    99.028665    4.3356076    4.3356076    4.3356076    99.028665    64.653504    9640.8004   -9408.3679    1449.0952    887.43648   -10376.763    81.498553 
   90000    614.68078    -113.8335   0.55617609   -113.27733    -2749.105    4.3406175    4.3406175    4.3406175    -2749.105   -5051.6955    2840.0731   -6035.6926   -1519.1619   -8967.4529    379.45615      81.7814 
   90100    449.62196   -113.68589    0.4068274   -113.27906    5154.9363    4.3321486    4.3321486    4.3321486    5154.9363   -2334.4352    20022.188   -2222.9442    938.23311    9788.1437    568.12721    81.303647 
   90200     541.4319   -113.76883   0.48989896   -113.27893    -5194.828    4.3371911    4.3371911    4.3371911    -5194.828   -3791.2965    2486.3569   -14279.544   -4193.0005    8808.6112   -8434.3229    81.587887 
   90300      551.533   -113.77647   0.49903865   -113.27743    456.19128    4.3409607    4.3409607    4.3409607    456.19128    1457.7154    10446.671   -10535.813   -1362.0758   -8922.8536   -4038.1995      81.8008 
   90400    504.03592   -113.73384   0.45606229   -113.27778    43.409374     4.334667     4.334667     4.334667    43.409374   -6796.0879    14249.427   -7323.1111   -1683.8231    5423.1664   -1057.5804    81.445526 
   90500    414.15066   -113.65409   0.37473222   -113.27935    4343.5175    4.3333443    4.3333443    4.3333443    4343.5175   -2347.5042    29380.424   -14002.367    120.96181    12773.869   -7104.8033    81.370989 
   90600    587.49747   -113.80965   0.53158006   -113.27807   -4863.1563    4.3432457    4.3432457    4.3432457   -4863.1563   -612.92249    5153.4545   -19130.001    4014.9921   -5491.0731   -12953.063    81.930046 
   90700    455.86275   -113.69117    0.4124742   -113.27869    4610.1697    4.3344552    4.3344552    4.3344552    4610.1697   -3964.1216    32322.951    -14528.32   -1056.7205    4594.9949    1436.3446    81.433587 
   90800    435.83863   -113.67415   0.39435595   -113.27979    682.07303     4.334865     4.334865     4.334865    682.07303   -6886.1889    24156.619   -15224.211    3937.5201    14721.046    -2051.113    81.456683 
   90900    593.07347   -113.81414   0.53662534   -113.27752   -4378.9416    4.3412675    4.3412675    4.3412675   -4378.9416    2934.2078   -5296.6081   -10774.425   -2626.0828    -710.9968   -7297.6051    81.818149 
   91000    541.95034    -113.7686   0.49036805   -113.27823    310.69233    4.3339305    4.3339305    4.3339305    310.69233    4038.1302    13094.759   -16200.812    2365.6939    1681.5736    1814.8156    81.404018 
   91100    423.50433   -113.66378   0.38319562   -113.28058   -7557.8064    4.3393664    4.3393664    4.3393664   -7557.8064   -7342.3603    10825.586   -26156.645    3039.0581    13184.046    1846.1646    81.710708 
   91200    587.90113   -113.81072   0.53194529   -113.27877    1466.8397     4.337447     4.337447     4.337447    1466.8397    10263.166   -7137.0559    1274.4088   -2095.6437    2359.5363   -3376.6814    81.602326 
   91300    671.41074   -113.88508   0.60750655   -113.27757   -1923.7788    4.3363012    4.3363012    4.3363012   -1923.7788    8327.3087   -940.38171   -13158.263    1819.3185   -3956.0371   -3249.1646    81.537676 
   91400     294.6953   -113.54909    0.2666465   -113.28244    3971.4344     4.337658     4.337658     4.337658    3971.4344   -2088.9688    30125.569   -16122.297   -4666.4047     8307.876     5389.456    81.614239 
   91500    553.94756    -113.7807    0.5012234   -113.27948    -1333.911    4.3391128    4.3391128    4.3391128    -1333.911   -2247.3493    6863.8064   -8618.1901    2000.6663    4144.0166   -2425.5265    81.696384 
   91600    639.48406   -113.85514   0.57861862   -113.27652     6341.538    4.3352419    4.3352419    4.3352419     6341.538    7971.6001    15465.797   -4412.7835   -3350.9522   -4092.1786   -4829.6762    81.477936 
   91700    372.46693   -113.62055   0.33701591   -113.28354   -2523.4231    4.3367566    4.3367566    4.3367566   -2523.4231   -11751.715    14252.326   -10070.881    636.09382    6894.1165   -556.77416    81.563364 
   91800    333.77903   -113.58705   0.30201028   -113.28504    1674.0356    4.3373393    4.3373393    4.3373393    1674.0356   -1416.8156    20434.943   -13996.021     3162.392    7505.3956    1834.5113    81.596247 
   91900    725.59619   -113.93473   0.65653468    -113.2782    2296.8147    4.3361651    4.3361651    4.3361651    2296.8147    10878.724   -953.77108   -3034.5088   -3840.1612   -1778.3646   -261.64038    81.529996 
   92000    473.86246   -113.71043   0.42876071   -113.28166   -4957.1177    4.3369107    4.3369107    4.3369107   -4957.1177     -5743.99   -2740.7869   -6386.5761    4038.3892    6816.8933   -2531.5299     81.57206 
   92100    236.78906   -113.49855   0.21425172    -113.2843   -586.12264    4.3351493    4.3351493    4.3351493   -586.12264    9143.2893    7767.8486   -18669.506   -4112.6046    10166.048    5451.3821    81.472715 
   92200    653.60146   -113.87046   0.59139234   -113.27906    334.72407     4.338516     4.338516     4.338516    334.72407    8703.7894    821.07064   -8520.6878    3326.1412   -2262.4735    72.123528    81.662678 
   92300    606.45992   -113.82724   0.54873768    -113.2785    1565.7745    4.3331539    4.3331539    4.3331539    1565.7745    4344.6305   -3855.1387    4207.8319    374.95311    3017.8572   -2043.9988    81.360262 
   92400    247.66786   -113.50825   0.22409509   -113.28415    -10297.39    4.3385807    4.3385807    4.3385807    -10297.39    1161.5734   -5781.9724   -26271.771   -4473.3034    11026.165    6357.2511    81.666331 
   92500    424.99404   -113.66703   0.38454354   -113.28249    2611.3664     4.336087     4.336087     4.336087    2611.3664    3945.3365    18839.941   -14951.178    5569.4955   -396.57653    4819.7025     81.52559 
   92600    686.50785   -113.90064   0.62116673   -113.27947    5108.1523    4.3306569    4.3306569    4.3306569    5108.1523    7749.0314    7597.1285   -21.702963   -9821.4905   -1374.1336    650.44671    81.219689 
   92700    287.09379   -113.54484   0.25976849   -113.28507   -4973.4602    4.3397845    4.3397845    4.3397845   -4973.4602    -4815.174    8351.9867   -18457.193    1293.9226    9500.8682   -2597.9097    81.734329 
   92800    343.84143    -113.5936   0.31111495   -113.28249   -6885.6086    4.3369461    4.3369461    4.3369461   -6885.6086   -7438.5272     13113.47   -26331.769    103.92898    2917.9314    7507.1355    81.574062 
   92900    567.24743   -113.79077    0.5132574   -113.27752    5222.5525    4.3312889    4.3312889    4.3312889    5222.5525     12511.71    10117.141    -6961.194   -4050.5824    -5227.215     483.3825    81.255257 
   93000    458.56452   -113.69409   0.41491881   -113.27917   -8401.1973    4.3399277    4.3399277    4.3399277   -8401.1973   -9685.2173    7055.4879   -22573.862    3225.8701    9732.4996   -7490.6224    81.742418 
   93100     272.0227   -113.52765   0.24613186   -113.28152    -6340.035    4.3355957    4.3355957    4.3355957    -6340.035   -9900.7968    8016.8751   -17136.183   -2293.2211    3828.1093    6086.9893    81.497883 
   93200    549.48405   -113.77671   0.49718471   -113.27952   -5772.8823    4.3322623    4.3322623    4.3322623   -5772.8823    5187.0528   -8003.9686   -14501.731    5918.9239    -7536.453     330.8744    81.310051 
   93300    426.30205   -113.66534   0.38572705   -113.27961     -556.837    4.3391993    4.3391993    4.3391993     -556.837    5244.1447    11494.228   -18408.883   -5342.9708    7144.4256   -7350.7493    81.701265 
   93400    440.10452   -113.67888   0.39821582   -113.28066   -7560.3847    4.3339882    4.3339882    4.3339882   -7560.3847   -10920.723    9039.6957   -20800.127   -3991.5956    5679.9503   -494.57148    81.407265 
   93500    409.79492   -113.65203   0.37079106   -113.28124    1913.7387    4.3341144    4.3341144    4.3341144    1913.7387    1825.8498    8890.6365   -4975.2702    4699.5381   -4202.5209    4444.4647    81.414377 
   93600    530.64678   -113.75988   0.48014035   -113.27974   -2758.2932    4.3401883    4.3401883    4.3401883   -2758.2932    8520.4794    2069.4402   -18864.799   -8077.6966   -15.925429   -3377.9243    81.757147 
   93700    410.63533    -113.6524   0.37155148   -113.28084    6725.5378    4.3323108    4.3323108    4.3323108    6725.5378    2384.5701    26172.184   -8380.1413    1096.2127    5818.3388   -3681.9101    81.312781 
   93800    564.51056   -113.79018   0.51078101    -113.2794    2227.0977    4.3336616    4.3336616    4.3336616    2227.0977    5816.3058    11653.941   -10788.953    -1182.864    1465.3527    7519.1921    81.388862 
   93900      506.642   -113.73745   0.45842033   -113.27903    284.64481    4.3423253    4.3423253    4.3423253    284.64481    8603.6331    7034.1234   -14783.822   -973.33512   -4119.5683   -6041.3366    81.877969 
   94000    533.45419   -113.76189   0.48268056   -113.27921    4855.3405    4.3302534    4.3302534    4.3302534    4855.3405    9048.3408     7720.317   -2202.6364    1158.6995     4859.471   -11086.665    81.196992 
   94100    588.19415   -113.81117   0.53221043   -113.27896    6707.1921    4.3335659    4.3335659    4.3335659    6707.1921    10512.512    16021.554   -6412.4895   -1284.2969   -125.07132    4354.7838     81.38347 
   94200    622.12622   -113.84225   0.56291288   -113.27934    -4776.434    4.3431695    4.3431695    4.3431695    -4776.434   -977.98677    5482.8913   -18834.206    4588.9731   -5266.1806   -265.46275    81.925733 
   94300    528.88282   -113.75855   0.47854429   -113.28001    7501.6072    4.3277081    4.3277081    4.3277081    7501.6072    9260.2938    8538.8694    4705.6586   -11313.534    5500.8357   -12537.351    81.053893 
   94400    571.23706   -113.79695    0.5168673   -113.28008    1331.1535    4.3392404    4.3392404    4.3392404    1331.1535   -228.20283     14338.28   -10116.616   -755.95415     638.1662   -5054.4611    81.703586 
   94500    681.98973   -113.89534   0.61707864   -113.27826   -2624.4621    4.3399741    4.3399741    4.3399741   -2624.4621   -7215.5871     13049.01   -13706.809    5662.1642   -5183.4112    1078.8883    81.745041 
   94600    475.49342   -113.71062   0.43023644   -113.28038    6512.1025    4.3298815    4.3298815    4.3298815    6512.1025    12449.676    8730.7057   -1644.0738   -10604.692   -1696.9046   -9150.3517    81.176069 
   94700    584.68975   -113.80932   0.52903957   -113.28028   -6034.7025    4.3404366    4.3404366    4.3404366   -6034.7025   -3756.4946    1675.9719   -16023.585   -4343.3561    2154.2602   -4445.5931    81.771179 
   94800    638.44664   -113.85594   0.57767994   -113.27826   -66.631804    4.3380012    4.3380012    4.3380012   -66.631804   -3520.0948    9879.3702   -6559.1707    901.62443   -412.51235    3142.2219    81.633611 
   94900    591.81734   -113.81402   0.53548877   -113.27853   -1887.6169    4.3327347    4.3327347    4.3327347   -1887.6169    5521.8096   -3584.9541   -7599.7063    2451.2527    -4059.377   -7844.0355    81.336652 
   95000    428.96024   -113.66956   0.38813224   -113.28143    1999.1529    4.3398516    4.3398516    4.3398516    1999.1529    4821.7022    12773.859   -11598.103   -2825.3047    1867.1728   -9616.2852    81.738121 
   95100    626.68003   -113.84527   0.56703326   -113.27823   -4653.3385    4.3382717    4.3382717    4.3382717   -4653.3385   -12605.858    9557.4661   -10911.624    1989.2663   -1116.6538    5954.9013    81.648884 
   95200     467.2755   -113.70088    0.4228007   -113.27808    4989.6181    4.3299334    4.3299334    4.3299334    4989.6181    3543.9077    14993.614   -3568.6672    9261.0168    -4539.947   -2755.3024    81.178993 
   95300    445.41042   -113.68445   0.40301671   -113.28144   -10641.626    4.3433868    4.3433868    4.3433868   -10641.626   -4798.0174   -1180.8387    -25946.02   -7395.6114    3289.3918   -16747.342    81.938028 
   95400    447.74495   -113.68372   0.40512904   -113.27859    2617.1267    4.3349903    4.3349903    4.3349903    2617.1267   -397.45067    8359.9502    -111.1195    2332.5044    3359.1626    1125.0752    81.463751 
   95500    535.34828   -113.76094   0.48439437   -113.27654   -4764.6997    4.3334393    4.3334393    4.3334393   -4764.6997   -4841.0025   -4565.1615    -4887.935    14005.414   -3150.0776   -1628.3433    81.376341 
   95600    439.01609   -113.67543   0.39723098    -113.2782     -17089.2    4.3426516    4.3426516    4.3426516     -17089.2   -5137.5105   -21004.231    -25125.86   -6215.3327     1050.218   -13627.636    81.896432 
   95700    436.29016   -113.67339   0.39476451   -113.27862   -3120.0748    4.3321197    4.3321197    4.3321197   -3120.0748   -2411.2891   -3492.6242    -3456.311   -2545.8715    5117.6062   -2277.2592    81.302021 
   95800     415.4248   -113.65586   0.37588509   -113.27998   -1004.8093    4.3377253    4.3377253    4.3377253   -1004.8093   -3489.4282   -2072.9102    2547.9103    9765.8562   -1624.8219    376.55161    81.618035 
   95900    476.06391   -113.71032   0.43075263   -113.27957   -4861.7444    4.3360096    4.3360096    4.3360096   -4861.7444    -4408.847   -3715.5619   -6460.8242   -251.07203   -1427.1439   -5002.2944    81.521229 
   96000    363.15535   -113.60858    0.3285906   -113.27999   -2677.9992    4.3365787    4.3365787    4.3365787   -2677.9992    3375.9762   -9042.0516   -2367.9221    -5507.273    2019.2599   -6653.3413     81.55333 
   96100    360.82687   -113.60582   0.32648373   -113.27934     3883.228    4.3370841    4.3370841    4.3370841     3883.228   -7136.2996    17142.436    1643.5478    4309.1158    -1597.449     5590.597    81.581848 
   96200    478.24921   -113.71146   0.43272993   -113.27873    10166.914    4.3315021    4.3315021    4.3315021    10166.914    9484.1135    9390.3694     11626.26     8141.373   -3833.0166    2330.3415    81.267254 
   96300    430.20529   -113.66891   0.38925879   -113.27965    169.99117    4.3412401    4.3412401    4.3412401    169.99117    7889.2051    -6025.113   -1354.1187   -3924.9193    709.65664   -10307.027    81.816596 
   96400    422.39558   -113.66149    0.3821924    -113.2793     1842.682    4.3351238    4.3351238    4.3351238     1842.682   -2057.0527    4962.2889    2622.8098   -257.15571    1570.2429     1634.429    81.471277 
   96500    486.64243   -113.71892   0.44032429    -113.2786    8318.5199    4.3345745    4.3345745    4.3345745    8318.5199     2938.719    12841.487    9175.3535    10325.658   -4862.2627   -136.64169    81.440308 
   96600     582.1088    -113.8037   0.52670428     -113.277    3516.1857     4.338753     4.338753     4.338753    3516.1857    13665.867   -3064.4253   -52.884777   -1936.2622   -1133.2929   -9508.4263    81.676058 
   96700    494.42598   -113.72729   0.44736701   -113.27992    757.56388     4.333362     4.333362     4.333362    757.56388   -7532.1016    8429.9693     1374.824   -7551.5651    6535.1146    -5220.151    81.371983 
   96800    472.24564   -113.70958   0.42729778   -113.28228   -2044.2546    4.3367756    4.3367756    4.3367756   -2044.2546   -6330.9302   -1173.9298    1372.0962    7111.2137   -853.00006   -699.36184    81.564437 
   96900    658.18735   -113.87421   0.59554175   -113.27866   -563.93921    4.3383121    4.3383121    4.3383121   -563.93921   -3109.6057    8941.3074   -7523.5193     3505.721   -818.60912    222.51467    81.651161 
   97000    598.89439    -113.8199   0.54189223   -113.27801   -4282.8904    4.3377731    4.3377731    4.3377731   -4282.8904   -6752.4126     4406.315   -10502.573   -7650.1847    4105.2434   -9207.5547    81.620734 
   97100    483.36584   -113.71688   0.43735957   -113.27952   -3542.7411    4.3344502    4.3344502    4.3344502   -3542.7411   -11511.135    487.45454    395.45675    1948.2502    1149.3691    101.80728    81.433306 
   97200    666.56799   -113.88186   0.60312473   -113.27874   -7277.5778    4.3398671    4.3398671    4.3398671   -7277.5778   -7513.2397   -4150.9188   -10168.575     8893.822   -816.29942    7972.9096    81.738997 
   97300    683.84817   -113.89734    0.6187602   -113.27858   -4304.5177    4.3353765    4.3353765    4.3353765   -4304.5177   -4639.6402    1336.7219   -9610.6348   -2197.4476    4215.8338    -4332.952    81.485524 
   97400    505.60505    -113.7383   0.45748207   -113.28082   -1614.8029    4.3326861    4.3326861    4.3326861   -1614.8029   -8731.0179    1905.6363    1980.9728   -4508.2608    3931.4872    304.91705    81.333915 
   97500    556.01093   -113.78256   0.50309037   -113.27947   -10505.234    4.3448556    4.3448556    4.3448556   -10505.234   -20377.362    -72.91907   -11065.421     11470.21   -3172.8098    1622.8563    82.021187 
   97600    603.25852   -113.82308   0.54584099   -113.27724    6705.9047    4.3304058    4.3304058    4.3304058    6705.9047    8433.7289    9694.4491    1989.5362   -3426.2293    -332.4363    267.37933    81.205563 
   97700    517.56176   -113.74746   0.46830076   -113.27916    344.26799    4.3342774    4.3342774    4.3342774    344.26799   -13662.277    12244.234    2450.8469   -8028.7454    6450.9385   -1681.6379    81.423565 
   97800    352.04448    -113.5986   0.31853724   -113.28007   -4464.3254    4.3450637    4.3450637    4.3450637   -4464.3254   -24502.578    14790.157   -3680.5552    11642.558   -1246.0061   -2582.7279    82.032971 
   97900     547.4335   -113.77149   0.49532934   -113.27616    7227.8427    4.3279664    4.3279664    4.3279664    7227.8427   -523.65383    10843.724    11363.458    2407.2811   -2481.4814    7700.6921    81.068409 
   98000     400.0577   -113.64045   0.36198061   -113.27847    3284.9588    4.3378127    4.3378127    4.3378127    3284.9588   -3268.0847    6930.2662    6192.6949   -6946.1924    6130.6451   -2245.1029    81.622969 
   98100    432.27683   -113.67141   0.39113316   -113.28028    -10090.95    4.3397509    4.3397509    4.3397509    -10090.95   -21958.771   -13624.715    5310.6354    6072.8361    1477.1163   -1493.3058    81.732427 
   98200     341.9966   -113.58971   0.30944571   -113.28027    5579.1338     4.329424     4.329424     4.329424    5579.1338   -772.95719    3710.8163    13799.542    10280.597   -1556.5617    10043.243    81.150343 
   98300    509.28698   -113.73967   0.46081356   -113.27886   -11820.856    4.3419059    4.3419059    4.3419059   -11820.856   -14526.623   -9657.6074   -11278.339   -908.61323    5941.1971    5028.1312    81.854248 
   98400    316.76404   -113.56629   0.28661476   -113.27968   -100.81398    4.3366413    4.3366413    4.3366413   -100.81398   -4026.5701   -3629.8177    7353.9458    1729.6715     4502.434   -752.41777     81.55686 
   98500    414.84897   -113.65404   0.37536407   -113.27867   -259.47562    4.3302719    4.3302719    4.3302719   -259.47562   -4472.1071   -4803.2664    8496.9466    10859.463    179.98517     4839.583    81.198031 
   98600    412.50162   -113.65245   0.37324013   -113.27921   -2171.4706    4.3404306    4.3404306    4.3404306   -2171.4706   -4262.1283    15183.874   -17436.157    696.37922    1990.0758    11698.953    81.770839 
   98700    472.60074   -113.70678   0.42761908   -113.27916   -1892.7639    4.3363117    4.3363117    4.3363117   -1892.7639   -5364.6702    10812.025   -11125.647   -1178.4156    8235.9532   -311.95044    81.538268 
   98800    464.40312    -113.6992    0.4202017     -113.279    1018.7704    4.3325052    4.3325052    4.3325052    1018.7704   -3314.5401   -1379.1088      7749.96    6003.2257    737.33086   -1612.3917    81.323726 
   98900    470.56458   -113.70505   0.42577672   -113.27928    618.08907    4.3384193    4.3384193    4.3384193    618.08907    5263.6981    11307.446   -14716.877    1536.3758   -2833.0626    8921.9764    81.657218 
   99000    539.91791   -113.76681   0.48852907   -113.27829   -3329.7188    4.3386001    4.3386001    4.3386001   -3329.7188   -4497.4657    11402.043   -16893.734    -1775.292    10326.428     1560.987    81.667428 
   99100    544.83347   -113.77073   0.49297678   -113.27775   -532.11467    4.3325453    4.3325453    4.3325453   -532.11467   -10961.113    7786.8231    1577.9461    6017.9488     2867.648   -4464.3017    81.325988 
   99200    506.80221   -113.73791   0.45856529   -113.27934   -1515.3568    4.3378735    4.3378735    4.3378735   -1515.3568    4178.9331    -4093.182   -4631.8215    6352.3247   -2165.0939    7297.8455    81.626403 
   99300    539.57077    -113.7681   0.48821498   -113.27988    1996.7994      4.33459      4.33459      4.33459    1996.7994    4756.7953    12382.893    -11149.29   -5465.8029    5422.9284    4633.3249    81.441181 
   99400    516.54704   -113.74763   0.46738262   -113.28025    1254.6013    4.3349052    4.3349052    4.3349052    1254.6013   -6983.1317    15079.247   -4332.3116    6006.8118    4062.9036   -3727.0347     81.45895 
   99500    561.60557   -113.78786   0.50815252   -113.27971    -6022.613    4.3396775    4.3396775    4.3396775    -6022.613   -5111.2382   -8659.8044   -4296.7964    8076.0027    430.68358    3257.3737     81.72828 
   99600    523.45123   -113.75302   0.47362967   -113.27939    5867.6535    4.3323488    4.3323488    4.3323488    5867.6535    7317.7907    8087.3509     2197.819    1701.2814    2111.5037    9523.8913    81.314923 
   99700    554.61822   -113.78128   0.50183022   -113.27945    -1246.524    4.3370529    4.3370529    4.3370529    -1246.524   -2900.7904      9452.11   -10290.891   -1330.5896    9633.4608    2842.1835    81.580085 
   99800    554.90285    -113.7818   0.50208776   -113.27971   -226.47437     4.337086     4.337086     4.337086   -226.47437   -84.439601   -3416.8938    2821.9103    2880.1334   -1316.3603   -2590.7021    81.581956 
   99900    649.15097   -113.86577   0.58736544    -113.2784    1253.7674    4.3343275    4.3343275    4.3343275    1253.7674    -580.8526    711.42211    3630.7326    6495.5481   -2231.7145    5926.1435    81.426389 
  100000    560.68206   -113.78705   0.50731691   -113.27974    3201.3758    4.3353815    4.3353815    4.3353815    3201.3758    6373.8307    14752.716   -11522.419   -2934.5834    12463.674    5051.7378    81.485804 
Loop time of 21.9517 on 1 procs for 100000 steps with 8 atoms

Pair  time (%) = 6.73883 (30.6984)
Kspce time (%) = 5.37663 (24.493)
Neigh time (%) = 0 (0)
Comm  time (%) = 1.09793 (5.00156)
Outpt time (%) = 0.0246413 (0.112252)
Other time (%) = 8.71369 (39.6948)

Nlocal:    8 ave 8 max 8 min
Histogram: 1 0 0 0 0 0 0 0 0 0
Nghost:    2189 ave 2189 max 2189 min
Histogram: 1 0 0 0 0 0 0 0 0 0
Neighs:    2056 ave 2056 max 2056 min
Histogram: 1 0 0 0 0 0 0 0 0 0

Total # of neighbors = 2056
Ave neighs/atom = 257
Neighbor list builds = 0
Dangerous builds = 0
unfix 20
unfix 21
print "seeds:3188085"
seeds:3188085
