LAMMPS (10 Feb 2015)
# ---- initialize simulations
clear
units metal
dimension 3
boundary p p p
atom_style charge
atom_modify map array
# ---- create atoms
read_data /Users/eugeneragasa/pyflamestk_git/pypospack/tests/tests_integration/workflow/WorkflowLammpsThermalExpansion/MgO_NaCl_unit.npt.T1600/lammps.structure
  triclinic box = (0 0 0) to (4.2565 4.2565 4.2565) with tilt (0 0 0)
  1 by 1 by 1 MPI processor grid
  reading atoms ...
  8 atoms
# ---- define interatomic potential
include potential.mod
mass 1 24.305
mass 2 15.999

group Mg type 1
4 atoms in group Mg
group O type 2
4 atoms in group O

set group Mg charge 2.0
  4 settings made for charge
set group O charge -2.0
  4 settings made for charge

variable R_cut equal 10.0

pair_style buck/coul/long ${R_cut}
pair_style buck/coul/long 10
pair_coeff 1 1 0.0 0.5 0.0 ${R_cut}
pair_coeff 1 1 0.0 0.5 0.0 10
pair_coeff 1 2 1279.69 0.29969 0.0 ${R_cut}
pair_coeff 1 2 1279.69 0.29969 0.0 10
pair_coeff 2 2 9547.96 0.21916 32.0 ${R_cut}
pair_coeff 2 2 9547.96 0.21916 32.0 10

kspace_style pppm 1.0e-5

neighbor 1.0 bin
neigh_modify every 1 delay 0 check yes
# ---- define settings
compute eng all pe/atom
compute eatoms all reduce sum c_eng
# ---- run minimization
reset_timestep 0
fix 1 all box/relax iso 0.0 vmax 0.001
thermo 10
thermo_style custom step pe lx ly lz xy xz yz press pxx pyy pzz pxy pxz pyz c_eatoms
min_style cg
minimize 1e-25 1e-25 5000 10000
PPPM initialization ...
  G vector (1/distance) = 0.354854
  grid = 8 8 8
  stencil order = 5
  estimated absolute RMS force accuracy = 5.34408e-05
  estimated relative force accuracy = 3.71126e-06
  using double precision FFTs
  3d grid and FFT values/proc = 3375 512
Neighbor list info ...
  1 neighbor list requests
  update every 1 steps, delay 0 steps, check yes
  master list distance cutoff = 11
Memory usage per processor = 4.06549 Mbytes
Step PotEng Lx Ly Lz Xy Xz Yz Press Pxx Pyy Pzz Pxy Pxz Pyz eatoms 
       0    -164.6599       4.2565       4.2565       4.2565            0            0            0   -75586.685   -75586.685   -75586.685   -75586.685 9.4798587e-11 1.6226154e-10 -3.4446142e-11    -164.6599 
      10   -164.72135     4.213935     4.213935     4.213935            0            0            0   -8637.4527   -8637.4527   -8637.4527   -8637.4527 -1.5549588e-10 2.0227431e-10 -1.1495762e-10   -164.72135 
      15   -164.72214      4.20883      4.20883      4.20883            0            0            0    5.5876567    5.5876567    5.5876567    5.5876567 2.0554645e-10 4.244052e-10 1.3955449e-10   -164.72214 
Loop time of 0.0371969 on 1 procs for 15 steps with 8 atoms

Minimization stats:
  Stopping criterion = linesearch alpha is zero
  Energy initial, next-to-last, final = 
        -164.659901251     -164.722138416     -164.722138416
  Force two-norm initial, final = 10.9148 0.000791362
  Force max component initial, final = 10.9148 0.000788889
  Final line search alpha, max atom move = 0.015625 1.23264e-05
  Iterations, force evaluations = 15 55

Pair  time (%) = 0.00837731 (22.5216)
Kspce time (%) = 0.00482392 (12.9686)
Neigh time (%) = 0 (0)
Comm  time (%) = 0.00106192 (2.85485)
Outpt time (%) = 3.19481e-05 (0.0858892)
Other time (%) = 0.0229018 (61.5691)

Nlocal:    8 ave 8 max 8 min
Histogram: 1 0 0 0 0 0 0 0 0 0
Nghost:    2189 ave 2189 max 2189 min
Histogram: 1 0 0 0 0 0 0 0 0 0
Neighs:    2344 ave 2344 max 2344 min
Histogram: 1 0 0 0 0 0 0 0 0 0

Total # of neighbors = 2344
Ave neighs/atom = 293
Neighbor list builds = 0
Dangerous builds = 0
unfix 1
# ---- define output variables ----
variable natoms equal "count(all)"
variable tot_energy equal "c_eatoms"
variable length_x equal "lx"
variable length_y equal "ly"
variable length_z equal "lz"
variable tilt_xy equal "xy"
variable tilt_xz equal "xz"
variable tilt_yz equal "yz"
variable tot_press equal "press"
variable press_xx equal "pxx"
variable press_yy equal "pyy"
variable press_zz equal "pzz"
variable press_xy equal "pxy"
variable press_xz equal "pxz"
variable press_yz equal "pyz"

# ---- output ----
print "pypospack:output_section:begin"
pypospack:output_section:begin
print "tot_energy = ${tot_energy}"
tot_energy = -164.722138415744
print "num_atoms = ${natoms}"
num_atoms = 8
print "xx = ${length_x}"
xx = 4.20883001371435
print "yy = ${length_y}"
yy = 4.20883001371435
print "zz = ${length_z}"
zz = 4.20883001371435
print "xy = ${tilt_xy}"
xy = 0
print "xz = ${tilt_xz}"
xz = 0
print "yz = ${tilt_yz}"
yz = 0
print "tot_press = ${tot_press}"
tot_press = 5.58765665687492
print "pxx = ${press_xx}"
pxx = 5.58765665651822
print "pyy = ${press_yy}"
pyy = 5.58765665647238
print "pzz = ${press_zz}"
pzz = 5.58765665763416
print "pxy = ${press_xy}"
pxy = 2.0554645346851e-10
print "pxz = ${press_xz}"
pxz = 4.24405202668874e-10
print "pyz = ${press_yz}"
pyz = 1.39554488680613e-10
print "pypospack:output_section:done"
pypospack:output_section:done
print "pypospack:lammps_sim:done"
pypospack:lammps_sim:done
#------------------------------------------------------------------------------
# RUN THERMOSTAT
# running using an NPT Nose-Hoover style thermostat
#------------------------------------------------------------------------------
variable tempdamp equal 0.1
variable pressdamp equal 1.0
# set initial velocities
velocity all create 1600 6969476 mom yes dist gaussian loop all
# fix for Nose-Hoover style thermostat
fix 20 all npt temp 1600 1600 0.1 aniso 0.0 0.0 1.0 drag 1.0 couple xyz
variable boxx equal lx
variable boxy equal ly
variable boxz equal lz
variable boxp equal press
variable boxt equal temp
# calculate averages every 10000 steps
reset_timestep 0
fix 21 all ave/time 10 10 100 v_boxx v_boxy v_boxz v_boxp v_boxt file lattice.out
thermo_style custom step temp pe ke etotal press lx ly lz press pxx pyy pzz pxy pxz pyz vol
thermo_modify flush yes
thermo 100
run 100000
PPPM initialization ...
  G vector (1/distance) = 0.355405
  grid = 8 8 8
  stencil order = 5
  estimated absolute RMS force accuracy = 5.20839e-05
  estimated relative force accuracy = 3.61703e-06
  using double precision FFTs
  3d grid and FFT values/proc = 3375 512
Memory usage per processor = 3.06549 Mbytes
Step Temp PotEng KinEng TotEng Press Lx Ly Lz Press Pxx Pyy Pzz Pxy Pxz Pyz Volume 
       0         1600   -164.72213    1.4477136   -163.27442     20746.91      4.20883      4.20883      4.20883     20746.91     31942.14    17065.855    13232.735   -11551.732    -9267.218    13871.348    74.556267 
     100    1524.9087   -164.46008    1.3797695   -163.08031   -14331.619     4.237167     4.237167     4.237167   -14331.619     4426.796   -31146.665   -16274.989    8679.1202    635.06173   -11361.761    76.072333 
     200    953.19156   -163.55138   0.86246776   -162.68892   -18259.478    4.2706061    4.2706061    4.2706061   -18259.478    45372.907   -64878.907   -35272.434   -3026.9285   -967.41199    2365.6798    77.887639 
     300    1169.2718   -163.39682    1.0579817   -162.33884   -8699.1744    4.2501721    4.2501721    4.2501721   -8699.1744   -13120.149   -22942.836    9965.4618   -6525.2966   -5363.3985    7121.9294    76.774949 
     400    1459.1421   -163.38266    1.3202624    -162.0624     23507.88    4.2345827    4.2345827    4.2345827     23507.88    60257.774     -8228.14    18494.006    25750.543    12205.793   -12383.641    75.933227 
     500    1800.9571   -163.54511    1.6295438   -161.91556   -55625.309    4.2691221    4.2691221    4.2691221   -55625.309   -59334.597   -55304.921    -52236.41    17043.715     21024.54    14753.612    77.806472 
     600    1754.6299   -163.40616     1.587626   -161.81854   -52436.563    4.2800792    4.2800792    4.2800792   -52436.563   -40911.817   -47814.693   -68583.178   -1586.0619    32498.138   -9639.1313    78.407102 
     700    1618.3606   -163.24476    1.4643267   -161.78043   -28428.322     4.259457     4.259457     4.259457   -28428.322   -40210.714   -22668.341    -22405.91     17147.63    24989.091    -789.0454    77.279217 
     800    1377.2123   -163.02256    1.2461306   -161.77643    3645.6203    4.2451172    4.2451172    4.2451172    3645.6203    42848.334   -28536.968   -3374.5052    21427.021    29808.606    5048.4725    76.501343 
     900    1350.7065   -163.04187    1.2221477   -161.81972   -26005.116    4.2729335    4.2729335    4.2729335   -26005.116   -10805.848   -43292.099   -23917.402    25587.664     33870.67   -9260.1423    78.015053 
    1000     1458.706   -163.11516    1.3198679   -161.79529   -34146.808    4.2862707    4.2862707    4.2862707   -34146.808   -25010.124   -42860.417   -34569.882    20534.734    10408.016    10162.672    78.747866 
    1100    2018.7749   -163.59286      1.82663   -161.76623   -19502.346    4.2619071    4.2619071    4.2619071   -19502.346   -4857.6332   -51700.717   -1948.6876    15747.981    20101.553   -6256.2711     77.41265 
    1200    1860.7041    -163.4584    1.6836042    -161.7748   -19023.344    4.2539314    4.2539314    4.2539314   -19023.344   -2280.5312   -37721.258   -17068.243    11064.861     31058.26    4011.8854    76.978854 
    1300    1494.2711   -163.15346    1.3520479   -161.80142    3614.7967    4.2599717    4.2599717    4.2599717    3614.7967    44161.734   -7265.5429   -26051.801     22598.29     5288.919    -954.7378    77.307236 
    1400    1067.2348   -162.78456   0.96565651   -161.81891    2057.8092    4.2780568    4.2780568    4.2780568    2057.8092    43718.604   -1418.4109   -36126.766   -5805.3345    911.86594   -6325.6861    78.296013 
    1500    1165.6328   -162.86843     1.054689   -161.81374   -16498.809    4.2665689    4.2665689    4.2665689   -16498.809    39143.402   -42044.393   -46595.437   -20220.626   -11592.239    12147.468    77.666956 
    1600     2003.604   -163.60378     1.812903   -161.79088    22177.053     4.239675     4.239675     4.239675    22177.053    74311.094   -14103.342    6323.4067    -14105.72   -7041.1397   -3979.9576    76.207496 
    1700    1633.1019   -163.30309    1.4776649   -161.82542    6340.9373    4.2601522    4.2601522    4.2601522    6340.9373    29058.927   -4807.9827   -5228.1325   -6340.3017   -19460.758    -14629.44    77.317062 
    1800    1196.9177   -162.90109    1.0829962    -161.8181    -19168.15    4.2851115    4.2851115    4.2851115    -19168.15    59526.569    -28572.82   -88458.198    -11524.35   -17043.723    14516.802    78.683991 
    1900    1353.3628   -163.03299    1.2245511   -161.80844   -49386.372    4.2690435    4.2690435    4.2690435   -49386.372   -43040.178   -31593.557   -73525.381    -16266.64   -20885.882   -11106.792    77.802177 
    2000    1754.9823   -163.36699    1.5879449   -161.77904    50117.953    4.2159335    4.2159335    4.2159335    50117.953     61038.49    57702.115    31613.254   -9499.1792    1676.4925   -2065.0641    74.934404 
    2100     1639.368   -163.34218    1.4833346   -161.85885    25522.941    4.2445103    4.2445103    4.2445103    25522.941    50222.611     60235.12   -33888.907   -10527.095    8929.9594    1743.8504    76.468536 
    2200    1669.3573   -163.31785    1.5104696   -161.80738   -21430.411    4.2910283    4.2910283    4.2910283   -21430.411    30042.989   -19428.304   -74905.918      4640.14    13204.631   -18474.242    79.010378 
    2300    2006.3236   -163.57946    1.8153638    -161.7641   -19702.485    4.2589832    4.2589832    4.2589832   -19702.485    42699.198   -54704.601   -47102.051    26721.044    22934.239    12544.391    77.253432 
    2400    1736.9127   -163.35771    1.5715951   -161.78611    22630.962     4.255399     4.255399     4.255399    22630.962    81620.894    11647.256   -25375.265   -3312.5633    -9575.611   -442.24932    77.058556 
    2500    2071.6369   -163.67794    1.8744606   -161.80348   -37176.868    4.2776495    4.2776495    4.2776495   -37176.868    11859.758   -75135.696   -48254.665   -21312.197    5791.0897   -3973.1794    78.273649 
    2600    1629.9118   -163.27701    1.4747785   -161.80223    16239.222    4.2694103    4.2694103    4.2694103    16239.222    138562.47   -62040.773   -27804.029    4668.8262    5186.1238    6610.0416    77.822232 
    2700    2134.9849    -163.7474    1.9317792   -161.81562   -10023.394    4.2667145    4.2667145    4.2667145   -10023.394    9000.6236   -24917.858   -14152.948    11749.572   -11654.417    3582.7481    77.674907 
    2800    1585.9751    -163.2565    1.4350236   -161.82148   -24932.071    4.2724618    4.2724618    4.2724618   -24932.071    68374.414   -55694.277    -87476.35    3258.3408   -6639.9092   -2857.0092     77.98922 
    2900    1708.8437   -163.35906    1.5461977   -161.81287    24416.409    4.2514072    4.2514072    4.2514072    24416.409    104654.01   -7922.0518   -23482.726   -507.59312    10081.859   -2380.1405    76.841904 
    3000    1712.6213   -163.38158    1.5496157   -161.83197    5532.9549    4.2652639    4.2652639    4.2652639    5532.9549    39080.148   -33842.067    11360.784    10629.519   -4816.7952     19328.16    77.595713 
    3100    1534.3193   -163.20724    1.3882844   -161.81896   -16987.388    4.2751804    4.2751804    4.2751804   -16987.388    46127.395   -63527.594   -33561.965   -14999.602    2773.9829    8978.6349    78.138187 
    3200    1218.4653   -162.89827     1.102493   -161.79578    41407.075    4.2450512    4.2450512    4.2450512    41407.075    68168.391    18694.518    37358.315    8406.6582   -17940.175    6890.2754    76.497772 
    3300    1062.1412    -162.7721   0.96104764   -161.81106    54719.131    4.2517718    4.2517718    4.2517718    54719.131    99457.051    28027.444    36672.898    2006.2366   -28287.522    10060.897    76.861675 
    3400    888.32748   -162.60405   0.80377738   -161.80027   -14706.531    4.2802166    4.2802166    4.2802166   -14706.531     60589.54   -22054.419   -82654.712    -7762.642    4602.4555    35279.968    78.414656 
    3500    1381.1693   -163.02216     1.249711   -161.77245    23454.447    4.2545601    4.2545601    4.2545601    23454.447    32603.797      16316.3    21443.243    21040.974   -24168.923     23222.05    77.012992 
    3600    1578.9268    -163.2115    1.4286461   -161.78285    26783.163    4.2592745    4.2592745    4.2592745    26783.163    56424.072    33433.361   -9507.9437   -2063.7707   -9100.2837    21779.254    77.269285 
    3700    1331.2921   -162.98531    1.2045811   -161.78073   -56276.685    4.2932327    4.2932327    4.2932327   -56276.685   -55962.377   -70270.495   -42597.182    3001.6568   -13721.187    43571.831    79.132211 
    3800    1505.1014   -163.11462    1.3618474   -161.75278    7927.2465    4.2750805    4.2750805    4.2750805    7927.2465     18409.98   -60233.345    65605.105   -7482.2818     12467.49    10515.612    78.132708 
    3900    1916.0403    -163.4903    1.7336735   -161.75663   -998.94221    4.2704296    4.2704296    4.2704296   -998.94221    28865.449     15595.91   -47458.185    10386.327   -9154.0475    6051.8014    77.877986 
    4000    1997.8541   -163.57375    1.8077003   -161.76605   -67204.577    4.2852752    4.2852752    4.2852752   -67204.577   -16976.232   -97826.946   -86810.552    19361.837   -26687.153    26532.353    78.693009 
    4100    1225.1411   -162.86989    1.1085334   -161.76136    34905.674    4.2596658    4.2596658    4.2596658    34905.674    101738.48   -34844.698    37823.241    940.26781    1536.1305    26814.647    77.290582 
    4200    1414.5811   -163.06563    1.2799427   -161.78569    8934.1929    4.2638885    4.2638885    4.2638885    8934.1929    32446.635    32267.548   -37911.604    6926.7579   -20003.545    27896.572    77.520669 
    4300    1632.5576   -163.25285    1.4771725   -161.77567   -35487.244    4.2841973    4.2841973    4.2841973   -35487.244    -12790.59   -49340.732   -44330.411   -1342.1936    22725.375    29156.818    78.633641 
    4400    1415.0106   -163.03576    1.2803313   -161.75543    12367.016    4.2609524    4.2609524    4.2609524    12367.016    36033.039   -41764.116    42832.124    13674.211   -19064.687    37398.056    77.360639 
    4500     2264.142   -163.82543    2.0486433   -161.77678   -3953.8113    4.2566497    4.2566497    4.2566497   -3953.8113    36197.417   -12507.882   -35550.969   -4351.7353   -434.22133    36349.071    77.126519 
    4600     1810.055   -163.44445    1.6377758   -161.80668   -45663.672    4.2867274    4.2867274    4.2867274   -45663.672   -37132.931   -58871.554   -40986.532   -18340.079   -2908.2244    28187.269     78.77304 
    4700    1050.2977   -162.74432   0.95033147   -161.79399   -6116.0921    4.2658839    4.2658839    4.2658839   -6116.0921    54497.025   -62058.342   -10786.959    -16851.18      17433.5    34107.289    77.629554 
    4800    1479.3093   -163.09909    1.3385101   -161.76058    24982.728    4.2339175    4.2339175    4.2339175    24982.728    88606.312   -15011.833    1353.7046   -755.54162   -7044.9873    44684.787     75.89745 
    4900    1572.0106   -163.24232    1.4223883   -161.81993    -29895.21    4.2751148    4.2751148    4.2751148    -29895.21   -56710.641   -3932.5173   -29042.471   -9951.6024   -15581.247    26516.715    78.134594 
    5000    1352.8872   -162.99663    1.2241208   -161.77251   -49544.319     4.288261     4.288261     4.288261   -49544.319   -70653.458   -17807.402   -60172.097    3325.5548   -4383.1438    33222.361    78.857614 
    5100    1563.0508   -163.16444    1.4142812   -161.75016     27664.55    4.2461317    4.2461317    4.2461317     27664.55   -12678.312   -20131.767    115803.73   -14250.572    -25542.44    9838.9013    76.556201 
    5200    1054.5389   -162.75038   0.95416893   -161.79621    13273.939    4.2516923    4.2516923    4.2516923    13273.939   -48193.799    52376.078    35639.539   -13160.963   -28065.889   -8949.6499    76.857366 
    5300    1417.0482   -163.08278     1.282175    -161.8006   -18949.102    4.2747437    4.2747437    4.2747437   -18949.102   -70412.883    31746.233   -18180.656    8809.4479    10863.843   -4869.0069    78.114248 
    5400    1702.0435   -163.32506    1.5400447   -161.78501   -19960.926    4.2692575    4.2692575    4.2692575   -19960.926    1261.3162   -44477.911   -16666.182   -11589.144   -9326.3708   -3530.1839    77.813878 
    5500    1445.1256   -163.09533    1.3075801   -161.78775     3790.602    4.2653675    4.2653675    4.2653675     3790.602   -6546.2121    20010.834    -2092.816   -26276.639    3957.5493   -26869.345    77.601364 
    5600    956.76204   -162.66501    0.8656984   -161.79931    12620.313    4.2486089    4.2486089    4.2486089    12620.313     34643.45    4530.1127   -1312.6236     -16368.5    20414.264   -58363.619    76.690268 
    5700    1310.5005     -162.999    1.1857684   -161.81324    39378.332    4.2468221    4.2468221    4.2468221    39378.332     41806.71     40441.02    35887.266   -2786.3935   -4058.2735   -32875.224    76.593553 
    5800    1254.9982   -162.96904    1.1355487   -161.83349   -52467.371    4.2791466    4.2791466    4.2791466   -52467.371   -52269.785   -57147.726   -47984.601    26739.552    10922.661   -26986.849    78.355861 
    5900    1123.5616   -162.84026    1.0166222   -161.82364   -16528.687    4.2609697    4.2609697    4.2609697   -16528.687   -15421.692   -24658.502    -9505.867   -1808.8839    18366.295   -29620.916    77.361581 
    6000     1512.129   -163.14968    1.3682061   -161.78148    62646.676    4.2262947    4.2262947    4.2262947    62646.676    30420.166    24142.085    133377.78    4585.3065    36.124414   -17506.891    75.488244 
    6100    1458.2954   -163.15287    1.3194963   -161.83337   -28918.966    4.2698084    4.2698084    4.2698084   -28918.966   -12538.427   -75743.496    1525.0265    11040.969    4344.8676   -20652.525    77.844001 
    6200    1319.8278   -162.98845    1.1942079   -161.79424    11710.422    4.2761558    4.2761558    4.2761558    11710.422    17163.311   -11310.733    29278.689    11857.271   -1366.1644     10895.47    78.191683 
    6300    2255.6748   -163.80693    2.0409819   -161.76595   -8931.6541     4.252448     4.252448     4.252448   -8931.6541    33992.083   -22633.601   -38153.444   -1019.6781    6707.4289    6668.9249     76.89835 
    6400    1701.4925   -163.33054    1.5395462     -161.791    25737.656    4.2614162    4.2614162    4.2614162    25737.656    22474.879    25214.113    29523.975    2650.4946    8805.7803    12247.012    77.385903 
    6500    1690.6581   -163.31634     1.529743    -161.7866    21134.267    4.2589488    4.2589488    4.2589488    21134.267     21854.61    28810.659     12737.53    19114.825   -18446.256    17885.991    77.251562 
    6600    1559.6173   -163.20627    1.4111745    -161.7951    30963.182    4.2594941    4.2594941    4.2594941    30963.182    120267.38   -14960.922   -12416.914     4948.092   -16742.026    9291.0156    77.281238 
    6700    2124.2167   -163.72808    1.9220359   -161.80604   -15244.443    4.2700667    4.2700667    4.2700667   -15244.443   -7202.4038    30043.628   -68574.555    7907.6873   -14781.739    7519.5976    77.858129 
    6800    2172.9657   -163.76687    1.9661451   -161.80072    28106.388    4.2478329    4.2478329    4.2478329    28106.388    59267.137    29333.703   -4281.6749   -2859.3552    8839.4423    18571.012    76.648257 
    6900    1704.7944   -163.34894    1.5425338   -161.80641    38270.514    4.2409357    4.2409357    4.2409357    38270.514   -9735.4214     94198.38    30348.583    233.39434   -2157.2699    9290.9275    76.275502 
    7000    1762.6563   -163.40529    1.5948885    -161.8104   -16775.429    4.2668064    4.2668064    4.2668064   -16775.429   -1664.4606   -1144.2313   -47517.595    19849.579   -43.761045     18146.19    77.679927 
    7100    1906.7361   -163.51132    1.7252549   -161.78606   -2372.7604    4.2626066    4.2626066    4.2626066   -2372.7604    17260.502    16198.723   -40577.506    12663.799    14276.593    15940.014    77.450772 
    7200    1833.8998   -163.43792     1.659351   -161.77857    17481.205    4.2518713    4.2518713    4.2518713    17481.205    15546.206    57185.871   -20288.461    -14447.48    13870.542    2801.9767    76.867069 
    7300    1361.7246   -163.03409    1.2321171   -161.80197    15367.568    4.2574699    4.2574699    4.2574699    15367.568    69531.178    19894.494   -43322.968    12381.215    12068.468    6990.8046    77.171111 
    7400    1680.1019   -163.32198    1.5201915   -161.80178    1985.4647    4.2622616    4.2622616    4.2622616    1985.4647    3644.4529    45856.381    -43544.44    380.71869    20982.779    10873.466    77.431971 
    7500    1543.7028   -163.20085    1.3967748   -161.80408   -21677.951    4.2677542    4.2677542    4.2677542   -21677.951   -6005.2347   -35769.937   -23258.682   -7262.4132    29100.377   -299.10519    77.731707 
    7600    1217.6048   -162.91433    1.1017144   -161.81262   -4875.5324    4.2504088    4.2504088    4.2504088   -4875.5324    9733.6772    30924.025     -55284.3    6392.8631    49222.851   -32492.491    76.787779 
    7700    1161.3983   -162.85669    1.0508576   -161.80583    22216.328    4.2302646    4.2302646    4.2302646    22216.328    25626.213    22982.855    18039.915   -12611.281    48754.533   -1725.6998     75.70117 
    7800    1299.0428   -163.02606    1.1754012   -161.85065   -28520.944    4.2675053    4.2675053    4.2675053   -28520.944   -29505.493   -17987.249   -38070.089   -6624.3728     31327.69    1601.4821    77.718103 
    7900    1080.5741   -162.77944   0.97772616   -161.80171   -67806.961    4.2908559    4.2908559    4.2908559   -67806.961   -86352.247   -399.61935   -116669.02    2617.2752    39820.433     12825.54    79.000852 
    8000    505.35261   -162.22126   0.45725366   -161.76401    58399.536    4.2548162    4.2548162    4.2548162    58399.536    16815.573   -5926.0114    164309.05   -28568.845    43198.793   -14082.866    77.026898 
    8100    1088.2842   -162.75147   0.98470237   -161.76676    27662.964    4.2551989    4.2551989    4.2551989    27662.964    26805.235    14603.447     41580.21    8781.9217    43810.249   -12721.271    77.047688 
    8200    1261.1667   -162.91697    1.1411302   -161.77584    -19515.04    4.2832845    4.2832845    4.2832845    -19515.04   -90705.561    25814.148    6346.2928   -5590.8861    24258.534   -10264.313    78.583391 
    8300    1139.7036   -162.79372    1.0312278   -161.76249    -28242.24    4.2857542    4.2857542    4.2857542    -28242.24    -75249.84    12768.093   -22244.972   -6346.8266    12964.786   -5509.2222    78.719402 
    8400    1460.2209   -163.07585    1.3212386   -161.75461   -1237.1772    4.2596797    4.2596797    4.2596797   -1237.1772   -58112.105    69851.742   -15451.168   -14350.316    38066.819    10015.875    77.291339 
    8500    1353.2946   -163.00119    1.2244894    -161.7767    9592.7664    4.2584528    4.2584528    4.2584528    9592.7664   -38770.824   -17815.999    85365.123     4677.845    47720.257   -14908.719    77.224572 
    8600    1267.6711   -162.93149    1.1470154   -161.78448    -33529.43    4.2829642    4.2829642    4.2829642    -33529.43   -7153.2241   -57089.476    -36345.59    11616.286    19425.093   -12195.133    78.565762 
    8700    1516.5244    -163.1282    1.3721832   -161.75602   -38905.524     4.286471     4.286471     4.286471   -38905.524    -52268.44   -35740.435   -28707.698    8211.0471   -913.39931   -12737.729    78.758904 
    8800    1505.4717    -163.1054    1.3621824   -161.74322   -21134.109    4.2761766    4.2761766    4.2761766   -21134.109   -71413.945    12070.062   -4058.4437    6479.8535    25912.695   -2240.4324    78.192821 
    8900    1163.7007   -162.80244    1.0529408    -161.7495   -3782.9067    4.2710998    4.2710998    4.2710998   -3782.9067    81903.289   -63328.721   -29923.287   -536.66267     40394.53   -2344.6754    77.914655 
    9000      1174.95   -162.82531    1.0631195    -161.7622    44903.718    4.2668272    4.2668272    4.2668272    44903.718    33053.761    10345.904    91311.488   -11120.889     42732.89    11070.972    77.681065 
    9100    1287.2135   -162.93721    1.1646979   -161.77252   -32785.954    4.2875939    4.2875939    4.2875939   -32785.954   -41059.474    4088.3552   -61386.743   -3485.1759    26299.426   -11712.451    78.820818 
    9200    1043.4163   -162.71261   0.94410498    -161.7685   -31510.933    4.2700682    4.2700682    4.2700682   -31510.933   -66902.081    3700.1862   -31330.904   -6744.1836     56738.47    4760.7695    77.858216 
    9300    1323.9773   -162.93225    1.1979625   -161.73428    88500.512    4.2213579    4.2213579    4.2213579    88500.512    111943.07     103661.1    49897.367    4570.0916    31826.975   -5319.1948    75.224016 
    9400    1846.9692   -163.48537    1.6711766   -161.81419   -38095.902    4.2601342    4.2601342    4.2601342   -38095.902   -39830.789   -22284.359   -52172.557   -3299.7354     38923.79   -10949.912    77.316082 
    9500    1248.5256   -162.89188    1.1296922   -161.76219   -57869.203    4.3023852    4.3023852    4.3023852   -57869.203   -47669.407   -64601.195   -61337.008    5123.4515    30707.366   -12313.517    79.639381 
    9600    1461.3799   -163.08617    1.3222873   -161.76388   -10011.989    4.2537017    4.2537017    4.2537017   -10011.989   -8789.7014    36164.918   -57411.184   -2990.1317    33587.891    -17688.54    76.966384 
    9700    1605.1964   -163.17427    1.4524155   -161.72186    36709.801    4.2046046    4.2046046    4.2046046    36709.801    23544.377    99660.161   -13075.134    6796.7622    31925.297    10774.435    74.331942 
    9800    1451.5405   -163.13197    1.3133844   -161.81859    24906.188    4.2459301    4.2459301    4.2459301    24906.188    41748.636    55921.034   -22951.106    10862.452    11845.892   -1835.9523      76.5453 
    9900    1445.2292    -163.0772    1.3076737   -161.76953   -80788.369    4.2968688    4.2968688    4.2968688   -80788.369   -91388.518   -29707.291    -121269.3   -4619.6515    8243.0609    5420.2736    79.333441 
   10000    1276.9798   -162.92463    1.1554382   -161.76919   -8586.4154    4.2460535    4.2460535    4.2460535   -8586.4154   -4844.8213    47915.752   -68830.177    11067.308    24678.232    3463.3209    76.551972 
   10100    749.22993   -162.41031   0.67791898   -161.73239    77285.036     4.215048     4.215048     4.215048    77285.036    67259.586    162995.48    1600.0427    33460.426    19959.953    12311.465    74.887198 
   10200    1151.9518   -162.83095    1.0423102   -161.78864   -27653.463    4.2686902    4.2686902    4.2686902   -27653.463   -49716.928    33705.752   -66949.214    2580.1295    2764.2256    5364.3157    77.782861 
   10300    1159.4238   -162.79325     1.049071   -161.74418   -32506.585    4.2904228    4.2904228    4.2904228   -32506.585   -16567.555    28618.549   -109570.75   -4038.0719    28785.531    5212.5956    78.976937 
   10400    759.67316   -162.42046   0.68736824   -161.73309    14108.517    4.2519332    4.2519332    4.2519332    14108.517     17339.64    108482.11   -83496.205    21856.079    62565.497   -1964.7163    76.870426 
   10500    1073.2201   -162.69727   0.97107206    -161.7262    3659.9304    4.2217042    4.2217042    4.2217042    3659.9304   -19067.741    83264.935   -53217.403    4549.0074    95604.999   -4836.7564     75.24253 
   10600    1254.0263   -162.92317    1.1346693    -161.7885    5503.2752    4.2473376    4.2473376    4.2473376    5503.2752    11737.495     21101.38    -16329.05     6861.612    69552.528   -7081.9095    76.621449 
   10700    1256.7886   -162.91275    1.1371688   -161.77558   -64374.708    4.2787521    4.2787521    4.2787521   -64374.708   -79443.078   -10564.143    -103116.9   -5845.2105    86478.275    7086.3014    78.334193 
   10800    1655.0314   -163.26656    1.4975072   -161.76906    5928.2327     4.239749     4.239749     4.239749    5928.2327     54937.45    20379.634   -57532.385   -2014.1145    82829.273   -13289.594    76.211488 
   10900    1519.4231   -163.14068     1.374806   -161.76588    24082.878    4.2298114    4.2298114    4.2298114    24082.878    2977.5778     53667.08    15603.977   -9645.3212    82286.318    6116.5143    75.676842 
   11000    1355.7503   -163.00245    1.2267114   -161.77573   -10144.081    4.2544973    4.2544973    4.2544973   -10144.081   -4235.2503    29818.965   -56015.958   -18702.474    77253.231    9585.5665    77.009581 
   11100     1727.522   -163.33222    1.5630982   -161.76912    9890.4195    4.2541068    4.2541068    4.2541068    9890.4195      12973.7    6665.9232    10031.636    3237.8321     59908.13    10038.588     76.98838 
   11200    1578.2307   -163.19766    1.4280163   -161.76964    1936.4666    4.2593384    4.2593384    4.2593384    1936.4666   -23092.584    37114.177   -8212.1934   -14199.831    59072.774    15863.964    77.272762 
   11300    1759.9194   -163.35706     1.592412   -161.76465    -6713.888    4.2396353    4.2396353    4.2396353    -6713.888    -1606.173    42768.562   -61304.053    7719.2762    42722.368    9879.0433    76.205357 
   11400    1625.2352    -163.2426     1.470547   -161.77206    15917.447    4.2372541    4.2372541    4.2372541    15917.447   -27789.964    10684.356    64857.949    745.68704    38701.752    13073.821    76.077028 
   11500    1692.2536     -163.308    1.5311866   -161.77682   -34277.122    4.2663262    4.2663262    4.2663262   -34277.122   -54905.183   -1924.7877   -46001.395    4522.7982    50617.541    4047.3651    77.653702 
   11600    2029.8632   -163.59764    1.8366628   -161.76098   -6813.6164    4.2467773    4.2467773    4.2467773   -6813.6164    31302.986   -20268.292   -31475.543    16659.552    29705.411    21477.619    76.591125 
   11700    2242.7872   -163.79381     2.029321   -161.76449     4698.659    4.2410918    4.2410918    4.2410918     4698.659    33664.606   -20138.515    569.88561    -582.2209    23481.837    6403.7045    76.283924 
   11800    2040.3779   -163.61818    1.8461768   -161.77201   -7866.6143    4.2509501    4.2509501    4.2509501   -7866.6143    18694.428     12680.73   -54975.001    943.11613   -2124.2014   -3055.2778    76.817121 
   11900    2060.8393   -163.64011    1.8646907   -161.77542    2010.1915    4.2467164    4.2467164    4.2467164    2010.1915    46885.197   -23369.824   -17484.799   -11637.844    4950.4806    2631.4023    76.587834 
   12000    1982.3852   -163.57407    1.7937038   -161.78037    12467.226    4.2508593    4.2508593    4.2508593    12467.226    7349.6775   -10215.135    40267.136    5562.4003   -942.52321   -3765.0889      76.8122 
   12100    2110.8578   -163.69154    1.9099485   -161.78159   -741.37121    4.2458664    4.2458664    4.2458664   -741.37121     5487.496   -1215.9419   -6495.6677   -865.58201   -19174.953   -3690.3903    76.541853 
   12200    2253.2371   -163.82507    2.0387762    -161.7863    9404.4235    4.2434318    4.2434318    4.2434318    9404.4235    46731.772   -17472.563   -1045.9392   -20316.258   -3749.4384   -5015.7419    76.410263 
   12300    1894.0848   -163.50436    1.7138077   -161.79055   -2898.2304    4.2495712    4.2495712    4.2495712   -2898.2304   -20420.747    13058.844   -1332.7885    1129.2714   -6594.8653    2524.2997    76.742393 
   12400    1516.4633   -163.16571    1.3721279   -161.79359    5703.4466    4.2489584    4.2489584    4.2489584    5703.4466    38045.357    14413.739   -35348.757    8730.1076    -18409.26   -5854.7382    76.709198 
   12500     1827.037   -163.43845    1.6531415   -161.78531   -12632.296    4.2438164    4.2438164    4.2438164   -12632.296   -15392.641    979.80466   -23484.054   -8559.9647   -17865.395   -2029.3582    76.431039 
   12600    1613.8725   -163.24932    1.4602657   -161.78906    1210.3263    4.2595666    4.2595666    4.2595666    1210.3263     15993.83    539.68683   -12902.538    8307.3595   -27133.388     6603.337    77.285185 
   12700    1606.7459   -163.23913    1.4538174   -161.78531   -28598.657    4.2570193    4.2570193    4.2570193   -28598.657   -18506.838    13157.323   -80446.455    2221.7248   -37814.154    2208.6255    77.146613 
   12800    1630.3345   -163.24697    1.4751609   -161.77181    22636.648    4.2254311    4.2254311    4.2254311    22636.648    16589.914    49006.156     2313.875    22513.499   -34737.239    10313.292    75.441978 
   12900    1375.1265   -163.04958    1.2442434   -161.80533    21347.461    4.2481262    4.2481262    4.2481262    21347.461     47051.42    37002.791   -20011.828    7946.5405   -37432.955    1232.0504    76.664135 
   13000    1402.1718   -163.04881    1.2687145    -161.7801   -50667.604    4.2687665    4.2687665    4.2687665   -50667.604   -86161.902   -18473.145   -47367.763   -2404.5119   -49815.895    23146.767     77.78703 
   13100    1229.6754   -162.88611    1.1126362   -161.77347    35108.693    4.2338902    4.2338902    4.2338902    35108.693    66909.903    32738.229    5677.9466    7630.3897   -57833.827    11537.891    75.895977 
   13200     1228.563   -162.90356    1.1116296   -161.79193    7192.6212    4.2314634    4.2314634    4.2314634    7192.6212    1495.7449    45827.428   -25745.309    13291.346   -58814.319    2784.2122    75.765549 
   13300    1120.2474   -162.81486    1.0136234   -161.80123   -23839.917     4.265192     4.265192     4.265192   -23839.917    9114.8266   -39785.038    -40849.54    3351.0489    -38242.87    23846.236    77.591788 
   13400    1124.1821   -162.78933    1.0171836   -161.77215   -16650.046    4.2743726    4.2743726    4.2743726   -16650.046    45751.862   -51007.308   -44694.693   -17268.977   -41645.264    13569.378    78.093904 
   13500    1462.2195   -163.08165    1.3230469    -161.7586   -14844.352    4.2441096    4.2441096    4.2441096   -14844.352    -16341.52    5661.8533   -33853.389   -3456.8536   -58951.871    18977.276    76.446881 
   13600    1003.3924   -162.68929   0.90789049    -161.7814     13658.93     4.235283     4.235283     4.235283     13658.93    82538.779    14787.738   -56349.727    13352.559   -51687.406    22041.552    75.970904 
   13700    951.09643    -162.6596   0.86057204   -161.79902   -15134.928    4.2535589    4.2535589    4.2535589   -15134.928   -19614.364    14348.892   -40139.312    10947.531   -57190.274    9115.5883    76.958632 
   13800    905.80718   -162.60978   0.81959337   -161.79019     27361.92    4.2612064    4.2612064    4.2612064     27361.92    99190.812    30709.691   -47814.742    1955.4213   -39000.512    14383.258    77.374476 
   13900    1003.1431   -162.68364   0.90766494   -161.77597   -33221.884     4.264254     4.264254     4.264254   -33221.884   -26724.997   -9801.4421   -63139.212   -5073.7876   -49635.578    12804.617    77.540606 
   14000     1235.948   -162.89033    1.1183117   -161.77202    6148.7414    4.2286892    4.2286892    4.2286892    6148.7414     24418.85     37826.59   -43799.216    12000.097   -43245.512     18219.41    75.616629 
   14100    1270.0521   -162.93404    1.1491698   -161.78487    24941.748    4.2247595    4.2247595    4.2247595    24941.748    54489.208    40886.267   -20550.233   -4261.4895   -54462.013   -7888.5963    75.406011 
   14200    988.90905   -162.69286   0.89478569   -161.79807    -42014.58    4.2592149    4.2592149    4.2592149    -42014.58   -43558.761   -15401.829   -67083.151    1746.1755    -51439.99   -10999.023    77.266043 
   14300    905.32563   -162.60707   0.81915766   -161.78791    2213.5803    4.2558561    4.2558561    4.2558561    2213.5803    116472.51    -20725.62   -89106.152    -385.4684   -40844.318     -17407.3    77.083391 
   14400    856.71986   -162.56501   0.77517813   -161.78983    5175.2044    4.2394085    4.2394085    4.2394085    5175.2044    35689.081    12508.886   -32672.355   -7219.2141   -31431.715   -30962.763    76.193129 
   14500    643.08423   -162.38457   0.58187612   -161.80269    26029.736    4.2475533    4.2475533    4.2475533    26029.736     106860.1    41060.513   -69831.404    1608.9085    -47066.15   -18279.132    76.633118 
   14600    1226.3842   -162.89995    1.1096582   -161.79029   -43229.935    4.2620403    4.2620403    4.2620403   -43229.935    -30810.92   -39283.913   -59594.974     13482.21   -40463.167   -34453.748     77.41991 
   14700    1116.8237   -162.79308    1.0105255   -161.78255    21832.249    4.2414274    4.2414274    4.2414274    21832.249    106801.47   -29064.928   -12239.794    -2731.569   -38319.855   -40353.776    76.302033 
   14800    1057.5763   -162.75252   0.95691728    -161.7956   -22574.157    4.2460706    4.2460706    4.2460706   -22574.157    9893.3859   -4386.9599   -73228.898    11198.859   -38964.417   -32444.414    76.552895 
   14900    1216.2528    -162.8944    1.1004911    -161.7939   -17093.844    4.2457247    4.2457247    4.2457247   -17093.844    -4672.607   -24082.499   -22526.425   -10626.325   -38073.339   -39671.261    76.534189 
   15000      1099.29    -162.7897    0.9946607   -161.79504    9637.1831    4.2402989    4.2402989    4.2402989    9637.1831    28162.769    5327.8842   -4579.1045    1715.5659   -15672.286   -19960.444    76.241144 
   15100    995.88454   -162.69751   0.90109726   -161.79641   -4796.7089    4.2580997    4.2580997    4.2580997   -4796.7089    25212.804   -21381.492   -18221.439   -3150.8114   -15536.858   -27287.763    77.205363 
   15200    1461.0957   -163.09823    1.3220301    -161.7762    15390.049    4.2498437    4.2498437    4.2498437    15390.049    48593.066   -17342.271    14919.351   -17560.862     723.6521   -33064.129    76.757155 
   15300     1558.173   -163.18675    1.4098677   -161.77688   -14823.066    4.2474275    4.2474275    4.2474275   -14823.066   -2046.3535   -43881.095    1458.2502     2546.156    -7270.372   -8518.1301    76.626311 
   15400    1453.8127   -163.09834    1.3154403    -161.7829    9249.3071    4.2452708    4.2452708    4.2452708    9249.3071    67392.806   -22287.888   -17356.996   -10791.856    19067.812   -28588.675    76.509648 
   15500    1785.0862   -163.40506    1.6151835   -161.78988    8360.3864    4.2419127    4.2419127    4.2419127    8360.3864   -10737.541   -5191.8751    41010.576   -11403.757    15496.352   -18451.244    76.328228 
   15600    1864.5516   -163.48539    1.6870855    -161.7983   -34789.153    4.2570564    4.2570564    4.2570564   -34789.153   -18973.858   -76075.051   -9318.5511   -25171.079    26503.339   -18092.282    77.148628 
   15700    1931.5599   -163.53344     1.747716   -161.78573    21852.775    4.2382823    4.2382823    4.2382823    21852.775    46108.685    6030.7374    13418.903     -14229.4    25463.606   -18014.346    76.132419 
   15800    2149.4248   -163.73527    1.9448448   -161.79042    15030.517    4.2408612    4.2408612    4.2408612    15030.517    45875.683   -43607.703     42823.57   -8356.7439    16911.931   -8358.4204    76.271481 
   15900    1895.1415   -163.49432    1.7147639   -161.77956   -36255.403    4.2657878    4.2657878    4.2657878   -36255.403   -26569.788   -62495.468   -19700.953   -13822.299    17091.795   -19355.116    77.624306 
   16000    1874.4662   -163.45518    1.6960564   -161.75912    6890.1405    4.2484349    4.2484349    4.2484349    6890.1405    13146.798   -45679.593    53203.216   -3515.9763    21097.313   -14512.631    76.680846 
   16100    2122.9647   -163.68554     1.920903   -161.76464    2424.0236    4.2440655    4.2440655    4.2440655    2424.0236   -13607.556   -19843.483    40723.109   -12138.609    15163.102   -8644.8707    76.444499 
   16200    1952.7136   -163.53901    1.7668563   -161.77215   -4757.5203    4.2518511    4.2518511    4.2518511   -4757.5203    2103.5419   -50339.866    33963.763   -19519.846    13173.554    9426.7936    76.865976 
   16300    1843.3397   -163.43872    1.6678925   -161.77083    5425.3183    4.2519564    4.2519564    4.2519564    5425.3183    54415.354   -34617.362   -3522.0366   -2137.5969    39391.581   -2896.2632    76.871684 
   16400    2026.5917   -163.60511    1.8337028   -161.77141   -21746.622    4.2578188    4.2578188    4.2578188   -21746.622   -44129.122   -23795.937    2685.1921    702.09526    31887.029     2283.216    77.190085 
   16500    2110.4389   -163.67284    1.9095695   -161.76327   -3209.8091    4.2485766    4.2485766    4.2485766   -3209.8091    30014.691   -27956.761   -11687.357   -9619.9234    20747.526   -3468.0432    76.688518 
   16600     1972.284   -163.55646     1.784564    -161.7719     8772.763    4.2503699    4.2503699    4.2503699     8772.763     41944.65   -1195.3707    -14430.99   -4856.1004    16399.841   -2669.0362    76.785668 
   16700    2237.8569   -163.80721    2.0248599   -161.78235    18167.942    4.2430462    4.2430462    4.2430462    18167.942     4924.496    32223.127    17356.202    9336.1076    20319.249    8116.1017     76.38943 
   16800     2069.546   -163.66758    1.8725687   -161.79501    16897.814    4.2406278    4.2406278    4.2406278    16897.814    34403.031   -18810.537    35100.948    16455.857    1595.0167    6661.7453    76.258889 
   16900    2097.7062   -163.69425    1.8980487    -161.7962    25072.804    4.2486419    4.2486419    4.2486419    25072.804    43337.021    32204.427   -323.03601    3997.5065    4889.2382    9598.1513    76.692055 
   17000    2476.5493   -164.02674    2.2408338   -161.78591     -8959.42    4.2623569    4.2623569    4.2623569     -8959.42   -32488.844    13697.668   -8087.0849    11125.554    13278.403    282.20659    77.437161 
   17100    2308.6675   -163.84559    2.0889308   -161.75665       -27536    4.2724955    4.2724955    4.2724955       -27536   -61169.828    6962.3699   -28400.544    8721.9277    14408.062    496.46059    77.991062 
   17200    2109.2377    -163.6298    1.9084826   -161.72132   -6898.8986    4.2631773    4.2631773    4.2631773   -6898.8986   -2163.6578   -23315.851    4782.8131    4613.5905    6473.2711    22077.537    77.481885 
   17300    2083.2804   -163.60236    1.8849959   -161.71736   -42244.923    4.2729442    4.2729442    4.2729442   -42244.923   -38327.209   -69516.558   -18891.001    193.61986    1567.3019    9709.8637     78.01564 
   17400    2077.5615    -163.5869    1.8798213   -161.70708   -14261.363    4.2628399    4.2628399    4.2628399   -14261.363   -29725.509    -42807.31    29748.731   -8779.0329    7051.1038    11698.213    77.463494 
   17500    1856.0123   -163.38727     1.679359   -161.70791    -8935.556     4.250236     4.250236     4.250236    -8935.556   -21175.222    19134.661   -24766.107   -14065.167    1592.3568    2187.5104    76.778411 
   17600    1604.9508   -163.19335    1.4521932   -161.74116   -20392.794    4.2631191    4.2631191    4.2631191   -20392.794   -35352.002   -33095.636    7269.2561   -14584.211    7860.8936    6409.8446     77.47871 
   17700    1352.9631   -162.97976    1.2241895   -161.75557   -3846.5368    4.2623557    4.2623557    4.2623557   -3846.5368   -4075.7528    9227.4221    -16691.28   -34035.751    4942.1946   -3547.8318    77.437095 
   17800    1709.7077   -163.32133    1.5469794   -161.77436   -2281.3765    4.2427665    4.2427665    4.2427665   -2281.3765   -18768.582    9213.9466    2710.5057   -28174.526     12740.06    5155.5264    76.374325 
   17900    2127.7269   -163.70403     1.925212   -161.77882    43357.773    4.2257704    4.2257704    4.2257704    43357.773     41735.07    46815.331     41522.92   -21884.271    15986.156     2676.485    75.460156 
   18000    2290.9791   -163.88079     2.072926   -161.80787     79.58223    4.2413834    4.2413834    4.2413834     79.58223    -12160.76    15484.058   -3084.5512    3096.1226    18563.981    14142.056    76.299658 
   18100    2205.3473   -163.79615    1.9954446   -161.80071   -17334.051    4.2548223    4.2548223    4.2548223   -17334.051   -6859.2125   -17582.242   -27560.699    6409.7869    17300.681    12779.632    77.027228 
   18200    2244.1199   -163.81719    2.0305269   -161.78667    25852.325    4.2403638    4.2403638    4.2403638    25852.325     28255.36    26031.822    23269.794   -1973.0403     11774.61    -7018.207    76.244644 
   18300    2190.8945   -163.77765    1.9823674   -161.79529     8668.504    4.2429162    4.2429162    4.2429162     8668.504    36096.643    17228.392   -27319.523    25623.651    151.03695   -3686.9387    76.382411 
   18400    2003.5382   -163.61099    1.8128435   -161.79815   -10697.422    4.2426079    4.2426079    4.2426079   -10697.422    14382.086   -16987.038   -29487.315    10415.265    5521.7571   -26868.038     76.36576 
   18500    1765.3826   -163.39264    1.5973553   -161.79528    20013.378    4.2486804    4.2486804    4.2486804    20013.378     48286.45    20068.965   -8315.2828    12363.511    11050.811   -4279.2535    76.694141 
   18600    2060.7517   -163.64037    1.8646115   -161.77576   -38424.258    4.2692538    4.2692538    4.2692538   -38424.258   -23008.468   -29224.211   -63040.094    4136.8685   -1531.3198   -25903.027    77.813676 
   18700     2040.579   -163.60619    1.8463588   -161.75983   -13756.382    4.2518403    4.2518403    4.2518403   -13756.382   -11342.684   -30065.264    138.80313    10528.955   -17734.614   -21887.935     76.86539 
   18800    1965.2928   -163.52803    1.7782382   -161.74979    38269.346    4.2374516    4.2374516    4.2374516    38269.346    68943.762    34968.998    10895.278     15850.97   -4305.4988   -19123.889    76.087664 
   18900    1775.3468   -163.37296    1.6063711   -161.76659   -3038.9474    4.2447776    4.2447776    4.2447776   -3038.9474    2036.2635   -7042.9746   -4110.1313    11365.837   -10891.176   -29081.707    76.482981 
   19000    1936.2052   -163.52498    1.7519191   -161.77306   -9827.8253    4.2494863    4.2494863    4.2494863   -9827.8253    5123.8818   -1373.3559   -33234.002    17394.321   -14856.025   -23493.257    76.737793 
   19100    2148.8886   -163.71922    1.9443596   -161.77486   -2510.9192    4.2551942    4.2551942    4.2551942   -2510.9192    45000.902    2529.4055   -55063.065    19151.104   -3668.4463   -27846.911    77.047428 
   19200    2359.2213   -163.90991     2.134673   -161.77523   -13452.534    4.2398279    4.2398279    4.2398279   -13452.534    25356.415   -29107.506   -36606.511    5539.6446    -3837.454   -25776.017    76.215743 
   19300    2278.3321   -163.84489    2.0614828   -161.78341    34987.316    4.2362894    4.2362894    4.2362894    34987.316    44650.291    57860.319    2451.3394     2042.937   -2783.9017   -15660.978    76.025078 
   19400    1985.5916   -163.58601     1.796605    -161.7894   -16254.507    4.2547749    4.2547749    4.2547749   -16254.507    5251.5641    -36925.48   -17089.606   -2934.7376    3112.7414    6259.6999    77.024658 
   19500    1664.4934   -163.29322    1.5060686   -161.78716    11640.752    4.2484704    4.2484704    4.2484704    11640.752    67829.056   -27691.828   -5214.9732   -18854.961    518.87643    23526.244    76.682771 
   19600    1730.8938   -163.34939    1.5661491   -161.78324     15273.56    4.2370396    4.2370396    4.2370396     15273.56    17547.416    14556.029    13717.235   -12702.727    3864.9294    18307.393    76.065475 
   19700    1918.5965   -163.52454    1.7359865   -161.78855   -8342.8608    4.2441031    4.2441031    4.2441031   -8342.8608    16396.123   -62773.656    21348.951   -22776.754    8888.1961    26593.118    76.446529 
   19800     1618.845   -163.25056    1.4647649   -161.78579   -14997.452    4.2526989    4.2526989    4.2526989   -14997.452    31267.657   -83027.368    6767.3558   -19789.814    14276.948    20502.758    76.911967 
   19900    1382.2476   -163.02275    1.2506867   -161.77206    5937.6529    4.2563194    4.2563194    4.2563194    5937.6529   -27207.472   -55433.722    100454.15   -7326.5982    8057.8305    32307.626    77.108569 
   20000    1934.1406   -163.51833    1.7500511   -161.76827   -401.80954    4.2489595    4.2489595    4.2489595   -401.80954   -4515.6293   -18894.273    22204.474   -6423.5726    10930.849    13792.112    76.709254 
   20100    2074.2657   -163.65667    1.8768392   -161.77983    13590.904    4.2427284    4.2427284    4.2427284    13590.904    16974.824   -5416.8763    29214.764    2762.1878    7543.2884   -2128.0143    76.372269 
   20200     1858.847   -163.47451    1.6819239   -161.79258    11209.645    4.2372044    4.2372044    4.2372044    11209.645    18086.115   -35305.914    50848.735     -1988.57    11641.585   -6491.4953    76.074349 
   20300    1667.9372   -163.30754    1.5091846   -161.79836    1003.6653    4.2469879    4.2469879    4.2469879    1003.6653    -36419.63   -31942.708    71373.334   -11641.731    4577.7511   -9575.9426    76.602522 
   20400    1851.8858    -163.4557    1.6756252   -161.78008   -23730.272    4.2635544    4.2635544    4.2635544   -23730.272    -16292.28   -60878.038    5979.5025    5212.0075   -368.25808    8045.2247     77.50245 
   20500    2092.6798   -163.65185    1.8935006   -161.75835   -4613.0881    4.2495445    4.2495445    4.2495445   -4613.0881   -4960.9367   -1516.8186   -7361.5089   -2119.9613    14559.244    4350.3365    76.740943 
   20600    2209.8872   -163.75461    1.9995524   -161.75506    40195.008    4.2296917    4.2296917    4.2296917    40195.008   -6523.2977    109191.83    17916.492    1387.8222   -195.55667   -1296.8103    75.670417 
   20700    2429.8447   -163.97935    2.1985746   -161.78078   -1745.4848    4.2535097    4.2535097    4.2535097   -1745.4848   -18762.034    19369.822   -5844.2427    1084.2577      17169.5   -16320.865    76.955964 
   20800    2348.1324    -163.8898    2.1246396   -161.76516   -27649.486    4.2708356    4.2708356    4.2708356   -27649.486   -46766.046     4948.702   -41131.114    3384.5244   -3288.9625    5500.6107    77.900197 
   20900    2406.3136   -163.93446    2.1772832   -161.75717    1196.6462    4.2465519    4.2465519    4.2465519    1196.6462   -4606.4521    11244.183   -3047.7928    13019.333    10184.167   -7796.4479    76.578932 
   21000    2653.5311   -164.14695    2.4009707   -161.74598    27297.406     4.225852     4.225852     4.225852    27297.406    38378.153    23891.179    19622.886    2921.8113    841.64837    4595.5957    75.464524 
   21100    2536.0738   -164.06524    2.2946928   -161.77054    16739.135    4.2431612    4.2431612    4.2431612    16739.135    27975.249    25694.667   -3452.5112    2960.1774      4067.12    4684.6853    76.395645 
   21200    2303.3802   -163.84764    2.0841468   -161.76349   -15834.553    4.2624072    4.2624072    4.2624072   -15834.553   -25359.818    -2484.536   -19659.304    2421.4113    8240.4511     4248.577    77.439903 
   21300    2346.4108   -163.87891    2.1230818   -161.75583   -20829.994    4.2529209    4.2529209    4.2529209   -20829.994   -26509.115   -19876.017   -16104.849    11500.458   -1595.9475     4600.909    76.924011 
   21400    2298.8769   -163.83161    2.0800721   -161.75153    33222.383    4.2311688    4.2311688    4.2311688    33222.383    35795.824    33446.222    30425.104   -5151.3563   -2511.4912   -1071.7597    75.749727 
   21500    2216.9314   -163.77178    2.0059261   -161.76586    29112.883    4.2356126    4.2356126    4.2356126    29112.883     16229.34    54598.621    16510.688   -3754.3866    10076.837    2023.6445    75.988645 
   21600    2259.2782    -163.8148    2.0442424   -161.77056   -24598.752    4.2639202    4.2639202    4.2639202   -24598.752   -33903.132   -29390.436   -10502.687   -980.80219   -7766.8194    4792.9854    77.522399 
   21700    1982.7126   -163.54926        1.794   -161.75526    -15041.51    4.2582173    4.2582173    4.2582173    -15041.51   -32763.621   -3652.1603   -8708.7473    6772.6439   -2160.4846    14373.754    77.211763 
   21800    1608.9124   -163.19883    1.4557777   -161.74306    17039.541     4.239135     4.239135     4.239135    17039.541   -11943.863    72265.251    -9202.766   -1937.5061    9856.3738    16141.064    76.178383 
   21900    1399.9152   -163.02738    1.2666727    -161.7607   -7891.2742    4.2505162    4.2505162    4.2505162   -7891.2742   -35641.416   -17937.582    29905.176   -2387.8314    7687.5291    19815.747    76.793599 
   22000    1115.1275   -162.77439    1.0089908    -161.7654   -4672.9427    4.2637559    4.2637559    4.2637559   -4672.9427   -36125.693    50395.183   -28288.319   -7655.2368    7786.1212   -7847.6717    77.513437 
   22100    1237.9439   -162.88408    1.1201177   -161.76396   -32487.365    4.2563833    4.2563833    4.2563833   -32487.365   -48977.308    19872.672    -68357.46      -4669.7    27508.534    5781.3089    77.112042 
   22200     1181.556   -162.83296    1.0690967   -161.76386    8710.4184    4.2362632    4.2362632    4.2362632    8710.4184   -24751.219    -8658.827    59541.301    -5854.558   -272.54976    2552.0852    76.023665 
   22300    618.28745   -162.34404   0.55943948    -161.7846    11879.639    4.2462909    4.2462909    4.2462909    11879.639   -69306.439      86222.9    18722.454   -11132.481   -15309.981    16005.418    76.564813 
   22400    402.11941   -162.13796   0.36384609   -161.77412   -33460.797     4.264973     4.264973     4.264973   -33460.797   -30913.725   -9004.2617   -60464.404   -7524.1005    10645.211   -3977.9982    77.579835 
   22500      554.078   -162.26419   0.50134142   -161.76285    15078.394    4.2440649    4.2440649    4.2440649    15078.394   -47309.418    15923.133    76621.466   -18693.718   -1500.8118     16516.74    76.444465 
   22600    729.81222   -162.42277   0.66034944   -161.76243    -5713.977     4.237315     4.237315     4.237315    -5713.977    -78170.73    38120.516    22908.283     -14070.8   -15442.685    259.52798    76.080304 
   22700      793.215   -162.48862    0.7177176    -161.7709   -11945.401    4.2454011    4.2454011    4.2454011   -11945.401   -36008.196    6345.9165   -6173.9224   -9062.4841    19343.198     12455.89    76.516691 
   22800    747.74116   -162.45474   0.67657192   -161.77817    4531.3308    4.2599057    4.2599057    4.2599057    4531.3308   -87008.133    63751.677    36850.448    4382.5688    -7563.318      808.364    77.303643 
   22900    689.07471   -162.38728   0.62348928   -161.76379   -25553.665    4.2651232    4.2651232    4.2651232   -25553.665   -66979.328    39960.527   -49642.194   -4252.8246   -14001.721   -2593.8814    77.588033 
   23000    1031.2877   -162.68389    0.9331308   -161.75076    20703.922    4.2371068    4.2371068    4.2371068    20703.922    23359.433    43807.679   -5055.3459   -3334.1674    11092.256    6444.3035    76.069091 
   23100    1373.1555   -163.00617      1.24246   -161.76371    7380.3971    4.2374312    4.2374312    4.2374312    7380.3971   -46168.687    8855.6036    59454.275    8492.8264   -2805.6643   -644.41258    76.086567 
   23200    1468.3071   -163.09725    1.3285551    -161.7687   -38934.623    4.2584404    4.2584404    4.2584404   -38934.623     -67452.6   -21338.555   -28012.715     5955.976   -22969.049   -2647.3916    77.223898 
   23300    1569.8108   -163.18136    1.4203978   -161.76096     -865.843    4.2593784    4.2593784    4.2593784     -865.843    13351.409     12723.45   -28672.388    10346.895   -13660.346    5975.6356    77.274942 
   23400     1664.983    -163.2583    1.5065116   -161.75179   -2826.9397    4.2551432    4.2551432    4.2551432   -2826.9397   -39800.075    28045.835    3273.4207    11193.177   -36890.231    20458.286    77.044661 
   23500    2014.2237   -163.56787    1.8225119   -161.74536    8986.2966    4.2394774    4.2394774    4.2394774    8986.2966      4536.81    12713.389    9708.6904    1422.2753   -19702.687    3071.7401    76.196841 
   23600     1916.268   -163.50569    1.7338795   -161.77181    15553.429     4.244595     4.244595     4.244595    15553.429      37298.3   -17091.761     26453.75   -3347.1625   -6492.9847   -5999.0171    76.473114 
   23700    2005.0949   -163.59105     1.814252    -161.7768   -25899.906     4.256631     4.256631     4.256631   -25899.906   -10312.847   -67864.665    477.79402   -2396.0142   -20274.768   -521.05113    77.125505 
   23800    2059.7112   -163.63241      1.86367   -161.76874    8769.0803    4.2378508    4.2378508    4.2378508    8769.0803    1410.0177   -32805.076    57702.299    35.303784    -2177.589    1669.9667     76.10917 
   23900    1630.3717   -163.25797    1.4751946   -161.78277    14744.439    4.2429638    4.2429638    4.2429638    14744.439    31716.678    13365.609   -848.97069   -5935.6064    10236.637    6453.9673    76.384983 
   24000    1519.9648   -163.15798    1.3752961   -161.78268   -19934.791    4.2551261    4.2551261    4.2551261   -19934.791   -26206.852   -31503.866   -2093.6555    13025.835   -8613.8025   -12569.336     77.04373 
   24100    1717.7902   -163.32987    1.5542927   -161.77558    10818.696    4.2442803    4.2442803    4.2442803    10818.696   -14617.199    -35560.54    82633.828    22306.683    10267.367    -13712.89    76.456105 
   24200    1854.1886   -163.45947    1.6777088   -161.78176   -5513.9578    4.2492018    4.2492018    4.2492018   -5513.9578    -15295.94   -22820.481    21574.548    36053.148    15828.284   -946.75321    76.722382 
   24300     2099.405   -163.67655    1.8995857   -161.77697   -14060.195    4.2466058    4.2466058    4.2466058   -14060.195    -43061.34   -33531.591    34412.346    26246.393    11138.797    366.10606     76.58185 
   24400    2120.5087    -163.6893    1.9186808   -161.77062    20480.059     4.237528     4.237528     4.237528    20480.059    15682.601    20979.902    24777.674    27988.476    5416.8883   -14467.819    76.091778 
   24500    1878.0243   -163.47222    1.6992758   -161.77295   -412.46552    4.2543842    4.2543842    4.2543842   -412.46552    -33457.46    28516.631    3703.4323    20198.674   -2718.6806    -9318.692    77.003438 
   24600    1866.6546   -163.44748    1.6889883   -161.75849   -11316.554    4.2584213    4.2584213    4.2584213   -11316.554   -59271.188   -13354.313    38675.837    25918.186    885.72903   -3898.8323     77.22286 
   24700    2499.4962   -164.01179    2.2615967   -161.75019    5756.1227    4.2399285    4.2399285    4.2399285    5756.1227   -7493.1147    3908.9971    20852.486    13997.014   -16506.385   -1355.8525    76.221166 
   24800     2549.434   -164.06124    2.3067814   -161.75446    25579.967    4.2325454    4.2325454    4.2325454    25579.967    18860.666    26661.167    31218.069   -711.93614   -6108.0473    3882.0565     75.82368 
   24900    2380.1076     -163.924    2.1535714   -161.77043    6046.6944    4.2469151    4.2469151    4.2469151    6046.6944   -25418.477    21270.496    22288.064    4298.1741   -14172.377    471.74485    76.598582 
   25000    2428.9472   -163.95863    2.1977625   -161.76087   -31104.162    4.2631402    4.2631402    4.2631402   -31104.162   -45068.729   -19255.679   -28988.079   -6621.3522   -10009.603     2585.477    77.479864 
   25100    2511.6624   -164.02869    2.2726049   -161.75609   -6015.9693    4.2452271    4.2452271    4.2452271   -6015.9693    1300.7252   -17301.345   -2047.2875    11125.029   -13231.817    1413.2887    76.507286 
   25200    2517.6906   -164.03332    2.2780593   -161.75526    27003.367     4.231594     4.231594     4.231594    27003.367    29309.115    30269.082    21431.902   -25901.566   -12205.486    10043.333    75.772563 
   25300    2502.7448    -164.0352    2.2645361   -161.77066    14391.497     4.246023     4.246023     4.246023    14391.497    14239.075    36774.802   -7839.3857    -1548.458   -11167.902    4070.6555    76.550322 
   25400    2666.3956   -164.17552    2.4126108   -161.76291   -33256.046    4.2626828    4.2626828    4.2626828   -33256.046   -46812.609   -19912.933   -33042.597   -11032.065   -17630.945    8150.2923    77.454926 
   25500    2439.0534   -163.96041    2.2069068    -161.7535     -8362.15    4.2526679    4.2526679    4.2526679     -8362.15     -4127.87    -4214.577   -16744.003   -1874.0214   -3106.1628   -681.60628    76.910281 
   25600    2396.1449     -163.916    2.1680822   -161.74792    30029.195    4.2255317    4.2255317    4.2255317    30029.195    21590.298    46236.284    22261.004   -20204.439   -16079.501    15621.267     75.44737 
   25700    2492.8743   -164.02674     2.255605   -161.77113    19669.522    4.2341336    4.2341336    4.2341336    19669.522   -5277.0757     31261.64    33024.001   -11142.134   -9193.2624    2092.6287    75.909072 
   25800    2478.8054    -164.0185    2.2428752   -161.77562   -22651.923    4.2601372    4.2601372    4.2601372   -22651.923   -44451.829    7936.1888    -31440.13   -14754.152   -4415.8585    17176.933    77.316245 
   25900    2287.8105   -163.83943    2.0700591   -161.76937    -13639.81      4.24701      4.24701      4.24701    -13639.81    -61649.51    9626.6989     11103.38   -20309.808   -11108.272    11648.542    76.603716 
   26000    2136.5486   -163.69528     1.933194   -161.76208    34499.562    4.2261467    4.2261467    4.2261467    34499.562   -28486.151    62110.548    69874.288   -17927.301   -7192.9447    12046.529    75.480315 
   26100    2364.0154   -163.92162    2.1390108   -161.78261   -2126.7553     4.242445     4.242445     4.242445   -2126.7553    2043.7927   -31339.105    22915.047    -8666.303   -3553.3055    13840.297    76.356967 
   26200    2388.0478   -163.93495    2.1607558   -161.77419   -25715.033    4.2589977    4.2589977    4.2589977   -25715.033   -32429.149   -29897.607   -14818.344   -5520.9142   -16267.557    16652.178    77.254223 
   26300    2144.7629   -163.70054    1.9406266   -161.75991    15493.845    4.2450005    4.2450005    4.2450005    15493.845   -43732.588    45372.084     44842.04    10067.329    -2915.685    6548.5079    76.495032 
   26400    2077.7388   -163.64202    1.8799817   -161.76204    3354.4451    4.2423395    4.2423395    4.2423395    3354.4451   -31268.305    44253.764   -2922.1242    10247.748   -6929.2395     19055.29    76.351268 
   26500    2253.7142   -163.80738    2.0392079   -161.76817   -2623.1847    4.2426665    4.2426665    4.2426665   -2623.1847    7009.1039     -24332.8    9454.1414    19632.935   -8864.0409   -2113.9722    76.368924 
   26600    2114.3555    -163.6862    1.9131133   -161.77308   -1318.2529    4.2435904    4.2435904    4.2435904   -1318.2529   -33611.057   -20201.579    49857.877    37632.015    549.61474    5671.4012    76.418828 
   26700    1833.8126   -163.43833    1.6592722   -161.77906   -26864.172    4.2509479    4.2509479    4.2509479   -26864.172   -76608.259   -11264.959    7280.7025    48960.006   -7815.8555    -5499.288    76.817003 
   26800    1861.8367   -163.46046     1.684629   -161.77583    20738.121    4.2355172    4.2355172    4.2355172    20738.121    23274.537    17378.273    21561.553    32843.321   -5611.4686   -7259.9671     75.98351 
   26900    2105.3069   -163.68547    1.9049259   -161.78055    37.837845    4.2393384    4.2393384    4.2393384    37.837845    -8110.971   -13165.689    21390.174    35478.929   -15679.365     -3904.85    76.189348 
   27000    2022.6973   -163.60712    1.8301791   -161.77694   -25247.075    4.2508215    4.2508215    4.2508215   -25247.075   -60670.904    -31054.87     15984.55    26850.525    -5633.698   -12606.633    76.810151 
   27100    2237.8178    -163.7958    2.0248245   -161.77097    22877.861     4.235422     4.235422     4.235422    22877.861    16679.199    13179.803    38774.582    13102.995   -17165.772   -15247.333    75.978388 
   27200    2342.9627   -163.89741    2.1199618   -161.77744    6441.2017    4.2407033    4.2407033    4.2407033    6441.2017   -10123.739    25455.229    3992.1151    203.31448   -19925.521    1144.5424    76.262964 
   27300    2268.9435   -163.83104    2.0529877   -161.77805   -30019.154    4.2514008    4.2514008    4.2514008   -30019.154   -48331.695   -35142.888   -6582.8795   -14852.104   -6163.5977   -9014.9445    76.841557 
   27400    2052.2961   -163.64174    1.8569606   -161.78478    8482.0537    4.2418058    4.2418058    4.2418058    8482.0537    20579.529    10057.416   -5190.7846    -32248.74   -19264.409     2413.922    76.322457 
   27500    1854.4212   -163.46301    1.6779193   -161.78509   -3713.0345    4.2295022    4.2295022    4.2295022   -3713.0345   -4578.4202   -13869.443    7308.7599   -44469.877    3109.1981     21636.99    75.660249 
   27600    1760.9247    -163.3895    1.5933217   -161.79618    9366.5183    4.2360076    4.2360076    4.2360076    9366.5183    -14289.12   -2926.6255      45315.3   -37202.575   -3021.6568     11381.36    76.009905 
   27700    1611.0758   -163.25733    1.4577352   -161.79959     2078.539    4.2468809    4.2468809    4.2468809     2078.539    12622.998    5277.1911   -11664.572   -9647.3578    14256.672    20006.721    76.596734 
   27800    1486.6666   -163.14311    1.3451672   -161.79794   -4539.1319    4.2418271    4.2418271    4.2418271   -4539.1319    9297.8696   -11362.136   -11553.129   -7888.6355    16000.002    17433.538    76.323605 
   27900    1222.3167   -162.90155    1.1059779   -161.79557    14112.622    4.2375841    4.2375841    4.2375841    14112.622   -734.80502    39938.664    3134.0062    5835.7656    13300.555   -6077.5158    76.094803 
   28000    1161.4432   -162.84928    1.0508982   -161.79838     -16791.9    4.2367621    4.2367621    4.2367621     -16791.9   -34127.718    11165.625   -27413.606    24688.574    36096.884    -5000.039    76.050526 
   28100    1321.5117   -162.99886    1.1957316   -161.80313    13313.274     4.242492     4.242492     4.242492    13313.274    12692.806    2123.4104    25123.606    18880.368      29121.8   -9327.4696    76.359506 
   28200    1423.5359   -163.08501    1.2880452   -161.79697    8560.6418     4.253676     4.253676     4.253676    8560.6418   -26404.444    37184.686    14901.683    13104.625    38645.133   -15682.954    76.964989 
   28300    1546.5529   -163.18304    1.3993536   -161.78369    -13505.71    4.2478437    4.2478437    4.2478437    -13505.71   -40962.202    6565.4833   -6120.4095     14256.05    50279.503   -15901.227    76.648841 
   28400    1609.0739   -163.23492    1.4559238     -161.779    14934.501    4.2349227    4.2349227    4.2349227    14934.501   -5769.7156    39841.298     10731.92    19767.789    43469.936   -13139.225    75.951516 
   28500    1650.4755   -163.28151    1.4933849   -161.78812    10131.239    4.2317047    4.2317047    4.2317047    10131.239   -37066.864    67869.565   -408.98454    7031.2614    57006.596   -1271.9749    75.778509 
   28600    1935.6238   -163.54741    1.7513931   -161.79602   -6142.7433    4.2434212    4.2434212    4.2434212   -6142.7433   -33163.235    9826.3178    4908.6873    18406.012    36715.191   -5714.0791    76.409688 
   28700    2228.4407   -163.80768      2.01634   -161.79134    1174.8637    4.2448751    4.2448751    4.2448751    1174.8637    7605.7273    25848.243   -29929.379    7849.2514    26296.938    9369.6014    76.488253 
   28800    2317.3529   -163.88216    2.0967896   -161.78537   -9067.1896    4.2347909    4.2347909    4.2347909   -9067.1896    13137.509    7286.5138   -47625.592    10099.397    7500.0295    519.86586    75.944425 
   28900    1905.6528   -163.51478    1.7242747    -161.7905   -8125.9691    4.2455648    4.2455648    4.2455648   -8125.9691   -4353.0169    22992.399   -43017.289    10713.978    11154.195   -1357.7025    76.525541 
   29000    1669.0412    -163.2991    1.5101835   -161.78892   -6813.0382    4.2399752    4.2399752    4.2399752   -6813.0382    11726.608    6549.6595   -38715.382    1549.9988   -2294.7419    19247.877    76.223685 
   29100     1635.815   -163.27048    1.4801198   -161.79036    23141.264    4.2348285    4.2348285    4.2348285    23141.264    47566.269    40772.682   -18915.159   -11304.015    2973.1277    15783.588    75.946449 
   29200    1448.2939   -163.10324    1.3104468   -161.79279   -13715.157     4.248816     4.248816     4.248816   -13715.157    27674.629   -41162.346   -27657.754    -9425.233   -4876.5156    7685.9746    76.701486 
   29300    1475.7449   -163.11943     1.335285   -161.78415   -12806.551     4.240148     4.240148     4.240148   -12806.551    16876.052    11927.028   -67222.732    188.65077   -14658.817    25169.518    76.233009 
   29400    1475.1795   -163.11688    1.3347734   -161.78211   -2902.6853    4.2429733    4.2429733    4.2429733   -2902.6853    31153.924    2412.6867   -42274.666   -7496.4228   -9118.1784    36851.332    76.385495 
   29500     1568.322   -163.20164    1.4190507   -161.78259   -8463.3911    4.2408443    4.2408443    4.2408443   -8463.3911    17741.114   -44435.548    1304.2608   -8359.9291    -29511.15    29603.308    76.270571 
   29600    1861.2012   -163.46733     1.684054   -161.78327    5506.0158    4.2339918    4.2339918    4.2339918    5506.0158    34221.588   -3246.0385   -14457.502   -13779.486   -17853.252    26972.203    75.901444 
   29700    1827.3032    -163.4405    1.6533824   -161.78712   -5789.7448    4.2537528    4.2537528    4.2537528   -5789.7448     33497.89   -35023.746   -15843.378   -13312.495   -31942.372    41150.982    76.969162 
   29800    1609.3537   -163.23554     1.456177   -161.77936   -15085.647    4.2408609    4.2408609    4.2408609   -15085.647    22194.245   -53189.909   -14261.275   -8084.5014   -24599.324    31024.302    76.271465 
   29900    1415.7214   -163.06365    1.2809745   -161.78268     18486.36    4.2233978    4.2233978    4.2233978     18486.36    65093.567   -19252.605    9618.1193   -15061.628   -21488.791    46496.366     75.33312 
   30000    1600.2017   -163.24384    1.4478961   -161.79595   -15701.882    4.2397654    4.2397654    4.2397654   -15701.882    3019.7041    -42524.75   -7600.5998    3497.3823   -28641.867    31151.975     76.21237 
   30100    1813.5443   -163.43133     1.640933   -161.79039    -10323.03    4.2438653    4.2438653    4.2438653    -10323.03    9596.2763   -48307.741    7742.3756    620.14003   -6982.2104    33777.506     76.43368 
   30200    1715.8252    -163.3443    1.5525147   -161.79178    15300.754    4.2480258    4.2480258    4.2480258    15300.754    6909.0753    -8609.019    47602.205    1696.9506   -22357.653    32054.662    76.658699 
   30300    1575.6715   -163.20831    1.4257007   -161.78261   -4977.9446    4.2432237    4.2432237    4.2432237   -4977.9446   -14233.235    5700.0976   -6400.6968    17427.394    -1329.066    16978.491    76.399021 
   30400    1550.7162   -163.17998    1.4031206   -161.77686    21941.746    4.2313124    4.2313124    4.2313124    21941.746    18665.063    6916.0499    40244.125    2957.3483   -13930.674    27778.222    75.757438 
   30500    1516.7012     -163.159    1.3723431   -161.78666   -24591.071    4.2472694    4.2472694    4.2472694   -24591.071   -31843.848   -18637.613   -23291.753    7245.7696   -10280.089    10468.497    76.617758 
   30600    1551.8251   -163.19338    1.4041239   -161.78926    1773.8406    4.2334943    4.2334943    4.2334943    1773.8406   -27635.696    34971.814   -2014.5967    4423.9839    7233.5644    3577.4469    75.874693 
   30700    1544.3957   -163.19323    1.3974017   -161.79582    21406.905    4.2338432    4.2338432    4.2338432    21406.905    24530.512   -1415.7683    41105.971   -2328.6319    10721.389   -1935.8032    75.893454 
   30800    1516.0456   -163.16169      1.37175   -161.78994   -30574.114    4.2507757    4.2507757    4.2507757   -30574.114   -25961.232   -10847.497   -54913.614    4223.6198    29831.281   -16987.446    76.807669 
   30900    1480.4333   -163.12151    1.3395271   -161.78198     23199.67    4.2366491    4.2366491    4.2366491     23199.67   -215.60897    83667.288   -13852.669   -7260.9559    25247.385   -6788.8758    76.044444 
   31000    1424.2655   -163.07584    1.2887054   -161.78714   -13406.353    4.2459583    4.2459583    4.2459583   -13406.353    11314.124   -10463.554    -41069.63    -3819.865    34831.552   -18253.212    76.546822 
   31100    1437.7196   -163.08643    1.3008789   -161.78555   -12936.797    4.2400284    4.2400284    4.2400284   -12936.797     10350.14   -14160.812    -34999.72   -12953.055    37478.285   -18765.574    76.226557 
   31200    1517.8566   -163.15108    1.3733885   -161.77769    26726.525    4.2306415    4.2306415    4.2306415    26726.525    4024.5156    75654.365    500.69584     6047.312    45308.816   -33124.226    75.721409 
   31300    1674.2604   -163.29711     1.514906   -161.78221   -25386.489    4.2543917    4.2543917    4.2543917   -25386.489    11292.757   -12385.187   -75067.037   -7685.6039    23141.339   -22553.806    77.003847 
   31400     1906.178   -163.49429    1.7247499   -161.76954    4814.0458     4.242753     4.242753     4.242753    4814.0458     11184.79    22126.644   -18869.297   -3233.9367    26773.152    -25341.56    76.373598 
   31500    2185.9978      -163.74    1.9779367   -161.76206    20360.779    4.2298866    4.2298866    4.2298866    20360.779    9635.9773    73451.316   -22004.955   -6219.4459    16452.314   -27909.372    75.680881 
   31600    2388.9438   -163.93179    2.1615665   -161.77022   -24100.792    4.2470398    4.2470398    4.2470398   -24100.792   -16462.943   -22270.549   -33568.882   -12985.577    10994.838   -20489.616    76.605332 
   31700     2596.823    -164.1143    2.3496601   -161.76464     23.22851    4.2385576    4.2385576    4.2385576     23.22851   -14075.532    12368.747    1776.4703   -1633.2667    4338.4293   -27531.014    76.147257 
   31800    2590.9788   -164.11678    2.3443721   -161.77241   -11794.022    4.2537443    4.2537443    4.2537443   -11794.022   -44979.676    35911.986   -26314.377    -2802.472     7066.946   -2104.7013    76.968696 
   31900    2527.4891   -164.05032    2.2869253    -161.7634   -19906.604    4.2469675    4.2469675    4.2469675   -19906.604   -52078.874   -4253.6376   -3387.3014   -18120.196     6513.595   -17409.625    76.601419 
   32000    2333.1154   -163.86421    2.1110518   -161.75316    15760.836     4.229361     4.229361     4.229361    15760.836   -1014.8074    21023.224    27274.091   -10983.763    10576.996    1762.6607     75.65267 
   32100    2032.3442   -163.60254    1.8389077   -161.76363   -4320.0956    4.2451582    4.2451582    4.2451582   -4320.0956   -31586.093   -22251.325    40877.131   -13467.043   -588.15442    -14443.08    76.503556 
   32200    2059.3201   -163.62066    1.8633161   -161.75735   -25643.579    4.2533983    4.2533983    4.2533983   -25643.579   -48037.009   -51328.108     22434.38    -13626.79    138.92146   -3081.5492    76.949919 
   32300    2126.4211   -163.68519    1.9240305   -161.76116   -13555.651    4.2497721    4.2497721    4.2497721   -13555.651   -30894.677   -13440.328    3668.0519   -189.55078   -3390.7597    9247.0716    76.753277 
   32400     2330.913   -163.87239    2.1090591   -161.76333    26194.202     4.227334     4.227334     4.227334    26194.202   -6383.4166    22376.088    62589.933     4218.874    1356.2406   -9725.1449    75.543948 
   32500    2186.6631   -163.75535    1.9785387   -161.77681    23203.824    4.2282306    4.2282306    4.2282306    23203.824    19925.782    21813.133    27872.557    11155.573     2596.583   -3292.5121    75.592026 
   32600    1935.9135   -163.53163    1.7516552   -161.77998    -19828.79    4.2553463    4.2553463    4.2553463    -19828.79   -37133.749   -37025.553    14672.932     13641.84   -4133.1353   -16334.764    77.055691 
   32700    2006.9848   -163.58124     1.815962   -161.76528   -20228.371    4.2446451    4.2446451    4.2446451   -20228.371    -24549.15   -50550.873     14414.91     25799.12    -2023.149   -10635.462     76.47582 
   32800    1781.5606   -163.37535    1.6119935   -161.76336    24482.902    4.2359299    4.2359299    4.2359299    24482.902    47889.224    14477.403    11082.079    29016.825     1926.344   -964.60369    76.005722 
   32900    1696.9595   -163.30784    1.5354446    -161.7724    3529.6982    4.2420636    4.2420636    4.2420636    3529.6982   -19180.839    26076.926    3693.0073    36421.246    4113.1581   -11857.554    76.336373 
   33000    1582.1542    -163.2034    1.4315664   -161.77184   -566.82654    4.2362171    4.2362171    4.2362171   -566.82654    -6411.791   -26314.219     31025.53    50533.971    1513.9752   -12001.862    76.021182 
   33100    1390.5214   -163.03566     1.258173   -161.77749   -3498.2283    4.2496137    4.2496137    4.2496137   -3498.2283   -12109.703   -15563.846    17178.864    32297.407    6198.4644   -7624.8653    76.744695 
   33200    1515.4153   -163.13528    1.3711796    -161.7641   -12586.478     4.258984     4.258984     4.258984   -12586.478   -9961.8888   -28484.685    687.14055    42164.996     12426.06   -6490.9003    77.253477 
   33300    1577.6788   -163.18449    1.4275169   -161.75697    15684.632    4.2342882    4.2342882    4.2342882    15684.632    13602.416    1748.7011    31702.779    52523.474    2166.9911    902.23577    75.917383 
   33400    1509.0734   -163.13388    1.3654413   -161.76844     2424.953    4.2292747    4.2292747    4.2292747     2424.953   -22744.143   -33053.364    63072.366    58107.838   -1057.8749   -1245.2082    75.648038 
   33500    1499.5874   -163.13647    1.3568582   -161.77961       5767.3    4.2394748    4.2394748    4.2394748       5767.3    10764.927   -43954.966    50491.939    48506.666   -3798.9494    -14068.43      76.1967 
   33600    1570.5958   -163.20286    1.4211081   -161.78175   -13681.555     4.248735     4.248735     4.248735   -13681.555   -24323.399   -21302.457    4581.1917    46897.843   -4581.4919    -6492.046      76.6971 
   33700    1709.0055   -163.32433    1.5463441   -161.77798   -23034.099    4.2495153    4.2495153    4.2495153   -23034.099   -31582.192    -41094.32    3574.2151    56921.112   -6788.5707   -1786.8807    76.739361 
   33800    1819.3433   -163.42112    1.6461801   -161.77494    18206.202    4.2288312    4.2288312    4.2288312    18206.202    2276.3109    14292.111    38050.186    48533.306     10645.27   -13449.925    75.624244 
   33900    1816.0565   -163.42703    1.6432061   -161.78382     3487.925    4.2326956    4.2326956    4.2326956     3487.925   -23325.287    7666.1111    26122.951    56133.764   -15129.236   -10439.812    75.831754 
   34000    1376.2964   -163.03178    1.2453019   -161.78648    9361.0933    4.2505144    4.2505144    4.2505144    9361.0933    15867.821    8936.8833    3278.5753    35319.945    9532.8526   -7504.2271    76.793501 
   34100     1451.878   -163.08201    1.3136897   -161.76832   -19125.887    4.2584603    4.2584603    4.2584603   -19125.887    -6220.694    -44788.34   -6368.6268    46664.268    -13905.66   -2771.6172     77.22498 
   34200      1455.68   -163.07672    1.3171299   -161.75959   -10985.245    4.2464082    4.2464082    4.2464082   -10985.245   -35660.632   -24802.897    27507.794    32243.171   -9633.2816    4149.4469    76.571157 
   34300    1544.3894   -163.14692     1.397396   -161.74953    30642.656    4.2280573    4.2280573    4.2280573    30642.656    -2000.082    13016.148    80911.901    47592.416   -15013.572   -3194.4164    75.582734 
   34400    1372.2277   -163.01716    1.2416205   -161.77554     2227.641    4.2454159    4.2454159    4.2454159     2227.641     30702.52    -46134.81    22115.214    41670.515   -7955.8116   -44.526216    76.517491 
   34500    1077.7179   -162.73729   0.97514185   -161.76215   -46423.445     4.265882     4.265882     4.265882   -46423.445   -82518.228   -42743.961   -14008.147    47329.222   -10263.463    6909.6531    77.629451 
   34600    1417.1943   -163.04952    1.2823072   -161.76721    2647.8684    4.2361106    4.2361106    4.2361106    2647.8684    21356.798   -35181.677    21768.484     50251.48   -7331.3939   -3714.9584    76.015452 
   34700    1723.7352   -163.32344    1.5596718   -161.76377    24513.216    4.2193874    4.2193874    4.2193874    24513.216   -1181.7807    28251.965    46469.462    46542.155   -842.11402   -8497.1293    75.118722 
   34800    1751.5712   -163.36812    1.5848584   -161.78326   -16774.004    4.2438279    4.2438279    4.2438279   -16774.004   -43550.519   -10091.952    3320.4593    30815.167    8144.3355   -11723.491     76.43166 
   34900    1477.0071   -163.11611     1.336427   -161.77968    1863.9371    4.2492859    4.2492859    4.2492859    1863.9371     35778.85   -48262.064    18075.025    16788.567    14229.825   -12691.357    76.726935 
   35000    1324.0929   -162.97367     1.198067    -161.7756   -21678.024    4.2487619    4.2487619    4.2487619   -21678.024    -60979.31   -43455.429    39400.666    29907.771    10621.604   -7076.4038    76.698553 
   35100    1556.1335   -163.17738    1.4080223   -161.76936   -6353.4713    4.2360629    4.2360629    4.2360629   -6353.4713   -31393.041   -17484.878    29817.505    15249.473    19746.482   -9358.7843    76.012882 
   35200    1659.8279    -163.2734    1.5018472   -161.77155    23934.231    4.2311708    4.2311708    4.2311708    23934.231    7547.9245    18151.782    46102.985    17353.767    7723.1566   -12727.634    75.749834 
   35300     1333.003   -162.98699    1.2061292   -161.78086   -28430.372    4.2542205    4.2542205    4.2542205   -28430.372   -65958.506   -16764.844   -2567.7647    12039.647    10709.368   -14466.713    76.994548 
   35400    1038.0818   -162.71604   0.93927824   -161.77676   -10952.762    4.2402052    4.2402052    4.2402052   -10952.762   -6730.5624   -30355.958    4228.2337    8106.0171    970.63549   -33309.936    76.236093 
   35500    963.50027   -162.64703   0.87179529   -161.77523    6809.5869    4.2251182    4.2251182    4.2251182    6809.5869    958.51065   -40758.493    60228.744   -6818.8498   -8112.2894   -27076.255     75.42522 
   35600    974.53234   -162.67316   0.88177734   -161.79138   -20333.747    4.2365073    4.2365073    4.2365073   -20333.747    -39856.42   -18521.159   -2623.6612   -29199.141    5328.4052   -19905.155     76.03681 
   35700    1193.5625   -162.87745    1.0799604   -161.79749    16086.041    4.2385793    4.2385793    4.2385793    16086.041    30813.772   -29524.434    46968.786   -38480.504   -3573.7237   -26964.842    76.148427 
   35800    1153.0347   -162.83803    1.0432901   -161.79474   -41222.672    4.2492517    4.2492517    4.2492517   -41222.672    -42496.94   -66558.366   -14612.709   -45441.975   -2191.9465   -16543.783    76.725085 
   35900    1045.8789    -162.7323   0.94633322   -161.78596   -7231.3751    4.2386448    4.2386448    4.2386448   -7231.3751   -9236.9923   -17656.883    5199.7502    -52841.13    2586.7951   -20135.155    76.151956 
   36000    821.73279    -162.5253    0.7435211   -161.78178    11327.577    4.2269612    4.2269612    4.2269612    11327.577    37554.586   -53123.503    49551.648   -52564.425   -9586.9115    8252.1435    75.523967 
   36100    795.05992   -162.50846   0.71938692   -161.78907   -15900.891    4.2471921    4.2471921    4.2471921   -15900.891   -29887.384   -37377.024    19561.737   -40502.435   -925.30272    1134.1491    76.613572 
   36200    1049.2714   -162.72608   0.94940283   -161.77668   -5695.7675    4.2543934    4.2543934    4.2543934   -5695.7675    17938.538   -40437.134     5411.293   -47903.463   -5539.7001    20092.799    77.003941 
   36300    855.28389   -162.54159   0.77387883   -161.76771    4473.8815    4.2409005    4.2409005    4.2409005    4473.8815    33115.539   -45630.543    25936.649   -54573.441   -7807.7496    35236.464    76.273599 
   36400    495.45212   -162.22201   0.44829549   -161.77372   -3333.6162    4.2369388    4.2369388    4.2369388   -3333.6162   -21207.248    -38180.99    49387.389   -54113.792   -4943.5537    35980.367    76.060047 
   36500    563.42527   -162.29527   0.50979902   -161.78547   -19253.802    4.2361951    4.2361951    4.2361951   -19253.802    52229.132   -96717.861   -13272.678   -54327.741   -3575.7835    55035.744    76.019998 
   36600    690.44855   -162.42141   0.62473236   -161.79668   -5613.2667    4.2400046    4.2400046    4.2400046   -5613.2667    50547.681   -67908.924    521.44251   -60143.047    3358.7071    44430.058    76.225273 
   36700    582.14687   -162.32575   0.52673872   -161.79901   -22887.952    4.2447578    4.2447578    4.2447578   -22887.952   -27049.806   -80770.506    39156.456   -58087.261     5612.253    39501.961    76.481915 
   36800     594.3816   -162.33227   0.53780897   -161.79446    24227.001     4.234318     4.234318     4.234318    24227.001    61682.383   -5188.0144    16186.635   -48708.695    6314.7509    50941.238    75.918989 
   36900    606.65675   -162.34324   0.54891578   -161.79433   -15423.171     4.243998     4.243998     4.243998   -15423.171    24397.036   -83052.331    12385.782   -49517.814    2621.0728    55338.581    76.440851 
   37000     686.2457   -162.40778   0.62092953   -161.78685   -13169.745    4.2401349    4.2401349    4.2401349   -13169.745      14418.2   -75394.518    21467.082   -51223.892   -935.66098    19894.642    76.232299 
   37100    800.29863   -162.51338   0.72412702   -161.78925    12831.892    4.2353141    4.2353141    4.2353141    12831.892    43873.229   -7231.3661    1853.8138   -51464.204   -2282.6187    26406.017    75.972579 
   37200    943.16669   -162.64396   0.85339704   -161.79056   -6438.9226    4.2501428    4.2501428    4.2501428   -6438.9226    10691.132   -60959.741    30951.841   -37862.417   -4822.6532    18089.454    76.773364 
   37300    1043.5405   -162.71431    0.9442174   -161.77009    197.64513    4.2540744    4.2540744    4.2540744    197.64513   -7168.5484   -18426.078    26187.561   -45643.254    1201.5862   -707.75198     76.98662 
   37400    883.41693   -162.56177    0.7993342   -161.76243   -1359.6539    4.2534011    4.2534011    4.2534011   -1359.6539    43591.542   -91099.561    43429.058   -52300.787   -683.03851   -6222.2752     76.95007 
   37500    855.26428   -162.54048   0.77386109   -161.76662    9786.9563    4.2382536    4.2382536    4.2382536    9786.9563    8989.4888   -26725.584    47096.965   -39808.857   -2536.9296   -21538.845    76.130877 
   37600    809.92368   -162.51165   0.73283597   -161.77881    7293.1695    4.2254285    4.2254285    4.2254285    7293.1695    55224.179   -71129.739    37785.069   -51832.947    5512.2542   -29094.739    75.441839 
   37700    651.72464   -162.39349   0.58969415    -161.8038   -14913.667    4.2376418    4.2376418    4.2376418   -14913.667   -1241.6376   -82240.549    38741.184   -44111.031   -3289.0673   -25928.158    76.097912 
   37800    637.11259   -162.38299   0.57647286   -161.80651   -12554.547    4.2438566    4.2438566    4.2438566   -12554.547    4227.2959   -58581.863    16690.927    -40430.18   -3043.0127   -30979.237    76.433211 
   37900    832.36971   -162.55458    0.7531456   -161.80143       170.88    4.2331168    4.2331168    4.2331168       170.88    57774.089   -80396.985    23135.535   -51843.787    2416.0979   -42758.054    75.854398 
   38000    950.39951   -162.66021   0.85994145   -161.80027    11519.225    4.2311952    4.2311952    4.2311952    11519.225   -7507.7066   -8122.3797    50187.762   -56641.639   -237.53644   -32095.017    75.751142 
   38100    1047.3945   -162.74923   0.94770453   -161.80153   -11612.637    4.2389259    4.2389259    4.2389259   -11612.637    9514.0408    -58470.09    14118.138    -53309.29   -9238.6344   -20070.952    76.167108 
   38200    1072.3501   -162.76356   0.97028494   -161.79328    6713.5888     4.243722     4.243722     4.243722    6713.5888    37716.658   -12750.355   -4825.5367   -54298.152    240.44686   -15606.596    76.425936 
   38300    1008.2268   -162.69884   0.91226476   -161.78657    -25699.13    4.2452444    4.2452444    4.2452444    -25699.13   -23888.964   -43558.739   -9649.6887   -63474.673    9452.0958    4679.1192    76.508217 
   38400    1070.3128   -162.75705    0.9684415    -161.7886    3442.7488    4.2265239    4.2265239    4.2265239    3442.7488    22478.931   -38968.672    26817.988   -66728.559    3475.0537     21270.58    75.500527 
   38500    1114.2833   -162.80642     1.008227   -161.79819    19498.716    4.2274886    4.2274886    4.2274886    19498.716    31279.487   -13051.341        40268   -52448.104    4158.4802    34140.073    75.552236 
   38600    1019.1858   -162.72012   0.92218071   -161.79794   -35625.854    4.2500157    4.2500157    4.2500157   -35625.854   -19094.998   -72146.747   -15635.816   -56705.182    6875.9329     28667.13    76.766477 
   38700     832.3645   -162.54853   0.75314089   -161.79539    19946.829    4.2386749    4.2386749    4.2386749    19946.829    5800.9167    -22283.92    76323.491     -50837.9     140.2646    25151.154    76.153579 
   38800    690.29505   -162.41486   0.62459347   -161.79027   -4772.7303    4.2332739    4.2332739    4.2332739   -4772.7303     8725.728   -71221.714    48177.795   -48423.737    6699.2519    33816.536    75.862839 
   38900    678.05646   -162.40918   0.61351974   -161.79566   -2522.0861    4.2334102    4.2334102    4.2334102   -2522.0861    18547.943    -53212.71    27098.508    -30154.17   -10038.025    20440.659    75.870171 
   39000    984.00348    -162.6881   0.89034703   -161.79775    7299.5096    4.2349946    4.2349946    4.2349946    7299.5096   -32245.435   -23932.207    78076.171   -32718.675    10238.702    19551.511    75.955385 
   39100    1266.4374   -162.94308    1.1458992   -161.79718   -11335.919      4.24552      4.24552      4.24552   -11335.919   -50150.978   -30041.842    46185.064   -34957.879    3012.1173    1887.7004    76.523121 
   39200    1198.6253    -162.8819    1.0845413   -161.79736    3835.7827    4.2339858    4.2339858    4.2339858    3835.7827   -20813.174    6521.4913    25799.031   -32066.169    13357.035   -10090.854    75.901122 
   39300    950.10133    -162.6553   0.85967165   -161.79563   -260.41714    4.2253634    4.2253634    4.2253634   -260.41714   -44852.495    5020.0553    39051.188   -24757.334    5381.6749   -10671.645    75.438353 
   39400    868.43104   -162.58568   0.78577466    -161.7999   -20201.192    4.2429014    4.2429014    4.2429014   -20201.192   -30242.869   -17481.449   -12879.256    -17434.58    22154.772   -16103.075    76.381611 
   39500      1053.39   -162.74599   0.95312941   -161.79286   -9034.1939    4.2446854    4.2446854    4.2446854   -9034.1939   -11735.778   -25923.736    10556.932    4702.0148    15249.136   -15951.082    76.478002 
   39600    1179.9436   -162.85046    1.0676378   -161.78282    7699.5385    4.2363782    4.2363782    4.2363782    7699.5385    3814.5292   -18845.815    38129.902    12658.732    15685.352   -23045.728    76.029855 
   39700    1137.6175   -162.81358    1.0293402   -161.78424   -11151.819    4.2425553    4.2425553    4.2425553   -11151.819    -19298.48   -5669.4305   -8487.5469    18787.346    23399.845   -13140.008    76.362919 
   39800    1052.8473   -162.73333    0.9526384   -161.78069   -10971.479    4.2398227    4.2398227    4.2398227   -10971.479   -15045.088   -21673.848    3804.4981    45158.904    10825.952   -25624.672    76.215462 
   39900    856.61806   -162.55892   0.77508602   -161.78384    9278.7986     4.243217     4.243217     4.243217    9278.7986    5192.4641     30715.88   -8071.9479    34475.767    12664.182    -27197.29    76.398659 
   40000    669.35161   -162.38853   0.60564341   -161.78289   -39683.015    4.2469297    4.2469297    4.2469297   -39683.015   -9871.1483   -43405.897       -65772    38511.765    13401.789   -9902.4273    76.599372 
   40100    931.01348   -162.62052   0.84240056   -161.77812    20728.998    4.2234321    4.2234321    4.2234321    20728.998    37878.781    41649.074   -17340.862    34770.055    15246.021   -21534.182    75.334958 
   40200    1128.8165   -162.81675    1.0213769   -161.79537   -3446.9646     4.237757     4.237757     4.237757   -3446.9646   -746.42955   -10755.766    1161.3017    32088.311    844.18338   -10168.322    76.104118 
   40300     1170.093   -162.83885    1.0587247   -161.78013   -30836.208    4.2502881    4.2502881    4.2502881   -30836.208   -8104.8174    -28572.62   -55831.187    29895.656     11929.08    10257.963    76.781235 
   40400    1224.2117   -162.88017    1.1076925   -161.77248    11658.439    4.2351812    4.2351812    4.2351812    11658.439    36584.922    37391.347   -39000.951    15844.619    1041.2318   -4067.4916    75.965428 
   40500    1173.6301    -162.8392    1.0619252   -161.77727   -8377.3551    4.2360772    4.2360772    4.2360772   -8377.3551    25903.518   -39956.495   -11079.089    18124.952    1280.0772      1152.27    76.013651 
   40600    1216.1885    -162.8823    1.1004329   -161.78187   -341.58324    4.2331923    4.2331923    4.2331923   -341.58324     42162.52   -4018.2042   -39169.066    279.74604   -3207.0769    14907.911    75.858453 
   40700    1232.1182   -162.90563    1.1148464   -161.79078   -63.325046    4.2422696    4.2422696    4.2422696   -63.325046    45696.201    1940.0503   -47826.227   -421.91346    -20274.43    9898.9285    76.347494 
   40800    1241.4812   -162.90396    1.1233182   -161.78064   -22736.628    4.2475237    4.2475237    4.2475237   -22736.628   -7911.4433    -53776.38    -6522.062   -7898.8818   -6215.9121    6494.0652     76.63152 
   40900    1404.0579   -163.03983    1.2704211   -161.76941    19771.619    4.2283469    4.2283469    4.2283469    19771.619    51234.266    17693.491   -9612.9018   -6241.4003   -22687.734    6954.0546    75.598265 
   41000    1446.4728    -163.0842     1.308799   -161.77541   -14079.466    4.2424542    4.2424542    4.2424542   -14079.466    28627.927   -29638.124   -41228.202   -5358.2114   -5308.6327     23497.57    76.357461 
   41100    1548.3957   -163.16084     1.401021   -161.75982   -23118.155    4.2535841    4.2535841    4.2535841   -23118.155   -23335.888   -39569.775   -6448.8016     3427.588   -6230.4406    13181.992    76.960001 
   41200    1928.2626   -163.49643    1.7447325    -161.7517    6894.8437    4.2392064    4.2392064    4.2392064    6894.8437    23216.953    19402.645   -21935.067    11627.216   -18539.205    14056.484    76.182231 
   41300    2244.2548   -163.78929    2.0306489   -161.75864   -1087.4478    4.2372335    4.2372335    4.2372335   -1087.4478    -2804.578    19647.987   -20105.753      11768.7   -2152.6971    19200.857    76.075915 
   41400     2252.993   -163.80595    2.0385554    -161.7674    22594.634    4.2307039    4.2307039    4.2307039    22594.634   -10827.818    41134.796    37476.925    13605.953    915.91597   -2452.3454    75.724758 
   41500    2238.2169   -163.80706    2.0251857   -161.78187   -1728.8523    4.2414404    4.2414404    4.2414404   -1728.8523   -6688.9834     30568.78   -29066.353    25723.767    8661.5189   -948.57198    76.302737 
   41600     2389.455   -163.93135    2.1620291   -161.76932    -34985.72    4.2515297    4.2515297    4.2515297    -34985.72   -31129.383   -20836.835   -52990.943    28614.169    10357.039   -10074.948    76.848547 
   41700    2448.9903   -163.98151    2.2158979   -161.76561    18357.772    4.2280709    4.2280709    4.2280709    18357.772        13164    44302.259   -2392.9425    39149.367    3892.4259    -5661.189    75.583462 
   41800    2522.1692   -164.05589    2.2821117   -161.77378    19861.199    4.2261903    4.2261903    4.2261903    19861.199    32140.427    39233.388   -11790.218    37052.935    4255.8215    471.54016    75.482651 
   41900    2550.1997    -164.0882    2.3074743   -161.78073   -15999.866     4.243696     4.243696     4.243696   -15999.866   -13417.586   -19085.991   -15496.022    28859.774   -3302.4435    2931.5217    76.424534 
   42000    2292.4581   -163.85139    2.0742642   -161.77713   -2621.7244    4.2473415    4.2473415    4.2473415   -2621.7244    8111.1414     20483.25   -36459.565    34556.201    7325.6612    27612.049    76.621656 
   42100    2265.7205   -163.81933    2.0500715   -161.76925   -14482.214    4.2387982    4.2387982    4.2387982   -14482.214    24492.247   -31784.814   -36154.076    24121.476   -7895.6518     49392.88    76.160225 
   42200    2280.2026   -163.82871    2.0631753   -161.76553    8637.7018    4.2345539    4.2345539    4.2345539    8637.7018    28918.067    5467.2596   -8472.2214    25578.536    4316.7427    52795.376    75.931676 
   42300    1990.1061   -163.57104    1.8006898   -161.77036   -15836.196     4.245225     4.245225     4.245225   -15836.196    17503.417   -2733.0857   -62278.918    26587.036    2568.3398    45294.521    76.507169 
   42400    2020.1539   -163.59499    1.8278777   -161.76711   -15586.537    4.2428941    4.2428941    4.2428941   -15586.537    9166.8692   -28968.189    -26958.29    27400.704   -4067.4622    39459.894    76.381219 
   42500    2089.1518   -163.65207    1.8903084   -161.76177    21111.869    4.2280948    4.2280948    4.2280948    21111.869    40776.959    17328.541    5230.1076    30515.108    3303.8514    34952.135    75.584745 
   42600    2134.6872   -163.70567    1.9315098   -161.77416   -3439.0906    4.2393562    4.2393562    4.2393562   -3439.0906    30392.636   -13433.904   -27276.004    31329.369   -9681.8715    21428.652    76.190308 
   42700    2414.7695   -163.95978    2.1849342   -161.77484    7868.6194    4.2358911    4.2358911    4.2358911    7868.6194    26618.074    5006.0702   -8018.2862    30312.483    4956.2115    14035.196    76.003635 
   42800     2292.684   -163.85251    2.0744687   -161.77805    7137.7517    4.2365597    4.2365597    4.2365597    7137.7517    33139.005     11655.36    -23381.11    29741.381    949.13325      1598.06    76.039631 
   42900    2275.6878   -163.83473    2.0590901   -161.77564   -9343.2248    4.2456422    4.2456422    4.2456422   -9343.2248    25342.394   -1128.5967   -52243.471    36492.369   -3044.3328    8747.3462    76.529729 
   43000      2653.78   -164.17411    2.4011959   -161.77291    1584.3617    4.2321818    4.2321818    4.2321818    1584.3617    10784.329    3872.8245   -9904.0683    36620.291    529.21753    2802.6704    75.804142 
   43100    2544.2904   -164.08228    2.3021274   -161.78016    26857.165    4.2284882    4.2284882    4.2284882    26857.165    22904.195    48272.772    9394.5274    50339.841   -5217.4647   -10153.155    75.605844 
   43200    2778.5234    -164.2992    2.5140664   -161.78513   -3976.7641    4.2418576    4.2418576    4.2418576   -3976.7641   -6127.3552    16383.435   -22186.372     43596.67    2029.6497     -7933.58    76.325254 
   43300    2568.6157   -164.09907    2.3241375   -161.77493   -18329.158     4.252341     4.252341     4.252341   -18329.158   -40559.942    36434.395   -50861.926     38629.99   -5102.5702    -23284.87    76.892548 
   43400    2517.5408   -164.04268    2.2779239   -161.76476   -5575.2821    4.2387394    4.2387394    4.2387394   -5575.2821   -16227.854    40405.304   -40903.296    34982.733   -2499.7517   -19930.371    76.157056 
   43500    2598.2442   -164.11574    2.3509459   -161.76479    13662.935     4.226995     4.226995     4.226995    13662.935     12206.38    50098.926     -21316.5    28301.518   -374.70429   -16084.943    75.525774 
   43600    2373.8912   -163.92614    2.1479466   -161.77819    12357.831    4.2327803    4.2327803    4.2327803    12357.831     16181.56    37049.483   -16157.549    27563.163   -5627.7912   -11710.347    75.836306 
   43700    2354.9319   -163.90936    2.1307919   -161.77857   -22303.802    4.2488705    4.2488705    4.2488705   -22303.802   -13599.579   -74.330273   -53237.497    22012.326   -7077.1418   -2972.4565    76.704437 
   43800    2222.1417   -163.77782    2.0106405   -161.76718   -11146.914    4.2441919    4.2441919    4.2441919   -11146.914   -6491.5233    7250.8879   -34200.105     22311.54   -3346.9398    3240.3661    76.451331 
   43900     2101.391   -163.66254    1.9013827   -161.76115     15570.06    4.2325947    4.2325947    4.2325947     15570.06    21794.094    38843.389   -13927.302    16488.061   -5611.1054    15491.183     75.82633 
   44000    2130.7027   -163.69535    1.9279046   -161.76744    3311.3045    4.2350611    4.2350611    4.2350611    3311.3045     35287.29    1578.7525   -26932.129    7245.3203   -7924.8494    28756.083    75.958965 
   44100    1997.3314   -163.58003    1.8072274    -161.7728    3291.8968    4.2432159    4.2432159    4.2432159    3291.8968    67736.892   -20114.096   -37747.106    17831.142   -8522.0056     25887.77    76.398598 
   44200    2038.9245   -163.61447    1.8448618    -161.7696   -5062.3411     4.252105     4.252105     4.252105   -5062.3411   -21444.227   -7970.0133    14227.217    12555.927   -9915.9617    22888.286    76.879748 
   44300    1935.0585   -163.51122    1.7508816   -161.76034   -10198.377    4.2464736    4.2464736    4.2464736   -10198.377   -29448.181   -14484.185    13337.234   -1714.4183    2705.5954    21720.443    76.574697 
   44400    1724.5696   -163.31281    1.5604269   -161.75238    1226.2736    4.2374131    4.2374131    4.2374131    1226.2736   -25993.207    5794.5201    23877.508   -19338.963   -1189.0997    2962.4427    76.085589 
   44500    1460.8489   -163.08304    1.3218068   -161.76124   -5964.1339    4.2450394    4.2450394    4.2450394   -5964.1339   -6201.4936   -16998.849    5307.9407   -29213.973    3157.2156    17509.429    76.497135 
   44600    1531.2168   -163.14279    1.3854771   -161.75731   -38497.099      4.25454      4.25454      4.25454   -38497.099   -49060.823   -66523.364    92.889276   -53686.659   -4116.3339    1088.4141      77.0119 
   44700    1528.5977   -163.14696    1.3831073   -161.76385    10695.866    4.2351951    4.2351951    4.2351951    10695.866    12179.588   -19976.127    39884.137   -47922.718     6229.669    11386.378    75.966176 
   44800    1389.1409   -163.02709    1.2569239   -161.77017     8452.041    4.2265693    4.2265693    4.2265693     8452.041   -1911.9282     -24377.7    51645.751   -46568.606    1984.4878   -10687.351    75.502962 
   44900    1204.6287   -162.87371    1.0899734   -161.78373   -14017.466    4.2383298    4.2383298    4.2383298   -14017.466   -15774.806   -68410.514    42132.923    -51166.19    13809.664   -150.95877     76.13498 
   45000    947.61013   -162.64514   0.85741756   -161.78773   -10325.802    4.2459022    4.2459022    4.2459022   -10325.802    12195.865   -84764.906    41591.635    -47391.04   -2037.7373   -4782.8627     76.54379 
   45100     998.3089   -162.68824   0.90329088   -161.78495    -13388.92    4.2409194    4.2409194    4.2409194    -13388.92   -32592.882   -65841.368     58267.49   -55546.651    13156.106   -2572.4157    76.274622 
   45200    1136.9201   -162.80726    1.0287092   -161.77855    18506.737    4.2313282    4.2313282    4.2313282    18506.737    34553.769   -58339.946    79306.388   -72024.172    9138.9069   -5326.6244    75.758285 
   45300    1210.0568   -162.87556    1.0948848   -161.78067   -20078.309    4.2399744    4.2399744    4.2399744   -20078.309   -59090.754     -80146.3    79002.127   -91771.341    470.16028    3459.5735    76.223642 
   45400    1100.4404   -162.77271   0.99570159   -161.77701    20001.909    4.2359123    4.2359123    4.2359123    20001.909    37012.459    -38731.51    61724.778   -82410.886   -9530.9965   -5529.7996    76.004777 
   45500    1137.6161   -162.80797     1.029339   -161.77863   -17111.802    4.2432937    4.2432937    4.2432937   -17111.802   -38713.804   -43089.439    30467.837   -97852.773   -7595.8707    5095.7627      76.4028 
   45600    1217.2849   -162.87604     1.101425   -161.77462   -19429.774    4.2410161    4.2410161    4.2410161   -19429.774   -42343.967   -42946.873    27001.518      -101196   -2913.9324   -5898.4321    76.279839 
   45700     1100.908   -162.76946    0.9961247   -161.77333    12343.048    4.2320548    4.2320548    4.2320548    12343.048   -17501.298    23035.914    31494.529    -96952.95   -20617.223   -1214.2616    75.797319 
   45800      943.178   -162.63327   0.85340727   -161.77987   -31340.814    4.2431488    4.2431488    4.2431488   -31340.814   -79297.559   -58486.286    43761.403   -109787.47   -8812.6784    8823.4149    76.394972 
   45900    896.22821   -162.58647   0.81092612   -161.77554    16969.633    4.2380307    4.2380307    4.2380307    16969.633   -45123.764   -6374.2492    102406.91   -89425.757   -12138.331   -5581.8399    76.118863 
   46000    931.72573   -162.61891   0.84304502   -161.77586    12162.972    4.2477375    4.2477375    4.2477375    12162.972   -48780.394   -24399.597    109668.91   -83602.429   -790.40234   -3528.9811    76.643089 
   46100    944.25417   -162.61942   0.85438101   -161.76504   -16153.428    4.2517884    4.2517884    4.2517884   -16153.428   -82955.262   -53401.574    87896.553   -92772.352   -770.72629   -9875.2914    76.862572 
   46200    804.77698   -162.48872   0.72817913   -161.76054    27029.118    4.2298616    4.2298616    4.2298616    27029.118   -67672.797    47080.431    101679.72   -79239.355    5507.6299    4670.5781    75.679538 
   46300    693.00275   -162.40128   0.62704345   -161.77424    4779.0813    4.2322072    4.2322072    4.2322072    4779.0813   -38620.138   -20965.051    73922.433   -62875.784    11032.087   -10025.112    75.805509 
   46400    1041.9936   -162.72243    0.9428177   -161.77961   -8029.7635    4.2419836    4.2419836    4.2419836   -8029.7635   -73674.405     11214.91    38370.205    -71060.66    19207.115    4049.4767    76.332056 
   46500    1410.5533   -163.05968    1.2762982   -161.78339   -9327.0856    4.2407196    4.2407196    4.2407196   -9327.0856   -30237.946   -20758.428    23015.117   -67546.275    21143.996   -8063.0759    76.263838 
   46600    1507.0103   -163.14397    1.3635746    -161.7804    -13274.88    4.2404591    4.2404591    4.2404591    -13274.88   -26692.452   -6984.7469    -6147.441   -48933.974    30478.305   -4473.1399    76.249785 
   46700    1496.8623   -163.12479    1.3543924    -161.7704    3909.0966    4.2420941    4.2420941    4.2420941    3909.0966   -11744.038    17989.394    5481.9344   -29404.972    11033.583   -773.30241    76.338021 
   46800    1496.2606   -163.11179     1.353848   -161.75794    -4557.701    4.2474764    4.2474764    4.2474764    -4557.701   -11308.815   -26384.853    24020.565   -9599.8188    8498.4956    9657.1302     76.62896 
   46900    1863.1084   -163.43178    1.6857796     -161.746   -2818.3671    4.2479128    4.2479128    4.2479128   -2818.3671   -21757.848   -13309.486    26612.233    18672.716   -6250.1544   -9967.8939    76.652579 
   47000    2171.9468   -163.70567    1.9652231   -161.74045    5090.6428    4.2493199    4.2493199    4.2493199    5090.6428    20755.164   -7680.3737    2197.1382    29516.159    8543.1883    10256.892    76.728781 
   47100    2341.7902   -163.85846    2.1189009   -161.73956   -7492.9208    4.2449022    4.2449022    4.2449022   -7492.9208   -10270.631    10378.415   -22586.547    32634.698   -20239.133    -11590.92    76.489721 
   47200    2084.2017   -163.62595    1.8858295   -161.74012   -21030.447    4.2422745    4.2422745    4.2422745   -21030.447   -43689.934    32785.349   -52186.754    24739.935   -7933.3498    5136.1863     76.34776 
   47300    1732.3312   -163.31278    1.5674497   -161.74533   -12926.832    4.2482696    4.2482696    4.2482696   -12926.832     9184.303   -4758.6185   -43206.181    29749.741   -14976.382   -8159.8174    76.671897 
   47400    1499.7385   -163.10911    1.3569949   -161.75211   -10370.469    4.2502019    4.2502019    4.2502019   -10370.469   -27777.537    9013.9364   -12347.807    20478.378   -3827.3208    4703.8227    76.776566 
   47500    1275.6993   -162.91141    1.1542795   -161.75713    20585.011    4.2369603    4.2369603    4.2369603    20585.011   -23120.863     35637.93    49237.967    37561.321   -20329.232    491.51454    76.061199 
   47600    1189.3794   -162.84543    1.0761754   -161.76925   -4665.0141    4.2396772    4.2396772    4.2396772   -4665.0141   -29805.228   -10571.003     26381.19    54497.485   -11906.262    987.58351    76.207614 
   47700    1235.7947   -162.88547     1.118173    -161.7673   -20630.396    4.2509615    4.2509615    4.2509615   -20630.396   -57861.408     10408.62   -14438.399    49607.985   -6893.1834   -2766.4946    76.817738 
   47800    1272.6469   -162.91166    1.1515176   -161.76015   -1502.6214    4.2445076    4.2445076    4.2445076   -1502.6214   -11852.748    20695.898   -13351.014     61172.27   -8940.7527    -4622.175     76.46839 
   47900    1178.6531   -162.82425    1.0664701   -161.75778   -17179.418    4.2405469    4.2405469    4.2405469   -17179.418   -37376.382    -44719.64    30557.767    61019.048   -8759.7737   -10493.677    76.254522 
   48000     1108.352   -162.76214    1.0028602   -161.75927    5914.5925    4.2441692    4.2441692    4.2441692    5914.5925   -26735.367   -21999.905     66479.05    53232.242   -3898.6941   -1989.7535    76.450101 
   48100    1364.1789    -162.9895    1.2343378   -161.75516    12737.976    4.2513266    4.2513266    4.2513266    12737.976    1123.7414   -16297.008    53387.194    41261.933   -12685.701    7951.8367    76.837534 
   48200     1781.177   -163.36306    1.6116464   -161.75141   -6324.0585    4.2446367    4.2446367    4.2446367   -6324.0585    2858.4442   -54125.666    32295.046    31702.426    -5719.184    8760.6144     76.47537 
   48300    1909.0258    -163.4823    1.7273266   -161.75497    17034.057     4.226667     4.226667     4.226667    17034.057    31388.213   -14918.879    34632.837    10315.251    358.89786    9080.6927    75.508198 
   48400    1985.3023   -163.56697    1.7963432   -161.77063    4973.8728     4.234666     4.234666     4.234666    4973.8728    39010.275   -34835.269    10746.613   -9280.3065    2180.3331    1611.6745     75.93771 
   48500    1984.0232   -163.56413    1.7951859   -161.76894   -27896.516    4.2476587    4.2476587    4.2476587   -27896.516   -32354.262   -38817.116    -12518.17    -19783.14    14638.894   -4416.0781    76.638828 
   48600    2104.7575   -163.66455    1.9044288   -161.76013   -10661.217     4.241071     4.241071     4.241071   -10661.217   -33035.065    19559.913   -18508.499   -27455.426   -803.72146    4956.1152    76.282802 
   48700     2304.379    -163.8402    2.0850506   -161.75515   -1667.5291    4.2405238    4.2405238    4.2405238   -1667.5291    -2637.075    18330.052   -20695.564   -29137.004    291.60551    -5297.025    76.253277 
   48800    2556.7362   -164.06707    2.3133886   -161.75369   -1084.5226    4.2392908    4.2392908    4.2392908   -1084.5226   -9781.6557    19816.689   -13288.601   -25784.941   -3573.4204    13971.942     76.18678 
   48900    2456.9154   -163.97749    2.2230687   -161.75442    20700.758    4.2290573    4.2290573    4.2290573    20700.758    5899.7907    51554.005    4648.4782   -20328.334    -3556.246   -15548.769    75.636376 
   49000    2298.9674    -163.8468    2.0801541   -161.76665   -14185.534    4.2428476    4.2428476    4.2428476   -14185.534   -52275.732    39641.911   -29922.782   -14669.237   -3576.5536     8728.434    76.378706 
   49100    2237.9855   -163.79126    2.0249763   -161.76629   -1572.0904    4.2414721    4.2414721    4.2414721   -1572.0904   -9185.7324    36295.331    -31825.87   -17818.158    2881.2108   -8377.9948    76.304445 
   49200    2417.0224   -163.95126    2.1869727   -161.76428    -1321.249    4.2294592    4.2294592    4.2294592    -1321.249   -1904.4763    43120.924   -45180.195   -19968.599   -4493.1522   -2628.8096    75.657939 
   49300    2547.2216   -164.07374    2.3047797   -161.76896   -9694.9804    4.2354128    4.2354128    4.2354128   -9694.9804   -2999.9177    16800.906    -42885.93   -25857.278   -10796.369    1322.7446    75.977889 
   49400     2541.877   -164.06614    2.2999437   -161.76619     15282.55    4.2344613    4.2344613    4.2344613     15282.55    42381.664    11361.061   -7895.0765    -28957.56    -278.8955   -2872.0527    75.926699 
   49500    2506.4273   -164.03402    2.2678681   -161.76616   -14550.238    4.2469525    4.2469525    4.2469525   -14550.238   -20094.467   -5024.1998   -18532.048   -27517.957    234.83312    8325.6934    76.600608 
   49600    2536.1994   -164.05394    2.2948066   -161.75913    10914.012    4.2409268    4.2409268    4.2409268    10914.012    11698.155    10261.746    10782.135   -35288.527    8599.9431   -3587.3304    76.275018 
   49700    2506.5858   -164.02233    2.2680115   -161.75431    28008.747    4.2338936    4.2338936    4.2338936    28008.747     9433.471    21101.131     53491.64   -24881.433    -3058.999   -146.14284    75.896165 
   49800    2239.5991   -163.78323    2.0264363    -161.7568   -7875.5661    4.2504005    4.2504005    4.2504005   -7875.5661   -33272.186    -40784.23    50429.718   -19820.037    662.81634    6102.0257    76.787328 
   49900    1749.0846   -163.32621    1.5826085    -161.7436    873.57774    4.2495165    4.2495165    4.2495165    873.57774   -57401.119    33110.072     26911.78    7585.5027    2872.5313    3355.5296    76.739429 
   50000    1395.8074     -162.999    1.2629559   -161.73605   -41119.703    4.2546369    4.2546369    4.2546369   -41119.703   -110767.52   -17432.564    4840.9811    46430.253    1489.9889    8337.0961    77.017161 
   50100    1327.9637   -162.95143    1.2015695   -161.74986    -9037.322    4.2388813    4.2388813    4.2388813    -9037.322   -60953.949   -13684.188    47526.171     70786.18    907.26581   -2231.7741    76.164706 
   50200    1258.1969   -162.89268     1.138443   -161.75424     40124.93     4.221441     4.221441     4.221441     40124.93   -30098.825    46453.635    104019.98     82500.47   -3630.8633    7067.9831    75.228463 
   50300    951.71353   -162.63723    0.8611304    -161.7761   -15750.868    4.2465384    4.2465384    4.2465384   -15750.868   -72633.798   -63431.412    88812.605    85942.236    -11537.82   -465.98861    76.578205 
   50400    716.57155   -162.40895     0.648369   -161.76058    12826.452    4.2501945    4.2501945    4.2501945    12826.452   -39928.004    13912.953    64494.407    87972.311   -7306.5925    5567.3333    76.776164 
   50500     902.2321   -162.56714   0.81635856   -161.75078   -13278.626    4.2440407    4.2440407    4.2440407   -13278.626   -68516.843   -6085.9582    34766.923    101925.79   -1563.6714   -4929.7617     76.44316 
   50600    1090.4747   -162.74419   0.98668442    -161.7575   -22459.738    4.2349353    4.2349353    4.2349353   -22459.738   -56547.406   -43879.727    33047.919    106097.46   -15343.237    4990.4138    75.952196 
   50700    1126.2308   -162.78283    1.0190373   -161.76379    34123.708    4.2265975    4.2265975    4.2265975    34123.708   -6969.8922    34613.617      74727.4    98572.775   -3282.4943   -1494.7876    75.504473 
   50800    877.94404   -162.56876   0.79438222   -161.77438   -16038.063    4.2538279    4.2538279    4.2538279   -16038.063   -70123.229   -60518.009    82527.049    87792.555   -13917.167    1026.7777    76.973237 
   50900    1042.8694   -162.69379   0.94361011   -161.75018   -18491.379    4.2532263    4.2532263    4.2532263   -18491.379   -52671.613   -75831.547    73029.023    67583.528   -1744.2555   -3375.0429     76.94058 
   51000    1660.6206   -163.23594    1.5025644   -161.73338    33110.653    4.2317255    4.2317255    4.2317255    33110.653    18354.174    15169.917    65807.868    42997.782   -8755.1232    4768.8659    75.779627 
   51100    2084.7673    -163.6367    1.8863413   -161.75036   -1565.6268    4.2326329    4.2326329    4.2326329   -1565.6268    14355.206   -41566.982    22514.896    27261.518    14556.203   -8361.1989    75.828387 
   51200    2054.5587   -163.62405    1.8590079   -161.76504   -7155.5105    4.2311855    4.2311855    4.2311855   -7155.5105    4432.1224   -37303.544     11404.89    10905.121     3046.198    5713.2639    75.750619 
   51300    1919.9476   -163.50925    1.7372089   -161.77204   -14875.742    4.2434418    4.2434418    4.2434418   -14875.742   -32517.597   -2373.0306   -9736.5974   -9751.6379    1587.6633   -6673.8674    76.410803 
   51400    2173.8441   -163.72299    1.9669398   -161.75605   -24739.408     4.246606     4.246606     4.246606   -24739.408   -44581.324   -6109.2439   -23527.655    -18901.38   -5280.5641    8062.3255    76.581862 
   51500    2602.7754   -164.09885    2.3550458    -161.7438    4284.2303    4.2349099    4.2349099    4.2349099    4284.2303   -20649.965    40837.321   -7334.6655   -25882.256   -4794.8057   -5436.9353    75.950832 
   51600    2845.8105   -164.31985    2.5749491    -161.7449    3183.5015    4.2368896    4.2368896    4.2368896    3183.5015   -11829.033    44944.011   -23564.474   -27304.394   -14831.308   -4123.3502    76.057392 
   51700    2632.4565   -164.13104     2.381902   -161.74914   -6567.2297    4.2396416    4.2396416    4.2396416   -6567.2297   -30220.159    28423.687   -17905.217   -35004.739   -3575.1227   -12015.945    76.205695 
   51800     2171.287   -163.71547    1.9646261   -161.75085   -6607.3364    4.2418667    4.2418667    4.2418667   -6607.3364   -43770.894    8786.3523    15162.532   -35992.573   -12859.828    332.28212    76.325746 
   51900    2081.3361   -163.63738    1.8832367   -161.75414    2289.6492    4.2355416    4.2355416    4.2355416    2289.6492   -5217.1028   -2679.9275    14765.978   -29700.349   -1197.5745   -3020.8667    75.984821 
   52000     2202.261   -163.75398    1.9926521   -161.76132    5899.2963     4.236434     4.236434     4.236434    5899.2963    4852.1575   -15423.509     28269.24   -25383.733   -9772.2909   -76.921226    76.032859 
   52100    2181.7776   -163.73899    1.9741182   -161.76488    2510.0394    4.2414765    4.2414765    4.2414765    2510.0394    6310.8348   -31610.905    32830.188   -4226.5612   -2237.2694    4817.3789    76.304684 
   52200    1792.7214     -163.383     1.622092   -161.76091    1524.0553    4.2428698    4.2428698    4.2428698    1524.0553     15744.71   -50032.962    38860.418    20367.084    4516.3078    7890.3898    76.379904 
   52300    1269.2374   -162.90241    1.1484327   -161.75398   -2292.5496    4.2447858    4.2447858    4.2447858   -2292.5496   -7637.6425    -38645.77    39405.764     57092.89    3063.5057    6584.8635    76.483429 
   52400     1104.379   -162.75028   0.99926537   -161.75102   -18242.031    4.2410845    4.2410845    4.2410845   -18242.031   -35961.988   -62296.008    43531.902    89018.579   -554.78207    6344.5208    76.283529 
   52500    1165.0315    -162.8109     1.054145   -161.75675    2907.4393    4.2325923    4.2325923    4.2325923    2907.4393   -6089.9139   -35568.232    50380.464    103342.58   -3369.8005    2183.7614    75.826204 
   52600     1155.562    -162.8151    1.0455768   -161.76952   -1996.1569    4.2344478    4.2344478    4.2344478   -1996.1569   -25334.317   -27611.263    46957.109    102409.32    5604.5054    1220.0383    75.925971 
   52700    819.36073   -162.51501   0.74137481   -161.77364   -14220.687     4.241341     4.241341     4.241341   -14220.687   -56446.287    -16755.15    30539.376    105579.47    -13864.28    7547.8905    76.297369 
   52800    447.09977   -162.17874   0.40454527    -161.7742    4169.1882    4.2413786    4.2413786    4.2413786    4169.1882       -49170   -5510.9989    67188.563     106853.9   -4589.9918   -8643.9675    76.299399 
   52900    484.23195   -162.21234   0.43814324    -161.7742   -13363.736    4.2375223    4.2375223    4.2375223   -13363.736   -88637.961   -24145.914    72692.666    105102.39   -1694.6435   -7135.9776    76.091471 
   53000     620.8426   -162.33847   0.56175143   -161.77672    2583.3721    4.2338741    4.2338741    4.2338741    2583.3721   -42168.462   -12925.293    62843.871    94890.922   -8771.2671   -2282.8142    75.895113 
   53100    852.35838   -162.54843   0.77123177    -161.7772    1925.7473    4.2405094    4.2405094    4.2405094    1925.7473   -58087.592    -3084.365    66949.199    90880.611   -6413.6052   -511.06945    76.252503 
   53200    913.73766   -162.59632   0.82676904   -161.76955   -11743.138    4.2418691    4.2418691    4.2418691   -11743.138   -78619.903   -9648.6385    53039.128    85673.632   -2404.7404   -3349.3517    76.325872 
   53300    838.24631   -162.52506   0.75846288    -161.7666   -3280.7832     4.237912     4.237912     4.237912   -3280.7832     -34920.1   -18912.424    43990.175    64723.359   -8051.3331    -1371.951    76.112469 
   53400    1150.0046   -162.80473    1.0405483   -161.76419   -6431.4356    4.2395442    4.2395442    4.2395442   -6431.4356   -59411.559    4497.1352    35620.117    67296.431    2343.4851    508.11717    76.200443 
   53500    1442.4527   -163.07105    1.3051615   -161.76588    409.36235    4.2383024    4.2383024    4.2383024    409.36235   -16342.597   -7067.8118    24638.495    42869.065    3066.4876    8264.2736    76.133502 
   53600    1946.5422   -163.52032    1.7612723   -161.75905   -6363.9538    4.2434874    4.2434874    4.2434874   -6363.9538   -34923.238    15001.721    829.65532    27661.867    8097.8099    4186.1121    76.413266 
   53700    2157.2531   -163.70103    1.9519279    -161.7491   -13252.372    4.2421108    4.2421108    4.2421108   -13252.372   -30670.588   -16049.006    6962.4796    13375.922    5612.7357    10982.177     76.33892 
   53800    2158.5767   -163.69377    1.9531255   -161.74064   -874.57338    4.2389035    4.2389035    4.2389035   -874.57338   -14709.183    7301.6119    4783.8508    -15976.25    66.219293    5480.3703    76.165903 
   53900    2420.0507   -163.92952    2.1897127   -161.73981   -11285.764    4.2461245    4.2461245    4.2461245   -11285.764    -20821.07   -8653.1938   -4383.0276   -23328.748   -1225.7932    3132.9441    76.555811 
   54000    2697.9821   -164.17773    2.4411909   -161.73654    4810.5137    4.2385482    4.2385482    4.2385482    4810.5137    34582.683    2995.7263   -23146.868   -35341.734   -699.58601    6141.8938    76.146751 
   54100    2721.1825   -164.20308    2.4621831    -161.7409    10230.046    4.2339545    4.2339545    4.2339545    10230.046    45494.959    5606.7699   -20411.592   -38921.417    2482.1095   -3337.0097    75.899438 
   54200    2496.7821   -164.00911    2.2591409   -161.74997   -3784.5434    4.2375146    4.2375146    4.2375146   -3784.5434    10241.777    1990.6411   -23586.049   -34254.156   -1567.7343   -10314.768    76.091056 
   54300    2126.5924   -163.67988    1.9241855    -161.7557    13600.899    4.2320057    4.2320057    4.2320057    13600.899    19016.897    21552.414     233.3853   -30245.433    1155.8408   -23128.741    75.794683 
   54400    2007.6588   -163.57916    1.8165719   -161.76259   -8779.3718    4.2392664    4.2392664    4.2392664   -8779.3718    15252.411   -25945.577    -15644.95   -19745.463   -2652.6949    -25569.72    76.185468 
   54500    2133.1997   -163.69352    1.9301639   -161.76335   -10728.412    4.2391618    4.2391618    4.2391618   -10728.412    6081.1541   -12534.096   -25732.296   -11339.347    2182.0291   -31734.678    76.179827 
   54600    2183.0487   -163.74077    1.9752683    -161.7655    13456.269    4.2287564    4.2287564    4.2287564    13456.269    33396.964    6586.2202    385.62316   -1567.0321    887.77139   -28580.081    75.620231 
   54700    1895.7168   -163.48866    1.7152844   -161.77337   -4198.1278    4.2348716    4.2348716    4.2348716   -4198.1278   -1000.4702   -7330.9139   -4262.9992    11403.373    3944.7591   -23694.609     75.94877 
   54800    1468.3311   -163.10547    1.3285768    -161.7769   -9983.9899    4.2396665    4.2396665    4.2396665   -9983.9899   -32703.093    6367.6696   -3616.5457    29100.422    -3923.346   -11666.114    76.207039 
   54900    1292.3339   -162.94903    1.1693309    -161.7797   -708.55197    4.2343943    4.2343943    4.2343943   -708.55197   -30645.479    3268.1703    25251.653      48931.2    2113.4372   -2991.8858    75.923091 
   55000    1404.9428   -163.05072    1.2712218    -161.7795    4978.9696    4.2303719    4.2303719    4.2303719    4978.9696   -46470.424    23732.791    37674.542    70678.426   -838.66407    3982.7965    75.706934 
   55100    1412.2398   -163.05915    1.2778243   -161.78133   -1789.1631    4.2357452    4.2357452    4.2357452   -1789.1631   -4612.3698   -23856.753    23101.633    78788.569   -6403.1553    11108.609     75.99578 
   55200    1200.8815   -162.86394    1.0865828   -161.77736    10655.557    4.2373896    4.2373896    4.2373896    10655.557   -13504.671    21285.151    24186.191    89162.551    6198.8396     13818.88    76.084323 
   55300    999.60955   -162.68067   0.90446773   -161.77621   -18537.432    4.2383853    4.2383853    4.2383853   -18537.432   -42911.529   -54415.268    41714.502    101601.85   -7344.7559    18412.926    76.137974 
   55400    890.99071   -162.58128   0.80618711   -161.77509   -869.28928    4.2308846    4.2308846    4.2308846   -869.28928   -39844.318   -24340.406    61576.857    105659.15    5287.9428    11940.452     75.73446 
   55500    828.50813   -162.52798   0.74965157   -161.77833   -4902.3304    4.2344007    4.2344007    4.2344007   -4902.3304   -36450.877   -38373.337    60117.223    108333.46     938.4833    10879.429    75.923435 
   55600    792.49954   -162.49513   0.71707024   -161.77806   -11069.645    4.2431547    4.2431547    4.2431547   -11069.645   -23041.982   -58923.788    48756.835    112412.55    5188.0955    939.49956    76.395295 
   55700    818.20701   -162.51001    0.7403309   -161.76968    827.95247    4.2391168    4.2391168    4.2391168    827.95247   -31488.416    -26587.08    60559.353    112487.43    4395.0232   -8792.6055    76.177398 
   55800    566.09583   -162.27996   0.51221541   -161.76775    1059.6376    4.2402359    4.2402359    4.2402359    1059.6376   -7701.7313   -77481.364    88362.008    103678.26    394.70137   -14209.115    76.237745 
   55900    483.16824   -162.20197   0.43718078   -161.76479   -8116.0348    4.2419579    4.2419579    4.2419579   -8116.0348   -36915.282   -56512.865    69080.042    93768.584   -3403.3448   -18421.867    76.330668 
   56000    801.67116    -162.4888   0.72536891   -161.76343    2636.1942    4.2382532    4.2382532    4.2382532    2636.1942    7006.3933   -65221.163    66123.352    74492.163     3630.459   -21070.517     76.13085 
   56100    1352.1705   -162.98548    1.2234722   -161.76201    2767.0656    4.2379862    4.2379862    4.2379862    2767.0656   -16119.809   -18746.385     43167.39    54206.857    335.42604   -9195.5014    76.116468 
   56200    1834.9566   -163.41929    1.6603073   -161.75899    3816.6438    4.2362236    4.2362236    4.2362236    3816.6438     8950.562   -13874.277    16373.646     42497.95     1454.346   -13560.805    76.021535 
   56300    1927.0869   -163.50436    1.7436687   -161.76069    1626.8378    4.2376912    4.2376912    4.2376912    1626.8378   -14219.941    8657.2272    10443.227    21756.992    4736.4089   -4164.0569    76.100572 
   56400    1971.7686    -163.5425    1.7840977    -161.7584   -5555.7158    4.2365742    4.2365742    4.2365742   -5555.7158   -29405.514    7239.2873    5499.0796    9887.7373    6155.9701   -5457.3318    76.040408 
   56500    2215.2162   -163.76377    2.0043742    -161.7594    8762.4623    4.2334345    4.2334345    4.2334345    8762.4623    4445.6632    21027.005    814.71846   -6292.7393   -1020.9318    3305.9793    75.871477 
   56600    2715.1508   -164.21572    2.4567255   -161.75899   -7920.6099    4.2393958    4.2393958    4.2393958   -7920.6099   -18259.526    13472.507   -18974.811   -15631.002    7173.3417     5152.231     76.19244 
   56700    3104.8364   -164.56357    2.8093212   -161.75425   -436.89284    4.2355714    4.2355714    4.2355714   -436.89284   -467.09407    17224.274   -18067.858   -29316.077    2262.0348    1584.1675    75.986427 
   56800     2953.562   -164.42266     2.672445   -161.75022   -4569.5977    4.2419638    4.2419638    4.2419638   -4569.5977   -14294.849    21676.787   -21090.731   -36311.806    5393.9235    8331.4437    76.330986 
   56900    2614.1073   -164.11033    2.3652992   -161.74503    -8360.397     4.242088     4.242088     4.242088    -8360.397   -27823.189    19527.067   -16785.069   -34925.758     3961.985     1644.619    76.337691 
   57000    2450.3664    -163.9608     2.217143   -161.74366     16017.45    4.2303382    4.2303382    4.2303382     16017.45    3904.1745    38281.287    5866.8882   -30368.989   -2692.3759   -135.62469    75.705122 
   57100    2537.3372   -164.05065     2.295836   -161.75481    8276.6998    4.2380811    4.2380811    4.2380811    8276.6998    1266.3341    25009.667   -1445.9018   -23933.008    431.02817   -9665.9715    76.121578 
   57200    2496.2888   -164.01596    2.2586946   -161.75727    10057.097    4.2414776    4.2414776    4.2414776    10057.097    3625.2208    31735.974   -5189.9048   -7438.6335    -7953.965   -3192.5563     76.30474 
   57300    2029.6064   -163.59224    1.8364305   -161.75581    18023.408    4.2400441    4.2400441    4.2400441    18023.408   -8826.0946    35508.507    27387.813    8877.4384    494.56736    84.291027    76.227404 
   57400    1505.7707   -163.11284     1.362453   -161.75039   -20756.767    4.2495905    4.2495905    4.2495905   -20756.767   -63264.681   -44309.089    45303.468    32159.738    -3395.255   -9159.4701    76.743439 
   57500    1242.6622   -162.86963    1.1243869   -161.74524   -1037.4483    4.2414731    4.2414731    4.2414731   -1037.4483   -30732.514   -43190.199    70810.368    50557.292   -9238.3764   -8488.8242    76.304499 
   57600    1059.4735   -162.70729    0.9586339   -161.74866    7909.2694    4.2362362    4.2362362    4.2362362    7909.2694   -13634.915   -23822.264    61184.987    72406.633   -6702.4489   -10412.702    76.022213 
   57700    902.95228   -162.57378    0.8170102   -161.75677   -27143.029    4.2496001    4.2496001    4.2496001   -27143.029   -27210.205   -94587.474    40368.593    103915.37   -5988.9901   -5185.3567    76.743958 
   57800    677.69256   -162.37345   0.61319047   -161.76026   -607.50952    4.2419491    4.2419491    4.2419491   -607.50952   -17531.712   -49134.512    64843.695    108661.49   -3957.9386    1298.0669    76.330195 
   57900    518.36025   -162.23254   0.46902325   -161.76352    743.85665    4.2362662    4.2362662    4.2362662    743.85665   -40405.952   -45290.867    87928.389    107326.75   -10222.028    1838.1234    76.023825 
   58000    625.89232   -162.33098   0.56632053   -161.76466   -12224.122    4.2421133    4.2421133    4.2421133   -12224.122   -59762.184   -76966.686     100056.5    105099.08    4133.8157    2700.0034    76.339059 
   58100    1047.6222   -162.70622   0.94791054   -161.75831    7589.9171    4.2460336    4.2460336    4.2460336    7589.9171   -28192.307   -28564.683    79526.741     81483.63    2292.9843    12642.472    76.550896 
   58200    1324.6739    -162.9502    1.1985928   -161.75161   -5498.7939    4.2461775    4.2461775    4.2461775   -5498.7939   -44511.608   -456.57261    28471.799    69203.089    6811.0174    3088.6576    76.558678 
   58300    1467.1805    -163.0832    1.3275357   -161.75566    40.331798    4.2325572    4.2325572    4.2325572    40.331798   -22739.991   -13978.563    36839.549    61204.196    2889.7798    11029.859    75.824317 
   58400    1488.0273   -163.11314    1.3463984   -161.76675    4238.6324    4.2268553    4.2268553    4.2268553    4238.6324   -33569.934    528.18032    45757.651    52784.018    3810.7453     5270.643    75.518289 
   58500    1605.3066   -163.23344    1.4525151   -161.78093   -12068.927    4.2363405    4.2363405    4.2363405   -12068.927   -13648.805    -30479.52    7921.5459    36151.342    8500.9705   -15274.884    76.027826 
   58600    1939.1865   -163.53332    1.7546167    -161.7787   -13389.781    4.2436122    4.2436122    4.2436122   -13389.781    5394.8616   -30791.411   -14772.794    17623.006   -2500.7774   -10654.262    76.420005 
   58700    2117.0851   -163.68734    1.9155831   -161.77176     918.7008     4.238924     4.238924     4.238924     918.7008   -9776.4199    2187.5147    10345.008   -952.46644   -1266.4455   -18655.404    76.167005 
   58800    2151.9803   -163.71314     1.947157   -161.76598    7052.5252    4.2311371    4.2311371    4.2311371    7052.5252    27984.785   -3407.5871    -3419.622   -8272.9691   -3117.8283   -16192.808    75.748024 
   58900    1973.4463   -163.55307    1.7856156   -161.76745    8929.2417    4.2348525    4.2348525    4.2348525    8929.2417   -11068.289    40817.037   -2961.0228   -10781.679   -3886.5444   -15568.722     75.94774 
   59000    2038.7788   -163.60725    1.8447299   -161.76252    2236.1563    4.2427392    4.2427392    4.2427392    2236.1563   -18644.156    6483.6716    18868.953   -23763.647   -5695.2274   -4520.2049    76.372853 
   59100    2504.4904   -164.01719    2.2661156   -161.75108   -13736.625     4.246043     4.246043     4.246043   -13736.625    4270.0066    -12638.13   -32841.751   -31924.585   -5069.0535   -96.111754    76.551407 
   59200    2654.4978   -164.14226    2.4018454   -161.74042   -14577.561    4.2462806    4.2462806    4.2462806   -14577.561    7532.5135   -22446.779   -28818.417   -34134.014   -3240.7213    297.20802    76.564257 
   59300    2524.9943   -164.02054    2.2846679   -161.73588    4377.4596    4.2358044    4.2358044    4.2358044    4377.4596    10246.894   -4208.0367     7093.522   -23627.004   -11308.922    9080.3436     75.99897 
   59400    2215.1958   -163.74686    2.0043557    -161.7425   -11973.472    4.2379018    4.2379018    4.2379018   -11973.472   -9820.2772   -20732.339   -5367.8007   -2927.8783   -939.33349    7188.5161    76.111916 
   59500    1991.2115   -163.54989      1.80169    -161.7482   -11402.529    4.2467616    4.2467616    4.2467616   -11402.529   -28004.805   -6677.7241    474.94332    20000.484    2268.8346    9191.6082    76.590275 
   59600    1930.2377   -163.49884    1.7465196   -161.75232    11311.289    4.2382789    4.2382789    4.2382789    11311.289    9118.8928    13039.185    11775.789     37330.05   -1532.9462    361.71757    76.132237 
   59700     1661.212    -163.2601    1.5030995     -161.757   -26997.121    4.2404558    4.2404558    4.2404558   -26997.121   -61834.853   -39658.249    20501.737    61620.235    1697.3356   -2586.8242     76.24961 
   59800    1275.7903   -162.91832    1.1543619   -161.76396   -3527.5111     4.233912     4.233912     4.233912   -3527.5111   -66765.856    19540.159    36643.164    62869.473    161.43306    48.516896     75.89715 
   59900    895.56464      -162.58   0.81032571   -161.76968     5457.207    4.2300279    4.2300279    4.2300279     5457.207   -30898.924    1258.8047     46011.74    78771.892   -635.85342   -1440.8773    75.688462 
   60000    823.48342   -162.51979    0.7451051   -161.77468   -28016.669    4.2436732    4.2436732    4.2436732   -28016.669   -97485.896   -28882.383    42318.272    111457.98   -2193.5936   -2553.0002      76.4233 
   60100    999.89116   -162.68115   0.90472254   -161.77642   -9120.5379    4.2372893    4.2372893    4.2372893   -9120.5379   -26289.864   -38142.806    37071.056    115548.39    4845.0454   -2815.4692    76.078923 
   60200     856.9659   -162.54977   0.77540076   -161.77437    15614.129    4.2285845    4.2285845    4.2285845    15614.129    49.099389   -2635.4768    49428.765    123013.78   -12735.979   -1717.0214    75.611012 
   60300    475.33287   -162.21158   0.43009117   -161.78149   -26003.485    4.2394728    4.2394728    4.2394728   -26003.485   -51900.413   -74154.806    48044.764    132666.46   -658.86172   -1186.0385    76.196595 
   60400    307.43738   -162.05784    0.2781758   -161.77966   -16212.576    4.2373216    4.2373216    4.2373216   -16212.576   -64692.454   -51546.848    67601.576    125391.86    5017.6566   -915.78127     76.08066 
   60500    564.94418   -162.28579   0.51117336   -161.77461    7981.1284    4.2332753    4.2332753    4.2332753    7981.1284   -2589.3951   -23255.552    49788.332    118486.41   -10793.767    4009.5467    75.862916 
   60600    904.69348    -162.5936   0.81858567   -161.77501   -22432.834    4.2380573    4.2380573    4.2380573   -22432.834   -58828.564   -43585.734    35115.794    114661.12   -1944.3789    6392.2216    76.120297 
   60700    1178.8538    -162.8405    1.0666517   -161.77385    1088.0937    4.2321211    4.2321211    4.2321211    1088.0937   -3308.6386   -33356.603    39929.523    97614.247    270.84418    8200.5769    75.800883 
   60800    1286.1684    -162.9387    1.1637522   -161.77495    10923.744    4.2350914    4.2350914    4.2350914    10923.744   -26605.099    22373.059    37003.271     79187.14   -3459.9811    3804.5253    75.960597 
   60900    1383.8081   -163.02013    1.2520986   -161.76803   -24859.697    4.2423973    4.2423973    4.2423973   -24859.697   -64536.377   -30563.847    20521.132    65181.747    5480.9531   -578.74781     76.35439 
   61000    1533.2333   -163.15038    1.3873017   -161.76307   -3722.3547    4.2372524    4.2372524    4.2372524   -3722.3547   -22537.453   -10625.309    21995.697    48806.701    8253.9867   -5988.2807    76.076935 
   61100    1919.3311   -163.49891    1.7366511   -161.76226    7923.6068    4.2337601    4.2337601    4.2337601    7923.6068   -5935.7184    10256.848    19449.691      31221.2    2658.3434   -5684.2788    75.888986 
   61200    2382.0726     -163.913    2.1553494   -161.75765   -12381.062    4.2443001    4.2443001    4.2443001   -12381.062    4895.5022   -35454.842   -6583.8458    4864.3082    2740.5864   -6184.9981    76.457174 
   61300    2613.9755    -164.1039      2.36518   -161.73872   -19811.991    4.2514108    4.2514108    4.2514108   -19811.991   -38043.768   -14457.489   -6934.7175   -16400.191    658.19739   -14460.759    76.842097 
   61400    2618.8518   -164.09275    2.3695921   -161.72316    -1357.135    4.2438143    4.2438143    4.2438143    -1357.135   -29003.059    9434.4718    15497.182   -31693.501    1480.8804   -14864.553    76.430923 
   61500    2580.0712   -164.06241    2.3345026   -161.72791    7766.3015    4.2383798    4.2383798    4.2383798    7766.3015    15072.167    5803.3369    2423.4007   -36090.867    10627.679   -4236.4722    76.137674 
   61600    2788.2293   -164.26206    2.5228485   -161.73921    11541.145    4.2329979    4.2329979    4.2329979    11541.145    26255.319    13939.486   -5571.3711   -32506.485   -4301.5475   -8512.7555    75.848007 
   61700    2750.0421   -164.24061    2.4882958   -161.75232   -9981.1901    4.2418218    4.2418218    4.2418218   -9981.1901    9510.0338   -8573.6443    -30879.96   -31239.489    3176.1368   -8913.2256    76.323321 
   61800    2671.9091   -164.17208    2.4175995   -161.75448   -14543.854     4.247393     4.247393     4.247393   -14543.854   -6138.7533   -943.63478   -36549.173   -22245.031   -2391.2715   -1100.9795    76.624447 
   61900       2372.5     -163.899    2.1466879   -161.75231    18740.437    4.2284833    4.2284833    4.2284833    18740.437   -15248.032     55845.22    15624.124   -9262.6173    8664.0516    -4780.812    75.605584 
   62000     2078.877   -163.63981    1.8810116    -161.7588   -4803.5031    4.2350441    4.2350441    4.2350441   -4803.5031   -24395.022    8166.8892    1817.6232    4626.5349   -1046.3129   -2536.6104    75.958048 
   62100    1969.7143   -163.54172    1.7822389   -161.75948   -2359.2188     4.241248     4.241248     4.241248   -2359.2188    -2715.449    -5415.377    1053.1697    13092.232   -4123.4619   -448.21662     76.29235 
   62200    1836.1227   -163.42204    1.6613624   -161.76068    8330.8547    4.2354539    4.2354539    4.2354539    8330.8547   -17771.719   -3823.7989    46588.082    28316.915    1502.6975    12552.964    75.980102 
   62300    1689.7169   -163.29263    1.5288914   -161.76374   -21901.617    4.2429705    4.2429705    4.2429705   -21901.617   -44407.015   -33165.346     11867.51     52198.65   -7261.5014    2229.1381    76.385344 
   62400    1373.3872   -163.00299    1.2426696   -161.76032    17919.407    4.2346742    4.2346742    4.2346742    17919.407    1436.7068    5231.2636    47090.252    58409.031   -6699.1776    6465.2043    75.938151 
   62500    865.91348   -162.55048   0.78349671   -161.76699   -8301.7129    4.2364005    4.2364005    4.2364005   -8301.7129   -20028.101    -79392.63    74515.592    72564.555    69.869596    7801.5561    76.031058 
   62600    552.70047   -162.26997     0.500095   -161.76987   -21299.906    4.2405234    4.2405234    4.2405234   -21299.906   -13846.209   -107554.54    57501.036    94774.903   -3346.8437    3856.3375    76.253256 
   62700    599.36804   -162.31772    0.5423208    -161.7754    13398.961    4.2330562    4.2330562    4.2330562    13398.961    1560.6101   -44281.777     82918.05    98381.262   -3678.6342      5224.35     75.85114 
   62800    919.04121   -162.61391    0.8315678   -161.78234   -16121.136    4.2382629    4.2382629    4.2382629   -16121.136    -28692.86   -70064.773    50394.225    119093.09   -3938.7684    11173.641    76.131376 
   62900    966.85166   -162.65574    0.8748277   -161.78091     3839.916    4.2336483    4.2336483    4.2336483     3839.916   -7601.1674   -50222.761    69343.676    122717.77   -1861.6373   -933.07473     75.88297 
   63000    717.28063   -162.42916   0.64901059   -161.78015    1447.8367    4.2321091    4.2321091    4.2321091    1447.8367   -50653.495   -8288.1469    63285.152    118637.72   -5650.5366   -1209.7439    75.800237 
   63100    649.23901   -162.36671    0.5874451   -161.77927   -8908.9466    4.2372632    4.2372632    4.2372632   -8908.9466   -16940.138   -60319.271    50532.569    114421.89    1631.3418   -8520.7085    76.077517 
   63200    858.96577   -162.55439   0.77721028   -161.77718    -1980.775    4.2385219    4.2385219    4.2385219    -1980.775   -55081.545   -15083.651    64222.871    109218.11   -1022.8347   -6074.5481    76.145336 
   63300    1157.9801   -162.82502    1.0477648   -161.77726   -10420.838    4.2384432    4.2384432    4.2384432   -10420.838   -49414.225    -16757.78    34909.492    104732.68   -3495.6202   -12806.042    76.141094 
   63400    1069.6297   -162.74696   0.96782346   -161.77913    8828.6432    4.2327505    4.2327505    4.2327505    8828.6432   -18899.507   -2328.8568    47714.294    105285.03    2539.0983   -14356.333    75.834708 
   63500    901.69057   -162.60012   0.81586858   -161.78425    -8931.377    4.2329506    4.2329506    4.2329506    -8931.377   -55114.922   -32865.577    61186.367     96262.19    2641.5881   -2228.9593     75.84546 
   63600    894.69496   -162.58962    0.8095388   -161.78008   -12034.502    4.2406634    4.2406634    4.2406634   -12034.502   -44010.708   -48792.659     56699.86    76603.339    7162.6539   -12046.789     76.26081 
   63700     1248.942    -162.9043     1.130069   -161.77423   -14786.494    4.2463086    4.2463086    4.2463086   -14786.494   -21332.739   -41442.833     18416.09     63175.89   -1760.1267    11024.575    76.565771 
   63800    1695.3348   -163.30279    1.5339746   -161.76882   -6662.2534    4.2384845    4.2384845    4.2384845   -6662.2534   -21709.065   -11570.698    13293.002    59125.263    10198.568   -6162.3756    76.143318 
   63900    1963.5024   -163.53763    1.7766182   -161.76101    16995.194    4.2273727    4.2273727    4.2273727    16995.194    18411.944   -5754.6455    38328.285    42621.089   -4269.2949    8054.4321    75.546027 
   64000    1878.1762   -163.46756    1.6994133   -161.76814   -6675.7877    4.2414507    4.2414507    4.2414507   -6675.7877    1769.0234   -9405.1969    -12391.19    21079.235   -1471.6156    8213.3917    76.303291 
   64100     1719.831    -163.3162    1.5561392   -161.76007   -23229.447    4.2471101    4.2471101    4.2471101   -23229.447   -5077.9366    -50564.65   -14045.755    -84.60954   -8491.1964    26048.033    76.609134 
   64200     2006.937   -163.56655    1.8159188   -161.75063     12513.33    4.2364351    4.2364351    4.2364351     12513.33    21910.037    13286.387    2343.5671   -18189.996   -873.47785    24198.212    76.032919 
   64300    2369.5671   -163.89059    2.1440341   -161.74656   -1809.4112    4.2371123    4.2371123    4.2371123   -1809.4112    17052.122    2717.8802   -25198.236   -23220.401   -8159.3665    28719.534    76.069386 
   64400    2405.3806   -163.92312    2.1764389   -161.74668   -1510.2223    4.2359557    4.2359557    4.2359557   -1510.2223    16025.371    20240.317   -40796.354   -31808.972   -2398.6712    26268.422    76.007113 
   64500    2284.9091   -163.81648    2.0674338   -161.74905   -9746.3091    4.2437583    4.2437583    4.2437583   -9746.3091     22984.82   -11583.018   -40640.729   -32166.791    2873.2573     18214.33    76.427897 
   64600    2058.2438   -163.61156    1.8623423   -161.74922   -6506.4579     4.238682     4.238682     4.238682   -6506.4579    19142.152   -27748.404   -10913.121   -32350.822    -10955.88    24095.955    76.153962 
   64700     2112.429   -163.66396    1.9113702   -161.75259    4017.4543    4.2282851    4.2282851    4.2282851    4017.4543      35155.2    -4514.906   -18587.931   -26981.634    6226.5949    8284.9353    75.594951 
   64800    2356.2953   -163.89356    2.1320255   -161.76154   -9826.5009    4.2374734    4.2374734    4.2374734   -9826.5009    5121.3271   -7559.6973   -27041.133   -14792.777   -13472.682    16872.479    76.088839 
   64900    2459.6714   -163.99743    2.2255624   -161.77187    17454.829    4.2333789    4.2333789    4.2333789    17454.829    16731.569    16227.079    19405.839    -15701.55    9260.9174    -13489.65    75.868487 
   65000    2393.3469   -163.93885    2.1655506    -161.7733    1425.0804    4.2356591    4.2356591    4.2356591    1425.0804    2818.7466   -6118.7359    7575.2305    10190.086   -10681.552    1053.3805    75.991148 
   65100    1951.1323   -163.53697    1.7654255   -161.77154   -4969.8394    4.2413336    4.2413336    4.2413336   -4969.8394   -5284.2057   -42528.844    32903.532    17386.925    5726.2473   -15859.793    76.296973 
   65200    1694.2315   -163.29728    1.5329763   -161.76431    5365.4885    4.2357089    4.2357089    4.2357089    5365.4885   -28065.327   -8418.2866    52580.079    44072.513    519.54777   -7473.3806    75.993829 
   65300    1478.7229    -163.0983    1.3379796   -161.76032   -9743.5199     4.237232     4.237232     4.237232   -9743.5199   -48778.536    -29444.62    48992.596    57255.354    6406.5259   -5615.6832    76.075836 
   65400     1268.843   -162.90538    1.1480758    -161.7573    -10054.22     4.245528     4.245528     4.245528    -10054.22   -62213.179   -21679.681    53730.198    77116.817    10524.596   -7937.9345    76.523551 
   65500    1079.6835   -162.72782   0.97692031    -161.7509   -6003.5014    4.2433172    4.2433172    4.2433172   -6003.5014    -22058.63   -23986.902    28035.028    96864.396     3805.174    4797.4271    76.404072 
   65600    841.24854   -162.51562   0.76117936   -161.75444   -4033.5803    4.2374234    4.2374234    4.2374234   -4033.5803   -15797.639   -44273.669    47970.567     110928.9    12175.371    1838.1703    76.086148 
   65700     534.4109   -162.24826   0.48354621   -161.76472   -975.14157    4.2341171    4.2341171    4.2341171   -975.14157   -39010.332   -44169.896    80254.803    124543.25   -5417.4148    16244.623     75.90818 
   65800    441.83869   -162.17454   0.39978493   -161.77475     34.05356    4.2337875    4.2337875    4.2337875     34.05356   -21692.536   -31195.317    52990.014    113217.51   -4682.4326     14840.81    75.890458 
   65900    507.16856   -162.23741   0.45889677   -161.77851   -5225.1185    4.2394918    4.2394918    4.2394918   -5225.1185   -29379.494   -33087.703    46791.842    106581.12   -9682.9711    25769.575    76.197618 
   66000    849.62282   -162.54443   0.76875659   -161.77567   -6311.9607    4.2413431    4.2413431    4.2413431   -6311.9607    -22720.56   -48171.387    51956.065    99245.212    1942.0128    4021.7625    76.297483 
   66100    1059.7274   -162.72796    0.9588636    -161.7691     1209.134     4.237317     4.237317     4.237317     1209.134     1661.261   -33595.488    35561.629    91365.711   -12511.644     22132.86    76.080416 
   66200    1229.9975   -162.87877    1.1129276   -161.76584   -8308.5779    4.2369487    4.2369487    4.2369487   -8308.5779   -2644.4821   -36894.564    14613.312    68610.634    5598.5508    9747.0918    76.060575 
   66300    1353.3795   -162.98661    1.2245662   -161.76205   -11148.702    4.2406341    4.2406341    4.2406341   -11148.702   -43061.253   -13895.878    23511.026    46863.546   -2439.0434    15172.673     76.25923 
   66400     1652.129    -163.2529    1.4948811   -161.75802   -8913.7893    4.2398021    4.2398021    4.2398021   -8913.7893   -55572.082     922.1295    27908.585    30616.562    6623.6307    3468.4079    76.214354 
   66500    2112.6553   -163.66744    1.9115749   -161.75587    1704.2032    4.2363143    4.2363143    4.2363143    1704.2032   -4908.7927    1310.2811    8711.1212    9529.3307    10956.816   -2950.9629    76.026417 
   66600    2461.7958   -163.97911    2.2274846   -161.75162    9464.2579    4.2386183    4.2386183    4.2386183    9464.2579    14635.619    4740.6654    9016.4899   -7150.6117    7698.3765    -3512.826    76.150528 
   66700    2586.1114   -164.08446     2.339968   -161.74449   -9012.3781    4.2442183    4.2442183    4.2442183   -9012.3781    4049.9504   -13433.079   -17654.006   -27753.355    17718.647   -14081.815    76.452758 
   66800    2597.1573   -164.08852    2.3499625   -161.73856   -15089.387    4.2442276    4.2442276    4.2442276   -15089.387   -21667.181   -5556.2346   -18044.745   -39069.512   -4632.9183    2697.5742    76.453259 
   66900    2637.2597   -164.12481     2.386248   -161.73856    5116.7074    4.2361029    4.2361029    4.2361029    5116.7074   -9563.3996     19289.82    5623.7019   -39059.778    10778.199   -15852.809    76.015038 
   67000    2776.4856   -164.25665    2.5122225   -161.74443    8952.0453    4.2346269    4.2346269    4.2346269    8952.0453    18267.387    26570.433   -17981.684   -32588.703    -12170.95    7823.8699    75.935606 
   67100    2702.0981   -164.19879    2.4449151   -161.75388   -2048.1294       4.2389       4.2389       4.2389   -2048.1294     31579.23   -9491.1971   -28232.422   -24466.004    4099.3197   -10483.794    76.165711 
   67200     2419.544   -163.94862    2.1892543   -161.75937   -14222.526    4.2405674    4.2405674    4.2405674   -14222.526   -9462.1426    -22677.35   -10528.086    -15437.37   -506.07153    8009.6251    76.255631 
   67300    1988.1305   -163.56297    1.7989022   -161.76407    6873.9516    4.2311488    4.2311488    4.2311488    6873.9516   -3185.6903    11117.004    12690.541   -6944.3194    8337.7323    2311.7195    75.748652 
   67400    1805.4991   -163.40236    1.6336535   -161.76871    5696.2516    4.2304609    4.2304609    4.2304609    5696.2516    2453.4323   -13616.037     28251.36    7295.7345    3939.2682    18259.792    75.711712 
   67500    1778.7028    -163.3836    1.6094077   -161.77419   -7054.6933    4.2399238    4.2399238    4.2399238   -7054.6933   -17779.441   -15448.936    12064.297    15009.134     85.46568    18405.302    76.220913 
   67600     1706.438   -163.31769     1.544021   -161.77367   -265.75952    4.2379101    4.2379101    4.2379101   -265.75952    6575.5582   -17880.397     10507.56    30909.945    1642.9151     10038.89    76.112363 
   67700    1552.6669    -163.1797    1.4048856   -161.77482   -8079.9378    4.2337637    4.2337637    4.2337637   -8079.9378   -25769.642   -18450.873    19980.701    47903.014   -15813.596    18381.575    75.889177 
   67800    1183.8696   -162.85083    1.0711901   -161.77964    4450.0377    4.2329356    4.2329356    4.2329356    4450.0377   -30366.217   -3250.9929    46967.324    58108.574    711.54139   -1738.7903    75.844654 
   67900    1067.2485   -162.74741   0.96566891   -161.78174   -16870.881     4.238466     4.238466     4.238466   -16870.881   -65927.283   -6709.4241    22024.064    71639.029   -18950.185    3157.2516     76.14232 
   68000    1099.2692   -162.77489   0.99464185   -161.78025   -9270.2515    4.2371458    4.2371458    4.2371458   -9270.2515   -70937.852    6827.4571     36299.64    82028.345   -629.83156   -10160.406    76.071194 
   68100    1205.3336   -162.86895    1.0906111   -161.77834    14148.966    4.2328414    4.2328414    4.2328414    14148.966    5661.0958   -37555.615    74341.418    94715.206   -926.15303   -2325.2365     75.83959 
   68200    1075.6311   -162.75057   0.97325361   -161.77732   -6068.0561    4.2410836    4.2410836    4.2410836   -6068.0561   -45757.909   -67722.865    95276.606    104039.65    247.43189   -6338.3078     76.28348 
   68300    557.98729   -162.26931   0.50487863   -161.76443    23812.661    4.2444264    4.2444264    4.2444264    23812.661   -15372.718   -28092.376    114903.08    96897.086    35.285415   -7911.2818    76.464001 
   68400    604.51597   -162.30193   0.54697875   -161.75495   -15752.977    4.2475438    4.2475438    4.2475438   -15752.977   -58431.885   -62168.066     73341.02    103921.84    11313.836   -3359.1127    76.632604 
   68500    998.15638   -162.65819   0.90315287   -161.75504    -14412.27    4.2355721    4.2355721    4.2355721    -14412.27   -50037.799   -55227.987    62028.976    111500.16    233.99932    5448.5095    75.986464 
   68600    1323.5621   -162.96033    1.1975868   -161.76275     19823.06    4.2261228    4.2261228    4.2261228     19823.06      20945.8   -12646.412    51169.791    103084.52    4668.4983    224.32411    75.479037 
   68700    1275.5568   -162.93131    1.1541506   -161.77716   -23076.867    4.2396494    4.2396494    4.2396494   -23076.867   -32307.981   -53884.452    16961.833    93808.428    1311.4012      2360.81    76.206115 
   68800    1113.7061   -162.78375    1.0077047   -161.77604    -5137.617    4.2402176    4.2402176    4.2402176    -5137.617   -53820.849    10390.057     28017.94    67582.555   -12199.136     6452.397    76.236758 
   68900    1165.0845   -162.82738    1.0541929   -161.77319    996.27348    4.2374756    4.2374756    4.2374756    996.27348    -14002.53   -23720.502    40711.853    49911.563   -11031.774    -974.2269    76.088957 
   69000    1547.1872   -163.16887    1.3999275   -161.76895   -13091.271    4.2412773    4.2412773    4.2412773   -13091.271   -28422.068   -22796.994    11945.249    37870.512   -10403.689   -190.82099    76.293931 
   69100    2007.7704   -163.57758    1.8166728   -161.76091    8148.7488    4.2367059    4.2367059    4.2367059    8148.7488   -1552.7798     8606.236     17392.79    20101.312   -19333.234   -7522.7678    76.047501 
   69200    2050.8786   -163.61663    1.8556781   -161.76095    1766.5215    4.2403842    4.2403842    4.2403842    1766.5215      9578.46   -5780.8171    1501.9217    6481.7749   -16615.736   -12034.767    76.245749 
   69300    2025.7567    -163.5938    1.8329472   -161.76085   -5243.7557     4.238933     4.238933     4.238933   -5243.7557   -42858.668    23392.802    3734.5983    2830.4104   -9527.7242   -1023.3106    76.167494 
   69400    2235.3641   -163.78228    2.0226044   -161.75968     8508.428    4.2335116    4.2335116    4.2335116     8508.428   -32273.455    33580.649    24218.089   -13638.762   -824.00766   -3653.7932    75.875622 
   69500    2449.2683   -163.98278    2.2161494   -161.76663   -7829.3869    4.2438056    4.2438056    4.2438056   -7829.3869   -29687.686    21519.183   -15319.657   -24150.127   -398.12563   -1517.5883    76.430455 
   69600    2477.2808   -164.00761    2.2414957   -161.76612    893.62083    4.2335877    4.2335877    4.2335877    893.62083    12372.515        16896   -26587.652   -30085.934   -6021.0134    2034.9029    75.879715 
   69700    2220.8054   -163.77655    2.0094314   -161.76711     20110.99    4.2286592    4.2286592    4.2286592     20110.99    30430.433    41613.619   -11711.081   -27642.165    12527.412    5404.2917    75.615019 
   69800    2002.4489    -163.5823    1.8118578   -161.77044   -23500.698    4.2419932    4.2419932    4.2419932   -23500.698    -7821.981   -8777.8694   -53902.244   -32668.622    7531.9218    27780.932    76.332573 
   69900     2220.873   -163.77695    2.0094926   -161.76746    3574.8173    4.2330946    4.2330946    4.2330946    3574.8173    20059.893    7191.5464   -16526.987   -30924.441    19896.109    18861.708    75.853205 
   70000    2457.2017   -163.99415    2.2233277   -161.77082    7134.2826    4.2368247    4.2368247    4.2368247    7134.2826    2462.9691    14159.663    4780.2162   -29343.397    5972.4406    29955.317    76.053897 
   70100    2367.0824    -163.9104    2.1417859   -161.76861   -17848.794    4.2398219    4.2398219    4.2398219   -17848.794   -4306.0727    3910.0446   -53150.355   -35103.447    27373.594     14783.82     76.21542 
   70200    2289.3553   -163.83506    2.0714568    -161.7636    10295.586    4.2258589    4.2258589    4.2258589    10295.586    26118.742    18059.422   -13291.405   -33507.218     4583.947    17482.892    75.464894 
   70300    2146.2737   -163.71318    1.9419936   -161.77119    -9525.435     4.239225     4.239225     4.239225    -9525.435   -15421.076    14847.137   -28002.365   -31720.322    356.23799    6480.8915    76.183235 
   70400    2250.7437   -163.80354    2.0365202   -161.76702   -18969.652    4.2439227    4.2439227    4.2439227   -18969.652   -9320.9176    5227.2799   -52815.318   -29683.729   -2944.5765   -3358.5598    76.436783 
   70500    2569.6013   -164.08871    2.3250293   -161.76368    7997.1668    4.2275562    4.2275562    4.2275562    7997.1668    5806.7329    21860.138    -3675.371     -28987.4   -21466.143    4770.1431    75.555864 
   70600    2651.6195    -164.1703    2.3992411   -161.77106    5452.7111    4.2340957    4.2340957    4.2340957    5452.7111     9878.244    1102.0591    5377.8302   -18899.765   -6054.6881   -13902.034    75.907032 
   70700    2729.8243   -164.24195    2.4700024   -161.77195   -3692.9134    4.2399543    4.2399543    4.2399543   -3692.9134     14064.92     -20128.5   -5015.1607   -18505.716   -22951.899     3346.561    76.222561 
   70800    2317.2695   -163.86686    2.0967141   -161.77014   -930.43852    4.2363732    4.2363732    4.2363732   -930.43852    10588.601    1833.1904   -15213.107   -23949.073   -5186.7526   -16311.565    76.029589 
   70900    1965.7434   -163.54822    1.7786459   -161.76958   -10749.265    4.2362181    4.2362181    4.2362181   -10749.265    12809.566   -13819.722   -31237.638   -11589.867   -21956.054    5213.7801    76.021237 
   71000     1858.891   -163.45466    1.6819636   -161.77269   -383.97876    4.2316418    4.2316418    4.2316418   -383.97876    23857.899   -11720.417   -13289.418   -10674.069   -1866.3413    1889.7255     75.77513 
   71100      2038.84   -163.62068    1.8447853   -161.77589    4986.3896    4.2316205    4.2316205    4.2316205    4986.3896    35675.837     6698.602    -27415.27   -9088.9787   -4136.2511     764.8796    75.773987 
   71200    2337.8163   -163.89278    2.1153053   -161.77748   -9606.7483    4.2395511    4.2395511    4.2395511   -9606.7483    21738.203   -33793.749   -16764.699    1795.3643   -9280.5794    12330.786    76.200815 
   71300    2322.9369    -163.8787    2.1018421   -161.77686    2052.4965    4.2364864    4.2364864    4.2364864    2052.4965    9379.6472   -21290.138    18067.981    5694.4966    9454.3446    498.71733    76.035681 
   71400    2080.7054   -163.65507    1.8826659   -161.77241    8926.5698    4.2305319    4.2305319    4.2305319    8926.5698   -3848.3408    4221.6063    26406.444    8344.9759   -806.90843    12324.754     75.71552 
   71500    1848.2646   -163.44449    1.6723487   -161.77214   -4670.3659    4.2375515    4.2375515    4.2375515   -4670.3659   -32377.836    10847.284    7519.4537    10871.708    15812.816    57.787514    76.093046 
   71600    1917.8618   -163.50622    1.7353217    -161.7709   -13677.728    4.2406214    4.2406214    4.2406214   -13677.728   -30032.166   -9840.8257   -1160.1927    14490.124    80.376317    5493.1254    76.258543 
   71700    1780.4871   -163.38242    1.6110221   -161.77139   -2117.0707    4.2330227    4.2330227    4.2330227   -2117.0707   -11889.297   -12141.824    17679.908    29607.263    10883.265   -2834.3069    75.849339 
   71800    1507.4842   -163.13858    1.3640034   -161.77458    7167.9856     4.232587     4.232587     4.232587    7167.9856   -45344.526    23596.411    43252.071    46217.598    599.53872   -910.14947    75.825921 
   71900    1325.3975   -162.97781    1.1992475   -161.77856   -7550.5863    4.2371505    4.2371505    4.2371505   -7550.5863   -54697.272    -10113.65    42159.163    57431.816   -621.63349   -1648.8347    76.071448 
   72000    1261.5025   -162.92087     1.141434   -161.77944   -14218.903    4.2368249    4.2368249    4.2368249   -14218.903    -63267.57   -14514.337    35125.199    67437.756    298.22745    -4826.032    76.053912 
   72100    1235.6452   -162.89689    1.1180378   -161.77885    9572.9959    4.2316631    4.2316631    4.2316631    9572.9959    -37782.22    1279.5842    65221.624    66567.208   -9102.6163    7328.8644    75.776276 
   72200    1147.0751    -162.8187    1.0378976    -161.7808    -3043.443    4.2362038    4.2362038    4.2362038    -3043.443     24687.61   -46784.954    12967.015    59027.861    -12859.78    6636.5283    76.020467 
   72300     1011.319   -162.69694   0.91506271   -161.78188   -22533.368    4.2373839    4.2373839    4.2373839   -22533.368   -39337.812   -53100.111     24837.82    53531.188   -12681.391    4493.1147    76.084015 
   72400    929.74514   -162.62016   0.84125295    -161.7789    10259.428    4.2304423    4.2304423    4.2304423    10259.428   -19429.384     -9044.03    59251.698    37640.932   -13236.506    15837.542    75.710711 
   72500    1183.7565   -162.85236    1.0710877   -161.78127    -11628.64    4.2372825    4.2372825    4.2372825    -11628.64   -13505.399   -40888.224    19507.705    25825.878   -11927.083    15036.113    76.078556 
   72600    1493.0933   -163.13359    1.3509822   -161.78261   -11615.672    4.2338314    4.2338314    4.2338314   -11615.672   -30013.908   -34392.625    29559.515    13724.742    -11146.66    13266.111    75.892818 
   72700    1556.5497   -163.19221    1.4083989   -161.78381    16764.117    4.2292314    4.2292314    4.2292314    16764.117    14983.373    13039.479      22269.5   -8262.9047   -3933.2009    9549.9956    75.645719 
   72800    1314.2995    -162.9764    1.1892058   -161.78719   -16058.829    4.2381043    4.2381043    4.2381043   -16058.829    -1925.488   -28289.697   -17961.302   -18445.983     3148.123    14596.083     76.12283 
   72900    1110.4081   -162.79103    1.0047206   -161.78631   -4092.3347    4.2350755    4.2350755    4.2350755   -4092.3347   -28133.439    30814.804   -14958.369    -26200.79     6253.405    1926.3896    75.959742 
   73000    1047.4214   -162.73614   0.94772889   -161.78841    510.34915    4.2318012    4.2318012    4.2318012    510.34915   -20461.043    3921.2085    18070.882   -30843.351    8893.7666   -12439.169    75.783694 
   73100     1286.171   -162.95354    1.1637546   -161.78979   -1185.9663     4.234988     4.234988     4.234988   -1185.9663   -21014.031    28605.243   -11149.111   -23397.766    13189.759   -4779.1879    75.955031 
   73200    1444.1103   -163.09478    1.3066613   -161.78812   -7461.5537    4.2387577    4.2387577    4.2387577   -7461.5537   -22098.621    29120.899    -29406.94   -12442.479    16378.421   -19622.487    76.158042 
   73300    1279.4548   -162.94642    1.1576776   -161.78875    2766.4268    4.2338177    4.2338177    4.2338177    2766.4268    3440.8186    4986.9644   -128.50279   -4934.0298    18470.855   -20953.962    75.892082 
   73400    1260.6614   -162.92684     1.140673   -161.78616    4467.2936    4.2322186    4.2322186    4.2322186    4467.2936     13661.25    50759.647   -51019.016   -1685.5866    18809.625   -26627.614     75.80612 
   73500    1220.0633   -162.89135    1.1039389   -161.78741   -11552.442    4.2445681    4.2445681    4.2445681   -11552.442   -31227.716    16350.799   -19780.409    634.31413    11552.424   -17821.855    76.471659 
   73600    1427.3763   -163.07091    1.2915201   -161.77939   -10439.666     4.241227     4.241227     4.241227   -10439.666   -35631.259    17966.221   -13653.961   -450.46058    9524.5253   -27473.257    76.291219 
   73700    1682.8147   -163.29294    1.5226461   -161.77029    20999.211    4.2314124    4.2314124    4.2314124    20999.211   -4212.5083     57223.29    9986.8509    5308.6508    3384.1234    -16236.47    75.762808 
   73800    1902.8307   -163.49035    1.7217212   -161.76863   -21812.944    4.2439469    4.2439469    4.2439469   -21812.944   -6813.7539   -33770.586   -24854.494    9746.5427    1779.4924   -21030.331    76.438091 
   73900    1986.9317   -163.55995    1.7978176   -161.76213    -3501.909    4.2381498    4.2381498    4.2381498    -3501.909    10936.306    12616.116   -34058.149    4144.3813    4301.9168   -214.54362    76.125282 
   74000    1954.6002   -163.52806    1.7685633    -161.7595    11910.328    4.2370164    4.2370164    4.2370164    11910.328    6345.2627    15856.221    13529.502    1612.6209   -5552.5077   -11997.142    76.064224 
   74100    1921.0871   -163.50196      1.73824   -161.76372    -8319.524    4.2390085    4.2390085    4.2390085    -8319.524   -17223.463    4687.6413   -12422.751    7915.2884    2577.9409    -9193.356    76.171563 
   74200    2164.5427   -163.72541    1.9585237   -161.76689   -3836.6667    4.2366963    4.2366963    4.2366963   -3836.6667   -32444.258    22008.991    -1074.733    8792.0725    -2942.628   -16400.461    76.046986 
   74300    2359.3372     -163.905    2.1347779   -161.77022   -7165.3611    4.2369922    4.2369922    4.2369922   -7165.3611   -7518.7742   -19319.355    5342.0462    22803.517   -8685.4908   -15052.833    76.062922 
   74400    2394.4492   -163.93605     2.166548    -161.7695    8343.3349    4.2314666    4.2314666    4.2314666    8343.3349    45768.068   -10919.207    -9818.857    9758.7905   -11285.047   -21483.063    75.765719 
   74500    2378.1294   -163.92173    2.1517815   -161.76995   -5401.6805    4.2385118    4.2385118    4.2385118   -5401.6805    10553.508   -17698.765   -9059.7842    12562.822   -10318.564   -13650.258    76.144791 
   74600    2351.1531   -163.89539    2.1273727   -161.76802   -17168.261    4.2395811    4.2395811    4.2395811   -17168.261    -16505.19   -29907.633   -5091.9608     8924.458    1050.1741   -7481.5585    76.202433 
   74700    2421.1652   -163.96006    2.1907211   -161.76934    23860.026    4.2252937    4.2252937    4.2252937    23860.026    31640.318    6855.3947    33084.366   -462.73564   -6970.0673   -10647.065    75.434622 
   74800    2631.5093   -164.15857    2.3810449   -161.77753    216.81297    4.2327915    4.2327915    4.2327915    216.81297    23298.556   -6227.9621   -16420.154   -6042.7421    790.35141   -15267.212    75.836911 
   74900    2675.6711   -164.19528    2.4210035   -161.77427    -4109.017     4.236318     4.236318     4.236318    -4109.017    26555.342   -22542.016   -16340.376   -16479.559    2452.0717   -17908.932    76.026618 
   75000    2289.6269     -163.841    2.0717026    -161.7693    7446.9148    4.2373102    4.2373102    4.2373102    7446.9148    46165.238   -18792.995   -5031.4994    -9230.634    2535.9607   -13069.446    76.080046 
   75100    1958.4798   -163.53659    1.7720737   -161.76451   -5441.2846    4.2425854    4.2425854    4.2425854   -5441.2846     32885.49   -14740.473   -34468.871    -16727.46   -276.40413    -23641.42    76.364548 
   75200    2003.9392   -163.57407    1.8132063   -161.76086   -1587.6472    4.2329381    4.2329381    4.2329381   -1587.6472    12123.189     2029.486   -18915.617   -19920.903    -673.1667   -30592.702    75.844791 
   75300     2147.167    -163.7078    1.9428018   -161.76499    6020.0359    4.2326373    4.2326373    4.2326373    6020.0359    3203.2826    11954.842    2901.9832   -7910.4121    746.16347   -26575.598    75.828623 
   75400    2242.3025   -163.79947    2.0288824   -161.77058   -3494.6393    4.2397035    4.2397035    4.2397035   -3494.6393    10327.955    452.39231   -21264.265   -19027.601     2258.834   -30152.156    76.209035 
   75500    2097.3283   -163.66765    1.8977067   -161.76994   -4520.7782    4.2398175    4.2398175    4.2398175   -4520.7782    15913.942     8234.268   -37710.544   -9174.7187     14457.19   -20918.044    76.215182 
   75600    1890.3158   -163.47757    1.7103975   -161.76717   -6316.6405    4.2389996    4.2389996    4.2389996   -6316.6405   -3173.3267   -280.46783   -15496.127   -12387.084    19017.568   -15464.899    76.171082 
   75700    1826.4734   -163.42141    1.6526316   -161.76878    3517.2853    4.2325925    4.2325925    4.2325925    3517.2853   -19306.756    45652.895   -15794.283   -6566.7811    17264.836   -18058.036    75.826214 
   75800    1922.8593   -163.51608    1.7398435   -161.77623   -815.49296    4.2313271    4.2313271    4.2313271   -815.49296     -20251.8    16371.711    1433.6094    88.605726    16648.434   -16529.997    75.758225 
   75900    2124.3518   -163.70364    1.9221581   -161.78148   -1428.1196    4.2350876    4.2350876    4.2350876   -1428.1196   -20179.421    10756.294    5138.7679   -5068.2099     4485.973   -3742.1368    75.960389 
   76000     2079.267   -163.66299    1.8813644   -161.78162    9110.5805    4.2380351    4.2380351    4.2380351    9110.5805    1001.3149    38570.491   -12240.065    10851.042    3481.7259    4119.2109    76.119102 
   76100     2044.636   -163.62808    1.8500296   -161.77805   -15502.444    4.2437708    4.2437708    4.2437708   -15502.444    8399.0665   -29732.383   -25174.016   -5494.1421   -10574.101   -7994.6602    76.428577 
   76200     1988.151   -163.56967    1.7989208   -161.77075     12582.76    4.2332941    4.2332941    4.2332941     12582.76     9509.048    37883.251   -9644.0188    5681.3776   -12782.907    -9668.092    75.863929 
   76300    1772.6779    -163.3746    1.6039562   -161.77064   -3402.0653    4.2358682    4.2358682    4.2358682   -3402.0653   -33101.725    42306.902   -19411.373    3966.5577   -22422.048    4573.6872    76.002402 
   76400    1688.4541   -163.29631    1.5277487   -161.76857   -22609.369    4.2431584    4.2431584    4.2431584   -22609.369   -50932.054    6491.3872   -23387.439     16019.04   -28411.602   -9549.4538    76.395492 
   76500    1530.4579   -163.15397    1.3847905   -161.76918    13993.864     4.231285     4.231285     4.231285    13993.864   -4328.4601    29021.299    17288.754    20611.944    -24215.45   -5250.3885    75.755966 
   76600    1608.0507    -163.2313     1.454998    -161.7763   -11711.219    4.2354021    4.2354021    4.2354021   -11711.219   -17023.677   -1081.0341   -17028.945    8855.2206   -34676.289    4606.2534    75.977314 
   76700    1675.0047   -163.29833    1.5155795   -161.78275   -7218.5864    4.2353337    4.2353337    4.2353337   -7218.5864   -16341.057    19714.937    -25029.64    19126.101   -18003.887    507.61461    75.973636 
   76800    1614.9819   -163.24647    1.4612695    -161.7852    15475.289    4.2315905    4.2315905    4.2315905    15475.289   -857.04981    17482.723    29800.193   -4214.8321   -19952.974    1484.5029    75.772374 
   76900    1500.8078   -163.14284    1.3579624   -161.78488   -20398.177     4.242652     4.242652     4.242652   -20398.177   -49203.245    19832.796    -31824.08    1319.8628   -10040.602    12818.934    76.368145 
   77000    1391.4172   -163.03645    1.2589835   -161.77747   -2245.2796    4.2364163    4.2364163    4.2364163   -2245.2796   -48985.081    34011.174    8238.0686   -1722.5455   -3924.9314     11203.17    76.031907 
   77100    1544.0314   -163.17277     1.397072    -161.7757   -1877.6195     4.234175     4.234175     4.234175   -1877.6195   -19580.061   -20195.103    34142.306   -17877.263   -294.74841    17100.215    75.911299 
   77200    1674.2393   -163.29392    1.5148869   -161.77903   -8692.4773    4.2355258    4.2355258    4.2355258   -8692.4773    -13691.83   -654.17078   -11731.431   -24155.993    9721.5587     19146.05    75.983971 
   77300    1484.2906   -163.12376    1.3430173   -161.78074    13573.862    4.2298306    4.2298306    4.2298306    13573.862   -5851.0416   -3355.2116     49927.84   -45141.935    5743.2556     21364.82    75.677875 
   77400    964.19205   -162.65696   0.87242123   -161.78454   -24371.391    4.2399934    4.2399934    4.2399934   -24371.391   -53698.742   -44010.026    24594.595   -44781.095    25071.203    13048.109    76.224667 
   77500    680.09731   -162.40098   0.61536634   -161.78562   -15424.887    4.2338437    4.2338437    4.2338437   -15424.887   -59260.306   -6544.7344     19530.38   -54504.074    26685.981    5370.7882    75.893482 
   77600    840.66325    -162.5486   0.76064978   -161.78795    12776.364     4.226058     4.226058     4.226058    12776.364   -29700.797   -17859.563    85889.452   -59380.742     26677.18    5926.4035    75.475563 
   77700    1035.0337   -162.72764   0.93652024   -161.79112   -19023.179    4.2395569    4.2395569    4.2395569   -19023.179   -30758.556   -69286.652    42975.672   -67873.812    25519.162    305.35374    76.201129 
   77800    943.92308   -162.63775   0.85408144   -161.78367    1328.4431    4.2389675    4.2389675    4.2389675    1328.4431   -11022.402   -21963.751    36971.482   -66608.503    25839.109    3930.1713    76.169353 
   77900    560.05201   -162.28527   0.50674683   -161.77852   -1650.5492    4.2400471    4.2400471    4.2400471   -1650.5492    -74998.58    1416.6559    68630.277   -59947.734    22891.659     6526.955    76.227566 
   78000    520.19593   -162.24215   0.47068421   -161.77147   -14283.053    4.2388901    4.2388901    4.2388901   -14283.053   -55586.369   -28602.139    41339.349   -73284.808    17047.289    2670.1479    76.165182 
   78100    955.42638   -162.63522   0.86448987   -161.77073    14515.687     4.228281     4.228281     4.228281    14515.687   -54085.742    24686.394     72946.41   -70469.433    14938.279    7431.5688    75.594729 
   78200    1307.5358   -162.96156    1.1830859   -161.77847   -2354.1138    4.2382815    4.2382815    4.2382815   -2354.1138   -1391.3861   -38564.343    32893.387   -73406.251    13491.153   -224.37875    76.132378 
   78300    1310.1021   -162.95941    1.1854079     -161.774   -29847.398     4.245408     4.245408     4.245408   -29847.398   -52560.583   -59826.908    22845.295   -70286.685    6653.8282   -136.10736    76.517067 
   78400    1089.5459   -162.75052   0.98584405   -161.76467    2118.7212    4.2341682    4.2341682    4.2341682    2118.7212   -52289.821    6348.8406    52297.144   -57658.913     6767.118    1976.6464    75.910931 
   78500    1101.7688   -162.76492   0.99690354   -161.76801   -14344.916    4.2395808    4.2395808    4.2395808   -14344.916   -45874.332   -26794.259    29633.843   -54888.738    7422.5472    -3789.509    76.202419 
   78600    1501.4859   -163.12658     1.358576     -161.768   -10999.898    4.2360568    4.2360568    4.2360568   -10999.898   -52868.585   -30035.915    49904.805   -60152.506    4897.6238    4199.3051    76.012553 
   78700    1904.4373   -163.49182    1.7231749   -161.76865    31898.504    4.2274193    4.2274193    4.2274193    31898.504    33539.691    8753.2437    53402.577   -48798.622   -5595.5905    -830.7926    75.548524 
   78800    1912.5593   -163.50465    1.7305239   -161.77413   -18962.555    4.2439146    4.2439146    4.2439146   -18962.555   -47404.605   -26995.979    17512.917   -48616.493   -7655.6202   -822.69723    76.436346 
   78900    1622.6843   -163.23936    1.4682389   -161.77112   -13840.229    4.2354444    4.2354444    4.2354444   -13840.229   -57083.858    -7865.647    23428.819   -46346.284   -14692.987   -4958.5592    75.979592 
   79000    1538.7967   -163.16303    1.3923356   -161.77069    18206.571    4.2273254    4.2273254    4.2273254    18206.571    287.53428    20409.666    33922.514   -34760.413   -15998.969   -6608.3574    75.543488 
   79100    1792.0992   -163.39821     1.621529   -161.77669   -20099.703    4.2394243    4.2394243    4.2394243   -20099.703   -42242.919   -30874.273    12818.083   -44374.497   -17797.593   -2843.3155    76.193979 
   79200    2107.6921   -163.68232    1.9070841   -161.77524   -5054.2922    4.2337836    4.2337836    4.2337836   -5054.2922    8016.4642    -31555.12    8375.7789   -32799.176   -13553.724    2268.2944     75.89025 
   79300    2056.7492   -163.63498    1.8609899   -161.77399     14743.53    4.2370588    4.2370588    4.2370588     14743.53    23735.972   -6928.4537    27423.073   -16709.483   -4472.3271    4415.8461    76.066505 
   79400    1812.7674   -163.41271      1.64023   -161.77248   -11273.336    4.2378247    4.2378247    4.2378247   -11273.336   -17650.277   -32714.332    16544.602   -11923.048    2335.1267   -494.97053    76.107764 
   79500    1703.7062   -163.31896    1.5415491   -161.77741    10529.592    4.2278516    4.2278516    4.2278516    10529.592   -3428.3289    4535.0774    30482.026     1716.023    12872.105    5278.0693      75.5717 
   79600    1919.6385   -163.52004    1.7369293   -161.78311    868.01164    4.2323369    4.2323369    4.2323369    868.01164   -4661.2396    8047.6049   -782.33035      934.654    18087.245   -6904.7639    75.812479 
   79700    2082.4378   -163.66852    1.8842335   -161.78429   -6527.8857    4.2351691    4.2351691    4.2351691   -6527.8857    2890.5136     9349.786   -31823.957    3775.1508    28013.493   -73.200341    75.964776 
   79800    2015.8838   -163.60453     1.824014   -161.78052   -1209.6732    4.2369049    4.2369049    4.2369049   -1209.6732   -23614.396    19482.547    502.82913    5872.6709    34193.546   -4686.7707    76.058218 
   79900    1767.3456   -163.37452    1.5991314   -161.77539   -12107.193    4.2375446    4.2375446    4.2375446   -12107.193   -30477.372    9268.5642   -15112.773    5921.1704    29724.115   -7992.3607    76.092675 
   80000    1745.6868   -163.35232    1.5795341   -161.77279   -168.87652    4.2339395    4.2339395    4.2339395   -168.87652   -28086.889    36445.423   -8865.1634    8704.7737    26318.382    668.22132    75.898629 
   80100    2011.4806    -163.5913    1.8200299   -161.77127    6709.9174    4.2384443    4.2384443    4.2384443    6709.9174   -30692.329    26984.061     23838.02    11496.459    19071.108    4388.6979     76.14115 
   80200     2302.981   -163.84921    2.0837856   -161.76543   -8903.7874    4.2414087    4.2414087    4.2414087   -8903.7874   -12975.702    22301.863   -36037.523    20348.918    10047.684    10409.859    76.301023 
   80300    2217.4192   -163.76568    2.0063675   -161.75931   -4739.6441    4.2382883    4.2382883    4.2382883   -4739.6441    699.07614    3253.7942   -18171.803    25510.426    13609.916    19912.477    76.132743 
   80400    1972.4348   -163.54575    1.7847004   -161.76105    5581.9273    4.2326633    4.2326633    4.2326633    5581.9273   -2573.3448    7157.7363    12161.391    30502.175    31.977535    7374.2589     75.83002 
   80500    1977.5732   -163.55609    1.7893498   -161.76674   -3158.2264    4.2311049    4.2311049    4.2311049   -3158.2264   -6571.4758    7318.9041   -10222.108    28536.224   -1028.1131    13758.079    75.746294 
   80600    2315.9379    -163.8676    2.0955093   -161.77209   -982.91791    4.2352381    4.2352381    4.2352381   -982.91791    18198.273   -17997.586   -3149.4403    25263.002   -5767.1779    3790.0213    75.968492 
   80700    2617.4635   -164.13876     2.368336   -161.77042   -1175.1978    4.2405232    4.2405232    4.2405232   -1175.1978    8507.2297   -13806.669    1773.8454    29303.691    6510.2674    2828.8466    76.253247 
   80800    2426.9736   -163.95831    2.1959767   -161.76233   -5070.4315     4.244587     4.244587     4.244587   -5070.4315   -5424.8588   -1482.7658     -8303.67    27051.772   -3062.5229    10990.639     76.47268 
   80900    1962.3869    -163.5302    1.7756089   -161.75459    13501.504    4.2382059    4.2382059    4.2382059    13501.504    17747.916   -20022.879    42779.474    24964.791    60.613811    2351.6437    76.128306 
   81000    1725.2833   -163.31599    1.5610726   -161.75492   -14985.697    4.2444326    4.2444326    4.2444326   -14985.697   -24199.367   -27678.623    6920.8993    15160.504    1773.7204   -514.85641    76.464337 
   81100    1930.0109   -163.49884    1.7463144   -161.75252   -10796.656    4.2448839    4.2448839    4.2448839   -10796.656   -2661.5057   -27947.114   -1781.3474    7148.7196   -1032.5328   -13632.316     76.48873 
   81200    2074.0787   -163.62832      1.87667   -161.75165    4783.3083    4.2307652    4.2307652    4.2307652    4783.3083    26455.063   -20082.345    7977.2065    5097.2586    17441.017   -21756.093    75.728052 
   81300    1671.7988   -163.27652    1.5126786   -161.76384   -5524.4342    4.2342106    4.2342106    4.2342106   -5524.4342    28462.547   -30657.025   -14378.824    219.05791     -578.038   -30286.289    75.913214 
   81400    1228.7663    -162.8855    1.1118136   -161.77368   -1373.6605    4.2368499    4.2368499    4.2368499   -1373.6605    47826.149   -27554.854   -24392.276    6372.9511    7532.5077   -31284.918    76.055255 
   81500    1046.5109   -162.72463   0.94690501   -161.77772    -3373.639    4.2369671    4.2369671    4.2369671    -3373.639    19679.303   -9511.2333   -20288.987    5405.8952     2856.119   -39485.745    76.061566 
   81600    1098.2732   -162.77254    0.9937407    -161.7788   -4427.4694    4.2395833    4.2395833    4.2395833   -4427.4694    37959.795   -3623.7173   -47618.485    20332.605   -105.88278   -37404.163    76.202554 
   81700    1259.6798   -162.91673    1.1397848   -161.77694    1815.2143    4.2349462    4.2349462    4.2349462    1815.2143    64231.491   -8454.2811   -50331.567    19937.685    6792.1719   -33677.032    75.952781 
   81800    1240.8028   -162.90206    1.1227045   -161.77936   -5786.0534    4.2339579    4.2339579    4.2339579   -5786.0534    40577.927   -1099.3816   -56836.705    16998.063    649.78646   -41157.492     75.89962 
   81900    725.73087   -162.44261   0.65665655   -161.78595   -8822.7615    4.2346967    4.2346967    4.2346967   -8822.7615    46097.657   -5080.8021   -67485.139     21805.57    15605.323   -47341.862     75.93936 
   82000    449.51557   -162.19911   0.40673113   -161.79238    -6206.284    4.2342921    4.2342921    4.2342921    -6206.284    42445.798    1072.4398    -62137.09    14639.568    6532.3274   -47983.396    75.917597 
   82100    637.24996   -162.36812   0.57659715   -161.79153   -18622.645    4.2353963    4.2353963    4.2353963   -18622.645    8768.9596   -8260.7402   -56376.155    9602.3107     7103.593   -57851.834    75.977004 
   82200    954.87283   -162.65649     0.863989    -161.7925    1057.3457    4.2313472    4.2313472    4.2313472    1057.3457    19195.884    17411.702    -33435.55    3550.3526   -2497.9211   -60261.553    75.759304 
   82300      1152.09   -162.83561    1.0424353   -161.79318   -9525.4051    4.2329582    4.2329582    4.2329582   -9525.4051    24231.229   -37836.623   -14970.822       -13745   -6335.4682   -53682.743    75.845872 
   82400     860.1049   -162.57044   0.77824099    -161.7922    4049.2768    4.2360199    4.2360199    4.2360199    4049.2768    15963.526    19667.483   -23483.179   -24807.607    1301.1731   -51404.301    76.010566 
   82500    466.75968   -162.21098   0.42233397   -161.78865   -12843.871    4.2416107    4.2416107    4.2416107   -12843.871    35045.719   -56038.083   -17539.249   -32547.315   -2398.0127   -43731.211    76.311926 
   82600    468.13655   -162.20398   0.42357979    -161.7804       -11013    4.2388076    4.2388076    4.2388076       -11013    22617.211   -37585.329   -18070.882   -37138.493   -6010.0467   -46451.306    76.160732 
   82700    829.85263   -162.52422    0.7508681   -161.77335     12712.61    4.2361639    4.2361639    4.2361639     12712.61    15766.589    4179.8321    18191.409   -32702.883   -12716.588   -39008.868    76.018321 
   82800    919.43574   -162.60331   0.83192478   -161.77138   -11345.426    4.2455131    4.2455131    4.2455131   -11345.426   -3355.5543   -47842.548    17161.824   -31702.531   -14135.285   -39901.995    76.522748 
   82900    720.41381   -162.41558   0.65184555   -161.76374    3353.3458    4.2430514    4.2430514    4.2430514    3353.3458   -7245.0909    15816.078    1489.0503   -29102.104   -8902.3553   -44252.766    76.389715 
   83000    700.83742   -162.39372   0.63413243   -161.75959   -6840.7923    4.2382571    4.2382571    4.2382571   -6840.7923    11081.183   -4386.7636   -27216.797   -25750.215   -17766.279   -36607.745    76.131064 
   83100    877.15581   -162.56054   0.79366901   -161.76687   -7241.8494    4.2344739    4.2344739    4.2344739   -7241.8494   -4135.5642     6263.784   -23853.768   -38576.808   -13531.503   -29821.885    75.927374 
   83200    1207.6344    -162.8684     1.092693   -161.77571    10222.397    4.2341816    4.2341816    4.2341816    10222.397   -4971.3226    35866.381   -227.86912   -37917.198   -25572.472   -10874.422    75.911653 
   83300    1440.7771   -163.08626    1.3036454   -161.78262   -14591.701    4.2374127    4.2374127    4.2374127   -14591.701    -12101.34   -21127.065   -10546.699   -34868.137   -25193.007   -7005.5073    76.085571 
   83400    1598.5249    -163.2293    1.4463789   -161.78292    1141.9982    4.2336935    4.2336935    4.2336935    1141.9982    7301.6351   -12381.053    8505.4124   -28945.919   -38052.408   -187.41287    75.885403 
   83500    1540.1787   -163.17647    1.3935861   -161.78289   -35.949534    4.2321602    4.2321602    4.2321602   -35.949534    4651.2099    11117.714   -15876.773   -16223.293   -40289.032    8849.3538    75.802981 
   83600    1421.3125   -163.07083    1.2860334    -161.7848   -13806.559    4.2333177    4.2333177    4.2333177   -13806.559   -14114.857   -15473.553   -11831.268   -9536.9615   -45202.678    4874.6721    75.865194 
   83700    1466.6306    -163.1121    1.3270382   -161.78506   -6274.5045    4.2361152    4.2361152    4.2361152   -6274.5045   -25393.686   -3580.0786    10150.251   -5944.8029   -47308.001    10039.918    76.015697 
   83800    1672.0245   -163.29717    1.5128829   -161.78428   -6457.8089    4.2346264    4.2346264    4.2346264   -6457.8089   -34581.524    7789.8789    7418.2188    4398.8321   -35794.803    5233.4275    75.935578 
   83900    1980.3827   -163.57555    1.7918919   -161.78366    6757.1316    4.2326409    4.2326409    4.2326409    6757.1316   -15247.672   -8666.2366    44185.303    6283.2053   -39656.462    9825.9912    75.828818 
   84000    1979.4977   -163.57588    1.7910911   -161.78479    -1978.473    4.2341011    4.2341011    4.2341011    -1978.473    2644.9785   -20828.562    12248.165    9203.7696   -20660.588    7166.2942    75.907322 
   84100    1698.4838   -163.32613    1.5368239   -161.78931    6044.5968    4.2308022    4.2308022    4.2308022    6044.5968   -1538.2446    -6168.307    25840.342    23826.584   -9584.2378    3984.9861    75.730034 
   84200    1347.6899   -163.01257    1.2194182   -161.79315   -8890.1328    4.2354201    4.2354201    4.2354201   -8890.1328   -11920.339   -29769.641    15019.581     29173.61   -4029.8703   -2070.6962    75.978283 
   84300    1344.6062   -163.00601    1.2166279   -161.78938    -15966.87    4.2367084    4.2367084    4.2367084    -15966.87   -32851.263    -44559.23    29509.884    26637.226    4338.4224   -3098.7578    76.047638 
   84400    1740.1444   -163.35724    1.5745193   -161.78272    1398.9981     4.236516     4.236516     4.236516    1398.9981    7503.1688    -39139.16    35832.985    26634.611   -2261.7836    1152.0456    76.037275 
   84500     2017.033    -163.5966    1.8250539   -161.77155   -16081.846    4.2473252    4.2473252    4.2473252   -16081.846   -19829.271   -41110.934    12694.665    30456.174    1210.8145    2303.8713    76.620775 
   84600    1908.7719   -163.48208    1.7270969   -161.75499   -6589.9466    4.2440336    4.2440336    4.2440336   -6589.9466    -35106.27   -12047.848    27384.278    28103.698   -7044.1682    7876.4356    76.442776 
   84700     1803.701   -163.37873    1.6320266   -161.74671    3136.7643     4.237455     4.237455     4.237455    3136.7643   -34143.689    11619.455    31934.527    29513.564   -5735.3689    -7915.872    76.087849 
   84800    1959.1049   -163.52422    1.7726393   -161.75158    8607.6499    4.2360053    4.2360053    4.2360053    8607.6499   -23098.149     2987.153    45933.946    22818.565   -4472.1786    2937.4936    76.009783 
   84900    2296.5668    -163.8395    2.0779819   -161.76152    8170.0768    4.2356282    4.2356282    4.2356282    8170.0768    168.92309   -7387.5073    31728.815    30164.016   -9487.6326    5090.3807    75.989486 
   85000     2426.744   -163.96389     2.195769   -161.76812   -13107.795    4.2397683    4.2397683    4.2397683   -13107.795    -18525.84   -34067.003    13269.456    9645.4053   -11074.799    11599.924    76.212529 
   85100    2237.4693   -163.79524    2.0245093   -161.77073   -9169.3519    4.2330843    4.2330843    4.2330843   -9169.3519   -26901.865   -5868.3217    5262.1307    16987.133   -7424.7598    13534.758    75.852646 
   85200    2041.0236   -163.62102     1.846761   -161.77426    13354.364    4.2236537    4.2236537    4.2236537    13354.364   -24311.521    47711.907    16662.705      10512.5   -2823.7923    712.46571    75.346816 
   85300    2056.5126   -163.64585    1.8607758   -161.78508   -11173.955    4.2345503    4.2345503    4.2345503   -11173.955   -44467.973    18075.679    -7129.569   -216.38641    1294.3499    6765.7976    75.931486 
   85400    2399.4275   -163.94886    2.1710524   -161.77781   -19907.946    4.2416362    4.2416362    4.2416362   -19907.946   -38415.703   -6010.1629   -15297.973    11019.388   -1987.3635   -5830.5514    76.313304 
   85500    2640.4908   -164.15855    2.3891716   -161.76938    5272.2358    4.2376073    4.2376073    4.2376073    5272.2358    1604.9853    7644.4855    6567.2366   -4344.7161    12851.687   -383.63509    76.096052 
   85600    2617.3489   -164.13425    2.3682323   -161.76602    3502.2533    4.2345332    4.2345332    4.2345332    3502.2533    13318.081    6023.6928   -8835.0138     14627.29   -6277.7121   -8144.0858    75.930563 
   85700    2338.5118   -163.87865    2.1159346   -161.76272   -6626.7911    4.2347193    4.2347193    4.2347193   -6626.7911    -21132.98    13966.537   -12713.931    1220.0065    12068.373   -1190.2762    75.940577 
   85800    2068.1943   -163.63383    1.8713457   -161.76249    -1499.463    4.2412389    4.2412389    4.2412389    -1499.463   -20124.281    14874.543    751.34952    150.16102   -3874.6886    322.94999     76.29186 
   85900    1885.9339   -163.46361    1.7064326   -161.75718   -12836.519    4.2439419    4.2439419    4.2439419   -12836.519   -9584.0913    256.69525    -29182.16   -1918.3058    6253.7721    4255.5961    76.437822 
   86000    2148.7876   -163.69953    1.9442682   -161.75527   -3865.0106    4.2371398    4.2371398    4.2371398   -3865.0106   -7548.5653    19121.649   -23168.115   -3989.3088    2374.6147    10800.389    76.070867 
   86100    2476.3532   -164.00044    2.2406565   -161.75978    4794.5751     4.234385     4.234385     4.234385    4794.5751    16755.229    9126.0035   -11497.507    474.40224   -2551.2002    2255.2834     75.92259 
   86200    2569.7106   -164.09428    2.3251282   -161.76915   -8697.4043    4.2397547    4.2397547    4.2397547   -8697.4043    17774.968   -10352.782   -33514.399   -5185.9676    3580.8057    6586.4266    76.211794 
   86300    2322.6646   -163.87476    2.1015958   -161.77317    4233.7795    4.2365542    4.2365542    4.2365542    4233.7795    17417.808   -2366.7925   -2349.6766   -5402.0082    4021.6779    6601.2202    76.039334 
   86400    1978.4979   -163.56159    1.7901865    -161.7714    5536.9132    4.2341695    4.2341695    4.2341695    5536.9132    27036.205    12048.642   -22474.108   -9528.7079    10406.941    3284.2286    75.911002 
   86500    1785.6942   -163.38774    1.6157336     -161.772   -10343.472    4.2408365    4.2408365    4.2408365   -10343.472    8835.1971   -7748.1412   -32117.473   -11590.724    16244.819    9856.1248    76.270145 
   86600     1628.404   -163.24156    1.4734142   -161.76815    6495.4353    4.2366862    4.2366862    4.2366862    6495.4353     12299.84    18117.416    -10930.95   -10702.534      19740.5    14893.602    76.046439 
   86700     1672.906   -163.28116    1.5136805   -161.76748   -16019.573     4.236956     4.236956     4.236956   -16019.573    5742.5221   -8996.3662   -44804.873   -13795.936    34498.657    24417.716    76.060969 
   86800    1756.7451   -163.36241    1.5895399   -161.77287   -7723.6343    4.2347149    4.2347149    4.2347149   -7723.6343    13068.154   -3422.9001   -32816.157   -3454.6246    29833.135    16039.357    75.940339 
   86900    1854.6492    -163.4579    1.6781256   -161.77977    15693.469    4.2280803    4.2280803    4.2280803    15693.469    16697.532    52151.299   -21768.423   -12932.902    36542.319    12050.135    75.583965 
   87000    1615.2161   -163.24996    1.4614815   -161.78848   -16293.862    4.2375785    4.2375785    4.2375785   -16293.862   -10163.156    6775.3498    -45493.78    8229.3622    20874.544    14368.982    76.094502 
   87100    1338.7896   -162.99767     1.211365    -161.7863   -973.30054    4.2337302    4.2337302    4.2337302   -973.30054   -17317.243    48263.975   -33866.634    -1423.772    19827.256     2997.836    75.887378 
   87200    1331.1737    -162.9876     1.204474   -161.78313   -4753.9615    4.2323358    4.2323358    4.2323358   -4753.9615    -16184.04    35593.178   -33671.022    5159.6662    12588.319    5631.2323    75.812418 
   87300    1577.9649   -163.21091    1.4277758   -161.78314    3947.8967    4.2384464    4.2384464    4.2384464    3947.8967     4602.474    21232.831   -13991.615    5298.1518   -2044.5035    7830.1598    76.141263 
   87400    1730.3285   -163.34454    1.5656376    -161.7789     10326.69    4.2407205    4.2407205    4.2407205     10326.69    23751.033    33573.161   -26344.123    6891.4507   -6321.2789    11367.324     76.26389 
   87500    1515.8889   -163.14383    1.3716081   -161.77222   -7799.0118    4.2473478    4.2473478    4.2473478   -7799.0118     9108.364    587.70947   -33093.109     6388.238   -14300.057    18518.768    76.622001 
   87600      1062.55   -162.72632   0.96141755    -161.7649   -14127.701    4.2411869    4.2411869    4.2411869   -14127.701   -18211.712    30650.251   -54821.641   -1580.3155   -21981.949    21315.097    76.289055 
   87700    815.22008   -162.49989   0.73762826   -161.76226   -1150.8098    4.2323457    4.2323457    4.2323457   -1150.8098   -16853.051    34921.072    -21520.45    3634.8617   -20380.482    32050.424    75.812951 
   87800     829.5421   -162.52726   0.75058713   -161.77667   -8835.2344     4.235178     4.235178     4.235178   -8835.2344   -4923.1244    26296.698   -47879.277    1644.5143   -25365.798    17368.177    75.965255 
   87900    921.55857   -162.61821   0.83384556   -161.78436    12794.288    4.2353227    4.2353227    4.2353227    12794.288    21875.707    49962.371   -33455.215   -1933.2512   -29921.358    15243.551    75.973042 
   88000    1064.2706   -162.74906   0.96297441   -161.78608    7664.7505    4.2420743    4.2420743    4.2420743    7664.7505    57695.025    9679.4382   -44380.211   -3379.6988   -26166.373    10623.488    76.336952 
   88100    1045.6469   -162.72286   0.94612331   -161.77674   -13285.178    4.2459427    4.2459427    4.2459427   -13285.178    35528.497     3944.772   -79328.803   -3076.3002   -16713.943    5976.0549     76.54598 
   88200    968.55078   -162.64452    0.8763651   -161.76816    5042.0686    4.2330372    4.2330372    4.2330372    5042.0686    15607.032    53251.245   -53732.071    2284.6479    -11424.76     7296.231    75.850116 
   88300     833.4865   -162.52688    0.7541561   -161.77273   -5858.4709    4.2295598    4.2295598    4.2295598   -5858.4709    9189.2971    5375.7105    -32140.42    8402.9657    2977.1853    5787.3019     75.66334 
   88400    819.99113   -162.52468    0.7419452   -161.78274    7571.0864    4.2345389    4.2345389    4.2345389    7571.0864    14394.397     18635.37   -10316.508    6767.4566    12866.644    3637.0145    75.930869 
   88500    1010.7649   -162.69801   0.91456137   -161.78345    3261.6309    4.2419625    4.2419625    4.2419625    3261.6309      335.729    13426.432   -3977.2683    20236.774    12189.369    -7824.832    76.330914 
   88600    1370.7332   -163.01407    1.2402682    -161.7738   -11325.539    4.2464034    4.2464034    4.2464034   -11325.539     10607.53   -23375.111   -21209.038    8263.4794    22544.718   -8526.9815    76.570897 
   88700     1332.326   -162.97406    1.2055166   -161.76854    4391.2624    4.2369301    4.2369301    4.2369301    4391.2624    8199.2546    14497.709   -9523.1764     12187.63    19862.233   -29398.904    76.059575 
   88800    1016.2448   -162.69062   0.91951969    -161.7711    4681.2827    4.2321342    4.2321342    4.2321342    4681.2827   -16091.171    15403.022    14731.997    1141.4336    14375.943   -24722.639    75.801589 
   88900    1020.8265   -162.69797   0.92366524   -161.77431   -10640.497    4.2402579    4.2402579    4.2402579   -10640.497   -39336.623   -6569.1791    13984.312    3825.9802     18691.74   -29478.271    76.238937 
   89000    1335.4524   -162.98083    1.2083454   -161.77248   -3351.2268     4.245456     4.245456     4.245456   -3351.2268   -16720.004   -7094.0711    13760.395    1777.0827    16309.855   -15303.134     76.51966 
   89100    1767.1295   -163.36732    1.5989359   -161.76838     1817.385    4.2381156    4.2381156    4.2381156     1817.385   -2973.7883   -18669.162    27095.105    8484.5385    20479.201   -5707.1762     76.12344 
   89200    1809.9486   -163.40592    1.6376795   -161.76824    19184.347    4.2246201    4.2246201    4.2246201    19184.347    29684.159   -13405.281    41274.163    15467.896    25653.716   -7888.2588    75.398547 
   89300    1651.9913   -163.27494    1.4947565   -161.78018   -7492.8319    4.2357146    4.2357146    4.2357146   -7492.8319   -33997.609   -2426.1415    13945.255    16901.992    31742.654    556.26695    75.994132 
   89400    1546.3365   -163.17428    1.3991578   -161.77512   -25296.043    4.2459639    4.2459639    4.2459639   -25296.043   -80082.957   -20842.867    25037.695    19741.504    30488.611   -2144.8155    76.547127 
   89500    1787.6525   -163.38654    1.6175055   -161.76904    755.47382    4.2362976    4.2362976    4.2362976    755.47382   -32800.077   -5335.6855    40402.184    16765.319    29296.234   -1447.8795    76.025519 
   89600    2127.6011   -163.69271    1.9250982   -161.76761    5162.8147    4.2291424    4.2291424    4.2291424    5162.8147   -17187.703    33468.298    -792.1511    25503.066    37366.543    2031.2686    75.640941 
   89700    2215.4725   -163.77708    2.0046061   -161.77247    2993.6007    4.2341326    4.2341326    4.2341326    2993.6007   -10471.754    13867.353     5585.203    18626.499    31604.034   -3340.9119    75.909015 
   89800    2013.1399    -163.5913    1.8215313   -161.76977    -10546.77    4.2432953    4.2432953    4.2432953    -10546.77   -14996.877   -5883.9131   -10759.519    25264.689    26886.386    4134.2422    76.402889 
   89900    1936.9663   -163.51529    1.7526078   -161.76268   -9840.0312    4.2382908    4.2382908    4.2382908   -9840.0312   -40715.968    12454.296   -1258.4216    10950.254    23107.219    2067.0916    76.132877 
   90000    2207.5391   -163.75858    1.9974278   -161.76115    6340.9071    4.2271407    4.2271407    4.2271407    6340.9071   -30782.789    14955.229    34850.281    19683.237    13923.897    3616.4983    75.533585 
   90100    2513.2173   -164.04469    2.2740119   -161.77068    2079.4413     4.230986     4.230986     4.230986    2079.4413   -15441.847    24248.294   -2568.1227    14721.807     2345.392    9995.9035    75.739905 
   90200    2789.1824   -164.29894    2.5237109   -161.77523   -1213.5177    4.2402489    4.2402489    4.2402489   -1213.5177    5537.5085    22512.734   -31690.796    2196.3474   -4408.4855    7813.5431    76.238451 
   90300    2844.5988   -164.33788    2.5738527   -161.76403   -6315.9483    4.2439834    4.2439834    4.2439834   -6315.9483    4191.2797    10488.633   -33627.758    16518.074    151.42644    13878.209    76.440062 
   90400    2631.5479   -164.13261    2.3810798   -161.75153    -9539.605    4.2419045    4.2419045    4.2419045    -9539.605   -17105.398    6737.1839   -18250.601    12124.468    963.33558    10761.721    76.327784 
   90500    2265.3074   -163.79335    2.0496977   -161.74365     1379.964    4.2361811    4.2361811    4.2361811     1379.964   -27694.576    26119.845    5714.6231    19880.856     3455.948    16588.042    76.019243 
   90600    2195.1458   -163.73307    1.9862141   -161.74685    3667.0179    4.2402936    4.2402936    4.2402936    3667.0179   -6423.7395        31274   -13849.207    13609.066    9583.2828     10447.17    76.240861 
   90700    2458.3111   -163.97186    2.2243315   -161.74753   -23422.176    4.2523229    4.2523229    4.2523229   -23422.176    7575.1853   -39292.225   -38549.487   -1957.0108    6886.2036    10881.871    76.891564 
   90800    2348.3699   -163.87404    2.1248544   -161.74919   -54.928404    4.2389607    4.2389607    4.2389607   -54.928404    30912.424   -17644.186   -13433.023    16243.512    7158.7498    17359.872    76.168984 
   90900    1887.7424   -163.45992     1.708069   -161.75185     3360.256    4.2273705    4.2273705    4.2273705     3360.256   -6778.0847    7655.0925    9203.7603    1799.4465    10649.569      26485.7    75.545909 
   91000    1402.0493    -163.0352    1.2686037   -161.76659    3239.4104    4.2324238    4.2324238    4.2324238    3239.4104    5582.8578    -10761.94    14897.313    14688.027    10995.084    35207.007     75.81715 
   91100    1308.1412   -162.96131    1.1836336   -161.77767   -5622.5095     4.239173     4.239173     4.239173   -5622.5095    -15955.27   -11704.954    10792.696    15554.609    57.317563    25753.692    76.180428 
   91200    1591.4292   -163.21823    1.4399585   -161.77827   -15730.884    4.2426381    4.2426381    4.2426381   -15730.884   -15752.946   -4848.9904   -26590.716    15574.241    -11768.35     19039.59    76.367393 
   91300    1773.2335   -163.37949    1.6044589   -161.77503    6665.2242    4.2302815    4.2302815    4.2302815    6665.2242    45001.086   -6073.5771   -18931.836    24413.034   -24684.805    14931.293    75.702077 
   91400    1339.9639   -162.99275    1.2124275   -161.78032    18066.723    4.2308684    4.2308684    4.2308684    18066.723    46343.187     5645.536    2211.4465    20806.524   -15366.908    10574.623    75.733591 
   91500    777.50115    -162.4838   0.70349938    -161.7803   -13152.044    4.2464273    4.2464273    4.2464273   -13152.044   -19672.044    25082.949   -44867.037    16479.896   -23815.749    4384.3503    76.572192 
   91600    566.23836   -162.28325   0.51234437    -161.7709    -13252.25    4.2399229    4.2399229    4.2399229    -13252.25   -37796.213    17684.733   -19645.271    7607.1714   -13606.146    6132.4195    76.220868 
   91700    653.51885    -162.3599   0.59131758   -161.76858    1146.9916    4.2314778    4.2314778    4.2314778    1146.9916   -30400.976    30757.676    3084.2751    5179.9594   -12286.064    14285.828    75.766322 
   91800    788.67387   -162.49105   0.71360869   -161.77744   -6852.2425    4.2350041    4.2350041    4.2350041   -6852.2425   -10576.274    36715.138   -46695.591   -10234.739   -6964.4818    7308.3931    75.955896 
   91900    926.19716   -162.61871   0.83804266   -161.78067    9373.4404    4.2382803    4.2382803    4.2382803    9373.4404   -2344.9015    39738.932   -9273.7093   -5901.6893   -405.37993     9684.357    76.132314 
   92000    815.16564   -162.51537     0.737579   -161.77779   -14508.212    4.2449702    4.2449702    4.2449702   -14508.212   -38880.891    24040.854     -28684.6   -6521.8174   -1265.6767    2470.3035    76.493393 
   92100    406.05396   -162.14017   0.36740616   -161.77276   -1540.0084    4.2370033    4.2370033    4.2370033   -1540.0084   -49430.658    58133.872   -13323.239   -3884.2049    1269.8174   -3094.0147     76.06352 
   92200    451.68114   -162.18018   0.40869059   -161.77149    671.28409    4.2325461    4.2325461    4.2325461    671.28409   -50648.732    50242.816    2419.7679   -995.86421    4210.3089    -7415.561    75.823719 
   92300    879.82239   -162.57201   0.79608179   -161.77593   -23910.418    4.2377313    4.2377313    4.2377313   -23910.418   -37852.777     1749.999   -35628.475   -13150.375    11999.722   -20351.342    76.102731 
   92400    1153.8699   -162.82535    1.0440457    -161.7813    5404.9578     4.238024     4.238024     4.238024    5404.9578   -4032.0295    37933.944   -17687.041   -5330.4624    19759.884   -14910.926    76.118505 
   92500    1258.9561   -162.91891      1.13913   -161.77978   -11441.018    4.2381329    4.2381329    4.2381329   -11441.018   -4835.5417    25854.034   -55341.547   -13548.299    17945.419   -22764.933    76.124371 
   92600    1116.9251   -162.78849    1.0106173   -161.77787    7045.2166    4.2269533    4.2269533    4.2269533    7045.2166   -1824.6258    37538.117   -14577.841   -11310.691    21346.123   -28735.308    75.523539 
   92700    953.06334   -162.64778   0.86235174   -161.78543   -993.13906     4.233425     4.233425     4.233425   -993.13906   -15340.916    35838.785   -23477.286   -10461.015    16377.182   -17471.984    75.870963 
   92800    1222.6953   -162.88679    1.1063204   -161.78047   -25914.266     4.243298     4.243298     4.243298   -25914.266   -17480.363     1415.728   -61678.163    -5436.739    21478.747   -17191.066     76.40303 
   92900    1684.7424   -163.30185    1.5243903   -161.77746    12006.581    4.2303197    4.2303197    4.2303197    12006.581    51919.565    2593.4191    -18493.24    2604.2615    5105.9609    -9195.772    75.704131 
   93000    1937.7514   -163.53095    1.7533182   -161.77763    10801.655    4.2291671    4.2291671    4.2291671    10801.655    65625.488   -8907.6714   -24312.851    3644.4517    9495.8212   -6889.9649    75.642269 
   93100     1885.473   -163.48073    1.7060156   -161.77472   -12859.267    4.2393346    4.2393346    4.2393346   -12859.267    8521.8817    -6964.484   -40135.198    11178.427    5446.7282   -584.30875    76.189145 
   93200     1688.989   -163.29813    1.5282328   -161.76989    -5980.423    4.2418837    4.2418837    4.2418837    -5980.423    6782.8118   -21327.429   -3396.6522    5761.6307   -2139.7654   -6205.5333    76.326663 
   93300    1818.6449   -163.41077    1.6455481   -161.76523   -1867.3932    4.2362205    4.2362205    4.2362205   -1867.3932    16039.139   -37386.033    15744.714    3634.3117   -4973.5709   -3912.0275    76.021367 
   93400    2264.2856     -163.814    2.0487732   -161.76523    10417.818    4.2297142    4.2297142    4.2297142    10417.818    50625.409   -35748.734     16376.78    671.89797   -14839.659    2055.8273    75.671628 
   93500    2381.8233    -163.9248    2.1551237   -161.76968     4244.148    4.2360868    4.2360868    4.2360868     4244.148    33058.383   -48046.232    27720.293   -14462.163    8.9567425   -818.07198    76.014168 
   93600    2234.6672   -163.78807    2.0219739    -161.7661   -5456.6321    4.2368539    4.2368539    4.2368539   -5456.6321    2753.0153   -36088.308    16965.397   -4036.7938   -3488.2042    8221.1753    76.055471 
   93700    1944.4258   -163.52829    1.7593574   -161.76893   -3279.7129    4.2342689    4.2342689    4.2342689   -3279.7129   -5214.9827   -27235.694    22611.538    -3272.078    -2493.038   -2238.7906    75.916347 
   93800    1952.7133   -163.53773     1.766856   -161.77088   -7043.5397    4.2305562    4.2305562    4.2305562   -7043.5397   -27324.468   -25035.391     31229.24   -5109.2275   -3072.6987    4457.9794    75.716829 
   93900    2237.1749   -163.79719    2.0242428   -161.77295     9757.808     4.231468     4.231468     4.231468     9757.808    30458.711   -33291.222    32105.935    13164.781    609.70605    2927.5475    75.765797 
   94000    2459.1279   -163.99565    2.2250706   -161.77058   -11824.343    4.2409509    4.2409509    4.2409509   -11824.343   -9871.3512   -42356.717    16755.038    5284.7622    -1937.597    2237.4324     76.27632 
   94100    2379.8647   -163.91443    2.1533516   -161.76107   -4404.8204    4.2375833    4.2375833    4.2375833   -4404.8204   -28349.958    5838.3897    9297.1068    17496.385   -2892.3325    12862.988    76.094761 
   94200    2133.7886   -163.68671    1.9306968   -161.75602     737.5223    4.2342824    4.2342824    4.2342824     737.5223   -20144.526     6400.375    15956.718    3548.3175    1588.7921     2476.366    75.917076 
   94300     2068.045   -163.62718    1.8712106   -161.75597   -9079.3556    4.2344871    4.2344871    4.2344871   -9079.3556    -55204.11   -2135.2063     30101.25    4553.5488    1560.2628    12113.461    75.928085 
   94400    2218.5825   -163.76761    2.0074201   -161.76019    11646.778    4.2326758    4.2326758    4.2326758    11646.778   -20504.102    12597.046    42847.389    9270.8637    2070.0255     7045.225     75.83069 
   94500    2425.0877   -163.95824    2.1942703   -161.76397   -8726.0237    4.2440547    4.2440547    4.2440547   -8726.0237   -3536.6531   -22027.183   -614.23497   -7805.8212    1164.9734     11264.64    76.443913 
   94600     2359.909   -163.89752    2.1352953   -161.76223   -16343.149    4.2420869    4.2420869    4.2420869   -16343.149   -26615.393   -799.71678   -21614.337    14357.519    871.97437    10839.895     76.33763 
   94700    2026.8592   -163.59518    1.8339448   -161.76123    16459.917    4.2230955    4.2230955    4.2230955    16459.917   -19985.598    37348.755    32016.593    3102.9961    3273.6001    8086.3844    75.316945 
   94800    1950.4791   -163.53653    1.7648345    -161.7717    875.02875    4.2295664    4.2295664    4.2295664    875.02875   -48391.165    48786.258    2229.9934    4223.8881    8508.9377    11646.184    75.663695 
   94900    1928.6335    -163.5201    1.7450682   -161.77503    -15031.23    4.2406943    4.2406943    4.2406943    -15031.23   -58772.085    18915.229   -5236.8331    11237.718     8167.831    3065.1403    76.262473 
   95000    2079.3329   -163.65902    1.8814241   -161.77759    6901.2567     4.233306     4.233306     4.233306    6901.2567   -1920.0209    22049.272    574.51905    1671.4292    7159.4544    1426.5442    75.864567 
   95100    2252.9667   -163.81847    2.0385316   -161.77994    3584.1035     4.228436     4.228436     4.228436    3584.1035   -3812.8917    16919.153   -2353.9507     17518.33    6009.7685    4154.0343    75.603044 
   95200    2150.9847   -163.72911    1.9462561   -161.78285    9476.0076    4.2298237    4.2298237    4.2298237    9476.0076   -23119.374     33164.95    18382.446    -3674.632    5234.7198   -8941.2927    75.677502 
   95300    1824.5445   -163.43192    1.6508863   -161.78104   -4121.7636    4.2376265    4.2376265    4.2376265   -4121.7636   -38058.901    17913.069    7780.5418    -2287.742   -902.82448   -1255.7885    76.097085 
   95400    1610.7589   -163.23288    1.4574485   -161.77543   -1521.7695    4.2386789    4.2386789    4.2386789   -1521.7695   -52096.363    31706.184    15824.871   -13455.289    728.39907   -5694.7985    76.153798 
   95500    1683.0993   -163.29301    1.5229036    -161.7701   -14335.472    4.2353724    4.2353724    4.2353724   -14335.472   -50563.679   -7446.1783    15003.442   -24576.261     450.4588   -11438.403    75.975719 
   95600    1771.3567   -163.37106    1.6027607   -161.76829    6685.0646    4.2334594    4.2334594    4.2334594    6685.0646    897.79066   -18466.001    37623.404   -11980.762   -11290.603   -5038.0281    75.872814 
   95700    1593.0444   -163.21334      1.44142   -161.77192        14229     4.236282     4.236282     4.236282        14229    18986.557    733.05149    22967.393   -22783.601   -14047.726   -10530.646    76.024678 
   95800    1150.4555   -162.81138    1.0409563   -161.77042   -24015.523    4.2415429    4.2415429    4.2415429   -24015.523   -51629.073   -30676.766     10259.27   -25447.272   -8361.7549   -6334.1752    76.308269 
   95900    861.13963   -162.54794   0.77917723   -161.76876    4088.1893    4.2290409    4.2290409    4.2290409    4088.1893   -26057.056   -16454.328    54775.952   -33842.407   -12923.078   -11521.999    75.635495 
   96000    824.42384   -162.52266   0.74595602    -161.7767    276.43073    4.2298951    4.2298951    4.2298951    276.43073   -15985.587   -24229.914    41044.793   -31988.887   -4918.6939   -5543.2391    75.681337 
   96100    900.25531   -162.59595   0.81456993   -161.78138   -18900.068    4.2398456    4.2398456    4.2398456   -18900.068   -16252.507   -76070.068    35622.369   -35996.959   -4888.3446   -5426.7082    76.216695 
   96200    887.62661   -162.58498   0.80314321   -161.78183    1266.3292    4.2345369    4.2345369    4.2345369    1266.3292    37797.484   -79280.259    45281.762   -29729.775   -3726.3107    2012.8974    75.930766 
   96300    657.47288   -162.37981   0.59489527   -161.78492   -11970.715    4.2324012    4.2324012    4.2324012   -11970.715   -7119.6745   -74790.797    45998.328   -29052.694   -3583.0454    1042.9503    75.815931 
   96400    431.28269    -162.1785   0.39023364   -161.78827   -8828.4088    4.2300926    4.2300926    4.2300926   -8828.4088   -23526.714   -63615.859    60657.346   -34826.275    -2333.174    10300.023    75.691937 
   96500    507.54348   -162.25057   0.45923601   -161.79134   -4299.0362    4.2329656    4.2329656    4.2329656   -4299.0362    -21840.26   -57369.962    66313.113   -26060.233   -2485.3248    8216.7209    75.846268 
   96600    748.01886    -162.4619   0.67682318   -161.78508   -17795.334     4.242177     4.242177     4.242177   -17795.334   -6221.2049   -73663.086    26498.289    -35807.13      2862.81    3525.3093    76.342496 
   96700    946.79174   -162.63551   0.85667707   -161.77884   -4660.3432    4.2349881    4.2349881    4.2349881   -4660.3432    14663.916   -64737.336     36092.39    -40505.09    3226.5887    9205.9618    75.955039 
   96800    898.20135    -162.5886   0.81271146   -161.77589    8903.1034    4.2291523    4.2291523    4.2291523    8903.1034   -5930.9904    -17983.63     50623.93    -38066.53    285.89798    6039.3927    75.641472 
   96900    646.51624   -162.36238   0.58498148    -161.7774   -17068.054    4.2366431    4.2366431    4.2366431   -17068.054   -46032.237    -20900.81    15728.886   -49759.177    13791.931     8605.234    76.044122 
   97000    648.26371   -162.36655   0.58656262   -161.77998   -9923.8605    4.2383362    4.2383362    4.2383362   -9923.8605   -79272.595    7750.6597    41750.354   -44380.863    7314.6741   -1503.1985    76.135328 
   97100     978.7907   -162.66474    0.8856304   -161.77911   -6129.7389    4.2367648    4.2367648    4.2367648   -6129.7389   -34588.314   -3329.7464    19528.844   -51349.839    22437.935    4351.0515    76.050676 
   97200    1273.7385   -162.93345    1.1525053   -161.78094    3443.2498    4.2279024    4.2279024    4.2279024    3443.2498     1579.996    9377.8417    -628.0882   -36549.835    22691.478    -6393.545    75.574424 
   97300    1371.3705   -163.02533    1.2408449   -161.78449    10286.682    4.2295366    4.2295366    4.2295366    10286.682   -19708.124     17945.47    32622.699   -34662.207     25840.79   -1258.1024    75.662093 
   97400    1253.9234   -162.91481    1.1345762   -161.78024   -19092.708    4.2412273    4.2412273    4.2412273   -19092.708   -54921.234    3207.4273   -5564.3179   -20627.606    14902.455   -2100.0138    76.291237 
   97500    1295.7468   -162.94349    1.1724189   -161.77107   -10246.367    4.2402265    4.2402265    4.2402265   -10246.367   -58251.447    35335.343   -7822.9972   -10586.401    17795.543   -4564.8174    76.237239 
   97600    1605.0443   -163.21941    1.4522778   -161.76713   -2206.9939    4.2365455    4.2365455    4.2365455   -2206.9939   -53795.724    37268.785    9905.9568   -13993.199    7578.4095    4687.3509    76.038865 
   97700    2147.1892   -163.71051    1.9428219   -161.76769    3451.7718    4.2310335    4.2310335    4.2310335    3451.7718   -2761.2783    33059.401   -19942.807    3306.7514    7365.2087    -8437.248    75.742458 
   97800    2281.1738   -163.83515     2.064054   -161.77109    5672.1975    4.2366438    4.2366438    4.2366438    5672.1975    12272.005     11722.48   -6977.8925   -10294.968    6420.2634    5529.9668    76.044159 
   97900    2026.0771   -163.59686    1.8332371   -161.76362   -15757.809    4.2421972    4.2421972    4.2421972   -15757.809   -29025.454   -9992.0587   -8255.9147   -873.10386    4012.3108    -979.1766    76.343589 
   98000    1795.7392   -163.38625    1.6248225   -161.76142    337.16157    4.2320771    4.2320771    4.2320771    337.16157   -28247.635    22137.196    7121.9241    2499.1938   -3631.3277   -2880.1169    75.798517 
   98100    2050.3495   -163.62033    1.8551993   -161.76513    5631.3595    4.2271907    4.2271907    4.2271907    5631.3595   -8778.4242    10248.503        15424    9203.0823   -4306.5233   -2501.3492     75.53627 
   98200    2474.2749   -164.01291    2.2387759   -161.77414    666.31937    4.2320542    4.2320542    4.2320542    666.31937    13640.327   -1325.3195    -10316.05    19634.667   -11713.743   -3004.6044    75.797289 
   98300    2530.6871   -164.06765    2.2898188   -161.77783   -458.52454    4.2373589    4.2373589    4.2373589   -458.52454    26000.933   -7839.5661   -19536.941     21253.28   -4788.4251    909.22752    76.082673 
   98400    2314.7256   -163.86676    2.0944123   -161.77235    45.455672    4.2307679    4.2307679    4.2307679    45.455672    12469.582   -9760.9406   -2572.2748    34613.373   -2760.5145   -3168.2402    75.728193 
   98500     2004.985   -163.58439    1.8141525   -161.77023    6660.4424    4.2307195    4.2307195    4.2307195    6660.4424    5101.6053    2817.6565    12062.065    30018.655      1691.52    1534.0385    75.725593 
   98600     2058.263   -163.63301    1.8623596   -161.77065    3451.4861    4.2332611    4.2332611    4.2332611    3451.4861   -29194.157    17123.614    22425.001    34101.433   -2032.6862   -854.45358    75.862152 
   98700    2642.1506   -164.16061    2.3906734   -161.76994   -1727.7948    4.2349111    4.2349111    4.2349111   -1727.7948   -2027.7806   -5383.6065    2228.0026    31027.118    1912.8065    1333.9019    75.950894 
   98800    3035.8018   -164.51209    2.7468573   -161.76523   -7837.7806     4.241054     4.241054     4.241054   -7837.7806    7684.2701   -16560.951   -14636.661    15181.316     1423.635    1435.3405    76.281882 
   98900    2863.8052   -164.34944    2.5912312    -161.7582    8313.5001    4.2326476    4.2326476    4.2326476    8313.5001     17874.58     92.57067      6973.35    22734.647   -1263.3356    -888.5937    75.829176 
   99000    2485.4896   -164.00707    2.2489232   -161.75815   -2497.3077    4.2337719    4.2337719    4.2337719   -2497.3077    -22459.39    1390.7236    13576.743    20083.972   -8502.8611    404.62143    75.889618 
   99100    2177.0796   -163.72446    1.9698674   -161.75459   -16500.455    4.2422983    4.2422983    4.2422983   -16500.455   -44624.105   -14791.567    9914.3067    19796.053   -3124.6484   -612.22558    76.349044 
   99200    2359.2364   -163.88841    2.1346866   -161.75373     3750.137     4.234245     4.234245     4.234245     3750.137    27354.051   -24524.365    8420.7246      31418.4   -9829.7215    6338.9545    75.915064 
   99300    2573.6017   -164.08781    2.3286489   -161.75916    378.53105    4.2325577    4.2325577    4.2325577    378.53105    27683.646   -33334.789    6786.7361    27997.601   -9090.0322   -859.28056    75.824345 
   99400    2450.8199   -163.98455    2.2175533   -161.76699    11136.626    4.2299309    4.2299309    4.2299309    11136.626    43306.122    -8881.168   -1015.0751    33164.831   -10309.072   -4151.3449     75.68326 
   99500    2013.3465   -163.59588    1.8217182   -161.77416   -191.32427    4.2332612    4.2332612    4.2332612   -191.32427    10640.561    -8915.979   -2298.5546    22096.616   -9582.6368   -8858.0644     75.86216 
   99600    1820.1043   -163.42001    1.6468687   -161.77314   -21883.557    4.2378873    4.2378873    4.2378873   -21883.557   -24896.537   -21190.623   -19563.511     30360.38   -702.82249   -16031.354    76.111136 
   99700    1988.8213   -163.57024    1.7995273   -161.77071   -933.08522    4.2304454    4.2304454    4.2304454   -933.08522    10596.441    4536.2974   -17931.994    20959.716   -6663.9796   -17224.277    75.710881 
   99800    2131.5854   -163.70339    1.9287032   -161.77469    12578.698     4.231258     4.231258     4.231258    12578.698    45037.436    377.81211   -7679.1547    14348.564    1552.9383   -14651.948    75.754513 
   99900     2003.674   -163.58901    1.8129663   -161.77604   -1365.6495    4.2375222    4.2375222    4.2375222   -1365.6495    47031.065   -10970.568   -40157.445    14145.153    6515.8663   -21853.861    76.091469 
  100000    1544.1199   -163.17052    1.3971522   -161.77337   -250.74974    4.2345361    4.2345361    4.2345361   -250.74974    21124.886    22011.104   -43888.239    6625.8946    2371.6887    -30463.29    75.930718 
Loop time of 30.482 on 1 procs for 100000 steps with 8 atoms

Pair  time (%) = 10.2705 (33.6935)
Kspce time (%) = 7.26294 (23.827)
Neigh time (%) = 0.0396204 (0.12998)
Comm  time (%) = 1.49634 (4.90893)
Outpt time (%) = 0.0416319 (0.136579)
Other time (%) = 11.371 (37.304)

Nlocal:    8 ave 8 max 8 min
Histogram: 1 0 0 0 0 0 0 0 0 0
Nghost:    2189 ave 2189 max 2189 min
Histogram: 1 0 0 0 0 0 0 0 0 0
Neighs:    2380 ave 2380 max 2380 min
Histogram: 1 0 0 0 0 0 0 0 0 0

Total # of neighbors = 2380
Ave neighs/atom = 297.5
Neighbor list builds = 364
Dangerous builds = 0
unfix 20
unfix 21
print "seeds:6969476"
seeds:6969476
