LAMMPS (10 Feb 2015)
# ---- initialize simulations
clear
units metal
dimension 3
boundary p p p
atom_style charge
atom_modify map array
# ---- create atoms
read_data /Users/eugeneragasa/pyflamestk_git/pypospack/tests/tests_integration/workflow/WorkflowLammpsThermalExpansion/param_5091/MgO_NaCl_unit.npt.T100/lammps.structure
  triclinic box = (0 0 0) to (4.2565 4.2565 4.2565) with tilt (0 0 0)
  1 by 1 by 1 MPI processor grid
  reading atoms ...
  8 atoms
# ---- define interatomic potential
include potential.mod
mass 1 24.305
mass 2 15.999

group Mg type 1
4 atoms in group Mg
group O type 2
4 atoms in group O

set group Mg charge 1.60395442224
  4 settings made for charge
set group O charge -1.60395442224
  4 settings made for charge

variable R_cut equal 10.0

pair_style buck/coul/long ${R_cut}
pair_style buck/coul/long 10
pair_coeff 1 1 0.0 0.5 0.0 ${R_cut}
pair_coeff 1 1 0.0 0.5 0.0 10
pair_coeff 1 2 1640.33364459 0.274285748818 0.0 ${R_cut}
pair_coeff 1 2 1640.33364459 0.274285748818 0.0 10
pair_coeff 2 2 138.503876614 0.167383398543 15.9463705464 ${R_cut}
pair_coeff 2 2 138.503876614 0.167383398543 15.9463705464 10

kspace_style pppm 1.0e-5

neighbor 1.0 bin
neigh_modify every 1 delay 0 check yes
# ---- define settings
compute eng all pe/atom
compute eatoms all reduce sum c_eng
# ---- run minimization
reset_timestep 0
fix 1 all box/relax iso 0.0 vmax 0.001
thermo 10
thermo_style custom step pe lx ly lz xy xz yz press pxx pyy pzz pxy pxz pyz c_eatoms
min_style cg
minimize 1e-25 1e-25 5000 10000
PPPM initialization ...
  G vector (1/distance) = 0.352384
  grid = 8 8 8
  stencil order = 5
  estimated absolute RMS force accuracy = 3.76636e-05
  estimated relative force accuracy = 2.6156e-06
  using double precision FFTs
  3d grid and FFT values/proc = 3375 512
Neighbor list info ...
  1 neighbor list requests
  update every 1 steps, delay 0 steps, check yes
  master list distance cutoff = 11
Memory usage per processor = 4.06549 Mbytes
Step PotEng Lx Ly Lz Xy Xz Yz Press Pxx Pyy Pzz Pxy Pxz Pyz eatoms 
       0   -105.40733       4.2565       4.2565       4.2565            0            0            0    42357.047    42357.047    42357.047    42357.047 -5.4591187e-11 1.2697943e-10 -3.1158894e-11   -105.40733 
      10   -105.43209    4.2922445    4.2922445    4.2922445            0            0            0   -4.9211524   -4.9211524   -4.9211524   -4.9211524 1.7090498e-11 -3.1779622e-11 -1.1443831e-10   -105.43209 
      12   -105.43209    4.2922402    4.2922402    4.2922402            0            0            0  -0.19512063  -0.19512063  -0.19512063  -0.19512063 3.2638439e-11 -8.1058727e-11 1.6032595e-10   -105.43209 
Loop time of 0.00934792 on 1 procs for 12 steps with 8 atoms

Minimization stats:
  Stopping criterion = linesearch alpha is zero
  Energy initial, next-to-last, final = 
        -105.407331285      -105.43208818      -105.43208818
  Force two-norm initial, final = 6.11638 6.94804e-05
  Force max component initial, final = 6.11638 2.86507e-05
  Final line search alpha, max atom move = 0.5 1.43253e-05
  Iterations, force evaluations = 12 25

Pair  time (%) = 0.00260639 (27.8821)
Kspce time (%) = 0.00153637 (16.4354)
Neigh time (%) = 0 (0)
Comm  time (%) = 0.000288486 (3.0861)
Outpt time (%) = 1.21593e-05 (0.130075)
Other time (%) = 0.00490451 (52.4663)

Nlocal:    8 ave 8 max 8 min
Histogram: 1 0 0 0 0 0 0 0 0 0
Nghost:    2189 ave 2189 max 2189 min
Histogram: 1 0 0 0 0 0 0 0 0 0
Neighs:    2344 ave 2344 max 2344 min
Histogram: 1 0 0 0 0 0 0 0 0 0

Total # of neighbors = 2344
Ave neighs/atom = 293
Neighbor list builds = 0
Dangerous builds = 0
unfix 1
# ---- define output variables ----
variable natoms equal "count(all)"
variable tot_energy equal "c_eatoms"
variable length_x equal "lx"
variable length_y equal "ly"
variable length_z equal "lz"
variable tilt_xy equal "xy"
variable tilt_xz equal "xz"
variable tilt_yz equal "yz"
variable tot_press equal "press"
variable press_xx equal "pxx"
variable press_yy equal "pyy"
variable press_zz equal "pzz"
variable press_xy equal "pxy"
variable press_xz equal "pxz"
variable press_yz equal "pyz"

# ---- output ----
print "pypospack:output_section:begin"
pypospack:output_section:begin
print "tot_energy = ${tot_energy}"
tot_energy = -105.432088180201
print "num_atoms = ${natoms}"
num_atoms = 8
print "xx = ${length_x}"
xx = 4.29224022422512
print "yy = ${length_y}"
yy = 4.29224022422512
print "zz = ${length_z}"
zz = 4.29224022422512
print "xy = ${tilt_xy}"
xy = 0
print "xz = ${tilt_xz}"
xz = 0
print "yz = ${tilt_yz}"
yz = 0
print "tot_press = ${tot_press}"
tot_press = -0.195120630166908
print "pxx = ${press_xx}"
pxx = -0.195120630011552
print "pyy = ${press_yy}"
pyy = -0.195120630547228
print "pzz = ${press_zz}"
pzz = -0.195120629941943
print "pxy = ${press_xy}"
pxy = 3.26384388476247e-11
print "pxz = ${press_xz}"
pxz = -8.10587270505021e-11
print "pyz = ${press_yz}"
pyz = 1.60325951029016e-10
print "pypospack:output_section:done"
pypospack:output_section:done
print "pypospack:lammps_sim:done"
pypospack:lammps_sim:done
#------------------------------------------------------------------------------
# RUN THERMOSTAT
# running using an NPT Nose-Hoover style thermostat
#------------------------------------------------------------------------------
variable tempdamp equal 0.1
variable pressdamp equal 1.0
# set initial velocities
velocity all create 100 820868 mom yes dist gaussian loop all
# fix for Nose-Hoover style thermostat
fix 20 all npt temp 100 100 0.1 aniso 0.0 0.0 1.0 drag 1.0 couple xyz
variable boxx equal lx
variable boxy equal ly
variable boxz equal lz
variable boxp equal press
variable boxt equal temp
# calculate averages every 10000 steps
reset_timestep 0
fix 21 all ave/time 10 10 100 v_boxx v_boxy v_boxz v_boxp v_boxt file lattice.out
thermo_style custom step temp pe ke etotal press lx ly lz press pxx pyy pzz pxy pxz pyz vol
thermo_modify flush yes
thermo 100
run 100000
PPPM initialization ...
  G vector (1/distance) = 0.352034
  grid = 8 8 8
  stencil order = 5
  estimated absolute RMS force accuracy = 3.82705e-05
  estimated relative force accuracy = 2.65774e-06
  using double precision FFTs
  3d grid and FFT values/proc = 3375 512
Memory usage per processor = 3.06549 Mbytes
Step Temp PotEng KinEng TotEng Press Lx Ly Lz Press Pxx Pyy Pzz Pxy Pxz Pyz Volume 
       0          100   -105.43209  0.090482102   -105.34161    1220.8798    4.2922402    4.2922402    4.2922402    1220.8798    1746.0338    1266.6347      649.971   -99.687949    103.66103    321.58395    79.077342 
     100    20.110993   -105.34724  0.018196849   -105.32904    2528.2623     4.292737     4.292737     4.292737    2528.2623    3843.7848    1849.0706    1891.9313   -804.75489    703.66569   -125.93432    79.104803 
     200    75.554933    -105.3722  0.068363692   -105.30384   -477.66758    4.2943576    4.2943576    4.2943576   -477.66758    1941.9625   -1862.2034   -1512.7618   -285.63091    895.42649    604.12008    79.194428 
     300    91.062046    -105.3662  0.082394853    -105.2838    1191.0791    4.2947787    4.2947787    4.2947787    1191.0791    3190.3246    230.36333    152.54935   -155.44875   -662.96563   -773.46819    79.217724 
     400    84.589475   -105.34335  0.076538335   -105.26681    -2691.407    4.2971219    4.2971219    4.2971219    -2691.407   -1516.8942   -2725.1948   -3832.1319    591.30894    1085.5951    578.32877     79.34746 
     500    106.11208    -105.3519  0.096012439   -105.25588    2565.7698    4.2961157    4.2961157    4.2961157    2565.7698     6912.876    1801.5557   -1017.1222   -577.50811   -375.93495   -547.62646    79.291731 
     600    111.89781   -105.35265   0.10124749    -105.2514   -1746.0842    4.2977236    4.2977236    4.2977236   -1746.0842   -51.106112   -2573.6738   -2613.4727   -141.60953    829.01579    848.46307    79.380796 
     700    47.478185   -105.29364  0.042959259   -105.25068   -1035.5168    4.2978425    4.2978425    4.2978425   -1035.5168    1963.4222   -1450.6255   -3619.3472   -298.62695    467.29387   -114.82361    79.387383 
     800    169.61494   -105.40313   0.15347116   -105.24966   -1235.5158    4.2968059    4.2968059    4.2968059   -1235.5158    1991.3793   -2534.2479   -3163.6788   -763.55089    638.53525    697.17306    79.329957 
     900    49.000152   -105.29591  0.044336367   -105.25157    1460.3324    4.2975758    4.2975758    4.2975758    1460.3324     4410.496    1566.3993   -1595.8981   -1028.7213    1020.7688    166.82616    79.372603 
    1000    128.41414   -105.36748   0.11619181   -105.25129   -2789.7141    4.2962225    4.2962225    4.2962225   -2789.7141   -1679.1665   -2857.9875   -3831.9883    115.41411    746.49138    303.57142    79.297644 
    1100    96.661417   -105.33851  0.087461281   -105.25105    2223.5357    4.2968215    4.2968215    4.2968215    2223.5357    4889.6942    1060.6984    720.21459    -10.33017   -667.59467   -731.45853     79.33082 
    1200    70.502751   -105.31557  0.063792371   -105.25178    -1448.015    4.2954372    4.2954372    4.2954372    -1448.015    1173.0551   -2622.9933   -2894.1068   -358.86068    1685.3144    759.66976    79.254173 
    1300    130.15873   -105.36882   0.11777035   -105.25105   0.60203221    4.2964713    4.2964713    4.2964713   0.60203221    1038.9706    571.00985   -1608.1743   -288.92296   -703.94594   -666.44021    79.311424 
    1400    118.13654   -105.35793   0.10689242   -105.25103   -473.18398     4.295384     4.295384     4.295384   -473.18398    1806.8119   -2431.8529   -794.51092    95.410999     347.5534    594.12496    79.251224 
    1500    45.217136   -105.29286  0.040913415   -105.25195   -327.57717    4.2960389    4.2960389    4.2960389   -327.57717    2980.0845   -1482.3866   -2480.4294   -1124.6668    1127.2966   -150.91186    79.287479 
    1600    138.58379   -105.37599   0.12539353    -105.2506    807.93859    4.2962872    4.2962872    4.2962872    807.93859    2881.0125   -252.14027   -205.05642   -884.27436    342.69917    577.81622    79.301229 
    1700    86.474814   -105.32978  0.078244229   -105.25153    411.55114    4.2952772    4.2952772    4.2952772    411.55114    914.10499    718.92071   -398.37228   -288.13627    705.98973   -187.60852    79.245312 
    1800    111.89167    -105.3527   0.10124194   -105.25145    -2467.874    4.2981382    4.2981382    4.2981382    -2467.874     1857.497   -3557.1635   -5703.9555   -337.15414    901.78194    111.91387    79.403769 
    1900    96.923662   -105.33859  0.087698566   -105.25089    2889.1475    4.2946599    4.2946599    4.2946599    2889.1475    5114.1176    1272.1087    2281.2161   -606.15927    34.980646   -216.32525     79.21115 
    2000    74.935118   -105.31948   0.06780287   -105.25167   -2380.7289    4.2983539    4.2983539    4.2983539   -2380.7289    587.26491   -2259.9435   -5469.5082    60.440037    877.12562    722.37861    79.415724 
    2100    125.52034    -105.3647   0.11357344   -105.25113     982.4344    4.2958375    4.2958375    4.2958375     982.4344    1686.0286    1891.1551   -629.88049    629.63252   -791.55741   -438.03889     79.27633 
    2200    108.26708   -105.34904   0.09796233   -105.25108    1847.0193    4.2966544    4.2966544    4.2966544    1847.0193    5850.3116    663.94873   -973.20232   -784.51799    552.13338    724.10883    79.321564 
    2300    74.848403   -105.31952  0.067724408    -105.2518   -2520.0454    4.2973403    4.2973403    4.2973403   -2520.0454   -2313.2761   -875.06913    -4371.791   -9.2852065    645.47581    267.49624    79.359559 
    2400    114.52302   -105.35457   0.10362283   -105.25094    870.85902    4.2954127    4.2954127    4.2954127    870.85902    3096.5255   -744.75871    260.81029   -522.94369   -434.28047   -104.73325    79.252815 
    2500    95.489741   -105.33777  0.086401124   -105.25137    -913.0169    4.2977387    4.2977387    4.2977387    -913.0169    1679.6135   -383.45483   -4035.2094   -105.23384    1168.9563    116.64551    79.381633 
    2600    90.952413   -105.33391  0.082295654   -105.25161    327.30577    4.2951269    4.2951269    4.2951269    327.30577    1579.5951    553.86379   -1151.5416   -1531.0294     989.3883    6.6127944    79.236997 
    2700    133.53373   -105.37142   0.12082412    -105.2506    173.16099    4.2972524    4.2972524    4.2972524    173.16099   -311.49874     1198.646   -367.66427     660.4144   -315.89492    251.41001    79.354687 
    2800    62.208705   -105.30789  0.056287744    -105.2516   -1603.1984    4.2956076    4.2956076    4.2956076   -1603.1984    1936.3533   -3552.5897   -3193.3589     -530.784    962.75317    98.825362    79.263603 
    2900    105.63765   -105.34676  0.095583165   -105.25117    -989.3911    4.2969999    4.2969999    4.2969999    -989.3911    434.02403   -1781.1751   -1621.0222    115.45839   -162.72627   -125.81177    79.340699 
    3000    117.21479   -105.35699    0.1060584   -105.25093    1263.8777    4.2958295    4.2958295    4.2958295    1263.8777    3077.6468    1731.0869   -1017.1006   -582.27734   -83.511692    559.58341    79.275888 
    3100    95.609231   -105.33802  0.086509241   -105.25151   -2256.4143     4.296601     4.296601     4.296601   -2256.4143   -476.34535   -2278.0104   -4014.8873    626.10205    316.40726   -251.06822    79.318604 
    3200    89.939252   -105.33248  0.081378926    -105.2511    2420.7328    4.2965881    4.2965881    4.2965881    2420.7328    5686.0648    1220.0007    356.13278   -1297.8706   -424.13789   -570.30099    79.317892 
    3300    108.94776   -105.34972  0.098578222   -105.25114   -933.38412     4.295686     4.295686     4.295686   -933.38412     686.2798   -1310.2656   -2176.1666   -386.98126    1229.6747    650.73371    79.267943 
    3400    75.070601   -105.31957  0.067925458   -105.25164   -92.676009    4.2976319    4.2976319    4.2976319   -92.676009    766.42847    1824.8035     -2869.26   -890.79445   -195.75341   -306.64697    79.375713 
    3500    151.67192   -105.38776   0.13723594   -105.25052    790.57005    4.2953234    4.2953234    4.2953234    790.57005    3672.4419   -262.03501   -1038.6967    433.08105   -36.836885    352.72351    79.247869 
    3600    59.519235   -105.30537  0.053854255   -105.25151    444.11219      4.29725      4.29725      4.29725    444.11219    3748.5904    960.25383   -3376.5077   -876.14162    895.13147    386.91634    79.354555 
    3700    102.09292   -105.34349  0.092375824   -105.25111   -629.38659    4.2963273    4.2963273    4.2963273   -629.38659   -2844.3695    1466.8157   -510.60598    935.64508   -790.23353    411.44036    79.303448 
    3800    111.61583   -105.35176   0.10099235   -105.25076    1899.1192     4.296124     4.296124     4.296124    1899.1192    4904.6487    2385.5889   -1592.8799    169.37878   -498.99274   -154.95815    79.292195 
    3900    99.427936   -105.34149  0.089964486   -105.25153   -2841.3811    4.2972019    4.2972019    4.2972019   -2841.3811    -2253.698   -2422.5457   -3847.8997    203.96158    715.86879    27.928404    79.351892 
    4000    93.974657   -105.33619  0.085030244   -105.25115    1698.3556    4.2957623    4.2957623    4.2957623    1698.3556     2022.658    3043.4492    28.959552   -1643.0442    -797.1453     -460.402    79.272164 
    4100    113.65063   -105.35397   0.10283348   -105.25114   -1987.2018    4.2969797    4.2969797    4.2969797   -1987.2018    430.17458   -2241.1626   -4150.6173    418.73005    824.06832    893.27725    79.339582 
    4200    55.498601   -105.30215    0.0502163   -105.25193    384.94098    4.2961469    4.2961469    4.2961469    384.94098    1100.9223    593.84177   -539.94113   -1676.9689    98.631286   -900.20297    79.293461 
    4300    159.22883   -105.39469    0.1440736   -105.25062   -675.15931    4.2965731    4.2965731    4.2965731   -675.15931    862.12127   -79.562435   -2808.0368    3.8911052    441.35141    1154.6068     79.31706 
    4400    65.411417   -105.31074  0.059185624   -105.25156    489.46768     4.296188     4.296188     4.296188    489.46768     896.9099    1082.9095    -511.4164   -226.92795    359.61349    184.37609    79.295734 
    4500    105.34327   -105.34655  0.095316806   -105.25123   -2292.0377    4.2969467    4.2969467    4.2969467   -2292.0377    1041.4669   -3889.4958   -4028.0842    1055.3147   -575.76661    -90.89048    79.337753 
    4600    100.37113   -105.34169  0.090817905   -105.25087    2172.4286     4.295706     4.295706     4.295706    2172.4286    5302.8039    2113.8261   -899.34413   -757.66408   -160.20631   -319.79618    79.269049 
    4700    96.022284   -105.33832   0.08688298   -105.25144   -1325.2662    4.2971338    4.2971338    4.2971338   -1325.2662   -1161.3891   -306.66438   -2507.7451    145.17257    297.73586    384.95967    79.348116 
    4800    107.05921   -105.34793  0.096869419   -105.25106    1945.2405    4.2958378    4.2958378    4.2958378    1945.2405    2872.2693    4718.7048   -1755.2527   -714.12636   -1728.2524   -774.26748    79.276347 
    4900    118.43848   -105.35794   0.10716563   -105.25077   -827.00895    4.2968808    4.2968808    4.2968808   -827.00895    3014.7011   -3574.1746   -1921.5533   -394.28314    1105.5692    660.65551    79.334102 
    5000    48.326276   -105.29521   0.04372663   -105.25148    155.97466    4.2964281    4.2964281    4.2964281    155.97466   -746.90312    3270.2061    -2055.379    -1284.966   -675.32694   -316.20533    79.309032 
    5100    147.13717   -105.38373    0.1331328   -105.25059    -284.8158    4.2964623    4.2964623    4.2964623    -284.8158    1542.7753     647.1942   -3044.4169    535.71681   -140.06464    1119.9463    79.310923 
    5200     82.35345   -105.32589  0.074515132   -105.25137    1135.5998    4.2965909    4.2965909    4.2965909    1135.5998    2240.9624    2591.9948   -1426.1578    268.05039    129.39407   -409.49277    79.318046 
    5300    106.38561   -105.34762  0.096259937   -105.25136   -2168.8227    4.2965268    4.2965268    4.2965268   -2168.8227   -2201.6535   -223.01261    -4081.802   -237.66236    -417.2395    20.994592    79.314499 
    5400    94.576254   -105.33647  0.085574582    -105.2509     1518.195    4.2966156    4.2966156    4.2966156     1518.195    1632.5303    2264.7853    657.26931    340.92536   -495.08457    197.19976    79.319414 
    5500     87.67568   -105.33075  0.079330798   -105.25142   -2428.2762    4.2961507    4.2961507    4.2961507   -2428.2762   -1707.7016   -1743.4102   -3833.7166    7.6214438   -235.54087   -45.830725    79.293671 
    5600    114.80778   -105.35494    0.1038805   -105.25106   -374.61241    4.2973667    4.2973667    4.2973667   -374.61241    1696.0869    373.57717   -3193.5013   -1093.4286    -1125.649   -840.12266    79.361019 
    5700    117.07605   -105.35682   0.10593287   -105.25089    655.30677    4.2954299    4.2954299    4.2954299    655.30677    2026.4972    763.10213   -823.67903   -877.43698    778.34323    1272.1922    79.253766 
    5800     62.20006   -105.30796  0.056279922   -105.25168   -1408.0651    4.2974306    4.2974306    4.2974306   -1408.0651   -1248.4139    727.61942   -3703.4008   -100.90817   -1017.3441   -499.20898     79.36456 
    5900    117.00504   -105.35682   0.10586862   -105.25095    768.83989    4.2958004    4.2958004    4.2958004    768.83989    4217.3541   -855.80414   -1055.0303   -314.29113     114.6861     486.9826    79.274274 
    6000    105.31579   -105.34662  0.095291941   -105.25132   -112.68937    4.2965799    4.2965799    4.2965799   -112.68937    1001.3938   -43.029673   -1296.4323    64.716368    537.62703   -33.743793    79.317435 
    6100    93.918105   -105.33647  0.084979075   -105.25149   -516.96323    4.2970142    4.2970142    4.2970142   -516.96323    792.39657    2413.0823   -4756.3686   -7.0952175   -999.32819    133.57776    79.341494 
    6200    108.13701   -105.34854  0.097844637   -105.25069    2462.0989    4.2952039    4.2952039    4.2952039    2462.0989    6301.1336    212.83819    872.32495    759.96432   -384.42473    11.521842    79.241259 
    6300     83.02845   -105.32647  0.075125886   -105.25135   -1667.2298    4.2978411    4.2978411    4.2978411   -1667.2298   -222.38798    555.81846   -5335.1199   -1122.2361   -189.22675   -211.20361    79.387307 
    6400    104.83189   -105.34609  0.094854095   -105.25124    760.99238    4.2952253    4.2952253    4.2952253    760.99238   -432.05568    3186.4395   -471.40672    84.582184   -1707.8404    243.68597     79.24244 
    6500    113.31396   -105.35343   0.10252886    -105.2509    1392.5054    4.2972001    4.2972001    4.2972001    1392.5054    3583.5221    2599.1035   -2005.1093   -183.25033    180.52869    650.85309     79.35179 
    6600    92.608955   -105.33528  0.083794528   -105.25149    -2913.272    4.2962118    4.2962118    4.2962118    -2913.272   -2450.4411   -1692.8715   -4596.5036    81.420866   -1372.7062   -553.00316    79.297056 
    6700    91.652639   -105.33404  0.082929234   -105.25111    867.42684    4.2967558    4.2967558    4.2967558    867.42684    1939.7643    2311.5533   -1649.0371   -1202.5502    79.519962    291.52942     79.32718 
    6800    106.63416   -105.34748  0.096484829     -105.251   -986.56562    4.2967528    4.2967528    4.2967528   -986.56562   -1494.0759    1618.3931   -3084.0141    1092.7909   -177.12792    510.02827    79.327014 
    6900    86.079473   -105.32936  0.077886517   -105.25147   -884.51244     4.296238     4.296238     4.296238   -884.51244   -544.96661    1746.7767   -3855.3474    -1209.359   -1108.0007   -701.28979    79.298505 
    7000    137.64568   -105.37508   0.12454471   -105.25053   -597.06761    4.2973232    4.2973232    4.2973232   -597.06761    1324.1693   -2183.7375   -931.63454    269.05053    366.49893    543.06174    79.358609 
    7100    67.047992   -105.31211  0.060666433   -105.25144   -648.53373    4.2955317    4.2955317    4.2955317   -648.53373   -645.73016    2184.5303   -3484.4014   -740.79553   -886.98569     115.2542    79.259403 
    7200    85.946339   -105.32913  0.077766053   -105.25136   -185.38846    4.2977583    4.2977583    4.2977583   -185.38846    3265.6195    -1396.326   -2425.4588    889.86497   -1357.9739    262.56079    79.382716 
    7300    137.76647   -105.37538   0.12465399   -105.25073    1212.7237    4.2950474    4.2950474    4.2950474    1212.7237    3352.0068    1744.4055   -1458.2412   -1004.0859    153.27205      45.3391    79.232594 
    7400    89.352328   -105.33226  0.080847864   -105.25141   -1428.5196    4.2977025    4.2977025    4.2977025   -1428.5196    239.39049      220.262   -4745.2114    161.61116   -1128.4812   -178.13528    79.379623 
    7500    81.528853   -105.32482   0.07376902   -105.25105    2914.8927    4.2955584    4.2955584    4.2955584    2914.8927     4730.468    3329.2267    684.98335   -524.42519   -463.93649    188.33481    79.260877 
    7600    124.08447   -105.36317   0.11227424    -105.2509   -1360.7503    4.2965782    4.2965782    4.2965782   -1360.7503    2443.7681   -3317.1718   -3208.8471     351.4766    205.75204    174.63901    79.317345 
    7700    71.114624   -105.31605  0.064346006   -105.25171     335.7078    4.2969715    4.2969715    4.2969715     335.7078    535.29786     3768.263   -3296.4375   -1406.2944   -1153.9551   -659.89021    79.339129 
    7800    138.00118   -105.37574   0.12486637   -105.25088    1600.3068    4.2955481    4.2955481    4.2955481    1600.3068    3867.0533    2022.1902   -1088.3231    1196.2679    214.89802    1138.6064    79.260308 
    7900    80.356896   -105.32427  0.072708608   -105.25156   -1096.8114    4.2975879    4.2975879    4.2975879   -1096.8114   -409.17244    2707.3878   -5588.6496    38.003585   -1510.8212   -130.30274    79.373275 
    8000    86.777837   -105.32989  0.078518411   -105.25137    -1273.687    4.2958564    4.2958564    4.2958564    -1273.687   -1653.7876   -1866.3268    -300.9465   -84.242353   -1222.8852    99.068163    79.277378 
    8100    123.90592   -105.36285   0.11211268   -105.25074   -60.895051    4.2972289    4.2972289    4.2972289   -60.895051    1276.8186    2935.4566   -4394.9603   -9.4815934   -263.84254    124.66581    79.353386 
    8200    78.387838   -105.32253  0.070926963    -105.2516   -1063.2839    4.2961841    4.2961841    4.2961841   -1063.2839   -2040.9707    1375.0874   -2523.9684    162.29359   -2033.1545    227.01538    79.295519 
    8300    116.72152   -105.35655   0.10561208   -105.25094   -651.58887    4.2971024    4.2971024    4.2971024   -651.58887    2106.6868   -602.21033   -3459.2431   -1546.9834   -131.35078    -605.3547    79.346378 
    8400    108.42364   -105.34906  0.098103992   -105.25095   -1358.8485    4.2963839    4.2963839    4.2963839   -1358.8485   -760.03302    532.63196   -3849.1446   -160.94293   -73.343182    437.82168    79.306581 
    8500    52.372813    -105.2991  0.047388022   -105.25172   -89.686891    4.2967323    4.2967323    4.2967323   -89.686891    96.499655     1939.057   -2304.6173   -494.40795   -1263.4571   -382.85237    79.325878 
    8600    145.94538   -105.38271   0.13205444   -105.25066    46.823704    4.2966105    4.2966105    4.2966105    46.823704    3817.1266    -920.1445   -2756.5109    791.36415    462.11644    1215.9496     79.31913 
    8700    99.711685   -105.34141  0.090221228   -105.25119    -169.7325     4.296196     4.296196     4.296196    -169.7325    1616.0489   -126.28326   -1998.9632   -67.076533    -1114.405   -514.68697    79.296176 
    8800    71.673496   -105.31625  0.064851685    -105.2514    911.62824     4.296997     4.296997     4.296997    911.62824    4729.9437    1387.0498   -3382.1088    523.81483   -695.30483    623.92373     79.34054 
    8900    122.01958   -105.36099   0.11040588   -105.25059    1437.4849    4.2954548    4.2954548    4.2954548    1437.4849    4109.8532    1692.0292   -1489.4277    426.84807   -495.01421    267.82917    79.255143 
    9000    77.251061   -105.32141  0.069898384   -105.25151   -133.16322    4.2973388    4.2973388    4.2973388   -133.16322    1390.6659    615.15203   -2405.3076    -1162.073   -1393.5128   -73.134239    79.359476 
    9100    133.56135   -105.37186   0.12084912   -105.25101    69.628929    4.2958596    4.2958596    4.2958596    69.628929    2749.6554    689.74236    -3230.511   -828.11054    74.535777   -501.19571    79.277555 
    9200    87.268914   -105.33001  0.078962747   -105.25104    2003.9536    4.2966091    4.2966091    4.2966091    2003.9536    3364.7976     3229.045   -581.98166    462.88846   -393.77702    726.50244    79.319057 
    9300    74.745793   -105.31907  0.067631564   -105.25144   -1677.9799    4.2966173    4.2966173    4.2966173   -1677.9799   -131.37806   -1064.8776   -3837.6839     -332.833   -1260.8348   -242.54397     79.31951 
    9400    129.15815   -105.36765   0.11686501   -105.25079    6.6831956    4.2965899    4.2965899    4.2965899    6.6831956    150.37554    1729.8772   -1860.2031    91.052555    823.73655    446.74085    79.317993 
    9500    96.801638   -105.33885  0.087588156   -105.25127   -843.31725    4.2967827    4.2967827    4.2967827   -843.31725   -528.31695    2170.2974   -4171.9322    1459.6202   -1519.6057   -96.408019    79.328672 
    9600    83.481722   -105.32694  0.075536016   -105.25141    -1178.521    4.2966567    4.2966567    4.2966567    -1178.521   -1634.1261    1465.3632   -3366.8001   -757.60864   -1008.7432    709.59684    79.321689 
    9700    127.20453    -105.3657   0.11509733    -105.2506   -1202.1446     4.296836     4.296836     4.296836   -1202.1446    1204.9486   -3665.1319   -1146.2507   -166.20177   -140.17493   -237.70933    79.331619 
    9800    63.512626   -105.30905  0.057467559   -105.25158   -425.63706     4.296377     4.296377     4.296377   -425.63706   -860.02024    3319.8806   -3736.7715   -1021.3294   -1839.0801   -213.56391    79.306204 
    9900    120.02913    -105.3597   0.10860488    -105.2511   -283.42844    4.2971295    4.2971295    4.2971295   -283.42844    3345.6215   -386.46293   -3809.4439   -77.164094   -88.834552    77.759453    79.347878 
   10000    114.17054   -105.35423   0.10330391   -105.25093    685.73641    4.2957031    4.2957031    4.2957031    685.73641    601.52147    2382.4742   -926.78647   -578.83115   -765.55928    457.61545    79.268887 
   10100    80.947726   -105.32462  0.073243204   -105.25138   -1938.5151    4.2975456    4.2975456    4.2975456   -1938.5151    2816.8115   -3327.8556   -5304.5011    307.27776   -610.05718   -646.34326    79.370929 
   10200    95.366043   -105.33722    0.0862892   -105.25093    2597.0821     4.295479     4.295479     4.295479    2597.0821    4083.8603    3205.4021     501.9839    908.44336    530.22696    769.63484    79.256482 
   10300    109.63514   -105.35034   0.09920018   -105.25114    434.14594    4.2969704    4.2969704    4.2969704    434.14594    4375.4582     162.1919   -3235.2122    474.11182   -1226.2107    179.54573    79.339068 
   10400    102.91983   -105.34436  0.093124028   -105.25124    99.944532    4.2962962    4.2962962    4.2962962    99.944532     1700.653    513.59764    -1914.417   -965.99785    126.56328    316.98505    79.301729 
   10500    106.74447   -105.34729  0.096584639    -105.2507    1763.0754    4.2962869    4.2962869    4.2962869    1763.0754    5467.7598    1612.6693   -1791.2029    602.09359   -5.7152714   -318.16034    79.301211 
   10600    74.901991     -105.319  0.067772896   -105.25122   -1164.4247    4.2969325    4.2969325    4.2969325   -1164.4247   -1815.7885     2165.237   -3842.7224   -728.52213   -1594.8503    432.42163    79.336967 
   10700    109.16723   -105.34983  0.098776801   -105.25105   -429.75384    4.2962266    4.2962266    4.2962266   -429.75384    1933.0518   -2245.7544   -976.55892   -704.26934    293.86057    87.330662    79.297874 
   10800     123.4742   -105.36248   0.11172205   -105.25076    390.25521    4.2970051    4.2970051    4.2970051    390.25521    360.64551    2543.2594   -1733.1393    665.00839   -577.60296   -311.88942    79.340986 
   10900    73.700694   -105.31811  0.066685936   -105.25142   -850.47529    4.2961467    4.2961467    4.2961467   -850.47529    370.25977    1451.7146   -4373.4003    199.96241   -960.34603    16.379691    79.293446 
   11000    108.14302   -105.34863  0.097850078   -105.25078   -1088.0291    4.2974171    4.2974171    4.2974171   -1088.0291   -2317.0212   -262.08651   -684.97969   -317.36262    507.72353     622.6755    79.363811 
   11100    100.95225   -105.34243  0.091343718   -105.25109   -1301.1762      4.29591      4.29591      4.29591   -1301.1762     582.0329   -808.14074   -3677.4208    61.570729   -772.32882    -320.3875    79.280345 
   11200    88.985619   -105.33195  0.080516059   -105.25143   -1025.5437    4.2976103    4.2976103    4.2976103   -1025.5437   -445.06635    832.27773   -3463.8425   -517.14183    72.574968    8.1108827    79.374516 
   11300    124.73454    -105.3636   0.11286244   -105.25074    821.95327     4.295862     4.295862     4.295862    821.95327    3007.1097    824.96503    -1366.215    256.70837   -324.92328     469.8947    79.277686 
   11400    88.350521   -105.33114  0.079941408    -105.2512   -1255.5422    4.2971055    4.2971055    4.2971055   -1255.5422    1658.3593   -1913.9981   -3510.9876    -724.7532   -1203.9533    105.03896    79.346549 
   11500    75.072424   -105.31926  0.067927107   -105.25134    1507.6547    4.2963936    4.2963936    4.2963936    1507.6547    4589.1589    493.27385   -559.46852    501.15692    436.47598   -14.399167     79.30712 
   11600    136.53378   -105.37431   0.12353863   -105.25077    134.77714    4.2959191    4.2959191    4.2959191    134.77714    1544.6048    2140.9824   -3281.2557    824.16284   -1138.1025    -94.00939    79.280849 
   11700    81.105249   -105.32478  0.073385734   -105.25139   -32.686457    4.2974326    4.2974326    4.2974326   -32.686457    4575.3869   -513.90171   -4159.5446   -1132.1276   -564.56053     489.2969    79.364669 
   11800    111.31258   -105.35158   0.10071796   -105.25086    857.43386     4.295313     4.295313     4.295313    857.43386    3381.5249   -1847.1168    1037.8935    501.53726    1153.6501   -69.290226    79.247295 
   11900    88.654296   -105.33119   0.08021627   -105.25098    660.57625    4.2974969    4.2974969    4.2974969    660.57625    4218.3302     2329.753   -4566.3544    196.25076   -806.84892     -406.017    79.368231 
   12000    89.527681   -105.33237  0.081006527   -105.25137   -232.62388    4.2956525    4.2956525    4.2956525   -232.62388   -689.17813    533.96149     -542.655   -630.01716    634.52258    586.90979    79.266089 
   12100    133.69045   -105.37177   0.12096593   -105.25081   -583.91197    4.2974736    4.2974736    4.2974736   -583.91197    1895.4584   -13.218602   -3633.9757    263.85464    366.50401    143.51119     79.36694 
   12200    83.712863   -105.32702  0.075745158   -105.25128   -969.10642    4.2961888    4.2961888    4.2961888   -969.10642    42.059051    79.069493   -3028.4478    861.70035   -606.95028   -444.82596    79.295782 
   12300    81.451332    -105.3249  0.073698877    -105.2512   -1172.2174    4.2970517    4.2970517    4.2970517   -1172.2174   -1819.2996      86.9381   -1784.2906   -817.46207   -76.752428    370.54017    79.343571 
   12400     126.1535   -105.36479   0.11414634   -105.25064   -816.93054    4.2968479    4.2968479    4.2968479   -816.93054    2534.2406   -1409.0206   -3576.0116    157.22632   -687.41718   -95.373906    79.332281 
   12500    79.932138   -105.32364  0.072324278   -105.25132    201.86824    4.2961795    4.2961795    4.2961795    201.86824   -758.74977    1739.6713   -375.31679   -1131.7952   -492.85007     7.923436    79.295265 
   12600    120.63709   -105.36004   0.10915498   -105.25088   -1236.6702    4.2975486    4.2975486    4.2975486   -1236.6702    1517.4709   -1354.6672   -3872.8142    198.59002    545.85168   -396.37269    79.371101 
   12700    91.644838   -105.33385  0.082922175   -105.25093    223.62005    4.2953707    4.2953707    4.2953707    223.62005    178.01315    2394.9219   -1902.0749   -632.82731   -1083.9557    90.182509    79.250491 
   12800     77.73438   -105.32164    0.0703357    -105.2513   -947.65679    4.2978727    4.2978727    4.2978727   -947.65679    5397.4251   -5544.5798   -2695.8156    63.573712    1099.3667    333.82209    79.389056 
   12900    134.01938   -105.37205   0.12126355   -105.25078    962.56181    4.2953327    4.2953327    4.2953327    962.56181    941.62993    3097.9127   -1151.8572    1786.8617    23.096354   -240.46218    79.248385 
   13000    83.605599    -105.3269  0.075648103   -105.25125    1699.8519      4.29724      4.29724      4.29724    1699.8519    7611.8409   -255.21405    -2257.071   -320.86388   -604.71853   -312.55091    79.354004 
   13100    104.11007    -105.3453  0.094200979    -105.2511   -1221.1576    4.2962564    4.2962564    4.2962564   -1221.1576   -667.20214   -365.00762    -2631.263    -144.7876     178.5804    1066.9268    79.299522 
   13200    99.007663   -105.34041  0.089584214   -105.25083    875.75496    4.2964959    4.2964959    4.2964959    875.75496    6101.2208   -2069.0829    -1404.873    547.27444   -15.555773   -646.35549    79.312786 
   13300    88.886539   -105.33172  0.080426409   -105.25129   -799.93276    4.2971195    4.2971195    4.2971195   -799.93276   -1084.4328    1875.9897   -3191.3552   -1125.1135   -991.45399    66.229386    79.347325 
   13400    116.31453   -105.35626   0.10524383   -105.25102    105.95188    4.2959583    4.2959583    4.2959583    105.95188    4921.1007   -1354.9185   -3248.3266   -282.81169    895.67333    174.53228    79.283019 
   13500    108.62931   -105.34913  0.098290082   -105.25084   -397.37669    4.2973995    4.2973995    4.2973995   -397.37669    607.66422   -32.987652   -1766.8066    1029.8197   -873.28256    45.680127    79.362838 
   13600    68.676229   -105.31345  0.062139695   -105.25131   -752.91253    4.2959415    4.2959415    4.2959415   -752.91253    6.1484174   -22.885375   -2242.0006    179.37902     1252.078   -299.34801    79.282085 
   13700     116.2264   -105.35593   0.10516409   -105.25077   -1030.5357     4.297458     4.297458     4.297458   -1030.5357   -1787.5588    546.35881   -1850.4072    687.47449   -719.39736   -116.20193     79.36608 
   13800    100.29209    -105.3418  0.090746394   -105.25106   -59.168413    4.2959014    4.2959014    4.2959014   -59.168413    4072.8252   -484.59644    -3765.734   -349.67464    548.91904   -78.147921    79.279869 
   13900    111.54434   -105.35211   0.10092766   -105.25118   -2334.3354    4.2974477    4.2974477    4.2974477   -2334.3354   -2504.6423   -1660.1315   -2838.2325   -433.84514    61.961269     390.7374    79.365508 
   14000    80.303286   -105.32364  0.072660101   -105.25098     2244.495     4.295996     4.295996     4.295996     2244.495    5350.3134    1090.6289    292.54262   -404.73662   -102.33353   -934.78427    79.285103 
   14100    98.883851   -105.34055  0.089472186   -105.25108   -1115.1284    4.2968324    4.2968324    4.2968324   -1115.1284    339.83597   -245.24565   -3439.9756   -1272.0633   -1047.6421    541.38662     79.33142 
   14200    112.58304    -105.3529    0.1018675   -105.25103   -308.77413    4.2967545    4.2967545    4.2967545   -308.77413     2808.082   -2908.5622    -825.8421    1008.0573    1108.9325    241.44777    79.327106 
   14300     109.7871   -105.35021  0.099337674   -105.25087    1419.6108    4.2960944    4.2960944    4.2960944    1419.6108    3379.2059    2573.0197   -1693.3931    888.28739   -1635.7286   -707.46421    79.290555 
   14400    77.463269   -105.32139  0.070090393    -105.2513   -389.96736    4.2969397    4.2969397    4.2969397   -389.96736    4379.8414   -2522.2168   -3027.5267   -427.78476     706.8616   -93.220002    79.337365 
   14500    106.59273   -105.34734  0.096447343    -105.2509    269.80246    4.2962197    4.2962197    4.2962197    269.80246    2707.7729   -1749.0392   -149.32634    1612.1933   -416.42329    311.11804     79.29749 
   14600    110.11236   -105.35052  0.099631975   -105.25089    496.59303    4.2967576    4.2967576    4.2967576    496.59303    3966.0383     956.2532   -3432.5124   -481.48069    658.07895   -442.44869    79.327281 
   14700    88.851802   -105.33172  0.080394977   -105.25133    111.20458    4.2962431    4.2962431    4.2962431    111.20458    228.01144    249.73061   -144.12831    -593.3818   -376.84829    62.629635    79.298785 
   14800    111.52312   -105.35166   0.10090846   -105.25075   -174.97469    4.2970278    4.2970278    4.2970278   -174.97469    3291.7825    -720.9706    -3095.736    100.04092    495.84845   -162.56509    79.342249 
   14900    93.109106   -105.33537  0.084247075   -105.25113   -1719.9475    4.2962077    4.2962077    4.2962077   -1719.9475    804.35066   -2320.4025   -3643.7906    290.33718   -697.26091    585.76744    79.296828 
   15000    87.978666   -105.33089  0.079604946   -105.25128   -329.04627     4.297378     4.297378     4.297378   -329.04627    206.89059    9.1442398   -1203.1736    220.41003    619.16548   -419.84522    79.361646 
   15100    117.15356   -105.35686   0.10600301   -105.25085    903.10124    4.2958366    4.2958366    4.2958366    903.10124    4194.8971     1566.726   -3052.3194    541.90339   -1946.4553    -570.9479    79.276277 
   15200    101.24318    -105.3428  0.091606957   -105.25119    -2277.098    4.2975836    4.2975836    4.2975836    -2277.098   -2597.7906    -1636.989   -2596.5144      -143.63    1252.6621     337.3894    79.373037 
   15300    89.333389   -105.33187  0.080830728   -105.25104    249.56049    4.2962524    4.2962524    4.2962524    249.56049    3644.0467    -1546.989   -1348.3762    514.84814    -1046.565   -222.98006    79.299301 
   15400    101.48408   -105.34269  0.091824931   -105.25087    229.74105    4.2964498    4.2964498    4.2964498    229.74105    1799.4014     1400.358   -2510.5363   -1157.8938    502.37568   -841.80254    79.310231 
   15500    91.185475   -105.33367  0.082506534   -105.25116    -212.4397    4.2971247    4.2971247    4.2971247    -212.4397    4031.1708   -2822.9277   -1845.5622    10.529886   -73.997483     502.4827    79.347615 
   15600    135.39776   -105.37316   0.12251074   -105.25065    21.617103    4.2957491    4.2957491    4.2957491    21.617103    1740.5442    646.95453   -2322.6474    1064.7578    772.64415   -44.081228    79.271435 
   15700    69.526285   -105.31407  0.062908844   -105.25116    1197.8992    4.2973676    4.2973676    4.2973676    1197.8992    6179.7957   -638.83159   -1947.2666    -742.1194   -816.31078   -161.40863    79.361071 
   15800    91.152773   -105.33363  0.082476944   -105.25116   -338.58423    4.2955229    4.2955229    4.2955229   -338.58423   -1650.6983    -817.1071    1452.0527    1060.3978    360.17894   -196.08289    79.258916 
   15900    124.93308   -105.36374   0.11304207    -105.2507    211.98505     4.297544     4.297544     4.297544    211.98505    7988.4019    -2772.679   -4579.7677    678.56273   -999.50328    32.982843    79.370841 
   16000     94.55613   -105.33681  0.085556373   -105.25125   -205.14862    4.2958115    4.2958115    4.2958115   -205.14862   -272.01247     941.7371   -1285.1705   -650.87679    435.57008    170.31985     79.27489 
   16100    92.011612    -105.3344   0.08325404   -105.25114    -76.29886    4.2972857    4.2972857    4.2972857    -76.29886    5216.0307   -2725.1298   -2719.7974    289.73884   -1168.4221   -570.90291    79.356531 
   16200    101.86107   -105.34304  0.092166035   -105.25087   -93.687522    4.2962685    4.2962685    4.2962685   -93.687522   -743.56732    1237.6496   -775.14486    424.88787    433.86311   -70.176745    79.300191 
   16300    90.897878   -105.33362   0.08224631   -105.25137   -1535.8434    4.2968838    4.2968838    4.2968838   -1535.8434    1721.6226   -4200.4383   -2128.7143    326.33977     452.9408     610.3953    79.334267 
   16400    121.70251   -105.36106   0.11011899   -105.25094    91.276822    4.2971321    4.2971321    4.2971321    91.276822    1662.4223    2164.4282   -3553.0201    547.87358   -128.83595   -420.23407    79.348026 
   16500    86.604773   -105.32952  0.078361818   -105.25116    786.87663    4.2954909    4.2954909    4.2954909    786.87663    3702.2171   -655.24967    -686.3376    84.245102    271.26924   -321.32414    79.257144 
   16600    97.659847   -105.33951  0.088364682   -105.25114   -2671.5991    4.2982305    4.2982305    4.2982305   -2671.5991   -484.95117   -4014.9578   -3514.8885    504.60792    634.60277    331.25979    79.408886 
   16700    103.80527   -105.34474  0.093925193   -105.25082    1894.3932    4.2949212    4.2949212    4.2949212    1894.3932    4932.7553    2508.4259   -1758.0017   -780.86362   -861.02663   -251.89549    79.225611 
   16800    95.303029   -105.33742  0.086232183   -105.25118   -335.22577    4.2978476    4.2978476    4.2978476   -335.22577    965.97212   -8.8679322   -1962.7815   -404.71431   -139.61338   -463.91062    79.387665 
   16900     115.8808   -105.35586   0.10485138     -105.251   -437.90086    4.2957213    4.2957213    4.2957213   -437.90086    2289.3596   -2694.2554   -908.80674    879.47384   -548.79738   -106.28166    79.269899 
   17000    88.178601    -105.3307  0.079785851   -105.25091    1602.0237    4.2967924    4.2967924    4.2967924    1602.0237     6541.323   -71.531822   -1663.7199    13.103679    -148.5471    267.68541    79.329204 
   17100    92.886353   -105.33533  0.084045524   -105.25129   -2040.4795    4.2969964    4.2969964    4.2969964   -2040.4795   -166.67352   -2801.9229    -3152.842     366.5519    18.771558     4.313826    79.340504 
   17200     105.0935   -105.34601  0.095090811   -105.25092    1478.1084    4.2959062    4.2959062    4.2959062    1478.1084    3911.1826    973.16204   -450.01953    1585.1308   -29.929811   -603.15452    79.280135 
   17300    116.72824    -105.3565   0.10561816   -105.25088   -838.33467    4.2975096    4.2975096    4.2975096   -838.33467    2430.8355   -2858.5131   -2087.3265   -555.66133    1239.6621    297.42489    79.368938 
   17400    80.082689   -105.32369    0.0724605   -105.25123   -729.18645    4.2958458    4.2958458    4.2958458   -729.18645     158.9741   -1146.6501   -1199.8834    312.05479    49.399664    102.33418    79.276789 
   17500     104.0895   -105.34489  0.094182364    -105.2507    375.34267    4.2975072    4.2975072    4.2975072    375.34267    4249.8651   -1775.6784   -1348.1587   -110.13277   -24.957825   -600.99497    79.368805 
   17600    96.812461   -105.33877  0.087597949   -105.25117   -789.67846    4.2957902    4.2957902    4.2957902   -789.67846    514.81691   -1724.7623     -1159.09    446.41315    130.17743    61.677259    79.273712 
   17700    110.94709   -105.35147   0.10038726   -105.25108   -1125.9891    4.2975527    4.2975527    4.2975527   -1125.9891    2108.5243    -2490.409   -2996.0827    353.91949   -278.65642    509.27803    79.371323 
   17800    99.299023   -105.34075  0.089847843    -105.2509    1352.4611    4.2957837    4.2957837    4.2957837    1352.4611    2302.1724     3137.255   -1382.0441     579.2478   -1342.1862   -28.821268    79.273353 
   17900    94.858252   -105.33709   0.08582974   -105.25126   -2540.1617    4.2973883    4.2973883    4.2973883   -2540.1617   -1101.6432   -4445.6363   -2073.2056     1134.443    855.48757   -219.46783    79.362218 
   18000    83.734353   -105.32687  0.075764602    -105.2511    2446.4177    4.2960503    4.2960503    4.2960503    2446.4177    6732.1825   -563.34023    1170.4108    102.67806   -427.00955    225.28434    79.288112 
   18100    134.15638   -105.37233   0.12138751   -105.25094   -822.32633    4.2966481    4.2966481    4.2966481   -822.32633    1010.5816    757.14806   -4234.7087   -509.48833    1174.1634    89.890803    79.321218 
   18200    79.670248   -105.32362  0.072087315   -105.25153   -458.79351    4.2970167    4.2970167    4.2970167   -458.79351      2997.63   -2205.1054    -2168.905    556.41366   -261.99043   -371.26139    79.341632 
   18300    103.75576   -105.34481  0.093880389   -105.25093    1165.8582     4.295917     4.295917     4.295917    1165.8582    2734.8294    363.97715    398.76812   -29.659116     1234.001   -338.08987     79.28073 
   18400    93.581829   -105.33586  0.084674806   -105.25119   -1063.2449    4.2973849    4.2973849    4.2973849   -1063.2449    2872.6592   -2936.2816   -3126.1124   -329.00826   -702.92687    583.29937    79.362026 
   18500    99.120881   -105.34094  0.089686656   -105.25125    248.73425    4.2959613    4.2959613    4.2959613    248.73425    174.37008    15.320751    556.51192    1667.2801   -283.89753   -100.84614    79.283184 
   18600    121.91015   -105.36098   0.11030687   -105.25068    428.31783    4.2973066    4.2973066    4.2973066    428.31783    6980.5091   -1558.4559   -4137.0997    282.01879   -857.06084   -294.66328    79.357692 
   18700    77.612562   -105.32157  0.070225478   -105.25135   -1717.9031    4.2960087    4.2960087    4.2960087   -1717.9031   -2490.9317   -3368.9872    706.20955    661.26728    756.11791    252.07709     79.28581 
   18800     96.59037   -105.33844  0.087396997   -105.25104   -402.17957    4.2975096    4.2975096    4.2975096   -402.17957    2250.8267   -974.62002   -2482.7454      189.466   -1217.3136    252.48726    79.368936 
   18900    114.96228   -105.35495   0.10402029   -105.25093   -288.89024    4.2959247    4.2959247    4.2959247   -288.89024    2128.5304    292.58915   -3287.7903    511.00356    1538.4799   -448.76178    79.281155 
   19000    90.986108   -105.33365  0.082326143   -105.25132    -1231.132    4.2973922    4.2973922    4.2973922    -1231.132    481.91837   -4936.9398    761.62533    8.0883477    60.167032   -112.67296    79.362431 
   19100     110.1545   -105.35045  0.099670111   -105.25078    1063.3758    4.2963257    4.2963257    4.2963257    1063.3758    4624.3526    868.85317   -2303.0783    155.94793    853.45082    458.64479     79.30336 
   19200    91.101341   -105.33352  0.082430407   -105.25109   -1182.1269    4.2964659    4.2964659    4.2964659   -1182.1269    228.71819   -2578.0407   -1197.0582    727.62349   -552.02176    174.77355    79.311123 
   19300    79.177549     -105.323   0.07164151   -105.25136     541.7814     4.297308     4.297308     4.297308     541.7814    4489.0702   -524.86972   -2338.8563    977.96971    526.81627   -355.19722    79.357767 
   19400    149.41606   -105.38581   0.13519479   -105.25062      207.012    4.2954152    4.2954152    4.2954152      207.012    2335.0083   -185.53377   -1528.4385   -486.20903   -767.38141    425.87336    79.252953 
   19500    59.890019   -105.30571  0.054189748   -105.25152    937.84744    4.2977204    4.2977204    4.2977204    937.84744    3335.6336    93.918468   -616.00973    1233.1351   -116.30673    180.07857    79.380618 
   19600     111.9358   -105.35217   0.10128187   -105.25089    249.30893     4.295378     4.295378     4.295378    249.30893    4645.7569   -2435.5245   -1462.3056   -32.946853   -959.33702   -169.67103    79.250895 
   19700    97.496391   -105.33913  0.088216784   -105.25091    806.98901    4.2973743    4.2973743    4.2973743    806.98901    3751.7342    297.01652   -1627.7837   -11.914304    1235.9865   -255.28422    79.361439 
   19800    103.45438   -105.34486  0.093607699   -105.25125   -1693.1723    4.2962661    4.2962661    4.2962661   -1693.1723   -1727.1441   -2836.6581   -515.71482    176.99825   -739.34761    526.46379    79.300061 
   19900    99.489382   -105.34093  0.090020084   -105.25091    1928.8158    4.2966075    4.2966075    4.2966075    1928.8158    6328.0695    3446.2216   -3987.8437    955.28109    624.10022    1.6178633    79.318964 
   20000    107.11885   -105.34819  0.096923385   -105.25127   -2735.7536    4.2970568    4.2970568    4.2970568   -2735.7536   -2132.3271   -5433.6067   -641.32685   -109.70484    634.27375   -81.455111    79.343853 
   20100    74.239857   -105.31877  0.067173782    -105.2516   -142.56141    4.2963915    4.2963915    4.2963915   -142.56141    1658.8469   -999.19999   -1087.3311    823.40941    299.83586   -83.002889    79.307006 
   20200    127.58803   -105.36628   0.11544433   -105.25083   -42.317375    4.2972129    4.2972129    4.2972129   -42.317375    2496.2605   -1396.5585   -1226.6542    280.97543     -596.439    593.29375    79.352502 
   20300    79.519982    -105.3234  0.071951351   -105.25145   -724.46887    4.2959128    4.2959128    4.2959128   -724.46887    220.14252   -337.96261   -2055.5865    1404.4928    260.80473   -541.17173    79.280501 
   20400     124.8363   -105.36373   0.11295451   -105.25078   -2341.3361    4.2979201    4.2979201    4.2979201   -2341.3361    358.62296   -4260.4247   -3122.2065   -678.48703   -600.83541   -23.557105    79.391682 
   20500    72.244335   -105.31646  0.065368192   -105.25109    2393.7623     4.295172     4.295172     4.295172    2393.7623    3736.0063    2600.9848    844.29571    1141.3569   -202.79935    512.71022    79.239494 
   20600    100.79896   -105.34249  0.091205022   -105.25129   -1712.2635     4.297922     4.297922     4.297922   -1712.2635    2717.9602   -5344.0477   -2510.7031    422.12109   -447.44032     300.6324    79.391787 
   20700      120.711   -105.35997   0.10922185   -105.25075    2073.5229    4.2956111    4.2956111    4.2956111    2073.5229    4200.6481    2951.2332   -931.31269   -315.64243    819.86372     -7.20586    79.263797 
   20800    102.59286   -105.34388  0.092828177   -105.25105     -705.126    4.2971466    4.2971466    4.2971466     -705.126    2937.3394   -4098.6864     -954.031    350.64406     630.7208     330.0532    79.348825 
   20900    65.360684    -105.3105  0.059139721   -105.25136    980.42911    4.2964715    4.2964715    4.2964715    980.42911    2056.5428    2140.8503   -1256.1058    687.73749   -106.18677    318.58424    79.311435 
   21000    124.19282   -105.36298   0.11237227   -105.25061    1037.6201    4.2961067    4.2961067    4.2961067    1037.6201    5206.9769   -1429.4302   -664.68656   -249.36095    637.72145   -88.480975    79.291234 
   21100    106.72089   -105.34778  0.096563305   -105.25122   -1483.5661    4.2974052    4.2974052    4.2974052   -1483.5661   -648.92933   -332.64653   -3469.1224    487.08079   -302.52237   -497.12922    79.363154 
   21200    89.028723   -105.33176   0.08055506    -105.2512    1771.0382    4.2957719    4.2957719    4.2957719    1771.0382    5098.9568   -1405.6137    1619.7714    231.91671   -898.78275     350.0502    79.272696 
   21300    100.49392   -105.34189  0.090929009   -105.25097    -474.9494    4.2972678    4.2972678    4.2972678    -474.9494   -349.85583     904.0324   -1979.0248    489.90896   -768.14313    397.55228    79.355542 
   21400    91.207702   -105.33395  0.082526646   -105.25143   -2792.6153    4.2964478    4.2964478    4.2964478   -2792.6153   -2838.1203   -4291.5556     -1248.17    26.613899    417.69939   -325.08988    79.310124 
   21500    114.60746   -105.35459   0.10369924   -105.25089    593.01421    4.2972714    4.2972714    4.2972714    593.01421    2665.1719    1916.4893   -2802.6186    -11.53545   -123.00531    503.73353    79.355738 
   21600    98.505498    -105.3403  0.089129845   -105.25117   -646.53464    4.2960722    4.2960722    4.2960722   -646.53464     558.3068   -1568.0314   -929.87928    1471.4975    1019.5538    478.86496    79.289322 
   21700    90.767005   -105.33329  0.082127894   -105.25116   -1946.6027    4.2977448    4.2977448    4.2977448   -1946.6027   -957.66883   -3407.9323    -1474.207   -273.31896    280.30202   -344.39856     79.38197 
   21800    104.30569   -105.34541  0.094377977   -105.25103    980.45854    4.2958108    4.2958108    4.2958108    980.45854    4379.2181   -766.68268   -671.15981    650.26158    1539.3075   -147.69574    79.274853 
   21900    100.67796   -105.34255  0.091095532   -105.25146   -1707.2186    4.2973218    4.2973218    4.2973218   -1707.2186   -1376.0885   -1186.3756   -2559.1915    1186.1202   -1110.0936     92.26082    79.358532 
   22000    87.471394   -105.33041  0.079145955   -105.25126    2297.5136    4.2962735    4.2962735    4.2962735    2297.5136    6133.8748    531.06666    227.59943    -260.0612    304.54464     191.9098    79.300469 
   22100    138.38218   -105.37592    0.1252111   -105.25071   -1366.5784    4.2963578    4.2963578    4.2963578   -1366.5784    500.61246   -1657.0568   -2943.2909    -64.08978   -611.29502    287.91404    79.305139 
   22200    49.457886   -105.29624  0.044750534   -105.25149     1185.644    4.2972936    4.2972936    4.2972936     1185.644    6347.4595   -2267.0321   -523.49547    970.39993    202.78785   -11.767348    79.356968 
   22300    122.90339   -105.36196   0.11120557   -105.25075    1444.6487    4.2952749    4.2952749    4.2952749    1444.6487    1838.5439    1489.1024    1006.2998   -614.84015   -670.54044    1199.7012    79.245189 
   22400    112.53381   -105.35282   0.10182295     -105.251     -510.139    4.2979822    4.2979822    4.2979822     -510.139    2494.1353   -1187.1462   -2837.4061    959.52897    1545.8224   -218.41515    79.395124 
   22500    89.178541   -105.33188  0.080690618   -105.25118   -162.45202    4.2954903    4.2954903    4.2954903   -162.45202     106.1351   -969.50491    376.01374   -545.67078   -124.00944   -169.85332    79.257108 
   22600    97.180577   -105.33872  0.087931029   -105.25079    948.85007    4.2975024    4.2975024    4.2975024    948.85007    4114.6588    1802.9731   -3071.0817    1026.3645    1103.2476    240.98067    79.368541 
   22700    99.490228   -105.34121  0.090020849   -105.25119   -1998.9754    4.2962285    4.2962285    4.2962285   -1998.9754   -2678.3057   -3550.3445    231.72385   -144.97459   -765.32324    230.54817    79.297979 
   22800    94.429814   -105.33666   0.08544208   -105.25122    660.74605    4.2969633    4.2969633    4.2969633    660.74605    1704.6031    960.63772   -683.00263    14.877938    1102.5041   -671.15916    79.338674 
   22900    134.92231   -105.37276   0.12208054   -105.25068   -1811.8171    4.2970339    4.2970339    4.2970339   -1811.8171    88.905512   -1799.8392   -3724.5176    833.97193   -1059.7781    716.76752    79.342581 
   23000    48.919571   -105.29575  0.044263456   -105.25148    41.909958    4.2961457    4.2961457    4.2961457    41.909958   -2876.8332    1019.6957    1982.8674    1155.3087    103.79123   -30.240838    79.293393 
   23100    129.31231   -105.36789    0.1170045   -105.25089   -1762.0279    4.2978125    4.2978125    4.2978125   -1762.0279    2713.0254   -4553.7554   -3445.3537   -830.36483   -227.91559    493.39042    79.385721 
   23200    97.668649   -105.33974  0.088372646   -105.25137    675.44642    4.2953284    4.2953284    4.2953284    675.44642    618.62602    2696.2532     -1288.54    2057.1299    1097.5803   -383.36972    79.248146 
   23300    91.405233   -105.33413  0.082705376   -105.25142   -607.55243    4.2982178    4.2982178    4.2982178   -607.55243    3542.3063   -3969.2098   -1395.7537   -440.08658   -896.70619    397.62025    79.408184 
   23400    117.23086   -105.35679   0.10607294   -105.25071    806.21479    4.2951201    4.2951201    4.2951201    806.21479    573.37791    2377.2198   -531.95339   -86.940582    1588.5907    426.33487    79.236618 
   23500    77.991911    -105.3217   0.07056872   -105.25114   -596.89733    4.2977844    4.2977844    4.2977844   -596.89733    2686.5334   -4605.2922    128.06676     632.3022   -222.59488   -312.33162    79.384162 
   23600    96.901211    -105.3387  0.087678252   -105.25103    1410.3991    4.2959698    4.2959698    4.2959698    1410.3991    3353.2265    3626.7858   -2748.8151   -126.52433     929.3826    126.65884    79.283653 
   23700    135.60295   -105.37336    0.1226964   -105.25066    125.71309    4.2965097    4.2965097    4.2965097    125.71309    3874.0846   -1567.9143    -1929.031    927.72344   -797.62533    890.92002    79.313552 
   23800    68.324788   -105.31319  0.061821704   -105.25137     103.6701    4.2972346    4.2972346    4.2972346     103.6701     101.8787   -569.06373    778.19532   -78.700966    640.17077   -466.39869      79.3537 
   23900    109.44402   -105.34987  0.099027252   -105.25085    339.39098     4.295703     4.295703     4.295703    339.39098     3982.699    -750.1497   -2214.3764    477.55871   -465.42082    139.61539    79.268885 
   24000    94.172133   -105.33626  0.085208925   -105.25105   -78.756402    4.2977125    4.2977125    4.2977125   -78.756402   -2479.4677    2911.8006   -668.60204    615.00661    69.340897    238.13209    79.380182 
   24100    104.73043   -105.34594   0.09476229   -105.25118   -833.95457    4.2958225    4.2958225    4.2958225   -833.95457    1012.6628   -2905.1768   -609.34974   -551.03695    -449.4243    114.49083      79.2755 
   24200    115.96046   -105.35564   0.10492346   -105.25071    118.99412    4.2974339    4.2974339    4.2974339    118.99412    122.44142    3075.8692   -2841.3283   -1.8237495    1524.5846   -198.47678    79.364746 
   24300    70.055363   -105.31461  0.063387565   -105.25122    -639.5447    4.2962361    4.2962361    4.2962361    -639.5447    356.33356    -2379.297    104.32939    2084.9964    -298.0038    36.446498    79.298396 
   24400    108.57445   -105.34929  0.098240445   -105.25105   -1712.9513    4.2972012    4.2972012    4.2972012   -1712.9513   -2560.9948    426.60706   -3004.4662   -1058.2311    812.61878    135.03474    79.351853 
   24500    117.87562   -105.35762   0.10665634   -105.25096    299.61767    4.2965271    4.2965271    4.2965271    299.61767    756.78085   -717.83242    859.90459      2221.89    391.71977    65.977331    79.314516 
   24600    83.756885   -105.32719  0.075784989    -105.2514   -345.56592    4.2966228    4.2966228    4.2966228   -345.56592   -651.13894    1451.2678   -1836.8266    504.43611     203.5739   -817.48062    79.319813 
   24700    103.98944   -105.34493  0.094091829   -105.25084    -149.1495    4.2970503    4.2970503    4.2970503    -149.1495     2373.065   -338.55801   -2481.9555    57.669869   -456.47426    639.64861     79.34349 
   24800      106.321     -105.347  0.096201476   -105.25079   -741.22236     4.296267     4.296267     4.296267   -741.22236    216.57816   -2326.1397   -114.10555   -27.257086   -128.16772     210.8409     79.30011 
   24900    77.234975   -105.32128  0.069883829    -105.2514    881.95414    4.2969869    4.2969869    4.2969869    881.95414    3617.7906    1204.5081   -2176.4363    133.80338    137.75218   -287.73775    79.339981 
   25000    135.18225   -105.37315   0.12231574   -105.25083    504.38907    4.2961007    4.2961007    4.2961007    504.38907     1169.242    1145.9942   -802.06894   -250.69383    364.86337     573.7982    79.290899 
   25100    81.963999   -105.32549  0.074162749   -105.25133     173.3886    4.2970564    4.2970564    4.2970564     173.3886    537.07692    1522.9926   -1539.9037    1191.9554   -27.718252    308.36014    79.343833 
   25200    97.138662   -105.33898  0.087893103   -105.25108    -427.4946    4.2963703    4.2963703    4.2963703    -427.4946    2093.5783   -2915.5639   -460.49825    -962.9719    920.17471   -85.493337    79.305829 
   25300    92.076302   -105.33416  0.083312573   -105.25084    2457.7016      4.29654      4.29654      4.29654    2457.7016    3088.0832    6057.2501   -1772.2287    2465.0853    664.63822   -297.92683    79.315228 
   25400    121.27827   -105.36078   0.10973513   -105.25104   -2346.4864    4.2968616    4.2968616    4.2968616   -2346.4864    -817.8051   -3471.4408   -2750.2134   -949.53217   -548.77311    74.274055    79.333042 
   25500    91.947274   -105.33421  0.083195826   -105.25101    1110.8347    4.2967576    4.2967576    4.2967576    1110.8347   -257.54662    4517.0664   -927.01563    197.50155    378.21036    111.30295    79.327281 
   25600    102.71071   -105.34381  0.092934805   -105.25088   -944.65368    4.2964556    4.2964556    4.2964556   -944.65368   -1062.4462   -1168.6259   -602.88896     835.8623    -327.0787   -269.36959    79.310552 
   25700     65.90993   -105.31107   0.05963669   -105.25143    87.565063    4.2969905    4.2969905    4.2969905    87.565063   -1071.1308    2734.7049   -1400.8789    532.48379     77.97741   -179.67944     79.34018 
   25800    154.84562   -105.39075   0.14010757   -105.25064   -2093.7417    4.2968221    4.2968221    4.2968221   -2093.7417   -679.77848   -2466.2081   -3135.2384   -329.00797   -181.00217    872.50645    79.330851 
   25900    73.178052   -105.31751  0.066213039    -105.2513    333.41181    4.2966834    4.2966834    4.2966834    333.41181   -202.14204    2523.3589   -1320.9814    2612.2551       588.39   -396.40069    79.323168 
   26000    88.672461   -105.33129  0.080232706   -105.25105   -1314.9414    4.2970866    4.2970866    4.2970866   -1314.9414   -992.09338   -2164.0777   -788.65303    -694.4813    471.15562   -66.891829    79.345502 
   26100    112.58286   -105.35256   0.10186734   -105.25069   -448.22724    4.2962998    4.2962998    4.2962998   -448.22724   -1461.1582    1889.4696    -1772.993    1692.9743    630.25746     493.7301    79.301927 
   26200    96.238909    -105.3384  0.087078988   -105.25132   -1028.4071    4.2974303    4.2974303    4.2974303   -1028.4071    725.29102   -2483.0432   -1327.4692   -600.27178   -604.74843   -18.601588    79.364543 
   26300    103.74743   -105.34503  0.093872854   -105.25116    1504.3468    4.2958777    4.2958777    4.2958777    1504.3468    1856.3522    3698.6239   -1041.9357    376.11543    1291.2945   -192.36882    79.278555 
   26400    104.08693    -105.3452  0.094180038   -105.25102    -146.8634    4.2970337    4.2970337    4.2970337    -146.8634    2537.0829   -1170.0926   -1807.5805    511.12684   -859.12864    51.881041    79.342573 
   26500    80.823257   -105.32428  0.073130582   -105.25115   -283.80476    4.2964555    4.2964555    4.2964555   -283.80476    26.715564   -397.35436   -480.77549   -904.37624    331.33828    357.61651    79.310547 
   26600    118.68257   -105.35822   0.10738649   -105.25083    1339.8893    4.2963877    4.2963877    4.2963877    1339.8893    2225.6509    4170.8242   -2376.8074    842.35924   -137.58285    47.370853    79.306792 
   26700    97.386051   -105.33932  0.088116945    -105.2512    1107.1787    4.2966304    4.2966304    4.2966304    1107.1787    2103.6788    769.13569    448.72165    940.93713    690.73736   -416.12063    79.320234 
   26800    94.892802   -105.33704  0.085861002   -105.25118    105.56991    4.2963016    4.2963016    4.2963016    105.56991    44.756931    1442.9109   -1170.9581   -971.17091    -433.4613    639.63071    79.302028 
   26900     119.2537   -105.35866   0.10790326   -105.25075   -666.44764    4.2971696    4.2971696    4.2971696   -666.44764    2186.0793     -822.299   -3363.1232    1060.6047    887.43693    257.10762      79.3501 
   27000    54.868826   -105.30105  0.049646467    -105.2514     1630.369    4.2960858    4.2960858    4.2960858     1630.369    246.80316    4098.1578    546.14604    815.08442   -415.77836   -501.11814    79.290076 
   27100     146.5297    -105.3834   0.13258316   -105.25082   -2828.6112    4.2974843    4.2974843    4.2974843   -2828.6112   -1634.2272   -2957.9902   -3893.6161   -724.09819    1365.1929    327.57878    79.367538 
   27200    90.396631   -105.33278  0.081792772   -105.25099    506.29672    4.2963532    4.2963532    4.2963532    506.29672   -1024.6611    3035.2698   -491.71846    1652.6921   -1059.1427    317.09155    79.304883 
   27300    85.377999   -105.32842  0.077251807   -105.25117   -2475.4373    4.2972253    4.2972253    4.2972253   -2475.4373   -2262.2127    -3383.714   -1780.3852   -339.19887    1103.5825   -269.42885    79.353185 
   27400    97.425139   -105.33901  0.088152313   -105.25086    204.71881    4.2967319    4.2967319    4.2967319    204.71881     1617.693    1310.8674    -2314.404    810.77912   -116.10061    370.22094    79.325858 
   27500    117.54346   -105.35728    0.1063558   -105.25093   -1738.0469    4.2966852    4.2966852    4.2966852   -1738.0469   -1186.2797   -3233.2081    -794.6529   -70.948165    211.37026    340.26808    79.323267 
   27600     92.63822   -105.33506  0.083821008   -105.25124   -658.31077    4.2971387    4.2971387    4.2971387   -658.31077   -566.81054    2409.2063   -3817.3281   -404.21441   -545.35605    1005.6549    79.348388 
   27700    105.84775   -105.34655  0.095773272   -105.25078    303.13814     4.296228     4.296228     4.296228    303.13814    1560.3825   -229.06807   -421.90004    1059.7052    916.59859   -138.29756    79.297949 
   27800    71.120208   -105.31559  0.064351058   -105.25124    244.94115    4.2969814    4.2969814    4.2969814    244.94115    1136.5593   -926.10579     524.3699    -125.7964   -654.83268    345.97659    79.339678 
   27900    137.39898   -105.37518   0.12432148   -105.25086   -743.23137    4.2965298    4.2965298    4.2965298   -743.23137    2229.1358   -935.44303   -3523.3869   -604.64318    920.82126    718.20565    79.314665 
   28000    81.867515   -105.32522  0.074075448   -105.25114    3821.0507    4.2960129    4.2960129    4.2960129    3821.0507    6009.1926    5502.0339   -48.074439    2147.2994   -304.48183   -414.33331    79.286043 
   28100    104.39297   -105.34576  0.094456952    -105.2513   -1709.3216    4.2972388    4.2972388    4.2972388   -1709.3216   -94.182618   -2809.4945   -2224.2878   -1606.9993     1310.695   -111.05173    79.353937 
   28200    98.325974   -105.33986  0.088967408    -105.2509    1248.7723    4.2960175    4.2960175    4.2960175    1248.7723    1465.0555    3145.7396   -864.47803    498.80668   -331.86709    804.63867    79.286297 
   28300     90.62434   -105.33312  0.081998807   -105.25112    721.69052    4.2969745    4.2969745    4.2969745    721.69052    3583.3797    -354.2315   -1064.0766    353.44241    10.083164   -21.889444    79.339291 
   28400     112.4328   -105.35292   0.10173156   -105.25118   -825.55137    4.2965446    4.2965446    4.2965446   -825.55137   -494.21672      1060.24   -3042.6774    164.62474    102.20374    243.32769    79.315485 
   28500    108.08051   -105.34862  0.097793517   -105.25082    331.74366    4.2968551    4.2968551    4.2968551    331.74366    3166.6641   -1239.6239   -931.80929   -10.444382    103.53439    463.70397    79.332678 
   28600    80.669309   -105.32417  0.072991286   -105.25118   -1980.8397    4.2969823    4.2969823    4.2969823   -1980.8397   -3320.8464   -616.14292   -2005.5299    1434.0934    -707.4104     385.3578    79.339728 
   28700    95.593933   -105.33755  0.086495399   -105.25105   -1143.7075    4.2967024    4.2967024    4.2967024   -1143.7075    1030.9145    53.377126   -4515.4143   -702.39247      1311.42    588.79896    79.324224 
   28800    119.92826   -105.35928   0.10851361   -105.25076   -1086.3541    4.2971697    4.2971697    4.2971697   -1086.3541   -495.21332   -2727.2162   -36.632731    1724.7628    116.19394   -266.14417    79.350108 
   28900    97.747131   -105.33958  0.088443658   -105.25114   -2174.3404    4.2966876    4.2966876    4.2966876   -2174.3404   -2455.7106   -445.43396   -3621.8767   -2091.2104    1033.4049    1079.4633    79.323401 
   29000    85.210718   -105.32797  0.077100448   -105.25087    775.74821    4.2969348    4.2969348    4.2969348    775.74821    4783.7074   -1450.5541   -1005.9086    1516.9195    191.00176    663.36943    79.337096 
   29100    99.009932   -105.34052  0.089586267   -105.25094   -653.31783    4.2963938    4.2963938    4.2963938   -653.31783   -457.42616    975.75324   -2478.2806   -649.48611    248.48291   -315.78306    79.307133 
   29200    113.96828   -105.35417   0.10312089   -105.25105   -1606.2483    4.2972472    4.2972472    4.2972472   -1606.2483    1863.4146   -3965.2491   -2716.9104   -558.37027    125.05052    960.07378    79.354403 
   29300    96.682728    -105.3384  0.087480564   -105.25092    2984.5928    4.2960708    4.2960708    4.2960708    2984.5928     3113.794    6334.0833   -494.09887    1023.5071   -721.49402    226.49919    79.289249 
   29400    99.689287   -105.34135  0.090200962   -105.25115   -773.51059     4.296657     4.296657     4.296657   -773.51059    3560.8666    -3754.073   -2127.3254    532.64929   -226.99119   -9.5876126     79.32171 
   29500    88.090191    -105.3308  0.079705856   -105.25109    1179.1501    4.2967463    4.2967463    4.2967463    1179.1501    2768.9447    1770.2264   -1001.7206   -1138.9558    772.70326    333.66205    79.326652 
   29600    116.63875   -105.35638   0.10553719   -105.25085     1694.048    4.2961305    4.2961305    4.2961305     1694.048    5822.1189    9.1149971   -749.08999    1092.1041   -122.56872    315.97954     79.29255 
   29700    90.760327   -105.33349  0.082121851   -105.25136   -205.77875    4.2969805    4.2969805    4.2969805   -205.77875   -259.24334    3049.1948   -3407.2878   -831.91311    668.84952    598.57031    79.339625 
   29800    110.81733   -105.35117   0.10026985    -105.2509   -151.39811    4.2963431    4.2963431    4.2963431   -151.39811    2521.7018   -2066.6427    -909.2534   -137.92735    1229.7512    286.63099    79.304326 
   29900    96.731699   -105.33859  0.087524874   -105.25107   -1238.9972    4.2971621    4.2971621    4.2971621   -1238.9972   -716.25544    -399.3915   -2601.3446    264.65216   -376.89526   -242.15184    79.349687 
   30000    77.827992   -105.32183  0.070420403   -105.25141   -299.11354    4.2966915    4.2966915    4.2966915   -299.11354    1826.4031   -2227.6416   -496.10214   -201.12827     510.1858    1094.7842    79.323619 
   30100    127.66139   -105.36624   0.11551071   -105.25073   -217.66218    4.2968163    4.2968163    4.2968163   -217.66218    1545.8736    1753.7304   -3952.5906    1260.2868    -734.4193    -231.0017     79.33053 
   30200    102.71523   -105.34408  0.092938897   -105.25114   -2946.9248    4.2970988    4.2970988    4.2970988   -2946.9248   -2658.2343   -4586.7797   -1595.7603   -826.87921    384.29315    -71.99639    79.346177 
   30300      74.5502   -105.31872  0.067454588   -105.25126   -768.41943    4.2969624    4.2969624    4.2969624   -768.41943   -489.33179    1047.2636   -2863.1901    77.837798   -89.753159    1563.1123    79.338625 
   30400     107.7352   -105.34825  0.097481074   -105.25077   -158.46974    4.2966175    4.2966175    4.2966175   -158.46974    3504.0916   -2329.7054   -1649.7954    886.33241    42.801328    73.149245    79.319521 
   30500    105.14602   -105.34626  0.095138326   -105.25112   -1520.4031    4.2970637    4.2970637    4.2970637   -1520.4031   -601.23637   -1662.1458   -2297.8271   -1509.2112    895.08378    943.77475    79.344234 
   30600    112.03531   -105.35219    0.1013719   -105.25082    1259.4052    4.2965007    4.2965007    4.2965007    1259.4052    6489.1696   -579.35387   -2131.6001    423.55521    906.09106    428.55882    79.313051 
   30700    87.759397   -105.33032  0.079406547   -105.25092    981.56027    4.2963848    4.2963848    4.2963848    981.56027    1328.3751    2220.1527   -603.84696    803.00837   -587.07885    396.66939    79.306632 
   30800    82.634875   -105.32597  0.074769772    -105.2512   -446.25555    4.2969308    4.2969308    4.2969308   -446.25555    3369.3065    -2439.753   -2268.3201   -1013.5069    1269.8839    211.45186    79.336871 
   30900    135.46889   -105.37329    0.1225751   -105.25071    907.56674    4.2961945    4.2961945    4.2961945    907.56674      4061.18    1179.1368   -2517.6165     548.4478   -651.54931   -381.27802    79.296098 
   31000    87.285317   -105.33024  0.078977589   -105.25127    1324.1035    4.2967665    4.2967665    4.2967665    1324.1035    3988.7594   -154.74972    138.30074   -205.26689   -98.383877   -21.332307    79.327773 
   31100    91.118459   -105.33361  0.082445896   -105.25116    514.64678    4.2963877    4.2963877    4.2963877    514.64678    3260.0478    606.21152    -2322.319   -269.35453   -146.16666    1112.1976    79.306792 
   31200    111.85305   -105.35191   0.10120699    -105.2507   -26.408974    4.2968091    4.2968091    4.2968091   -26.408974    1403.1996   -1165.8388   -316.58773    24.449186    147.45567   -730.50395    79.330134 
   31300    86.422667   -105.32952  0.078197045   -105.25132   -1323.9988    4.2967407    4.2967407    4.2967407   -1323.9988   -82.972573    -1458.962   -2430.0618    -647.1734    360.04405    1041.7045    79.326344 
   31400    111.88634   -105.35221   0.10123711   -105.25097      110.838    4.2967968    4.2967968    4.2967968      110.838    1966.7777     1012.719   -2646.9827    768.58089    730.48481    700.69505    79.329451 
   31500    103.17938   -105.34439  0.093358876   -105.25103   -836.28366    4.2966554    4.2966554    4.2966554   -836.28366   -187.31723    -2757.379    435.84524   -425.92757    75.121818   -102.83323    79.321618 
   31600    87.204849   -105.33027   0.07890478   -105.25137    -2437.613    4.2971415    4.2971415    4.2971415    -2437.613   -528.89303   -3387.8641   -3396.0817   -1201.2541    1742.5524    267.65046    79.348543 
   31700    95.863941   -105.33771  0.086739708   -105.25097     1615.153    4.2965059    4.2965059    4.2965059     1615.153    4557.6001    666.44615   -378.58717    1293.2245   -904.26002    410.78262    79.313341 
   31800    110.39805   -105.35102  0.099890474   -105.25113   -1538.6095    4.2967419    4.2967419    4.2967419   -1538.6095   -2768.1731    -853.8191   -993.83624   -1300.9144    308.48573   -67.347797    79.326412 
   31900    104.42958   -105.34556   0.09449008   -105.25107   -1158.8863    4.2971893    4.2971893    4.2971893   -1158.8863    4171.8609   -3331.5478   -4316.9721   -281.04035    229.86035    1078.3301    79.351192 
   32000    96.938581    -105.3385  0.087712066   -105.25078    1545.8445    4.2960102    4.2960102    4.2960102    1545.8445    1778.0157    1721.1687     1138.349    1308.0558   -816.29281   -610.29838     79.28589 
   32100    76.166956   -105.32025  0.068917462   -105.25133   -100.80767    4.2971471    4.2971471    4.2971471   -100.80767    5864.8479   -3332.2217   -2835.0493   -564.13454     199.0825    1843.1478    79.348855 
   32200    124.88656    -105.3638   0.11299998    -105.2508    839.05599    4.2962649    4.2962649    4.2962649    839.05599    1040.7625    2193.9645   -717.55902    206.84612     705.6829   -328.47376    79.299995 
   32300    109.54493   -105.34993  0.099118554   -105.25081    884.27769    4.2968224    4.2968224    4.2968224    884.27769    6459.5008   -2418.2768   -1388.3908    -350.4431    118.01788    187.20272    79.330871 
   32400    77.105717   -105.32101  0.069766873   -105.25125   -925.52929    4.2966369    4.2966369    4.2966369   -925.52929   -2057.9014    2411.7787   -3130.4652   -608.64591    1102.6075    298.11233    79.320596 
   32500     97.88953   -105.33931  0.088572504   -105.25073    1491.4716    4.2965222    4.2965222    4.2965222    1491.4716    6201.6323   -2317.8713    590.65389    -249.7718   -55.062273    475.43849    79.314244 
   32600    118.54527   -105.35833   0.10726225   -105.25107   -1665.5322    4.2969313    4.2969313    4.2969313   -1665.5322   -1133.5107   -1218.4083   -2644.6777   -730.53323    293.31795   -1145.8778    79.336903 
   32700    89.072225   -105.33198  0.080594421   -105.25139    542.13917    4.2967461    4.2967461    4.2967461    542.13917    4567.5816   -1093.1336   -1848.0304    406.24221    100.00408    1244.8549    79.326642 
   32800    108.10472   -105.34865  0.097815421   -105.25083    506.83506    4.2965538    4.2965538    4.2965538    506.83506   -2091.9349     2819.204    793.23602    978.08456   -1253.8603   -737.77154    79.315994 
   32900     89.72806   -105.33258  0.081187834   -105.25139   -3240.0322    4.2970194    4.2970194    4.2970194   -3240.0322   -1455.5891   -5843.6225   -2420.8849   -1974.4332     990.1795    1140.9729    79.341783 
   33000    91.264008   -105.33382  0.082577593   -105.25124    837.33596    4.2969929    4.2969929    4.2969929    837.33596     3427.918    293.27726   -1209.1874     1052.095    112.20994   -389.14558    79.340312 
   33100    128.33875     -105.367   0.11612359   -105.25088   -156.95137    4.2961356    4.2961356    4.2961356   -156.95137     807.9245   -1034.9656   -243.81301   -1237.1394    95.769032    835.70107    79.292833 
   33200    79.305212   -105.32307  0.071757022   -105.25131   -948.50739     4.297576     4.297576     4.297576   -948.50739    882.44444   -1729.4551   -1998.5115   -1365.4264    1494.0014    628.29503    79.372614 
   33300    105.71234   -105.34637  0.095650747   -105.25072    1010.7199    4.2958972    4.2958972    4.2958972    1010.7199     3410.559   -1795.3753     1416.976    337.20329     490.6939    163.78918    79.279634 
   33400    94.191717   -105.33635  0.085226645   -105.25112   -654.72828    4.2972839    4.2972839    4.2972839   -654.72828    1009.3184    75.916261   -3049.4195    151.62597   -376.55364   -235.84904    79.356436 
   33500    96.180512   -105.33828  0.087026148   -105.25125    390.70414    4.2964447    4.2964447    4.2964447    390.70414     3452.236   -1015.1793   -1264.9443   -71.416885    847.16116     1585.123    79.309953 
   33600    125.32589   -105.36414    0.1133975   -105.25074    1322.7612    4.2964041    4.2964041    4.2964041    1322.7612    3504.3969    757.11211   -293.22553    816.02133   -1329.5772   -1285.0063    79.307702 
   33700     84.92238   -105.32812  0.076839554   -105.25128   -1696.8764    4.2972852    4.2972852    4.2972852   -1696.8764    2981.6663    -4327.635   -3744.6605   -1137.7518    788.01356    1039.0752    79.356507 
   33800    71.676773   -105.31612   0.06485465   -105.25127    2297.3382    4.2958897    4.2958897    4.2958897    2297.3382    1005.4055    4832.4841    1054.1251    461.89696   -604.87017   -135.12009    79.279221 
   33900    150.14049   -105.38656   0.13585027   -105.25071   -2078.8504    4.2975059    4.2975059    4.2975059   -2078.8504    992.42909   -4223.3654   -3005.6149    -1928.939    776.68185    615.74164     79.36873 
   34000    62.868279   -105.30849   0.05688454   -105.25161    496.17773    4.2960646    4.2960646    4.2960646    496.17773    1673.5154    1433.5116   -1618.4939   -540.07747    1085.2403   -165.76064    79.288902 
   34100    125.74203   -105.36453   0.11377403   -105.25076   -841.26472    4.2974992    4.2974992    4.2974992   -841.26472    711.29607   -1750.5742   -1484.5161    781.75059    536.50744    611.85767     79.36836 
   34200    78.303161   -105.32213  0.070850346   -105.25128   -258.82295    4.2961008    4.2961008    4.2961008   -258.82295    201.46791    401.63408   -1379.5708   -799.46043   -196.35015   -274.60558    79.290905 
   34300    93.344494   -105.33585  0.084460059   -105.25139   -1020.2908    4.2975091    4.2975091    4.2975091   -1020.2908    592.98336   -3744.6432    90.787546    -236.9837    1426.6533    803.63133    79.368911 
   34400    133.08524   -105.37113   0.12041832   -105.25071     850.7424    4.2962662    4.2962662    4.2962662     850.7424    2534.6689    1915.3169   -1897.7586    1237.8055   -1928.7673   -1373.7977    79.300067 
   34500    84.624597   -105.32793  0.076570114   -105.25136   -1631.0321      4.29706      4.29706      4.29706   -1631.0321   -3275.7922   -1521.3765   -95.927607   -2240.4172    801.08425    1274.6541    79.344032 
   34600    73.627847   -105.31779  0.066620023   -105.25117    1582.8135    4.2967939    4.2967939    4.2967939    1582.8135    6679.1065   -1367.8999   -562.76615    -103.3188   -169.84332   -198.45629    79.329289 
   34700    141.52914   -105.37884   0.12805854   -105.25078   -827.19657    4.2960626    4.2960626    4.2960626   -827.19657    596.27179   -2420.6399   -657.22158   -847.94631    419.28086    139.27794    79.288795 
   34800    60.914502   -105.30687  0.055116721   -105.25175     1162.968     4.297627     4.297627     4.297627     1162.968     4068.563    525.28934   -1104.9483   -239.61061    730.47879    932.96023     79.37544 
   34900    140.12681   -105.37753   0.12678968   -105.25074    341.67801    4.2956347    4.2956347    4.2956347    341.67801   -5.5912286    1364.2746   -333.64935      125.614    995.61443    623.14083    79.265103 
   35000    76.020561   -105.32006  0.068785001   -105.25128   -273.35534    4.2976193    4.2976193    4.2976193   -273.35534    3329.8084   -3038.3244     -1111.55   -377.58605   -91.577948   -9.7834726    79.375015 
   35100    82.854069   -105.32645  0.074968103   -105.25149   -707.12348    4.2963666    4.2963666    4.2963666   -707.12348    462.18016   -243.27209   -2340.2785    273.27272     984.0507     527.1695    79.305624 
   35200    138.48867   -105.37598   0.12530746   -105.25067    522.52845    4.2968698    4.2968698    4.2968698    522.52845    2407.7478    1444.4473   -2284.6098   -328.44818   -1622.7575   -465.40839    79.333491 
   35300    78.391561   -105.32242  0.070930332   -105.25149   -1092.8308    4.2970966    4.2970966    4.2970966   -1092.8308    668.10432   -2152.2696    -1794.327   -1957.4588    1061.7825    487.70134    79.346058 
   35400    103.19756   -105.34439  0.093375323   -105.25101   -1062.3871    4.2966483    4.2966483    4.2966483   -1062.3871   -556.58705    81.725121   -2712.2995    781.23944   -608.05235   -421.81521    79.321224 
   35500    105.37182   -105.34612  0.095342634   -105.25077   -694.88974    4.2972448    4.2972448    4.2972448   -694.88974   -1270.9254    427.08234   -1240.8261   -691.31188     352.5813    184.91665    79.354267 
   35600    70.365932   -105.31516  0.063668574    -105.2515   -640.55462    4.2964867    4.2964867    4.2964867   -640.55462    1454.7263   -921.63315   -2454.7571   -1137.9804    1207.8082    1042.1562    79.312276 
   35700    144.63851   -105.38154   0.13087196   -105.25067   -270.06626    4.2972664    4.2972664    4.2972664   -270.06626    2980.1776    -1864.507   -1925.8694     883.3286    890.00153   -289.88522    79.355465 
   35800    90.453857   -105.33309   0.08184455   -105.25125     -386.562     4.296245     4.296245     4.296245     -386.562   -132.74145   -13.007297   -1013.9373    -746.2902   -210.27913    269.11774    79.298893 
   35900     57.12511   -105.30338     0.051688   -105.25169    526.08556    4.2971709    4.2971709    4.2971709    526.08556    2127.2958     127.7145   -676.75358   -1019.9962    1188.0584    646.64566    79.350174 
   36000    150.57861   -105.38694   0.13624669   -105.25069    -20.81739     4.296204     4.296204     4.296204    -20.81739    1740.9549   -1313.6682   -489.73887   -217.23947   -1179.6918   -607.09129    79.296624 
   36100    71.466637   -105.31634  0.064664515   -105.25168    1082.9291    4.2969707    4.2969707    4.2969707    1082.9291    4274.3872   -1050.2604    24.660425   -759.78045    409.03107    111.71912    79.339086 
   36200    123.65331   -105.36289   0.11188411     -105.251    -344.4457      4.29668      4.29668      4.29668    -344.4457    844.19447    955.61217   -2833.1437    345.98848   -188.15809    329.95148    79.322983 
   36300    80.202132   -105.32352  0.072568575   -105.25095    2302.9566    4.2962971    4.2962971    4.2962971    2302.9566    5574.0176   -759.57485    2094.4271   -882.81891    500.79181   -82.017153    79.301776 
   36400    93.206322   -105.33572  0.084335039   -105.25138    -2735.918    4.2973696    4.2973696    4.2973696    -2735.918   -1613.9114   -2985.9014   -3607.9413   -117.76938    1127.0438    1067.5471    79.361182 
   36500    119.40636   -105.35901   0.10804138   -105.25096    1911.0745    4.2961301    4.2961301    4.2961301    1911.0745    2609.8037    3437.2272   -313.80742     338.5844    441.11082   -532.86964    79.292531 
   36600    108.64199   -105.34954  0.098301557   -105.25124   -1262.5682    4.2972147    4.2972147    4.2972147   -1262.5682   -1395.5311   -513.11694   -1879.0566   -2056.2695    298.37671    1229.4385    79.352599 
   36700    59.844294   -105.30565  0.054148375    -105.2515   -261.68307    4.2966306    4.2966306    4.2966306   -261.68307    2876.2857   -434.26132   -3227.0736   -341.09946    1023.7223    -218.4061    79.320244 
   36800    146.04353   -105.38251   0.13214326   -105.25037   -1835.8884    4.2972237    4.2972237    4.2972237   -1835.8884   -1925.1261   -1922.9205   -1659.6187    356.60872   -1163.8185   -146.47225    79.353096 
   36900    53.676659   -105.30015  0.048567769   -105.25158    559.12741    4.2964936    4.2964936    4.2964936    559.12741     1576.532    3342.2548   -3241.4045    -1185.042    552.41417    182.74964    79.312656 
   37000    141.92353   -105.37932   0.12841539    -105.2509   -2322.8891    4.2975151    4.2975151    4.2975151   -2322.8891   -916.78139   -2287.3168   -3764.5691    463.22763    159.50502    403.03754    79.369242 
   37100    90.919531   -105.33332  0.082265902   -105.25105    1315.9826    4.2961368    4.2961368    4.2961368    1315.9826    2213.0662    1557.0476    177.83395    281.78239   -6.4181767   -1021.2679    79.292902 
   37200    79.566345   -105.32355  0.071993301   -105.25156   -2443.2339    4.2977326    4.2977326    4.2977326   -2443.2339    806.96476   -2684.7753   -5451.8911   -1036.4229    956.56021    1311.7205    79.381296 
   37300    104.90542   -105.34587  0.094920626   -105.25095    2934.7704    4.2958971    4.2958971    4.2958971    2934.7704    5338.2059    2338.7746    1127.3307   -942.36969    652.16665   -673.94504    79.279631 
   37400    126.38656   -105.36546   0.11435721   -105.25111   -1449.9442    4.2971147    4.2971147    4.2971147   -1449.9442    2268.2167   -2940.8897   -3677.1597   -1044.6325    138.87135    1000.1863     79.34706 
   37500    74.292805    -105.3186  0.067221691   -105.25138    358.13573    4.2969362    4.2969362    4.2969362    358.13573    1441.0376    420.13351   -786.76391   -363.02792    666.93363   -184.72721    79.337172 
   37600    118.52677    -105.3578   0.10724551   -105.25055    1007.2609    4.2960217    4.2960217    4.2960217    1007.2609    1062.6677    2219.2669   -260.15186    53.488405   -582.22678    598.04148    79.286525 
   37700     66.86532   -105.31199  0.060501147   -105.25149   -27.356424    4.2974975    4.2974975    4.2974975   -27.356424     4943.047   -3191.8986   -1833.2176   -882.30448    527.14798     192.6101    79.368269 
   37800    133.78719   -105.37223   0.12105346   -105.25117   -489.56164    4.2960906    4.2960906    4.2960906   -489.56164   -149.20309    399.76607   -1719.2479    1671.5924    97.991345    207.22484    79.290342 
   37900    108.25784   -105.34906  0.097953965    -105.2511    555.22302    4.2974668    4.2974668    4.2974668    555.22302    1583.0174    969.22935   -886.57768   -1455.4869  -0.49054735   -565.45729    79.366569 
   38000    57.530554   -105.30362  0.052054854   -105.25157   -1140.2717    4.2963757    4.2963757    4.2963757   -1140.2717   -906.66967    807.58003   -3321.7255   -1069.0716    1113.6777    1309.1091    79.306128 
   38100     125.3394   -105.36406   0.11340972   -105.25065   -719.95625    4.2973803    4.2973803    4.2973803   -719.95625   -1110.2217   -1410.1482    360.50111   -402.04312    195.59889   -1228.2245    79.361772 
   38200    105.71759   -105.34671  0.095655498   -105.25105     -494.402     4.296683     4.296683     4.296683     -494.402    1962.6663    684.09246   -4129.9647    -623.9206    222.35168    1240.6596    79.323146 
   38300    83.005111   -105.32647  0.075104769   -105.25136    142.69749    4.2967972    4.2967972    4.2967972    142.69749    235.75859    2041.7561   -1849.4222   -1324.7118    892.88303    -145.3624    79.329472 
   38400    122.81227   -105.36172   0.11112313   -105.25059   -176.42142    4.2970843    4.2970843    4.2970843   -176.42142    3414.7243   -1517.2793   -2426.7092    1401.6582   -235.82859     555.4141    79.345373 
   38500    75.945687   -105.32001  0.068717254    -105.2513   -1700.3163    4.2963628    4.2963628    4.2963628   -1700.3163   -1824.6304   -168.22913   -3108.0894   -655.65902    512.81569   -253.00634    79.305413 
   38600    100.26602   -105.34193  0.090722801    -105.2512    771.37071    4.2975606    4.2975606    4.2975606    771.37071    3790.1812    1062.3909     -2538.46    372.63369     52.03333    585.81002    79.371763 
   38700    128.81632   -105.36732   0.11655571   -105.25076    860.69924    4.2955757    4.2955757    4.2955757    860.69924    2570.9277    1604.4181   -1593.2481   -1354.6027    152.03305   -824.27778    79.261838 
   38800    72.257054   -105.31672  0.065379701   -105.25134   -1135.8114    4.2980255    4.2980255    4.2980255   -1135.8114    4375.2868    -3799.105    -3983.616   -338.83701    325.21224    1049.6078    79.397526 
   38900    115.26603   -105.35501   0.10429513   -105.25071    411.18006    4.2959557    4.2959557    4.2959557    411.18006    434.34877    660.10947    139.08194   -893.39749    157.74854   -1243.1139    79.282876 
   39000    78.599484   -105.32241  0.071118465    -105.2513     425.1503    4.2970959    4.2970959    4.2970959     425.1503    5449.0053    475.56925   -4649.1237   -1206.3405    338.95789    1653.9315    79.346016 
   39100      109.156   -105.35025  0.098766643   -105.25148   -1375.5105    4.2970626    4.2970626    4.2970626   -1375.5105   -1862.4449    -2452.254    188.16736   -123.21673    864.16204   -364.43384    79.344174 
   39200    134.40066   -105.37246   0.12160854   -105.25085     65.47046     4.296294     4.296294     4.296294     65.47046    1271.1779      2002.51   -3077.2766    999.89753    -98.48421    621.95494    79.301606 
   39300    44.652399   -105.29209  0.040402429   -105.25168    248.81124    4.2975698    4.2975698    4.2975698    248.81124    2326.1156   -1570.1109   -9.5709814   -1655.9457    906.85504    405.14602    79.372275 
   39400    112.51368   -105.35278   0.10180474   -105.25098    -510.6967    4.2960541    4.2960541    4.2960541    -510.6967   -516.43739    1204.5029   -2220.1556    442.32281    124.30187    401.87971     79.28832 
   39500    132.37092   -105.37049   0.11977199   -105.25072   -842.05246    4.2976481    4.2976481    4.2976481   -842.05246    1132.6177   -2563.8878   -1094.8873   -311.75961   -29.751644   -604.86758    79.376613 
   39600    69.790263   -105.31455  0.063147697    -105.2514    326.74603    4.2962756    4.2962756    4.2962756    326.74603   -832.75029     4355.837   -2542.8486   -1446.1763    225.80655    912.26167    79.300586 
   39700    112.28313   -105.35227   0.10159613   -105.25067     575.0021    4.2969685    4.2969685    4.2969685     575.0021    2302.4083   -103.31933   -474.08264   -127.99261    52.605932   -775.95924    79.338964 
   39800     90.89478   -105.33328  0.082243507   -105.25103   -293.95713     4.296754     4.296754     4.296754   -293.95713    1994.1136   -595.83493     -2280.15   -110.50363    376.31353     1006.546    79.327082 
   39900    96.489119   -105.33865  0.087305383   -105.25135    402.65896    4.2967253    4.2967253    4.2967253    402.65896     3744.956   -1268.3697   -1268.6095   -72.815083     646.6816   -346.99183    79.325488 
   40000    129.94102   -105.36821   0.11757337   -105.25063    904.44325    4.2968642    4.2968642    4.2968642    904.44325    3114.5878    3232.7909    -3634.049   -512.38461     399.3732    661.26812    79.333186 
   40100    62.359826   -105.30767  0.056424481   -105.25125   -58.934592       4.2965       4.2965       4.2965   -58.934592    3121.0605   -2273.7681   -1024.0962   -324.31153    874.83874    428.45866    79.313011 
   40200    124.08358   -105.36313   0.11227343   -105.25086   -2342.2846     4.297554     4.297554     4.297554   -2342.2846   -1637.0117   -1389.9345   -3999.9075   -222.44517   -332.72231    149.43718    79.371396 
   40300    83.379907   -105.32653  0.075443892   -105.25108    2368.1812    4.2961624    4.2961624    4.2961624    2368.1812    8168.9943   -140.30571   -924.14497   -466.27619   -25.947038   -126.50052    79.294318 
   40400    100.36233   -105.34233  0.090809946   -105.25152   -1631.7873    4.2973346    4.2973346    4.2973346   -1631.7873   -546.83564   -391.62883   -3956.8974   -1694.5775    -75.63981    1009.5077    79.359241 
   40500    129.15778    -105.3677   0.11686467   -105.25084   -1385.3882    4.2969813    4.2969813    4.2969813   -1385.3882    892.48901   -3332.7584   -1715.8951    1311.7087   -76.363304   -908.84178    79.339668 
   40600    69.818575   -105.31436  0.063173314   -105.25118   -699.46359     4.296712     4.296712     4.296712   -699.46359    1004.1255   -597.19038   -2505.3259   -1742.8949    377.29017    1077.5969    79.324752 
   40700    84.676792   -105.32783  0.076617341   -105.25122   -691.24006    4.2972749    4.2972749    4.2972749   -691.24006   -417.71841    220.30757   -1876.3093   -659.45698    1119.4159   -224.67312    79.355934 
   40800    145.87167   -105.38249   0.13198775    -105.2505   -246.76392    4.2964508    4.2964508    4.2964508   -246.76392     1542.075   -159.77589   -2122.5908   -16.024284    220.50441    632.66357     79.31029 
   40900    74.067008   -105.31841  0.067017385   -105.25139     322.6283    4.2970182    4.2970182    4.2970182     322.6283    3108.6171   -2223.0561    82.323883   -240.86878    1025.2881    363.92201    79.341713 
   41000    106.02341   -105.34698  0.095932212   -105.25105   -313.37818    4.2967161    4.2967161    4.2967161   -313.37818     1023.342    1340.6564   -3304.1329   -1289.3228    -352.7612    123.75836    79.324979 
   41100     82.47145   -105.32576  0.074621901   -105.25114    1840.1733    4.2963139    4.2963139    4.2963139    1840.1733     2818.527    736.95017    1965.0426    986.69421    354.99474    456.70431    79.302708 
   41200    114.32271   -105.35473   0.10344159   -105.25129   -1266.0729    4.2973952    4.2973952    4.2973952   -1266.0729    2138.8055   -1503.7009   -4433.3233   -794.62843   -315.12946    316.01547    79.362597 
   41300    119.28348   -105.35872    0.1079302   -105.25079    2278.5358    4.2960216    4.2960216    4.2960216    2278.5358    4693.0783    1195.8145    946.71461    343.51984    169.84993     -497.133    79.286521 
   41400    69.456031   -105.31402  0.062845277   -105.25117    1455.1547    4.2970246    4.2970246    4.2970246    1455.1547    5539.4004    1237.7248   -2411.6611   -1509.4958    619.08722    700.94413    79.342067 
   41500    105.67181   -105.34654  0.095614078   -105.25092    -1483.686    4.2967184    4.2967184    4.2967184    -1483.686     413.7915   -3186.4855    -1678.364    480.64478    792.97204   -90.693819    79.325106 
   41600    110.18008   -105.35045  0.099693253   -105.25075    763.87122    4.2967604    4.2967604    4.2967604    763.87122    5272.6184   -1063.1959   -1917.8088   -804.87477   -62.850239   -40.199603    79.327433 
   41700    96.090418    -105.3381  0.086944629   -105.25116   -1091.2418    4.2971532    4.2971532    4.2971532   -1091.2418    828.54863   -358.22307   -3744.0508   -735.10299    1182.4549    925.26193    79.349193 
   41800    104.28877   -105.34516  0.094362667    -105.2508    -652.0022    4.2965691    4.2965691    4.2965691    -652.0022   -47.245327    447.29528   -2356.0566   -443.83549   -830.86298    62.677162    79.316838 
   41900    93.222734   -105.33515  0.084349888    -105.2508   -1086.6581    4.2976168    4.2976168    4.2976168   -1086.6581    3901.5827   -5013.6886   -2147.8684    1158.2469    247.81483    814.69544    79.374879 
   42000    85.867077   -105.32892  0.077694336   -105.25123   -1113.8524    4.2964258    4.2964258    4.2964258   -1113.8524    2247.7247   -1847.2795   -3742.0022   -2301.7696   -283.42525    313.34371    79.308904 
   42100    130.25529   -105.36859   0.11785772   -105.25073   -1196.0935    4.2976036    4.2976036    4.2976036   -1196.0935   -1794.2626    580.20011   -2374.2179    753.25114    268.38745    50.194109    79.374147 
   42200     82.15562    -105.3257  0.074336131   -105.25136    55.870058    4.2962399    4.2962399    4.2962399    55.870058    5420.4143   -2503.4058   -2749.3984   -577.83564    336.19284    798.08305    79.298612 
   42300    105.01603   -105.34626  0.095020713   -105.25124   -1967.4587    4.2976753    4.2976753    4.2976753   -1967.4587   -1881.6884   -1560.5701   -2460.1177   -936.28417    744.84087   -318.54911    79.378118 
   42400    85.826969   -105.32867  0.077658045   -105.25102    2832.8019    4.2960769    4.2960769    4.2960769    2832.8019    8962.2695    166.14295   -630.00675   -509.86168   -153.73392    223.27197    79.289586 
   42500    112.24461   -105.35262   0.10156128   -105.25106   -173.47716     4.296851     4.296851     4.296851   -173.47716    319.72999    1165.6774   -2005.8389    46.417435    1110.5658    886.96208    79.332455 
   42600    107.59107   -105.34814  0.097350663   -105.25079    972.71065    4.2970533    4.2970533    4.2970533    972.71065    7133.0566   -2481.0433   -1733.8813   -195.42421   -1110.5333    -279.5563     79.34366 
   42700    99.170001   -105.34047  0.089731101   -105.25074    532.14034    4.2959732    4.2959732    4.2959732    532.14034    418.69607    855.29823     322.4267   -212.08191    704.23441    801.28791    79.283841 
   42800    73.386366   -105.31758  0.066401526   -105.25118    716.95651    4.2974712    4.2974712    4.2974712    716.95651     5367.091    770.60699   -3986.8285   -189.00615   -189.68958    174.61361    79.366809 
   42900    122.67661   -105.36186   0.11100038   -105.25086     1278.355    4.2958341    4.2958341    4.2958341     1278.355    2190.2926    77.503056    1567.2694    208.47149    30.088113    329.46433    79.276141 
   43000    108.82858   -105.34948   0.09847039   -105.25101   -398.51228    4.2975972    4.2975972    4.2975972   -398.51228    6628.3604   -2988.7926   -4835.1046   -444.62452    355.16917    145.60253    79.373791 
   43100    89.128386   -105.33171  0.080645237   -105.25106   -879.68596    4.2965318    4.2965318    4.2965318   -879.68596   -3293.2427    923.41093   -269.22608   -1479.7572    827.60853    38.233311    79.314772 
   43200    89.587363   -105.33193  0.081060529   -105.25087   -785.37236    4.2970921    4.2970921    4.2970921   -785.37236    2820.5469   -1799.3532   -3377.3108    1192.4945   -587.43123    90.936186     79.34581 
   43300    99.025558   -105.34075  0.089600406   -105.25115   -1939.5924    4.2972468    4.2972468    4.2972468   -1939.5924      939.815   -3268.8454   -3489.7467   -1696.6569    1191.4619    943.53982    79.354379 
   43400    129.17925   -105.36768    0.1168841    -105.2508   -1379.6287    4.2969105    4.2969105    4.2969105   -1379.6287   -651.62211   -1118.1334   -2369.1306   -286.44112   -948.47618   -728.50906    79.335748 
   43500     76.63622   -105.32065  0.069342062   -105.25131     861.4043    4.2970361    4.2970361    4.2970361     861.4043    5916.5648    733.61179   -4065.9637     458.2236    709.20298    1506.8106    79.342705 
   43600    92.720675    -105.3351  0.083895615   -105.25121   -1907.4981    4.2967296    4.2967296    4.2967296   -1907.4981   -967.87911   -3169.4903   -1585.1249   -185.62114    -294.8114    76.086785     79.32573 
   43700    106.61762   -105.34751  0.096469863   -105.25104   -505.13146    4.2971922    4.2971922    4.2971922   -505.13146     3450.976   -2169.7585   -2796.6118   -707.72787    269.37047    483.99326    79.351351 
   43800    111.12776   -105.35153   0.10055073   -105.25098    267.56719      4.29645      4.29645      4.29645    267.56719    3091.2459    1145.5787   -3434.1231    638.85495    481.58387     408.1302    79.310245 
   43900    82.187326    -105.3254   0.07436482   -105.25103    2311.8482    4.2967158    4.2967158    4.2967158    2311.8482     4944.544    2704.4654   -713.46496   -1306.2098    560.73969     420.7812    79.324962 
   44000    127.36331   -105.36587     0.115241   -105.25063   -1188.6155    4.2966413    4.2966413    4.2966413   -1188.6155    3503.0646   -3919.2204   -3149.6908    485.41956    -529.1693     145.5484     79.32084 
   44100    58.083433    -105.3039  0.052555111   -105.25134    2395.9168    4.2968234    4.2968234    4.2968234    2395.9168    5112.9954    1516.4661    558.28901   -1485.5874     1281.175    415.71631    79.330925 
   44200    134.68886   -105.37284   0.12186931   -105.25097   -945.49755     4.296587     4.296587     4.296587   -945.49755   -301.76373    1127.1403   -3661.8692    981.78792    -996.7026   -425.75249    79.317829 
   44300      89.2441   -105.33188  0.080749937   -105.25113    1663.2548    4.2968972    4.2968972    4.2968972    1663.2548    5129.7108    111.70852   -251.65495   -245.84324     552.2151    1232.8642    79.335011 
   44400    112.36567    -105.3526   0.10167082   -105.25093   -2178.3944    4.2969837    4.2969837    4.2969837   -2178.3944   -2117.1948   -1791.2158   -2626.7727   -201.39798    307.52463   -570.29737    79.339804 
   44500     71.15283   -105.31541  0.064380576   -105.25103    1357.7914    4.2968669    4.2968669    4.2968669    1357.7914    3883.7299    1279.9176   -1090.2733   -181.20599    21.149294    573.95812    79.333332 
   44600    113.34592   -105.35341   0.10255777   -105.25085   -1405.3649    4.2969538    4.2969538    4.2969538   -1405.3649   -146.60534   -1296.8204    -2772.669    716.19618    582.20647    560.90759    79.338145 
   44700    110.73578   -105.35115   0.10019606   -105.25096   -1399.7295    4.2970228    4.2970228    4.2970228   -1399.7295   -924.39673    -1998.742   -1276.0499   -2931.8977    494.42085    372.69781     79.34197 
   44800    108.76219   -105.34917  0.098410314   -105.25076   -1753.2663    4.2971977    4.2971977    4.2971977   -1753.2663    385.66364   -1918.3104    -3727.152    1444.3474   -284.43596   -169.73413    79.351656 
   44900    55.551599    -105.3015  0.050264254   -105.25124    1121.1076    4.2963899    4.2963899    4.2963899    1121.1076    2694.3992    1653.7809   -984.85724   -1385.1201    982.47898    895.50396    79.306914 
   45000     138.2894    -105.3759   0.12512715   -105.25078   -2651.2666    4.2978222    4.2978222    4.2978222   -2651.2666    701.75724   -3884.9769   -4770.5802    240.31642   -1013.1772   -465.44226    79.386258 
   45100    89.795091   -105.33234  0.081248485    -105.2511    1968.1138    4.2958523    4.2958523    4.2958523    1968.1138    6874.7373   -617.72849    -352.6673    12.065756    674.10677    1054.4372    79.277152 
   45200    108.90366   -105.34954  0.098538316     -105.251   -1240.7332    4.2978523    4.2978523    4.2978523   -1240.7332     285.5841    386.59098   -4394.3746    367.17013    172.92966    -741.1551    79.387926 
   45300    88.356273   -105.33104  0.079946613   -105.25109    248.91316    4.2958834    4.2958834    4.2958834    248.91316    2476.6072   -475.52626   -1254.3415   -254.28468   -203.98314    1259.7991    79.278869 
   45400    94.053144   -105.33637  0.085101261   -105.25127    410.56202     4.297548     4.297548     4.297548    410.56202    5590.7014   -1784.4223    -2574.593   -373.54094    897.08715    251.76309    79.371065 
   45500    122.21824   -105.36178   0.11058563   -105.25119    394.74225    4.2960789    4.2960789    4.2960789    394.74225    1679.2759    1770.5121   -2265.5613   -697.03394    573.24752    68.877396    79.289692 
   45600    91.185098   -105.33376  0.082506193   -105.25126    1333.1404    4.2969214    4.2969214    4.2969214    1333.1404    5014.4526    1531.8707   -2546.9021    758.79033   -570.78632    450.46984     79.33635 
   45700    99.276898   -105.34069  0.089827824   -105.25086   -1392.3995    4.2971763    4.2971763    4.2971763   -1392.3995   -1611.4485   -1694.4526   -871.29746   -1058.7141    895.29491    578.11911    79.350474 
   45800    96.861588    -105.3385    0.0876424   -105.25085   -1015.0174     4.296265     4.296265     4.296265   -1015.0174    1053.4655   -1717.7872   -2380.7306    189.55519   -623.98974   -711.70639    79.299999 
   45900    94.728971   -105.33667  0.085712764   -105.25096    566.97415    4.2978063    4.2978063    4.2978063    566.97415    1206.3645    1472.5952   -978.03721    1290.9521    315.26519    599.51953     79.38538 
   46000    117.59744   -105.35742   0.10640463   -105.25102   -433.20745    4.2956151    4.2956151    4.2956151   -433.20745    937.50815    910.40769   -3147.5382   -2245.6298    598.72666   -390.10876    79.264016 
   46100    99.077958   -105.34057  0.089647819   -105.25092   -1604.8834    4.2985067    4.2985067    4.2985067   -1604.8834    688.97037   -4399.6031   -1104.0175    428.68386    84.759821    705.76697    79.424193 
   46200    72.166123   -105.31639  0.065297425   -105.25109    788.72878    4.2953725    4.2953725    4.2953725    788.72878    3001.7963    476.47392   -1112.0839   -335.28351    1291.0075  -0.65272862    79.250589 
   46300    121.20574   -105.36047    0.1096695    -105.2508   -2221.7643    4.2980671    4.2980671    4.2980671   -2221.7643   -2350.5688   -1501.7022   -2813.0218   -1162.7833    102.32647     355.0355     79.39983 
   46400    95.421908   -105.33726  0.086339748   -105.25092    1368.8228    4.2962898    4.2962898    4.2962898    1368.8228    6962.9799    -1390.181   -1466.3304    457.53793    70.118525     894.7699     79.30137 
   46500    117.33709   -105.35685   0.10616907   -105.25068   -594.32327    4.2967111    4.2967111    4.2967111   -594.32327    2051.3668   -1691.8459   -2142.4907     119.6633     751.5229    98.625658    79.324707 
   46600    74.462535   -105.31838  0.067375266   -105.25101    747.04901    4.2973549    4.2973549    4.2973549    747.04901    4604.3826    371.14656   -2734.3822   -61.872514   -490.23993   -352.25055    79.360367 
   46700    97.334779   -105.33907  0.088070553     -105.251    658.67067     4.295602     4.295602     4.295602    658.67067    4555.3436   -1678.1314   -901.20014    434.95362   -116.45429    1042.9446    79.263294 
   46800    129.54049   -105.36815   0.11721095   -105.25094   -1587.8229    4.2984477    4.2984477    4.2984477   -1587.8229    1902.6748   -1940.0388   -4726.1048   -1354.8394    801.72187   -586.71186    79.420924 
   46900    86.929367   -105.32983  0.078655518   -105.25117    1427.1964     4.294979     4.294979     4.294979    1427.1964    3337.4874    509.59827     434.5035    1319.5239   -444.80405    477.52272    79.228809 
   47000    94.131279   -105.33599  0.085171959   -105.25082   -535.10282    4.2983671    4.2983671    4.2983671   -535.10282    2196.4924    1098.7722   -4900.5731   -657.22744    684.13662    147.09497    79.416457 
   47100    96.011633   -105.33779  0.086873343   -105.25091   -176.47827     4.295722     4.295722     4.295722   -176.47827    2920.2547    -2290.365   -1159.3244    -459.1141    277.70451    233.61998    79.269933 
   47200    105.94878   -105.34685  0.095864684   -105.25098    -599.8235    4.2976129    4.2976129    4.2976129    -599.8235    1193.9818   -336.34887   -2657.1035    1586.1557    215.10565    509.92448    79.374659 
   47300    110.11092   -105.35068  0.099630673   -105.25105   -439.24986    4.2965935    4.2965935    4.2965935   -439.24986    252.90884    871.67062    -2442.329   -749.02118    465.58448   -472.07754     79.31819 
   47400    93.518338   -105.33577  0.084617358   -105.25116   -1078.9058    4.2967218    4.2967218    4.2967218   -1078.9058   -1147.4708   -810.19831   -1279.0482   -1139.6797   -251.91821    279.50964    79.325297 
   47500    81.858181   -105.32523  0.074067002   -105.25116    120.95218    4.2977009    4.2977009    4.2977009    120.95218      6018.29   -3336.0419   -2319.3916    1072.3756    429.17206    490.71191    79.379538 
   47600     123.5554   -105.36263   0.11179552   -105.25083   -249.34719    4.2956668    4.2956668    4.2956668   -249.34719   -2024.3241    2369.0546    -1092.772    -1626.604    403.53994   -825.16948    79.266879 
   47700    86.232466   -105.32911  0.078024947   -105.25109    1004.5022    4.2981118    4.2981118    4.2981118    1004.5022    7076.9303   -2171.4964   -1891.9273    539.93054   -489.89023    391.08108    79.402309 
   47800    119.79705   -105.35907   0.10839489   -105.25067    -848.9016    4.2955298    4.2955298    4.2955298    -848.9016   -141.70572   -717.89815   -1687.1009    280.30724     852.2712    490.75957    79.259297 
   47900    77.631233   -105.32117  0.070242371   -105.25092    278.70055    4.2978205    4.2978205    4.2978205    278.70055    4342.5388   -3921.9356    415.49846    45.301869    304.34495   -600.09107    79.386164 
   48000    101.23589    -105.3426  0.091600364     -105.251    383.41369    4.2960507    4.2960507    4.2960507    383.41369    2268.4637    1573.1058   -2691.3285    1174.5347   -161.87623    796.40782    79.288134 
   48100    108.78555   -105.34932  0.098431456   -105.25089    1629.3815    4.2968133    4.2968133    4.2968133    1629.3815    7705.6228    -1376.593   -1440.8852   -1384.3772    834.14704   -239.74252    79.330364 
   48200    113.40303   -105.35353   0.10260945   -105.25092     -1485.07    4.2971678    4.2971678    4.2971678     -1485.07   -651.33669   -1192.5845   -2611.2887    575.32932   -157.31956    732.33735        79.35 
   48300    76.544173   -105.32025  0.069258776   -105.25099    306.06101    4.2963278    4.2963278    4.2963278    306.06101    4358.4301   -1572.2195   -1868.0276    639.60877    -1.983956    174.58456    79.303475 
   48400    99.286738    -105.3407  0.089836727   -105.25086   -734.53395    4.2974756    4.2974756    4.2974756   -734.53395   -1639.6098    1308.0646   -1872.0567   -1389.5673   -359.34445   -144.95298    79.367053 
   48500    107.75548   -105.34857   0.09749942   -105.25107   -372.46312    4.2963696    4.2963696    4.2963696   -372.46312    5512.8648   -3101.0461   -3529.2081    1536.4674   -362.84986      516.178    79.305791 
   48600    114.83513   -105.35499   0.10390524   -105.25108   -256.63439    4.2973749    4.2973749    4.2973749   -256.63439   -696.22531     2110.828   -2184.5059     1101.445     234.6943     74.50205    79.361473 
   48700    83.613889   -105.32694  0.075655604   -105.25129   -1.5837283    4.2963538    4.2963538    4.2963538   -1.5837283     2232.061   -84.042552   -2152.7696    -1611.854    74.881789    -1174.761    79.304919 
   48800    84.074369    -105.3272  0.076072256   -105.25113   -918.92883    4.2972816    4.2972816    4.2972816   -918.92883     1206.985   -493.48402   -3470.2875    1486.4604    229.92167    1075.2829    79.356307 
   48900    123.58546   -105.36263   0.11182272   -105.25081   -789.97777    4.2965921    4.2965921    4.2965921   -789.97777    -96.41909   -2136.1551   -137.35915   -1105.1863    1431.7328   -766.30084    79.318116 
   49000    103.24427   -105.34442  0.093417581     -105.251    561.35643    4.2969521    4.2969521    4.2969521    561.35643    3277.8554    1687.3361   -3281.1222   -76.465758   -534.59707    425.41824    79.338055 
   49100    84.670853   -105.32763  0.076611967   -105.25101    1096.4327    4.2964374    4.2964374    4.2964374    1096.4327    3586.0807    -809.5357    512.75301    359.47148    492.98578    101.15489    79.309545 
   49200    102.58863   -105.34361   0.09282435   -105.25078   -458.70784    4.2970946    4.2970946    4.2970946   -458.70784    2717.7849   -1428.4498   -2665.4587    324.43381   -365.16571    321.77024    79.345945 
   49300    104.03191   -105.34509  0.094130256   -105.25096   -893.27002    4.2967267    4.2967267    4.2967267   -893.27002    1168.6453   -2903.8758   -944.57955     1192.718   -173.16561    -27.51033    79.325571 
   49400     91.35441   -105.33366   0.08265939     -105.251    1939.5994    4.2967233    4.2967233    4.2967233    1939.5994    5030.4704    1674.5477   -886.21997    576.58451   -507.59766    7.6367994     79.32538 
   49500    125.81968    -105.3646    0.1138443   -105.25075   -1527.0622    4.2970487    4.2970487    4.2970487   -1527.0622   -215.85063   -2725.8707   -1639.4653   -1125.5795    647.41419   -946.68907    79.343405 
   49600    71.139851   -105.31546  0.064368832    -105.2511    358.05447    4.2966897    4.2966897    4.2966897    358.05447    4724.4246   -2667.9201   -982.34111    2425.2047    41.431528    1213.3142    79.323521 
   49700     107.9371   -105.34845  0.097663756   -105.25079   -23.002751    4.2971227    4.2971227    4.2971227   -23.002751    835.09982    741.56966   -1645.6777   -2009.9225    1176.3772   -1281.0446    79.347501 
   49800    98.317716   -105.34007  0.088959935   -105.25111    35.562647    4.2962739    4.2962739    4.2962739    35.562647    3382.8717   -3.2920263   -3272.8917    980.84302   -745.01995    910.30286    79.300491 
   49900    113.61908   -105.35383   0.10280493   -105.25102   -1576.8372    4.2977841    4.2977841    4.2977841   -1576.8372   -1105.8995   -2299.9334   -1324.6787    1544.9688    1102.9645    269.21666    79.384147 
   50000    99.837183   -105.34134  0.090334781   -105.25101   -137.58119     4.295916     4.295916     4.295916   -137.58119    1583.1876    518.34666   -2514.2778   -460.67522   -1173.7169    279.24909    79.280673 
   50100    68.974592   -105.31369   0.06240966   -105.25128    339.68361    4.2977241    4.2977241    4.2977241    339.68361    3476.8643   -697.82484   -1759.9886    489.32825    -289.5205   -356.75897    79.380823 
   50200    117.78918   -105.35745   0.10657813   -105.25087     214.7653    4.2960656    4.2960656    4.2960656     214.7653     1411.778    1282.0618   -2049.5439     501.7125   -325.97148    432.00475     79.28896 
   50300    130.74849   -105.36918   0.11830398   -105.25088   -1892.4964    4.2976062    4.2976062    4.2976062   -1892.4964    678.33087   -1953.6924   -4402.1276   -992.30761    610.13482   -1091.6233    79.374289 
   50400    58.436666   -105.30424  0.052874723   -105.25136    1120.3945    4.2965333    4.2965333    4.2965333    1120.3945    3432.2041    719.51932   -790.54005    666.66276   -238.89122    756.05501    79.314858 
   50500    110.85483   -105.35125   0.10030378   -105.25095   -701.99496    4.2965886    4.2965886    4.2965886   -701.99496    362.95306   -971.23035   -1497.7076   -229.73235    1560.2544   -1424.9723    79.317921 
   50600    106.56313   -105.34754  0.096420555   -105.25112   -569.28421    4.2975974    4.2975974    4.2975974   -569.28421    3724.0519   -3046.6149   -2385.2896    1192.7425   -272.48808    1108.2221    79.373801 
   50700    93.828804    -105.3362  0.084898273    -105.2513    1761.9955    4.2956862    4.2956862    4.2956862    1761.9955    4165.7225    490.09993      630.164    1594.0463    1101.0284    -50.34748    79.267951 
   50800    120.84568   -105.36015   0.10934371    -105.2508   -1371.7834    4.2980255    4.2980255    4.2980255   -1371.7834    1677.6171   -1156.3755   -4636.5918   -1275.5656   -1209.7097    11.798792    79.397525 
   50900     63.82394    -105.3089  0.057749242   -105.25115    144.09551    4.2956918    4.2956918    4.2956918    144.09551    300.37706   -2356.1626    2488.0721    2447.8381    322.69758    126.78085    79.268265 
   51000      121.581   -105.36075   0.11000905   -105.25074   -1752.2425    4.2979325    4.2979325    4.2979325   -1752.2425    3224.6342   -3906.0887   -4575.2729   -547.10324   -629.18338    686.00985     79.39237 
   51100    96.313761   -105.33812  0.087146715   -105.25098    1745.0233     4.296047     4.296047     4.296047    1745.0233    2007.7422    2127.7871    1099.5407   -539.67522    53.079574   -1090.0783     79.28793 
   51200    102.64157   -105.34388  0.092872251   -105.25101   -716.95293    4.2971259    4.2971259    4.2971259   -716.95293    1991.7227   -2728.3802   -1414.2012    2015.1236   -207.60049    764.67728    79.347679 
   51300    101.65694   -105.34272  0.091981338   -105.25074   -389.74569    4.2971343    4.2971343    4.2971343   -389.74569    1136.5514   -296.54269   -2009.2457    224.51288    1952.6008   -895.50606    79.348148 
   51400    85.514589   -105.32827  0.077375397   -105.25089   -450.73904    4.2962111    4.2962111    4.2962111   -450.73904    2119.1275   -2141.9282   -1329.4164    313.61654   -718.80733    818.41903    79.297013 
   51500    97.443042   -105.33917  0.088168513     -105.251    136.03049     4.297752     4.297752     4.297752    136.03049    1842.0999    1506.6592   -2940.6676     1499.928    1629.9097   -596.91233    79.382366 
   51600    141.85975   -105.37892   0.12835768   -105.25056   -541.50746    4.2958581    4.2958581    4.2958581   -541.50746     697.4303   -1360.0895   -961.86323   -812.25537   -746.75071    172.00107    79.277472 
   51700    50.343137   -105.29696  0.045551528   -105.25141    1859.2941    4.2974659    4.2974659    4.2974659    1859.2941    8255.4719   -1348.4637   -1329.1259    970.27937    278.91536    212.49777    79.366519 
   51800    125.29852   -105.36431   0.11337274   -105.25094    -1616.551    4.2963577    4.2963577    4.2963577    -1616.551   -2175.4744    55.929869   -2730.1084    -765.3746   -896.33565    336.49672    79.305134 
   51900    83.704297   -105.32696  0.075737407   -105.25122    1268.3822     4.296939     4.296939     4.296939    1268.3822    4860.2942    187.60927   -1242.7569    700.45187    238.93971   -1083.5222    79.337329 
   52000    117.15404   -105.35723   0.10600344   -105.25123   -1684.9094    4.2969764    4.2969764    4.2969764   -1684.9094    1554.9467   -4147.7608   -2461.9142    1782.1814    418.42594    1157.4426    79.339401 
   52100    99.769908   -105.34121  0.090273909   -105.25093    1004.2738    4.2965139    4.2965139    4.2965139    1004.2738    4071.4631    492.00618   -1550.6478   -609.33616    1327.2088     -1057.03    79.313782 
   52200    89.377181     -105.332  0.080870352   -105.25113   -1181.3594    4.2973279    4.2973279    4.2973279   -1181.3594    293.18331   -3351.6893   -485.57224    1086.3039   -204.37713    389.20212    79.358872 
   52300    83.758901   -105.32695  0.075786814   -105.25116    580.81021    4.2965051    4.2965051    4.2965051    580.81021    4567.8907   -1703.0326   -1122.4275    1937.7079    2040.9425   -494.89661    79.313296 
   52400     137.5832   -105.37523   0.12448817   -105.25074   -1673.9758    4.2972502    4.2972502    4.2972502   -1673.9758    558.65387   -3032.4176   -2548.1637   -2069.0461   -651.62484     480.2677    79.354564 
   52500    77.744652   -105.32157  0.070344995   -105.25122   -438.87046    4.2967811    4.2967811    4.2967811   -438.87046    423.10517   -1208.5833   -531.13327    2351.0982   -308.23737    205.64374    79.328582 
   52600     107.5604   -105.34813  0.097322911   -105.25081   -1073.2226    4.2971929    4.2971929    4.2971929   -1073.2226    2596.1247   -3252.5234   -2563.2689    337.15249    197.91186    188.44102    79.351394 
   52700    79.389983   -105.32287  0.071833725   -105.25103    1475.1956    4.2964433    4.2964433    4.2964433    1475.1956    3361.3338   -1125.3762    2189.6293    462.01571   -129.14788   -3.6248615    79.309873 
   52800     120.9701   -105.36049   0.10945629   -105.25103   -1463.6602     4.297325     4.297325     4.297325   -1463.6602    2382.2276   -2817.1405   -3956.0676    1520.1306     209.9175    1070.9695    79.358708 
   52900    107.34498   -105.34794  0.097127998   -105.25081    1517.0867    4.2962988    4.2962988    4.2962988    1517.0867    941.85474     3116.621    492.78453   -112.19986    1257.6274   -1141.8729    79.301873 
   53000    83.909552   -105.32696  0.075923126   -105.25104   -369.86637     4.297087     4.297087     4.297087   -369.86637     5252.491   -4454.8925   -1907.1976    717.24005    279.26842    335.74586    79.345526 
   53100    91.281805   -105.33357  0.082593695   -105.25098    37.699192    4.2965981    4.2965981    4.2965981    37.699192    1310.1606    524.68629   -1721.7493    313.07929    1412.1414   -309.66776    79.318445 
   53200    121.87054   -105.36104   0.11027102   -105.25076    862.69247     4.296835     4.296835     4.296835    862.69247    4310.1885   -959.26081   -762.85024   -727.82963   -729.15183   -66.786825    79.331569 
   53300     87.17361    -105.3301  0.078876514   -105.25122     944.4813    4.2966214    4.2966214    4.2966214     944.4813    4343.7501    532.94661   -2043.2528      2240.65    385.57029   -224.23477    79.319736 
   53400    107.53555   -105.34807  0.097300428   -105.25077    -469.7282    4.2969699    4.2969699    4.2969699    -469.7282    1923.5463   -2923.1912   -409.53967    394.57813    410.00301    473.41073     79.33904 
   53500    99.933709   -105.34125   0.09042212   -105.25083   -1547.0211    4.2969165    4.2969165    4.2969165   -1547.0211   -1380.6531   -755.07143   -2505.3388   -397.36552   -723.04423    90.000741    79.336083 
   53600    79.517216   -105.32334  0.071948848   -105.25139   -480.80808    4.2968579    4.2968579    4.2968579   -480.80808    4893.7446   -3236.0181   -3100.1508    2945.9279    707.60521    625.42524    79.332837 
   53700    124.02241    -105.3632   0.11221808   -105.25099    167.84929    4.2969689    4.2969689    4.2969689    167.84929    658.40134    -725.9359    571.08243     -1510.66    1216.1821   -1031.3686    79.338986 
   53800    103.74096   -105.34511     0.093867   -105.25124   -1613.4115    4.2967732    4.2967732    4.2967732   -1613.4115    2083.3493   -4416.9882   -2506.5955    936.49184   -640.60986    911.91306    79.328142 
   53900    78.146195   -105.32197   0.07070832   -105.25126   -681.99071     4.297395     4.297395     4.297395   -681.99071   -1034.5136   -1567.5544    556.09585    949.22817    1042.8841   -648.11476     79.36259 
   54000    105.67657   -105.34645  0.095618378   -105.25083   -155.37023     4.296201     4.296201     4.296201   -155.37023    3183.3213   -1447.4026   -2202.0294    340.53762    266.54853   -206.17931    79.296456 
   54100    101.32596   -105.34281  0.091681859   -105.25112   -1261.8354    4.2976652    4.2976652    4.2976652   -1261.8354    601.11286   -4094.8254   -291.79358    1393.1571    226.81761     361.9148    79.377561 
   54200    114.55214   -105.35447   0.10364918   -105.25082    840.18154    4.2962733    4.2962733    4.2962733    840.18154    2967.3235     255.3377   -702.11659    914.90219    748.73424    372.00516    79.300459 
   54300    92.045749   -105.33416  0.083284928   -105.25088    728.73033    4.2968744    4.2968744    4.2968744    728.73033    4075.9637   -1983.4386    93.665875   -26.082514   -216.95433    16.834836     79.33375 
   54400    73.905847   -105.31801  0.066871564   -105.25114    535.57035    4.2967605    4.2967605    4.2967605    535.57035    2101.7156   -964.45272    469.44814    1924.9721    1009.2163    343.26005    79.327443 
   54500    134.67416   -105.37246   0.12185601   -105.25061    158.47882    4.2964814    4.2964814    4.2964814    158.47882    201.36989   -12.769082    286.83566   -2118.6845    -25.85224   -185.41941    79.311981 
   54600     96.63646   -105.33846    0.0874387   -105.25102    270.68755    4.2971884    4.2971884    4.2971884    270.68755    5131.1127   -636.38964   -3682.6605    1738.2202   -502.34673    346.93399    79.351142 
   54700    81.445664   -105.32473  0.073693748   -105.25104    1137.1227    4.2961656    4.2961656    4.2961656    1137.1227    1929.3135   -534.95809    2017.0126    694.67634    1469.0261   -668.77286    79.294494 
   54800    121.25918   -105.36037   0.10971785   -105.25065   -1023.3201    4.2974158    4.2974158    4.2974158   -1023.3201    1499.1876   -2100.4114   -2468.7364   -60.592062    163.48974   -211.63027     79.36374 
   54900    72.224401   -105.31675  0.065350156    -105.2514    335.40941    4.2964698    4.2964698    4.2964698    335.40941    1315.3711   -1184.1155    874.97262    1598.3352   -119.01699    453.13629    79.311339 
   55000    127.36766   -105.36626   0.11524493   -105.25102   -1057.4902    4.2973071    4.2973071    4.2973071   -1057.4902    636.70724   -363.26784   -3445.9099    1438.6798    1554.7825   -512.96653     79.35772 
   55100     100.1735   -105.34182  0.090639092   -105.25118   -966.97996    4.2966202    4.2966202    4.2966202   -966.97996   -232.95676   -2828.7988    160.81569   -1132.4201   -476.49519    69.426859    79.319671 
   55200    75.064104   -105.31919  0.067919579   -105.25127    -1576.957    4.2973769    4.2973769    4.2973769    -1576.957     131.1006   -3583.7175   -1278.2542    2051.5126   -89.866603    603.00286    79.361585 
   55300    116.24279   -105.35591   0.10517892   -105.25073   -134.96605    4.2967821    4.2967821    4.2967821   -134.96605    3065.1569   -1682.7051   -1787.3499   -1273.8873   -132.96515   -70.581521    79.328637 
   55400      98.1099   -105.33988  0.088771899   -105.25111   -301.62621    4.2968485    4.2968485    4.2968485   -301.62621    421.55703   -1388.3507    61.915065    1823.9783   -95.644689    184.43508    79.332316 
   55500    100.15935   -105.34173  0.090626287    -105.2511   -402.70436    4.2971394    4.2971394    4.2971394   -402.70436    847.08906   -3701.0217    1645.8196    202.16413    753.07592   -36.326417    79.348427 
   55600    113.89406   -105.35385   0.10305374   -105.25079   -445.13187    4.2964019    4.2964019    4.2964019   -445.13187    376.82826    202.54822   -1914.7721    598.36298    115.44203   -60.355238    79.307583 
   55700    57.847566   -105.30377  0.052341694   -105.25143     996.3864    4.2972371    4.2972371    4.2972371     996.3864    6471.9963   -4427.0958     944.2587    1707.7734    918.35911     152.1241    79.353841 
   55800    138.65834   -105.37631   0.12546098   -105.25085  -0.66394558     4.296244     4.296244     4.296244  -0.66394558   -2043.5993    2574.0085   -532.40101   -83.616685    1435.4184   -898.68493    79.298838 
   55900    99.625851   -105.34115  0.090143563     -105.251    1673.8663    4.2970142    4.2970142    4.2970142    1673.8663    7003.1998   -4148.4525    2166.8517   -459.75575   -1348.8113    702.24965    79.341494 
   56000    76.766731   -105.32071  0.069460152   -105.25125      246.303    4.2964992    4.2964992    4.2964992      246.303   -901.80353    2255.1696   -614.45711    1874.0527     497.2198   -238.42241    79.312966 
   56100    121.22208   -105.36032   0.10968428   -105.25064   -566.98252    4.2970111    4.2970111    4.2970111   -566.98252    1091.7381   -3079.3428    286.65711   -969.93255     240.6612    142.12733    79.341319 
   56200    80.163702   -105.32376  0.072533802   -105.25122    634.81286    4.2967073    4.2967073    4.2967073    634.81286    1227.8582    1244.3521   -567.77164    849.77668   -874.48039   -92.613472    79.324494 
   56300    117.93709   -105.35776   0.10671196   -105.25105   -756.10639    4.2968964    4.2968964    4.2968964   -756.10639    2012.7955   -3424.6855   -856.42923    1531.0393    919.87654    676.40213    79.334968 
   56400    105.41057   -105.34613  0.095377697   -105.25075    339.42478     4.296976     4.296976     4.296976    339.42478     1612.005    1053.5312   -1647.2619   -222.77862    907.92413   -1093.5005    79.339376 
   56500    73.390663   -105.31759  0.066405415   -105.25119   -1382.6531    4.2967812    4.2967812    4.2967812   -1382.6531   -2158.4199   -4787.8338    2798.2943    1723.6297    229.65718    419.94289    79.328585 
   56600    112.98381   -105.35315   0.10223013   -105.25092   -915.43981    4.2972443    4.2972443    4.2972443   -915.43981    165.90877   -285.66428   -2626.5639   -194.94397    480.33362   -976.12145    79.354241 
   56700    108.25062   -105.34897  0.097947437   -105.25103   -227.31161    4.2964581    4.2964581    4.2964581   -227.31161    3360.0454   -2954.7178   -1087.2624    717.92555   -666.34297    792.17255     79.31069 
   56800    87.133716   -105.33027  0.078840417   -105.25143   -919.06073    4.2974091    4.2974091    4.2974091   -919.06073    -680.7636   -2240.4962    164.07763    786.50272    577.92286   -716.34542    79.363372 
   56900    121.58587   -105.36084   0.11001345   -105.25083   -509.94548     4.296458     4.296458     4.296458   -509.94548    2260.9284   -3826.6407    35.875779   -436.69237   -496.68703    789.74191    79.310686 
   57000    54.687708    -105.3009  0.049482587   -105.25142    1870.0177    4.2968217    4.2968217    4.2968217    1870.0177    3882.6936   -736.93735    2464.2969    1110.9504   -392.46148    106.31194    79.330831 
   57100    144.50226   -105.38166   0.13074868   -105.25091   -2539.0932    4.2970856    4.2970856    4.2970856   -2539.0932   -2034.0163   -3110.7789   -2472.4845    1111.1442    1780.2053    450.80915    79.345448 
   57200     89.80177   -105.33224  0.081254529   -105.25098     2851.487     4.296324     4.296324     4.296324     2851.487    4287.3472    1161.3011    3105.8128   -1031.7564   -160.49095   -1096.1964    79.303269 
   57300     89.19596   -105.33184  0.080706379   -105.25114   -1129.7233    4.2971413    4.2971413    4.2971413   -1129.7233    2271.4286   -5690.9955    30.396805    2067.1241   -311.48701    814.19742    79.348533 
   57400    97.874999   -105.33945  0.088559356   -105.25089    1274.4242    4.2963945    4.2963945    4.2963945    1274.4242    2827.8776    2359.6584   -1364.2634   -552.44932    1309.2124   -1276.5918    79.307171 
   57500    116.86746   -105.35661   0.10574413   -105.25087   -48.616239    4.2970361    4.2970361    4.2970361   -48.616239     61.32757   -3107.1858    2900.0096    567.12239   -735.43173    517.83199    79.342705 
   57600    78.830442   -105.32269  0.071327441   -105.25136     843.0185    4.2966209    4.2966209    4.2966209     843.0185    1500.5196    959.80641    68.729463    636.29816    -96.05595   -606.27035     79.31971 
   57700    131.22008    -105.3693   0.11873069   -105.25057   -1160.5768    4.2969985    4.2969985    4.2969985   -1160.5768    552.54081   -3287.1373   -747.13386    232.36784    488.80352    1065.0489    79.340622 
   57800     59.13214   -105.30482  0.053504003   -105.25131    634.02646    4.2966277    4.2966277    4.2966277    634.02646    1324.2869    116.53633    461.25617    441.03395    128.49377   -768.91038    79.320085 
   57900    131.47325   -105.36996   0.11895976     -105.251   -2782.9623    4.2973669    4.2973669    4.2973669   -2782.9623   -1734.0375    -4361.068   -2253.7815    1050.0857    611.98143    651.97235     79.36103 
   58000    77.202104     -105.321  0.069854086   -105.25114    3163.4167    4.2963282    4.2963282    4.2963282    3163.4167    5956.9561    1040.1091    2493.1849   -889.23542   -679.31337   -1008.6716      79.3035 
   58100    124.42515   -105.36376   0.11258249   -105.25117   -4081.5221    4.2975022    4.2975022    4.2975022   -4081.5221   -3616.6833   -5712.2358   -2915.6471     2172.773    488.42717    738.43538    79.368529 
   58200    81.355956   -105.32479  0.073612579   -105.25118    920.79094    4.2966393    4.2966393    4.2966393    920.79094    943.37981   -508.91017    2327.9032   -890.78585    540.47693   -1575.0547    79.320727 
   58300    100.00637   -105.34145  0.090487867   -105.25096   -125.44357    4.2968767    4.2968767    4.2968767   -125.44357    4768.8345   -4115.9878   -1029.1774    929.57431   -1181.1357    955.40675    79.333874 
   58400    96.418067   -105.33844  0.087241093    -105.2512   -478.52391      4.29694      4.29694      4.29694   -478.52391    1385.6146   -2267.6031   -553.58316    801.44622    1140.4657   -739.97531     79.33738 
   58500     136.0307   -105.37365   0.12308344   -105.25057   -384.43211    4.2968152    4.2968152    4.2968152   -384.43211    1511.6274   -2606.0912   -58.832552   -225.81204    934.82573    639.50325    79.330471 
   58600    53.700307   -105.29984  0.048589167   -105.25125    2125.5123     4.296516     4.296516     4.296516    2125.5123    4352.4539   -2566.3151     4590.398    516.76173   -1118.1124    -527.0357      79.3139 
   58700    119.83938   -105.35934   0.10843319   -105.25091   -1826.6628    4.2970161    4.2970161    4.2970161   -1826.6628   -692.46282   -2874.2214   -1913.3041    602.54682    803.75515    594.85348      79.3416 
   58800    96.956632   -105.33857  0.087728398   -105.25084     2317.406      4.29653      4.29653      4.29653     2317.406    5042.6992    405.64476    1503.8742   -440.73054   -127.77587   -783.02262    79.314673 
   58900    116.69047   -105.35671   0.10558399   -105.25113    -2021.469    4.2969169    4.2969169    4.2969169    -2021.469   -653.25473   -4189.4466   -1221.7057    1514.8834   -425.74942    547.10636    79.336102 
   59000     72.90937   -105.31721   0.06596993   -105.25124    2401.2336    4.2968577    4.2968577    4.2968577    2401.2336    4936.0113   -364.15205    2631.8416   -592.71903    202.20869   -931.53837    79.332826 
   59100    115.12882   -105.35512   0.10417098   -105.25095   -1217.6516    4.2965349    4.2965349    4.2965349   -1217.6516   -883.99459   -2386.7624   -382.19788    799.14713    171.99627    749.73553    79.314945 
   59200    96.498973   -105.33863  0.087314298   -105.25131   -1414.3785    4.2975513    4.2975513    4.2975513   -1414.3785   -2400.5125   -853.82125   -988.80186    783.34646    1136.6426   -704.85837    79.371245 
   59300    104.11242   -105.34513  0.094203103   -105.25093    1638.5198    4.2961191    4.2961191    4.2961191    1638.5198    5666.1498   -1216.3588     465.7684   -695.63174   -254.81191    410.14621    79.291923 
   59400    92.013803   -105.33446  0.083256023   -105.25121   -1028.1606    4.2972662    4.2972662    4.2972662   -1028.1606   -326.76831   -2278.9971   -478.71627    912.33042   -440.92857   -373.65693    79.355453 
   59500    111.35104   -105.35171   0.10075276   -105.25096   -2054.3298     4.297064     4.297064     4.297064   -2054.3298    519.94526   -3829.1696   -2853.7649    91.041087    1336.2027    298.84055    79.344249 
   59600    83.095018   -105.32615  0.075186119   -105.25097    2561.7576    4.2961043    4.2961043    4.2961043    2561.7576     3199.024    877.57646    3608.6722   -154.95924   -1366.8979   -380.78187    79.291102 
   59700    108.97767   -105.34976  0.098605289   -105.25115   -1845.1183    4.2976764    4.2976764    4.2976764   -1845.1183    1892.8954   -5406.8963    -2021.354    998.55629   -196.19652    442.95287    79.378181 
   59800    106.97828   -105.34771  0.096796194   -105.25092    536.70959    4.2960997    4.2960997    4.2960997    536.70959   -212.52399    117.10744    1705.5453     59.66284     1445.284   -832.59776    79.290848 
   59900    96.787572   -105.33868  0.087575429    -105.2511   -113.35746     4.297463     4.297463     4.297463   -113.35746    6141.6351   -5209.3362   -1272.3713    569.74896   -417.89133    665.49243    79.366356 
   60000    82.230095   -105.32583  0.074403518   -105.25143     40.13037    4.2962472    4.2962472    4.2962472     40.13037    666.59448   -2278.4329    1732.2295    1389.0344    284.60247   -862.21558    79.299012 
   60100    115.03197   -105.35493   0.10408335   -105.25085    824.79055     4.297198     4.297198     4.297198    824.79055    3934.4619   -1456.4031    -3.687135   -822.62692    719.30621   -162.77582    79.351672 
   60200    112.63988   -105.35287   0.10191893   -105.25095   -1323.4503    4.2967013    4.2967013    4.2967013   -1323.4503   -1166.3654   -3582.0254    778.04004     2049.076   -390.50711    1.9178621    79.324162 
   60300    77.092055   -105.32087  0.069754511   -105.25111    640.75859    4.2968337    4.2968337    4.2968337    640.75859    2937.5837   -1944.1914    928.88344   -524.17162    244.87553   -56.444708    79.331492 
   60400    104.46762   -105.34519  0.094524495   -105.25067    255.47541    4.2969439    4.2969439    4.2969439    255.47541    1793.8401   -1814.3676    786.95378    540.85449   -748.11451    24.003691    79.337598 
   60500    109.68009   -105.35026  0.099240849   -105.25102   -2188.6412     4.296749     4.296749     4.296749   -2188.6412   -1186.5586   -1921.8866   -3457.4782    790.95729     780.0921    445.46279    79.326803 
   60600    95.540871   -105.33744  0.086447388   -105.25099    907.67838    4.2973753    4.2973753    4.2973753    907.67838    2137.8638   -862.93381    1448.1052    459.84665    481.76556   -133.64024    79.361499 
   60700    99.626981   -105.34108  0.090144586   -105.25093    164.22677    4.2960907    4.2960907    4.2960907    164.22677    1790.7943   -2161.7928    863.67883    357.54379   -891.60402    208.01243    79.290349 
   60800    95.826395   -105.33781  0.086705736   -105.25111   -1951.6706    4.2978774    4.2978774    4.2978774   -1951.6706   -4132.2984   -1260.3866   -462.32679    1287.0643    1345.1618   -608.45924    79.389316 
   60900    102.43346   -105.34365  0.092683949   -105.25097    1473.9845    4.2959624    4.2959624    4.2959624    1473.9845     5908.767    171.62261   -1658.4361   -709.16092    284.34568   -357.34707    79.283246 
   61000    104.76213   -105.34599  0.094790977    -105.2512   -637.37627    4.2972397    4.2972397    4.2972397   -637.37627    1610.2289   -2379.4518   -1142.9059     1623.521   -1215.0507    454.52221    79.353984 
   61100    92.039912   -105.33438  0.083279647    -105.2511     304.6614    4.2967885    4.2967885    4.2967885     304.6614    1926.9731   -2774.4874    1761.4985    -1074.614    1310.3896   -784.73817    79.328992 
   61200     112.0865   -105.35217   0.10141822   -105.25075    355.89625    4.2964222    4.2964222    4.2964222    355.89625    2452.8519   -511.50871   -873.65439    885.24503   -159.96114    623.60641    79.308706 
   61300    87.354235   -105.33033  0.079039948   -105.25129   -496.57102    4.2974463    4.2974463    4.2974463   -496.57102    1462.9742   -4064.2467    1111.5594    870.84223    39.820428    392.47258    79.365428 
   61400    101.13692    -105.3425  0.091510809   -105.25099    1539.2431    4.2960526    4.2960526    4.2960526    1539.2431    4693.4857   -240.44201    164.68572    677.34294    255.44855   -325.45125    79.288239 
   61500    119.43237   -105.35891   0.10806492   -105.25084   -1238.3342    4.2975262    4.2975262    4.2975262   -1238.3342     835.3059   -4196.5595   -353.74889    882.96681    258.97032    -153.2752    79.369856 
   61600      79.3608   -105.32305  0.071807319   -105.25124   -444.94663     4.296558     4.296558     4.296558   -444.94663    2759.8796   -3837.2325   -257.48699    2295.6593    411.44622   -104.47718    79.316226 
   61700    102.66608   -105.34369  0.092894426   -105.25079    400.37359    4.2969295    4.2969295    4.2969295    400.37359    1010.9746   -857.61095    1047.7571   -727.81907    277.83888   -809.53757    79.336803 
   61800     108.0903   -105.34883  0.097802371   -105.25103   -1698.5277    4.2970775    4.2970775    4.2970775   -1698.5277   -1156.5957   -4652.2197    713.23229    2120.4738   -70.568708    435.30182    79.344997 
   61900    97.614763   -105.33939  0.088323889   -105.25107   -381.65139    4.2968924    4.2968924    4.2968924   -381.65139    416.60721    116.47556   -1678.0369    -682.9388    2173.4937   -796.02183    79.334745 
   62000    99.390861   -105.34073   0.08993094    -105.2508    29.863149    4.2969379    4.2969379    4.2969379    29.863149    4614.9578   -4231.2577   -294.11061    1508.8363   -1326.1257    971.28519    79.337264 
   62100    92.665698   -105.33486  0.083845871   -105.25101   -1774.8938    4.2970565    4.2970565    4.2970565   -1774.8938   -3373.2283   -1797.7944   -153.65871    421.96425    828.39302   -34.286114    79.343838 
   62200    103.61048   -105.34459  0.093748935   -105.25084    235.34647    4.2968973    4.2968973    4.2968973    235.34647    3428.1371   -861.72754   -1860.3701    724.95064    572.52529   -78.784537    79.335015 
   62300    110.32462   -105.35074  0.099824037   -105.25091   -57.279237    4.2966945    4.2966945    4.2966945   -57.279237    1542.6707   -1533.6853   -180.82315    1480.5457   -765.49918    26.688533    79.323784 
   62400    83.261148   -105.32654  0.075336436    -105.2512    554.12054    4.2968678    4.2968678    4.2968678    554.12054     2486.996   -1801.4011    976.76673    952.03864    125.44286    296.00842    79.333382 
   62500    113.86029   -105.35385   0.10302318   -105.25083    407.09329    4.2966993    4.2966993    4.2966993    407.09329    3002.2395   -1177.8808    -603.0788   -464.38438    1266.3495   -1416.8808    79.324052 
   62600    93.714103   -105.33589   0.08479449    -105.2511    199.49965    4.2966665    4.2966665    4.2966665    199.49965    5137.1394   -1761.7788   -2776.8616    1572.5875    -400.3907    873.95818    79.322235 
   62700    95.478621   -105.33752  0.086391063   -105.25113     852.7389    4.2966457    4.2966457    4.2966457     852.7389    1975.4156   -1151.4465    1734.2477   -347.66158    1166.3818   -957.17277    79.321081 
   62800    118.48614   -105.35807   0.10720875   -105.25086    50.873089    4.2969012    4.2969012    4.2969012    50.873089    3486.0281   -3181.6731   -151.73571    587.78772   -540.99996    817.60112    79.335236 
   62900    84.412094   -105.32763  0.076377837   -105.25125   -154.87927    4.2967835    4.2967835    4.2967835   -154.87927     4.094198    -3102.515     2633.783    1387.0062    1042.7767   -437.73437    79.328715 
   63000    102.19678    -105.3434   0.09246979   -105.25093    232.72714     4.296975     4.296975     4.296975    232.72714    6056.6029   -1666.0503   -3692.3712    832.10457   -435.82475    356.83016     79.33932 
   63100    102.14885   -105.34345  0.092426423   -105.25102   -715.11047    4.2967735    4.2967735    4.2967735   -715.11047   -1125.0818   -2674.2748    1654.0252    1599.8036   -20.538357   -29.409313     79.32816 
   63200    103.83265   -105.34503  0.093949966   -105.25108   -2358.7404    4.2975349    4.2975349    4.2975349   -2358.7404    352.03513   -5235.7826   -2192.4738    796.58576    1251.3156    383.16133    79.370338 
   63300     93.35159    -105.3353   0.08446648   -105.25083    408.67093    4.2965366    4.2965366    4.2965366    408.67093    2418.0317   -1223.4458    31.426812    558.77993    903.78123    -1332.147    79.315037 
   63400    101.34713   -105.34272  0.091701011   -105.25102   -2118.1286    4.2972839    4.2972839    4.2972839   -2118.1286   -2531.3147   -4272.0367    448.96571    1857.9597   -569.34635    1368.4779    79.356431 
   63500    93.353833    -105.3355   0.08446851   -105.25104   -22.236473    4.2970807    4.2970807    4.2970807   -22.236473    2143.1923   -80.556014   -2129.3457   -604.61441    2827.8832   -1264.1541    79.345174 
   63600    117.19606   -105.35677   0.10604146   -105.25073   -771.04549    4.2965053    4.2965053    4.2965053   -771.04549     3393.857   -3641.3911   -2065.6024    1569.7034   -943.39059    549.81825    79.313309 
   63700    80.582229     -105.324  0.072912494   -105.25109   -453.74598     4.297522     4.297522     4.297522   -453.74598    1371.3252   -1854.9101   -877.65306    1335.1315    1123.3519   -125.28539    79.369623 
   63800     116.4627   -105.35603   0.10537789   -105.25065    -239.0461    4.2961627    4.2961627    4.2961627    -239.0461    1003.4137   -590.05524   -1130.4968   -131.03871    128.22265    623.17316    79.294333 
   63900    84.056174   -105.32703  0.076055792   -105.25098    1478.0819    4.2972394    4.2972394    4.2972394    1478.0819    4910.7305    -1373.209    896.72419    1179.6603    549.37384   -389.51067    79.353967 
   64000    113.95667   -105.35401   0.10311039    -105.2509   -86.332178    4.2964071    4.2964071    4.2964071   -86.332178    3138.6776   -742.65578   -2655.0183     428.3209    283.88721    646.76064    79.307868 
   64100    95.182916   -105.33702  0.086123503    -105.2509    2066.1066    4.2966348    4.2966348    4.2966348    2066.1066    5455.6168    160.47519    582.22793    244.43046    321.07871   -948.15875    79.320481 
   64200    103.03723   -105.34426   0.09323025   -105.25103   -924.79046    4.2971495    4.2971495    4.2971495   -924.79046     732.4118   -3126.5864   -380.19676    683.41061     248.9459    1098.1245    79.348986 
   64300    87.185257   -105.32992  0.078887053   -105.25103    1203.7198     4.296101     4.296101     4.296101    1203.7198    5716.1477   -141.45978   -1963.5284     323.3865    1474.7018   -1684.6314    79.290917 
   64400     118.2668   -105.35794   0.10701028   -105.25093   -712.83198    4.2976256    4.2976256    4.2976256   -712.83198   -712.51541   -1915.0346    489.05407    1053.1619   -913.90412     779.1319    79.375363 
   64500    85.282265   -105.32846  0.077165185   -105.25129    487.84112    4.2960277    4.2960277    4.2960277    487.84112    1845.2992   -1634.4657    1252.6898    789.76342    1645.2501   -65.094676    79.286859 
   64600    107.42107   -105.34814  0.097196845   -105.25094   -801.22149    4.2977119    4.2977119    4.2977119   -801.22149    3373.4575   -3089.9629   -2687.1591   -652.84472    839.79937    260.28638    79.380144 
   64700    89.483081   -105.33201  0.080966172   -105.25104   -866.03852     4.296414     4.296414     4.296414   -866.03852   -214.12253   -2086.4655   -297.52749    2386.4668   -766.59464   -240.01876    79.308248 
   64800    114.26558   -105.35438    0.1033899   -105.25099   -2877.2644    4.2974779    4.2974779    4.2974779   -2877.2644   -2361.9179   -2248.2441    -4021.631   -418.98098    1569.1865    1241.8242    79.367181 
   64900    82.587659   -105.32568   0.07472705   -105.25095    1474.9152    4.2968097    4.2968097    4.2968097    1474.9152    4721.3982   -1710.5437    1413.8909    650.37213    129.40371   -1055.7067    79.330166 
   65000    115.87621   -105.35579   0.10484723   -105.25094   -2113.5191    4.2966918    4.2966918    4.2966918   -2113.5191   -496.76809   -4135.2829   -1708.5064    1673.9473    386.09859    887.28438    79.323636 
   65100    91.827562   -105.33405  0.083087508   -105.25096    353.86579    4.2975302    4.2975302    4.2975302    353.86579    2567.5805    830.47827   -2336.4614    365.57039    1417.5005   -1091.4271    79.370077 
   65200    98.411706   -105.33992   0.08904498   -105.25088    805.34625    4.2958563    4.2958563    4.2958563    805.34625    4470.3746   -1114.1031   -940.23269    108.42899    384.69313    821.27555    79.277368 
   65300    98.262061      -105.34  0.088909578   -105.25109   -823.54896    4.2977348    4.2977348    4.2977348   -823.54896    2593.3732   -1519.6162   -3544.4039     888.5079    1618.2537   -443.65057    79.381413 
   65400    113.48433    -105.3534   0.10268301   -105.25072    827.13658    4.2960732    4.2960732    4.2960732    827.13658    3338.3721   -1476.3827    619.42032   -687.16073     297.8483    183.61386    79.289377 
   65500    88.784158    -105.3313  0.080333772   -105.25097     1292.741    4.2968721    4.2968721    4.2968721     1292.741    2716.4879    1105.3809    56.354174    889.02553   -425.03421    185.94537    79.333621 
   65600    94.789684   -105.33672  0.085767698   -105.25095    854.60553    4.2969856    4.2969856    4.2969856    854.60553    5528.7273   -1852.3427   -1112.5681   -650.87008    1477.7843    886.83515    79.339907 
   65700    108.28616   -105.34869  0.097979597   -105.25071    1078.4428    4.2959506    4.2959506    4.2959506    1078.4428     3026.985    1639.4264   -1431.0831    1244.6634   -1240.8114   -1159.2737    79.282589 
   65800     110.5337   -105.35099   0.10001321   -105.25098   -2149.5488    4.2980267    4.2980267    4.2980267   -2149.5488   -991.96331   -4704.8368   -751.84643    1071.2903     549.6826     943.8247    79.397593 
   65900    78.878864   -105.32245  0.071371254   -105.25108    1701.3308     4.295656     4.295656     4.295656    1701.3308    3997.3305    1855.4343   -748.77242   -472.44419    1600.8287   -602.32748     79.26628 
   66000    105.20528   -105.34621   0.09519195   -105.25102   -780.76114    4.2977628    4.2977628    4.2977628   -780.76114   -143.01419   -3934.4658    1735.1966    684.00263    3.4287421    15.647488    79.382969 
   66100    115.50114   -105.35558   0.10450786   -105.25107   -1847.7654    4.2965475    4.2965475    4.2965475   -1847.7654   -1227.6845   -1250.0531   -3065.5587    1004.0606     1104.953   -171.10839    79.315645 
   66200    80.739476   -105.32425  0.073054774    -105.2512    1671.3752    4.2968209    4.2968209    4.2968209    1671.3752    5164.6725     -1135.73    985.18299    -1528.248    1222.3844    391.91737    79.330788 
   66300    107.00711   -105.34795  0.096822277   -105.25113   -2323.6577    4.2974128    4.2974128    4.2974128   -2323.6577   -1183.6022   -3310.4282   -2476.9427    1287.6128   -571.82246    234.09335    79.363572 
   66400    100.22355   -105.34175  0.090684371   -105.25106    -1325.031    4.2963994    4.2963994    4.2963994    -1325.031    283.84705   -2285.2599   -1973.6802    517.64514    1588.3737    465.43604    79.307443 
   66500    99.282807    -105.3408   0.08983317   -105.25097    480.13016    4.2975949    4.2975949    4.2975949    480.13016    2848.0123   -252.99885    -1154.623    488.64929   -1064.7914    -302.0582    79.373661 
   66600    95.146095   -105.33718  0.086090186   -105.25109    579.65792    4.2959735    4.2959735    4.2959735    579.65792    4251.6552   -2675.3376    162.65621    757.81284    1643.3941    964.49404    79.283857 
   66700    104.55483   -105.34539  0.094603403   -105.25079    287.97376    4.2975799    4.2975799    4.2975799    287.97376    2273.0775    199.22446   -1608.3807    69.788833    794.85118   -471.32455    79.372831 
   66800    106.63055   -105.34721  0.096481562   -105.25072   -338.75586    4.2963245    4.2963245    4.2963245   -338.75586    3187.0142   -3405.4135   -797.86831    459.97697    -178.7622    -121.7427    79.303293 
   66900    87.610074   -105.33029  0.079271436   -105.25102   -60.690571    4.2969452    4.2969452    4.2969452   -60.690571    2413.4319    2046.0526   -4641.5562   -326.16299    1481.1123    386.58348    79.337673 
   67000    95.753938   -105.33743  0.086640175   -105.25079    1832.1564    4.2967504    4.2967504    4.2967504    1832.1564    4365.7819   -2315.3944    3446.0818   -602.08888    486.68612    30.689172    79.326879 
   67100    126.70778    -105.3655   0.11464786   -105.25085    -1156.482    4.2964576    4.2964576    4.2964576    -1156.482   -645.89553   -198.18034   -2625.3702    1522.6705   -1233.1753   -44.263254    79.310665 
   67200    76.601647   -105.32055   0.06931078   -105.25124    1376.6825    4.2974024    4.2974024    4.2974024    1376.6825    4282.0884   -2995.6994    2843.6585    3.6101099      1536.29     265.2191    79.362999 
   67300    99.268894   -105.34072  0.089820581    -105.2509    658.51734    4.2958529    4.2958529    4.2958529    658.51734      1459.68    3136.5443   -2620.6722    13.843328   -770.51256    302.92239     79.27718 
   67400    112.66208   -105.35295   0.10193902   -105.25101   -2874.7444    4.2979657    4.2979657    4.2979657   -2874.7444   -3159.6952    -5383.861   -80.677089    1728.5966    489.05712    172.40055     79.39421 
   67500    92.692656   -105.33492  0.083870263   -105.25105    861.18553    4.2961852    4.2961852    4.2961852    861.18553    2940.8165    370.54015       -727.8   -444.68294    740.55742    93.458039    79.295578 
   67600    104.61402   -105.34558  0.094656962   -105.25092    -234.9518    4.2971501    4.2971501    4.2971501    -234.9518    361.92645    -3784.362    2717.5801     34.89503    21.591453   -89.607948    79.349021 
   67700    89.411889   -105.33201  0.080901756   -105.25111   -499.61895    4.2970431    4.2970431    4.2970431   -499.61895    309.41475    22.601079   -1830.8727    372.20411    1741.0665    899.81736    79.343095 
   67800    105.25251   -105.34612   0.09523468   -105.25088    158.77262     4.296437     4.296437     4.296437    158.77262    1634.0997   -1908.7327    750.95091    177.38987   -109.63711   -806.39464    79.309524 
   67900    107.79545   -105.34858  0.097535587   -105.25105   -1888.7568    4.2975731    4.2975731    4.2975731   -1888.7568    1917.5266   -3616.5593   -3967.2377    577.49448    450.64653    670.29679    79.372455 
   68000    86.254601   -105.32909  0.078044976   -105.25105    692.24116    4.2962881    4.2962881    4.2962881    692.24116    907.69717   -1304.6878    2473.7141    59.440588    1696.8919     189.8618    79.301279 
   68100    110.04406   -105.35044  0.099570181   -105.25087   -120.85514    4.2972678    4.2972678    4.2972678   -120.85514    3045.6505   -862.45612   -2545.7598    580.52388   -1168.7072     650.2552    79.355541 
   68200    102.09627   -105.34348  0.092378847    -105.2511   -531.04823      4.29662      4.29662      4.29662   -531.04823    1892.5312   -3654.3199    168.64399    1162.2003    344.05583   -57.216894    79.319661 
   68300    82.903493   -105.32615  0.075012823   -105.25113    2198.9705    4.2966781    4.2966781    4.2966781    2198.9705    5817.9462    1523.5803   -744.61501   -992.54399    1141.7795    1107.0035    79.322876 
   68400    129.60085   -105.36818   0.11726557   -105.25092   -2211.1936    4.2970584    4.2970584    4.2970584   -2211.1936   -2441.1181   -3678.1036   -514.35893    985.46587   -1561.5643   -193.57361    79.343942 
   68500    73.948365   -105.31804  0.066910035   -105.25113    700.26412    4.2966281    4.2966281    4.2966281    700.26412    2762.2046    159.59869   -821.01096    658.88618    1594.9463     635.7061    79.320108 
   68600    113.34676   -105.35326   0.10255853    -105.2507   -196.76464    4.2969676    4.2969676    4.2969676   -196.76464    1600.1514   -2536.1779    345.73262    -276.3757   -139.34022   -930.61213     79.33891 
   68700    94.628478   -105.33656  0.085621836   -105.25094    436.64715    4.2968083    4.2968083    4.2968083    436.64715   -566.80972    202.59381    1674.1574    571.64697    572.92879    1028.9978    79.330089 
   68800    101.60585   -105.34276  0.091935105   -105.25082    65.541665    4.2967516    4.2967516    4.2967516    65.541665    672.52465   -1866.3812    1390.4816    784.26023    356.96232   -322.33184    79.326946 
   68900    103.21045   -105.34425  0.093386983   -105.25087   -388.75324    4.2970267    4.2970267    4.2970267   -388.75324    632.18209   -1363.7605   -434.68127    142.68285   -443.45771    553.94202    79.342187 
   69000    102.52072   -105.34385  0.092762898   -105.25109   -2083.7286    4.2969167    4.2969167    4.2969167   -2083.7286   -2096.3399   -2983.5483   -1171.2976    621.94012    502.46313    239.79706    79.336091 
   69100    79.465631   -105.32311  0.071902173   -105.25121    1589.7475     4.296891     4.296891     4.296891    1589.7475    1417.1046    1198.7256    2153.4121   -106.58162     580.1117    1464.5982    79.334666 
   69200      135.455   -105.37344   0.12256253   -105.25087   -1762.9181    4.2968584    4.2968584    4.2968584   -1762.9181     675.2932    -4828.134   -1135.9136    1412.9135   -989.50176   -980.19771    79.332864 
   69300     66.96943   -105.31192  0.060595348   -105.25132    1554.8984    4.2967142    4.2967142    4.2967142    1554.8984    3330.6009   -1496.2784    2830.3728   -83.603218    2881.9233    1166.1518    79.324879 
   69400    126.41953   -105.36516   0.11438705   -105.25077   -1798.3894     4.297292     4.297292     4.297292   -1798.3894    -434.2031    -1764.083   -3196.8821    -90.58743   -421.71614   -750.73378    79.356882 
   69500    80.743527   -105.32427   0.07305844   -105.25121    84.353487    4.2962491    4.2962491    4.2962491    84.353487    1470.5653   -708.34235   -509.16252    1309.2983    507.62021    1198.4249    79.299117 
   69600    104.45007   -105.34555  0.094508614   -105.25105   -401.22348    4.2975966    4.2975966    4.2975966   -401.22348    4033.7374   -3867.8866   -1369.5212    103.72119    1267.0998   -663.81526    79.373758 
   69700    111.87108   -105.35211    0.1012233   -105.25088    625.58468    4.2959342    4.2959342    4.2959342    625.58468    937.31851   -1579.4846    2518.9201    -148.5225   -1352.2072    1440.0102    79.281684 
   69800    93.319172   -105.33544  0.084437148   -105.25101   -622.81772    4.2977587    4.2977587    4.2977587   -622.81772    1312.2907   -2129.9132   -1050.8306     1302.072    96.135062    121.29533    79.382742 
   69900    81.695161   -105.32478  0.073919498   -105.25086    1536.4427    4.2961076    4.2961076    4.2961076    1536.4427    3081.9009    1199.8595    327.56753     459.6148   -269.71001    1174.6029    79.291284 
   70000     131.3859   -105.36961   0.11888073   -105.25073   -2900.3902    4.2972585    4.2972585    4.2972585   -2900.3902   -865.74744     -4371.87   -3463.5533    477.07514   -490.06254   -901.34441    79.355026 
   70100    73.745086   -105.31788  0.066726104   -105.25116     1065.698    4.2970824    4.2970824    4.2970824     1065.698   -1128.7564   -657.29493    4983.1453    302.37685    1316.9441    1558.3552     79.34527 
   70200    119.06714   -105.35865   0.10773445   -105.25091   -256.94553     4.296137     4.296137     4.296137   -256.94553    2420.3436   -294.85841   -2896.3217    573.16635   -241.15081   -880.80004    79.292914 
   70300    80.807386   -105.32439  0.073116221   -105.25127     133.1652    4.2979795    4.2979795    4.2979795     133.1652   -1469.0386   -2043.0192    3911.5534    743.70342      544.997    643.58931    79.394977 
   70400    108.85374   -105.34951  0.098493149   -105.25102   -419.92551    4.2956573    4.2956573    4.2956573   -419.92551    1565.3076   -889.40166   -1935.6824   -449.61856     1572.751   -181.78177    79.266355 
   70500    109.87914   -105.35028  0.099420957   -105.25086   -992.87482    4.2981904    4.2981904    4.2981904   -992.87482   -2382.7564   -1401.0141      805.146    1087.8697   -1982.7207    1099.7118    79.406664 
   70600    82.332229   -105.32555  0.074495931   -105.25106    391.61385     4.295771     4.295771     4.295771    391.61385    3473.7682   -1127.5283   -1171.3984    1215.6602    1935.7043   -468.98008    79.272649 
   70700    106.02054   -105.34676  0.095929613   -105.25083   -180.07204    4.2974482    4.2974482    4.2974482   -180.07204   -172.56869   -1146.0597    778.41228   -170.54066   -338.98767    992.04055    79.365536 
   70800    112.69712   -105.35291   0.10197072   -105.25093   -763.72001    4.2968467    4.2968467    4.2968467   -763.72001    2006.3504   -3253.2497   -1044.2608     578.2794    104.60751   -299.15299    79.332212 
   70900    69.590511   -105.31424  0.062966957   -105.25127    2133.4606    4.2961106    4.2961106    4.2961106    2133.4606    4374.3419    980.21849    1045.8214    1068.0312    1265.4308    1262.8678    79.291449 
   71000    129.99677   -105.36836   0.11762381   -105.25074   -2121.5361    4.2980013    4.2980013    4.2980013   -2121.5361    313.53814   -3711.2919   -2966.8546    -245.6864    293.54024   -847.69532    79.396186 
   71100    89.175303   -105.33175  0.080687688   -105.25106   -553.77277      4.29564      4.29564      4.29564   -553.77277   -395.64766   -1429.8611    164.19047    653.86064   -386.87727    1205.2311    79.265394 
   71200     89.79705   -105.33231  0.081250258   -105.25106    15.933375    4.2982662    4.2982662    4.2982662    15.933375    4284.7047   -2152.5955   -2084.3091    371.76031    1323.1561   -230.73656    79.410863 
   71300    111.72442   -105.35209    0.1010906     -105.251    462.53682    4.2954183    4.2954183    4.2954183    462.53682    303.02278    177.84837     906.7393    1484.4448    -2099.371    552.27395    79.253125 
   71400    93.936404   -105.33618  0.084995633   -105.25118   -566.55837     4.298114     4.298114     4.298114   -566.55837    393.30906   -4184.2817    2091.2975   -174.92477    2071.7248   -523.05508    79.402431 
   71500    110.97922   -105.35136   0.10041633   -105.25094     -748.628     4.296265     4.296265     4.296265     -748.628   -162.58345    121.14148    -2204.442    481.35514   -1626.1517    1122.7516    79.299999 
   71600    85.340262   -105.32825  0.077217662   -105.25103   -328.49615     4.296875     4.296875     4.296875   -328.49615    132.34818   -565.08385   -552.75279    963.49198     477.3616   -435.66784    79.333781 
   71700    93.953848     -105.336  0.085011416   -105.25099   -190.07349    4.2974237    4.2974237    4.2974237   -190.07349   -254.88927   -162.88854   -152.44265     166.1609    798.98629     768.5067    79.364177 
   71800    130.65776    -105.3688   0.11822189   -105.25058   -174.45366    4.2959075    4.2959075    4.2959075   -174.45366   -141.84934   -2339.7479    1958.2363   -421.77418   -357.10536   -290.84196    79.280206 
   71900    77.619916   -105.32131  0.070232131   -105.25107    743.37051    4.2978415    4.2978415    4.2978415    743.37051    2871.6243   -925.73255     284.2198    1645.4206    7.1808035    668.25894    79.387328 
   72000    94.531188   -105.33649  0.085533805   -105.25096    489.28962    4.2956127    4.2956127    4.2956127    489.28962    35.127776    1719.8606   -287.11949    171.64223    2281.6444   -647.70421    79.263883 
   72100     119.4726   -105.35892   0.10810132   -105.25082   -2011.2636    4.2980325    4.2980325    4.2980325   -2011.2636   -119.75403   -1938.9818   -3975.0551    570.16798   -1720.8158   -21.458839     79.39791 
   72200     81.55759   -105.32503  0.073795021   -105.25123    993.32848    4.2960272    4.2960272    4.2960272    993.32848    2687.0629   -2644.4752    2937.3978    299.02749     2412.237    162.76376     79.28683 
   72300    118.83443   -105.35835   0.10752389   -105.25083   -82.819811    4.2971965    4.2971965    4.2971965   -82.819811    3084.5716    540.77488   -3873.8059    946.20675   -906.05118    370.47082     79.35159 
   72400    87.061743   -105.32983  0.078775295   -105.25105    117.14386    4.2968179    4.2968179    4.2968179    117.14386   -873.56904   -1834.5775    3059.5781    226.97889    64.756876    157.35337    79.330619 
   72500    94.846095   -105.33686   0.08581874   -105.25104   -446.54039    4.2967789    4.2967789    4.2967789   -446.54039    4633.0115   -1408.5321   -4564.1006   -100.41556    395.58817    863.35042    79.328461 
   72600    118.22933   -105.35792   0.10697638   -105.25095   -1260.2315    4.2972472    4.2972472    4.2972472   -1260.2315   -1044.5517   -2833.4215    97.278843    988.85768   -967.88356    219.83921      79.3544 
   72700    86.182641    -105.3292  0.077979864   -105.25122   -20.649626    4.2964552    4.2964552    4.2964552   -20.649626    1226.1793   -120.59103   -1167.5372    1263.8924    928.68393   -111.26546    79.310534 
   72800    105.82064   -105.34668  0.095748737   -105.25093   -494.17308    4.2973553    4.2973553    4.2973553   -494.17308    -435.6899   -1794.6242    747.79489   -804.72492    767.44766   -354.51797    79.360391 
   72900    100.53914   -105.34186  0.090969924   -105.25089   -70.706402    4.2964578    4.2964578    4.2964578   -70.706402    2497.4871   -2143.5598   -566.04649    1218.6614   -1080.0031    -110.6895    79.310674 
   73000    86.184947   -105.32897  0.077981951   -105.25099    388.89945    4.2971881    4.2971881    4.2971881    388.89945   -432.09746   -884.43107    2483.2269    456.25579    1845.9542   -3.4318876    79.351125 
   73100    123.96997   -105.36284   0.11217063   -105.25067   -912.97858    4.2964944    4.2964944    4.2964944   -912.97858   -766.24498    461.82455   -2434.5153   -284.98312   -1148.0004   -93.433349    79.312701 
   73200    85.550946   -105.32846  0.077408294   -105.25105   -198.29851    4.2972611    4.2972611    4.2972611   -198.29851   -347.37984   -2913.3592    2665.8435    443.99928   -866.84288    514.97508     79.35517 
   73300      96.1727   -105.33807   0.08701908   -105.25105   -76.825429    4.2965162    4.2965162    4.2965162   -76.825429    3238.0596     279.5367   -3748.0726    761.94097    1756.0906    342.51045     79.31391 
   73400    111.39419   -105.35165   0.10079181   -105.25086    479.73005    4.2970669    4.2970669    4.2970669    479.73005     -1828.47      90.8968    3176.7634    535.57969    -1239.826   -308.02258    79.344411 
   73500    84.383547   -105.32757  0.076352006   -105.25122    1119.1023    4.2964676    4.2964676    4.2964676    1119.1023    4555.9912   -436.71111    -761.9732    190.54612    1870.1952   -535.87713    79.311216 
   73600     120.7168   -105.36005    0.1092271   -105.25082   -1361.7169    4.2972757    4.2972757    4.2972757   -1361.7169   -370.22491   -2762.8033   -952.12241   -94.951054    870.52851    133.97393    79.355976 
   73700    93.126706   -105.33516  0.084263001   -105.25089   -443.75962    4.2966152    4.2966152    4.2966152   -443.75962    999.04221    654.44021   -2984.7613    1081.3873   -209.75606   -632.51441    79.319393 
   73800    80.853921   -105.32435  0.073158327   -105.25119     442.2492    4.2968401    4.2968401    4.2968401     442.2492    1843.2298   -524.24411    7.7619478   -290.54873    878.05685    336.83528    79.331848 
   73900     127.1738   -105.36587   0.11506953    -105.2508   -163.20639    4.2969881    4.2969881    4.2969881   -163.20639    2215.2838   -1938.1608   -766.74216   -108.72064   -1251.0866    46.758885    79.340045 
   74000    93.515191   -105.33574   0.08461451   -105.25112    43.932776    4.2964073    4.2964073    4.2964073    43.932776    1563.7516   -3191.4944    1759.5412    1903.2074   -570.96573    917.25463    79.307879 
   74100     95.11267   -105.33708  0.086059943   -105.25102   -993.20555    4.2977532    4.2977532    4.2977532   -993.20555   -1314.1314   -107.23417   -1558.2511    41.589385    1111.7329   -493.44597    79.382434 
   74200    98.104217   -105.33961  0.088766757   -105.25084   -290.56352    4.2958055    4.2958055    4.2958055   -290.56352    982.31893    -108.6443   -1745.3652    60.439883   -1916.6249    168.31439     79.27456 
   74300    94.416546   -105.33642  0.085430075   -105.25099   -801.02093    4.2981293    4.2981293    4.2981293   -801.02093     894.7785   -4857.8443     1560.003    776.27991    1976.8302   -512.13942    79.403278 
   74400    125.91268   -105.36476   0.11392844   -105.25083   -104.96467    4.2958411    4.2958411    4.2958411   -104.96467   -48.861512    35.265479   -301.29797   -133.49264   -170.95979    66.502433     79.27653 
   74500     80.33716   -105.32387   0.07269075   -105.25118    969.47272    4.2974593    4.2974593    4.2974593    969.47272    11.087118   -1140.8416    4038.1726   -132.46488   -864.56849   -988.38385     79.36615 
   74600    88.012432   -105.33071  0.079635498   -105.25108   -240.93242    4.2964647    4.2964647    4.2964647   -240.93242    2656.0103   -267.67892   -3111.1287   -63.883094    1224.7971     726.5192     79.31106 
   74700    125.36128   -105.36417   0.11342952   -105.25074    -1367.967    4.2967884    4.2967884    4.2967884    -1367.967   -2546.7314   -2441.2978    884.12805    680.64321   -811.51011   -275.64265    79.328985 
   74800    89.173846   -105.33176   0.08068637   -105.25107    423.05077     4.297478     4.297478     4.297478    423.05077    2600.6885   -826.42841   -505.10774    1002.7205    129.09379    141.24174    79.367189 
   74900    98.445422   -105.33998  0.089075487    -105.2509     1092.337    4.2955209    4.2955209    4.2955209     1092.337    1184.2046    1242.8607    849.94578   -544.54691    1426.5863   -609.48688    79.258805 
   75000    106.32097   -105.34689  0.096201444   -105.25069   -656.68069    4.2983147    4.2983147    4.2983147   -656.68069     2414.516   -2828.0076   -1556.5505    808.38001   -790.75785    174.42554     79.41355 
   75100    85.682129   -105.32865  0.077526991   -105.25112    448.73902    4.2954524    4.2954524    4.2954524    448.73902    179.73396   -412.01441    1578.4975    610.64048    1697.2514   -537.15592    79.255014 
   75200    121.57985   -105.36087     0.110008   -105.25086   -1261.6078     4.298206     4.298206     4.298206   -1261.6078     1554.524   -982.27855   -4357.0688   -1168.6895   -267.94388    -188.3551     79.40753 
   75300    82.404447   -105.32573  0.074561275   -105.25117    983.45008    4.2957688    4.2957688    4.2957688    983.45008    528.43705   -425.14002    2847.0532    474.46766   -849.07401    129.38635    79.272525 
   75400    111.41686   -105.35182   0.10081231     -105.251   -1957.7977    4.2976604    4.2976604    4.2976604   -1957.7977    1775.0561   -3355.8516   -4292.5975    851.85407    1733.3802    635.85373     79.37729 
   75500    95.415295   -105.33727  0.086333764   -105.25094    1010.7831    4.2966894    4.2966894    4.2966894    1010.7831   -437.57273   -240.84797    3710.7701    131.89901   -1993.7559   -634.58483    79.323504 
   75600    88.667675   -105.33137  0.080228376   -105.25114    870.89608    4.2962084    4.2962084    4.2962084    870.89608    4582.4769    -614.9214   -1354.8672    702.05092    934.32951    136.46947    79.296868 
   75700    117.59178   -105.35736   0.10639951   -105.25096   -1560.0788    4.2978751    4.2978751    4.2978751   -1560.0788   -3248.6822   -3434.0553    2002.5012    405.71773    67.787881   -326.11436    79.389191 
   75800    107.75253   -105.34844  0.097496751   -105.25094   -802.35099    4.2956544    4.2956544    4.2956544   -802.35099    472.91217   -1132.6572   -1747.3079    545.23056   -960.62594   -286.87882    79.266195 
   75900    65.373592   -105.31044  0.059151399   -105.25129     812.2731    4.2981206    4.2981206    4.2981206     812.2731    2804.9722   -1817.0367    1448.8837   -382.35729    337.56661   -210.05282    79.402797 
   76000    124.47618   -105.36342   0.11262867   -105.25079    25.766949    4.2956263    4.2956263    4.2956263    25.766949   -598.01709    1042.4739   -367.15601   -740.96785    381.99269    95.989479    79.264636 
   76100    100.06344    -105.3414  0.090539502   -105.25086    257.67826    4.2978002    4.2978002    4.2978002    257.67826    2004.3481    -4830.174    3598.8607    1218.5621   -1081.7182    105.00798    79.385038 
   76200    102.75889   -105.34388  0.092978402    -105.2509   -1081.9364    4.2964802    4.2964802    4.2964802   -1081.9364   -215.61708   -436.87678   -2593.3155   -335.24591    2635.0855   -4.3226982    79.311915 
   76300    85.590372   -105.32831  0.077443967   -105.25087    350.01532    4.2968469    4.2968469    4.2968469    350.01532    1617.7048     417.2889   -984.94771   -47.516771   -1810.6505   -862.81516    79.332225 
   76400    97.174015   -105.33898  0.087925091   -105.25106   -641.57513    4.2972249    4.2972249    4.2972249   -641.57513    1062.0915   -1567.0408    -1419.776    1102.4616    2068.4634    324.30084    79.353166 
   76500    125.22464   -105.36418   0.11330589   -105.25087   -243.74458    4.2962409    4.2962409    4.2962409   -243.74458    1833.1815   -2704.6619    140.24666    253.90588   -588.23272   -472.19658    79.298664 
   76600    85.666335   -105.32857    0.0775127   -105.25106     1322.082    4.2974399    4.2974399    4.2974399     1322.082    3428.5006   -366.01243    903.75788   -505.94951   -735.90634   -353.14052    79.365078 
   76700    90.191355   -105.33261  0.081607033     -105.251   -603.40229     4.296019     4.296019     4.296019   -603.40229    286.00823    625.63755   -2721.8526    506.47379    618.10057    808.95909    79.286378 
   76800     111.8836   -105.35201   0.10123463   -105.25077   -1388.5999    4.2976187    4.2976187    4.2976187   -1388.5999   -616.58836    -2289.067   -1260.1442   -1.1395861    24.692058   -184.03654    79.374982 
   76900    96.272992   -105.33812  0.087109826   -105.25101    584.36106    4.2962424    4.2962424    4.2962424    584.36106    4088.6819   -2338.9932     3.394459    766.98139   -926.62612    198.60111     79.29875 
   77000    102.71666   -105.34403  0.092940194   -105.25109    385.18412    4.2971545    4.2971545    4.2971545    385.18412   -276.39677    -238.3951    1670.3442   -634.39067    2360.2998   -217.59889    79.349265 
   77100    103.88839     -105.345  0.094000398     -105.251   -10.286439    4.2966434    4.2966434    4.2966434   -10.286439    599.58936   -221.92977    -408.5189    1165.6769   -2144.8415   -371.88305    79.320954 
   77200    77.405201   -105.32117  0.070037853   -105.25114    443.10496    4.2969187    4.2969187    4.2969187    443.10496    2278.4199   -3503.3933    2554.2882    744.05394    1115.3485    -331.7846    79.336203 
   77300    125.73227   -105.36463    0.1137652   -105.25087   -1869.4795    4.2969768    4.2969768    4.2969768   -1869.4795   -644.59963   -1514.8385   -3449.0003   -512.23772    -857.0178   -7.4823319     79.33942 
   77400    87.803381   -105.33043  0.079446344   -105.25099    1369.7372    4.2966715    4.2966715    4.2966715    1369.7372   -73.028746   -160.76818    4343.0085    240.64061   -886.74237   -498.47551     79.32251 
   77500    106.60641   -105.34742  0.096459717   -105.25096   -1054.5607    4.2969439    4.2969439    4.2969439   -1054.5607    3112.5026   -2450.3583   -3825.8263    1317.5661    1246.5849    1265.7012    79.337599 
   77600    89.122777   -105.33173  0.080640162   -105.25109    630.22665    4.2966881    4.2966881    4.2966881    630.22665    632.26109   -2044.0601    3302.4789   -1125.4426   -170.30577   -875.82904    79.323433 
   77700    103.84646   -105.34497  0.093962463     -105.251   -385.39388    4.2969248    4.2969248    4.2969248   -385.39388    3121.7182   -871.22836   -3406.6715    813.00485    555.79003    487.42409    79.336543 
   77800    99.944135   -105.34157  0.090431553   -105.25114   -396.73373    4.2967024    4.2967024    4.2967024   -396.73373   -1864.6115   -559.33233    1233.7426   -34.742474    1892.1093   -280.76663     79.32422 
   77900     110.8506    -105.3511   0.10029995    -105.2508   -1084.0923    4.2972624    4.2972624    4.2972624   -1084.0923    3624.6517   -3052.3038    -3824.625    613.15305   -1915.4049   -469.89151     79.35524 
   78000    79.958063   -105.32331  0.072347735   -105.25096    329.08287    4.2963436    4.2963436    4.2963436    329.08287    1276.5164   -799.06667    509.79886   -589.88441    850.48757    -177.3824     79.30435 
   78100    114.82588   -105.35464   0.10389687   -105.25075   -996.63346    4.2976841    4.2976841    4.2976841   -996.63346    129.51905   -444.24729   -2675.1721    474.35253   -555.24064     411.1186    79.378605 
   78200    82.199046   -105.32539  0.074375425   -105.25101    2526.4231    4.2958487    4.2958487    4.2958487    2526.4231    3955.2238    146.63816    3477.4072    626.69765   -1682.1596   -214.63338    79.276951 
   78300     129.5045   -105.36802    0.1171784   -105.25084   -2754.6074    4.2978642    4.2978642    4.2978642   -2754.6074   -521.60162   -4673.5414   -3068.6792    672.70494    1934.4633    1101.7072    79.388586 
   78400    81.389318   -105.32467  0.073642765   -105.25103    769.10374    4.2961361    4.2961361    4.2961361    769.10374   -522.19152    1681.9803    1147.5225   -828.29936   -1067.4227   -795.23075     79.29286 
   78500    91.116548   -105.33348  0.082444167   -105.25104     506.6793    4.2970471    4.2970471    4.2970471     506.6793    3515.5086    -488.2507     -1507.22    1917.7417    559.52328    637.67344    79.343314 
   78600    107.29902   -105.34813  0.097086412   -105.25104    536.09703    4.2967027    4.2967027    4.2967027    536.09703    650.76922   -2334.6199    3292.1418   -500.88742    479.13022   -615.47416    79.324239 
   78700    119.20883   -105.35868   0.10786265   -105.25082   -97.911549    4.2965136    4.2965136    4.2965136   -97.911549    1380.9635   -2057.6913     382.9931   -101.85456   -1520.3987   -407.44802    79.313766 
   78800    79.994977   -105.32349  0.072381137   -105.25111    262.42815    4.2974051    4.2974051    4.2974051    262.42815    523.04961    -700.6038    964.83865    478.08869    400.92218    38.644136     79.36315 
   78900    97.757059   -105.33947  0.088452641   -105.25102   -1011.4156    4.2959637    4.2959637    4.2959637   -1011.4156   -138.38334    376.30592   -3272.1694    950.62624   -60.888737    624.48105    79.283318 
   79000    98.854492    -105.3404  0.089445622   -105.25095    -114.7086    4.2980106    4.2980106    4.2980106    -114.7086     3523.597   -4695.5989    827.87604   -214.86958   -970.23745   -725.37634    79.396697 
   79100    123.82226   -105.36308   0.11203698   -105.25104   -941.89241    4.2958136    4.2958136    4.2958136   -941.89241   -1155.1272   -1241.5417   -429.00829    739.35273    2762.0596      1501.96    79.275004 
   79200    79.392151   -105.32307  0.071835687   -105.25123    812.51011    4.2977671    4.2977671    4.2977671    812.51011    3322.4204   -275.37669   -609.51341    229.05365   -1492.8054   -1059.2651    79.383204 
   79300      93.0891   -105.33514  0.084228974   -105.25091   -564.21696    4.2962463    4.2962463    4.2962463   -564.21696    708.29976   -1438.2145   -962.73612    774.60363    1120.2018    763.23252    79.298965 
   79400    117.66504   -105.35733    0.1064658   -105.25087   -2697.6771    4.2973371    4.2973371    4.2973371   -2697.6771   -1098.2621   -3131.2862    -3863.483   -1259.5286    255.27619   -551.74934    79.359378 
   79500    91.398836   -105.33379  0.082699587   -105.25109    1302.4322    4.2969045    4.2969045    4.2969045    1302.4322    2570.7322   -732.70889    2069.2733    727.61621   -1552.5523    14.295053    79.335418 
   79600    108.07228   -105.34875  0.097786072   -105.25097    344.63526     4.295981     4.295981     4.295981    344.63526    2342.3134    821.31314   -2129.7207     403.6339    724.67079    509.52036    79.284274 
   79700    89.705552   -105.33216  0.081167469   -105.25099   -182.67393    4.2979663    4.2979663    4.2979663   -182.67393    49.131145   -3216.5153    2619.3624   -133.93585    -52.09233    104.75734    79.394247 
   79800    105.51567   -105.34629  0.095472798   -105.25082     565.1581    4.2953671    4.2953671    4.2953671     565.1581      2666.41    747.67856   -1718.6142     325.7759   -1210.2604   -245.17183    79.250292 
   79900     94.86469   -105.33685  0.085835565   -105.25102    302.89422    4.2980003    4.2980003    4.2980003    302.89422   -91.211982   -1792.9398    2792.8344    1342.5728    1811.9977     1186.447    79.396129 
   80000    108.99055   -105.34951   0.09861694   -105.25089    240.26231    4.2957916    4.2957916    4.2957916    240.26231    1296.7643     1112.979   -1688.9564    -164.1304   -1951.4192   -1039.1893    79.273786 
   80100    96.948452   -105.33865  0.087720997   -105.25092    496.60509    4.2973238    4.2973238    4.2973238    496.60509    1864.2331   -3856.2349    3481.8171    38.166572    726.55968    318.44995    79.358644 
   80200    103.75333   -105.34491  0.093878194   -105.25103   -869.60692    4.2967709    4.2967709    4.2967709   -869.60692    368.91107   -240.50431   -2737.2275    74.992427    72.818612    182.03522    79.328017 
   80300    71.241209   -105.31566  0.064460543    -105.2512     2730.498    4.2962888    4.2962888    4.2962888     2730.498    3840.3625    213.10582    4138.0255    467.90135   -1092.0844   -555.68161    79.301318 
   80400    147.11613   -105.38394   0.13311376   -105.25083   -3697.4567    4.2977678    4.2977678    4.2977678   -3697.4567   -2999.3977   -4225.9626   -3867.0097   -225.76075    1595.0563    615.90326    79.383246 
   80500    73.530401   -105.31783  0.066531852    -105.2513    120.87854    4.2961418    4.2961418    4.2961418    120.87854    1227.5866   -1866.0542    1001.1032   -28.791566   -300.97582   -59.160308    79.293176 
   80600    97.404276    -105.3391  0.088133436   -105.25096   -829.10557    4.2977324    4.2977324    4.2977324   -829.10557    3319.7265   -984.13878   -4822.9045    1499.6716   -707.79674   -75.306974    79.381283 
   80700    94.416279   -105.33651  0.085429833   -105.25108   -13.361673     4.296077     4.296077     4.296077   -13.361673   -1264.4413    -718.9387    1943.2949   -106.49936    1387.4743    939.83634    79.289588 
   80800    118.23113   -105.35791   0.10697801   -105.25093   -1388.9403    4.2977865    4.2977865    4.2977865   -1388.9403    2626.4922   -3962.6495   -2830.6635   -254.48937    -1846.671   -973.68209    79.384281 
   80900    96.949626   -105.33871  0.087722059   -105.25099    250.33059     4.296226     4.296226     4.296226    250.33059    1144.7293   -1654.9689    1261.2314    574.95496    596.48241    853.46195     79.29784 
   81000     91.44854   -105.33375  0.082744561     -105.251   -1423.9331     4.297315     4.297315     4.297315   -1423.9331   -241.81784    599.09567   -4629.0773    102.86942    709.33379    218.27069    79.358154 
   81100    87.521869   -105.33011  0.079191627   -105.25092    1335.1915    4.2965794    4.2965794    4.2965794    1335.1915    3007.7283   -1156.4097    2154.2558   -569.92883   -1167.6765   -613.99675    79.317408 
   81200    134.42646   -105.37234   0.12163188   -105.25071   -334.55945    4.2967626    4.2967626    4.2967626   -334.55945    1608.3089   -3000.9896    389.00233    270.52208    1762.1235    840.01253    79.327555 
   81300    77.412743   -105.32117  0.070044677   -105.25113     2054.186    4.2967543    4.2967543    4.2967543     2054.186    3415.8407    -38.75534    2785.4725    395.04541   -1425.4165   -149.59256    79.327097 
   81400    105.58942   -105.34632  0.095539522   -105.25078    371.59265    4.2963607    4.2963607    4.2963607    371.59265   -278.25882    1449.4523   -56.415546    473.57017   -548.13482   -315.89749    79.305299 
   81500      98.6661   -105.34032  0.089275161   -105.25105   -976.02056    4.2971113    4.2971113    4.2971113   -976.02056    533.29369    -3025.473    -435.8824   -610.05773    411.72973    614.11049    79.346871 
   81600    89.707809   -105.33242  0.081169511   -105.25125    1274.0105    4.2964348    4.2964348    4.2964348    1274.0105    3767.2545   -1235.9996    1290.7767    791.57923   -1313.4908   -506.96419    79.309401 
   81700     131.2697    -105.3696   0.11877558   -105.25082    -344.5207    4.2969439    4.2969439    4.2969439    -344.5207   -665.29008   -871.41991    503.14789    451.40163     1135.163    212.54528    79.337596 
   81800    73.685128   -105.31799  0.066671852   -105.25132    75.906444     4.296768     4.296768     4.296768    75.906444    754.54396   -457.84448   -68.980142   -730.22397    1342.4203    312.39779    79.327853 
   81900     99.27637   -105.34069  0.089827346   -105.25086   -1214.6884    4.2972085    4.2972085    4.2972085   -1214.6884    2447.7168   -3376.8435   -2714.9387   -38.929017   -960.71323   -776.11196    79.352254 
   82000    111.07289   -105.35146   0.10050109   -105.25095   -1759.0407    4.2967181    4.2967181    4.2967181   -1759.0407   -2136.1244   -2379.9496   -761.04825    914.72933    1946.8635    1125.7274    79.325092 
   82100    95.586648   -105.33766  0.086488808   -105.25117   -930.42046    4.2975578    4.2975578    4.2975578   -930.42046     1084.098   -729.53605   -3145.8234   -871.22226   -1583.8728   -667.45699     79.37161 
   82200    100.08294   -105.34147  0.090557144   -105.25091    794.60046    4.2960883    4.2960883    4.2960883    794.60046    3146.9544   -2060.9584    1297.8053    229.72828   -787.50761     208.3359    79.290217 
   82300    107.74903   -105.34849  0.097493588     -105.251   -2343.8009    4.2977898    4.2977898    4.2977898   -2343.8009    580.16602   -3466.2128    -4145.356    289.79188    602.71416    572.54216    79.384465 
   82400    68.891103   -105.31366  0.062334118   -105.25133    1900.7785    4.2960761    4.2960761    4.2960761    1900.7785    2444.5703    628.53263    2629.2326     597.4692    -1399.597    -435.4039    79.289542 
   82500    142.36968   -105.37955   0.12881908   -105.25073   -1371.7446    4.2969809    4.2969809    4.2969809   -1371.7446   -155.62155   -987.35816   -2972.2541    -500.5552    1382.5109    220.67962     79.33965 
   82600    69.193931   -105.31384  0.062608123   -105.25124    1599.7364    4.2968519    4.2968519    4.2968519    1599.7364    3780.9757   -2543.7421    3561.9756    107.42839    225.30737    357.56951    79.332501 
   82700    122.19845   -105.36137   0.11056772    -105.2508   -577.53574      4.29625      4.29625      4.29625   -577.53574       1250.8    51.866584   -3035.2738    462.51441   -854.82655   -621.67482    79.299167 
   82800    79.406837    -105.3229  0.071848975   -105.25105    1903.4217    4.2974211    4.2974211    4.2974211    1903.4217    1329.7511   -268.50609    4649.0202   -366.62601    945.23347    640.84793    79.364035 
   82900    98.468875   -105.34019  0.089096707    -105.2511    641.38231    4.2956516    4.2956516    4.2956516    641.38231    3192.7681     803.5147   -2072.1358    -894.4725   -1684.7032   -529.47784    79.266038 
   83000    126.12779   -105.36481   0.11412307   -105.25069   -798.28858    4.2981419    4.2981419    4.2981419   -798.28858   -1328.9033   -4279.2006    3213.2382    733.70589   -502.67788    120.21237    79.403976 
   83100    95.255209   -105.33713  0.086188915   -105.25094   -1180.4016    4.2957922    4.2957922    4.2957922   -1180.4016   -612.05148    1307.7517   -4236.9051    37.720687    1225.2542    129.96325    79.273822 
   83200    61.399745   -105.30677  0.055555779   -105.25121    1279.2651    4.2975817    4.2975817    4.2975817    1279.2651    2722.0729   -319.13096    1434.8535   -466.68332    -1485.062    -664.7203    79.372933 
   83300     142.4777   -105.37959   0.12891681   -105.25068   -1787.2865    4.2965704    4.2965704    4.2965704   -1787.2865   -252.73162   -2726.8896   -2382.2384    541.64811    2254.6833    437.07744    79.316914 
   83400    82.971876   -105.32637  0.075074697   -105.25129   -122.27876    4.2969461    4.2969461    4.2969461   -122.27876    867.64834   -2547.2852    1312.8006    449.90884    133.95436    191.38177    79.337721 
   83500    111.17268   -105.35167   0.10059138   -105.25108   -1471.0073    4.2974192    4.2974192    4.2974192   -1471.0073   -434.70407   -268.18059   -3710.1373   -307.45566   -390.82268   -538.71972    79.363927 
   83600    83.463615    -105.3269  0.075519633   -105.25138   -471.83435    4.2959248    4.2959248    4.2959248   -471.83435    687.80044   -583.12553    -1520.178   -735.70692    909.26879    1064.9907    79.281165 
   83700    90.743191   -105.33353  0.082106347   -105.25142   -1048.2041    4.2983795    4.2983795    4.2983795   -1048.2041    2457.2354   -3681.8874   -1919.9603    336.43525   -736.81643   -519.31086    79.417144 
   83800     142.3263    -105.3796   0.12877983   -105.25082    147.02932    4.2952638    4.2952638    4.2952638    147.02932    -92.59878   -1072.1375    1605.8242    -10.18412   -688.01559    117.40834     79.24457 
   83900    65.514324   -105.31057  0.059278738   -105.25129    1582.7097    4.2980863    4.2980863    4.2980863    1582.7097    4568.3402    298.56503   -118.77616    -541.0137    1230.1598   -39.185319    79.400894 
   84000    102.96699   -105.34402  0.093166692   -105.25085   -591.32014    4.2957271    4.2957271    4.2957271   -591.32014    27.878105   -928.96105   -872.87746    258.60353   -2268.3306   -293.11266     79.27022 
   84100    111.56802    -105.3517   0.10094909   -105.25075   -329.47062    4.2973841    4.2973841    4.2973841   -329.47062   -281.36983   -1767.8649    1060.8229    1063.2412     2040.593    323.79261    79.361987 
   84200    89.038254   -105.33173  0.080563683   -105.25116     837.6509     4.296655     4.296655     4.296655     837.6509    2984.8993   -579.84295     107.8963   -833.48693   -1700.7314   -59.135407    79.321598 
   84300    107.23856    -105.3479  0.097031704   -105.25086    2136.9582    4.2959678    4.2959678    4.2959678    2136.9582      1413.89    2135.0278    2861.9566    35.768417    550.50004   -129.88203    79.283545 
   84400    112.19096   -105.35237   0.10151274   -105.25086   -1674.2612    4.2979618    4.2979618    4.2979618   -1674.2612    121.45522   -3812.4496   -1331.7892   -35.458893     409.1218    698.32178    79.393995 
   84500    59.906911    -105.3057  0.054205032    -105.2515    1281.6176    4.2955485    4.2955485    4.2955485    1281.6176    966.90381    1712.7683    1165.1807   -115.22089   -18.330741   -1008.8771    79.260334 
   84600     144.0061   -105.38103   0.13029975   -105.25073   -2474.8678    4.2982449    4.2982449    4.2982449   -2474.8678    -1903.021   -2149.1019   -3372.4806   -893.78282   -538.93068   -65.244084    79.409686 
   84700    64.030738   -105.30938  0.057936357   -105.25145    1647.2511     4.295534     4.295534     4.295534    1647.2511    1986.4921    940.82507     2014.436    490.41174    2041.2527      236.677    79.259527 
   84800    140.49525   -105.37798   0.12712305   -105.25086   -3745.6301    4.2982652    4.2982652    4.2982652   -3745.6301   -2340.5614   -4374.9205   -4521.4085    310.90597   -2755.9086   -569.14834    79.410808 
   84900    64.012082   -105.30924  0.057919477   -105.25132    2064.9558    4.2958555    4.2958555    4.2958555    2064.9558    3563.7129    1030.3318    1600.8226    191.24255    2228.3545    746.05578    79.277326 
   85000    99.382343   -105.34115  0.089923232   -105.25123   -1667.0648    4.2973752    4.2973752    4.2973752   -1667.0648    498.85285   -862.49189   -4637.5555   -613.98402   -1283.3509     152.9508    79.361489 
   85100    122.05997   -105.36128   0.11044242   -105.25083   -471.62151    4.2968487    4.2968487    4.2968487   -471.62151   -1460.2446   -2648.0368    2693.4168    1004.9442     1018.828    464.03608    79.332325 
   85200      109.328   -105.34974  0.098922269   -105.25082   -1201.2173    4.2966609    4.2966609    4.2966609   -1201.2173    2605.8579   -2254.6781   -3954.8318   -529.37995    557.18095    58.277538    79.321926 
   85300    51.806388   -105.29816  0.046875509   -105.25128    2040.1708    4.2970564    4.2970564    4.2970564    2040.1708    2458.4617    1145.6684    2516.3824   -755.44074    21.262904   -575.84461    79.343828 
   85400    143.42649   -105.38039    0.1297753   -105.25061   -849.78647    4.2962788    4.2962788    4.2962788   -849.78647    488.48786   -1552.4587   -1485.3886   -27.169682   -214.17358     255.6235    79.300763 
   85500    71.914029   -105.31638  0.065069325   -105.25131    2099.1133    4.2972392    4.2972392    4.2972392    2099.1133    3037.8903   -1761.2829    5020.7325    417.48075    239.62996   -204.21123    79.353954 
   85600      136.933   -105.37482   0.12389985   -105.25092   -1642.7433    4.2963263    4.2963263    4.2963263   -1642.7433   -458.68439   -1664.4349   -2805.1106   -751.34213   -2461.5319   -520.33023    79.303393 
   85700    63.657278   -105.30877  0.057598443   -105.25117    2112.0575     4.297012     4.297012     4.297012    2112.0575    1002.9273    2142.3192     3190.926      339.122    1847.3069    1181.6556     79.34137 
   85800    102.89171    -105.3443  0.093098577    -105.2512   -1765.3213    4.2966088    4.2966088    4.2966088   -1765.3213   -27.508684   -2696.1762   -2572.2791     247.1834   -1137.4119   -351.19236    79.319041 
   85900    118.98739   -105.35851   0.10766229   -105.25085    786.66012    4.2970721    4.2970721    4.2970721    786.66012    248.20829    -1058.559     3170.331    268.08395    967.51085   -20.520875    79.344702 
   86000    93.534452   -105.33579  0.084631938   -105.25116    323.84907    4.2964975    4.2964975    4.2964975    323.84907    2890.1033   -517.83365   -1400.7224    -785.5853    1692.9931    -90.17561    79.312874 
   86100    91.692145   -105.33411  0.082964979   -105.25115   -1745.3218    4.2973407    4.2973407    4.2973407   -1745.3218   -4167.3566    583.21587   -1651.8246    61.536145   -233.54738   -526.78311     79.35958 
   86200    108.00669   -105.34852  0.097726727   -105.25079   -1408.4081    4.2966269    4.2966269    4.2966269   -1408.4081    1217.4333   -3072.9844   -2369.6733     268.9636   -52.027829    69.617654    79.320043 
   86300    81.977853   -105.32542  0.074175284   -105.25124   -250.97454    4.2971702    4.2971702    4.2971702   -250.97454    1401.3615   -983.36504   -1170.9201   -759.85461    326.09033   -209.08945    79.350135 
   86400    125.47594   -105.36441   0.11353327   -105.25087   -251.24303    4.2968911    4.2968911    4.2968911   -251.24303   -962.93319   -618.44113    827.64521   -242.77666    -1639.492    459.58029    79.334672 
   86500    94.083911    -105.3361    0.0851291   -105.25097    563.05147    4.2963758    4.2963758    4.2963758    563.05147    3076.7128   -543.06208   -844.49628    863.95652    1243.1472    1384.6869    79.306133 
   86600    78.900469   -105.32268  0.071390803   -105.25129   -1068.2729    4.2975468    4.2975468    4.2975468   -1068.2729    933.30461   -3440.5817   -697.54174   -62.414311   -793.05184   -978.73537    79.370997 
   86700    123.41996   -105.36254   0.11167298   -105.25086   -348.84927     4.295831     4.295831     4.295831   -348.84927   -592.91409    508.87548   -962.50919   -540.09029    821.48138    841.93249    79.275968 
   86800    78.891639   -105.32272  0.071382813   -105.25134    2117.8363    4.2975829    4.2975829    4.2975829    2117.8363    3466.9754   -1617.0414    4503.5749      678.196    887.44717   -185.37951    79.373001 
   86900    132.79365   -105.37106   0.12015448   -105.25091   -1176.5739    4.2957951    4.2957951    4.2957951   -1176.5739   -599.83019   -1436.6113   -1493.2801   -518.06559   -1582.3724   -966.16081    79.273985 
   87000    73.439109   -105.31744   0.06644925   -105.25099    2190.3618     4.297449     4.297449     4.297449    2190.3618    4975.0038    -2809.878    4405.9597   -410.61373    895.33472    259.24742     79.36558 
   87100    97.596581   -105.33928  0.088307437   -105.25097   -1057.9144    4.2962693    4.2962693    4.2962693   -1057.9144   -1909.9422    1832.6654   -3096.4664   -910.05303   -557.38778    231.00207    79.300238 
   87200    107.50109    -105.3482  0.097269241   -105.25093    236.54877    4.2969911    4.2969911    4.2969911    236.54877    -621.2112   -2755.4592    4086.3167    395.66274    -836.7993    -140.6737    79.340215 
   87300     119.4502   -105.35883   0.10808105   -105.25074   -1068.7239    4.2971273    4.2971273    4.2971273   -1068.7239    1915.4876    -1819.942   -3301.7174   -301.65577    1258.4136    760.50448     79.34776 
   87400    74.113168   -105.31823  0.067059152   -105.25117   -26.914131    4.2961739    4.2961739    4.2961739   -26.914131   -1459.5627    -879.1758    2257.9961   -203.35559   -31.945518   -999.97539    79.294954 
   87500    107.14214   -105.34765  0.096944457    -105.2507   -794.26721    4.2980418    4.2980418    4.2980418   -794.26721    519.75038    602.05008   -3504.6021    146.32349   -46.347033    782.00882    79.398428 
   87600     85.57752   -105.32855  0.077432339   -105.25111    697.01029    4.2953705    4.2953705    4.2953705    697.01029    2004.1736    -1711.247    1798.1043    990.34263    1252.0396   -736.32917    79.250478 
   87700    138.10612   -105.37575   0.12496132   -105.25079   -3513.0023    4.2987103    4.2987103    4.2987103   -3513.0023   -3371.0104   -2982.1245    -4185.872   -1234.9608   -1030.6016   -813.72385    79.435482 
   87800    73.446469   -105.31755  0.066455909   -105.25109    2085.7939    4.2952498    4.2952498    4.2952498    2085.7939    2837.1624    1385.7731    2034.4462    283.68733    1425.0258    1664.1014    79.243798 
   87900    93.565799    -105.3358  0.084660302   -105.25114   -1729.5861    4.2980397    4.2980397    4.2980397   -1729.5861   -1909.6034   -836.97177   -2442.1832   -297.59561   -446.66646   -529.25554     79.39831 
   88000    110.32119   -105.35084  0.099820932   -105.25102    917.84318    4.2960691    4.2960691    4.2960691    917.84318    3547.4712   -2840.8806     2046.939   -176.22491   -134.34407     152.4544    79.289153 
   88100    108.41166    -105.3492  0.098093147   -105.25111    992.52708    4.2967208    4.2967208    4.2967208    992.52708     1395.258   -489.06873    2071.3919   -932.08728    1174.7201    1079.8259    79.325242 
   88200    99.026818   -105.34077  0.089601546   -105.25117   -1119.9064    4.2975377    4.2975377    4.2975377   -1119.9064   -1607.7996   -990.90922   -761.01047    766.28306   -1681.8553   -782.58782    79.370492 
   88300    86.758515   -105.32936  0.078500927   -105.25086    1264.7189    4.2954848    4.2954848    4.2954848    1264.7189    2917.9137   -222.99729    1099.2403   -394.73338    179.39344   -148.29058    79.256805 
   88400    104.22041   -105.34524  0.094300813   -105.25094    -1208.997    4.2982711    4.2982711    4.2982711    -1208.997   -217.50304   -4596.9169    1187.4288    425.96267    600.65649   -37.829686    79.411134 
   88500    103.78727   -105.34506  0.093908904   -105.25115    1441.6738    4.2952928    4.2952928    4.2952928    1441.6738    530.96676    842.95988    2951.0948   -1207.2486   -900.35236   -672.39266    79.246177 
   88600    109.99913   -105.35037  0.099529522   -105.25084    129.73928    4.2979985    4.2979985    4.2979985    129.73928    2408.6945   -1841.5401   -177.93658    1026.3652    1397.0329    1210.6738    79.396027 
   88700     83.03444   -105.32621  0.075131306   -105.25108   -1403.0745     4.296085     4.296085     4.296085   -1403.0745   -1048.3589    -1849.006   -1311.8586   -1497.6252    663.41649   -1428.0104    79.290033 
   88800    107.42289   -105.34793  0.097198485   -105.25073   -1870.1141    4.2975001    4.2975001    4.2975001   -1870.1141   -1922.5634   -2352.9865   -1334.7924   -367.93291    -462.7653    671.84359     79.36841 
   88900    87.757416   -105.33043  0.079404754   -105.25103    955.55727    4.2966406    4.2966406    4.2966406    955.55727    1038.8492    1011.8624    815.96028   -423.36508    846.82014    395.30381    79.320799 
   89000    128.65004   -105.36738   0.11640526   -105.25097    -2151.119    4.2968036    4.2968036    4.2968036    -2151.119   -1958.6993   -2139.3236   -2355.3342    454.68395    -1573.531   -1709.4533    79.329826 
   89100    76.631206    -105.3204  0.069337525   -105.25106    1462.1974     4.297277     4.297277     4.297277    1462.1974    3709.7064     -1541.19    2218.0757   -888.97012      379.366    791.91917    79.356053 
   89200    110.11451   -105.35056  0.099633919   -105.25092   -2332.5264    4.2961912    4.2961912    4.2961912   -2332.5264   -2602.8693    347.01746   -4741.7275    961.31978    69.806861    550.73222    79.295912 
   89300    74.000731   -105.31819  0.066957416   -105.25123    1273.1827    4.2975534    4.2975534    4.2975534    1273.1827    1244.6813    398.56919    2176.2975    -447.3449   -411.04218    -1020.062    79.371362 
   89400    140.72091   -105.37805   0.12732723   -105.25072   -570.79055     4.296007     4.296007     4.296007   -570.79055    1230.1539   -2668.2131   -274.31243     420.6298    2010.6865    1401.6895    79.285717 
   89500    80.726298   -105.32415  0.073042851   -105.25111    998.54212    4.2972737    4.2972737    4.2972737    998.54212   -827.34119   -1057.9099    4880.8775    -1316.616   -278.60962   -786.38932    79.355869 
   89600    97.838085   -105.33942  0.088525955   -105.25089     632.0899     4.296247     4.296247     4.296247     632.0899    4052.4154    417.99214   -2574.1378      5.81528   -843.47687    261.42231    79.299004 
   89700    85.050521   -105.32806  0.076955498    -105.2511    1372.8478    4.2967414    4.2967414    4.2967414    1372.8478    243.86769   -784.99202    4659.6677   -454.98683    1000.3424    -433.3787    79.326384 
   89800     129.7579   -105.36851   0.11740767    -105.2511   -2140.1897    4.2970347    4.2970347    4.2970347   -2140.1897   -1086.7287   -4122.0771   -1211.7633   -681.79617   -1997.0368   -1020.1199    79.342626 
   89900    90.600557   -105.33302  0.081977288   -105.25104    1721.2676    4.2963884    4.2963884    4.2963884    1721.2676    1759.2141   -380.57705    3785.1657   -595.86829    419.84229    1039.1283    79.306835 
   90000    100.39047   -105.34185  0.090835407   -105.25102   -1934.7243    4.2973611    4.2973611    4.2973611   -1934.7243   -2003.5767    -1009.127   -2791.4692    1051.5578    550.02489   -265.51942    79.360708 
   90100     72.84366   -105.31708  0.065910475   -105.25117    740.38603    4.2965237    4.2965237    4.2965237    740.38603    2159.2988   -3052.6018    3114.4611   -1377.0414    271.70062   -1227.2542    79.314328 
   90200     138.6426   -105.37627   0.12544673   -105.25082   -2065.0612    4.2973745    4.2973745    4.2973745   -2065.0612   -1334.7567   -2879.6767   -1980.7501    387.24441    1045.5094    1988.1539    79.361453 
   90300    88.758204   -105.33164  0.080310288   -105.25133   -781.06442    4.2966323    4.2966323    4.2966323   -781.06442    -738.3056   -545.42412   -1059.4635   -676.00672    89.485242   -1973.6359    79.320339 
   90400    91.063065   -105.33342  0.082395775   -105.25102   -572.05607    4.2972031    4.2972031    4.2972031   -572.05607    185.41842   -792.57369    -1109.013   -339.12151   -773.67033   -371.16798    79.351955 
   90500    102.44013   -105.34354  0.092689979   -105.25085   -1312.7303    4.2967095    4.2967095    4.2967095   -1312.7303   -1686.4412   -2613.0065    361.25676   -781.61875    818.25813    324.18637    79.324617 
   90600    94.800267   -105.33688  0.085777274   -105.25111    207.45833    4.2971613    4.2971613    4.2971613    207.45833    1713.6669   -1045.2409   -46.051035   -435.81278   -2070.8426   -797.87017    79.349643 
   90700    117.05678   -105.35666   0.10591544   -105.25074    1330.6942    4.2962062    4.2962062    4.2962062    1330.6942    1521.8341    1303.7407    1166.5079    0.3579058    1244.1451    810.97953    79.296742 
   90800    90.643744   -105.33301  0.082016364   -105.25099   -196.34126    4.2970865    4.2970865    4.2970865   -196.34126   -250.20865   -1998.0745    1659.2593     171.8286    211.89815     -161.779    79.345497 
   90900     96.21964   -105.33797  0.087061552   -105.25091   -651.72225    4.2967383    4.2967383    4.2967383   -651.72225    1117.3548   -976.66342   -2095.8581   -828.03272   -829.47749   -62.301954    79.326213 
   91000    99.676844   -105.34123  0.090189703   -105.25104    1712.5156    4.2964443    4.2964443    4.2964443    1712.5156   -135.99634   -343.42842    5616.9716    772.52734    1095.9604    690.27952    79.309927 
   91100    102.84284   -105.34431  0.093054362   -105.25126    799.77148     4.296837     4.296837     4.296837    799.77148    2305.2465   -369.08466    463.15263   -388.42797   -647.56239   -2122.5333    79.331676 
   91200    105.45052    -105.3464  0.095413844   -105.25099    694.53421    4.2965052    4.2965052    4.2965052    694.53421    701.92882   -3341.2866    4722.9604   -1431.8928   -659.72288    6.2482304    79.313302 
   91300    110.99596   -105.35125   0.10043148   -105.25082   -2201.2912    4.2973708    4.2973708    4.2973708   -2201.2912    245.20455   -1613.3573    -5235.721    75.021967    581.92203    726.09256    79.361245 
   91400    50.701026   -105.29731  0.045875354   -105.25143    1260.9717    4.2961747    4.2961747    4.2961747    1260.9717    275.67419   -344.28118     3851.522   -1103.1733   -219.99235   -2107.5362    79.294999 
   91500    150.16431   -105.38668   0.13587183   -105.25081   -2640.5546    4.2976225    4.2976225    4.2976225   -2640.5546    -2402.593   -4053.6276   -1465.4433   -612.92416    365.93311    1531.7349    79.375193 
   91600    87.920889   -105.33086  0.079552668   -105.25131    181.59811    4.2964438    4.2964438    4.2964438    181.59811    1283.8748   -2600.9049    1861.8244   -345.10186    360.63977   -7.2405929    79.309903 
   91700    97.462362   -105.33923  0.088185993   -105.25104   -1737.3082     4.297422     4.297422     4.297422   -1737.3082    120.81149   -2140.1059   -3192.6301   -276.85539   -1145.5651   -877.94016    79.364081 
   91800     80.73906   -105.32391  0.073054398   -105.25086    459.17858     4.296509     4.296509     4.296509    459.17858    576.13423    67.347594    734.05392     254.0534    1203.5984    450.87424    79.313511 
   91900    117.02215   -105.35677    0.1058841   -105.25088   -2641.1297    4.2971663    4.2971663    4.2971663   -2641.1297   -1789.9544   -3775.9779   -2357.4568   -680.80965   -1835.3483   -1290.8439     79.34992 
   92000    107.19974   -105.34786  0.096996575   -105.25086    663.84071    4.2970434    4.2970434    4.2970434    663.84071    1577.6713   -1340.4157    1754.2665   -563.58022    506.60923    226.81892    79.343113 
   92100    100.68634   -105.34194  0.091103115   -105.25084    500.92275     4.296144     4.296144     4.296144    500.92275   -748.80498    648.22192    1603.3513    470.96366    725.98431   -34.831821    79.293299 
   92200    67.098336   -105.31189  0.060711984   -105.25118    1100.8277    4.2972169    4.2972169    4.2972169    1100.8277      3013.15   -718.77681    1008.1099   -1678.1636   -588.16413   -1253.3253    79.352721 
   92300    137.51927   -105.37511   0.12443033   -105.25068   -504.80122    4.2962437    4.2962437    4.2962437   -504.80122    12.996958   -1661.6102     134.2096   -135.66176    133.59206    1954.0159    79.298822 
   92400     82.95754   -105.32622  0.075061725   -105.25115    1946.8933    4.2969585    4.2969585    4.2969585    1946.8933    2894.1751    144.60264    2801.9022   -33.736625    595.44757   -865.92573    79.338409 
   92500    111.51066    -105.3518   0.10089719    -105.2509   -340.61196    4.2964258    4.2964258    4.2964258   -340.61196   -1263.7996    -299.2688    541.23256   -538.42726   -1856.3418   -1019.1725    79.308902 
   92600    94.886054   -105.33661  0.085854896   -105.25075    579.74737    4.2967206    4.2967206    4.2967206    579.74737    591.62687   -1652.0939    2799.7091   -442.77277    753.94455    1012.1222    79.325228 
   92700    84.908018   -105.32805  0.076826559   -105.25122    -327.9643     4.297172     4.297172     4.297172    -327.9643    2707.8309   -2787.7311   -903.99268     254.1598   -947.89592   -1308.5811    79.350234 
   92800    120.33407   -105.35987    0.1088808   -105.25099   -142.41567    4.2964548    4.2964548    4.2964548   -142.41567   -1549.7583   -802.88762    1925.3989   -918.68438    1139.0149   -688.05546     79.31051 
   92900     101.4244   -105.34289  0.091770932   -105.25112   -740.37269    4.2973433    4.2973433    4.2973433   -740.37269     1656.524   -2370.9517   -1506.6904    46.827479    30.196739    941.33674    79.359726 
   93000    90.864747    -105.3334  0.082216332   -105.25119   -2540.1576    4.2968386    4.2968386    4.2968386   -2540.1576   -1152.8937   -3204.3067   -3263.2723   -2100.6682    297.12587    -1111.556    79.331764 
   93100    96.764695   -105.33846   0.08755473   -105.25091   -641.86229    4.2972809    4.2972809    4.2972809   -641.86229   -1629.5271   -2846.2393    2550.1795    444.95308    85.020873    1348.5022    79.356268 
   93200    94.930552   -105.33697  0.085895158   -105.25108   -147.59812    4.2966141    4.2966141    4.2966141   -147.59812    1628.2098    -183.2015   -1887.8026   -1321.1449   -23.061403   -1175.8112    79.319335 
   93300    120.93001   -105.36037   0.10942002   -105.25095   -1409.1062    4.2971766    4.2971766    4.2971766   -1409.1062   -1422.2345   -4570.1506    1765.0663   -960.65696   -2270.2278    159.25132    79.350487 
   93400    99.392746   -105.34074  0.089932646   -105.25081     41.36532    4.2967527    4.2967527    4.2967527     41.36532    3615.3837    -152.7716   -3338.5161    307.88586    1844.6888     700.8167    79.327009 
   93500    68.984389   -105.31363  0.062418525   -105.25121    63.220564    4.2965565    4.2965565    4.2965565    63.220564   -1715.0225   -967.32628    2872.0105    127.17368   -1702.6523   -1640.6678    79.316144 
   93600    122.62711   -105.36172   0.11095559   -105.25076   -138.34266    4.2971899    4.2971899    4.2971899   -138.34266    65.851388    366.34325   -847.22263   -1130.4201    883.95118    566.62431    79.351225 
   93700    106.56644   -105.34724  0.096423555   -105.25082    2278.5946    4.2958704    4.2958704    4.2958704    2278.5946    3815.5399   -2261.7889    5282.0328    699.30926    130.42477    692.40643    79.278153 
   93800    97.186874   -105.33894  0.087936726     -105.251    32.079235    4.2973848    4.2973848    4.2973848    32.079235    619.54384    627.01882   -1150.3249   -1192.7883    170.85759   -1330.1939    79.362022 
   93900    89.560462    -105.3318  0.081036188   -105.25076    1386.0877    4.2960461    4.2960461    4.2960461    1386.0877    1968.4474   -362.19385    2552.0096   -212.36083   -858.03503    625.18023    79.287878 
   94000     95.40773   -105.33735  0.086326919   -105.25102   -338.87417    4.2970804    4.2970804    4.2970804   -338.87417    1819.5733    142.51287   -2978.7087    -1299.743    366.34204     77.35851    79.345162 
   94100    117.52818   -105.35738   0.10634197   -105.25104   -412.68855    4.2967927    4.2967927    4.2967927   -412.68855   -1124.2247   -4266.4302    4152.5893   -350.56734   -982.79451    -932.5663    79.329223 
   94200    97.001144   -105.33876  0.087768674   -105.25099    1368.7797    4.2964324    4.2964324    4.2964324    1368.7797    2010.4383    1572.9129    522.98793    7.4917625    1048.0487    922.25279    79.309271 
   94300     93.38969   -105.33565  0.084500954   -105.25115   -2498.5827    4.2975594    4.2975594    4.2975594   -2498.5827   -857.04683   -4138.1741   -2500.5271   -573.99953   -1192.5676   -1335.1648    79.371697 
   94400    90.548761   -105.33295  0.081930421   -105.25102   -387.99749    4.2963699    4.2963699    4.2963699   -387.99749    2080.8499     -1882.42   -1362.4224   -954.15445    1086.8576    1411.0321    79.305809 
   94500    109.33889   -105.34983  0.098932128    -105.2509   -1064.2697    4.2974525    4.2974525    4.2974525   -1064.2697     35.72738   -3357.6415    129.10484      1118.15    229.96927   -624.19392    79.365776 
   94600     108.2787   -105.34906  0.097972845   -105.25109   -1864.6412    4.2967202    4.2967202    4.2967202   -1864.6412   -3379.0633   -1143.4702     -1071.39     -2351.29   -866.06919   -418.90466    79.325208 
   94700    97.688358   -105.33922  0.088390479   -105.25082   -110.71242    4.2970855    4.2970855    4.2970855   -110.71242    2692.9428   -3220.7718    195.69174   -379.59207    270.78638    924.64439    79.345445 
   94800    75.061635   -105.31906  0.067917345   -105.25114    58.515542    4.2966688    4.2966688    4.2966688    58.515542    389.45162   -1087.5776    873.67259   -876.88361    358.97596   -522.94872    79.322359 
   94900    121.56633    -105.3609   0.10999577   -105.25091   -1166.4832     4.296975     4.296975     4.296975   -1166.4832   -448.87131   -2576.7456   -473.83261   -814.57026   -1180.0385   -836.73604    79.339319 
   95000    100.95192   -105.34226  0.091343418   -105.25091    2259.9751    4.2965645    4.2965645    4.2965645    2259.9751    3103.3011    1625.5924    2051.0318   -576.00186     898.9311    1581.0677    79.316583 
   95100    106.78062   -105.34765  0.096617345   -105.25103   -1189.4116    4.2967303    4.2967303    4.2967303   -1189.4116     1098.982   -3451.2308   -1215.9861   -93.318222   -461.89261   -1106.9188    79.325766 
   95200    73.954663   -105.31791  0.066915733   -105.25099    2128.8824    4.2967527    4.2967527    4.2967527    2128.8824   -331.80378    1864.6231     4853.828    64.579989    101.21751    833.94879    79.327006 
   95300    119.77379   -105.35923   0.10837384   -105.25086    273.41888    4.2962053    4.2962053    4.2962053    273.41888    3598.9182   -978.35133   -1800.3102    141.88184   -382.18935   -326.93299    79.296693 
   95400    93.387894   -105.33576  0.084499329   -105.25126    859.35484    4.2973225    4.2973225    4.2973225    859.35484    517.50967   -303.11327    2363.6681   -1476.7317   -186.88102    21.890485     79.35857 
   95500    114.97929   -105.35478   0.10403568   -105.25075    405.11769     4.296118     4.296118     4.296118    405.11769    4175.4403   -2608.0893   -351.99792    206.36787    532.41493    143.49282    79.291858 
   95600    82.766087   -105.32587  0.074888494   -105.25098   -1049.9037    4.2973011    4.2973011    4.2973011   -1049.9037   -2161.0837    1176.4498   -2165.0771   -808.86422    155.99352   -498.32492    79.357383 
   95700     99.60211   -105.34109  0.090122082   -105.25097   -1430.8568    4.2968965    4.2968965    4.2968965   -1430.8568   -242.56432     -4081.04    31.033747   -1666.0691   -436.34343     14.06682    79.334973 
   95800    97.602586   -105.33922  0.088312871   -105.25091    1492.2739    4.2966877    4.2966877    4.2966877    1492.2739    3295.5471   -946.35466    2127.6292    269.83001    1481.8065    1593.0977    79.323406 
   95900    129.19459    -105.3679   0.11689798     -105.251    -3743.159    4.2975586    4.2975586    4.2975586    -3743.159   -3807.5285   -4982.6629   -2439.2858   -404.22858   -1138.7432   -1519.4517    79.371653 
   96000     66.79752   -105.31168    0.0604398   -105.25124    820.90605    4.2963639    4.2963639    4.2963639    820.90605    3161.2367   -376.66399   -321.85453   -870.76134   -452.55917    1917.8003    79.305474 
   96100    109.05708   -105.34967  0.098677135   -105.25099   -2163.1487    4.2975572    4.2975572    4.2975572   -2163.1487   -4.9936956   -3493.1763   -2991.2762    93.047943    350.39573   -441.89625    79.371573 
   96200    89.594344   -105.33237  0.081066845   -105.25131    -152.8843    4.2963849    4.2963849    4.2963849    -152.8843   -2380.5348   -2824.8589    4746.7408   -1037.7566   -451.20443   -211.62827    79.306639 
   96300    130.33359   -105.36876   0.11792857   -105.25083    93.933841    4.2971682    4.2971682    4.2971682    93.933841    2548.9136    -1045.321    -1221.791   -219.68076   -32.431926    159.76636    79.350022 
   96400    85.415534   -105.32839   0.07728577    -105.2511    603.90644    4.2962903    4.2962903    4.2962903    603.90644   -143.72887   -1236.9345    3192.3826   -1271.0096    667.48542   -231.63706    79.301399 
   96500    80.511916   -105.32388  0.072848873   -105.25103    435.63457    4.2971004    4.2971004    4.2971004    435.63457    4938.4903   -1967.8031   -1663.7835   -891.20727    44.513602    293.28658    79.346269 
   96600    116.95134    -105.3565   0.10582003   -105.25068    988.64767    4.2963538    4.2963538    4.2963538    988.64767   -1203.6482    489.74924     3679.842    359.55336     342.8048      468.457    79.304917 
   96700    114.97362   -105.35511   0.10403054   -105.25108   -380.39691    4.2969129    4.2969129    4.2969129   -380.39691    1372.4143   -1197.1062   -1316.4988   -1090.9105   -1104.9703   -400.99961     79.33588 
   96800    81.441132   -105.32474  0.073689648   -105.25105    2666.6868    4.2964978    4.2964978    4.2964978    2666.6868    2506.9952    49.846655    5443.2185   -214.03521     628.3839    1352.7841    79.312889 
   96900    108.34773   -105.34884    0.0980353    -105.2508   -623.25204    4.2965839    4.2965839    4.2965839   -623.25204    1203.1784   -1267.0387   -1805.8958    514.79002   -305.57826   -649.52823    79.317658 
   97000    89.184069   -105.33185   0.08069562   -105.25116   -922.06504    4.2973372    4.2973372    4.2973372   -922.06504   -567.35115   -1209.0622   -989.78173   -795.05906   -431.87902   -603.70288    79.359384 
   97100    109.26115   -105.34992  0.098861781   -105.25105    1421.5207    4.2959649    4.2959649    4.2959649    1421.5207    4095.8719   -1016.1339    1184.8242   -572.97532    706.31271    1488.3213    79.283381 
   97200     115.7571     -105.356   0.10473945   -105.25126   -2278.8317    4.2977605    4.2977605    4.2977605   -2278.8317   -2341.3486    -2914.207   -1580.9396   -275.31491    1228.5684   -1057.9722    79.382838 
   97300    67.297736   -105.31228  0.060892406   -105.25139   -162.93819    4.2963896    4.2963896    4.2963896   -162.93819   -701.64495   -2450.5627    2663.3931    -1178.701   -1023.6393    1398.7448    79.306899 
   97400    122.95069   -105.36204   0.11124837   -105.25079   -1913.7946     4.297351     4.297351     4.297351   -1913.7946     296.0294   -2076.6728   -3960.7404   -296.31267    1046.4344    601.54776    79.360151 
   97500    76.062701   -105.32025  0.068823131   -105.25143    226.88581    4.2967325    4.2967325    4.2967325    226.88581    852.72609   -3735.3409    3563.2723     -1429.74   -579.42866    351.80209    79.325889 
   97600    127.71738    -105.3664   0.11556137   -105.25083   -1425.9399    4.2970703    4.2970703    4.2970703   -1425.9399    942.81165   -3439.4056   -1781.2257   -36.094695    34.656241    786.95336      79.3446 
   97700    99.911595   -105.34132   0.09040211   -105.25092   -691.29878    4.2970343    4.2970343    4.2970343   -691.29878   -1708.0884   -1274.1474    908.33945   -131.07978   -843.99482   -339.69217    79.342607 
   97800    72.228454   -105.31654  0.065353823   -105.25118   -185.30986    4.2964775    4.2964775    4.2964775   -185.30986     1590.656   -3278.0094    1131.4238   -1058.7913     649.6693   -122.68363    79.311768 
   97900    102.69923    -105.3438  0.092924422   -105.25087    2180.1349    4.2969701    4.2969701    4.2969701    2180.1349    1722.0983    89.238394    4729.0682     288.0919    131.28034    1077.6655    79.339051 
   98000    144.59484   -105.38168   0.13083245   -105.25084   -1833.9766    4.2964604    4.2964604    4.2964604   -1833.9766   -844.56471   -3398.3532   -1259.0119   -266.25509    130.00108   -1565.2719     79.31082 
   98100    53.507273    -105.2998  0.048414505   -105.25139    2921.9548    4.2970655    4.2970655    4.2970655    2921.9548    4581.8901    1247.3706    2936.6037   -1092.4008   -337.93714    1841.0561    79.344332 
   98200    123.32565   -105.36224   0.11158764   -105.25065   -427.82639    4.2960494    4.2960494    4.2960494   -427.82639    1431.2453   -1463.5488   -1251.1757   -313.64006    1461.9925   -178.63899    79.288064 
   98300    68.567463   -105.31328  0.062041282   -105.25124    1121.2691    4.2972763    4.2972763    4.2972763    1121.2691   -806.36228    541.78275    3628.3869   -656.91203    -1041.629    95.932689    79.356015 
   98400    142.67915   -105.37998   0.12909909   -105.25088   -758.20416    4.2964827    4.2964827    4.2964827   -758.20416    877.58578   -1961.0533    -1191.145   -393.51908   -93.028715    590.40102    79.312058 
   98500    87.983293    -105.3308  0.079609132   -105.25119    1366.4971    4.2967858    4.2967858    4.2967858    1366.4971    1507.7394    468.38038    2123.3714   -211.79501    362.99305    105.26424    79.328844 
   98600    77.324873   -105.32122   0.06996517   -105.25125   -1672.1277    4.2970643    4.2970643    4.2970643   -1672.1277    1331.0376   -3383.8133   -2963.6074   -415.71247   -117.89528   -238.85318    79.344268 
   98700    114.22656   -105.35417   0.10335459   -105.25081    -816.6243    4.2966521    4.2966521    4.2966521    -816.6243   -1701.8128    101.07639   -849.13651    524.65767   -697.99104    1544.5939    79.321436 
   98800    113.83437   -105.35403   0.10299973   -105.25103    -1533.363    4.2975233    4.2975233    4.2975233    -1533.363   -667.04619    -4258.979     325.9362   -737.73892    788.11569   -1054.4589    79.369694 
   98900     69.58797   -105.31434  0.062964658   -105.25138    1484.9347     4.296114     4.296114     4.296114    1484.9347    1730.4662   -1033.4943    3757.8323   -899.44425    383.82275    2657.5935     79.29164 
   99000    143.04928   -105.38002     0.129434   -105.25058   -3384.6311    4.2978212    4.2978212    4.2978212   -3384.6311   -3009.7564    -4319.639   -2824.4978   -425.08053    148.27302   -799.53441    79.386202 
   99100    52.567811   -105.29907  0.047564461   -105.25151     435.1485     4.296156     4.296156     4.296156     435.1485    2325.2217   -1162.5153    142.73909   -1292.7279   -292.75857    534.51685    79.293966 
   99200    118.25468   -105.35807   0.10699932   -105.25107   -210.72575    4.2973952    4.2973952    4.2973952   -210.72575    1232.2918   -4099.3062    2234.8372   -1034.0034    675.05611    807.20702    79.362601 
   99300     115.4064   -105.35545   0.10442214   -105.25103    750.40122    4.2961523    4.2961523    4.2961523    750.40122     169.4036    487.74897    1594.0511   -2.9200921   -251.95552   -589.69366     79.29376 
   99400    87.870474   -105.33072  0.079507051   -105.25121   -896.71453    4.2972626    4.2972626    4.2972626   -896.71453    189.55356   -4156.0652     1276.368   -439.82404   -978.47411   -133.45098    79.355252 
   99500    98.439194   -105.33982  0.089069851   -105.25075    1286.6244    4.2964623    4.2964623    4.2964623    1286.6244    646.09886    2447.0628    766.71155    693.34962    693.38139    1127.2631    79.310926 
   99600    87.781285   -105.33045  0.079426351   -105.25103    1092.2996    4.2964305    4.2964305    4.2964305    1092.2996    5006.8541   -3326.0397    1596.0844   -732.96242    308.76287   -1126.1114    79.309166 
   99700    116.14897   -105.35609   0.10509403   -105.25099   -261.86236     4.297379     4.297379     4.297379   -261.86236   -2029.2144    2437.1526   -1193.5253    153.12081    -279.1976    1469.6543    79.361701 
   99800    126.10254   -105.36476   0.11410023   -105.25066    277.50774    4.2958383    4.2958383    4.2958383    277.50774    2827.7818   -2369.6408    374.38217   -840.71538    488.97517   -742.70125    79.276375 
   99900    41.752985   -105.28916  0.037778978   -105.25138    1265.0969     4.297723     4.297723     4.297723    1265.0969   -375.89572    3002.0539    1169.1324   -966.20761    964.49984    336.90177    79.380764 
  100000    125.39623   -105.36424   0.11346114   -105.25078   -1087.4903    4.2959096    4.2959096    4.2959096   -1087.4903    5.7627014   -2632.6789   -635.55452   -999.11209   -503.69075    1133.1558    79.280324 
Loop time of 21.9305 on 1 procs for 100000 steps with 8 atoms

Pair  time (%) = 6.96734 (31.7701)
Kspce time (%) = 5.27914 (24.0722)
Neigh time (%) = 0 (0)
Comm  time (%) = 1.04747 (4.7763)
Outpt time (%) = 0.0226347 (0.103211)
Other time (%) = 8.6139 (39.2782)

Nlocal:    8 ave 8 max 8 min
Histogram: 1 0 0 0 0 0 0 0 0 0
Nghost:    2189 ave 2189 max 2189 min
Histogram: 1 0 0 0 0 0 0 0 0 0
Neighs:    2344 ave 2344 max 2344 min
Histogram: 1 0 0 0 0 0 0 0 0 0

Total # of neighbors = 2344
Ave neighs/atom = 293
Neighbor list builds = 0
Dangerous builds = 0
unfix 20
unfix 21
print "seeds:820868"
seeds:820868
