LAMMPS (10 Feb 2015)
# ---- initialize simulations
clear
units metal
dimension 3
boundary p p p
atom_style charge
atom_modify map array
# ---- create atoms
read_data /Users/eugeneragasa/pyflamestk_git/pypospack/tests/tests_integration/workflow/WorkflowLammpsThermalExpansion/param_7521/MgO_NaCl_unit.npt.T700/lammps.structure
  triclinic box = (0 0 0) to (4.2565 4.2565 4.2565) with tilt (0 0 0)
  1 by 1 by 1 MPI processor grid
  reading atoms ...
  8 atoms
# ---- define interatomic potential
include potential.mod
mass 1 24.305
mass 2 15.999

group Mg type 1
4 atoms in group Mg
group O type 2
4 atoms in group O

set group Mg charge 1.63791250839
  4 settings made for charge
set group O charge -1.63791250839
  4 settings made for charge

variable R_cut equal 10.0

pair_style buck/coul/long ${R_cut}
pair_style buck/coul/long 10
pair_coeff 1 1 0.0 0.5 0.0 ${R_cut}
pair_coeff 1 1 0.0 0.5 0.0 10
pair_coeff 1 2 1465.92328509 0.282476486176 0.0 ${R_cut}
pair_coeff 1 2 1465.92328509 0.282476486176 0.0 10
pair_coeff 2 2 5816.20442115 0.096233749689 18.932341092 ${R_cut}
pair_coeff 2 2 5816.20442115 0.096233749689 18.932341092 10

kspace_style pppm 1.0e-5

neighbor 1.0 bin
neigh_modify every 1 delay 0 check yes
# ---- define settings
compute eng all pe/atom
compute eatoms all reduce sum c_eng
# ---- run minimization
reset_timestep 0
fix 1 all box/relax iso 0.0 vmax 0.001
thermo 10
thermo_style custom step pe lx ly lz xy xz yz press pxx pyy pzz pxy pxz pyz c_eatoms
min_style cg
minimize 1e-25 1e-25 5000 10000
PPPM initialization ...
  G vector (1/distance) = 0.35267
  grid = 8 8 8
  stencil order = 5
  estimated absolute RMS force accuracy = 3.88211e-05
  estimated relative force accuracy = 2.69597e-06
  using double precision FFTs
  3d grid and FFT values/proc = 3375 512
Neighbor list info ...
  1 neighbor list requests
  update every 1 steps, delay 0 steps, check yes
  master list distance cutoff = 11
Memory usage per processor = 4.06549 Mbytes
Step PotEng Lx Ly Lz Xy Xz Yz Press Pxx Pyy Pzz Pxy Pxz Pyz eatoms 
       0   -108.70031       4.2565       4.2565       4.2565            0            0            0    82041.316    82041.316    82041.316    82041.316 -4.6499549e-11 -1.1702618e-10 1.7098221e-10   -108.70031 
      10   -108.77917     4.299065     4.299065     4.299065            0            0            0    28384.418    28384.418    28384.418    28384.418 -2.893711e-10 1.1285336e-10 8.1895601e-11   -108.77917 
      19   -108.79132    4.3240425    4.3240425    4.3240425            0            0            0 -0.024351241 -0.024351241 -0.024351241 -0.024351241 1.5580285e-11 -3.1606067e-12 1.2588801e-10   -108.79132 
Loop time of 0.00964594 on 1 procs for 19 steps with 8 atoms

Minimization stats:
  Stopping criterion = linesearch alpha is zero
  Energy initial, next-to-last, final = 
        -108.700309346      -108.79131697      -108.79131697
  Force two-norm initial, final = 11.8468 7.13952e-05
  Force max component initial, final = 11.8468 1.5084e-05
  Final line search alpha, max atom move = 0.5 7.54202e-06
  Iterations, force evaluations = 19 24

Pair  time (%) = 0.00269103 (27.8981)
Kspce time (%) = 0.00193667 (20.0776)
Neigh time (%) = 0 (0)
Comm  time (%) = 0.000350952 (3.63834)
Outpt time (%) = 1.3113e-05 (0.135943)
Other time (%) = 0.00465417 (48.25)

Nlocal:    8 ave 8 max 8 min
Histogram: 1 0 0 0 0 0 0 0 0 0
Nghost:    2189 ave 2189 max 2189 min
Histogram: 1 0 0 0 0 0 0 0 0 0
Neighs:    2344 ave 2344 max 2344 min
Histogram: 1 0 0 0 0 0 0 0 0 0

Total # of neighbors = 2344
Ave neighs/atom = 293
Neighbor list builds = 0
Dangerous builds = 0
unfix 1
# ---- define output variables ----
variable natoms equal "count(all)"
variable tot_energy equal "c_eatoms"
variable length_x equal "lx"
variable length_y equal "ly"
variable length_z equal "lz"
variable tilt_xy equal "xy"
variable tilt_xz equal "xz"
variable tilt_yz equal "yz"
variable tot_press equal "press"
variable press_xx equal "pxx"
variable press_yy equal "pyy"
variable press_zz equal "pzz"
variable press_xy equal "pxy"
variable press_xz equal "pxz"
variable press_yz equal "pyz"

# ---- output ----
print "pypospack:output_section:begin"
pypospack:output_section:begin
print "tot_energy = ${tot_energy}"
tot_energy = -108.791316969709
print "num_atoms = ${natoms}"
num_atoms = 8
print "xx = ${length_x}"
xx = 4.32404254484564
print "yy = ${length_y}"
yy = 4.32404254484564
print "zz = ${length_z}"
zz = 4.32404254484564
print "xy = ${tilt_xy}"
xy = 0
print "xz = ${tilt_xz}"
xz = 0
print "yz = ${tilt_yz}"
yz = 0
print "tot_press = ${tot_press}"
tot_press = -0.0243512411551094
print "pxx = ${press_xx}"
pxx = -0.0243512413415371
print "pyy = ${press_yy}"
pyy = -0.0243512409516822
print "pzz = ${press_zz}"
pzz = -0.024351241172109
print "pxy = ${press_xy}"
pxy = 1.55802849425254e-11
print "pxz = ${press_xz}"
pxz = -3.16060668162342e-12
print "pyz = ${press_yz}"
pyz = 1.25888006757422e-10
print "pypospack:output_section:done"
pypospack:output_section:done
print "pypospack:lammps_sim:done"
pypospack:lammps_sim:done
#------------------------------------------------------------------------------
# RUN THERMOSTAT
# running using an NPT Nose-Hoover style thermostat
#------------------------------------------------------------------------------
variable tempdamp equal 0.1
variable pressdamp equal 1.0
# set initial velocities
velocity all create 700 4732401 mom yes dist gaussian loop all
# fix for Nose-Hoover style thermostat
fix 20 all npt temp 700 700 0.1 aniso 0.0 0.0 1.0 drag 1.0 couple xyz
variable boxx equal lx
variable boxy equal ly
variable boxz equal lz
variable boxp equal press
variable boxt equal temp
# calculate averages every 10000 steps
reset_timestep 0
fix 21 all ave/time 10 10 100 v_boxx v_boxy v_boxz v_boxp v_boxt file lattice.out
thermo_style custom step temp pe ke etotal press lx ly lz press pxx pyy pzz pxy pxz pyz vol
thermo_modify flush yes
thermo 100
run 100000
PPPM initialization ...
  G vector (1/distance) = 0.351996
  grid = 8 8 8
  stencil order = 5
  estimated absolute RMS force accuracy = 4.00454e-05
  estimated relative force accuracy = 2.781e-06
  using double precision FFTs
  3d grid and FFT values/proc = 3375 512
Memory usage per processor = 3.06549 Mbytes
Step Temp PotEng KinEng TotEng Press Lx Ly Lz Press Pxx Pyy Pzz Pxy Pxz Pyz Volume 
       0          700   -108.79133   0.63337471   -108.15795    8365.9749    4.3240425    4.3240425    4.3240425    8365.9749    8968.5126    3134.1002    12995.312   -102.73532    2986.5178    2663.6407    80.848111 
     100    156.46913   -108.21463   0.14157656   -108.07306    522.05847    4.3479883    4.3479883    4.3479883    522.05847   -12645.004   -11308.276    25519.456   -241.34322    9358.6253   -3240.1619    82.198726 
     200    581.39707   -108.42341   0.52606029   -107.89735   -17143.574    4.3488802    4.3488802    4.3488802   -17143.574   -31138.379   -8097.7031   -12194.639   -2588.4286    7309.5549    2695.3828    82.249322 
     300    474.65249   -108.18153   0.42947555   -107.75206    17406.548    4.3409564    4.3409564    4.3409564    17406.548   -6469.3863   -3753.3824    62442.412    1408.4751   -2092.9815    -1439.947    81.800556 
     400    637.00342   -108.21047   0.57637408   -107.63409   -19982.042    4.3589631    4.3589631    4.3589631   -19982.042   -39761.834    4469.6888    -24653.98   -1342.3921    16408.726     3042.535    82.822737 
     500    758.11991   -108.23993   0.68596283   -107.55396    11316.002      4.35223      4.35223      4.35223    11316.002   -9605.1063   -11474.017    55027.129   -756.63342   -2311.1468    -359.3091    82.439529 
     600    554.83233   -108.02402   0.50202395   -107.52199   -12046.316    4.3569739    4.3569739    4.3569739   -12046.316   -45864.688    5102.9296    4622.8103    568.07563    16170.045   -3856.2005    82.709401 
     700    596.67712   -108.05122     0.539886   -107.51133    6525.5366    4.3516595    4.3516595    4.3516595    6525.5366   -6628.3377    3589.8042    22615.143   -1908.1939    14800.937    4942.7736    82.407119 
     800    937.26059   -108.35842   0.84805307   -107.51036    108.35162    4.3601257    4.3601257    4.3601257    108.35162    -22453.03   -18804.738    41582.823     2843.806   -461.29676    1739.6525    82.889024 
     900     500.3109   -107.97058   0.45269182   -107.51789    5482.7875    4.3510176    4.3510176    4.3510176    5482.7875   -11637.199    5250.6212    22834.941   -2226.3674    21999.382    5295.2451    82.370654 
    1000    867.39608    -108.3028    0.7848382   -107.51796   -3186.1884    4.3520137    4.3520137    4.3520137   -3186.1884   -24396.266    -8961.133    23798.834    3052.5704   -2802.5351   -4010.9074    82.427243 
    1100    591.16459   -108.05704   0.53489815   -107.52214   -13303.542    4.3642394    4.3642394    4.3642394   -13303.542   -33678.631   -25389.218    19157.225   -467.67351    8681.1488   -1414.5063    83.123861 
    1200    632.37631   -108.09378   0.57218737    -107.5216     8753.455    4.3449642    4.3449642    4.3449642     8753.455   -11972.478    2138.8675    36093.975   -2430.1489    16338.871    4524.1197    82.027335 
    1300     1020.929   -108.44229   0.92375799   -107.51853   -9362.6307    4.3557301    4.3557301    4.3557301   -9362.6307    -20538.07   -10884.037    3334.2149    1498.7333   -5500.8148    953.28385    82.638586 
    1400    447.82354   -107.92755   0.40520015   -107.52235   -16703.995    4.3663773    4.3663773    4.3663773   -16703.995   -53403.348   -14732.205    18023.566   -3663.8334    19970.581   -2951.0439    83.246079 
    1500    651.93957   -108.10786   0.58988863   -107.51797    20565.765    4.3405798    4.3405798    4.3405798    20565.765    5548.8129    25072.819    31075.663   -3283.0444    2973.3511    336.20836    81.779272 
    1600    886.48746   -108.32621   0.80211248    -107.5241   -10182.065    4.3584891    4.3584891    4.3584891   -10182.065   -21749.097   -13302.962    4505.8653   -305.98441    4530.6188    6386.5606    82.795719 
    1700    521.64833   -107.99411   0.47199838   -107.52211   -7965.2969    4.3640416    4.3640416    4.3640416   -7965.2969    -32264.16    4849.1926    3519.0767   -3585.5102    15448.396    401.07168    83.112557 
    1800    648.27676   -108.09727   0.58657443   -107.51069    32730.623    4.3380942    4.3380942    4.3380942    32730.623    12885.051    16665.237    68641.581   -4148.3168   -7239.5276    8597.2646     81.63886 
    1900    773.79434   -108.21715   0.70014538   -107.51701    -29225.85    4.3687236    4.3687236    4.3687236    -29225.85    -41241.26   -16353.211    -30083.08    497.06861    9697.8193   -5325.6541    83.380351 
    2000    563.41004   -108.01956   0.50978525   -107.50978    25260.584      4.35139      4.35139      4.35139    25260.584    5708.6428    6484.9499    63588.159   -3618.1349    4304.0628    4899.9132    82.391804 
    2100    908.53645   -108.33138   0.82206287   -107.50931   -12970.387    4.3504591    4.3504591    4.3504591   -12970.387   -28713.232    1752.6044   -11950.535    676.41627    3358.8822    671.02821    82.338938 
    2200    425.12491   -107.90087   0.38466195   -107.51621   -6561.8585    4.3622958    4.3622958    4.3622958   -6561.8585   -39742.384   -13560.954    33617.763   -1623.2668    15673.482     1287.784    83.012853 
    2300     935.3543   -108.35655   0.84632823   -107.51022    6068.5601    4.3498987    4.3498987    4.3498987    6068.5601   -8250.1837    19985.853    6470.0106    2286.9525   -39.814626    1885.0271    82.307122 
    2400    577.51736   -108.03935   0.52254984    -107.5168   -7834.8455    4.3570891    4.3570891    4.3570891   -7834.8455    -19839.68   -12648.196    8983.3402   -538.09468    11428.287     -3316.56    82.715964 
    2500    816.04079   -108.25257   0.73837085    -107.5142   -10850.432    4.3582678    4.3582678    4.3582678   -10850.432   -31259.284    14942.341   -16234.353    1455.0055    1238.4944   -1170.7385    82.783108 
    2600    413.24793    -107.8931   0.37391541   -107.51919    16630.151    4.3502775    4.3502775    4.3502775    16630.151    9031.8411   -2976.5854    43835.198    434.99318   -3392.7065    9982.1308    82.328632 
    2700    872.99168   -108.31288   0.78990121   -107.52298   -13612.796     4.353371     4.353371     4.353371   -13612.796   -25968.241   -10205.804   -4664.3437    2241.3773    3331.8837   -1002.6404    82.504386 
    2800    695.42677    -108.1486   0.62923676   -107.51936    7711.4274    4.3619767    4.3619767    4.3619767    7711.4274    6440.9507   -5406.4146    22099.746   -173.41562   -993.63295   -227.99853    82.994636 
    2900     699.1515   -108.14807   0.63260697   -107.51546   -8335.8277    4.3467144    4.3467144    4.3467144   -8335.8277   -28611.855     4594.958   -990.58594   -408.56233    3596.7379    4663.2284    82.126503 
    3000    519.43814   -107.98949   0.46999855   -107.51949   -633.59464    4.3580236    4.3580236    4.3580236   -633.59464   -28827.792   -2070.0941    28997.102   -458.00056    9582.9493   -489.74333    82.769198 
    3100    954.20472   -108.37379   0.86338449    -107.5104   -10758.955    4.3608975    4.3608975    4.3608975   -10758.955   -23465.719    5522.2431   -14333.391   -2600.6533    -46.57981    6695.1434    82.933048 
    3200    574.15808   -108.03062    0.5195103   -107.51111    9460.8517    4.3429833    4.3429833    4.3429833    9460.8517   -3937.6312    3330.6436    28989.543   -1147.0833    13044.266    869.05801    81.915197 
    3300    746.39551   -108.18908   0.67535434   -107.51372   -14206.757     4.364862     4.364862     4.364862   -14206.757    -42849.92    5761.4573   -5531.8079   -7932.7489    942.21448    -1033.861    83.159437 
    3400    488.42362   -107.95634   0.44193596    -107.5144    16839.393    4.3494601    4.3494601    4.3494601    16839.393    12441.365    17196.314    20880.501    3386.3596   -2894.2247    769.40721     82.28223 
    3500    929.56569   -108.35648   0.84109057   -107.51539   -9077.8531    4.3528784    4.3528784    4.3528784   -9077.8531   -14358.422   -224.53822   -12650.599   -6952.8624     13447.03     5217.979    82.476384 
    3600     647.5889   -108.09836   0.58595204    -107.5124    6561.0014    4.3619968    4.3619968    4.3619968    6561.0014    6835.3679    15998.912   -3151.2757    4513.1564   -11112.308   -4289.4649    82.995784 
    3700    608.87196   -108.06032   0.55092014    -107.5094   -1008.4462    4.3482087    4.3482087    4.3482087   -1008.4462   -15549.205    5661.0383    6862.8277    1680.7189    8563.3036    438.69708    82.211227 
    3800    580.98631   -108.03791   0.52568862   -107.51222   -4088.3728    4.3612948    4.3612948    4.3612948   -4088.3728   -21299.455    4008.3833    5025.9534    3061.5051    282.84237   -4589.8564    82.955719 
    3900    942.28897   -108.36212   0.85260286   -107.50952    -6834.495    4.3542818    4.3542818    4.3542818    -6834.495    -10055.31    5820.1027   -16268.278    6353.4844   -2901.2097   -3819.8625     82.55618 
    4000    621.17449   -108.07731   0.56205173   -107.51525    -2220.389    4.3510993    4.3510993    4.3510993    -2220.389   -14143.831    1515.0512    5967.6125    349.93307    13013.233    7869.1129    82.375293 
    4100    722.79608   -108.16937   0.65400108   -107.51537    -15411.76    4.3597873    4.3597873    4.3597873    -15411.76   -37584.801     7121.152   -15771.631   -228.28533   -8880.9525   -6906.5457    82.869725 
    4200    528.39116   -107.99351   0.47809943   -107.51541    239.74969    4.3568514    4.3568514    4.3568514    239.74969    -4313.683    134.73017    4898.2019    1108.2425    10102.947    4144.0946    82.702426 
    4300     829.3963   -108.26042   0.75045521   -107.50996    2334.2537    4.3512019    4.3512019    4.3512019    2334.2537    1112.2489    14240.468    -8349.956   -1240.1752    178.82475    597.14555    82.381122 
    4400    711.67141   -108.15591   0.64393525   -107.51197    1082.9006    4.3555009    4.3555009    4.3555009    1082.9006    7545.2325    -5265.419     968.8882    5605.8076   -5784.6038   -601.00931    82.625542 
    4500    523.55438   -107.98676     0.473723   -107.51304   -5467.3277    4.3608473    4.3608473    4.3608473   -5467.3277   -14324.499    21860.257    -23937.74   -5938.2052    13271.301    6753.4972    82.930189 
    4600    834.01024   -108.26458   0.75462999   -107.50995    4133.6051    4.3473629    4.3473629    4.3473629    4133.6051   -2237.4731   -1573.9139    16212.202    1701.4093   -7139.0623   -2622.3243    82.163265 
    4700     655.4898   -108.11305   0.59310095   -107.51995   -470.40475    4.3589564    4.3589564    4.3589564   -470.40475   -13534.322    14807.128   -2684.0202    923.41696     10134.59   -3810.5185    82.822356 
    4800    784.43579   -108.22237   0.70977399    -107.5126   -11594.437    4.3605946    4.3605946    4.3605946   -11594.437   -26447.897    4048.7612   -12384.176   -7641.2257    10769.368   -5937.7896    82.915767 
    4900    662.87886   -108.10649   0.59978673   -107.50671    3000.2124     4.345148     4.345148     4.345148    3000.2124   -15764.397    9572.6986    15192.336    4261.2262   -5252.3806   -841.16256    82.037746 
    5000    573.57572   -108.03423   0.51898337   -107.51524   -7332.0006    4.3627417    4.3627417    4.3627417   -7332.0006   -16464.067    17943.025    -23474.96   -2428.8186    13847.521   -2279.3004    83.038308 
    5100    995.82469   -108.41339   0.90104311   -107.51235    1126.9706    4.3542552    4.3542552    4.3542552    1126.9706    2164.5087    -20074.34    21290.743    -984.5589   -1876.7084    1638.7374    82.554666 
    5200    455.55094   -107.93168   0.41219206   -107.51948    19713.558    4.3479873    4.3479873    4.3479873    19713.558    7685.5555     29617.97     21837.15   -1881.4173   -3653.3537   -8107.9396    82.198674 
    5300     697.9206   -108.14605   0.63149323   -107.51456   -16143.206    4.3647367    4.3647367    4.3647367   -16143.206   -28414.264   -3545.3201   -16470.034    5723.7364    14496.862   -1106.3963    83.152277 
    5400    755.93235   -108.19284   0.68398347   -107.50886    9178.9088    4.3476379    4.3476379    4.3476379    9178.9088     6464.815    13308.464    7763.4475   -7838.6736   -9115.4537    2625.4681    82.178859 
    5500    686.83397   -108.13822   0.62146181   -107.51676   -2269.6209    4.3535728    4.3535728    4.3535728   -2269.6209   -21410.055    26640.369   -12039.176    1789.4365    11213.682   -1474.7991    82.515861 
    5600    819.81361   -108.25159   0.74178458    -107.5098   -9809.3361    4.3642052    4.3642052    4.3642052   -9809.3361   -13928.809   -8450.3207    -7048.879    1908.2145    8841.2417     5223.103    83.121907 
    5700    578.13656   -108.03323   0.52311011   -107.51012    9543.2743    4.3457859    4.3457859    4.3457859    9543.2743   -17131.778    40469.567    5292.0344   -5572.4824   -5131.7608   -5783.6495    82.073883 
    5800     583.9578   -108.04623   0.52837729   -107.51785   -5084.7931    4.3577774    4.3577774    4.3577774   -5084.7931   -6807.8187    3721.3817   -12167.942    1163.3964    13909.125   -1443.9617    82.755169 
    5900    1003.6227   -108.41789   0.90809888   -107.50979     3919.944    4.3548633    4.3548633    4.3548633     3919.944    -4153.314    28065.324   -12152.178   -930.33425     -3726.01    1365.2024    82.589262 
    6000     471.9457   -107.94249   0.42702638   -107.51547   -1386.9018    4.3526449    4.3526449    4.3526449   -1386.9018    -12976.88    13218.404   -4402.2295   -866.29729    7146.3681   -5736.2543    82.463111 
    6100    672.09313   -108.11883   0.60812399   -107.51071   -4355.4037     4.354071     4.354071     4.354071   -4355.4037   -32492.835    33335.139   -13908.515   -2102.4303    7173.6443    2262.4827    82.544191 
    6200    788.78821   -108.22846   0.71371215   -107.51475   -11207.622    4.3588766    4.3588766    4.3588766   -11207.622   -24441.692   -5983.4094   -3197.7632    6068.2678   -5891.0402   -1438.1099    82.817805 
    6300    615.66297   -108.07819   0.55706479   -107.52112   -8698.7259    4.3519578    4.3519578    4.3519578   -8698.7259   -15829.015    14575.475   -24842.637   -805.64643    15774.506   -10666.123    82.424065 
    6400    824.23056   -108.26067   0.74578113   -107.51489     6971.684    4.3491009    4.3491009    4.3491009     6971.684   -13484.497     26199.15    8200.3981    2520.6068   -1829.0767    4485.8881    82.261847 
    6500    565.43426   -108.02851   0.51161681   -107.51689   -28139.161    4.3692038    4.3692038    4.3692038   -28139.161   -50174.915    34.168026   -34276.736   -1279.2278    10265.308   -42.882522    83.407846 
    6600    633.84608   -108.08339   0.57351725   -107.50987    22916.612    4.3405574    4.3405574    4.3405574    22916.612    5992.3375    50902.714    11854.785   -7132.4974    10452.565    107.92276    81.778006 
    6700    898.17674   -108.32894   0.81268919   -107.51625   -11079.929    4.3575566    4.3575566    4.3575566   -11079.929   -19924.754    1406.3573   -14721.391   -463.49075    4037.0186    3787.5547     82.74259 
    6800    360.37827   -107.84131   0.32607783   -107.51523   -11086.623    4.3640408    4.3640408    4.3640408   -11086.623   -36556.987    26731.853   -23434.735   -4031.9123    18461.422   -243.54676     83.11251 
    6900    883.58982   -108.30141   0.79949064   -107.50192     14269.15    4.3339615    4.3339615    4.3339615     14269.15   -197.35481    24158.934    18845.871   -145.31777   -3675.1866   -7604.7503    81.405762 
    7000    631.96071   -108.09132   0.57181133   -107.51951   -31517.858    4.3679213    4.3679213    4.3679213   -31517.858   -47365.783   -3510.4774   -43677.313   -5.1137274    17228.076    6551.1347     83.33442 
    7100    756.95321   -108.19659   0.68490717   -107.51168   -252.28002    4.3534681    4.3534681    4.3534681   -252.28002   -11038.187       7958.3    2323.0474    1174.7659    5004.2068   -7924.8242    82.509905 
    7200    725.51125   -108.16273   0.65645783   -107.50627    6008.2301    4.3410829    4.3410829    4.3410829    6008.2301   -16843.377    40289.027   -5420.9599    8370.6029    -654.4898   -5168.0643     81.80771 
    7300    441.71354   -107.91444   0.39967169   -107.51477   -17579.575    4.3668751    4.3668751    4.3668751   -17579.575   -49317.962     12733.52   -16154.283    411.65411    15672.441    -2155.567    83.274551 
    7400    831.45901   -108.25963   0.75232159   -107.50731     12661.98    4.3487213    4.3487213    4.3487213     12661.98    9798.4157    35250.176   -7062.6522    7532.8296   -7114.1934   -8736.9305    82.240306 
    7500    744.48551   -108.19055   0.67362613   -107.51692   -19924.674    4.3537228    4.3537228    4.3537228   -19924.674   -27859.533    4531.5004   -36445.988   -3289.1391     17114.16    4636.1431    82.524388 
    7600    740.48561   -108.18761   0.67000694   -107.51761   -4004.0377    4.3553921    4.3553921    4.3553921   -4004.0377   -9433.3326     7082.601   -9661.3814   -5219.1266    179.27688   -1481.5337    82.619349 
    7700    662.05662    -108.1149   0.59904274   -107.51586    8993.2189    4.3455497    4.3455497    4.3455497    8993.2189   -15124.625    54459.295   -12355.013   -4290.0464    5512.9913    996.43457      82.0605 
    7800    561.73831   -108.02697   0.50827263    -107.5187   -15329.438    4.3621424    4.3621424    4.3621424   -15329.438    -35572.44    12394.841   -22810.713    3115.5971    10757.135   -1464.0439    83.004095 
    7900     956.3831   -108.37195   0.86535553    -107.5066    12703.503     4.344517     4.344517     4.344517    12703.503    11600.051    21332.627    5177.8325    875.56325   -3324.7491    7903.9358    82.002012 
    8000    568.35841   -108.02953   0.51426263   -107.51527   -17193.292    4.3544181    4.3544181    4.3544181   -17193.292    -38459.95    15835.192   -28955.116    583.99123    22791.411   -5905.3761    82.563936 
    8100    631.14556   -108.08387   0.57107377    -107.5128   -7446.6783    4.3570256    4.3570256    4.3570256   -7446.6783    -20297.29    11056.652   -13099.397   -424.03254   -2547.4948    9814.6111    82.712347 
    8200    800.58726   -108.23186   0.72438818   -107.50747    12655.406    4.3424019    4.3424019    4.3424019    12655.406    15723.276     36725.02   -14482.076    2407.6298    11318.578    814.81788    81.882305 
    8300    565.63384   -108.02727   0.51179738   -107.51547   -21611.638    4.3640721    4.3640721    4.3640721   -21611.638   -33652.683     16453.66   -47635.891   -4694.7448    14455.591   -552.48699    83.114298 
    8400    824.19599   -108.25233   0.74574985   -107.50658    10910.493    4.3467569    4.3467569    4.3467569    10910.493    16558.258    8234.5633    7938.6591    7812.9614   -7099.8088    6750.7522     82.12891 
    8500     663.5361   -108.11303   0.60038141   -107.51265    -15660.78     4.351406     4.351406     4.351406    -15660.78   -35272.427    17508.817   -29218.729    -2401.182    21981.597   -3079.8243    82.392718 
    8600    611.20036   -108.06608   0.55302693   -107.51305   -7823.1821    4.3569825    4.3569825    4.3569825   -7823.1821    -15654.07    5329.3321   -13144.808    787.44719   -1304.5788    4457.7243    82.709893 
    8700    847.66634   -108.27517   0.76698631   -107.50818    1635.6386    4.3466437    4.3466437    4.3466437    1635.6386    2031.1769    17665.112   -14789.373    -5832.529     4783.062    1782.5619     82.12249 
    8800    451.57386   -107.92294   0.40859352   -107.51435   -11127.684    4.3570423    4.3570423    4.3570423   -11127.684   -35747.806    33935.145   -31570.391    4550.1851    11386.745    1544.8254    82.713297 
    8900    885.83216   -108.31015   0.80151956   -107.50863   -1584.9286    4.3495978    4.3495978    4.3495978   -1584.9286    10104.368   -9082.1151    -5777.039   -9219.1219   -7465.6047    8268.0031    82.290047 
    9000    630.69156   -108.08541   0.57066297   -107.51475   -6205.9145     4.355312     4.355312     4.355312   -6205.9145   -19281.199    27716.466    -27053.01    4151.1337    15619.152   -2802.6747    82.614792 
    9100    777.54436   -108.21734   0.70353848    -107.5138   -7962.9763    4.3497775    4.3497775    4.3497775   -7962.9763    132.16239   -3943.3458   -20077.745   -3099.0076   -6734.2043    9262.7431    82.300242 
    9200    633.80303   -108.08819    0.5734783   -107.51471    7450.2445    4.3480067    4.3480067    4.3480067    7450.2445   -8094.2941    28381.658    2063.3692     1418.606    5534.1027    1284.9243    82.199774 
    9300    577.74308   -108.03746   0.52275408   -107.51471    -19403.72    4.3617659    4.3617659    4.3617659    -19403.72   -38564.848    16182.247   -35828.559   -2031.6373    13247.008     6553.875    82.982602 
    9400    783.42185   -108.21932   0.70885655   -107.51046    11337.359    4.3420827    4.3420827    4.3420827    11337.359    14416.107    8452.9289     11143.04    3264.9589   -11957.337    863.65306    81.864248 
    9500    742.48509    -108.1896   0.67181611   -107.51778   -12341.997    4.3586447    4.3586447    4.3586447   -12341.997   -10184.068    10539.279   -37381.203    1175.6024    23677.564     184.4323    82.804588 
    9600    776.00845   -108.21569   0.70214876   -107.51354   -3454.5836    4.3525006    4.3525006    4.3525006   -3454.5836    3037.0846    1727.1102   -15127.946    3670.9494    -1638.631   -3228.8765    82.454911 
    9700    528.87963   -107.99187    0.4785414   -107.51333    10875.196    4.3458069    4.3458069    4.3458069    10875.196   -329.75276     38406.75   -5451.4109    2622.3448      31.3146    4284.6551    82.075075 
    9800    750.39096   -108.19204   0.67896951   -107.51307   -14869.087    4.3585951    4.3585951    4.3585951   -14869.087   -19527.656    8293.0794   -33372.684   -2649.7648    16040.946   -4767.2826     82.80176 
    9900    696.44466   -108.14112   0.63015776   -107.51096    5251.5757     4.348566     4.348566     4.348566    5251.5757      5575.97    12710.703   -2531.9458    2574.6205   -11202.178   -937.39432    82.231499 
   10000    781.55071   -108.21965   0.70716351   -107.51248   -10330.841    4.3506059    4.3506059    4.3506059   -10330.841   -8338.0617   -5555.1927   -17099.269   -5166.9605    8462.4639   -874.22217    82.347275 
   10100    677.79588   -108.12807   0.61328396   -107.51479   -3300.3528    4.3563364    4.3563364    4.3563364   -3300.3528   -21540.931    20956.964   -9317.0917    5425.5174   -4207.2159     754.6086      82.6731 
   10200    596.57503   -108.05376   0.53979362   -107.51397    7846.8178    4.3506568    4.3506568    4.3506568    7846.8178    12455.726    23184.465   -12099.738   -4856.6582   -4076.2164    6412.8815    82.350167 
   10300    817.75171   -108.25247   0.73991893   -107.51255     312.4581    4.3468158    4.3468158    4.3468158     312.4581   -1130.2091    21043.197   -18975.614    663.57247    8090.6074    4882.7725    82.132249 
   10400     673.4971   -108.12429   0.60939433   -107.51489   -2707.2886    4.3575717    4.3575717    4.3575717   -2707.2886    10948.828   -2589.3096   -16481.385   -1691.3881   -11384.052    912.25841     82.74345 
   10500    675.43391   -108.12762    0.6111468   -107.51647   -10619.058    4.3511094    4.3511094    4.3511094   -10619.058   -16319.332    -468.9415   -15068.902    5909.3394    9194.0049    5854.4228     82.37587 
   10600    722.00724   -108.16891   0.65328732   -107.51562   -76.322248     4.351197     4.351197     4.351197   -76.322248   -10329.047    18165.616   -8065.5354     83.72209   -3694.9911   -6536.3423    82.380844 
   10700    744.23006   -108.18847     0.673395   -107.51508   -8205.6145     4.358053     4.358053     4.358053   -8205.6145   -12461.706    8995.6143   -21150.752    4108.9538   -8148.7674    7481.7069    82.770871 
   10800    622.45586   -108.07406   0.56321114   -107.51085    14731.439    4.3424197    4.3424197    4.3424197    14731.439    16354.499    30999.335    -3159.517   -8290.7235    16000.916    469.65766    81.883311 
   10900       724.99    -108.1691   0.65598619   -107.51311   -6556.7736    4.3579753    4.3579753    4.3579753   -6556.7736   -2609.4606   -1454.5636   -15606.297   -1980.4582   -12963.286   -3210.9949    82.766443 
   11000    626.82583   -108.07997   0.56716518    -107.5128   -7323.0595    4.3561459    4.3561459    4.3561459   -7323.0595    2367.4335   -4100.6674   -20235.945   -5816.1653    6768.2313    4779.4199    82.662258 
   11100    698.12191   -108.14434   0.63167538   -107.51267    9837.4513    4.3453096    4.3453096    4.3453096    9837.4513    6196.9531    26258.445   -2943.0445    1691.7843    1648.8856   -3238.9258    82.046897 
   11200    918.46812   -108.34783   0.83104926   -107.51678   -15271.638    4.3545409    4.3545409    4.3545409   -15271.638   -15662.196   -5590.1204   -24562.599    350.80166   -15851.906     3075.051    82.570922 
   11300    469.52321   -107.94326   0.42483447   -107.51843    12435.454    4.3519516    4.3519516    4.3519516    12435.454   -5455.5475    36836.554    5925.3565    3991.1107    11389.582    5215.9585     82.42371 
   11400    743.56461   -108.18623   0.67279289   -107.51344   -5686.4249    4.3560288    4.3560288    4.3560288   -5686.4249   -7475.4837    6190.4643   -15774.255   -3461.7454   -8143.4253    4137.0978    82.655591 
   11500    612.91797   -108.06627   0.55458106   -107.51169    8771.0423    4.3497838    4.3497838    4.3497838    8771.0423    24685.714    9114.1531   -7486.7404    8553.2278   -1267.3139     22.77948    82.300604 
   11600     885.9031   -108.31079   0.80158374   -107.50921   -1970.1658    4.3530688    4.3530688    4.3530688   -1970.1658   -7916.7599    6227.8182   -4221.5557    5296.5431     5314.593    6397.2506    82.487205 
   11700    640.46447   -108.09104   0.57950571   -107.51153   -7139.4427    4.3572751    4.3572751    4.3572751   -7139.4427    7408.0207   -5870.1312   -22956.218   -249.36534   -15870.141   -5488.4256    82.726556 
   11800     663.7734   -108.11193   0.60059612   -107.51133     6933.413     4.343502     4.343502     4.343502     6933.413   -3861.3909    23277.388    1384.2415    6921.8848    6602.6561    6644.6611    81.944549 
   11900    720.14185   -108.16888   0.65159948   -107.51728   -13049.502    4.3627886    4.3627886    4.3627886   -13049.502    -12677.78    4233.9027    -30704.63     -10207.1   -10637.945   -1834.9236     83.04099 
   12000    751.06695   -108.19775   0.67958116   -107.51817    5731.8024    4.3462361    4.3462361    4.3462361    5731.8024    18198.969    9317.8952   -10321.457    3496.2999   -6988.6886    3179.6765    82.099391 
   12100    885.50309   -108.32056   0.80122181   -107.51933    180.98758    4.3499346    4.3499346    4.3499346    180.98758    6408.1337   -4911.8634   -953.30758   -1780.4034     5355.794    2306.9898     82.30916 
   12200    508.23635   -107.97949   0.45986293   -107.51963   -8270.0159    4.3613412    4.3613412    4.3613412   -8270.0159   -8572.7791     3075.316   -19312.585     4498.962    -21789.69   -1989.6889    82.958365 
   12300    717.12403   -108.15919   0.64886889   -107.51032    15581.127    4.3389225    4.3389225    4.3389225    15581.127    37723.272    2809.4427    6210.6654   -6380.9881     4193.998    1743.3661    81.685635 
   12400    755.03986   -108.19696   0.68317593   -107.51378   -17693.434    4.3636853    4.3636853    4.3636853   -17693.434   -20641.361   -2787.8646   -29651.077    5000.9964   -9325.9836     628.3283    83.092204 
   12500    757.94679    -108.1965   0.68580618   -107.51069   -1460.7962    4.3460659    4.3460659    4.3460659   -1460.7962    3706.4179    10425.295   -18514.102   -6257.1235   -12225.569    1523.4994    82.089751 
   12600    657.09245   -108.10861   0.59455106   -107.51406    499.94034    4.3532535    4.3532535    4.3532535    499.94034    663.51283     8905.261   -8068.9528     276.3411     3873.969    3927.7638    82.497708 
   12700    565.62444    -108.0254   0.51178888   -107.51361   -20946.086    4.3595853    4.3595853    4.3595853   -20946.086   -21386.067   -44.009692   -41408.182     1771.175   -24039.677    4526.4259    82.858209 
   12800    846.86987   -108.27153   0.76626566   -107.50526     26636.75     4.334668     4.334668     4.334668     26636.75    41929.494    20074.845    17905.913   -9904.3787    2635.8019   -366.12232    81.445581 
   12900    727.58859   -108.16879   0.65833745   -107.51045   -28600.488     4.370046     4.370046     4.370046   -28600.488   -25521.204   -20146.152   -40134.108    4830.2529   -11390.815    4954.1911    83.456087 
   13000    473.12093   -107.93957   0.42808976   -107.51148    7837.5729    4.3379735    4.3379735    4.3379735    7837.5729    2033.9682     22382.67   -903.91988   -3276.0182    -20006.75   -957.85966    81.632049 
   13100      941.787     -108.368   0.85214867   -107.51585   -7488.5503    4.3491544    4.3491544    4.3491544   -7488.5503   -5070.4826   -1737.3387    -15657.83    7576.2848    5874.9975    3996.9071    82.264884 
   13200    352.82832   -107.83601   0.31924647   -107.51676   -12821.591    4.3683046    4.3683046    4.3683046   -12821.591   -3759.4724    4963.3042   -39668.604    1582.6073   -20821.793     1751.704     83.35636 
   13300    1051.4273   -108.45476   0.95135352    -107.5034    16068.426    4.3304943    4.3304943    4.3304943    16068.426    35321.818    16364.975   -3481.5168    10603.012   -10200.171    609.29776    81.210546 
   13400    544.65502    -108.0128   0.49281531   -107.51999    737.44661     4.356552     4.356552     4.356552    737.44661    7381.3556    8446.6581   -13615.674   -479.93918   -2745.6862    5959.1459    82.685375 
   13500    498.30597   -107.96605   0.45087771   -107.51517   -24670.623    4.3632822    4.3632822    4.3632822   -24670.623   -33762.145    -8705.406   -31544.318   -136.56602   -24402.394    2264.9699    83.069177 
   13600    1005.0105   -108.41308   0.90935461   -107.50373      21626.1    4.3354489    4.3354489    4.3354489      21626.1    41472.011    5739.5155    17666.773   -2461.2765    9417.7411   -52.669733    81.489606 
   13700     670.9502    -108.1253   0.60708984   -107.51821   -14756.135    4.3570367    4.3570367    4.3570367   -14756.135   -11187.088   -5379.2389   -27702.077   -2543.4032     -20083.1    1211.2052    82.712975 
   13800    646.79095   -108.10035   0.58523005   -107.51512   -5224.3394    4.3550586    4.3550586    4.3550586   -5224.3394    15221.107   -8002.5993   -22891.526    2439.1988   -10229.344    -5274.182    82.600375 
   13900    784.38216   -108.22058   0.70972546   -107.51085    6692.0851    4.3426586    4.3426586    4.3426586    6692.0851    6120.2044    16152.391   -2196.3396   -3593.1693    1863.3526    2052.5656    81.896825 
   14000    484.52129   -107.96034   0.43840504   -107.52194   -11651.474    4.3559493    4.3559493    4.3559493   -11651.474    2322.8146   -2834.7319   -34442.504   -2576.8682   -26694.228    1623.4197    82.651063 
   14100    990.04368   -108.40667   0.89581233   -107.51086    2979.9839      4.35246      4.35246      4.35246    2979.9839    8952.9575    1305.3567   -1318.3626   -692.62052    10454.598   -1762.4412      82.4526 
   14200    485.04969   -107.95366   0.43888315   -107.51477   -5446.8301    4.3509042    4.3509042    4.3509042   -5446.8301   -7477.6783    18475.906   -27338.717   -6182.4499   -25965.878    2001.8428    82.364214 
   14300    655.37854   -108.10771   0.59300028   -107.51471   -1417.1554    4.3484149    4.3484149    4.3484149   -1417.1554    13749.631   -3304.1291   -14696.968    3251.1245    -9304.446   -1857.3127    82.222926 
   14400    813.65567   -108.24894   0.73621275   -107.51273   -4140.2693    4.3586036    4.3586036    4.3586036   -4140.2693    9454.3512    1796.7444   -23671.903    350.71042    -1078.368    645.69734    82.802246 
   14500    595.19371   -108.05474   0.53854377    -107.5162    676.40379    4.3441186    4.3441186    4.3441186    676.40379    11002.822    12456.609    -21430.22   -1709.8785   -33955.152   -3714.7887    81.979456 
   14600    945.90818   -108.36768    0.8558776   -107.51181   -601.79624    4.3487789    4.3487789    4.3487789   -601.79624   -415.43412    1458.7704    -2848.725    1638.8872    9286.1777    4271.4375    82.243576 
   14700    355.13389   -107.83549   0.32133261   -107.51416   -16709.761     4.364076     4.364076     4.364076   -16709.761   -22712.015    14215.832   -41633.099   -1847.6073   -22015.599    1254.1441    83.114522 
   14800     789.1016    -108.2241   0.71399571    -107.5101    3595.4129    4.3358797    4.3358797    4.3358797    3595.4129    615.41812    10244.068    -73.24721    4546.4427   -18414.228    857.58386    81.513899 
   14900    795.70507   -108.23397   0.71997067     -107.514    1702.0496    4.3550106    4.3550106    4.3550106    1702.0496    10177.702    5239.8598   -10311.413   -3612.7024    7041.9087   -1374.2236    82.597642 
   15000    595.04477   -108.05155   0.53840901   -107.51314   -24824.126    4.3625626    4.3625626    4.3625626   -24824.126   -28053.453   -1249.4841    -45169.44     1932.196   -24030.777    4225.1196    83.028083 
   15100    795.52366   -108.22368   0.71980653   -107.50387    24630.547    4.3324339    4.3324339    4.3324339    24630.547    31983.513    18856.472    23051.655   -5792.0971     2484.544   -332.52363    81.319714 
   15200    596.74652   -108.05749   0.53994879   -107.51754   -16118.694    4.3592979    4.3592979    4.3592979   -16118.694    -13675.22    2949.0429   -37629.903    828.79116   -12434.241   -4587.6381    82.841823 
   15300    738.75327    -108.1796   0.66843948   -107.51116   -9763.5771    4.3565569    4.3565569    4.3565569   -9763.5771   -3758.0166   -3673.2265   -21859.488    2292.8994   -16253.148    5215.6183    82.685653 
   15400    890.48572   -108.30716   0.80573019   -107.50143    16624.052    4.3328358    4.3328358    4.3328358    16624.052    8852.1776    25456.836    15563.142   -5773.7935    988.65402    -4036.552    81.342343 
   15500    361.86615   -107.84761    0.3274241   -107.52019   -18135.693    4.3634692    4.3634692    4.3634692   -18135.693   -22360.727    10244.012   -42290.365     1779.692   -24452.314   -699.51984    83.079859 
   15600    882.62579   -108.30878   0.79861836   -107.51017     3684.895    4.3509943    4.3509943    4.3509943     3684.895    12128.593   -5166.4259    4092.5181   -12587.458    2151.8864    1822.7195    82.369333 
   15700    660.68878   -108.10669   0.59780509   -107.50889    16662.853     4.336572     4.336572     4.336572    16662.853    36769.835    24001.541   -10782.818    10887.553   -14955.672   -1283.0035    81.552951 
   15800    692.62914   -108.14046    0.6267054   -107.51376   -22751.945    4.3639329    4.3639329    4.3639329   -22751.945   -24383.379    -12598.46   -31273.997   -2473.4656   -21061.052    -4455.653    83.106345 
   15900    821.37493   -108.25006    0.7431973   -107.50686    14381.918    4.3418993    4.3418993    4.3418993    14381.918    25921.987    13916.843    3306.9253   -758.31791    8755.1499     2506.271    81.853875 
   16000    505.11645   -107.97506   0.45703998   -107.51802   -16472.512    4.3517564    4.3517564    4.3517564   -16472.512   -35523.564     17613.85   -31507.821    6373.4744   -29531.802    1100.2787    82.412622 
   16100    759.45098   -108.19731   0.68716721   -107.51014    7932.7764    4.3545797    4.3545797    4.3545797    7932.7764    26630.572    4841.4234   -7673.6664   -2704.6299   -2166.7925    1501.9782    82.573128 
   16200    887.74926   -108.31552   0.80325418   -107.51226   -2721.3928    4.3436855    4.3436855    4.3436855   -2721.3928   -2600.3977    14435.722   -19999.503    3298.5343   -12960.008    1591.5259    81.954935 
   16300    365.77063   -107.85291   0.33095695   -107.52195   -3239.2313    4.3516803    4.3516803    4.3516803   -3239.2313   -8270.2761    16644.286   -18091.704    3569.7811   -22808.752   -1368.8707    82.408296 
   16400    927.93314   -108.35295   0.83961341   -107.51334    -5871.584    4.3517288    4.3517288    4.3517288    -5871.584   -5674.8481   -6089.4918    -5850.412     3318.806    9169.3056    2704.1218    82.411056 
   16500    522.85393   -107.99157   0.47308922   -107.51848   -17204.937    4.3509774    4.3509774    4.3509774   -17204.937   -19276.775    5720.0609   -38058.098   -3267.5585   -32673.099   -3621.1325     82.36837 
   16600    926.36774   -108.34888     0.838197   -107.51068    11323.954    4.3372625    4.3372625    4.3372625    11323.954    14793.788    5179.8155    13998.257    3201.3477   -841.04276    5905.1886    81.591915 
   16700    623.02694   -108.08011   0.56372787   -107.51638   -18903.362    4.3643448    4.3643448    4.3643448   -18903.362   -16073.741   -4076.1622   -36560.182   -3034.5971   -13127.254    -5748.083    83.129884 
   16800    531.25498   -107.99793   0.48069067   -107.51724   -2384.1043    4.3449362    4.3449362    4.3449362   -2384.1043   -12438.382    15512.508    -10226.44    8696.6447   -25589.567   -164.76498    82.025752 
   16900    943.52275   -108.36654   0.85371921   -107.51282     14288.62     4.337795     4.337795     4.337795     14288.62    19344.317     14161.25    9360.2927   -5315.6867    5255.5008   -2983.5264     81.62197 
   17000    519.56063   -107.98447   0.47010938   -107.51436    -24983.57    4.3660092    4.3660092    4.3660092    -24983.57   -36652.846   -584.95902   -37712.904    539.55456   -36467.203    790.06332    83.225026 
   17100    797.03387   -108.22371     0.721173   -107.50254    15459.458    4.3347911    4.3347911    4.3347911    15459.458    18279.192    10623.662     17475.52   -1399.5053    8550.8638   -2078.1007    81.452518 
   17200    575.81778   -108.03386   0.52101203   -107.51285   -9771.0802    4.3523736    4.3523736    4.3523736   -9771.0802   -21738.378    11381.178    -18956.04     864.4762   -18767.318   -1548.8023    82.447693 
   17300    661.99265   -108.11153   0.59898486   -107.51255   -8995.7432    4.3518792    4.3518792    4.3518792   -8995.7432    -14606.51   -2008.8511   -10371.869    813.02599   -21001.458    621.29317    82.419597 
   17400    1017.2886   -108.42755   0.92046406   -107.50708    6402.6943    4.3449958    4.3449958    4.3449958    6402.6943    15622.772    6426.8569   -2841.5457   -1374.3035    14526.862   -5035.2189    82.029127 
   17500    410.92147   -107.88621   0.37181038    -107.5144   -14221.461    4.3530833    4.3530833    4.3530833   -14221.461   -32715.127    1178.5331    -11127.79    376.01223   -34014.561   -1008.9357    82.488031 
   17600    836.27416   -108.26554   0.75667843   -107.50886    4113.7148    4.3430884    4.3430884    4.3430884    4113.7148     2987.954    11398.883   -2045.6928   -1158.9221    3216.6679    741.77403    81.921147 
   17700    568.56303   -108.02879   0.51444778   -107.51434   -9963.0998    4.3570372    4.3570372    4.3570372   -9963.0998   -22674.484   -5253.4221   -1961.3936    6871.0142   -13980.651   -3654.2455    82.713003 
   17800    738.93026   -108.18147   0.66859962   -107.51287    5015.1709    4.3377698    4.3377698    4.3377698    5015.1709   -220.33507    22604.803   -7338.9551    1213.4059   -27754.102   -1942.8939    81.620549 
   17900    822.14531   -108.25619   0.74389435   -107.51229    -792.8786    4.3567637    4.3567637    4.3567637    -792.8786   -3352.3036   -14033.558    15007.225   -747.46388    805.38966    5770.3316    82.697432 
   18000    350.95087   -107.83624   0.31754772   -107.51869   -9170.7755     4.346835     4.346835     4.346835   -9170.7755   -41239.142    27112.732   -13385.916    2870.5294   -28747.386   -3034.9274    82.133336 
   18100    860.05027   -108.29037   0.77819156   -107.51218    14456.697    4.3385359    4.3385359    4.3385359    14456.697    2299.2565    6490.4327    34580.402    923.13261   -5273.5745    6922.7842    81.663801 
   18200    742.35545   -108.18438   0.67169882   -107.51268   -17579.392    4.3633004    4.3633004    4.3633004   -17579.392   -25508.252   -7163.2212   -20066.702   -1544.1609   -10879.153   -7099.8739    83.070218 
   18300    722.76886   -108.16299   0.65397646   -107.50901    14490.289    4.3287615    4.3287615    4.3287615    14490.289   -3358.8635    21312.245    25517.485     4832.329   -18157.453    6094.3241    81.113097 
   18400     761.3165   -108.19997   0.68885517   -107.51111    -8205.382    4.3599129    4.3599129    4.3599129    -8205.382   -6428.6668   -15063.945   -3123.5343   -1838.7637    5533.0401   -3389.8483    82.876887 
   18500    486.25291   -107.95844   0.43997185   -107.51847   -5215.1127    4.3449295    4.3449295    4.3449295   -5215.1127   -37482.204    28265.086   -6428.2205   -1467.5561   -23773.525   -4200.8195    82.025369 
   18600    889.39934   -108.31866   0.80474721   -107.51391    21224.163    4.3389085    4.3389085    4.3389085    21224.163      35087.1    13557.261    15028.127   -916.84308   -4397.0723   -2472.7315    81.684844 
   18700    755.67833   -108.19613   0.68375363   -107.51238   -17549.546    4.3605616    4.3605616    4.3605616   -17549.546   -29800.291    3804.9561   -26653.302    121.46246   -10409.662   -1929.9602    82.913889 
   18800    476.30001   -107.93802   0.43096626   -107.50705    26280.136    4.3285656    4.3285656    4.3285656    26280.136    20384.017    33662.586    24793.805   -644.59723   -25654.352    1047.0781    81.102083 
   18900    865.22085   -108.28875   0.78287001   -107.50588   -23451.545    4.3647781    4.3647781    4.3647781   -23451.545   -15645.679   -26700.331   -28008.624   -2122.9194    7234.9713   -1364.0891    83.154645 
   19000    613.13145   -108.06869   0.55477422   -107.51391    8388.7981    4.3359211    4.3359211    4.3359211    8388.7981    12744.882    21381.375    -8959.862    1140.7599   -29146.225    4890.8451    81.516237 
   19100    937.31112   -108.36461    0.8480988   -107.51651     14321.83    4.3428089    4.3428089    4.3428089     14321.83    31288.189    3610.4279    8066.8714   -6944.6556    1280.1714   -3369.4126    81.905331 
   19200     628.9918   -108.08483     0.569125    -107.5157   -21649.612    4.3592541    4.3592541    4.3592541   -21649.612   -25302.296   -7290.8951   -32355.646   -3153.7395   -7769.3072    3692.1212    82.839325 
   19300    424.77932   -107.89168   0.38434925   -107.50733    31596.758    4.3248252    4.3248252    4.3248252    31596.758    19460.136    51202.319    24127.819     631.8132   -24071.877   -1644.5389     80.89202 
   19400    919.02203   -108.33763   0.83155044   -107.50608   -18608.251     4.364255     4.364255     4.364255   -18608.251   -10300.697   -19508.318   -26015.739    2997.3925    9926.3672    5001.5979     83.12475 
   19500    560.89694   -108.02317   0.50751133   -107.51566    6772.9932    4.3368428    4.3368428    4.3368428    6772.9932    13075.326    26081.376   -18837.722   -33.427562   -31740.639   -358.81104     81.56823 
   19600    962.04304   -108.38533   0.87047676   -107.51485    8629.1106    4.3416638    4.3416638    4.3416638    8629.1106    18480.168   -1941.9348    9349.0988    5936.7382   -746.77819    6414.1788    81.840554 
   19700    485.47703   -107.95315   0.43926982   -107.51388   -21074.763    4.3608251    4.3608251    4.3608251   -21074.763   -17892.507   -7846.4721   -37485.309    -1793.164    -9670.786    5196.0174    82.928922 
   19800    612.05979   -108.06263   0.55380456   -107.50882    13409.942    4.3297908    4.3297908    4.3297908    13409.942     4319.567    31016.641    4893.6177    3475.6245   -22361.075   -504.16991    81.170971 
   19900     909.9065   -108.33243   0.82330253   -107.50913    4117.4341    4.3552132    4.3552132    4.3552132    4117.4341    8042.1758    18499.726     -14189.6    1979.7994    12799.962    -3474.855    82.609168 
   20000     559.3121   -108.02476   0.50607734   -107.51869   -8913.2208    4.3464251    4.3464251    4.3464251   -8913.2208   -24192.869    19487.816    -22034.61   -8440.1544    -26991.77    1079.1897    82.110101 
   20100    713.99506   -108.16072   0.64603774   -107.51468    16017.352    4.3417932    4.3417932    4.3417932    16017.352    26296.377    11969.434    9786.2442   -7521.7916    2092.6056   -2758.5445    81.847873 
   20200    723.86075   -108.17208   0.65496442   -107.51712   -17342.645    4.3527692    4.3527692    4.3527692   -17342.645   -16373.141   -3463.2083   -32191.586    197.46904   -12931.714   -477.07437    82.470178 
   20300    583.53841   -108.04707   0.52799782   -107.51907    5536.0469    4.3382497    4.3382497    4.3382497    5536.0469    15160.404    7781.0103   -6333.2735   -8559.9211   -21731.632    1946.9859     81.64764 
   20400    932.67044   -108.35483   0.84389982   -107.51093    1075.9163    4.3530109    4.3530109    4.3530109    1075.9163   -6083.3529    22350.676   -13039.574    852.84692    2870.9464   -2784.0734    82.483915 
   20500    497.92731   -107.96865    0.4505351   -107.51812   -7900.9869    4.3443144    4.3443144    4.3443144   -7900.9869   -24388.192    14441.446   -13756.215    4141.0485   -30701.715    26.026197    81.990538 
   20600    626.99849   -108.08325   0.56732141   -107.51593    13165.716    4.3434739    4.3434739    4.3434739    13165.716    11855.361    23068.334     4573.452   -4769.4312    1816.1592    1382.6488     81.94296 
   20700    834.34658   -108.26884   0.75493432    -107.5139   -18827.097    4.3543957    4.3543957    4.3543957   -18827.097    -18471.38   -10023.482   -27986.429    7098.6582   -15855.047   -1260.0833     82.56266 
   20800    566.65765   -108.02644   0.51272375   -107.51371    12701.995    4.3365877    4.3365877    4.3365877    12701.995    6615.4388    31295.425    195.12013    5091.4525   -17444.081    7216.0344    81.553836 
   20900    945.62028   -108.36443    0.8556171   -107.50882   -13009.641    4.3533205    4.3533205    4.3533205   -13009.641   -24381.451    1655.4374   -16302.909   -7834.6154    10572.654   -4723.5786    82.501514 
   21000    360.84455   -107.84293   0.32649973   -107.51643   -5413.3683    4.3462417    4.3462417    4.3462417   -5413.3683   -22062.689    29867.626   -24045.042    7997.1863   -30220.074    1217.5679    82.099712 
   21100    910.87563    -108.3356   0.82417941   -107.51142    6941.6455    4.3389024    4.3389024    4.3389024    6941.6455     3368.164    22409.661   -4952.8886   -4965.9808    5466.5663    2733.5984    81.684498 
   21200    720.07851   -108.16565   0.65154217   -107.51411   -14531.345    4.3555324    4.3555324    4.3555324   -14531.345   -24560.633     1330.623   -20364.026   -6619.0688   -12348.198   -10145.941    82.627333 
   21300    590.75167   -108.04629   0.53452453   -107.51177    12016.283    4.3386535    4.3386535    4.3386535    12016.283   -10913.921    47783.211   -820.44195    6195.9213   -23096.007    8507.2918    81.670439 
   21400    882.82541   -108.30751   0.79879898   -107.50871   -1968.7972    4.3459994    4.3459994    4.3459994   -1968.7972   -11868.362    12715.077   -6753.1072   -11412.133    4311.1288    -4456.481    82.085977 
   21500     345.0344    -107.8312   0.31219438   -107.51901   -7848.1219    4.3494687    4.3494687    4.3494687   -7848.1219   -30549.582    39295.792   -32290.576    1535.5075   -31992.076   -4081.9729    82.282719 
   21600    1015.1484   -108.43478   0.91852759   -107.51626     13748.03    4.3389012    4.3389012    4.3389012     13748.03    7331.0904    34411.615   -498.61564   -1786.3979    1566.5163   -116.45264     81.68443 
   21700    655.74647   -108.11608   0.59333319   -107.52274   -25679.654    4.3599942    4.3599942    4.3599942   -25679.654    -45358.63     1108.852   -32789.185    3448.2114   -22223.266   -490.16937    82.881525 
   21800    553.72762   -108.01918   0.50102439   -107.51816     3888.151    4.3421215    4.3421215    4.3421215     3888.151   -17838.864    39548.547   -10045.229   -6377.6216   -10109.699   -7075.3673    81.866443 
   21900    821.58203   -108.25726   0.74338468   -107.51388     2879.761    4.3453453    4.3453453    4.3453453     2879.761   -1530.9494    26643.938   -16473.706    6031.1994   -1827.2616    12819.114    82.048921 
   22000    457.92022   -107.93397   0.41433584   -107.51963   -23157.646    4.3591169    4.3591169    4.3591169   -23157.646   -41210.923     7414.519   -35676.533   -8437.9134   -27772.595   -8520.2929    82.831507 
   22100    1006.7682   -108.42039   0.91094506   -107.50944    20206.422    4.3342445    4.3342445    4.3342445    20206.422    29612.884    20590.447    10415.936     5942.115    8863.0299    3641.2741    81.421711 
   22200    515.37721   -107.98448   0.46632413   -107.51816   -18939.028    4.3549511    4.3549511    4.3549511   -18939.028   -43910.696    26776.449   -39682.838   -6495.4061    -26037.77   -862.45936    82.594258 
   22300    541.55514   -108.00469   0.49001047   -107.51468   -9.9978538    4.3478404    4.3478404    4.3478404   -9.9978538   -7203.6528    29577.512   -22403.853     180.4152   -4474.5474   -5798.4946     82.19034 
   22400    956.57225   -108.37505   0.86552667   -107.50952   -1932.9436    4.3430281    4.3430281    4.3430281   -1932.9436   -1215.7414    15134.042   -19717.132   -1419.4977   -7572.0766   -2828.2309    81.917731 
   22500    609.15953   -108.06535   0.55118034   -107.51417   -17087.846    4.3552322    4.3552322    4.3552322   -17087.846   -36919.628    19100.263   -33444.173   -1976.9815   -21358.691   -1678.1701    82.610254 
   22600    786.69771   -108.22175   0.71182062   -107.50993    8212.4832    4.3430709    4.3430709    4.3430709    8212.4832    11034.321    24316.359   -10713.231   -6073.1239    5075.6587   -12819.375    81.920153 
   22700    550.34269   -108.01841   0.49796163   -107.52045   -15053.779    4.3509675    4.3509675    4.3509675   -15053.779   -28692.674     25269.17   -41737.833    1893.8041   -22968.979    2428.5135    82.367811 
   22800    757.74613   -108.20341   0.68562462   -107.51778    9654.4534    4.3416069    4.3416069    4.3416069    9654.4534    1377.8032    34097.367   -6511.8101   -5294.7128   -253.69078    967.05464     81.83734 
   22900    823.11483   -108.26291   0.74477159   -107.51814   -11225.682    4.3557116    4.3557116    4.3557116   -11225.682   -12498.797    4816.4368   -25994.685    5008.6866   -9656.7845    -1034.151    82.637533 
   23000     619.8976   -108.07829   0.56089638    -107.5174   -9002.7906    4.3444946    4.3444946    4.3444946   -9002.7906   -33968.347    25904.489   -18944.514    3921.5987   -15202.613    1925.6735    82.000744 
   23100    640.30165   -108.09196   0.57935838    -107.5126    15119.941    4.3355562    4.3355562    4.3355562    15119.941     11870.84    45116.821   -11627.838    200.97138    4569.5986    -4981.189    81.495659 
   23200    567.93492   -108.02582   0.51387945   -107.51194   -33664.963    4.3684446    4.3684446    4.3684446   -33664.963   -44987.151   -2344.8296   -53662.908    3917.1643   -21611.284   -5369.2338    83.364375 
   23300    1014.4374    -108.4235   0.91788425   -107.50562    20594.759    4.3250545    4.3250545    4.3250545    20594.759    10894.707    39983.065    10906.504   -84.481241    577.45731    3210.9856    80.904886 
   23400    569.30332   -108.03789   0.51511761   -107.52277   -5990.9772    4.3508269    4.3508269    4.3508269   -5990.9772   -4493.8284    13056.719   -26535.822   -2054.8027   -9283.1288   -17998.716    82.359827 
   23500    487.92939   -107.95621   0.44148877   -107.51472   -21171.427    4.3588104    4.3588104    4.3588104   -21171.427   -31760.441    14536.182   -46290.021    583.70623   -21074.939    2187.0981    82.814034 
   23600    921.98006   -108.33318   0.83422693   -107.49896    26360.354    4.3204778    4.3204778    4.3204778    26360.354    26317.517    33929.896     18833.65   -1156.7735     6738.133   -8752.8961     80.64832 
   23700    573.57789   -108.03425   0.51898532   -107.51526   -35930.127    4.3627668    4.3627668    4.3627668   -35930.127   -39115.324   -18278.184   -50396.874   -3038.5359   -26923.525   -9025.4223    83.039744 
   23800     922.4766   -108.34434   0.83467621   -107.50966     4371.377    4.3393789    4.3393789    4.3393789     4371.377    3611.2187    17275.265   -7772.3531   -3322.7788   -1393.5548    3911.3962     81.71141 
   23900    573.97777   -108.03424   0.51934715   -107.51489     -3142.71    4.3419044    4.3419044    4.3419044     -3142.71   -6218.3059    22171.775   -25381.599    8876.9196   -8623.2857   -7643.3516    81.854163 
   24000    376.61334   -107.85847   0.34076766    -107.5177   -8946.0563    4.3543328    4.3543328    4.3543328   -8946.0563   -10290.187    25486.994   -42034.976    82.112743   -19081.861   -5945.4006    82.559085 
   24100    1181.5601   -108.57568    1.0691004   -107.50658    5980.2134    4.3406224    4.3406224    4.3406224    5980.2134    7016.4649    7254.1563     3670.019    11299.555    10139.353    2502.2118     81.78168 
   24200    417.01389   -107.89824   0.37732293   -107.52092   -18748.509     4.348863     4.348863     4.348863   -18748.509   -10458.427    -8071.594   -37715.507   -1763.9237   -25966.805   -13662.183    82.248347 
   24300    798.26586   -108.23937   0.72228772   -107.51708    2710.6216    4.3391689    4.3391689    4.3391689    2710.6216    6676.9915    17116.167   -15661.293    3131.8209   -1147.9953    5493.8796    81.699548 
   24400    711.55879   -108.16043   0.64383335    -107.5166    -18351.82    4.3593568    4.3593568    4.3593568    -18351.82   -23334.298   -3706.7635   -28014.399   -2251.2598   -5712.3727   -12263.566    82.845179 
   24500     488.8043   -107.96571    0.4422804   -107.52342    6970.1748    4.3318712    4.3318712    4.3318712    6970.1748    5869.1198    27920.545   -12879.141    4817.5849   -19924.586   -8843.8557    81.288034 
   24600    1031.6078    -108.4522   0.93342045   -107.51878    10532.909    4.3469364    4.3469364    4.3469364    10532.909    4567.6658    11233.022    15798.039   -7891.9016   -251.66187   -5230.2859    82.139086 
   24700    410.17651   -107.89404   0.37113633    -107.5229   -21946.203    4.3583533    4.3583533    4.3583533   -21946.203   -13694.377   -13021.778   -39122.455    3955.0295   -12724.691   -7970.1744    82.787984 
   24800    694.42087   -108.13807    0.6283266   -107.50974    19942.607    4.3218931    4.3218931    4.3218931    19942.607    25752.415    19384.429    14690.979   -4291.3808   -14520.622   -8980.6138    80.727602 
   24900     983.8117   -108.40011    0.8901735   -107.50994   -13968.565    4.3638658    4.3638658    4.3638658   -13968.565   -17801.506   -12279.269   -11824.921   -2260.4084     4006.959    4144.3279    83.102512 
   25000    604.09604   -108.06609    0.5465988   -107.51949   -6839.4992    4.3395134    4.3395134    4.3395134   -6839.4992    1825.8546   -5207.7093   -17136.643    4845.8668   -16657.683   -9652.4166    81.719013 
   25100    688.05067   -108.13739   0.62256271   -107.51482    27515.777    4.3334051    4.3334051    4.3334051    27515.777    21398.836    36221.577    24926.918    5448.4102    2020.4501   -7461.3059    81.374416 
   25200    737.89243   -108.17961   0.66766057   -107.51195   -18447.403    4.3606505    4.3606505    4.3606505   -18447.403   -11994.387   -12146.602   -31201.218    3251.0261   -323.28577    2647.8418    82.918958 
   25300    460.77493   -107.93027   0.41691884   -107.51336    21965.593    4.3348713    4.3348713    4.3348713    21965.593    22841.721    19661.357    23393.701    4564.4602   -20479.202   -15707.571    81.457038 
   25400    1129.9053    -108.5324     1.022362   -107.51003   -3802.2502      4.34992      4.34992      4.34992   -3802.2502   -1773.0302   -6459.1942   -3174.5262    5402.7734    8488.6887    9505.6653    82.308335 
   25500    524.77095   -107.99019   0.47482378   -107.51536    5653.9665    4.3445234    4.3445234    4.3445234    5653.9665    16602.164    -8211.139    8570.8751   -4948.4984   -19702.572   -3524.0996    82.002371 
   25600    548.17628   -108.01334   0.49600142   -107.51734   -2005.3478    4.3493035    4.3493035    4.3493035   -2005.3478    4974.7677    5805.3037   -16796.115    6998.8469   -728.92928    -9437.289    82.273341 
   25700    971.90924   -108.39265    0.8794039   -107.51325    7359.3771    4.3408689    4.3408689    4.3408689    7359.3771    3678.1105    7030.8228    11369.198   -3685.9364   -1389.7578    6821.9794     81.79561 
   25800    484.39671   -107.96324   0.43829232   -107.52494     16026.85    4.3417002    4.3417002    4.3417002     16026.85    13880.023    29251.366    4949.1623   -488.68006   -14201.486   -18000.688    81.842617 
   25900    914.16213   -108.34007   0.82715311   -107.51291   -20512.449    4.3591595    4.3591595    4.3591595   -20512.449   -13792.023   -16839.952   -30905.373   -7937.4725    703.54309   -6175.0788    82.833932 
   26000     504.2769   -107.96637   0.45628034   -107.51009    27726.989    4.3281548    4.3281548    4.3281548    27726.989     45690.16    18825.005    18665.803    -3282.354   -9528.5736    4191.4958    81.078993 
   26100    669.00791   -108.12489   0.60533241   -107.51956   -21251.432    4.3558921    4.3558921    4.3558921   -21251.432   -7876.6165   -20143.436   -35734.243   -1711.7514   -6527.0788   -19919.664    82.647806 
   26200    914.86522   -108.33921   0.82778928   -107.51142    4061.9335    4.3486015    4.3486015    4.3486015    4061.9335     11630.11    1016.1878   -460.49734     7657.969    3910.0894     6912.392    82.233511 
   26300    584.97886   -108.04031   0.52930117   -107.51101    12730.027    4.3305641    4.3305641    4.3305641    12730.027    13559.635    22525.016    2105.4289     645.8178   -12748.886   -11926.334    81.214471 
   26400    604.44254   -108.06022   0.54691231   -107.51331   -20681.127    4.3579892    4.3579892    4.3579892   -20681.127   -13087.645   -7679.1203   -41276.616    6524.6136   -3505.5799   -5831.4044    82.767234 
   26500    738.42491   -108.17848   0.66814238   -107.51034     16405.83     4.338704     4.338704     4.338704     16405.83    29494.403     5012.166    14710.922     2336.795   -2104.4787    6953.9313    81.673295 
   26600    746.57394   -108.19332   0.67551579   -107.51781   -17359.631    4.3461625    4.3461625    4.3461625   -17359.631   -10322.048   -12428.584   -29328.262    3102.0236    -14048.68   -13636.098     82.09522 
   26700    780.60068   -108.22066    0.7063039   -107.51436    2239.0437    4.3462343    4.3462343    4.3462343    2239.0437    19687.726   -7233.4854   -5737.1093    5445.5156    4860.1692    7746.3812    82.099292 
   26800    676.05156   -108.12662   0.61170566   -107.51491   -3307.4425    4.3454447    4.3454447    4.3454447   -3307.4425    3825.2084    -3731.834   -10015.702   -5457.1163    -11702.47   -6071.5225    82.054555 
   26900    514.97224   -107.98324    0.4659577   -107.51728   -7794.6556    4.3488981    4.3488981    4.3488981   -7794.6556   -1662.5535     10019.92   -31741.333    806.17124    -3727.168   -13640.048    82.250337 
   27000    894.08546   -108.31951   0.80898732   -107.51052    19845.849    4.3376543    4.3376543    4.3376543    19845.849    37512.988    4322.6268    17701.932   -7605.6999    -438.7154    6392.6018    81.614028 
   27100     596.2611   -108.05529   0.53950957   -107.51578   -13935.161    4.3566539    4.3566539    4.3566539   -13935.161   -5053.3357   -1690.5915   -35061.557   -3183.3037   -14292.549   -18981.504    82.691181 
   27200    659.27249    -108.1079    0.5965236   -107.51137    8723.4787    4.3375034    4.3375034    4.3375034    8723.4787    43315.262   -9126.4275   -8018.3982   -859.74757   -1094.8971   -3945.3743    81.605512 
   27300    783.77776   -108.22478   0.70917859    -107.5156   -3064.9652    4.3425561    4.3425561    4.3425561   -3064.9652    434.02773   -14082.863    4453.9397    7822.2863   -314.63939    1257.0728    81.891029 
   27400    644.74248   -108.09906   0.58337654   -107.51569   -17116.908    4.3573675    4.3573675    4.3573675   -17116.908    6262.7521   -21853.382   -35760.095   -1070.2782   -12263.665   -20255.639    82.731818 
   27500    954.21954   -108.37315   0.86339789   -107.50975    17422.628    4.3292383    4.3292383    4.3292383    17422.628    19978.477    16999.264    15290.143    8050.0986    12764.446     8864.141    81.139901 
   27600     466.4794   -107.94233   0.42208036   -107.52025   -2375.6425    4.3478335    4.3478335    4.3478335   -2375.6425    19661.926   -3475.1552   -23313.698     3554.642   -15051.076   -14475.083    82.189949 
   27700    613.63549   -108.06873   0.55523028    -107.5135   -9239.5344    4.3542368    4.3542368    4.3542368   -9239.5344    11900.851   -7633.0945   -31986.359    2399.0819    -1183.245   -4801.0356    82.553619 
   27800    902.31594   -108.32312   0.81643442   -107.50668    15702.099    4.3309893    4.3309893    4.3309893    15702.099    24186.882    1829.8105    21089.603     6568.567    167.17904    3710.5995    81.238395 
   27900    598.26328   -108.05913   0.54132119    -107.5178   -12399.964    4.3518044    4.3518044    4.3518044   -12399.964    12043.181   -16055.496   -33187.577    1747.2918   -13518.515   -14705.067    82.415347 
   28000    895.07104   -108.32032   0.80987908   -107.51044   -12253.927    4.3464298    4.3464298    4.3464298   -12253.927   -4527.1985   -15975.573   -16259.011    1149.1431   -37.895885    12578.912    82.110368 
   28100    418.20406   -107.89104   0.37839982   -107.51264    13794.309    4.3342654    4.3342654    4.3342654    13794.309    45287.393    -8266.245    4361.7784    1404.6114   -5689.1867   -11937.404    81.422889 
   28200    812.45519   -108.25044   0.73512653   -107.51531   -17938.661    4.3542404    4.3542404    4.3542404   -17938.661   -8627.2892   -10831.606   -34357.089   -7879.2894   -15017.273   -3275.3844    82.553824 
   28300    756.09596   -108.19677   0.68413151   -107.51264    10363.345    4.3450162    4.3450162    4.3450162    10363.345    24698.405     1655.928    4735.7013    3856.5773    6932.6327     4715.829    82.030284 
   28400    522.21886   -107.98896    0.4725146   -107.51644    845.98586    4.3380212    4.3380212    4.3380212    845.98586     16458.96    4015.5628   -17936.566   -2995.6369   -8829.6916   -21784.771    81.634742 
   28500    764.50823    -108.2066   0.69174311   -107.51486   -7189.8899    4.3484033    4.3484033    4.3484033   -7189.8899    8323.8432   -8962.9511   -20930.562    8837.0634    3597.3305    7535.7275    82.222268 
   28600    617.32498   -108.07669   0.55856862   -107.51812   -1571.1971     4.347704     4.347704     4.347704   -1571.1971    24775.475   -25789.721   -3699.3456    -1138.849    5917.0671   -10490.657    82.182606 
   28700    855.77504   -108.28944   0.77432324   -107.51511   -4423.2167    4.3383611    4.3383611    4.3383611   -4423.2167    12156.151   -5407.6175   -20018.184    7691.4801   -11460.662   -14510.296    81.653929 
   28800    754.46351   -108.19766   0.68265444     -107.515    6466.5318      4.34405      4.34405      4.34405    6466.5318    22335.838   -2207.4805   -728.76244    -130.3664    2904.1379    8421.2693    81.975573 
   28900     508.1959   -107.97766   0.45982633   -107.51783   -12501.944    4.3513307    4.3513307    4.3513307   -12501.944    26368.458   -34600.078   -29274.211    3534.6853   -4329.0804   -24304.234     82.38844 
   29000     824.0536   -108.25877   0.74562102   -107.51315    13419.245    4.3345397    4.3345397    4.3345397    13419.245    27494.993    14659.734   -1896.9941   -4073.5319   -11978.821    3898.4845     81.43835 
   29100    670.46837   -108.12554   0.60665388   -107.51889    1305.6047    4.3497287    4.3497287    4.3497287    1305.6047     32010.05   -15623.624   -12469.612    186.28934    3088.1031   -5978.0838    82.297474 
   29200    746.37614   -108.19075   0.67533681   -107.51542   -10056.254    4.3482627    4.3482627    4.3482627   -10056.254    16949.952   -12677.251   -34441.462    -5714.392   -4856.8467   -14728.477     82.21429 
   29300    687.21139   -108.13359   0.62180331   -107.51179    15537.683    4.3333696    4.3333696    4.3333696    15537.683    37422.582    12950.251   -3759.7854    4185.6041    2174.2206    15426.498    81.372411 
   29400    540.48123   -108.00696   0.48903878   -107.51792   -14878.294    4.3520229    4.3520229    4.3520229   -14878.294    25036.979   -39702.121   -29969.741   -2391.0562    3661.7468   -24188.759    82.427764 
   29500    1023.3591   -108.43841   0.92595679   -107.51245   -473.23199    4.3419727    4.3419727    4.3419727   -473.23199    8015.6706    1532.7725   -10968.139    7903.1021   -443.87184    6593.3394    81.858028 
   29600    439.74037   -107.91867   0.39788633   -107.52078    8656.1107    4.3405802    4.3405802    4.3405802    8656.1107    43814.419   -82.473707   -17763.614    3426.3261    2881.6755   -9007.3056    81.779291 
   29700    605.49137   -108.07179   0.54786131   -107.52393   -12560.709    4.3515554    4.3515554    4.3515554   -12560.709    18107.391   -20871.084   -34918.435    4894.3845     2183.225   -19865.354    82.401204 
   29800     851.8218   -108.29023   0.77074626   -107.51948    3663.0315    4.3429249    4.3429249    4.3429249    3663.0315    15433.434    10029.068   -14473.407   -10014.799   -13751.673    10683.801     81.91189 
   29900    506.66924   -107.98513   0.45844498   -107.52668    247.37907    4.3460141    4.3460141    4.3460141    247.37907    54072.601   -23561.319   -29769.145   -2020.2948    5480.4829   -26380.331    82.086815 
   30000    978.58612   -108.40535   0.88544529   -107.51991   -6202.5099    4.3520732    4.3520732    4.3520732   -6202.5099    4307.6407     3475.442   -26390.612   -5866.8911   -6169.9524    1030.6458    82.430624 
   30100    681.29872   -108.13984    0.6164534   -107.52339   -6801.4189    4.3463443    4.3463443    4.3463443   -6801.4189    29910.925   -15839.138   -34476.044    6594.0239     3659.827   -7218.6975    82.105527 
   30200    425.77337   -107.91248   0.38524869   -107.52723    4419.8235    4.3489538    4.3489538    4.3489538    4419.8235     43529.15   -7699.7444   -22569.935    954.96414    5402.3506   -16444.392    82.253497 
   30300    1134.7182   -108.54175    1.0267169   -107.51503   -2570.0529    4.3513917    4.3513917    4.3513917   -2570.0529   -6236.2084    14055.276   -15529.226    16124.139    4057.3334    1588.3647    82.391903 
   30400    331.60342   -107.82194   0.30004174   -107.52189   -1722.1543    4.3516841    4.3516841    4.3516841   -1722.1543    41738.474   -17017.697   -29887.241   -6881.7752   -178.79986   -19447.892    82.408513 
   30500    755.65378    -108.1988   0.68373142   -107.51507    3061.0392    4.3408496    4.3408496    4.3408496    3061.0392   -2593.2852    23415.173    -11638.77    13433.577    10778.018   -2657.4994    81.794522 
   30600    777.37659   -108.22101   0.70338668   -107.51762   -4578.7401    4.3557256    4.3557256    4.3557256   -4578.7401    18816.591   -12473.543   -20079.269   -8990.5996   -5259.9978   -3357.5522    82.638333 
   30700    598.20266   -108.06182   0.54126633   -107.52055   -13981.741    4.3506535    4.3506535    4.3506535   -13981.741   -2021.3213   -11148.216   -28775.685    4123.7772    7433.7286   -12326.363    82.349977 
   30800    919.41549   -108.34519   0.83190646   -107.51329    8479.5535    4.3371195    4.3371195    4.3371195    8479.5535    11413.105    21640.296   -7614.7404   -5752.8001    6614.8244    8363.9279    81.583846 
   30900     587.7756   -108.04862   0.53183171   -107.51679   -11026.448    4.3626987    4.3626987    4.3626987   -11026.448    6726.7625   -10514.999   -29291.108   -2517.2831   -2653.5331   -17880.425    83.035853 
   31000    649.63069   -108.10475    0.5877995   -107.51695   -1993.5707    4.3436881    4.3436881    4.3436881   -1993.5707    8585.7243    4101.3814   -18667.818    376.68912     8363.207   -2939.0412    81.955086 
   31100    734.95783   -108.18231   0.66500529   -107.51731    16426.721    4.3435531    4.3435531    4.3435531    16426.721    22653.295     20738.97    5887.8977    740.01325   -4352.7364   -1057.1603    81.947444 
   31200     819.3713   -108.25748   0.74138437    -107.5161   -5337.9782    4.3557385    4.3557385    4.3557385   -5337.9782    2191.6822   -2214.7212   -15990.896    9038.3828   -4451.1022   -11912.704    82.639066 
   31300    459.64438   -107.93532    0.4158959   -107.51942    3166.1372    4.3460029    4.3460029    4.3460029    3166.1372    13832.834    21448.182   -25782.605    1004.7549     7893.405    8938.1557     82.08618 
   31400    790.96823   -108.23382   0.71568468   -107.51813     2149.099    4.3477203    4.3477203    4.3477203     2149.099   -6126.1532    19611.738   -7038.2874    10868.171    -3528.819   -4457.2008    82.183529 
   31500    905.34476   -108.33819   0.81917497   -107.51902   -1880.8123    4.3476936    4.3476936    4.3476936   -1880.8123    9429.5603    3761.0251   -18833.022   -10894.813    6846.2959   -44.846481    82.182017 
   31600    416.01542   -107.89988    0.3764195   -107.52346   -9877.2268    4.3563765    4.3563765    4.3563765   -9877.2268    -17011.27    13702.436   -26322.847    10091.449    3321.3154    4741.5476    82.675386 
   31700    911.62632   -108.34144   0.82485866   -107.51658    16981.479    4.3384346    4.3384346    4.3384346    16981.479    17980.063     25115.89    7848.4844   -10753.795   -1571.5068   -2881.6876    81.658081 
   31800    597.00726   -108.06708   0.54018472   -107.52689   -5103.3435    4.3477621    4.3477621    4.3477621   -5103.3435   -1755.6351    11927.121   -25481.517    10897.149    7998.4707    6630.0133    82.185901 
   31900    491.40302   -107.97032   0.44463178   -107.52568    6907.4833    4.3576246    4.3576246    4.3576246    6907.4833   -1332.1479    37656.971   -15602.373   -768.14013   -5572.4906    4451.5965    82.746464 
   32000    1180.9693     -108.584    1.0685659   -107.51543    5786.4792    4.3381142    4.3381142    4.3381142    5786.4792     8617.262    11358.324   -2616.1487    5820.0129    10180.649    685.56444    81.639988 
   32100    264.29669   -107.76922    0.2391412   -107.53008    1612.4747    4.3467502    4.3467502    4.3467502    1612.4747   -2639.7411    40458.478   -32981.312    2407.6342    2469.4269    7289.2719    82.128528 
   32200    802.69991   -108.24996   0.72629975   -107.52366   -13295.248    4.3581837    4.3581837    4.3581837   -13295.248   -16451.741    -2267.852   -21166.152    6740.7885    1156.3002    2073.8484     82.77832 
   32300    990.49643   -108.41313   0.89622199   -107.51691    14746.908    4.3336518    4.3336518    4.3336518    14746.908    18845.513    23956.695    1438.5163   -7212.4908    6067.5591   -3762.3356    81.388311 
   32400    281.65634   -107.78427   0.25484858   -107.52942   -9559.0243    4.3591838    4.3591838    4.3591838   -9559.0243   -22769.669    13330.922   -19238.326    8386.6084   -4400.9197    9905.0163     82.83532 
   32500     991.2059   -108.41196   0.89686393   -107.51509    1672.4608      4.34625      4.34625      4.34625    1672.4608     12023.91   -1818.3887   -5188.1386   -9047.7883   -2032.4174    -1859.685    82.100179 
   32600    600.87922   -108.06571   0.54368814   -107.52202   -3107.1452    4.3437499    4.3437499    4.3437499   -3107.1452   -5251.8013    22404.375   -26474.009     6844.069    5376.5577    3606.0654     81.95858 
   32700    582.86878   -108.05443   0.52739192   -107.52704    6021.5708    4.3505479    4.3505479    4.3505479    6021.5708   -6062.5453    42435.148    -18307.89   -1292.0136   -8338.3887    5773.1502    82.343979 
   32800    1021.7347   -108.44565   0.92448707   -107.52117   -14507.006    4.3543195    4.3543195    4.3543195   -14507.006   -4974.3163   -14163.667   -24383.034     11354.48    1244.8691   -10393.853    82.558325 
   32900    437.31974   -107.91648   0.39569609   -107.52078    13665.927    4.3378432    4.3378432    4.3378432    13665.927   -3468.0865      54964.6   -10498.732   -6173.9847   -1468.1558    6757.9292     81.62469 
   33000    681.71416   -108.13999   0.61682929   -107.52316   -955.78601    4.3493408    4.3493408    4.3493408   -955.78601    9302.6443   -2419.8509   -9750.1515    13140.979   -4716.3235   -1635.9422    82.275458 
   33100    736.04019   -108.18577   0.66598463   -107.51979   -10220.652    4.3555126    4.3555126    4.3555126   -10220.652   -7887.5059    3406.0837   -26180.533   -11343.095    2608.9415   -6738.1257    82.626211 
   33200    622.96602   -108.08051   0.56367275   -107.51684    22816.019    4.3342628    4.3342628    4.3342628    22816.019    16159.063    40866.621    11422.371    5571.1444   -3242.6609     7596.419    81.422741 
   33300    848.12151   -108.28707   0.76739817   -107.51968    -23489.64    4.3554423    4.3554423    4.3554423    -23489.64    -8425.436   -27005.338   -35038.146   -10078.083    5714.9116   -17530.018     82.62221 
   33400    466.21066   -107.93843    0.4218372   -107.51659    6105.1544    4.3534417    4.3534417    4.3534417    6105.1544   -7873.1346    44791.938    -18603.34    2379.8503    -2291.614   -1440.9393    82.508405 
   33500    953.25378   -108.37448   0.86252405   -107.51195      311.831    4.3386958    4.3386958    4.3386958      311.831    2904.6425     4572.273   -6541.4225   -2319.9602    1103.7517   -2671.9002    81.672831 
   33600    541.66451   -108.01016   0.49010944   -107.52005    2632.6845    4.3518295    4.3518295    4.3518295    2632.6845    4532.6513    16260.659   -12895.257    5596.8752    3128.1889    -14640.57    82.416772 
   33700    800.77012   -108.24059   0.72455363   -107.51604    1108.0433    4.3505859    4.3505859    4.3505859    1108.0433   -10156.859    19205.145   -5724.1562   -140.73412   -6678.1501    4863.9529    82.346139 
   33800    693.84858   -108.14496   0.62780878   -107.51715    3753.4664    4.3422309    4.3422309    4.3422309    3753.4664    20173.085    8592.1314   -17504.817    6272.6946    932.99635   -12265.492    81.872628 
   33900    541.33038    -108.0101   0.48980711   -107.52029   -3340.7385    4.3512445    4.3512445    4.3512445   -3340.7385   -1998.3532    11295.502   -19319.364    2651.4994    250.83853   -6836.5198     82.38354 
   34000    992.96637   -108.41171   0.89845684   -107.51325    -495.7322     4.347948     4.347948     4.347948    -495.7322    4179.0133     4511.562   -10177.772   -2824.0581   -8649.6255     4480.832    82.196444 
   34100    592.30588   -108.05416    0.5359308   -107.51823   -2821.8221    4.3475049    4.3475049    4.3475049   -2821.8221    1081.1217    5711.5312   -15258.119    6019.2962    2110.4985    -20099.08    82.171317 
   34200    587.03142   -108.05127   0.53115836   -107.52011   -1877.7287     4.348684     4.348684     4.348684   -1877.7287   -9835.9871    15186.994   -10984.193   -14033.376   -6607.2694    1826.4435    82.238191 
   34300    894.73949   -108.32795   0.80957909   -107.51837   -1002.9703    4.3468681    4.3468681    4.3468681   -1002.9703    -2.191636    1198.8154   -4205.5347   -2635.1241   -1020.1488   -7058.6317    82.135214 
   34400    473.38583   -107.95467   0.42832945   -107.52634     8613.272    4.3495192    4.3495192    4.3495192     8613.272   -451.10411    32940.677   -6649.7568   -3097.9294   -4701.9979    -18188.29    82.285583 
   34500    805.82286     -108.254   0.72912546   -107.52488    366.63783    4.3490341    4.3490341    4.3490341    366.63783   -3251.7779    12610.647   -8258.9554   -8618.9763   -3926.3204    12748.231    82.258057 
   34600    859.22139   -108.30049   0.77744157   -107.52305    74.952404    4.3464782    4.3464782    4.3464782    74.952404    4534.2754    6636.8791   -10946.297    13628.075    784.73446   -16068.759    82.113116 
   34700    375.19912   -107.86523   0.33948804   -107.52574   -1001.6069    4.3542247    4.3542247    4.3542247   -1001.6069   -1393.9062    24040.529   -25651.444   -2218.8886   -5460.9641    433.98555    82.552931 
   34800    971.32016   -108.39649   0.87887089   -107.51762   -3341.4821    4.3461667    4.3461667    4.3461667   -3341.4821   -9194.8662    11480.802   -12310.382       4084.5    6780.2625     2847.975    82.095459 
   34900    681.07395   -108.13414   0.61625002   -107.51789    11924.594    4.3479093    4.3479093    4.3479093    11924.594      10939.6    19009.283    5824.8984   -511.23954    330.75392   -12491.599    82.194247 
   35000    536.65622   -108.00576   0.48557782   -107.52018   -3402.7162    4.3529117    4.3529117    4.3529117   -3402.7162   -18193.073    28601.416   -20616.492    1769.0365   -1425.9667    3400.0003    82.478275 
   35100    869.60452   -108.30391   0.78683644   -107.51707    7768.8536    4.3436205    4.3436205    4.3436205    7768.8536    2748.9513    9471.5147    11086.095   -11059.516     1660.246    688.08175    81.951258 
   35200    602.19731   -108.06649   0.54488078   -107.52161    10783.074     4.347827     4.347827     4.347827    10783.074   -751.81211    41158.904   -8057.8687    5879.2407   -2923.2912   -3127.8121    82.189584 
   35300    688.58591   -108.14781     0.623047   -107.52476   -17123.128    4.3558473    4.3558473    4.3558473   -17123.128   -17813.257   -9735.7169   -23820.412   -10220.693   -4795.3128    8454.5866    82.645259 
   35400    963.47156   -108.38858   0.87176931   -107.51681    17966.204    4.3329121    4.3329121    4.3329121    17966.204    12319.109    18818.874    22760.629    6409.4279    425.38405    3570.9454    81.346645 
   35500    370.18477   -107.86401   0.33495096   -107.52906   -13223.279     4.358569     4.358569     4.358569   -13223.279   -21817.487     23076.64   -40928.992    4128.2824   -5839.6873   -5851.8715    82.800276 
   35600    722.68784   -108.18015   0.65390314   -107.52625    7797.4416    4.3450767    4.3450767    4.3450767    7797.4416    312.19166    9490.1745    13589.958    3472.1281   -163.89263    11187.084    82.033707 
   35700    1005.0919    -108.4322   0.90942826   -107.52278    265.20945    4.3450308    4.3450308    4.3450308    265.20945   -12392.286     13509.85   -321.93563   -5932.3859   -2405.2492    2803.1076    82.031111 
   35800    435.41507    -107.9208   0.39397271   -107.52683    8004.8319    4.3506108    4.3506108    4.3506108    8004.8319   -15961.718    49090.015   -9113.8015    4435.7349   -4560.1517    2578.1709    82.347554 
   35900    758.36868   -108.20977   0.68618792   -107.52358   -1857.0753    4.3489996    4.3489996    4.3489996   -1857.0753    1984.5532    2780.2937   -10336.073   -11733.596     2301.359    11086.819    82.256099 
   36000    810.70886   -108.25381   0.73354641   -107.52026   -1596.9628    4.3465147    4.3465147    4.3465147   -1596.9628   -20160.649    33183.473   -17813.713    10786.696    -10386.75   -4181.2427     82.11518 
   36100    499.21869   -107.97595   0.45170356   -107.52424    6225.6563    4.3498051    4.3498051    4.3498051    6225.6563    1640.7809    24736.704   -7700.5155   -3634.6464    788.29136    6418.0431    82.301809 
   36200    920.58835   -108.35052   0.83296769   -107.51756   -13302.483    4.3530355    4.3530355    4.3530355   -13302.483     -17438.4   -6611.9843   -15857.064    8081.6248   -3697.9336    12573.113    82.485313 
   36300    575.53199   -108.04011   0.52075344   -107.51936    12209.197    4.3434359    4.3434359    4.3434359    12209.197   -14153.179    54164.169   -3383.4001    2924.3064   -3138.4124    -4933.935    81.940808 
   36400    579.96296   -108.05009   0.52476268   -107.52532     7309.523    4.3478203    4.3478203    4.3478203     7309.523   -1453.0432    40445.602    -17063.99    250.04071    1753.0415     21516.22    82.189201 
   36500    913.48217   -108.35269   0.82653787   -107.52615   -19188.447    4.3578739    4.3578739    4.3578739   -19188.447   -29548.361    936.95927   -28953.939    2114.4256   -6969.1977    1736.4372    82.760666 
   36600    831.96215   -108.27998   0.75277684   -107.52721    4833.8045    4.3383398    4.3383398    4.3383398    4833.8045   -10004.701     25446.95   -940.83574   -7343.8709    2501.0742   -1195.8084    81.652726 
   36700    443.60416   -107.93691   0.40138237   -107.53552   -1577.3014    4.3537863    4.3537863    4.3537863   -1577.3014   -11931.737    32648.183    -25448.35    4816.0539   -4203.3001    16134.103    82.527998 
   36800    614.82804   -108.09083   0.55630933   -107.53452    4096.8023    4.3486263    4.3486263    4.3486263    4096.8023   -19211.492    47431.736   -15929.837    673.59983   -1706.5989   -14261.863    82.234917 
   36900    964.83805   -108.40173   0.87300574   -107.52872   -480.39737    4.3452305    4.3452305    4.3452305   -480.39737   -9891.0587    6153.7165    2296.1501    8253.0532    2804.0159    12203.394    82.042419 
   37000    559.69249   -108.03469   0.50642153   -107.52827    5456.0618    4.3525411    4.3525411    4.3525411    5456.0618   -11595.312    50962.795   -22999.298   -3057.6642   -4102.1037    2354.9484    82.457212 
   37100    641.24017   -108.10677   0.58020758   -107.52657    1507.1949    4.3457999    4.3457999    4.3457999    1507.1949   -16466.855    29892.471   -8904.0314    7336.8752    2757.7466   -7377.9005    82.074673 
   37200    937.17846   -108.36827   0.84797877   -107.52029   -2991.4672    4.3508615    4.3508615    4.3508615   -2991.4672   -8202.9823    7175.6355    -7947.055   -12307.714   -490.25322    9528.3869    82.361789 
   37300    400.57408   -107.88689   0.36244785   -107.52444     2817.792    4.3507264    4.3507264    4.3507264     2817.792   -16921.788    51112.161   -25736.997   -138.73976    13.311107    -6022.028     82.35412 
   37400    817.33023   -108.26185   0.73953757   -107.52232   -2786.5449    4.3454496    4.3454496    4.3454496   -2786.5449   -14668.012    2483.0567    3825.3207   -3331.2914    3608.8992   -8539.4504    82.054828 
   37500    934.63247   -108.36678    0.8456751   -107.52111   -4697.6155    4.3522338    4.3522338    4.3522338   -4697.6155   -12717.105    17105.811   -18481.553    4333.4354   -1465.6267    7421.6947    82.439746 
   37600    236.14793   -107.74449   0.21367161   -107.53082     805.4314    4.3487796    4.3487796    4.3487796     805.4314   -15885.621    49846.618   -31544.702    7328.9978    2920.1458   -12097.013    82.243613 
   37700    980.06733   -108.41475   0.88678551   -107.52797    1487.7643    4.3460431    4.3460431    4.3460431    1487.7643   -8672.6208    13288.589   -152.67542    10426.997    1476.9876    2968.1553    82.088458 
   37800    963.61092   -108.40493   0.87189541   -107.53303   -8590.9301    4.3494085    4.3494085    4.3494085   -8590.9301   -13520.293    13579.154   -25831.652   -5372.5094   -2173.8143     287.6635    82.279302 
   37900    266.36349   -107.78294   0.24101129   -107.54193   -2351.5869     4.350388     4.350388     4.350388   -2351.5869   -16005.523    23693.866   -14743.104    2445.5706    5668.1467   -9228.9437      82.3349 
   38000    924.14382   -108.36672   0.83618475   -107.53054    7023.6905    4.3444982    4.3444982    4.3444982    7023.6905    1416.6976    29810.176   -10155.802   -3081.0647   -1180.7451    2525.9299    82.000949 
   38100    713.62295   -108.17799   0.64570104   -107.53229   -18926.993    4.3530041    4.3530041    4.3530041   -18926.993   -24242.111   -5998.3508   -26540.516      43.2011    4244.5253   -5249.4021    82.483526 
   38200    426.96927   -107.91457   0.38633077   -107.52824     11613.92    4.3481834    4.3481834    4.3481834     11613.92   -5054.3326    46234.971   -6338.8792    12128.602     3449.643   -10124.734    82.209795 
   38300    1000.7211   -108.42611   0.90547347   -107.52064   -2184.0195    4.3457289    4.3457289    4.3457289   -2184.0195   -2695.9712    14947.936   -18804.023    2149.2139   -66.826635    2416.5613    82.070653 
   38400    582.18684   -108.05491   0.52677489   -107.52814   -12964.328    4.3509987    4.3509987    4.3509987   -12964.328    -18056.85   -3259.7311   -17576.403    2030.5801    7364.3426   -11251.516     82.36958 
   38500    587.36867   -108.05748   0.53146352   -107.52602    2848.4131    4.3491446    4.3491446    4.3491446    2848.4131    5525.2498    23672.167   -20652.177     5171.484   -4096.4276    6089.8169    82.264325 
   38600    814.08297   -108.26214   0.73659938   -107.52554    4810.8968    4.3436931    4.3436931    4.3436931    4810.8968   -9520.2983    35465.066   -11512.077   -10906.615     6585.121    3283.3303    81.955368 
   38700    686.77396   -108.15203   0.62140751   -107.53063   -13906.437    4.3504653    4.3504653    4.3504653   -13906.437   -11787.247   -16198.587   -13733.477    7878.9745    -72.57014   -10987.191    82.339292 
   38800    624.56996   -108.09178   0.56512403   -107.52665    7188.1122    4.3449279    4.3449279    4.3449279    7188.1122    4919.5709     40004.77   -23360.005    1960.3412   -2184.8871    12223.985    82.025278 
   38900    752.20551   -108.20462   0.68061135   -107.52401   -2467.9544    4.3465146    4.3465146    4.3465146   -2467.9544   -15549.685    20482.373   -12336.551    3618.6625    6008.1687   -5019.6617    82.115174 
   39000    742.79546   -108.19656   0.67209694   -107.52446   -8186.7359    4.3459766    4.3459766    4.3459766   -8186.7359    802.81648   -10246.609   -15116.415    13864.943   -5446.9125   -1193.6668    82.084688 
   39100    612.07917   -108.07646   0.55382209   -107.52264     10450.25    4.3464461    4.3464461    4.3464461     10450.25    2212.7373    46168.983    -17030.97   -68.333138    2695.7307    16238.204    82.111295 
   39200    834.86897   -108.27503   0.75540699   -107.51962    -4857.527    4.3464952    4.3464952    4.3464952    -4857.527   -8693.4689   -490.80666   -5388.3056    9420.8682   -973.12066   -12671.851    82.114075 
   39300    533.70795   -108.00423   0.48291017   -107.52132    -2110.244    4.3462773    4.3462773    4.3462773    -2110.244    4937.0786    11555.817   -22823.627   -235.05036     626.3004    13082.589    82.101727 
   39400    738.15094   -108.18695   0.66789448   -107.51906    1309.2445    4.3437926    4.3437926    4.3437926    1309.2445   -11927.934    21800.344   -5944.6765   -282.96213    3418.7909    4488.2798    81.960996 
   39500    853.78702   -108.29199   0.77252444   -107.51947   -14124.978    4.3492617    4.3492617    4.3492617   -14124.978   -13755.917   -9933.8859    -18685.13   -3184.8602   -660.39574   -2109.2152    82.270968 
   39600    433.17704   -107.91429   0.39194769   -107.52234    9491.8672     4.346177     4.346177     4.346177    9491.8672    3485.4959    46832.772   -21842.666    4812.0026    5752.7531    19849.488    82.096042 
   39700    917.67383    -108.3497   0.83033057   -107.51937   -3261.0246    4.3446133    4.3446133    4.3446133   -3261.0246   -14455.598    18273.207   -13600.683   -3477.7862    2360.6583   -3746.2379    82.007465 
   39800    675.72543   -108.13606   0.61141057   -107.52465   -6814.8806    4.3498691    4.3498691    4.3498691   -6814.8806   -6227.1707    1879.9269   -16097.398    9500.8328   -1580.3624    7603.7618    82.305446 
   39900    507.80044   -107.98569   0.45946851   -107.52622    5828.1589    4.3460652    4.3460652    4.3460652    5828.1589     1157.508    25293.243   -8966.2741    1371.9351    6594.1924    12136.915    82.089709 
   40000    889.34758   -108.32903   0.80470038   -107.52433    3287.1509    4.3429037    4.3429037    4.3429037    3287.1509   -11931.386    28286.783   -6493.9446   -3462.7317   -5112.3169   -1933.7315     81.91069 
   40100    652.05535   -108.12269   0.58999339   -107.53269   -18141.598    4.3522069    4.3522069    4.3522069   -18141.598   -5587.6372    -20219.94   -28617.217     6951.483    649.48974    14518.235    82.438218 
   40200    709.10878   -108.17084   0.64161653   -107.52922     13241.66    4.3416756    4.3416756    4.3416756     13241.66   -9393.4465    51221.273   -2102.8474     -6096.35    837.50403    6097.4156    81.841225 
   40300    728.07632   -108.18701   0.65877876   -107.52824   -7613.2712    4.3486113    4.3486113    4.3486113   -7613.2712   -21432.244    14597.982   -16005.552    8152.1586   -5745.9749   -3588.4542    82.234066 
   40400    662.38735   -108.12517     0.599342   -107.52583   -4827.3873    4.3457928    4.3457928    4.3457928   -4827.3873   -1898.7029   -2974.4218   -9609.0373    9698.1522    2457.8005    22746.491    82.074276 
   40500    723.98588   -108.17382   0.65507764   -107.51874     15011.17    4.3468986    4.3468986    4.3468986     15011.17   -5778.2119    56933.427    -6121.705   -1206.4859   -6658.3478   -4188.7194    82.136942 
   40600    678.69941   -108.13532   0.61410148   -107.52121   -13056.458    4.3473282    4.3473282    4.3473282   -13056.458   -11372.894   -16598.562   -11197.917    17183.066   -1055.6607    14637.039    82.161299 
   40700    665.42148   -108.12174   0.60208734   -107.51965    10621.339    4.3425143    4.3425143    4.3425143    10621.339    5302.9579    25673.108    887.94985   -4682.3232     -3064.82    9176.8918    81.888662 
   40800    815.37401   -108.25431   0.73776754   -107.51654   -9196.1671    4.3521675    4.3521675    4.3521675   -9196.1671   -22367.246    10936.227   -16157.482    4138.8317   -7394.3806   -2602.7236    82.435977 
   40900    605.73703   -108.06702    0.5480836   -107.51894   -7739.1207    4.3426206    4.3426206    4.3426206   -7739.1207    4775.8089   -18778.884   -9214.2867    1412.0729    2984.2347    17196.274    81.894676 
   41000    704.15472   -108.15542   0.63713399   -107.51829    15341.671    4.3430953    4.3430953    4.3430953    15341.671   -3563.0472    55906.174   -6318.1138   -843.26486   -4521.1308    25.665799    81.921533 
   41100    762.65413   -108.21033   0.69006549   -107.52026   -16229.065    4.3537604    4.3537604    4.3537604   -16229.065   -30157.954    -8996.758   -9532.4836   -4010.3691    -2698.456     274.6882    82.526529 
   41200    551.98212   -108.01924   0.49944502   -107.51979    10618.816    4.3426337    4.3426337    4.3426337    10618.816    1467.7973    32611.401   -2222.7517    8824.7504     3548.345    19919.783    81.895414 
   41300    888.40719   -108.32077    0.8038495   -107.51692    1476.6478    4.3450379    4.3450379    4.3450379    1476.6478   -5787.2974    11049.068   -831.82671   -3249.5025   -7981.4881   -6130.2081    82.031509 
   41400    616.59317   -108.08025   0.55790646   -107.52234   -12482.859    4.3508177    4.3508177    4.3508177   -12482.859   -12889.254   -14256.133   -10303.189    2888.8615    1139.5727    18059.547      82.3593 
   41500    579.85781   -108.04488   0.52466753   -107.52022    6557.7062    4.3477691    4.3477691    4.3477691    6557.7062   -6485.8036    34168.399   -8009.4767    8249.6348   -1403.0479    8545.9501    82.186298 
   41600    949.87877   -108.37742   0.85947027   -107.51795   -1040.2186    4.3393366    4.3393366    4.3393366   -1040.2186   -7002.7234    4868.2253   -986.15766    -8761.497   -7169.2586   -3525.8519    81.709022 
   41700    481.55493   -107.96306   0.43572102   -107.52734   -270.69672    4.3497988    4.3497988    4.3497988   -270.69672   -6221.1167    15075.199   -9666.1727    10252.033    3462.3911    20696.192    82.301456 
   41800    847.78933   -108.28715   0.76709761   -107.52005    538.92242    4.3482254    4.3482254    4.3482254    538.92242   -5366.3753     25139.75   -18156.607   -5652.6782   -6592.0711   -1823.8407    82.212176 
   41900    678.62299   -108.13444   0.61403234   -107.52041    3248.7943    4.3371307    4.3371307    4.3371307    3248.7943    -12656.88    7374.0758    15029.187   -6707.5682   -364.00295    3460.6953    81.584478 
   42000    503.42308   -107.98068   0.45550778   -107.52518    274.36251    4.3517155    4.3517155    4.3517155    274.36251   -16292.115    40906.341   -23791.139    7989.4367   -900.68997    17404.673    82.410299 
   42100    992.38997   -108.41883    0.8979353    -107.5209    1099.4947    4.3463639    4.3463639    4.3463639    1099.4947   -4570.7538    15422.081   -7552.8433   -13539.998   -4193.8131   -6266.9896    82.106634 
   42200    673.84141   -108.13367   0.60970587   -107.52396    8787.5109     4.334906     4.334906     4.334906    8787.5109    3341.6691    25445.764   -2424.9009    7930.0279   -270.57141    16512.797    81.458995 
   42300    575.91768   -108.04428   0.52110242   -107.52318   -13809.262    4.3605415    4.3605415    4.3605415   -13809.262   -18735.987    5141.1126   -27832.911    4662.8754   -1589.5127    10426.367    82.912739 
   42400    877.41578    -108.3087   0.79390424    -107.5148     10541.99     4.337555     4.337555     4.337555     10541.99    6171.2535    22884.723    2569.9943   -6871.6485   -4112.8312    259.79279    81.608423 
   42500    512.37015   -107.98594   0.46360328   -107.52234   -6626.6897    4.3478453    4.3478453    4.3478453   -6626.6897   -9075.9617    2235.5643   -13039.672    7239.8042    1508.5718    17939.924    82.190617 
   42600    886.83063   -108.31678   0.80242299   -107.51436     1496.144    4.3507758    4.3507758    4.3507758     1496.144   -2135.2317    25159.059   -18535.395   -3199.4325   -1333.9678     451.9916    82.356926 
   42700    725.22646   -108.17185   0.65620014   -107.51565    920.27439    4.3402837    4.3402837    4.3402837    920.27439   -10633.082    8862.4288    4531.4763   -6061.6709   -2795.8737    -184.3494    81.762538 
   42800    401.36385   -107.88451   0.36316245   -107.52135    -7860.176    4.3495826    4.3495826    4.3495826    -7860.176   -17718.864      14153.6   -20015.264    6472.1731    3351.0831    19902.826    82.289181 
   42900    913.35553   -108.34662   0.82642328    -107.5202   -765.78839    4.3460756    4.3460756    4.3460756   -765.78839     -10459.3    22410.016   -14248.081   -4072.4403   -4302.2851   -11246.703    82.090295 
   43000    740.53464    -108.1996    0.6700513   -107.52955    -6782.909    4.3439404    4.3439404    4.3439404    -6782.909    3057.3196   -13936.328   -9469.7182    3640.4465    2936.4493    20406.103    81.969367 
   43100    709.10352   -108.17252   0.64161176   -107.53091   -2712.0884    4.3507176    4.3507176    4.3507176   -2712.0884   -14530.905    28381.201   -21986.561    7572.4747   -1393.2281     4678.009     82.35362 
   43200    600.19389     -108.071   0.54306804   -107.52793    16731.079    4.3429194    4.3429194    4.3429194    16731.079    7242.6445    41663.779    1286.8138   -7805.6321    -964.0992    -3956.086     81.91158 
   43300    693.68064   -108.15907   0.62765682   -107.53141   -16043.103    4.3487959    4.3487959    4.3487959   -16043.103   -13099.934   -12828.883   -22200.492      2116.69    3467.0471    20562.067    82.244542 
   43400     934.5283   -108.37186   0.84558085   -107.52628   -293.12335    4.3479602    4.3479602    4.3479602   -293.12335     2094.286     14044.99   -17018.646    586.14244   -4051.7287   -6273.5515    82.197134 
   43500    478.39943   -107.96218   0.43286586   -107.52931    4567.2021    4.3438837    4.3438837    4.3438837    4567.2021   -3387.4841    26609.119   -9520.0291   -5042.3994    2847.5121    6224.0379    81.966155 
   43600    717.58657   -108.17379   0.64928741    -107.5245   -15749.139     4.351558     4.351558     4.351558   -15749.139   -15351.483   -9033.5988   -22862.336    4295.1496   -3374.7785    17950.794    82.401352 
   43700    875.63903   -108.31125   0.79229659   -107.51895   -3826.8318    4.3468063    4.3468063    4.3468063   -3826.8318   -13248.304    16216.874   -14449.065   -8955.8139    283.08254   -11227.184     82.13171 
   43800    366.24864    -107.8566   0.33138946   -107.52521    14238.176    4.3425284    4.3425284    4.3425284    14238.176    11783.613    41689.949   -10759.033   -43.371867    -2434.721    19203.385    81.889461 
   43900    968.00043   -108.40005   0.87586713   -107.52418   -13195.802    4.3533187    4.3533187    4.3533187   -13195.802   -17391.692    3399.1504   -25594.864    -4349.831   -2745.1325     6447.966    82.501412 
   44000      720.798   -108.17842   0.65219318   -107.52623    2132.0545    4.3450082    4.3450082    4.3450082    2132.0545    6038.3923    2544.0758   -2186.3045   -2751.9614     2729.839   -8919.4645    82.029825 
   44100    461.29387   -107.94512   0.41738839   -107.52773    -2163.145    4.3482283    4.3482283    4.3482283    -2163.145   -10059.358    24773.852   -21203.929    -6410.587   -5600.0227    24753.435    82.212343 
   44200    843.92332   -108.28748   0.76359956   -107.52388    5082.6601    4.3448852    4.3448852    4.3448852    5082.6601    4670.0633    20237.605   -9659.6878   -1322.4203    3048.6724   -16748.925    82.022864 
   44300    738.14557   -108.19816   0.66788962   -107.53027   -16732.112    4.3475553    4.3475553    4.3475553   -16732.112   -10338.805   -14790.745   -25066.786    1303.2981   -2308.2252    10825.651    82.174173 
   44400    609.36194   -108.07937   0.55136349   -107.52801      1454.51    4.3508193    4.3508193    4.3508193      1454.51   -9370.3425    35585.914   -21852.042   -2836.4677   -828.13409    8707.0018    82.359395 
   44500     781.9463   -108.23109   0.70752144   -107.52357    3614.6832    4.3404889    4.3404889    4.3404889    3614.6832   -9553.7745     22287.23   -1889.4059    9134.6815   -1431.3815   -6400.9413    81.774134 
   44600    661.69993   -108.12448      0.59872   -107.52576   -4604.4157    4.3482294    4.3482294    4.3482294   -4604.4157    4148.9799    6267.7701   -24229.997   -8168.1911    -306.6168    9378.1331    82.212402 
   44700     692.9233   -108.14385   0.62697157   -107.51688     741.5178     4.354453     4.354453     4.354453     741.5178    -9917.829    30217.887   -18075.504    6197.6723   -667.33028    1168.1354     82.56592 
   44800    746.63132   -108.19118   0.67556771   -107.51561    4504.8574    4.3325992    4.3325992    4.3325992    4504.8574    11719.447   -389.91971    2185.0448   -327.34527   -2272.6647   -12140.264    81.329019 
   44900    674.19462   -108.13145   0.61002546   -107.52143    -11401.74    4.3558287    4.3558287    4.3558287    -11401.74   -13414.098    5072.6098   -25863.731   -1417.2501    436.88023     20054.54    82.644199 
   45000    676.67213    -108.1314   0.61226717   -107.51913    1578.4509    4.3491217    4.3491217    4.3491217    1578.4509   -6245.6411    21344.903    -10363.91    8805.9254   -2234.5914   -18322.535    82.263027 
   45100    802.62881   -108.24294   0.72623542    -107.5167   -2982.2451    4.3345396    4.3345396    4.3345396   -2982.2451     6480.098   -969.15889   -14457.674   -4352.6855   -163.93737    7664.3828    81.438342 
   45200    690.25911   -108.14223   0.62456095   -107.51767   -2685.3847    4.3587929    4.3587929    4.3587929   -2685.3847   -13901.791    31860.034   -26014.398    5584.4424   -5198.8376    3685.7161    82.813037 
   45300    585.64785   -108.05212   0.52990648   -107.52221    1139.5617    4.3421749    4.3421749    4.3421749    1139.5617    -13414.16    21044.528    -4211.683    7597.7228    3690.2549   -7718.9786     81.86946 
   45400    849.80158    -108.2952   0.76891832   -107.52628   -5188.1529    4.3409291    4.3409291    4.3409291   -5188.1529    5372.9655   -5478.9625   -15458.462   -4023.7651   -4570.0471    13062.726    81.799017 
   45500    734.09111   -108.19008   0.66422106   -107.52586   -3857.0034    4.3536232    4.3536232    4.3536232   -3857.0034   -6661.3648    10238.898   -15148.543    2753.8913   -1116.3414    1298.8479    82.518725 
   45600    453.42201   -107.93923   0.41026577   -107.52896    5198.6603    4.3438198    4.3438198    4.3438198    5198.6603    1491.6123    21595.675   -7491.3063    1588.2631    3117.7437   -8562.3007    81.962539 
   45700    935.25269   -108.37069   0.84623629   -107.52445   -2915.7394     4.343817     4.343817     4.343817   -2915.7394   -420.00922    4484.9706   -12812.179   -6676.2212   -4302.9283     7826.365     81.96238 
   45800    657.17162   -108.12545   0.59462269   -107.53082   -7724.5019    4.3476954    4.3476954    4.3476954   -7724.5019   -15413.452    469.08688   -8229.1402    19973.337    4678.5764   -6748.0544    82.182116 
   45900    628.34023   -108.09545   0.56853544   -107.52692    11392.528    4.3461894    4.3461894    4.3461894    11392.528    4511.3682      43593.7   -13927.484   -8093.4435   -3906.3054    4661.9923    82.096748 
   46000    915.27068   -108.34769   0.82815614   -107.51954   -12849.877    4.3494178    4.3494178    4.3494178   -12849.877   -13458.462   -7821.9655   -17269.205    6485.9598     6664.931    7947.4005    82.279829 
   46100    493.88816   -107.96617   0.44688039   -107.51929    2668.6893    4.3410336    4.3410336    4.3410336    2668.6893   -7596.8663    12682.392    2920.5425    12244.184    -1940.614   -5020.1522    81.804923 
   46200    758.45172   -108.20176   0.68626306    -107.5155    4158.2731    4.3486161    4.3486161    4.3486161    4158.2731    903.54015    23994.216   -12422.936   -11174.883   -820.08593    4032.6998    82.234342 
   46300    768.09169   -108.21132   0.69498551   -107.51633   -12710.649    4.3501832    4.3501832    4.3501832   -12710.649   -14965.771   -15857.531   -7308.6454    23281.021    7005.0382   -1600.0088    82.323275 
   46400     528.4457   -107.99513   0.47814878   -107.51698     22681.45    4.3382288    4.3382288    4.3382288     22681.45    17371.911    41191.152     9481.285   -1094.2689   -2889.0235   -10194.149     81.64646 
   46500    892.57114   -108.32124   0.80761712   -107.51362   -14640.634    4.3528184    4.3528184    4.3528184   -14640.634   -21160.226   -13693.927   -9067.7494    2673.8595    3068.7062    1961.7585     82.47297 
   46600    489.27367   -107.96239    0.4427051   -107.51969   -2729.5409    4.3423657    4.3423657    4.3423657   -2729.5409    -16998.02     4687.388    4122.0098    20623.748    2194.9909   -5928.6156    81.880256 
   46700     759.8865   -108.20776   0.68756127    -107.5202    8763.8891    4.3441454    4.3441454    4.3441454    8763.8891   -2938.1244     30128.93   -899.13798   -6519.2454   -728.92234   -4159.7814    81.980974 
   46800    892.12372    -108.3291   0.80721229   -107.52189   -16781.411    4.3489423    4.3489423    4.3489423   -16781.411   -22667.841   -14052.376   -13624.015    22210.355   -530.80856    6256.2253    82.252846 
   46900    469.95668   -107.95018   0.42522668   -107.52495    14227.199    4.3401947    4.3401947    4.3401947    14227.199   -12037.052    45234.012    9484.6353    4122.9438   -999.16245   -2298.6059    81.757505 
   47000     753.1516   -108.20163    0.6814674   -107.52016   -3880.4718    4.3531098    4.3531098    4.3531098   -3880.4718   -12563.325    16896.559   -15974.649   -2350.1493   -3822.5365   -992.34927    82.489537 
   47100    750.84159   -108.20526   0.67937725   -107.52588   -4268.3218    4.3371116    4.3371116    4.3371116   -4268.3218    -15255.16   -4855.5036    7305.6982    16960.297    1078.0947    2425.7816    81.583398 
   47200    830.14551   -108.28022    0.7511331   -107.52909   -5240.5705    4.3500071    4.3500071    4.3500071   -5240.5705   -4293.4035     5808.436   -17236.744   -2536.2263   -7099.6385     -14292.5    82.313276 
   47300    518.85042   -107.99506   0.46946676   -107.52559    2916.5057    4.3495411    4.3495411    4.3495411    2916.5057   -25210.417     28688.47    5271.4647    15238.588    2768.2876     2283.452    82.286827 
   47400    701.57391    -108.1556   0.63479881    -107.5208   -10400.214     4.339792     4.339792     4.339792   -10400.214   -28495.295    1069.2759   -3774.6232     16836.73   -2330.0324   -3496.7682    81.734754 
   47500    800.24415   -108.24183   0.72407773   -107.51775    1650.5796    4.3517173    4.3517173    4.3517173    1650.5796   -10812.771    21653.357   -5888.8466   -1845.9237   -3576.8975   -3547.4063    82.410399 
   47600    636.41267   -108.09549   0.57583956   -107.51965   -6919.2585    4.3470877    4.3470877    4.3470877   -6919.2585   -32615.943    10428.203    1429.9646    25243.829    6563.8953    5558.1617    82.147659 
   47700    849.77956   -108.28454   0.76889841   -107.51564    -8210.196    4.3476294    4.3476294    4.3476294    -8210.196   -23451.607    7112.7226   -8291.7032   -3075.0739   -3772.8626    756.44748    82.178373 
   47800    554.44947   -108.02049   0.50167753   -107.51882     7672.474    4.3458664    4.3458664    4.3458664     7672.474   -18306.917    39670.534    1653.8049    6704.0408    3766.9022   -8059.6773    82.078442 
   47900    545.63977   -108.02115   0.49370633   -107.52744   -5746.4447    4.3447547    4.3447547    4.3447547   -5746.4447   -26832.531    7233.9051    2359.2917    22770.114    2466.1547    3520.9089    82.015472 
   48000    1159.1059   -108.57107    1.0487834   -107.52229   -8548.0545    4.3485486    4.3485486    4.3485486   -8548.0545   -8140.6281   -3472.6009   -14030.934   -2725.0151    3059.8517   -11785.676    82.230512 
   48100    283.53839   -107.78908    0.2565515   -107.53252   -5622.4138    4.3487087    4.3487087    4.3487087   -5622.4138   -30026.051    343.95501    12814.855    29268.799    2404.8735   -7765.7145    82.239592 
   48200    709.41607   -108.16637   0.64189457   -107.52447    9565.2038    4.3374692    4.3374692    4.3374692    9565.2038   -21352.968    43484.714    6563.8663    4643.8356    3835.5345    2607.1589    81.603582 
   48300    933.51463   -108.36885   0.84466365   -107.52419   -14438.036    4.3554596    4.3554596    4.3554596   -14438.036    -20456.25   -17405.855   -5452.0024    -242.4435     1214.097    109.61909    82.623192 
   48400    537.45399   -108.01549   0.48629967   -107.52919    1218.5479    4.3397813    4.3397813    4.3397813    1218.5479   -22838.281    23638.786    2855.1387    28253.897    2278.6005   -2077.5639    81.734145 
   48500    799.11419   -108.24522   0.72305532   -107.52216    6976.4595    4.3446349    4.3446349    4.3446349    6976.4595   -12413.859    34902.929    -1559.691   -7889.4141   -4409.2222    5300.4832    82.008686 
   48600    657.00776   -108.11729   0.59447443   -107.52282   -17385.305     4.350076     4.350076     4.350076   -17385.305   -32011.815   -17555.501   -2588.5985    19265.627    1793.4688   -8085.7822    82.317188 
   48700    524.46571    -107.9964    0.4745476   -107.52185     12288.33    4.3414196    4.3414196    4.3414196     12288.33   -6950.8625    43712.332    103.52097    12049.371   -493.68696   -900.81293    81.826746 
   48800    1005.7783   -108.42825   0.91004935   -107.51821   -4078.3373    4.3475334    4.3475334    4.3475334   -4078.3373   -6696.5922   -900.30157   -4638.1181   -6828.0125   -7680.9481   -2462.8164    82.172932 
   48900    437.64073   -107.92202   0.39598653   -107.52603   -6295.4271    4.3428044    4.3428044    4.3428044   -6295.4271   -19847.156   -10575.421    11536.295    29534.461    6699.0873   -2717.2879    81.905074 
   49000    759.44384   -108.20635   0.68716075   -107.51919    8027.3546    4.3445789    4.3445789    4.3445789    8027.3546   -16414.359    46343.918   -5847.4947   -5430.7774   -7202.6283    1566.1376    82.005514 
   49100    723.49128   -108.17565   0.65463012   -107.52102   -12363.608    4.3499093    4.3499093    4.3499093   -12363.608   -24294.825   -25291.374    12495.375    11693.498     12.60151    4127.3361    82.307726 
   49200    675.71222   -108.13374   0.61139862   -107.52234    5155.3245    4.3386894    4.3386894    4.3386894    5155.3245   -5390.8041    23439.108   -2582.3298    14306.494    2952.1386   -4373.9283     81.67247 
   49300    798.73243    -108.2426   0.72270989   -107.51989    638.64435    4.3508709    4.3508709    4.3508709    638.64435   -16772.027    18379.515    308.44558   -9285.9076    1641.7635    5909.5931    82.362325 
   49400    536.69334    -108.0115   0.48561141   -107.52589   -8462.3214    4.3442998    4.3442998    4.3442998   -8462.3214   -8857.3618   -25617.359    9087.7566    21200.057    395.08217   -8038.9624    81.989712 
   49500    720.60892     -108.174    0.6520221   -107.52198    4728.4785    4.3449334    4.3449334    4.3449334    4728.4785    3376.2695    16612.786     -5803.62    2713.4636    6672.5692   -4676.1639    82.025589 
   49600    819.74023    -108.2623   0.74171819   -107.52058    7500.2002    4.3439279    4.3439279    4.3439279    7500.2002    9373.0971    5489.7802    7637.7234    7989.2932    2527.9347   -4807.4253    81.968661 
   49700    545.39069   -108.01755   0.49348096   -107.52407   -11631.007    4.3498189    4.3498189    4.3498189   -11631.007   -15211.071   -21847.213    2165.2626    14917.656    1344.7474   -4175.4011    82.302592 
   49800    738.87022   -108.18468   0.66854531   -107.51614    8934.0699    4.3441602    4.3441602    4.3441602    8934.0699   -19.406174    30175.861   -3354.2447   -4324.6135    9246.0464   -3393.9207     81.98181 
   49900    698.51021   -108.15284   0.63202672   -107.52081   -3857.8727    4.3410492    4.3410492    4.3410492   -3857.8727    -9977.668   -17459.376    15863.426    8181.5881   -4644.7472    5840.5163    81.805804 
   50000    659.32644   -108.11734   0.59657242   -107.52077   -873.39445    4.3534255    4.3534255    4.3534255   -873.39445    4462.1641    10592.149   -17674.497    7196.3801    8798.9307   -5075.9873    82.507486 
   50100    895.95129   -108.32559   0.81067555   -107.51492     7341.397    4.3424598    4.3424598    4.3424598     7341.397    4546.7666    6785.1171    10692.307   -4228.6968    -4555.395    2174.9315    81.885578 
   50200    446.04237   -107.92433   0.40358851   -107.52074    4273.9257    4.3420428    4.3420428    4.3420428    4273.9257    5081.0973   -753.47999    8494.1597    19701.728    4774.2137    141.00123    81.861988 
   50300    837.13526   -108.27291   0.75745758   -107.51545   -1377.3856    4.3545067    4.3545067    4.3545067   -1377.3856    -4527.321    15030.931   -14635.767   -4274.1069    2633.7642   -1287.4249    82.568973 
   50400    836.40139   -108.27177   0.75679355   -107.51498    5308.6594    4.3379015    4.3379015    4.3379015    5308.6594    9317.8941   -7165.6057     13773.69    18333.586   -5156.0837   -1324.9853    81.627983 
   50500    435.38524   -107.91568   0.39394571   -107.52173    544.96459    4.3491198    4.3491198    4.3491198    544.96459   -13280.247     17826.97   -2911.8287    7476.6114    7269.9988    1030.9039    82.262916 
   50600    977.20897   -108.39969   0.88419922   -107.51549    -7104.585    4.3484469    4.3484469    4.3484469    -7104.585   -12545.316   -602.63946   -8165.7996   -1452.0341   -7220.5872   -5352.1118    82.224742 
   50700     462.4197   -107.94351   0.41840706    -107.5251    10889.407    4.3374244    4.3374244    4.3374244    10889.407    7709.1503    -607.7315    25566.801    12665.798     421.1579     2657.618    81.601054 
   50800     790.8895   -108.23972   0.71561344   -107.52411   -7576.8687    4.3572622    4.3572622    4.3572622   -7576.8687   -18594.795    16305.695   -20441.506   -9472.7551    891.98145    1547.6747    82.725819 
   50900    806.40122   -108.25245   0.72964877    -107.5228     14267.77    4.3359648    4.3359648    4.3359648     14267.77    13819.815    7844.6345    21138.861    10692.137   -4799.3418    1866.6502    81.518701 
   51000    595.28858   -108.07028   0.53862961   -107.53165   -15033.073    4.3474331    4.3474331    4.3474331   -15033.073   -35507.667   -9282.1167   -309.43469    12638.484    713.08209    4588.9243    82.167243 
   51100    788.75764   -108.23567   0.71368449   -107.52199    7373.6648    4.3516323    4.3516323    4.3516323    7373.6648   -7366.7995    32705.131   -3217.3375   -6413.6329    1839.7425   -2921.1818    82.405569 
   51200     738.0217   -108.19007   0.66777755   -107.52229    426.53868    4.3365842    4.3365842    4.3365842    426.53868   -8502.0659    384.47837    9397.2036    18143.751   -3974.3348    1214.3564    81.553639 
   51300    681.68364   -108.13925   0.61680169   -107.52244   -11803.366    4.3533489    4.3533489    4.3533489   -11803.366   -27034.969   -4947.9086   -3427.2214    315.44768    2773.4052   -4814.9288    82.503131 
   51400    707.86069   -108.15605   0.64048723   -107.51556    7809.0898    4.3444069    4.3444069    4.3444069    7809.0898   -11476.903    34421.068    483.10473    3190.7232   -3012.2169   -1516.9503    81.995779 
   51500    613.28872   -108.07558   0.55491652   -107.52067   -10584.102    4.3444864    4.3444864    4.3444864   -10584.102    -22256.88    -18323.96    8828.5351    17185.746   -4075.0634   -2759.3345    82.000276 
   51600    849.70517   -108.28495    0.7688311   -107.51612    7480.2114    4.3466214    4.3466214    4.3466214    7480.2114   -2564.0107    29194.459   -4189.8142    -4929.282    4150.0827    337.81437    82.121231 
   51700    595.84454   -108.06092   0.53913266   -107.52179   -679.91202    4.3449046    4.3449046    4.3449046   -679.91202   -11713.449    5087.6594    4586.0538    11636.591   -11363.541    198.53495    82.023958 
   51800      689.934   -108.14684   0.62426678   -107.52257   -16295.928    4.3464776    4.3464776    4.3464776   -16295.928   -34247.589   -13290.486   -1349.7089    13476.711    5310.7301    2878.9864     82.11308 
   51900    705.15436   -108.15906   0.63803848   -107.52102    7024.2297    4.3420956    4.3420956    4.3420956    7024.2297   -4627.7753    33476.684   -7776.2191   -4967.2911   -10940.783   -1500.7843    81.864975 
   52000    711.61131   -108.16864   0.64388087   -107.52476   -5550.2382    4.3449665    4.3449665    4.3449665   -5550.2382   -20941.001    857.13323    3433.1532     28454.55   -4206.3593    2800.7793    82.027469 
   52100    832.14665   -108.27264   0.75294378    -107.5197   -7532.8487    4.3464228    4.3464228    4.3464228   -7532.8487   -18751.056    3978.5387   -7826.0288   -11656.942    2593.5187   -4936.3713    82.109972 
   52200    516.71986   -107.98667   0.46753899   -107.51913    6841.8855     4.339026     4.339026     4.339026    6841.8855   -5286.8951     24221.38    1591.1719    7515.5624   -15472.271    3417.6192    81.691477 
   52300    672.19338   -108.12774    0.6082147   -107.51952   -9329.7672    4.3495818    4.3495818    4.3495818   -9329.7672   -27537.236   -10521.464    10069.399     10517.76    7090.6443   -3080.1481    82.289137 
   52400      900.157   -108.32783   0.81448097   -107.51335    4594.8012    4.3421266    4.3421266    4.3421266    4594.8012    1442.6129    19184.389   -6842.5988   -11806.148   -9428.1139    5529.3979     81.86673 
   52500    546.42211   -108.01378    0.4944142   -107.51937   -16.492743    4.3427529    4.3427529    4.3427529   -16.492743   -20428.557    14796.733    5582.3455    17885.167   -4719.8254     215.6854    81.902159 
   52600    784.25952   -108.22423   0.70961449   -107.51461   -17398.878    4.3498361    4.3498361    4.3498361   -17398.878   -39462.132   -10989.129   -1745.3734    7743.5467    1414.4335    7194.2736    82.303569 
   52700    557.68322   -108.02247   0.50460349   -107.51786    10023.864    4.3363974    4.3363974    4.3363974    10023.864   -7831.0658    42611.668   -4709.0104   -455.07753   -11938.596    3466.6341    81.543104 
   52800    777.35693   -108.22537   0.70336889   -107.52201   -15118.418    4.3489341    4.3489341    4.3489341   -15118.418   -19915.658    -19213.37   -6226.2247    29908.155    1473.8325   -224.84872     82.25238 
   52900     843.3952   -108.28134    0.7631217   -107.51822     2939.033    4.3429453    4.3429453    4.3429453     2939.033   -10315.386    21344.334   -2211.8487   -8705.5595   -1626.8825   -2656.9512    81.913046 
   53000    486.04314   -107.96102   0.43978205   -107.52124    9632.5355    4.3358312    4.3358312    4.3358312    9632.5355    -6770.845    28092.519    7575.9329    9230.1799   -9045.8249   -409.15836    81.511163 
   53100    667.22407   -108.12297   0.60371836   -107.51926   -17843.257    4.3546736    4.3546736    4.3546736   -17843.257    -38491.63   -7183.4041   -7854.7367    13717.273    5856.2136   -9616.8229    82.578467 
   53200    875.93257   -108.30607    0.7925622   -107.51351    15003.566    4.3351699    4.3351699    4.3351699    15003.566    7144.7164     35029.54    2836.4413   -11684.095   -8894.6492    2241.4897    81.473872 
   53300     600.6251   -108.06499   0.54345821   -107.52153   -10223.578    4.3450767    4.3450767    4.3450767   -10223.578   -26564.146    2185.9178   -6292.5067    17084.215   -6371.4792   -4566.3703    82.033707 
   53400    705.34391   -108.15497   0.63820999   -107.51676   -8802.4867    4.3458124    4.3458124    4.3458124   -8802.4867   -28239.194    7323.1587   -5491.4245    10496.565    9317.1107    412.16338    82.075385 
   53500    596.34266   -108.05727   0.53958337   -107.51769     11182.13    4.3370182    4.3370182    4.3370182     11182.13   -6244.2266    43672.354    -3881.738   -1773.5518     -17518.3    2528.8654    81.578127 
   53600    779.95036   -108.22612   0.70571547   -107.52041   -14470.642    4.3464968    4.3464968    4.3464968   -14470.642   -18556.982   -15148.909   -9706.0362    32557.159    8381.5952   -713.65137    82.114169 
   53700    782.91751   -108.22459   0.70840022   -107.51619    14275.388    4.3425129    4.3425129    4.3425129    14275.388    5340.0876    47890.645    -10404.57      -3339.1   -1815.8001    1453.6547     81.88858 
   53800    636.35083   -108.09405   0.57578361   -107.51827   -12289.862    4.3450609    4.3450609    4.3450609   -12289.862   -25460.178   -5376.6132   -6032.7935    19014.869   -12728.606    581.39632    82.032815 
   53900    552.87563   -108.01847   0.50025349   -107.51822    9168.0274    4.3375707    4.3375707    4.3375707    9168.0274   -6742.4307    28378.973    5867.5401    11001.049    10030.097   -1663.8813    81.609309 
   54000    887.93009   -108.32022    0.8034178    -107.5168   -5365.4441    4.3514536    4.3514536    4.3514536   -5365.4441    -8767.576    14829.999   -22158.755   -6467.9744   -14144.964   -1194.2249    82.395419 
   54100    649.98824   -108.10787   0.58812302   -107.51974   -3611.5348    4.3418946    4.3418946    4.3418946   -3611.5348   -16716.795    2447.2212    3434.9697    15534.571    235.89218   -61.195204    81.853608 
   54200    636.11145   -108.09217   0.57556701    -107.5166    8230.3089     4.335578     4.335578     4.335578    8230.3089   -10642.187    36167.608   -834.49509     1551.731    1519.8063   -1348.1334    81.496884 
   54300    717.69417    -108.1645   0.64938477   -107.51512   -16504.711    4.3527298    4.3527298    4.3527298   -16504.711    -27299.01   -8177.8236     -14037.3    706.34086   -11289.101    4726.8778    82.467939 
   54400    608.45879   -108.06855    0.5505463     -107.518    3269.9574    4.3372242    4.3372242    4.3372242    3269.9574   -2532.5375    12349.608   -7.1986833    22328.955    6940.5481    2544.3806    81.589751 
   54500    885.37332   -108.31888   0.80110438   -107.51777    5577.5085     4.340521     4.340521     4.340521    5577.5085     7098.424    18581.626    -8947.525   -5090.0259   -4011.4298   -812.72245    81.775946 
   54600    626.93134   -108.08541   0.56726065   -107.51815    -17656.07    4.3522896    4.3522896    4.3522896    -17656.07    -32186.81   -11739.927   -9041.4717    15389.626    -4358.786    1599.0603    82.442917 
   54700    468.35347   -107.94131   0.42377606   -107.51754    6510.4624    4.3353559    4.3353559    4.3353559    6510.4624   -16493.316    27972.625    8052.0778    13219.986    11066.245   -723.01613    81.484361 
   54800    1013.0282   -108.43117   0.91660924   -107.51456   -5601.2251    4.3435189    4.3435189    4.3435189   -5601.2251   -11806.679     5979.107   -10976.103   -4468.9622   -4433.7038   -7197.4005    81.945508 
   54900    522.19614   -107.99308   0.47249404   -107.52058    2476.9455    4.3466554    4.3466554    4.3466554    2476.9455   -5094.4401    6420.6626    6104.6141    17980.349    3160.3819    4332.8531    82.123158 
   55000    796.47047   -108.23692   0.72066322   -107.51626   -3565.1876    4.3407782    4.3407782    4.3407782   -3565.1876   -7891.4151    12609.996   -15414.143    -1564.982    12491.133   -8085.2372    81.790487 
   55100    705.11681    -108.1538    0.6380045   -107.51579    10409.337     4.338742     4.338742     4.338742    10409.337   -4807.4525    24015.536    12019.928    6756.7295    -11241.15    4306.3877    81.675436 
   55200    469.70331   -107.94772   0.42499743   -107.52272   -13543.989    4.3523949    4.3523949    4.3523949   -13543.989   -24468.573   -5948.5554   -10214.837    12908.222    12429.642   -360.30162    82.448903 
   55300    1020.0416   -108.43711   0.92295503   -107.51416    4452.4156    4.3386049    4.3386049    4.3386049    4452.4156   -1148.4356    16090.649   -1584.9666   -1835.6471    3071.3193     6319.618    81.667698 
   55400    564.60324   -108.02877   0.51086487    -107.5179    12805.879    4.3371986    4.3371986    4.3371986    12805.879    1220.6215    16633.763    20563.251    16341.037   -2427.6247     1979.556     81.58831 
   55500    528.36929   -107.99642   0.47807964   -107.51834   -23984.752    4.3547558    4.3547558    4.3547558   -23984.752   -40842.733   -17676.239   -13435.283    4234.3315    12175.323     8134.517    82.583142 
   55600    857.70347   -108.28698   0.77606813   -107.51091    24495.562    4.3312147    4.3312147    4.3312147    24495.562    20194.788    31401.652    21890.246    978.76815   -723.34043     2517.261    81.251077 
   55700    711.17161   -108.16508   0.64348301    -107.5216   -12872.295    4.3468441    4.3468441    4.3468441   -12872.295   -12099.683   -22600.045   -3917.1563    19555.677    859.02413   -261.30325    82.133855 
   55800     682.6477   -108.13499   0.61767399   -107.51731   -3830.5107    4.3492623    4.3492623    4.3492623   -3830.5107   -8047.0241    6610.7039   -10055.212   -8048.9151    9111.2675    8394.8392    82.271003 
   55900    833.19369   -108.26374   0.75389116   -107.50985    9682.2571    4.3327827    4.3327827    4.3327827    9682.2571    4588.1931    9188.6739    15269.904    14259.789    416.34909       -11365    81.339357 
   56000    369.81723   -107.85416    0.3346184   -107.51954   -12273.104    4.3491916    4.3491916    4.3491916   -12273.104   -31305.034   -4112.0477   -1402.2306    9167.8676    9395.4022    11040.924    82.266993 
   56100    927.91074   -108.35419   0.83959313    -107.5146    4356.0982    4.3418485    4.3418485    4.3418485    4356.0982    8435.2235     12926.49   -8293.4193   -6844.5027     12263.57   -5562.7203    81.851001 
   56200    839.65231   -108.27763   0.75973505   -107.51789    544.17853    4.3406339    4.3406339    4.3406339    544.17853   -4246.5959   -8507.1997    14386.331    20157.371   -4131.9428     4443.274    81.782327 
   56300    411.35175   -107.89635    0.3721997   -107.52415   -709.50955    4.3456543    4.3456543    4.3456543   -709.50955   -7243.9193    21740.523   -16625.133   -1718.2668    19320.267    6550.7549    82.066429 
   56400     914.7023   -108.34616   0.82764186   -107.51851    5791.1516    4.3399317    4.3399317    4.3399317    5791.1516    3555.0369    5179.8777    8638.5402     511.3782   -4589.8447    2666.6655    81.742644 
   56500    560.86823   -108.03093   0.50748536   -107.52345    1357.7466    4.3428281    4.3428281    4.3428281    1357.7466   -9694.2803    20608.002    -6840.482    14775.657    10739.776     2209.356    81.906414 
   56600    754.43041    -108.2037   0.68262449   -107.52108   -464.03393    4.3425342    4.3425342    4.3425342   -464.03393    8267.1489    4625.8082   -14285.059   -9771.7318    12878.584    6792.7898    81.889789 
   56700    886.45197     -108.318   0.80208037   -107.51592   -3202.7235     4.343511     4.343511     4.343511   -3202.7235    -18013.59    7519.3145    886.10495    13366.238   -6563.8932   -4746.9007     81.94506 
   56800     369.5359   -107.85665   0.33436385   -107.52229   -1773.5081    4.3421573    4.3421573    4.3421573   -1773.5081   -7310.4297    6395.0235   -4405.1181    9760.1206     21048.91    3134.1336    81.868464 
   56900    940.57783   -108.36771   0.85105459   -107.51665    1079.5856    4.3427263    4.3427263    4.3427263    1079.5856    8982.4582    1088.9062   -6832.6075   -2341.2973    -3311.009    1393.2031    81.900658 
   57000    663.03715   -108.11857   0.59992994   -107.51864    6365.3088    4.3442489    4.3442489    4.3442489    6365.3088    2635.2984        15638    822.62757    14884.696    5154.1187   -211.86526    81.986831 
   57100    663.89069   -108.11945   0.60070225   -107.51875   -3077.5061    4.3400227    4.3400227    4.3400227   -3077.5061    4549.3383    858.56951   -14640.426    4019.6332    16911.507    7561.8092    81.747788 
   57200    797.69866   -108.23619   0.72177451   -107.51441    2069.8878     4.345805     4.345805     4.345805    2069.8878   -9076.4805    14026.678    1259.4655   -5565.1319   -7268.3185    4561.1346    82.074964 
   57300    570.99192   -108.03531   0.51664549   -107.51867   -9677.3114    4.3424504    4.3424504    4.3424504   -9677.3114   -15590.099    -5354.221   -8087.6142    18932.826    14156.152    3050.2271    81.885047 
   57400    718.62557   -108.16928   0.65022752   -107.51905     2278.632    4.3409457    4.3409457    4.3409457     2278.632    14943.367   -670.32839   -7437.1423   -11344.841    6830.1433    7250.3027    81.799954 
   57500    874.39939   -108.30765   0.79117494   -107.51648   -3949.7438     4.346484     4.346484     4.346484   -3949.7438   -4925.1846   -3017.0094   -3907.0374    10066.326   -5218.4887    763.31909    82.113441 
   57600    402.36104    -107.8861   0.36406473   -107.52203     2.144331    4.3417117    4.3417117    4.3417117     2.144331    1276.6647    6475.1821   -7745.4138    11181.965    23039.378     3158.649    81.843267 
   57700    933.81044   -108.35989   0.84493131   -107.51496    1305.8423    4.3414685    4.3414685    4.3414685    1305.8423    4123.1744    3875.4641   -4081.1117   -6995.8647   -1394.2588    5250.9664     81.82951 
   57800    626.19332    -108.0859   0.56659287    -107.5193    -2935.224    4.3458907    4.3458907    4.3458907    -2935.224    -7182.764    205.79421   -1828.7022    13172.404    10258.404   -4087.8111    82.079821 
   57900    611.78898   -108.07463   0.55355952   -107.52108   -10179.407    4.3425488    4.3425488    4.3425488   -10179.407   -8683.9766   -5195.8191   -16658.424    1276.6972    20232.603    6435.7825    81.890612 
   58000     949.1788    -108.3725   0.85883692   -107.51367    1567.9466    4.3418636    4.3418636    4.3418636    1567.9466   -2581.2785    1364.6245    5920.4937    259.99921   -4160.5651   -3649.5665    81.851854 
   58100    378.88049   -107.86521   0.34281903   -107.52239    -6794.069     4.344937     4.344937     4.344937    -6794.069   -6684.1448   -782.22678   -12915.836    10004.649    23716.032    11.961317    82.025798 
   58200    829.95834   -108.26838   0.75096374   -107.51742   -5507.6243    4.3432752    4.3432752    4.3432752   -5507.6243    7327.8814   -16916.371   -6934.3838    3397.8485    6434.1091    6205.2647    81.931717 
   58300    808.60343   -108.24912   0.73164138   -107.51748    6349.5042    4.3430968    4.3430968    4.3430968    6349.5042    24296.661     2836.191   -8084.3399    4047.3943    19.701707   -871.59341    81.921619 
   58400    487.76903   -107.96549   0.44134367   -107.52415   -10929.624    4.3427294    4.3427294    4.3427294   -10929.624   -28257.619    -1216.268   -3314.9844    12513.829    24546.473    5089.4394    81.900831 
   58500    886.51373   -108.32028   0.80213625   -107.51814    1119.3738    4.3454999    4.3454999    4.3454999    1119.3738    17346.934   -1247.2304   -12741.582   -430.06977   -11377.718    10375.808    82.057677 
   58600    607.46231   -108.06981   0.54964467   -107.52017    4042.4455    4.3413345    4.3413345    4.3413345    4042.4455   -8980.1497    3548.6416    17558.845    4363.7443    15846.718   -2620.2417    81.821937 
   58700    572.88133   -108.04028   0.51835507   -107.52192    -7939.166    4.3416696    4.3416696    4.3416696    -7939.166    13214.962   -17608.408   -19424.053    4668.9394    11653.506    12023.797    81.840885 
   58800    857.18187   -108.29067   0.77559617   -107.51507    4913.6043    4.3481986    4.3481986    4.3481986    4913.6043    17052.813   -12515.628    10203.628   -5790.6865   -7022.4211     4444.603    82.210655 
   58900    706.57702   -108.15925   0.63932574   -107.51992   -8144.1001    4.3392273    4.3392273    4.3392273   -8144.1001   -19543.451    7219.3881   -12108.238    3323.1377    26249.698   -929.51381    81.702851 
   59000    597.74713   -108.06055   0.54085417    -107.5197   -811.64907    4.3449451    4.3449451    4.3449451   -811.64907    15625.527   -15194.566    -2865.908   -2919.8856   -3356.7223    16803.723    82.026256 
   59100    851.50505   -108.28435   0.77045967   -107.51389   -2031.9181    4.3459323    4.3459323    4.3459323   -2031.9181   -6910.2601    2617.3901   -1802.8845   -2389.3886    11165.095   -5395.5232    82.082175 
   59200    516.26618    -107.9855   0.46712849   -107.51838    6674.6332    4.3359982    4.3359982    4.3359982    6674.6332    13046.324    2690.9023    4286.6737    10326.091    15956.499    9666.0498    81.520583 
   59300    791.29351   -108.23403     0.715979   -107.51805   -2722.5717    4.3515016    4.3515016    4.3515016   -2722.5717    2382.8852   -9209.6231   -1340.9772   -3598.8797   -3816.0633    7883.7163    82.398148 
   59400    833.92912    -108.2711   0.75455659   -107.51654    522.76086    4.3396781    4.3396781    4.3396781    522.76086   -8919.1561     8272.837    2214.6017    11465.101    7961.1656   -3796.0846    81.728318 
   59500    378.95489   -107.86254   0.34288635   -107.51966    1489.6511    4.3394148    4.3394148    4.3394148    1489.6511    11654.782   -12253.767     5067.939    3958.9843    8397.4564    12859.072     81.71344 
   59600    937.03037   -108.36352   0.84784477   -107.51567   -15735.648    4.3485335    4.3485335    4.3485335   -15735.648    -12723.58   -23074.098   -11409.265   -980.16497   -11594.312    4380.1728    82.229653 
   59700    558.00881   -108.02402   0.50489809   -107.51913    21800.226    4.3363001    4.3363001    4.3363001    21800.226    8022.4131    25369.545    32008.718    5703.7345    17045.752   -1021.9835    81.537614 
   59800    834.65783   -108.27486   0.75521594   -107.51965   -16602.672    4.3495924    4.3495924    4.3495924   -16602.672   -8124.2854   -19437.878   -22245.853    3275.2342   -3668.9087    20372.176    82.289736 
   59900    646.09553   -108.10019   0.58460081   -107.51559    22153.145    4.3376803    4.3376803    4.3376803    22153.145    5139.0094    24408.664    36911.762   -6679.3599    4244.4142   -2336.4318    81.615497 
   60000    574.24377   -108.03889   0.51958783   -107.51931   -16759.998    4.3459245    4.3459245    4.3459245   -16759.998    -7719.234   -23416.788   -19143.971    6330.8688    13747.148    11461.861    82.081737 
   60100    735.62632   -108.18295   0.66561016   -107.51734   -5984.4701    4.3432677    4.3432677    4.3432677   -5984.4701   -1081.5801    -21293.43    4421.6003   -4298.2606   -4141.7533     15116.99    81.931289 
   60200    895.49517   -108.32607   0.81026285   -107.51581   -2203.5404    4.3411343    4.3411343    4.3411343   -2203.5404   -15913.839    9875.6203   -572.40251   -7360.3148    11799.116   -6862.1456    81.810618 
   60300    568.44543   -108.03355   0.51434137   -107.51921   -17829.361    4.3464881    4.3464881    4.3464881   -17829.361   -1224.6952   -26053.603   -26209.784    9234.3574    1210.5179     22974.92    82.113676 
   60400    625.83188   -108.08314   0.56626584   -107.51688    17462.977    4.3385253    4.3385253    4.3385253    17462.977    6032.8414    16278.578    30077.511   -7553.9331   -1472.5121    3755.7743    81.663203 
   60500    745.10574   -108.19092   0.67418733   -107.51673   -12776.335    4.3490861    4.3490861    4.3490861   -12776.335    -13011.59   -8973.0459    -16344.37    7926.8443    463.02995    5406.3875    82.261007 
   60600    522.60996   -107.99202   0.47286847   -107.51915    8912.7215    4.3389556    4.3389556    4.3389556    8912.7215    9700.2913   -6029.6627    23067.536    3530.3433     18.45559    24593.228    81.687502 
   60700    1058.2599   -108.47131   0.95753578   -107.51378   -6965.7673    4.3419063    4.3419063    4.3419063   -6965.7673   -15128.271      4119.27   -9888.3013   -695.08034   -10299.206   -5310.6001     81.85427 
   60800     348.4556   -107.83664   0.31528995   -107.52135   -8370.6857    4.3475517    4.3475517    4.3475517   -8370.6857   -114.72051   -19502.656   -5494.6807    5272.4985    9596.3292    13602.466    82.173968 
   60900    811.09621   -108.25112    0.7338969   -107.51723    -4441.916    4.3379048    4.3379048    4.3379048    -4441.916   -5020.2347    -9434.051    1128.5376    5030.5003   -6461.0384    14646.115    81.628167 
   61000    749.39517   -108.19397    0.6780685    -107.5159    9549.8347    4.3447735    4.3447735    4.3447735    9549.8347     -6219.45    21697.484     13171.47    -3127.721    1832.0823   -5996.7316    82.016538 
   61100    647.19702   -108.10424   0.58559747   -107.51864   -6779.3677      4.34459      4.34459      4.34459   -6779.3677     3121.582   -17639.159   -5820.5261    7442.1816    7976.5639    20024.641    82.006143 
   61200    755.93506     -108.198   0.68398593   -107.51401    11424.084    4.3399184    4.3399184    4.3399184    11424.084   -1537.9518    16702.062    19108.143   -4418.4878   -6159.0505    252.08545    81.741891 
   61300    614.97665   -108.07243    0.5564438   -107.51598   -5801.6035    4.3454612    4.3454612    4.3454612   -5801.6035   -2049.8444   -13658.083   -1696.8827    -2527.789    7994.0194    3083.5177    82.055487 
   61400    649.63949   -108.10534   0.58780746   -107.51753     -7455.26    4.3427449    4.3427449    4.3427449     -7455.26   -3714.2447    -17864.43   -787.10568    5807.3199   -79.141506    19500.556    81.901709 
   61500     845.3491   -108.27845   0.76488963   -107.51356    7102.7481    4.3414623    4.3414623    4.3414623    7102.7481    -10283.15    18427.763    13163.631   -8072.2079    -6402.601   -6112.7444     81.82916 
   61600    674.18871   -108.12767   0.61002011   -107.51765   -13791.108    4.3461338    4.3461338    4.3461338   -13791.108    3487.0253   -21878.866   -22981.485    5920.2996   -1044.8265    16270.287    82.093598 
   61700    611.18858   -108.06941   0.55301627   -107.51639    11768.571    4.3416085    4.3416085    4.3416085    11768.571    600.98901    2667.7383    32036.985    6016.9686   -3648.8537     7872.924     81.83743 
   61800    878.87273   -108.30916   0.79522251   -107.51394   -6120.1562    4.3430958    4.3430958    4.3430958   -6120.1562   -14185.788    5864.6845   -10039.365   -1270.2192   -14016.321    -91.73072    81.921561 
   61900    434.75225   -107.91332   0.39337297   -107.51994     5359.276     4.342945     4.342945     4.342945     5359.276    2103.8336   -7069.6742    21043.668    10498.542    5831.8079    18985.593    81.913031 
   62000    976.29328   -108.39715   0.88337068   -107.51378   -9190.4057    4.3447919    4.3447919    4.3447919   -9190.4057    -18810.15   -675.93828   -8085.1291     6846.606    -14107.44   -202.61429    82.017576 
   62100    568.97721   -108.03247   0.51482254   -107.51764     3232.383    4.3403896    4.3403896    4.3403896     3232.383    12060.915   -6450.2307    4086.4649   -1497.5776   -3436.4618    4885.6733    81.768523 
   62200    674.17346    -108.1293   0.61000631   -107.51929   -6205.9224    4.3425517    4.3425517    4.3425517   -6205.9224   -1527.2508   -22420.757    5330.2408    12973.691     2336.491    12072.745    81.890775 
   62300    736.45055   -108.18216   0.66635593    -107.5158   -4827.0082    4.3485651    4.3485651    4.3485651   -4827.0082   -20611.259    11317.923   -5187.6888   -855.33726   -12521.986   -5693.4474    82.231446 
   62400    670.12395    -108.1214   0.60634224   -107.51506    5149.5736    4.3345315    4.3345315    4.3345315    5149.5736    9502.9595   -5978.0843    11923.846    683.13692    4620.6719    8991.0654    81.437887 
   62500    736.20527   -108.18509     0.666134   -107.51895   -10478.389    4.3479216    4.3479216    4.3479216   -10478.389   -19323.241   -4106.4632   -8005.4627    7277.7976   -4210.8008     2737.696    82.194948 
   62600     682.2337   -108.13496   0.61729939   -107.51766   -2621.5036    4.3434738    4.3434738    4.3434738   -2621.5036   -6000.9955    1.1730411   -1864.6885   -8086.3002   -15669.367   -3803.7605    81.942952 
   62700    716.59689   -108.16525   0.64839193   -107.51685     -4217.93    4.3364162    4.3364162    4.3364162     -4217.93   -2105.4587   -9884.9903   -663.34098    6927.3231    5390.1366     12757.16    81.544165 
   62800    547.78143   -108.01334   0.49564415    -107.5177   -11828.415    4.3528986    4.3528986    4.3528986   -11828.415   -22383.645   -6325.6678   -6775.9329    5316.6134   -21100.612   -482.03686     82.47753 
   62900    921.56559   -108.34824   0.83385191   -107.51438    3495.8731    4.3334194    4.3334194    4.3334194    3495.8731    9980.0839    2341.3934   -1833.8581   -629.79007   -9078.4915    8992.5969    81.375221 
   63000    641.27937   -108.10321   0.58024305   -107.52296   -5120.3493    4.3425485    4.3425485    4.3425485   -5120.3493    4966.0836   -21966.073    1638.9415    15947.052   -298.84562    11993.276    81.890596 
   63100    628.46629   -108.08751    0.5686495   -107.51886   -5999.4289    4.3475068    4.3475068    4.3475068   -5999.4289   -24616.223    11047.937   -4430.0004     1452.933   -24618.529    459.97334    82.171424 
   63200    814.29545   -108.25134   0.73679164   -107.51455   -5378.6773    4.3409587    4.3409587    4.3409587   -5378.6773   -9599.8697   -14039.257     7503.095    5211.9552    8637.5112    10209.489    81.800688 
   63300    483.57402   -107.95787   0.43754794   -107.52032     1299.176    4.3404508    4.3404508    4.3404508     1299.176    1224.7842    4776.3824   -2103.6386    9955.6855   -11615.949    3028.8951     81.77198 
   63400    1020.4406   -108.43955   0.92331606   -107.51623   -6403.0118    4.3427019    4.3427019    4.3427019   -6403.0118   -2645.3501   -6237.0384   -10326.647   -4460.0623    -8016.916   -3079.3407    81.899275 
   63500    524.90524   -107.99307    0.4749453   -107.51812   -2601.8829    4.3476972    4.3476972    4.3476972   -2601.8829    13122.445   -24483.204    3555.1103    7047.6051     2272.585    10722.282     82.18222 
   63600    619.84621   -108.07912   0.56084987   -107.51827    -5419.315    4.3335301    4.3335301    4.3335301    -5419.315    -22698.09     8180.352   -1740.2072    3483.7459   -18810.974   -6195.2464    81.381458 
   63700    783.55775   -108.22594   0.70897952   -107.51696    1886.0065    4.3484037    4.3484037    4.3484037    1886.0065   -2324.0078   -3403.6039    11385.631   -3372.2671   -1942.9942    4003.2027    82.222289 
   63800    749.77254   -108.19945   0.67840995   -107.52104   -14338.373    4.3445956    4.3445956    4.3445956   -14338.373   -6619.9464   -24850.061   -11545.111    8233.5556   -7278.3284    3892.5664     82.00646 
   63900    604.03099   -108.06391   0.54653994   -107.51737     15255.58    4.3319425    4.3319425    4.3319425     15255.58    2611.3543    31259.579    11895.807    4787.2212   -16786.296    -1596.861    81.292046 
   64000    888.65734   -108.31725   0.80407584   -107.51317   -9648.8386    4.3522425    4.3522425    4.3522425   -9648.8386   -1135.2946   -21451.333   -6359.8884   -7248.1351    1726.5223     3302.242    82.440241 
   64100    363.51147   -107.84916   0.32891282   -107.52025    8059.3103    4.3389152    4.3389152    4.3389152    8059.3103    445.07296    14817.624    8915.2339     14435.35   -17653.224    5138.9535    81.685222 
   64200    909.57259   -108.34003    0.8230004   -107.51703    4406.2876    4.3389242    4.3389242    4.3389242    4406.2876    6223.6416    7713.1931   -717.97183    -8069.322   -8361.0599   -2338.6265    81.685729 
   64300    825.45042   -108.26384   0.74688489   -107.51695   -1921.5194    4.3473977    4.3473977    4.3473977   -1921.5194   -691.68562   -9657.5918    4584.7191   -4003.4622    2977.5371    4107.9036    82.165237 
   64400    453.65806   -107.93108   0.41047935    -107.5206   -6176.4611    4.3395902    4.3395902    4.3395902   -6176.4611   -25992.911    15800.517   -8336.9892    11841.091   -20845.819    441.07707     81.72335 
   64500    820.81281   -108.25848   0.74268868   -107.51579    484.48425    4.3426026    4.3426026    4.3426026    484.48425     -12398.1    10201.194    3650.3582   -11018.719    5389.3205   -8597.3393    81.893656 
   64600     696.3994   -108.14835   0.63011681   -107.51823      6434.68    4.3408776    4.3408776    4.3408776      6434.68    2998.0251    7447.2817    8858.7333    10923.148   -10042.394    7700.6486    81.796105 
   64700    668.82495    -108.1267   0.60516687   -107.52153   -5644.2705    4.3460841    4.3460841    4.3460841   -5644.2705   -15211.224    10637.599   -12359.187    7693.1574   -14884.506   -9442.1439    82.090782 
   64800    864.80002   -108.29764   0.78248923   -107.51515    7557.9317    4.3391819    4.3391819    4.3391819    7557.9317    6522.5936    3052.8431    13098.358   -294.26897    9196.6527    1473.7063    81.700282 
   64900    486.14027    -107.9608   0.43986994   -107.52093   -8749.2225    4.3419672    4.3419672    4.3419672   -8749.2225   -33509.375    13933.705   -6671.9977    10423.894   -19145.456    -955.7619    81.857716 
   65000     683.7886   -108.13781   0.61870629    -107.5191   -9476.0975    4.3469425    4.3469425    4.3469425   -9476.0975   -17283.208   -4927.0595   -6218.0252    3775.3914   -2951.9382   -4790.6888    82.139429 
   65100     965.5357   -108.38822   0.87363699   -107.51458    10056.349    4.3333563    4.3333563    4.3333563    10056.349    2440.0581     20948.28    6780.7099   -6335.0486    732.75223   -1957.2163    81.371661 
   65200    465.82273   -107.94417    0.4214862   -107.52268   -9795.4828    4.3503629    4.3503629    4.3503629   -9795.4828     -30807.3    736.83629    684.01511    9535.0342   -19318.166     2243.291    82.333476 
   65300    795.82356   -108.23536   0.72007788   -107.51528   -1962.6587    4.3403912    4.3403912    4.3403912   -1962.6587   -8778.8689    3227.7894   -336.89675   -7097.8416    2837.3869   -9780.3576    81.768611 
   65400    534.26209    -108.0008   0.48341156   -107.51738    4706.6923    4.3378324    4.3378324    4.3378324    4706.6923   -12881.229    15262.068    11739.237    1894.8843   -8360.1163    2298.8661    81.624082 
   65500    828.49065   -108.26771   0.74963575   -107.51808   -19926.397    4.3471291    4.3471291    4.3471291   -19926.397   -20410.628   -17575.765   -21792.798    8165.4975   -13350.371   -6315.7848    82.150007 
   65600    777.97457    -108.2188   0.70392774   -107.51488    13926.392    4.3407376    4.3407376    4.3407376    13926.392    13906.143    23083.501    4789.5309   -5461.7103    4439.5061   -9336.4351     81.78819 
   65700    643.22244   -108.09964   0.58200118   -107.51764    -17132.44    4.3442124    4.3442124    4.3442124    -17132.44   -42776.425    -2189.275   -6431.6189    11399.507   -15412.529    4782.4114    81.984762 
   65800    502.29615   -107.97246   0.45448811   -107.51797    14238.919    4.3382687    4.3382687    4.3382687    14238.919   -848.41931    31215.231    12349.945    1221.6283   -1785.4726   -10809.779    81.648713 
   65900    938.08398   -108.36401    0.8487981   -107.51521   -10922.537    4.3476095    4.3476095    4.3476095   -10922.537   -9807.5358     -7546.06   -15414.015    3542.4884   -948.07562    683.38415    82.177245 
   66000    539.12927   -108.00796   0.48781549   -107.52014     1644.252    4.3389508    4.3389508    4.3389508     1644.252    -17940.32    19272.973    3600.1031    8797.0618   -13497.727   -377.31526    81.687234 
   66100    900.02663   -108.33122     0.814363   -107.51686   -413.87489    4.3404041    4.3404041    4.3404041   -413.87489    10182.137    1202.9681    -12626.73    965.49897    7222.3585   -6849.2652    81.769343 
   66200    509.98589    -107.9793   0.46144595   -107.51785   -5407.7306     4.350226     4.350226     4.350226   -5407.7306   -34630.496     22778.93   -4371.6264    5008.6208   -8986.1292    1376.8676    82.325702 
   66300    721.96374   -108.16923   0.65324797   -107.51598    2888.5685    4.3314512    4.3314512    4.3314512    2888.5685   -2641.1429    8260.3399    3046.5086    10028.296    -4719.522   -1958.5073    81.264391 
   66400    744.52069    -108.1916   0.67365796   -107.51794    7656.9275    4.3472987    4.3472987    4.3472987    7656.9275    8197.7841    19792.101   -5019.1024   -3967.3301    3244.8732   -11851.667    82.159627 
   66500    821.32812   -108.26043   0.74315494   -107.51728   -13582.422    4.3458339    4.3458339    4.3458339   -13582.422   -33556.842    5079.2774   -12269.703    10404.715   -11749.254    4639.2014    82.076604 
   66600    528.31782   -107.99421   0.47803307   -107.51617     12430.27    4.3329425    4.3329425    4.3329425     12430.27    5883.4123    22061.521    9345.8749    1550.1602   -1494.0109   -14449.714    81.348357 
   66700    787.02441   -108.22679   0.71211622   -107.51467   -14826.107    4.3496294    4.3496294    4.3496294   -14826.107   -21639.812   -6106.8277    -16731.68   -3247.6279   -858.49961   -4193.5373    82.291837 
   66800    735.44661   -108.18074   0.66544755   -107.51529   -229.66482    4.3400771    4.3400771    4.3400771   -229.66482   -8871.7692     4680.344    3502.4308    7822.8054    -10845.34   -1360.1704    81.750858 
   66900    618.61174   -108.07858   0.55973291   -107.51885    2670.6455    4.3397796    4.3397796    4.3397796    2670.6455    13285.525    1942.0251   -7215.6132   -5464.6292   -42.598011   -19331.605    81.734052 
   67000    793.76236   -108.23448   0.71821287   -107.51627   -9532.2631    4.3450331    4.3450331    4.3450331   -9532.2631   -23007.316    9981.5847   -15571.058    2987.6476    -2902.946    4782.6042    82.031238 
   67100    575.73281   -108.03852   0.52093514   -107.51758    6438.5064    4.3412718    4.3412718    4.3412718    6438.5064   -4211.1839    20714.981    2811.7227   -1229.4268   -7251.9084    -12881.97    81.818391 
   67200    741.62053   -108.19073   0.67103384   -107.51969   -7027.4971    4.3382347    4.3382347    4.3382347   -7027.4971    2973.3062   -13872.518    -10183.28    1672.8358    6569.5439   -6347.5932    81.646794 
   67300    730.65452   -108.18111   0.66111156      -107.52    2003.3704    4.3471229    4.3471229    4.3471229    2003.3704   -17659.481    18137.064    5532.5279   -2596.0588   -6203.3553     4713.434    82.149657 
   67400     780.0611    -108.2248   0.70581568   -107.51899   -7019.4986    4.3426171    4.3426171    4.3426171   -7019.4986    411.89518   -7267.4488   -14202.942    54.805741    58.440066   -13517.501    81.894475 
   67500     523.7487   -107.99412   0.47389883   -107.52022    340.33866    4.3361059    4.3361059    4.3361059    340.33866   -12016.905     19242.89   -6204.9684   -4872.7733   -2249.7636   -899.15515    81.526658 
   67600    832.87974   -108.27108   0.75360709   -107.51747    2979.0327    4.3448026    4.3448026    4.3448026    2979.0327    -6769.396     21502.71   -5796.2163    803.78857   -3458.9621    7493.9837    82.018184 
   67700    650.71843   -108.10819   0.58878371   -107.51941   -2456.7804    4.3443391    4.3443391    4.3443391   -2456.7804    8430.3988   -1468.2309   -14332.509    1182.4638   -2097.5407    -25946.42    81.991937 
   67800     676.9105   -108.13055   0.61248285   -107.51807    2196.7334    4.3386875    4.3386875    4.3386875    2196.7334   -2517.6594    10734.823   -1626.9631   -2456.7653    -217.4784    16027.063    81.672362 
   67900    856.35136   -108.29041   0.77484471   -107.51556   -2792.0773    4.3417756    4.3417756    4.3417756   -2792.0773    -8716.461    6192.9281   -5852.6991    6452.7218   -2086.7509   -21989.659    81.846877 
   68000    444.91714   -107.92234   0.40257038   -107.51977   -14612.655    4.3474057    4.3474057    4.3474057   -14612.655    -9058.964   -13048.385   -21730.616   -4568.3152    233.03183   -8531.0534    82.165689 
   68100    860.17217   -108.29295   0.77830185   -107.51464      644.341    4.3359824    4.3359824    4.3359824      644.341   -7720.8849     8090.377    1563.5309     370.1306   -1230.9287    10591.456    81.519695 
   68200    680.08235   -108.13356    0.6153528   -107.51821    -47.29866    4.3437425    4.3437425    4.3437425    -47.29866    7696.0657    6947.9471   -14785.909    1329.6529    1858.5732   -23223.544    81.958161 
   68300    711.07934   -108.16169   0.64339953   -107.51829   -9576.7464    4.3446336    4.3446336    4.3446336   -9576.7464   -14651.022   -1348.3124   -12730.905   -2898.1525     2191.705     11119.36    82.008614 
   68400    768.98437   -108.21126   0.69579321   -107.51547    6258.1106    4.3351797    4.3351797    4.3351797    6258.1106    -4018.597    21105.592    1687.3366    1045.9976   -2040.0625   -1847.5801    81.474428 
   68500    533.75553   -108.00271   0.48295322   -107.51976   -10334.337    4.3465968    4.3465968    4.3465968   -10334.337   -1718.7291   -12736.263   -16548.018    932.14372    3258.4979   -14691.699    82.119837 
   68600     850.7349   -108.28595   0.76976282   -107.51618   -6666.8853    4.3440652    4.3440652    4.3440652   -6666.8853    -10521.93   -2516.4689   -6962.2567   -2989.9522   -591.81451    14337.274    81.976429 
   68700    702.02476   -108.15416   0.63520676   -107.51895    9559.1284    4.3347837    4.3347837    4.3347837    9559.1284    2018.1008    31399.005   -4739.7205   -793.63554   -1277.4978   -18452.403    81.452102 
   68800    640.95535    -108.1016   0.57994987   -107.52165    7390.5428    4.3438243    4.3438243    4.3438243    7390.5428   -8801.3743    30316.253    656.74932    1384.7296   -406.99178   -9149.6635    81.962793 
   68900     748.8263   -108.19616   0.67755377   -107.51861   -10467.753    4.3466898    4.3466898    4.3466898   -10467.753   -23643.587    3779.3745   -11539.046   -1861.6531    22.465148    12349.198    82.125104 
   69000    456.93491   -107.93324    0.4134443    -107.5198    18524.158    4.3285938    4.3285938    4.3285938    18524.158    17381.845    25155.605    13035.024    7159.4667   -1298.2589   -26691.926    81.103668 
   69100    998.18448     -108.424    0.9031783   -107.52082   -13776.355    4.3498789    4.3498789    4.3498789   -13776.355    -14414.99   -9755.1818   -17158.894    -1433.684    1383.0902    15119.519    82.306002 
   69200    611.04079   -108.07989   0.55288255   -107.52701   -1571.7197    4.3404771    4.3404771    4.3404771   -1571.7197   -12461.338    14397.966   -6651.7867    7273.4364    2927.9038   -3631.3645    81.773467 
   69300    534.25778   -108.01019   0.48340767   -107.52678    17858.237    4.3348508    4.3348508    4.3348508    17858.237    376.95562    37975.887     15221.87   -708.15635   -1776.1518   -16977.866    81.455884 
   69400    849.15351   -108.28894   0.76833194   -107.52061    -17640.99    4.3510804    4.3510804    4.3510804    -17640.99   -22317.355   -22989.866   -7615.7494   -4100.4048    875.44327    15905.739    82.374223 
   69500    535.86529   -108.00832   0.48486217   -107.52346    4046.6032    4.3374276    4.3374276    4.3374276    4046.6032   -3963.2676    10096.354     6006.723    10417.311     2207.939   -16048.784     81.60123 
   69600    864.62806    -108.3017   0.78233364   -107.51936    5656.5912    4.3434958    4.3434958    4.3434958    5656.5912   -1766.7213    15931.991    2804.5039   -638.98629   -2504.0043   -1804.3096    81.944202 
   69700    804.05621   -108.24966   0.72752696   -107.52213   -10032.186    4.3432062    4.3432062    4.3432062   -10032.186    -20315.64   -4743.5858   -5037.3324    2956.6387    645.79677    15920.831    81.927813 
   69800    396.21306   -107.88279    0.3585019   -107.52429    11594.394    4.3403631    4.3403631    4.3403631    11594.394   -5696.6874    27464.315    13015.555    7044.5619     2659.284   -19334.992    81.767026 
   69900    906.98414   -108.33813   0.82065831   -107.51747    -4553.963    4.3441568    4.3441568    4.3441568    -4553.963   -2483.7674   -12770.876    1592.7546    -5437.077   -2860.2336    16637.202    81.981614 
   70000     644.3201   -108.10375   0.58299437   -107.52075   -1688.3174    4.3400374    4.3400374    4.3400374   -1688.3174   -10242.389   -5531.3107    10708.747    7066.7633    3921.6839   -2499.8685     81.74862 
   70100    711.63749   -108.16389   0.64390456   -107.51998   -2223.7154    4.3428084    4.3428084    4.3428084   -2223.7154   -9828.1023    852.94663    2304.0094    2374.4814    576.80947   -12496.262    81.905298 
   70200    815.78267   -108.25401    0.7381373   -107.51588   -7449.5211    4.3428883    4.3428883    4.3428883   -7449.5211   -12414.806   -14729.579    4795.8222   -1580.6833   -1167.5674    5008.4691     81.90982 
   70300    438.91508    -107.9181   0.39713959   -107.52096    751.41583    4.3421267    4.3421267    4.3421267    751.41583     -16602.5    6237.5499    12619.197    10603.171    4614.2957   -10718.186    81.866738 
   70400    853.53155   -108.29002   0.77229328   -107.51773   -2434.1883    4.3421613    4.3421613    4.3421613   -2434.1883   -3034.5299   -206.28293   -4061.7522    -3520.376   -2638.6653   -11250.774    81.868694 
   70500    791.14866   -108.23407   0.71584794   -107.51822    7984.8849    4.3410731    4.3410731    4.3410731    7984.8849   -9542.3846    11844.497    21652.542    3578.2206   -1531.9881    8504.0399    81.807159 
   70600    605.51613   -108.06953   0.54788372   -107.52165    -8955.306    4.3425162    4.3425162    4.3425162    -8955.306   -12463.087   -12432.169   -1970.6615    11030.259    573.43242   -15493.026    81.888768 
   70700    632.24725   -108.09125    0.5720706   -107.51918   -898.10798    4.3451819    4.3451819    4.3451819   -898.10798   -11948.145   -2755.4935    12009.315   -8536.2307   -11114.605    3091.1151    82.039666 
   70800    823.35942   -108.26266   0.74499291   -107.51766    3812.9564    4.3387855    4.3387855    4.3387855    3812.9564   -9599.8465   -2542.6214    23581.337    15983.666     2263.361    4066.5569    81.677897 
   70900    541.44674   -108.01403   0.48991239   -107.52411   -1241.3064    4.3441681    4.3441681    4.3441681   -1241.3064   -11474.192    19273.057   -11522.784   -336.00626   -9035.5461   -11623.165    81.982259 
   71000     919.1323   -108.34891   0.83165022   -107.51726    1515.9154    4.3435426    4.3435426    4.3435426    1515.9154   -15712.429     10568.37    9691.8045     436.3591    129.23277    8428.4232    81.946846 
   71100    625.49203   -108.08506   0.56595834    -107.5191    2681.3781    4.3389183    4.3389183    4.3389183    2681.3781   -7430.9998     8039.006    7436.1282    7511.6094    1279.6114   -13518.474    81.685398 
   71200    454.98613   -107.93503   0.41168101   -107.52335   -10565.572    4.3455446    4.3455446    4.3455446   -10565.572   -12264.951   -10011.579   -9420.1864   -1091.2037   -5991.4691   -8570.7073    82.060215 
   71300    1042.1929   -108.45898   0.94299802   -107.51598    590.47776    4.3416204    4.3416204    4.3416204    590.47776   -10584.561    212.85367    12143.141     2624.032     5458.007   -2499.4728    81.838101 
   71400    584.08992   -108.05141   0.52849683   -107.52291    723.17286    4.3409701    4.3409701    4.3409701    723.17286   -6523.2787    1766.7507    6926.0467    5504.7269   -5152.9695   -16078.369    81.801336 
   71500    695.79598   -108.14951   0.62957082   -107.51994   -14119.279    4.3439284    4.3439284    4.3439284   -14119.279   -23475.276    -753.7581   -18128.804   -1517.5464   -5150.5129   -5269.5432    81.968688 
   71600    715.84152   -108.16374   0.64770845   -107.51603    7817.5609    4.3426359    4.3426359    4.3426359    7817.5609   -9615.9792    14996.724    18071.938    4716.6042    212.33585   -1611.2558    81.895539 
   71700    600.86615   -108.06461   0.54367632   -107.52093   -4432.9532    4.3407573    4.3407573    4.3407573   -4432.9532   -3451.1709   -3467.2741   -6380.4145    4149.4256   -8406.6224   -10967.835    81.789306 
   71800    790.05481   -108.23525   0.71485819    -107.5204    1550.7345    4.3451433    4.3451433    4.3451433    1550.7345   -18084.246    20587.647     2148.802   -2670.4011     -7902.53    4468.1749    82.037478 
   71900    795.50293   -108.23778   0.71978777   -107.51799   -1128.1692    4.3439591    4.3439591    4.3439591   -1128.1692   -3561.2491   -18999.964    19176.705    12258.481    4098.2366    6842.6598    81.970423 
   72000    519.85967      -107.99   0.47037995   -107.51962   -1978.9586    4.3344002    4.3344002    4.3344002   -1978.9586   -13208.694    7870.3901   -598.57237   -4194.9005   -13595.698   -10999.439    81.430485 
   72100    701.67005   -108.15694   0.63488581   -107.52206   -11234.478     4.350669     4.350669     4.350669   -11234.478   -19781.678    -17032.79    3111.0338    8920.7337    2651.3964    14061.415    82.350857 
   72200    759.77868    -108.2084   0.68746372   -107.52093    5498.8086    4.3394715    4.3394715    4.3394715    5498.8086   -1306.5493    11107.909    6695.0656    7615.6335   -2183.6692   -1539.1617    81.716643 
   72300    742.33991   -108.19243   0.67168475   -107.52074     3644.519    4.3370361    4.3370361    4.3370361     3644.519   -12398.206    18681.577    4650.1858   -2654.1368   -8989.7582    -9360.659    81.579138 
   72400    620.72323    -108.0793   0.56164342   -107.51765   -8199.0696    4.3504462    4.3504462    4.3504462   -8199.0696   -11417.387   -7375.6402   -5804.1814    7238.2925    3710.0819    13038.136    82.338208 
   72500     728.1498   -108.17414   0.65884524    -107.5153    4317.0012    4.3312876    4.3312876    4.3312876    4317.0012   -547.04184   -243.07221    13741.118    2165.9833   -7350.3816   -9223.1832    81.255181 
   72600    644.51789   -108.10549   0.58317334   -107.52232   -15337.514    4.3479127    4.3479127    4.3479127   -15337.514   -16065.707   -15625.829   -14321.005   -3933.3572   -5906.7867   -1978.5866    82.194442 
   72700    764.53338   -108.21175   0.69176587   -107.51998    2541.4654    4.3411376    4.3411376    4.3411376    2541.4654    589.76376    3968.1525      3066.48    7237.4498    5375.8945    16884.845    81.810803 
   72800    818.75829   -108.25691   0.74082971   -107.51608   -5378.2329    4.3430538    4.3430538    4.3430538   -5378.2329   -16912.041    1736.2548   -958.91228   -1681.0312   -11118.451    -4565.891    81.919187 
   72900    449.79617   -107.92597   0.40698503   -107.51899   -652.85461    4.3426137    4.3426137    4.3426137   -652.85461   -5201.5137    14023.059   -10780.109    1431.7075   -1377.4216    9877.6171    81.894284 
   73000     750.4115   -108.19604   0.67898809   -107.51705    3484.1664    4.3372832    4.3372832    4.3372832    3484.1664   -3448.0338   -5514.8676    19415.401    8977.0277    280.65908    18744.839    81.593081 
   73100    861.00057   -108.29619   0.77905141   -107.51714   -8307.1824    4.3503326    4.3503326    4.3503326   -8307.1824   -16143.812    5008.0939   -13785.829   -2656.9222   -15515.038   -8685.0839    82.331755 
   73200    558.08702   -108.02711   0.50496886   -107.52215    5023.1015    4.3339839    4.3339839    4.3339839    5023.1015    4738.2627   -11012.623    21343.665    9800.2621    4926.4337    20669.155    81.407026 
   73300     729.8951   -108.18172   0.66042442    -107.5213   -3791.2226    4.3438619    4.3438619    4.3438619   -3791.2226    -11304.72   -4489.3356    4420.3876    1017.3648   -3319.4055    6156.9782     81.96492 
   73400    762.81289   -108.20873   0.69020913   -107.51852   -3911.4326    4.3453003    4.3453003    4.3453003   -3911.4326   -2505.6053   -16206.312    6977.6197    2220.8655   -2897.2979   -3013.8518    82.046371 
   73500    382.96307   -107.86991   0.34651304   -107.52339    4599.7062     4.337614     4.337614     4.337614    4599.7062    170.94009    9486.2011    4141.9775    7037.7832    5322.7322    19455.141    81.611755 
   73600    1135.3488   -108.54373    1.0272875   -107.51644    -7458.719    4.3464796    4.3464796    4.3464796    -7458.719   -14066.714   -1942.5751   -6366.8683   -1175.4188    4374.3297   -9846.6313    82.113193 
   73700    570.53467   -108.03737   0.51623176   -107.52114    14296.695    4.3386652    4.3386652    4.3386652    14296.695    9208.6525    13515.468    20165.964    2186.3902   -3206.6074    12256.012    81.671102 
   73800    463.14441   -107.94539    0.4190628   -107.52632   -20446.596    4.3454502    4.3454502    4.3454502   -20446.596   -15315.231   -36171.341   -9853.2156    9498.9055    11051.397    9129.6981    82.054864 
   73900    954.45181   -108.38064   0.86360805   -107.51703    8159.9552    4.3388788    4.3388788    4.3388788    8159.9552     7025.144   -4651.7182     22106.44   -4681.8673     320.9539   -12.433478    81.683164 
   74000    550.60635   -108.02356    0.4982002   -107.52536   -245.49203    4.3431512    4.3431512    4.3431512   -245.49203    3579.5464    3809.6307   -8125.6532    5615.9851   -2379.8362    15172.523    81.924697 
   74100    737.95194   -108.18957   0.66771442   -107.52186   -17937.161    4.3480738    4.3480738    4.3480738   -17937.161   -20599.773   -18432.925   -14778.786    11106.637    9876.6285    894.17081     82.20358 
   74200    803.95793   -108.24292   0.72743803   -107.51548     30360.63    4.3308004    4.3308004    4.3308004     30360.63    23014.719    45702.664    22364.507   -3863.6895   -7299.6635    6790.2804    81.227763 
   74300    483.62466   -107.96125   0.43759376   -107.52366   -25371.722    4.3527544    4.3527544    4.3527544   -25371.722   -20828.449   -41811.732   -13474.987    13745.879    6339.3384    11133.881    82.469334 
   74400    668.76578   -108.12539   0.60511333   -107.52027   -1.4462211     4.341395     4.341395     4.341395   -1.4462211   -4723.7981    5510.0592   -790.59975    2999.5462      9023.12   -4100.8621    81.825356 
   74500    1049.8534   -108.46551   0.94992938   -107.51558    11070.122    4.3310974    4.3310974    4.3310974    11070.122    15088.068    3781.0864    14341.212   -1360.8728   -845.29396    6813.2855    81.244479 
   74600    393.07549   -107.87943   0.35566296   -107.52376   -21667.978    4.3564163    4.3564163    4.3564163   -21667.978   -21010.168   -22819.667   -21174.101    9644.6814    11701.892    5798.5383    82.677651 
   74700    760.22991   -108.20263     0.687872   -107.51476    10737.889    4.3357692    4.3357692    4.3357692    10737.889    10703.235     14825.58    6684.8522   -367.81978    5608.0925    -12017.56    81.507665 
   74800    781.80556    -108.2232    0.7073941    -107.5158    7721.2644     4.339081     4.339081     4.339081    7721.2644    1956.9321    12082.288    9124.5728   -1377.7409   -1610.2993    17005.556    81.694583 
   74900    515.22005   -107.98993   0.46618193   -107.52374   -11480.147    4.3498783    4.3498783    4.3498783   -11480.147   -20495.674    4316.7891   -18261.555    8105.0067    14824.046   -8013.8038    82.305967 
   75000    991.21355   -108.41329   0.89687085   -107.51642    12746.423    4.3347539    4.3347539    4.3347539    12746.423    8974.5367    13504.971    15759.763   -8313.3798   -5209.8416   -1073.2171    81.450421 
   75100    549.59635   -108.01723   0.49728633   -107.51995   -6466.8461    4.3468223    4.3468223    4.3468223   -6466.8461   -12764.002   -5890.2931   -746.24265    8890.6689    6431.7638      8511.89    82.132616 
   75200    521.16227   -107.99278   0.47155857   -107.52122   -7169.6351    4.3404655    4.3404655    4.3404655   -7169.6351   -4332.4534   -16334.481   -841.97086    3852.9696    10586.618   -6899.1674    81.772812 
   75300    903.73479   -108.33348   0.81771823   -107.51576    18698.128    4.3394086    4.3394086    4.3394086    18698.128    5488.4355    44204.263    6401.6867   -3520.8403   -6903.1872   -493.12281    81.713088 
   75400    691.59836   -108.14892   0.62577273   -107.52314    -8786.501    4.3477632    4.3477632    4.3477632    -8786.501   -19916.435    22.585535   -6465.6532    15585.056    15173.961    1408.7848    82.185962 
   75500    655.04374    -108.1164   0.59269735   -107.52371     8076.073    4.3376496    4.3376496    4.3376496     8076.073   -1426.9606     19525.65    6129.5298   -3824.1391   -671.97869   -9459.2692    81.613763 
   75600    746.12288   -108.19579   0.67510766   -107.52068   -11724.113    4.3500654    4.3500654    4.3500654   -11724.113   -14209.687   -19992.639   -970.01132    1061.1193    2695.1679   -4839.3199     82.31659 
   75700    538.68874   -108.01163   0.48741689   -107.52421    1256.8487    4.3340593    4.3340593    4.3340593    1256.8487   -4894.3864   -4595.6422    13260.575    15193.189    13947.122    2431.5734    81.411271 
   75800    796.43064   -108.24405   0.72062718   -107.52342   -5643.4424    4.3495389    4.3495389    4.3495389   -5643.4424   -12829.055    10856.373   -14957.646    -13121.12   -1562.4283   -8069.1241    82.286705 
   75900    869.11435   -108.30735   0.78639293   -107.52096    5198.6208    4.3403051    4.3403051    4.3403051    5198.6208   -2376.9972    10142.673    7830.1871    5653.9719    7462.8635    8319.8645    81.763745 
   76000    495.17276   -107.97387   0.44804272   -107.52583     2724.229    4.3343753    4.3343753    4.3343753     2724.229   -9793.1178    14663.287     3302.518    3690.6437    6411.0474     -2430.18    81.429082 
   76100    639.97323   -108.10144   0.57906123   -107.52238   -12811.496    4.3521532    4.3521532    4.3521532   -12811.496   -9289.8875   -11998.962   -17145.639   -9793.6676    -5906.151   -2059.1061     82.43517 
   76200    934.26915   -108.36339   0.84534636   -107.51804   -42.250307    4.3378463    4.3378463    4.3378463   -42.250307   -12332.487     7620.167    4585.5695    10310.959    6754.6588   -547.12804    81.624865 
   76300    544.94123   -108.01488   0.49307428   -107.52181    -1003.909    4.3417302    4.3417302    4.3417302    -1003.909   -13690.256    18617.197   -7938.6677     4344.775    875.05143    -5216.965    81.844308 
   76400     798.5125   -108.24236   0.72251089   -107.51985    -7284.621    4.3472118    4.3472118    4.3472118    -7284.621   -7783.8911   -7160.9311   -6909.0408   -3304.9312   -4756.8372   -8503.5574    82.154697 
   76500    630.00788      -108.09   0.57004437   -107.51995    8812.8703     4.339592     4.339592     4.339592    8812.8703   -9007.3612    28314.233    7131.7394    11726.703    12538.219    3948.6483    81.723449 
   76600    469.44118   -107.94991   0.42476024   -107.52515   -13805.668    4.3442007    4.3442007    4.3442007   -13805.668   -5081.4784   -19540.934   -16794.593   -6510.6758   -7086.5159   -7563.9368    81.984101 
   76700    983.35661   -108.40964   0.88976172   -107.51988   -4269.6283    4.3405149    4.3405149    4.3405149   -4269.6283   -5532.8429   -3192.1828   -4083.8591    2568.0715    4639.9816    643.40451    81.775604 
   76800    733.37564   -108.18317   0.66357369    -107.5196   -5916.2772    4.3457829    4.3457829    4.3457829   -5916.2772   -15750.154    4664.4013   -6663.0794    457.98331    4142.8234   -1570.2684    82.073714 
   76900    454.34492   -107.93408   0.41110083   -107.52298   -17320.032    4.3403649    4.3403649    4.3403649   -17320.032   -887.25503   -33771.854   -17300.986   -10877.978   -8614.0359   -1969.7382    81.767124 
   77000    799.81095   -108.24213   0.72368576   -107.51844    18815.305    4.3399572    4.3399572    4.3399572    18815.305   -375.68193    41713.138     15108.46      2928.29    8012.0193    1085.7907    81.744086 
   77100    783.27801   -108.23083   0.70872641    -107.5221   -16114.867    4.3506964    4.3506964    4.3506964   -16114.867   -14657.204   -16776.381   -16911.016   -6773.0652   -5456.3489   -4786.4403    82.352416 
   77200    548.86861    -108.0218   0.49662785   -107.52517    6076.0844    4.3334054    4.3334054    4.3334054    6076.0844    7265.2688    8266.9338    2696.0507   -8555.0469    -610.5067   -1905.7994    81.374433 
   77300    929.64772   -108.35954   0.84116479   -107.51837    1222.1977    4.3481889    4.3481889    4.3481889    1222.1977   -3763.9591    3136.5363     4294.016    4272.7171    19.277115     -2293.56    82.210105 
   77400    496.63391   -107.97883    0.4493648   -107.52947   -16432.157    4.3430741    4.3430741    4.3430741   -16432.157      2225.64   -39166.461   -12355.649    -9444.298   -4986.0486   -3744.3295    81.920334 
   77500    581.13507    -108.0569   0.52582322   -107.53108      11562.4    4.3341641    4.3341641    4.3341641      11562.4    4811.8254    20295.526    9579.8494   -5887.1333   -3683.8898    5231.0291    81.417181 
   77600    1047.1687   -108.47153   0.94750021   -107.52403   -1649.4398    4.3525249    4.3525249    4.3525249   -1649.4398   -16520.814    13970.317   -2397.8221    1956.8513   -1.4981447   -2279.4558    82.456288 
   77700    518.23425    -108.0001   0.46890924    -107.5312   -3749.6213    4.3357944    4.3357944    4.3357944   -3749.6213    145.05262    -20512.45    9118.5334   -10963.192   -4593.2737   -6720.4984    81.509088 
   77800    580.16966     -108.053    0.5249497   -107.52805    3172.1091    4.3389966    4.3389966    4.3389966    3172.1091   -3271.3233    77.584369    12710.066    56.167513     1766.696    6974.0228    81.689817 
   77900    883.81271   -108.32114   0.79969231   -107.52145   -5487.2599     4.347731     4.347731     4.347731   -5487.2599   -11836.783   -8960.4318    4335.4346   -524.62644    7058.9597    -9597.919    82.184139 
   78000    553.86725   -108.02604   0.50115073   -107.52488    8704.0021    4.3347408    4.3347408    4.3347408    8704.0021    4395.4142    14414.826    7301.7656   -8509.4408   -4450.6235    9294.0862    81.449684 
   78100    855.45233   -108.29663   0.77403124    -107.5226   -3319.0277    4.3453466    4.3453466    4.3453466   -3319.0277   -16412.603    20166.662   -13711.142   -245.73298    11395.863    3858.3662    82.048997 
   78200    713.80542   -108.16446   0.64586614   -107.51859    10582.224    4.3397621    4.3397621    4.3397621    10582.224    5009.7784    7466.3206    19270.572   -2836.6527    1865.8423    2849.6889     81.73306 
   78300    400.01697   -107.88434   0.36194376    -107.5224    -14291.12    4.3456232    4.3456232    4.3456232    -14291.12   -7840.7603   -25318.206   -9714.3944   -4801.5828   -1159.3337     6770.739    82.064666 
   78400    840.07418   -108.27901   0.76011677   -107.51889   -1128.5119    4.3379192    4.3379192    4.3379192   -1128.5119   -11091.389    12132.851   -4426.9971    4083.8868    14167.985    3202.3511    81.628982 
   78500    864.84893   -108.30137   0.78253349   -107.51883    9886.5846    4.3406978    4.3406978    4.3406978    9886.5846   -3304.0224    25363.886    7599.8907    -3233.963   -4342.7938   -2020.9094    81.785943 
   78600    602.23335   -108.06901   0.54491339    -107.5241   -19607.117     4.347186     4.347186     4.347186   -19607.117   -23562.315   -7682.5704   -27576.466   -3265.5959    9788.8502    952.06456    82.153233 
   78700    642.31039   -108.10294   0.58117594   -107.52177    17178.695    4.3308397    4.3308397    4.3308397    17178.695    6925.4458    37628.021    6982.6192     9489.762    6278.4306   -4586.7633    81.229978 
   78800    720.33206   -108.17465   0.65177158   -107.52288   -11420.827    4.3511147    4.3511147    4.3511147   -11420.827   -9924.6867   -22178.784   -2159.0093   -13224.612   -3596.5284   -112.30496    82.376171 
   78900    636.55105   -108.10224   0.57596477   -107.52628   -8877.2553     4.339186     4.339186     4.339186   -8877.2553   -15681.239    11309.357   -22259.884    7308.6523     13399.15    4507.8855    81.700516 
   79000    814.82822   -108.25872   0.73727369   -107.52144    9667.2473    4.3370192    4.3370192    4.3370192    9667.2473    1345.6531    20967.064    6689.0246   -4359.2036   -906.13449    2377.2974    81.578184 
   79100    763.63598   -108.21176   0.69095389    -107.5208   -13047.281    4.3481676    4.3481676    4.3481676   -13047.281   -24376.178   -10889.389   -3876.2757   -12785.619     6513.339    8031.5582    82.208898 
   79200    409.63599   -107.89428   0.37064725   -107.52363    2844.5461    4.3371637    4.3371637    4.3371637    2844.5461   -1039.1916    26898.875   -17326.045    6537.2939    14220.336    814.66077    81.586336 
   79300    823.63223   -108.26613   0.74523975   -107.52089   -672.70246    4.3425576    4.3425576    4.3425576   -672.70246   -10166.133    3037.7306    5110.2954   -14511.874   -4852.4156    4781.6161    81.891109 
   79400    888.78712   -108.32569   0.80419327    -107.5215   -6711.3668    4.3426056    4.3426056    4.3426056   -6711.3668   -14208.852    4129.8652   -10055.114   -4758.1375    10158.316   -3638.9406    81.893829 
   79500    443.94652   -107.92781   0.40169214   -107.52611   -6579.4928    4.3438144    4.3438144    4.3438144   -6579.4928   -10678.391    4657.1947   -13717.282    616.36342    4702.9254   -1178.9547    81.962231 
   79600    821.60872   -108.26301   0.74340884    -107.5196   -96.788429    4.3360842    4.3360842    4.3360842   -96.788429   -10428.605   -10063.319    20201.559   -9924.4255   -7407.5804   -9141.4168    81.525433 
   79700    621.59786   -108.08373    0.5624348    -107.5213    6074.9753    4.3434884    4.3434884    4.3434884    6074.9753   -8187.4045    28426.374   -2014.0433    675.16415    14357.525    5196.7658    81.943781 
   79800    684.68802   -108.14153   0.61952011   -107.52201   -12074.463    4.3458774    4.3458774    4.3458774   -12074.463   -18596.635   -8626.3094   -9000.4432    472.18151   -4389.5693   -9110.9115    82.079069 
   79900    845.50237    -108.2822   0.76502832   -107.51717    13612.614    4.3340658    4.3340658    4.3340658    13612.614   -3943.7924    26193.726    18587.908   -13362.425    274.24324    4194.6283    81.411638 
   80000     696.2676   -108.14901   0.62999756   -107.51901   -7159.1181    4.3455262    4.3455262    4.3455262   -7159.1181    -1352.445   -14363.979   -5760.9306     7609.988    8832.4262    4449.6922    82.059172 
   80100    449.28909   -107.92923   0.40652621    -107.5227   -8409.2717    4.3418483    4.3418483    4.3418483   -8409.2717    -13606.68   -23303.103    11681.968   -11121.295   -10670.046   -2569.2996    81.850991 
   80200     868.0556   -108.30412   0.78543495   -107.51869    18632.524    4.3372085    4.3372085    4.3372085    18632.524   -1832.3212    39674.469    18055.424    -7848.711    3076.6616    3099.7049    81.588864 
   80300    838.03045   -108.27944   0.75826756   -107.52117    35.101723    4.3430701    4.3430701    4.3430701    35.101723   -5149.4709    129.25552    5125.5205    2619.2771     84.65006    1276.0847     81.92011 
   80400    401.35025   -107.88992   0.36315014   -107.52677      1382.84    4.3438006    4.3438006    4.3438006      1382.84   -23566.249    24584.963    3129.8061   -16740.712   -6659.6624   -7828.6006     81.96145 
   80500    993.65505   -108.41842   0.89907997   -107.51934    8407.3484    4.3382189    4.3382189    4.3382189    8407.3484    13674.939   -8086.2333     19633.34    -894.6851    574.85521   -5478.9702      81.6459 
   80600    613.09256   -108.08253   0.55473903   -107.52779    1560.6616    4.3393636    4.3393636    4.3393636    1560.6616   -6911.1162    4612.5466    6980.5542    -1189.857   -4368.4867     4605.192    81.710546 
   80700    490.67527   -107.97314    0.4439733   -107.52917   -13842.644    4.3478695    4.3478695    4.3478695   -13842.644   -25495.028   -14721.927   -1310.9777   -16338.082   -11920.165   -7894.3321     82.19199 
   80800    946.00232   -108.37281   0.85596278   -107.51685    16642.314    4.3333928    4.3333928    4.3333928    16642.314     16687.08    18309.247    14930.614    9223.4108    4214.8241    10116.224    81.373723 
   80900    571.13312   -108.04282   0.51677325   -107.52605   -15726.819    4.3465525    4.3465525    4.3465525   -15726.819   -21788.825    -15668.27   -9723.3613   -12418.875   -11643.927    421.73971    82.117325 
   81000    590.32465   -108.05892   0.53413815   -107.52478   -3161.3248    4.3418886    4.3418886    4.3418886   -3161.3248   -7081.6019     2026.855   -4429.2274   -4198.7843   -6099.7596    211.93808    81.853267 
   81100    998.30459   -108.41868   0.90328697   -107.51539    9931.6611    4.3361535    4.3361535    4.3361535    9931.6611    8390.0952    10557.204    10847.684    2017.2442    5206.2445    1888.6416    81.529343 
   81200    403.51609   -107.89025   0.36510984   -107.52514   -8776.5749    4.3458083    4.3458083    4.3458083   -8776.5749    -14340.98   -14991.527     3002.783   -12922.658   -14943.753   -9219.7414    82.075151 
   81300    701.94137   -108.15745    0.6351313   -107.52232    6513.0514    4.3381992    4.3381992    4.3381992    6513.0514    -323.0057   -438.03783    20300.198     4750.357    2700.6089   -2723.9266     81.64479 
   81400    1014.3263   -108.43602   0.91778379   -107.51824    3000.1221    4.3419592    4.3419592    4.3419592    3000.1221   -7103.1704   -12186.079    28289.616   -4927.9271    8142.2673   -5077.9583    81.857261 
   81500    476.25845   -107.95589   0.43092865   -107.52496    809.52138    4.3390528    4.3390528    4.3390528    809.52138   -3676.0739    -5965.439    12070.077   -8054.3155   -12900.652   -8600.9835    81.692992 
   81600    701.41052   -108.15429   0.63465098   -107.51964   -3604.3661    4.3474171    4.3474171    4.3474171   -3604.3661   -11371.223    4388.6247   -3830.4996    2434.4817    12226.513       1643.4    82.166335 
   81700    786.12578   -108.22884   0.71130312   -107.51754    8811.2259    4.3373399    4.3373399    4.3373399    8811.2259    5056.1899   -7944.1711    29321.659   -11742.426   -5904.9491   -4081.3635    81.596283 
   81800    604.23998   -108.07143   0.54672903    -107.5247   -105.80657    4.3372755    4.3372755    4.3372755   -105.80657   -11032.442    1075.8998    9639.1224   -5443.3768   -5180.3362   -2664.7891    81.592646 
   81900    898.81492   -108.33323   0.81326662   -107.51996   -4154.4595     4.344679     4.344679     4.344679   -4154.4595   -10584.926   -6657.9408    4779.4885   -771.77636    10724.818    3272.3217    82.011187 
   82000    625.82936   -108.08548   0.56626356   -107.51921    2607.4875    4.3393911    4.3393911    4.3393911    2607.4875    2340.1581   -6526.7589    12009.063   -11776.354   -6765.0703    1583.1187      81.7121 
   82100    525.35608   -107.99645   0.47535322    -107.5211   -17455.897    4.3444617    4.3444617    4.3444617   -17455.897   -21685.086   -4056.9711   -26625.635   -1486.0068    1873.3089   -6241.2791     81.99888 
   82200    843.55215    -108.2811   0.76326372   -107.51783    12870.613    4.3328208    4.3328208    4.3328208    12870.613    21125.099   -499.06213    17985.801   -3462.5946    8359.2317     7020.306    81.341501 
   82300    790.77598   -108.23555   0.71551073   -107.52004   -11154.374    4.3501213    4.3501213    4.3501213   -11154.374   -21329.239   -17680.303    5546.4211   -13783.444   -3678.6685    86.016839    82.319761 
   82400    581.91521   -108.04646   0.52652911   -107.51993   -1113.4215    4.3375187    4.3375187    4.3375187   -1113.4215    1844.5542    12761.593   -17946.412     5789.335    6890.0991   -4724.1782    81.606375 
   82500    617.61832   -108.07731   0.55883403   -107.51848    13178.932    4.3334395    4.3334395    4.3334395    13178.932    10913.199   -2034.3633    30657.961   -8420.2931     3872.397    14122.761     81.37635 
   82600    794.22927   -108.23491   0.71863534   -107.51628   -14828.824    4.3534617    4.3534617    4.3534617   -14828.824   -25932.882   -11989.276    -6564.313    -6243.578   -5430.5653   -8155.7806    82.509541 
   82700    712.44538   -108.16022   0.64463555   -107.51559    15595.085    4.3301599    4.3301599    4.3301599    15595.085    20974.536    8140.2428    17670.477    6386.1327    8852.6066    5464.7626    81.191729 
   82800    706.90965   -108.15736   0.63962671   -107.51774   -11194.082    4.3449108    4.3449108    4.3449108   -11194.082   -15699.431   -19075.573    1192.7579   -13983.176   -5065.3028    4812.1989    82.024311 
   82900    632.87702   -108.08875   0.57264042   -107.51611   -3260.6956     4.343365     4.343365     4.343365   -3260.6956   -1117.0088    7168.6211   -15833.699    765.00198     3420.045    -3664.533      81.9368 
   83000    692.27119   -108.14358   0.62638153    -107.5172    4598.7884     4.334952     4.334952     4.334952    4598.7884    3012.7337   -6162.9419    16946.573   -1325.3445    4155.6303    6272.9186    81.461589 
   83100    781.16687   -108.22454    0.7068162   -107.51772   -4262.6106    4.3453705    4.3453705    4.3453705   -4262.6106   -11382.288   -15246.407    13840.863   -11121.925   -3241.0307    3413.4454    82.050351 
   83200     744.1009   -108.19013   0.67327813   -107.51685    4376.0289    4.3385449    4.3385449    4.3385449    4376.0289   -2829.2177    9066.0603    6891.2441     1482.624    6215.2948    -1192.885     81.66431 
   83300    503.78128   -107.97568   0.45583189   -107.51984   -11116.864     4.344302     4.344302     4.344302   -11116.864    -3888.503   -11090.822   -18371.266    -4497.924    3906.3714    8185.9341    81.989838 
   83400    825.81799   -108.26374   0.74721747   -107.51652   -1944.8916    4.3367235    4.3367235    4.3367235   -1944.8916   -6390.7781   -4523.3544    5079.4577   -10009.661   -1961.6814    2048.4832    81.561497 
   83500    771.42893   -108.21646   0.69800511   -107.51846   -2339.1807    4.3438705    4.3438705    4.3438705   -2339.1807     1484.138    5242.7605    -13744.44    2517.9223    6897.3215    1637.3136    81.965411 
   83600    628.20483   -108.08684   0.56841293   -107.51843   -10628.952    4.3424526    4.3424526    4.3424526   -10628.952   -6024.2286    -22894.39    -2968.238   -6950.7237    197.44799    14027.191    81.885168 
   83700    546.44226   -108.01231   0.49443244   -107.51788    8860.5821    4.3366214    4.3366214    4.3366214    8860.5821    6508.0002    16321.129    3752.6166   -3175.5895    -4587.089   -4888.1053     81.55574 
   83800    830.46478   -108.26782   0.75142198    -107.5164    -12587.53    4.3478963    4.3478963    4.3478963    -12587.53   -10610.213    -15508.56   -11643.816    1275.5886    10829.511    12848.334    82.193511 
   83900    709.90765   -108.15954   0.64233936    -107.5172     7992.794    4.3338954    4.3338954    4.3338954     7992.794    2445.8252   -988.32222    22520.879    -6848.167   -4908.6076    561.17344     81.40204 
   84000    652.62114   -108.11059   0.59050532   -107.52008   -12163.915    4.3455868    4.3455868    4.3455868   -12163.915   -8295.8643    -7151.743   -21044.137    744.13512    7750.2078   -4238.9906    82.062604 
   84100    696.77519   -108.14766   0.63045683    -107.5172    7083.8841    4.3374167    4.3374167    4.3374167    7083.8841    9179.0045    15193.656   -3121.0085   -331.70248    1095.6258      6665.75    81.600617 
   84200      660.964   -108.11981   0.59805412   -107.52176      -4834.7    4.3416493    4.3416493    4.3416493      -4834.7    10137.513   -19746.048   -4895.5653   -4084.8596    1958.4595   -11710.185    81.839733 
   84300    757.20638   -108.20353   0.68513625   -107.51839   -4448.5469    4.3462754    4.3462754    4.3462754   -4448.5469   -14281.975    13163.783   -12227.449    990.60602    2814.1118    353.73307    82.101617 
   84400    832.30377    -108.2661   0.75308594   -107.51302    13350.293    4.3292795    4.3292795    4.3292795    13350.293    23232.844   -2025.2613    18843.297   -4539.5343   -2366.7968    -6695.907    81.142217 
   84500     359.4384   -107.84808   0.32522742   -107.52285   -19213.252    4.3509577    4.3509577    4.3509577   -19213.252   -23036.246   -12217.571   -22385.939   -2754.0876   -2857.1385   -6649.1331    82.367256 
   84600    968.86107   -108.39317   0.87664586   -107.51652    6681.3136    4.3347386    4.3347386    4.3347386    6681.3136    16607.815    7855.9222    -4419.796    1551.3594   -7646.0047   -4447.4741    81.449558 
   84700    782.71499   -108.22917   0.70821698   -107.52096      740.848    4.3400011    4.3400011    4.3400011      740.848   -3566.1539   -10180.217    15968.914   -3510.5573    -220.9024    1250.1974    81.746564 
   84800    511.30064   -107.98459   0.46263557   -107.52196   -19522.258    4.3471035    4.3471035    4.3471035   -19522.258   -23077.062   -7119.7848   -28369.926   -871.17654   -13639.609   -5726.9017    82.148559 
   84900    760.24167   -108.20165   0.68788264   -107.51377    16431.801     4.330593     4.330593     4.330593    16431.801    21827.074    18895.127    8573.2029    1588.8352    5280.8731     5835.801    81.216098 
   85000    655.38623   -108.11192   0.59300723   -107.51891   -20069.686     4.349971     4.349971     4.349971   -20069.686   -25845.037   -27734.413   -6629.6076   -2592.0552   -8716.2678    52.082287     82.31123 
   85100    751.59704   -108.19797    0.6800608   -107.51791    5582.9224    4.3345639    4.3345639    4.3345639    5582.9224    4382.8533    12307.898    58.015557    2267.7798   -8087.2466   -3646.0687    81.439711 
   85200    785.49591     -108.228    0.7107332   -107.51727   -3519.5962    4.3420006    4.3420006    4.3420006   -3519.5962    -11973.05   -12905.603    14319.864    3615.7803    7313.6015    8009.3529    81.859602 
   85300    475.79049   -107.95103   0.43050523   -107.52052   -14397.483    4.3438929    4.3438929    4.3438929   -14397.483   -26255.748     -12540.8   -4395.9006   -573.91363   -14640.709   -8237.6534    81.966675 
   85400     715.8514    -108.1646   0.64771739   -107.51688    14368.196    4.3316043    4.3316043    4.3316043    14368.196    25410.629    19479.872   -1785.9134    239.23912    185.61941    7029.4777     81.27301 
   85500    824.32515   -108.26432   0.74586672   -107.51846   -16567.759    4.3498763    4.3498763    4.3498763   -16567.759   -16361.428   -33953.698    611.84819    998.78168    520.94884   -171.99694    82.305853 
   85600    640.91452   -108.09914   0.57991293   -107.51923    4833.6689    4.3351173    4.3351173    4.3351173    4833.6689   -3719.5588    14873.409     3347.157   -2625.5083   -17252.842   -2858.0479    81.470906 
   85700    752.05949   -108.19811   0.68047923   -107.51763   -6864.8136    4.3415652    4.3415652    4.3415652   -6864.8136    9358.9211   -15359.533   -14593.829   -687.87437   -3161.7496    4270.8396     81.83498 
   85800    504.86416    -107.9789    0.4568117   -107.52209    1860.9573    4.3386835    4.3386835    4.3386835    1860.9573   -2384.1244   -1640.3222    9607.3185   -1723.1676   -2861.8271   -518.86419    81.672135 
   85900    808.49281   -108.25097   0.73154129   -107.51943    3130.1878    4.3413285    4.3413285    4.3413285    3130.1878    27529.174   -8019.0501    -10119.56   -3486.5334   -18859.733    1149.7928    81.821597 
   86000    894.24243   -108.32537   0.80912934   -107.51624    1899.3294    4.3426543    4.3426543    4.3426543    1899.3294    5203.1528   -3569.2094    4064.0449    1389.9408    9072.4323    8142.5834    81.896579 
   86100    512.18292   -107.98298   0.46343387   -107.51955    9750.4427    4.3316268    4.3316268    4.3316268    9750.4427    27843.569   -3569.9649    4977.7237    2711.8525   -17260.753   -1991.9791    81.274274 
   86200    623.95854   -108.08315    0.5645708   -107.51858   -9763.3771    4.3503674    4.3503674    4.3503674   -9763.3771   -2169.4884    2262.2875   -29382.931   -2991.4159   -8904.9838    5960.0028    82.333734 
   86300    854.76196   -108.28958   0.77340659   -107.51618    10739.281    4.3312821    4.3312821    4.3312821    10739.281    36087.179   -2707.1932   -1162.1431    8317.8841    7035.7965    7201.2428    81.254873 
   86400     612.8868   -108.07768   0.55455285   -107.52313   -3942.9228    4.3419104    4.3419104    4.3419104   -3942.9228   -12761.174    5027.5411   -4095.1351   -4793.8173   -22564.631   -3215.7566      81.8545 
   86500    908.90865   -108.33893   0.82239965   -107.51653   -7820.7822     4.342911     4.342911     4.342911   -7820.7822    4361.0474   -8655.0347   -19168.359    2971.3808    11540.291    13760.759    81.911104 
   86600      509.636   -107.97875   0.46112936   -107.51762    12838.901    4.3334502    4.3334502    4.3334502    12838.901    18340.838    14637.418    5538.4476    390.26597   -2725.4994   -1436.1567    81.376954 
   86700     632.3769   -108.09082   0.57218791   -107.51864   -16872.446     4.346247     4.346247     4.346247   -16872.446   -11307.837    -14740.25   -24569.252   -5004.7891   -13672.754    6934.0114    82.100009 
   86800    833.89645   -108.27113   0.75452704   -107.51661    10348.778    4.3347427    4.3347427    4.3347427    10348.778    18383.306    18865.232   -6202.2059    -1399.886    19803.815    5150.7109     81.44979 
   86900    830.25987   -108.27059   0.75123657   -107.51935   -13182.153    4.3447183    4.3447183    4.3447183   -13182.153   -17502.272   -12292.043   -9752.1454   -6233.5146   -14608.632   -377.31776    82.013411 
   87000    466.63417   -107.94262    0.4222204    -107.5204    12304.497    4.3331886    4.3331886    4.3331886    12304.497    25676.771    26091.956   -14855.236   -610.72162    4058.2365    2988.0198    81.362218 
   87100    690.43215   -108.14521   0.62471752   -107.52049   -8377.5085     4.347176     4.347176     4.347176   -8377.5085    8487.2947   -1927.5671   -31692.253   -2705.2015    14783.583    2609.3428     82.15267 
   87200    879.54061    -108.3138   0.79582682   -107.51797    12232.235    4.3347257    4.3347257    4.3347257    12232.235    15241.624    13576.658    7878.4231    470.70904   -16292.975   -3537.8927    81.448832 
   87300     617.1747   -108.08194   0.55843264   -107.52351    454.47245     4.334391     4.334391     4.334391    454.47245    12171.158    10145.327   -20953.067   -3675.9473    19124.311    4182.7782    81.429964 
   87400    722.13915   -108.16991   0.65340668    -107.5165   -13330.506    4.3528504    4.3528504    4.3528504   -13330.506   -7995.7993   -11236.816   -20758.901    4291.6008    8047.5007   -312.98206    82.474792 
   87500    771.49114   -108.21245    0.6980614   -107.51439    17749.103    4.3233145    4.3233145    4.3233145    17749.103    30896.468    22488.239   -137.39637   -4519.8929   -220.55632   -1494.9039    80.807282 
   87600    431.69562   -107.91769   0.39060727   -107.52709     -19135.8    4.3472604    4.3472604    4.3472604     -19135.8   -10666.199    -2155.986   -44585.215    503.56098    31125.691    6415.4839    82.157453 
   87700    1157.6013   -108.56056     1.047422   -107.51313     3567.281    4.3397004    4.3397004    4.3397004     3567.281     18569.33     -4173.91   -3693.5765    3491.6172   -4607.4161   -6565.2861    81.729578 
   87800    427.43312   -107.90853   0.38675047   -107.52178    785.31139    4.3334713    4.3334713    4.3334713    785.31139    8057.3491    17494.581   -23195.996   -5456.5942    20019.942    6863.8098    81.378142 
   87900    509.46968   -107.98494   0.46097888   -107.52396   -18722.618     4.344414     4.344414     4.344414   -18722.618   -7712.2625   -9142.2986   -39313.293    4615.3494    19335.044    1292.3932    81.996179 
   88000    1052.5795   -108.46853   0.95239609   -107.51614    11213.025    4.3373201    4.3373201    4.3373201    11213.025    21478.929    8254.3785    3905.7673     825.9876   -5406.0824   -2168.3256    81.595164 
   88100    548.84435   -108.02427    0.4966059   -107.52766   -18415.324    4.3406216    4.3406216    4.3406216   -18415.324   -21709.551   -5007.5183   -28528.901   -5459.1866    35391.686    6905.1484    81.781636 
   88200    644.90038   -108.10774   0.58351942   -107.52422    10533.912    4.3351972    4.3351972    4.3351972    10533.912    35353.909   -3594.0884   -158.08569    2379.2739     -7760.81   -1630.6478    81.475414 
   88300    787.85258   -108.23165   0.71286557   -107.51879   -6639.1158    4.3461146    4.3461146    4.3461146   -6639.1158    9179.5477   -1630.0434   -27466.852   -7695.4369    5761.8948   -861.59841    82.092509 
   88400    511.55273    -107.9849   0.46286366   -107.52203    4611.6714    4.3325026    4.3325026    4.3325026    4611.6714    16959.619    18942.054   -22066.659   -4907.9452      24890.4    7604.9283     81.32358 
   88500    999.44954   -108.42284   0.90432294   -107.51852   -2789.1575    4.3419996    4.3419996    4.3419996   -2789.1575    9464.7046   -8941.5619   -8890.6151   -3023.4897   -16020.721   -2625.9836    81.859546 
   88600    616.92744   -108.07916   0.55820891   -107.52095     3671.808     4.341485     4.341485     4.341485     3671.808    5534.9131    21630.964   -16150.453    288.48591    15990.188    265.97128    81.830443 
   88700    565.92834   -108.03391   0.51206385   -107.52185    -1454.758    4.3349696    4.3349696    4.3349696    -1454.758    7799.1722   -2971.1938   -9192.2524   -1190.4427    9343.5054    10806.791    81.462579 
   88800    705.33071   -108.15758   0.63819805   -107.51938    583.46106    4.3417792    4.3417792    4.3417792    583.46106    9185.3538    5414.4257   -12849.396    7481.3294   -17963.366   -11107.983     81.84708 
   88900    857.88498   -108.29532   0.77623236   -107.51909   -2150.9928    4.3369678    4.3369678    4.3369678   -2150.9928    2256.4854    2780.4316   -11489.895    2252.6161    22954.966    10442.315    81.575285 
   89000     628.2031   -108.09036   0.56841137   -107.52195   -15977.701    4.3438428    4.3438428    4.3438428   -15977.701   -10339.817   -18904.657   -18688.628   -1286.6731   -3951.0226   -415.93085    81.963841 
   89100    664.98472   -108.12205   0.60169215   -107.52035    3543.5094    4.3325262    4.3325262    4.3325262    3543.5094    6074.4097    18908.886   -14352.768    4612.5403   -13253.859    -7375.204     81.32491 
   89200    685.93792    -108.1424   0.62065105   -107.52175   -10406.068    4.3456148    4.3456148    4.3456148   -10406.068    1563.7256   -4095.9196    -28686.01   -7044.0662    14212.117    10541.783     82.06419 
   89300    642.22133   -108.10397   0.58109536   -107.52288   -1009.6916    4.3365568    4.3365568    4.3365568   -1009.6916   -857.79707    2063.0839   -4234.3616     1635.653   -17424.891   -5094.6397    81.552093 
   89400    849.84992   -108.28827   0.76896207    -107.5193     6617.873    4.3347913    4.3347913    4.3347913     6617.873    13875.734    13161.992    -7184.107   -2844.7136   -8272.0169   -2746.3939    81.452531 
   89500    692.20204   -108.14522   0.62631896   -107.51891   -13765.859    4.3486894    4.3486894    4.3486894   -13765.859   -3055.7487   -23253.164   -14988.665   -3491.3011    12757.747    8888.2698    82.238499 
   89600    482.78481   -107.95763   0.43683384   -107.52079    10556.168    4.3283151    4.3283151    4.3283151    10556.168    31165.789    16974.895   -16472.179    76.131451   -19951.988   -7473.8547    81.088002 
   89700    897.14084   -108.33286   0.81175189   -107.52111   -4789.4325    4.3421892    4.3421892    4.3421892   -4789.4325    6142.9729   -2306.2361   -18205.034    1279.3658   -690.80695    3427.2463     81.87027 
   89800    688.43726   -108.14453    0.6229125   -107.52162     5882.732    4.3408695    4.3408695    4.3408695     5882.732    34932.349   -9775.5695   -7508.5839    324.99119    154.89809    8740.1168    81.795648 
   89900    584.55853   -108.05075   0.52892085   -107.52183   -3124.3662    4.3392213    4.3392213    4.3392213   -3124.3662    33.755796    9336.5832   -18743.438    3565.3285   -24067.548   -10668.805    81.702508 
   90000     778.1567   -108.22061   0.70409254   -107.51652    9486.8009    4.3369821    4.3369821    4.3369821    9486.8009    37523.413    1344.1316   -10407.141     2598.654    7737.0373    13799.711    81.576092 
   90100    643.85303   -108.10381   0.58257176   -107.52124    846.58533    4.3396457    4.3396457    4.3396457    846.58533    16272.031    5294.7444   -19027.019    1063.7453   -13064.727   -1564.3394    81.726486 
   90200    686.30093    -108.1442    0.6209795   -107.52322    -9064.528    4.3410536    4.3410536    4.3410536    -9064.528   -2718.9108   -6184.1444   -18290.529     2174.606   -12924.963   -5397.2092    81.806055 
   90300    862.69936   -108.29935   0.78058851   -107.51876    11746.509    4.3322367    4.3322367    4.3322367    11746.509    29289.148   -6790.3564    12740.736    5732.2367     4064.992    15672.325     81.30861 
   90400    534.51514   -108.00774   0.48364053    -107.5241   -19532.597    4.3467374    4.3467374    4.3467374   -19532.597   -14288.971     -8250.18   -36058.638   -5073.6423   -10378.078    -11832.91    82.127804 
   90500    546.44466   -108.01614   0.49443461    -107.5217    7459.1673    4.3353866    4.3353866    4.3353866    7459.1673    30504.097    359.19528   -8485.7904    9127.3361   -1829.2337    4636.3634    81.486093 
   90600    954.08801   -108.38013   0.86327888   -107.51685   -2273.8822    4.3408053    4.3408053    4.3408053   -2273.8822    11857.267    -6937.153   -11741.761   -3849.4021    1131.7277    5821.9851    81.792019 
   90700    570.74544   -108.03822   0.51642247    -107.5218   -4260.3131    4.3401081    4.3401081    4.3401081   -4260.3131   -93.781605    8012.6131   -20699.771    4285.6527   -17827.498   -12308.182    81.752614 
   90800    738.67056   -108.18658   0.66836465   -107.51821    1820.6967    4.3381924    4.3381924    4.3381924    1820.6967    19954.734   -4294.4988   -10198.146    4408.9908    4315.2856    6007.7074    81.644407 
   90900    695.59365    -108.1483   0.62938775   -107.51892   -3822.7662    4.3415912    4.3415912    4.3415912   -3822.7662    5705.3218    1535.8346   -18709.455   -3399.3762   -10132.747   -2974.8472     81.83645 
   91000    638.64329   -108.10002   0.57785787   -107.52216    9557.1101    4.3330808    4.3330808    4.3330808    9557.1101    30572.411     7966.947   -9868.0272    5502.2759   -5315.9293   -9729.4486    81.356146 
   91100    850.01547   -108.28753   0.76911186   -107.51842   -8596.4096    4.3502084    4.3502084    4.3502084   -8596.4096   -2895.3265   -20906.009   -1987.8932    412.88964    4112.8025    3619.4639    82.324707 
   91200    694.49323   -108.14753   0.62839207   -107.51914    5686.6012    4.3303406    4.3303406    4.3303406    5686.6012    20200.127    3116.2201   -6256.5433   -461.37868   -11512.642   -8092.1415    81.201898 
   91300    488.78919   -107.96574   0.44226673   -107.52347    1441.6326    4.3390226    4.3390226    4.3390226    1441.6326    17163.033    13953.396   -26791.531    5559.6714   -1875.8084   -560.41821    81.691284 
   91400    818.13761   -108.25782   0.74026811   -107.51755   -14021.322    4.3476401    4.3476401    4.3476401   -14021.322   -5849.2914   -21228.567   -14986.107     6537.485    1950.6339    1942.6494    82.178984 
   91500    725.00276   -108.17249   0.65599773   -107.51649    21701.698     4.325649     4.325649     4.325649    21701.698    31233.368     31144.57    2727.1556   -6390.7325   -10894.094   -6379.4231    80.938254 
   91600    808.37022   -108.24924   0.73143036   -107.51781   -18818.554    4.3485061    4.3485061    4.3485061   -18818.554   -16559.796   -23952.107    -15943.76    18031.727    7781.0099    3791.2203    82.228098 
   91700    516.12914   -107.98466   0.46700449   -107.51765    5758.1453    4.3380424    4.3380424    4.3380424    5758.1453    16994.006   -6876.5148    7156.9448   -10327.682   -4143.7233   -4374.1316    81.635937 
   91800    736.52353    -108.1837   0.66642196   -107.51728   -3132.2631     4.334675     4.334675     4.334675   -3132.2631    10185.587    3422.3808   -23004.757    5111.5025   -4212.7582   -717.76049    81.445972 
   91900    641.55843   -108.09909   0.58049555    -107.5186    1951.2827    4.3427047    4.3427047    4.3427047    1951.2827    3747.6339    1187.7344    918.47989    1836.9606    9642.7532    836.56192    81.899436 
   92000    859.64271    -108.2952   0.77782279   -107.51738   -3522.0813    4.3395437    4.3395437    4.3395437   -3522.0813     7474.445   -14696.487   -3344.2019   -17283.475   -10767.853   -5067.8733    81.720723 
   92100    634.54061     -108.092   0.57414568   -107.51786   -962.70894    4.3391671    4.3391671    4.3391671   -962.70894    3155.6733    21109.601   -27153.401    6436.3253    9606.3417   -432.25871    81.699448 
   92200    598.10221   -108.06155   0.54117545   -107.52037    1214.8412    4.3345704    4.3345704    4.3345704    1214.8412    15850.793   -9352.8477   -2853.4219   -14646.939    942.75864     1996.076    81.440079 
   92300    731.98174   -108.18342   0.66231246   -107.52111   -13172.331    4.3471244    4.3471244    4.3471244   -13172.331   -8140.2935   -13609.815   -17766.885   -6552.7632   -2190.4022   -6557.1211    82.149743 
   92400     802.0724   -108.24653   0.72573196    -107.5208    5513.4128    4.3331444    4.3331444    4.3331444    5513.4128    7801.7806    15753.066   -7014.6086    1676.7827    14991.661    5718.3713    81.359726 
   92500    778.95288   -108.22702   0.70481294   -107.52221   -3942.2575    4.3367039    4.3367039    4.3367039   -3942.2575   -595.68081   -26347.587    15116.495   -9387.0236   -1438.0254   -9283.4113    81.560394 
   92600    438.94614   -107.91916   0.39716769   -107.52199   -11572.975    4.3480343    4.3480343    4.3480343   -11572.975   -8986.9498    13865.803    -39597.78    86.027191    12117.182   -7.3763916    82.201338 
   92700    835.34384   -108.27094   0.75583666    -107.5151    7075.0978    4.3270754    4.3270754    4.3270754    7075.0978    17710.499    7186.5162    -3671.722    3289.2682    10682.502   -880.93162    81.018348 
   92800      618.143   -108.08172   0.55930878   -107.52242   -5479.1259     4.345971     4.345971     4.345971   -5479.1259   -4847.3847   -3505.6888   -8084.3042   -13990.019   -513.43723   -3425.4088    82.084372 
   92900    770.67605   -108.21951   0.69732389   -107.52218   -13834.694    4.3407248    4.3407248    4.3407248   -13834.694   -10526.866   -4243.4596   -26733.757    3947.9837    13459.963    3508.1338    81.787468 
   93000     767.3252   -108.21062   0.69429196   -107.51633    12813.178    4.3305778    4.3305778    4.3305778    12813.178     22882.78    8177.8538     7378.901   -9725.3201   -4465.4251   -217.26834    81.215243 
   93100    544.75679   -108.01415   0.49290739   -107.52124   -11634.912    4.3441558    4.3441558    4.3441558   -11634.912   -4667.2632   -13743.254    -16494.22   -12088.634    5938.6247   -4293.4473    81.981557 
   93200    621.44792   -108.08333   0.56229914   -107.52103    11260.896     4.336125     4.336125     4.336125    11260.896    20126.248    24821.623   -11165.185    4593.4698    9271.0358    2558.4772    81.527735 
   93300    1012.4368   -108.43131   0.91607405   -107.51524    2709.6251    4.3401758    4.3401758    4.3401758    2709.6251    4587.6159   -3056.9823    6598.2417   -14295.331   -105.90323   -2638.9723    81.756441 
   93400     460.4972   -107.94024   0.41666754   -107.52357    4846.3846    4.3346167    4.3346167    4.3346167    4846.3846    18273.777    12328.729   -16063.353    953.78617    12730.608   -6999.8667     81.44269 
   93500    731.01864   -108.18283   0.66144103   -107.52139   -9188.9526    4.3439381    4.3439381    4.3439381   -9188.9526   -2289.8386   -2208.7231   -23068.296    1586.1145    4141.8542    6287.6497    81.969234 
   93600     828.9335   -108.26811   0.75003645   -107.51807     9732.051    4.3355506    4.3355506    4.3355506     9732.051    23736.868   -4231.4748    9690.7601    1501.9601    1448.2969   -12090.704     81.49534 
   93700    529.95896   -108.00474     0.479518   -107.52522    2370.9666    4.3357609    4.3357609    4.3357609    2370.9666    2057.0638    12368.342   -7312.5059     2110.847    14088.449    1892.6806      81.5072 
   93800     849.3584   -108.28717   0.76851733   -107.51865   -4615.5199    4.3461954    4.3461954    4.3461954   -4615.5199   -10504.867   -10894.988    7553.2956    13821.377   -1895.1089   -2929.9596    82.097086 
   93900    722.83609   -108.17274   0.65403728   -107.51871    13940.604    4.3294082    4.3294082    4.3294082    13940.604    25513.973    17077.029   -769.18932    1170.0063     5811.136   -4707.0095    81.149457 
   94000    507.17161   -107.98265   0.45889953   -107.52375   -19374.252    4.3439253    4.3439253    4.3439253   -19374.252   -30391.137   -3838.2906   -23893.329    7182.7142    15549.574    382.29169    81.968511 
   94100    857.33828   -108.29367    0.7757377   -107.51794   -1761.0985    4.3375712    4.3375712    4.3375712   -1761.0985   -4827.0133   -7494.3416    7038.0593    12633.718   -10026.661   -3492.7195    81.609337 
   94200    735.89546   -108.18544   0.66585368   -107.51959   -616.20887    4.3357019    4.3357019    4.3357019   -616.20887    1216.3537    2380.1394   -5445.1197   -7364.0471    18709.307   -5875.1464    81.503874 
   94300    576.21302   -108.04241   0.52136965   -107.52104   -13674.712    4.3443471    4.3443471    4.3443471   -13674.712   -21870.827    -12230.51   -6922.7993    14968.178    8541.9865    2413.4219     81.99239 
   94400    767.64403   -108.21044   0.69458045   -107.51586    9570.3802    4.3324468    4.3324468    4.3324468    9570.3802    18312.429   -12815.652    23214.363   -4061.8879   -3072.9275   -6305.0899    81.320437 
   94500    570.76415   -108.03629   0.51643939   -107.51985   -10399.306    4.3429047    4.3429047    4.3429047   -10399.306   -13999.808    8887.6187    -26085.73    2888.8749    22903.182   -1779.9384    81.910747 
   94600    785.07319   -108.22957   0.71035072   -107.51922   -4619.7043     4.335452     4.335452     4.335452   -4619.7043   -18109.401   -15665.649    19915.938     10354.71   -4431.5611    6015.5404    81.489778 
   94700    781.60682   -108.22574   0.70721427   -107.51853   -1400.0659     4.340407     4.340407     4.340407   -1400.0659    5299.9368    4043.5172   -13543.651   -6403.5797    7387.6191   -10608.243    81.769504 
   94800    618.66294   -108.08082   0.55977923   -107.52104   -14447.606    4.3385301    4.3385301    4.3385301   -14447.606   -7444.8966   -16681.052    -19216.87    13244.346    12445.433    9581.3127    81.663474 
   94900    560.73624    -108.0278   0.50736593   -107.52043    8987.2622     4.333379     4.333379     4.333379    8987.2622    4416.3918   -14713.521    37258.916    5912.8594    931.26466   -6112.9168    81.372942 
   95000    850.91602   -108.28901    0.7699267   -107.51909     -12772.9    4.3454505    4.3454505    4.3454505     -12772.9   -8653.3413   -16315.562   -13349.797   -3963.0246    1538.7981   -651.48101    82.054879 
   95100    554.46036   -108.02424   0.50168739   -107.52256    9044.9051    4.3334083    4.3334083    4.3334083    9044.9051   -3301.8493   -1985.5626    32422.127    18382.761    9423.4024    6311.8579    81.374596 
   95200     947.4372   -108.37645   0.85726109   -107.51919   -4359.5923     4.339833     4.339833     4.339833   -4359.5923   -1599.6705   -14759.355    3280.2486   -4672.0926   -9296.8015   -3893.6945    81.737067 
   95300    575.72787   -108.04136   0.52093067   -107.52043    3289.3881    4.3387909    4.3387909    4.3387909    3289.3881    -296.7832    5322.5461    4842.4014    407.35611    6791.6788    3965.8684      81.6782 
   95400    539.70586   -108.01082    0.4883372   -107.52248   -3626.9109    4.3364135    4.3364135    4.3364135   -3626.9109   -3760.0186   -23977.207    16856.493    14325.553    7388.4652    7304.6491    81.544012 
   95500    844.73017   -108.28056   0.76432961   -107.51623    7434.2593    4.3427789    4.3427789    4.3427789    7434.2593   -2162.2091   -5379.5579    29844.545   -14500.346   -943.81573   -1897.5542    81.903629 
   95600    764.46162   -108.21241   0.69170094   -107.52071    187.30342    4.3333633    4.3333633    4.3333633    187.30342    5780.2653   -8744.8463    3526.4913    12097.282    13934.552    9181.3366    81.372061 
   95700    551.59819   -108.02364   0.49909764   -107.52455   -3562.9608    4.3405855    4.3405855    4.3405855   -3562.9608   -8206.4648   -25005.048     22522.63    3594.8547   -883.24686    5050.2149    81.779594 
   95800    903.42827   -108.33403   0.81744088   -107.51659    -3001.136    4.3391613    4.3391613    4.3391613    -3001.136   -9398.5521   -654.10434    1049.2483   -11223.936    4720.5759   -1283.6356    81.699122 
   95900    420.30918   -107.90346   0.38030458   -107.52315   -2490.5406     4.336245     4.336245     4.336245   -2490.5406   -7177.9891   -373.92642    80.293897    18024.907    1014.1873    8994.7705    81.534505 
   96000    837.22586   -108.27729   0.75753956   -107.51975   -1447.7422    4.3408611    4.3408611    4.3408611   -1447.7422   -6565.0486   -14203.019    16424.841   -5922.9691    3182.8822    1619.5152     81.79517 
   96100    864.73224   -108.30062   0.78242791    -107.5182    7195.0164    4.3362875    4.3362875    4.3362875    7195.0164    9932.5825    8689.4276    2963.0392    1987.5199   -8807.0582   -1877.0666    81.536904 
   96200    473.28124   -107.95081   0.42823481   -107.52257   -9666.2673     4.340099     4.340099     4.340099   -9666.2673   -8039.7828   -25380.837    4421.8178    15945.641    5507.6848    11052.785    81.752099 
   96300    801.58211    -108.2415   0.72528833   -107.51622   -927.14778    4.3378505    4.3378505    4.3378505   -927.14778   -7745.0182   -9862.0018    14825.577   -7874.1883   -7308.9425   -4858.5338    81.625104 
   96400    616.17668   -108.07764   0.55752961   -107.52011   -4344.3221    4.3388754    4.3388754    4.3388754   -4344.3221   -9737.0233    4638.5485   -7934.4915    9040.1018   -859.95021    296.29018    81.682975 
   96500    739.45017   -108.18998   0.66907006   -107.52091   -2169.8049    4.3379988    4.3379988    4.3379988   -2169.8049    3646.8125   -14237.613    4081.3863    9703.7963    8450.2706    7850.0199    81.633473 
   96600     831.2886   -108.26993    0.7521674   -107.51776    9631.8092    4.3375585    4.3375585    4.3375585    9631.8092     13134.29    7704.8121    8056.3259   -9086.3732   -6531.1431   -11204.148    81.608618 
   96700    550.20227   -108.01853   0.49783458   -107.52069    -6824.938     4.341332     4.341332     4.341332    -6824.938   -9741.1687   -568.22486    -10165.42    14273.851    4460.9964     3432.555    81.821797 
   96800    673.81633   -108.12795   0.60968317   -107.51826    6571.1372    4.3355762    4.3355762    4.3355762    6571.1372    3237.7758   -3986.6022    20462.238    1503.7568   -727.52678   -574.01749    81.496786 
   96900    778.04914   -108.22342   0.70399521   -107.51943   -3712.4308    4.3393555    4.3393555    4.3393555   -3712.4308   -5525.8011    2743.2545   -8354.7457   -3200.1944   -2505.9721   -10889.514    81.710089 
   97000    650.40618   -108.11071   0.58850118   -107.52221    -67.00889    4.3392828    4.3392828    4.3392828    -67.00889   -1006.5985   -7659.5765    8465.1483    15043.766    3249.8051    5987.6168    81.705986 
   97100    867.50237   -108.30163   0.78493438    -107.5167     3326.833    4.3378229    4.3378229    4.3378229     3326.833    12746.713   -9173.0258    6406.8115   -919.71485    2218.8027   -4819.2257    81.623545 
   97200    549.57933   -108.01701   0.49727093   -107.51974   -3254.6122    4.3390763    4.3390763    4.3390763   -3254.6122   -8276.4108    11794.347   -13281.773    2924.7418   -1029.0668   -7386.2154    81.694318 
   97300    608.75902   -108.07117   0.55081796   -107.52036    -2003.614    4.3369452    4.3369452    4.3369452    -2003.614   -2712.5383   -2549.8171   -748.48643    18968.296      6345.23    9032.2987    81.574008 
   97400    865.09028   -108.30079   0.78275187   -107.51804    5288.3953    4.3408565    4.3408565    4.3408565    5288.3953    5266.6005    6582.3003     4016.285   -5704.0039   -1089.4225   -12208.478    81.794913 
   97500    736.42456   -108.18789   0.66633242   -107.52156   -4287.7523    4.3380926    4.3380926    4.3380926   -4287.7523   -7608.0194   -6221.3198    966.08215    14384.596    6716.6641    635.46715    81.638769 
   97600    569.44328   -108.03679   0.51524424   -107.52155    6892.3126    4.3365505    4.3365505    4.3365505    6892.3126   -3266.5878    1164.4033    22779.122    11387.224    3137.0752    848.25857     81.55174 
   97700    832.62993   -108.26987   0.75338106   -107.51649   -6496.0832    4.3423054    4.3423054    4.3423054   -6496.0832   -5402.0962   -7443.0857   -6643.0676   -3423.0043    188.95967    -13741.12    81.876844 
   97800    426.75454   -107.90832   0.38613647   -107.52218    3673.8398    4.3355416    4.3355416    4.3355416    3673.8398   -9775.3562     13270.35    7526.5259    19139.998    3233.0864    4963.9354    81.494832 
   97900    911.75766   -108.34599   0.82497749   -107.52101   -3964.4641    4.3381185    4.3381185    4.3381185   -3964.4641    2589.7919   -11026.589   -3456.5953   -1315.0175   -3522.6038   -7882.4949    81.640235 
   98000    860.30179   -108.29667   0.77841914   -107.51825    3335.8904    4.3426019    4.3426019    4.3426019    3335.8904    3996.8181     3575.252    2435.6011    2873.9379    324.14912   -4673.0425    81.893617 
   98100    504.72534   -107.97887   0.45668609   -107.52219   -10811.701    4.3346846    4.3346846    4.3346846   -10811.701    -22962.98   -9789.2376    317.11558    17666.702    1403.1777    3694.8614    81.446516 
   98200    575.87454   -108.04231   0.52106338   -107.52125    778.80695    4.3386252    4.3386252    4.3386252    778.80695    1633.1321   -1695.9461    2399.2349   -5325.6114    -2697.899   -11947.604    81.668845 
   98300    922.95566   -108.35188   0.83510967   -107.51677   -5398.3034    4.3413609    4.3413609    4.3413609   -5398.3034   -15818.224   -13160.353    12783.667    14307.655    1542.5513   -1450.2228    81.823428 
   98400     567.8057   -108.03472   0.51376253   -107.52096    1372.2279    4.3361355    4.3361355    4.3361355    1372.2279   -5390.4114   -2564.5771    12071.672    9368.6916    1140.2246   -1502.8662    81.528327 
   98500    872.29476    -108.3069   0.78927063   -107.51763    -3431.775     4.338869     4.338869     4.338869    -3431.775    8259.4448   -9535.6278    -9019.142   -5262.0076   -3886.0724   -13932.562    81.682611 
   98600    572.43283   -108.03712   0.51794925   -107.51917   -2078.8938    4.3398636    4.3398636    4.3398636   -2078.8938   -14330.884   -1642.9409    9737.1435    23191.132    4833.7103    4821.7355    81.738797 
   98700    586.42012   -108.05119   0.53060524   -107.52058   -8936.8789    4.3355015    4.3355015    4.3355015   -8936.8789   -4172.1397   -12760.288   -9878.2088   -5199.8684    2085.4472   -14423.051    81.492573 
   98800    797.88526   -108.24002   0.72194335   -107.51808   -1514.0452      4.34149      4.34149      4.34149   -1514.0452   -12829.844   -8652.8706    16940.579    9875.3215   -1457.4598   -5736.5015    81.830729 
   98900    846.90432   -108.28279   0.76629683   -107.51649   -7190.6465    4.3396755    4.3396755    4.3396755   -7190.6465   -15037.716   -18738.435    12204.212    15575.661    5285.3595   -2124.4295    81.728168 
   99000    516.89706   -107.98595   0.46769932   -107.51825      2666.48    4.3340701    4.3340701    4.3340701      2666.48   -880.46568   -546.47256    9426.3782   -11433.716   -2657.5128    -13635.16    81.411884 
   99100    637.09309   -108.09462   0.57645521   -107.51816   -6374.3219    4.3419484    4.3419484    4.3419484   -6374.3219   -5983.9045    -12994.13   -144.93151     20511.54   -1848.2592    3057.0035    81.856653 
   99200    829.59324   -108.26771    0.7506334   -107.51707   -587.27473    4.3379076    4.3379076    4.3379076   -587.27473   -5021.2142   -8606.2697     11865.66   -897.93846   -229.85298   -3638.4724    81.628327 
   99300     709.7061   -108.16238   0.64215699   -107.52022   -1308.1274    4.3350526    4.3350526    4.3350526   -1308.1274    4983.5045   -4925.5973   -3982.2893   -1160.1346   -2672.7139   -9597.4713    81.467258 
   99400     697.6762    -108.1504   0.63127209   -107.51912   -9692.3297    4.3421986    4.3421986    4.3421986   -9692.3297    -23577.83   -9394.6259    3895.4663    19079.229   -5891.4886    5017.6107    81.870804 
   99500    650.99719   -108.10747   0.58903593   -107.51844   -2797.3591     4.336748     4.336748     4.336748   -2797.3591   -1639.7568   -6066.6703   -685.65034    -10499.18    155.49893   -7721.9722    81.562884 
   99600     596.3121   -108.06036   0.53955572   -107.52081    4008.3484    4.3359472    4.3359472    4.3359472    4008.3484     10616.65   -8028.7563    9437.1511    8350.8857   -4458.3592    -9260.349    81.517707 
   99700    934.66954   -108.36202   0.84570864   -107.51631   -3318.6467    4.3443788    4.3443788    4.3443788   -3318.6467   -6229.6079   -8576.6766    4850.3443    13461.666    -227.2391    7720.6248    81.994188 
   99800    641.73937   -108.09862   0.58065927   -107.51796    7491.1418    4.3338356    4.3338356    4.3338356    7491.1418    17333.055    -1485.473    6625.8437   -14027.794    2799.3236   -19209.291     81.39867 
   99900    597.69856   -108.05941   0.54081022    -107.5186     663.2968    4.3356059    4.3356059    4.3356059     663.2968    -6172.647    15057.916   -6895.3783    18993.759   -1260.3237   -1843.2925    81.498461 
  100000    729.60671   -108.17687   0.66016348   -107.51671    -8707.655    4.3465006    4.3465006    4.3465006    -8707.655    -3947.918   -13616.538   -8558.5093   -5536.3195    2365.4097   -3104.5534    82.114383 
Loop time of 21.8944 on 1 procs for 100000 steps with 8 atoms

Pair  time (%) = 6.72332 (30.708)
Kspce time (%) = 5.40282 (24.6768)
Neigh time (%) = 0 (0)
Comm  time (%) = 1.08113 (4.93795)
Outpt time (%) = 0.0231662 (0.105809)
Other time (%) = 8.66394 (39.5715)

Nlocal:    8 ave 8 max 8 min
Histogram: 1 0 0 0 0 0 0 0 0 0
Nghost:    2189 ave 2189 max 2189 min
Histogram: 1 0 0 0 0 0 0 0 0 0
Neighs:    2056 ave 2056 max 2056 min
Histogram: 1 0 0 0 0 0 0 0 0 0

Total # of neighbors = 2056
Ave neighs/atom = 257
Neighbor list builds = 0
Dangerous builds = 0
unfix 20
unfix 21
print "seeds:4732401"
seeds:4732401
