LAMMPS (10 Feb 2015)
# ---- initialize simulations
clear
units metal
dimension 3
boundary p p p
atom_style charge
atom_modify map array
# ---- create atoms
read_data /Users/eugeneragasa/pyflamestk_git/pypospack/tests/tests_integration/workflow/WorkflowLammpsThermalExpansion/param_2856/MgO_NaCl_unit.npt.T500/lammps.structure
  triclinic box = (0 0 0) to (4.2565 4.2565 4.2565) with tilt (0 0 0)
  1 by 1 by 1 MPI processor grid
  reading atoms ...
  8 atoms
# ---- define interatomic potential
include potential.mod
mass 1 24.305
mass 2 15.999

group Mg type 1
4 atoms in group Mg
group O type 2
4 atoms in group O

set group Mg charge 1.71287520642
  4 settings made for charge
set group O charge -1.71287520642
  4 settings made for charge

variable R_cut equal 10.0

pair_style buck/coul/long ${R_cut}
pair_style buck/coul/long 10
pair_coeff 1 1 0.0 0.5 0.0 ${R_cut}
pair_coeff 1 1 0.0 0.5 0.0 10
pair_coeff 1 2 1268.25800143 0.292150986054 0.0 ${R_cut}
pair_coeff 1 2 1268.25800143 0.292150986054 0.0 10
pair_coeff 2 2 34972.2762623 0.190168709461 15.9037418312 ${R_cut}
pair_coeff 2 2 34972.2762623 0.190168709461 15.9037418312 10

kspace_style pppm 1.0e-5

neighbor 1.0 bin
neigh_modify every 1 delay 0 check yes
# ---- define settings
compute eng all pe/atom
compute eatoms all reduce sum c_eng
# ---- run minimization
reset_timestep 0
fix 1 all box/relax iso 0.0 vmax 0.001
thermo 10
thermo_style custom step pe lx ly lz xy xz yz press pxx pyy pzz pxy pxz pyz c_eatoms
min_style cg
minimize 1e-25 1e-25 5000 10000
PPPM initialization ...
  G vector (1/distance) = 0.353245
  grid = 8 8 8
  stencil order = 5
  estimated absolute RMS force accuracy = 4.15075e-05
  estimated relative force accuracy = 2.88254e-06
  using double precision FFTs
  3d grid and FFT values/proc = 3375 512
Neighbor list info ...
  1 neighbor list requests
  update every 1 steps, delay 0 steps, check yes
  master list distance cutoff = 11
Memory usage per processor = 4.06549 Mbytes
Step PotEng Lx Ly Lz Xy Xz Yz Press Pxx Pyy Pzz Pxy Pxz Pyz eatoms 
       0    -118.2398       4.2565       4.2565       4.2565            0            0            0    92099.563    92099.563    92099.563    92099.563 -2.6648665e-10 1.3518399e-10 2.2028947e-10    -118.2398 
      10   -118.33067     4.299065     4.299065     4.299065            0            0            0    34673.493    34673.493    34673.493    34673.493 -1.1760899e-11 -1.3745134e-10 -5.0678772e-11   -118.33067 
      18   -118.34767    4.3277342    4.3277342    4.3277342            0            0            0    -4.391814    -4.391814    -4.391814    -4.391814 -1.1240186e-10 -1.6034703e-10 -8.891662e-11   -118.34767 
Loop time of 0.0119119 on 1 procs for 18 steps with 8 atoms

Minimization stats:
  Stopping criterion = linesearch alpha is zero
  Energy initial, next-to-last, final = 
        -118.239795936     -118.347671294     -118.347671294
  Force two-norm initial, final = 13.2992 0.00175014
  Force max component initial, final = 13.2992 0.000655584
  Final line search alpha, max atom move = 0.00390625 2.56088e-06
  Iterations, force evaluations = 18 35

Pair  time (%) = 0.00320339 (26.8924)
Kspce time (%) = 0.00187373 (15.73)
Neigh time (%) = 0 (0)
Comm  time (%) = 0.000357866 (3.00428)
Outpt time (%) = 1.19209e-05 (0.100076)
Other time (%) = 0.00646496 (54.2732)

Nlocal:    8 ave 8 max 8 min
Histogram: 1 0 0 0 0 0 0 0 0 0
Nghost:    2189 ave 2189 max 2189 min
Histogram: 1 0 0 0 0 0 0 0 0 0
Neighs:    2344 ave 2344 max 2344 min
Histogram: 1 0 0 0 0 0 0 0 0 0

Total # of neighbors = 2344
Ave neighs/atom = 293
Neighbor list builds = 0
Dangerous builds = 0
unfix 1
# ---- define output variables ----
variable natoms equal "count(all)"
variable tot_energy equal "c_eatoms"
variable length_x equal "lx"
variable length_y equal "ly"
variable length_z equal "lz"
variable tilt_xy equal "xy"
variable tilt_xz equal "xz"
variable tilt_yz equal "yz"
variable tot_press equal "press"
variable press_xx equal "pxx"
variable press_yy equal "pyy"
variable press_zz equal "pzz"
variable press_xy equal "pxy"
variable press_xz equal "pxz"
variable press_yz equal "pyz"

# ---- output ----
print "pypospack:output_section:begin"
pypospack:output_section:begin
print "tot_energy = ${tot_energy}"
tot_energy = -118.347671293792
print "num_atoms = ${natoms}"
num_atoms = 8
print "xx = ${length_x}"
xx = 4.32773421076983
print "yy = ${length_y}"
yy = 4.32773421076983
print "zz = ${length_z}"
zz = 4.32773421076983
print "xy = ${tilt_xy}"
xy = 0
print "xz = ${tilt_xz}"
xz = 0
print "yz = ${tilt_yz}"
yz = 0
print "tot_press = ${tot_press}"
tot_press = -4.39181402043263
print "pxx = ${press_xx}"
pxx = -4.39181402021402
print "pyy = ${press_yy}"
pyy = -4.39181402042068
print "pzz = ${press_zz}"
pzz = -4.39181402066319
print "pxy = ${press_xy}"
pxy = -1.12401857084108e-10
print "pxz = ${press_xz}"
pxz = -1.60347032595802e-10
print "pyz = ${press_yz}"
pyz = -8.89166196817966e-11
print "pypospack:output_section:done"
pypospack:output_section:done
print "pypospack:lammps_sim:done"
pypospack:lammps_sim:done
#------------------------------------------------------------------------------
# RUN THERMOSTAT
# running using an NPT Nose-Hoover style thermostat
#------------------------------------------------------------------------------
variable tempdamp equal 0.1
variable pressdamp equal 1.0
# set initial velocities
velocity all create 500 1209997 mom yes dist gaussian loop all
# fix for Nose-Hoover style thermostat
fix 20 all npt temp 500 500 0.1 aniso 0.0 0.0 1.0 drag 1.0 couple xyz
variable boxx equal lx
variable boxy equal ly
variable boxz equal lz
variable boxp equal press
variable boxt equal temp
# calculate averages every 10000 steps
reset_timestep 0
fix 21 all ave/time 10 10 100 v_boxx v_boxy v_boxz v_boxp v_boxt file lattice.out
thermo_style custom step temp pe ke etotal press lx ly lz press pxx pyy pzz pxy pxz pyz vol
thermo_modify flush yes
thermo 100
run 100000
PPPM initialization ...
  G vector (1/distance) = 0.352508
  grid = 8 8 8
  stencil order = 5
  estimated absolute RMS force accuracy = 4.29555e-05
  estimated relative force accuracy = 2.9831e-06
  using double precision FFTs
  3d grid and FFT values/proc = 3375 512
Memory usage per processor = 3.06549 Mbytes
Step Temp PotEng KinEng TotEng Press Lx Ly Lz Press Pxx Pyy Pzz Pxy Pxz Pyz Volume 
       0          500   -118.34768   0.45241051   -117.89527    5955.3091    4.3277342    4.3277342    4.3277342    5955.3091    9218.8259    4303.7953     4343.306    1923.5303    -195.8387   -3176.9292    81.055361 
     100    158.79503   -117.97621   0.14368108   -117.83252   -4851.5041    4.3535882    4.3535882    4.3535882   -4851.5041    7228.7179    -12376.12   -9407.1102   -655.09071    1088.9226    2411.7327    82.516737 
     200    441.84895   -118.11143   0.39979421   -117.71164    1459.3536    4.3379142    4.3379142    4.3379142    1459.3536    10205.734   -7658.6773    1831.0047   -7871.5126   -3402.2132    1653.7494    81.628702 
     300    447.86713   -118.01181   0.40523959   -117.60657   -284.15608    4.3536445    4.3536445    4.3536445   -284.15608    12524.066   -4649.1216    -8727.413    1038.9235    2585.6839    2650.5055    82.519939 
     400    532.51317   -118.00171   0.48182911   -117.51988   -1805.4537    4.3565352    4.3565352    4.3565352   -1805.4537    10873.514   -14918.868   -1371.0069   -899.66113    2163.3741    2471.1497    82.684421 
     500    606.56612   -118.01487   0.54883377   -117.46604    3241.0811    4.3434602    4.3434602    4.3434602    3241.0811    12966.805   -3423.2806    179.71902   -4961.2283   -1490.4444   -4648.5227    81.942185 
     600    417.14198    -117.8184   0.37743883   -117.44096   -6624.0408    4.3676102    4.3676102    4.3676102   -6624.0408    5232.8118   -14919.683   -10185.251   -4440.8444   -4043.9712    494.96704    83.316613 
     700     702.7383    -118.0642   0.63585238   -117.42834     6912.165    4.3461621    4.3461621    4.3461621     6912.165    16507.862    2788.6436     1439.989    1507.2813    -2255.673     736.4661    82.095197 
     800    565.06945   -117.94538   0.51128672    -117.4341   -2079.5039    4.3571279    4.3571279    4.3571279   -2079.5039    13982.808   -13857.617   -6363.7032   -1525.0566    4503.9983    1365.5006    82.718173 
     900    408.62401   -117.80747   0.36973159   -117.43774    1063.7306    4.3575882    4.3575882    4.3575882    1063.7306    4264.9148   -1094.7057    20.982836   -7733.5214   -3991.7118    1404.5893    82.744392 
    1000    783.13925   -118.14587   0.70860085   -117.43726   -7707.8741    4.3498635    4.3498635    4.3498635   -7707.8741    738.44069   -10019.497   -13842.566    3049.9281   -270.79794   -4174.8591    82.305126 
    1100    431.39447   -117.83555   0.39033478   -117.44521    5322.3325    4.3585967    4.3585967    4.3585967    5322.3325    28475.781   -6818.0304   -5690.7534   -2480.9598   -2026.1266    1358.6659    82.801854 
    1200     496.6676   -117.89637   0.44939528   -117.44697    5050.5199    4.3504559    4.3504559    4.3504559    5050.5199    17761.799   -8095.0091    5484.7698   -4244.0409    5645.7068    892.53964    82.338757 
    1300    590.95501   -117.98061   0.53470851    -117.4459   -11663.202     4.358702     4.358702     4.358702   -11663.202    3064.1694   -18908.705   -19145.072   -4370.3141   -5501.1133    1939.7027    82.807857 
    1400    336.05767   -117.75006   0.30407204   -117.44599    15533.403    4.3498133    4.3498133    4.3498133    15533.403    49328.946   -6404.3162    3675.5809    847.08024    9812.9436    2311.0567    82.302278 
    1500    622.15305   -118.01298   0.56293716   -117.45005   -5456.1413    4.3559146    4.3559146    4.3559146   -5456.1413    4578.1552   -8515.9268   -12430.652   -2209.9092   -3716.3354   -2769.9735    82.649091 
    1600    541.20174   -117.93915   0.48969071   -117.44946   -13299.778    4.3592897    4.3592897    4.3592897   -13299.778   -5666.9048   -24550.367   -9682.0616    -3423.549    3586.8435     966.7503    82.841355 
    1700    355.78158   -117.76576   0.32191865   -117.44384    20034.111    4.3432318    4.3432318    4.3432318    20034.111    45634.739    8607.1032    5860.4917   -2042.0826   -2074.2282    1085.5579    81.929257 
    1800    667.05422   -118.04303   0.60356468   -117.43946   -20460.029    4.3674996    4.3674996    4.3674996   -20460.029    5289.9637   -33607.461    -33062.59    2614.7511     3056.322    917.37827    83.310288 
    1900    393.03462   -117.79484   0.35562599   -117.43922    9877.2598    4.3460302    4.3460302    4.3460302    9877.2598    21138.093   -3423.6922    11917.379   -6932.9886    2435.6531    4617.8043    82.087726 
    2000    518.49094   -117.91308    0.4691415   -117.44394   -3234.5705    4.3542004    4.3542004    4.3542004   -3234.5705    28032.002   -18986.316   -18749.398    -2220.792   -3652.9268   -917.93107    82.551552 
    2100     500.8544   -117.89622   0.45318359   -117.44303   -11449.968    4.3641426    4.3641426    4.3641426   -11449.968    3379.5703   -20064.657   -17664.818     3520.654     1086.089   -815.39072     83.11833 
    2200    475.80414   -117.86953   0.43051758   -117.43902    12089.116    4.3394018    4.3394018    4.3394018    12089.116    35588.049   -4524.6405    5203.9382   -9151.5552    132.46954    2620.0314    81.712706 
    2300    411.69852   -117.81637   0.37251347   -117.44386   -8130.5488    4.3663508    4.3663508    4.3663508   -8130.5488    18604.241   -28993.651   -14002.236   -953.82423    1839.2076   -1536.2812    83.244565 
    2400     629.8173   -118.01231   0.56987193   -117.44244    68.512009    4.3483192    4.3483192    4.3483192    68.512009     7734.546   -12044.808    4515.7981     319.1211   -5967.4433     839.3932    82.217496 
    2500    370.03608    -117.7839   0.33481642   -117.44909    7053.3921    4.3540715    4.3540715    4.3540715    7053.3921    47604.809    -8469.087   -17975.545   -948.56562    276.00426    126.24488    82.544223 
    2600    521.41935   -117.91822   0.47179118   -117.44643   -11096.908     4.359924     4.359924     4.359924   -11096.908    2795.0233   -31039.169    -5046.579   -2390.7745    1070.3705    -3759.804     82.87752 
    2700    402.45225   -117.80591   0.36414725   -117.44177    19326.979    4.3418022    4.3418022    4.3418022    19326.979    42326.247     1824.114    13830.577   -1047.0515    831.09589    2280.2401    81.848384 
    2800    600.23715   -117.98224   0.54310719   -117.43913   -25318.648    4.3689828    4.3689828    4.3689828   -25318.648   -12175.287   -26719.307   -37061.349    2892.0619    3400.4446   -1529.5587    83.395193 
    2900    296.08401   -117.70636   0.26790304   -117.43845    16539.985    4.3409297    4.3409297    4.3409297    16539.985    35475.662    114.59409    14029.699   -5885.7037    915.33442   -723.66469    81.799049 
    3000    605.54511   -117.99179   0.54790994   -117.44388   -16091.297    4.3615543    4.3615543    4.3615543   -16091.297   -1268.5684   -20608.658   -26396.665   -4563.2098    -2700.472    3189.8112    82.970529 
    3100    357.38297   -117.76684   0.32336762   -117.44347    3741.6672    4.3558125    4.3558125    4.3558125    3741.6672    26270.129   -7382.2635   -7662.8644    6203.2345   -2469.9202   -3029.9741    82.643279 
    3200    570.14232   -117.95246   0.51587676   -117.43659    6517.5291    4.3414812    4.3414812    4.3414812    6517.5291    17475.424   -7507.8906    9585.0543   -4061.3335   -426.30543    1805.2002    81.830228 
    3300     461.6538   -117.85646   0.41771406   -117.43875   -21989.352     4.372601     4.372601     4.372601   -21989.352    5044.2696   -30510.566   -40501.759   -6776.6003    4343.2081    487.57372    83.602557 
    3400    394.14874   -117.79767   0.35663407   -117.44104    21075.808    4.3337392    4.3337392    4.3337392    21075.808     34552.27     31.43871    28643.716     4057.781   -2780.6662   -2911.3631    81.393237 
    3500    580.74903   -117.97522   0.52547393   -117.44975   -20946.231     4.365422     4.365422     4.365422   -20946.231   -10550.933   -31184.463   -21103.296    4610.9464   -929.04631    4620.0669    83.191452 
    3600    404.79146   -117.81331   0.36626382   -117.44705   -6647.8874    4.3531895    4.3531895    4.3531895   -6647.8874    10224.441   -20921.137   -9246.9659   -13278.928    304.11749   -3274.0736     82.49407 
    3700    526.97506     -117.918   0.47681811   -117.44118    7852.1318    4.3383581    4.3383581    4.3383581    7852.1318    16772.405   -4610.8957    11394.886    5470.5612    383.32338    2517.3852    81.653759 
    3800    451.75688   -117.84542   0.40875912   -117.43667   -23036.625    4.3773427    4.3773427    4.3773427   -23036.625     1847.221   -41599.257   -29357.838    950.98911   -456.73865    -1507.681    83.874831 
    3900    522.03996    -117.9026   0.47235273   -117.43024    25303.598    4.3263178    4.3263178    4.3263178    25303.598    37481.006    6659.8656    31769.922   -5161.9511   -2849.1279   -2239.1047    80.975802 
    4000     466.1317   -117.86443   0.42176576   -117.44267   -13047.521     4.368104     4.368104     4.368104   -13047.521    21433.077   -33700.105   -26875.535   -7482.5608   -1123.9099    2644.7034    83.344879 
    4100    508.14807   -117.89958   0.45978306   -117.43979    -2922.311    4.3547189    4.3547189    4.3547189    -2922.311    24873.682   -24686.697   -8953.9172    4486.7024   -3781.2591    -2493.441    82.581049 
    4200    381.38029    -117.7804    0.3450809   -117.43532    29923.376    4.3318813    4.3318813    4.3318813    29923.376    50689.054    4007.5268    35073.546    8777.7594   -736.50064   -479.95313    81.288599 
    4300    680.37423   -118.04869    0.6156169   -117.43308   -35936.224    4.3764435    4.3764435    4.3764435   -35936.224   -21600.772   -45043.703   -41164.197   -7899.4074     3639.986    -1480.885    83.823149 
    4400    306.78444   -117.71404   0.27758501   -117.43645    19464.824     4.334402     4.334402     4.334402    19464.824    37291.987   -947.75019    22050.235    4929.1395    2557.8318   -2023.4597    81.430589 
    4500    484.31327   -117.88448   0.43821683   -117.44626   -10301.867     4.360495     4.360495     4.360495   -10301.867     5995.865   -29310.847   -7590.6176    7504.7235    114.12159    1092.6165    82.910091 
    4600    534.50582   -117.92493    0.4836321    -117.4413   -3750.8771    4.3561921    4.3561921    4.3561921   -3750.8771    1535.1785   -13207.506    419.69591   -7495.2137   -1008.3541    2237.5962    82.664884 
    4700    428.71083   -117.82287   0.38790656   -117.43496    7130.8991    4.3409143    4.3409143    4.3409143    7130.8991    11222.345   -9181.7866    19352.139    3518.2167   -856.10116   -65.966184    81.798177 
    4800    443.20876   -117.83835    0.4010246   -117.43733   -14576.703    4.3655655    4.3655655    4.3655655   -14576.703    11501.677   -35610.081   -19621.704    10195.661    4528.9148   -192.50738    83.199654 
    4900    598.02741    -117.9783   0.54110777   -117.43719    13576.839    4.3412204    4.3412204    4.3412204    13576.839    15419.171   -5667.3726    30978.719    1470.1594   -4696.1988   -3111.9967    81.815486 
    5000     414.5982   -117.81879   0.37513716   -117.44365    4074.2482    4.3570999    4.3570999    4.3570999    4074.2482    38632.118   -5995.0488   -20414.325   -6505.1328    7127.8323   -1021.7046    82.716576 
    5100    553.22408   -117.94358   0.50056878   -117.44301   -12750.271    4.3544618    4.3544618    4.3544618   -12750.271   -13459.587   -28046.397    3255.1709     8551.075   -2714.4479    2478.6148    82.566422 
    5200     397.1574    -117.8015   0.35935636   -117.44215    16430.485    4.3412771    4.3412771    4.3412771    16430.485    33241.174    5524.8856    10525.394    8484.4603    6627.6441   -2785.6017    81.818691 
    5300    619.51717    -117.9984   0.56055216   -117.43785   -14835.496    4.3667925    4.3667925    4.3667925   -14835.496    -17232.52   -26355.301   -918.66674   -4040.5254    263.98028    2622.2089    83.269828 
    5400      500.473   -117.89024   0.45283848    -117.4374    5073.0066    4.3407879    4.3407879    4.3407879    5073.0066    11014.001   -4478.2395    8683.2587    1164.4043   -9418.1089   -1010.2048    81.791033 
    5500    408.42051   -117.81332   0.36954746   -117.44378   -1252.9744    4.3534165    4.3534165    4.3534165   -1252.9744     2700.653   -16698.425    10238.849    12679.957    8684.2961    1369.2853    82.506976 
    5600    552.88673   -117.93796   0.50026353   -117.43769   -4976.0442    4.3631894    4.3631894    4.3631894   -4976.0442   -57.459937   -20825.407    5954.7347     1499.836    -5649.294    810.37249    83.063879 
    5700    686.53704   -118.05254   0.62119314   -117.43134    12853.451    4.3349238    4.3349238    4.3349238    12853.451    28178.986    2707.4863    7673.8817   -4463.1929    6251.9294   -2467.8966        81.46 
    5800    264.58714   -117.68118     0.239404   -117.44178   -119.60781    4.3648975    4.3648975    4.3648975   -119.60781    18114.291   -25001.556    6528.4411    10668.644   -4803.4741    1199.0079    83.161469 
    5900    714.22604   -118.08905   0.64624673    -117.4428    -7745.862    4.3481912    4.3481912    4.3481912    -7745.862   -3028.1642   -18151.838   -2057.5834    6888.2796    2680.5407   -2063.8647    82.210235 
    6000    529.25232   -117.92434   0.47887862   -117.44547    19026.477    4.3407056    4.3407056    4.3407056    19026.477    32570.148    3229.6435    21279.639   -2731.0219   -4269.5394     2161.766    81.786382 
    6100    457.14554   -117.85663   0.41363489   -117.44299   -19144.775     4.371921     4.371921     4.371921   -19144.775   -13249.059   -33824.295    -10360.97    6980.1295   -1460.9911   -1695.7316    83.563556 
    6200    454.69135    -117.8473   0.41141429   -117.43588    11963.587    4.3336259    4.3336259    4.3336259    11963.587     11757.36   -718.48404    24851.885    9769.3593   -469.32528   -436.47882    81.386855 
    6300    550.16603    -117.9355   0.49780179    -117.4377   -4334.3726    4.3576748    4.3576748    4.3576748   -4334.3726   -7167.1254   -15311.706    9475.7133    583.93412   -2479.2098    1773.3704    82.749323 
    6400    576.30638   -117.95937   0.52145412   -117.43792   -10328.433    4.3578411    4.3578411    4.3578411   -10328.433     -10864.9   -16368.446    -3751.952   -967.67815    6901.0993   -2183.1299    82.758799 
    6500    441.59735   -117.83883   0.39956657   -117.43926    9245.9879    4.3349059    4.3349059    4.3349059    9245.9879    8328.5981   -6705.6615    26115.027     13365.54   -7615.4636    1358.2495    81.458989 
    6600    433.22954    -117.8334    0.3919952    -117.4414   -7497.8334    4.3667319    4.3667319    4.3667319   -7497.8334    9906.8006    -29000.82   -3399.4809   -576.32752     3905.064    -3179.814    83.266363 
    6700    709.69846   -118.07983   0.64215008   -117.43768     4463.639    4.3436065    4.3436065    4.3436065     4463.639    11060.574   -5904.5337    8234.8772   -3598.6042   -2603.6206    766.35844    81.950464 
    6800    294.92044   -117.71033   0.26685022   -117.44348    17705.517    4.3451956    4.3451956    4.3451956    17705.517    41493.672   -6564.2819    18187.161    8642.1835    8044.8754    1775.3007    82.040443 
    6900    516.76933   -117.90982   0.46758375   -117.44223   -20569.006    4.3639416    4.3639416    4.3639416   -20569.006    -20105.98   -35296.172   -6304.8668    10044.011   -5016.2022    138.33272    83.106844 
    7000    613.71657    -117.9915   0.55530365    -117.4362    10408.948    4.3353381    4.3353381    4.3353381    10408.948    11242.462    5328.5578    14655.825   -2484.5915     2275.431    384.86366    81.483358 
    7100    425.52558   -117.82456   0.38502449   -117.43954   -7475.4165    4.3638681    4.3638681    4.3638681   -7475.4165    2431.5055   -25061.854    204.09916    2605.5547    6567.4013   -3025.1017    83.102647 
    7200    458.76349   -117.85219   0.41509884   -117.43709   -4473.9546    4.3477876    4.3477876    4.3477876   -4473.9546   -1428.1636   -19863.455    7869.7551    15489.458   -3419.0289    469.65404    82.187345 
    7300    505.70291   -117.89452   0.45757062   -117.43695    4954.4829    4.3433779    4.3433779    4.3433779    4954.4829    1324.0876   -6167.0327    19706.394   -3445.2666    5574.4713   -337.97607    81.937529 
    7400    507.47238   -117.89506   0.45917168   -117.43589   -10852.638    4.3667428    4.3667428    4.3667428   -10852.638   -487.34469   -22789.388   -9281.1807    1427.4141   -9000.8063    798.62868    83.266984 
    7500    549.91762   -117.93472   0.49757702   -117.43714    7385.3881    4.3340634    4.3340634    4.3340634    7385.3881    11626.789   -9044.6558    19574.031    13075.628    6776.8352   -146.31612    81.411507 
    7600      404.841   -117.81131   0.36630864   -117.44501    1160.3784    4.3561473    4.3561473    4.3561473    1160.3784    12637.548   -13815.621    4659.2087    2223.2325   -5601.4457   -1071.0563    82.662337 
    7700    570.86405   -117.95496   0.51652979   -117.43843   -2069.5281    4.3576975    4.3576975    4.3576975   -2069.5281    13275.849    -11604.45   -7879.9833   -4041.2821   -3737.0135    256.48664    82.750616 
    7800    537.72983   -117.92127   0.48654925   -117.43472    12308.726    4.3362357    4.3362357    4.3362357    12308.726    31472.728   -1556.5861    7010.0371     5098.504    4434.5883   -1409.4303    81.533981 
    7900    338.85958   -117.74621   0.30660727    -117.4396    -9922.117    4.3648433    4.3648433    4.3648433    -9922.117   -10488.393   -26933.881    7655.9234    11298.615   -5976.4925    1143.9041    83.158373 
    8000    650.27096   -118.02232   0.58837883   -117.43394   -2864.1274    4.3451563    4.3451563    4.3451563   -2864.1274   -6382.7666   -5330.8493    3121.2336   -3397.0951     5482.176   -430.99791    82.038218 
    8100    451.11883   -117.84442    0.4081818   -117.43623     7125.083    4.3449903    4.3449903    4.3449903     7125.083    16876.165    3349.2203    1149.8642   -3702.6662   -8784.5351    925.98892    82.028813 
    8200    492.83609    -117.8836   0.44592845   -117.43767   -7729.4807    4.3561757    4.3561757    4.3561757   -7729.4807   -16460.729   -19934.309    13206.596    9656.8277    2480.5276   -555.16558    82.663951 
    8300    441.55894   -117.83736   0.39953181   -117.43783   -607.74181    4.3527075    4.3527075    4.3527075   -607.74181    24296.879   -18461.652   -7658.4521   -465.72168    576.96798    396.05148     82.46667 
    8400    596.53616   -117.97713   0.53975845   -117.43737    5267.3047    4.3443023    4.3443023    4.3443023    5267.3047    7961.6709   -1615.9896    9456.2328   -3820.9674   -8900.0369    2682.0443    81.989854 
    8500    405.70066   -117.80738   0.36708648   -117.44029    8520.2099    4.3531064    4.3531064    4.3531064    8520.2099    32459.486   -7606.7087    707.85256    5990.4711    11999.591    1012.0886    82.489344 
    8600    527.54386   -117.91651   0.47733277   -117.43918    -10672.62    4.3548834    4.3548834    4.3548834    -10672.62   -2504.0944   -25585.926   -3927.8399    4239.0341   -4512.7662    1801.4962    82.590407 
    8700    528.54368   -117.91434   0.47823743    -117.4361    11384.594    4.3392092    4.3392092    4.3392092    11384.594    25336.197   -1082.4101    9899.9969   -4151.9856    3679.4826   -1470.5605    81.701824 
    8800    434.66669   -117.83097   0.39329555   -117.43767   -1152.6125    4.3612727    4.3612727    4.3612727   -1152.6125    23212.421   -16176.632   -10493.627   -1868.7812    3602.4977   -920.39642    82.954459 
    8900    628.53862   -118.00357   0.56871495   -117.43485     -3266.67    4.3452374    4.3452374    4.3452374     -3266.67    2652.8824   -6530.8182    -5922.074    8132.8042   -3551.2794   -670.29426    82.042808 
    9000    370.86111   -117.77372   0.33556292   -117.43815    7982.4147    4.3473725    4.3473725    4.3473725    7982.4147    18432.338   -7945.3685    13460.274    1137.7771    11354.471    478.84554     82.16381 
    9100    611.21189   -117.98794   0.55303736    -117.4349   -16171.862    4.3583385    4.3583385    4.3583385   -16171.862   -15616.878   -25600.491   -7298.2162   -10076.446   -5573.0013   -55.436088     82.78714 
    9200    479.59407   -117.86844    0.4339468    -117.4345    3620.8145    4.3424297    4.3424297    4.3424297    3620.8145    9171.3441    5434.8264   -3743.7272    5549.0513    10590.638    130.99097    81.883874 
    9300    442.50043   -117.83772   0.40038369   -117.43734   -4425.5783     4.353425     4.353425     4.353425   -4425.5783   -11184.924   -10391.827     8300.016    3370.9891    6190.8566   -457.81282    82.507459 
    9400    634.94258   -118.00987   0.57450939   -117.43536   -9337.4339       4.3505       4.3505       4.3505   -9337.4339   -4436.2254   -22686.641   -889.43488   -7609.0365   -6391.4684   -520.78008     82.34126 
    9500    370.22047   -117.77434   0.33498327   -117.43935    3541.1909    4.3495187    4.3495187    4.3495187    3541.1909    10843.125   -2760.0222    2540.4698    287.30107    12793.144    403.15112    82.285558 
    9600    609.50941    -117.9903   0.55149692    -117.4388   -5030.4493    4.3508797    4.3508797    4.3508797   -5030.4493   -1574.6983    -11047.99   -2468.6597    5123.9519    -6050.247    -929.4721    82.362825 
    9700    473.67753   -117.86777   0.42859338   -117.43917    2376.4511    4.3531612    4.3531612    4.3531612    2376.4511    13284.781   -12577.685    6422.2575   -2817.7686    6688.1709   -998.70383     82.49246 
    9800    551.97351   -117.93759   0.49943723   -117.43815    3482.7134     4.344788     4.344788     4.344788    3482.7134    3559.5171   -5337.2545    12225.878   -7422.3486   -1513.5562   -1172.9579    82.017357 
    9900    576.27596   -117.96042    0.5214266     -117.439   -1415.5458    4.3514768    4.3514768    4.3514768   -1415.5458    20753.599   -12372.348   -12627.889    3919.3172    2895.7194    1081.2596    82.396736 
   10000    544.27328   -117.93011    0.4924699   -117.43764   -535.46181      4.35357      4.35357      4.35357   -535.46181    6300.6142    -16691.44    8784.4407    5102.2881    4870.9686    2481.4029    82.515702 
   10100    485.74335   -117.87706   0.43951079   -117.43755    11876.573    4.3418218    4.3418218    4.3418218    11876.573    15689.942    883.74506    19056.032   -9878.3702   -9125.9601    300.43285    81.849494 
   10200    575.40682   -117.95833   0.52064019   -117.43769   -8499.0365    4.3563298    4.3563298    4.3563298   -8499.0365    11172.887   -23543.812   -13126.184   -5055.4809    8769.0706    669.44402    82.672726 
   10300    550.27458    -117.9348   0.49790001    -117.4369   -3578.3962    4.3492899    4.3492899    4.3492899   -3578.3962   -8215.4067   -7221.2976    4701.5158    4158.8268   -10356.069   -2242.6229    82.272573 
   10400    428.26741   -117.82632   0.38750535   -117.43881    6205.3615    4.3450667    4.3450667    4.3450667    6205.3615    15934.446   -8596.0728    11277.712   -9198.4023   -1196.3524    1285.2307    82.033141 
   10500    636.09837   -118.01166   0.57555518    -117.4361   -17281.675    4.3568047    4.3568047    4.3568047   -17281.675   -14396.193   -24857.764   -12591.069   -6477.0509    476.78234    936.96239    82.699765 
   10600    442.95636   -117.83863   0.40079623   -117.43784    9768.6619    4.3422322    4.3422322    4.3422322    9768.6619    19987.434    1758.9405    7559.6113      3291.91   -8256.5801    1525.5548    81.872704 
   10700    649.91619   -118.02882   0.58805783   -117.44076    -14526.05    4.3553258    4.3553258    4.3553258    -14526.05   -4594.7581    -23302.76   -15680.632   -4068.2132    6995.6936    408.09354    82.615575 
   10800    390.51641    -117.7949   0.35334746   -117.44156   -483.86118    4.3509161    4.3509161    4.3509161   -483.86118    10557.426    -19498.73    7489.7206   -13897.965   -9264.8683   -2445.9217     82.36489 
   10900    553.14357   -117.93731   0.50049593   -117.43681    8635.0086    4.3397681    4.3397681    4.3397681    8635.0086    12974.727    3624.7164    9305.5819    -2941.096   -271.88924    638.31055    81.733399 
   11000    641.92659    -118.0174   0.58082867   -117.43657   -16576.852    4.3634006    4.3634006    4.3634006   -16576.852    7043.8593   -26959.342   -29815.074    4134.9322    1797.2248    14.767408    83.075941 
   11100    385.88818   -117.78627   0.34915973   -117.43711     13975.84    4.3396932    4.3396932    4.3396932     13975.84    26824.867   -5352.9812    20455.633   -12377.602   -7505.6998    611.72289     81.72917 
   11200     552.9574   -117.93854   0.50032747   -117.43821   -5184.7146    4.3503937    4.3503937    4.3503937   -5184.7146   -3497.0565   -15540.225    3483.1382   -12061.202    3686.0693   -531.64918    82.335225 
   11300    548.47028   -117.93303   0.49626744   -117.43676   -428.02269    4.3552277    4.3552277    4.3552277   -428.02269    26697.867   -9337.9962   -18643.939    3732.9296   -4946.4637   -3373.6818    82.609994 
   11400    490.73361   -117.87964   0.44402609   -117.43561    5404.2285    4.3441619    4.3441619    4.3441619    5404.2285    7970.2932   -8595.6948    16838.087   -4568.7251    6288.0736    2270.5883    81.981908 
   11500    436.01378   -117.83166   0.39451443   -117.43714   -5854.4858      4.35205      4.35205      4.35205   -5854.4858    2367.4151    -21118.98    1188.1075   -8973.9047    1007.3458   -1087.2204    82.429304 
   11600    529.58285   -117.91457   0.47917769    -117.4354    1338.4581    4.3507981    4.3507981    4.3507981    1338.4581    10633.894   -7705.3202    1086.8005    155.70612   -3262.9326    1640.0055    82.358189 
   11700    547.06178   -117.93111   0.49499299   -117.43612   -4083.9303    4.3511094    4.3511094    4.3511094   -4083.9303   -2444.0444   -9506.1065   -301.64003   -3270.9873    8004.6631    1193.2348    82.375872 
   11800    467.65446   -117.86167   0.42314358   -117.43853    2346.9716    4.3421027    4.3421027    4.3421027    2346.9716     11090.67   -7341.4132    3291.6579    -9160.219   -4655.3518   -1837.0109    81.865379 
   11900    376.42776   -117.78062   0.34059975   -117.44002   -6253.8813     4.362509     4.362509     4.362509   -6253.8813   -6719.9702   -24414.275    12372.601   -4366.5022    2416.8666   -1642.6418    83.025022 
   12000    710.36086    -118.0798   0.64274944   -117.43705     1314.118    4.3407389    4.3407389    4.3407389     1314.118    15626.281   -3679.2597   -8004.6674    6044.5169      -2055.3    133.32179    81.788266 
   12100    380.21622    -117.7873   0.34402763   -117.44327    16650.817    4.3440279    4.3440279    4.3440279    16650.817    31000.218   -362.19069    19314.425   -9129.6478    2994.9537     3384.844    81.974321 
   12200    417.20151    -117.8162   0.37749269    -117.4387   -15933.346    4.3667402    4.3667402    4.3667402   -15933.346   -8395.6127   -36143.614   -3260.8123   -11369.204     1641.748   -1500.3501    83.266837 
   12300    598.58059   -117.97074   0.54160829   -117.42913    18698.562    4.3289057    4.3289057    4.3289057    18698.562    26199.607    8160.1361    21735.943    5807.7322    129.94936   -808.18506      81.1212 
   12400    402.82962   -117.80368   0.36448871   -117.43919     654.6585    4.3595242    4.3595242    4.3595242     654.6585    19247.297   -17388.362    105.04028    -924.3832    6254.1249     1254.031    82.854726 
   12500    451.83644   -117.84709    0.4088311   -117.43826   -6301.9291    4.3508399    4.3508399    4.3508399   -6301.9291   -9739.5914   -12364.123    3197.9267   -12358.511   -217.99642    811.99096    82.360565 
   12600     413.5252   -117.81045   0.37416629   -117.43629    12173.411    4.3360607    4.3360607    4.3360607    12173.411    16785.297   -4171.8788    23906.814   -260.10816    1273.6041    613.03165    81.524111 
   12700    547.53146   -117.93225   0.49541797   -117.43683   -13965.391    4.3658162    4.3658162    4.3658162   -13965.391   -7043.4987    -23496.66   -11356.013    5166.1701   -1422.0932   -687.29733    83.213989 
   12800    420.80436    -117.8196   0.38075263   -117.43885    8993.3742     4.337185     4.337185     4.337185    8993.3742    12945.697   -1047.2198    15081.646   -10315.072    835.26615    525.48468    81.587539 
   12900    416.76298   -117.81781    0.3770959   -117.44071   -1292.2615    4.3477471    4.3477471    4.3477471   -1292.2615    1235.4825   -9769.5164    4657.2496   -7251.9079    1484.8053   -3725.7721    82.185051 
   13000    557.11293   -117.94093   0.50408749   -117.43684   -7595.9056    4.3592502    4.3592502    4.3592502   -7595.9056   -3019.7814   -22418.202    2650.2667    5128.4588   -1597.9452    956.28657    82.839104 
   13100    445.46599   -117.83861   0.40306699   -117.43554    16817.191    4.3357881    4.3357881    4.3357881    16817.191    30480.587    10579.289    9391.6975   -3898.0609    9660.7029    1916.0914    81.508735 
   13200    422.15008   -117.82109   0.38197026   -117.43912   -7323.9004    4.3534667    4.3534667    4.3534667   -7323.9004   -634.73184    -23676.58    2339.6101     -9160.07    817.32641    1142.6739    82.509825 
   13300    463.03185   -117.85638   0.41896095   -117.43742   -1192.7071    4.3519216    4.3519216    4.3519216   -1192.7071    2009.2297   -9958.1359    4370.7847    2299.3723    317.05556   -1151.1634    82.422007 
   13400     544.3073   -117.92894   0.49250068   -117.43644    5000.6006    4.3422964    4.3422964    4.3422964    5000.6006    9761.5991   -7945.4988    13185.701    5463.2505   -568.10805   -1596.0349    81.876334 
   13500    389.64666   -117.79261   0.35256049   -117.44005   -4609.4035     4.352185     4.352185     4.352185   -4609.4035    9020.4016    -15631.81   -7216.8017   -8838.7696   -931.37897    3898.9328    82.436973 
   13600    486.16161   -117.87963   0.43988924   -117.43974    -15510.51    4.3502197    4.3502197    4.3502197    -15510.51   -24188.446   -24901.265    2558.1794   -5240.7983    793.29024   -247.08105    82.325348 
   13700    403.24276   -117.80306   0.36486252    -117.4382    6598.3121    4.3437152    4.3437152    4.3437152    6598.3121   -6583.7565   -3458.2517    29836.945    9869.0542   -2905.5399   -287.77501     81.95662 
   13800    582.99434   -117.96529   0.52750553   -117.43779   -11197.382    4.3537346    4.3537346    4.3537346   -11197.382    5562.9882   -22385.064   -16770.069   -7209.2704     1855.459     1197.038    82.525062 
   13900     302.3886   -117.71372   0.27360756   -117.44011    497.18123     4.346208     4.346208     4.346208    497.18123   -17159.195   -11341.312     29992.05   -9944.9114    400.64089    699.88783      82.0978 
   14000    480.67105   -117.87334   0.43492127   -117.43842   -1982.0972    4.3459008    4.3459008    4.3459008   -1982.0972   -11536.165   -12573.504    18163.378     6812.592    3385.5984    2801.1607    82.080393 
   14100    533.83592   -117.92015   0.48302596   -117.43712   -3276.9855    4.3550874    4.3550874    4.3550874   -3276.9855    5333.7571   -16287.296    1122.5828    2366.1743   -6081.4425    1432.4618    82.602012 
   14200    394.41753   -117.79445   0.35687727   -117.43757    10747.893     4.340875     4.340875     4.340875    10747.893    7054.2087    -7445.544    32635.013   -9091.8063   -1577.1681    1108.0293    81.795959 
   14300    464.57473   -117.86026   0.42035697    -117.4399   -5119.1578    4.3507049    4.3507049    4.3507049   -5119.1578    3237.7998   -13766.876   -4828.3975   -1588.0246    1930.0421   -985.21684    82.352894 
   14400    471.31122   -117.86532    0.4264523   -117.43887   -3716.4784    4.3533913    4.3533913    4.3533913   -3716.4784    -6797.522   -16771.576    12419.663    8099.5436    4789.1312   -969.24078    82.505542 
   14500    459.28047   -117.85429   0.41556662   -117.43873    12221.396    4.3371137    4.3371137    4.3371137    12221.396    27015.386    2894.8582    6753.9438   -2352.7486    798.11142    4377.3476    81.583519 
   14600    494.00514   -117.88808   0.44698623   -117.44109   -17874.126    4.3584592    4.3584592    4.3584592   -17874.126   -7761.0458   -31392.078   -14469.255    -7877.065   -2676.0693    5428.3732    82.794019 
   14700    338.18962   -117.74606   0.30600107   -117.44006    1284.3501    4.3460995    4.3460995    4.3460995    1284.3501   -9449.5448   -2419.1794    15721.775    8479.8679    11624.963   -3421.5728    82.091654 
   14800    572.43924   -117.95648   0.51795505   -117.43852   -2726.8563    4.3425274    4.3425274    4.3425274   -2726.8563    1570.8496   -11339.113    1587.6944    3536.1433   -5466.7258    4548.5362      81.8894 
   14900    409.32952   -117.80848   0.37036995   -117.43811   -8631.5341    4.3584227    4.3584227    4.3584227   -8631.5341     2459.694   -20645.696   -7708.6002   -7844.2919    1974.6174    2056.3579     82.79194 
   15000    424.78927   -117.82275   0.38435826    -117.4384     2955.041    4.3395185    4.3395185    4.3395185     2955.041   -3448.5558   -11363.106    23676.785    4663.6446   -1737.3245   -2340.6727      81.7193 
   15100    535.49503   -117.92612   0.48452715   -117.44159    -6312.297     4.349501     4.349501     4.349501    -6312.297    -14496.15   -8894.6178    4453.8768    7277.4378    7849.2069    1850.4282    82.284549 
   15200    389.86532    -117.7938   0.35275833   -117.44104    5718.2446    4.3536951    4.3536951    4.3536951    5718.2446    29737.727   -19927.975    7344.9811   -3965.1713    3039.8026   -3324.8067    82.522814 
   15300    606.00098   -117.98652   0.54832242    -117.4382    3951.1581    4.3404255    4.3404255    4.3404255    3951.1581   -386.13503     -6213.74    18453.349   -2782.2865   -4256.9472    4273.9136    81.770552 
   15400    340.10055   -117.75073   0.30773013     -117.443    1215.2668    4.3550971    4.3550971    4.3550971    1215.2668    13249.095   -20693.778    11090.483    8315.0213    4864.5469   -2796.8873    82.602562 
   15500    491.77461   -117.88627     0.444968    -117.4413    5101.1521    4.3452175    4.3452175    4.3452175    5101.1521    9677.6027   -5556.7414    11182.595    4328.6087   -3372.5131    829.07635    82.041683 
   15600    593.23989   -117.97641   0.53677592   -117.43964     2445.797    4.3442178    4.3442178    4.3442178     2445.797     14591.38   -6668.5344   -585.45507   -5939.8904    5352.9393    2592.1498    81.985072 
   15700    319.20255   -117.72858   0.28882117   -117.43976   -6853.6898    4.3576946    4.3576946    4.3576946   -6853.6898   -6710.0265   -25108.863     11257.82    7001.6296    -2042.042    -3876.322    82.750454 
   15800    571.81146   -117.95399   0.51738702    -117.4366   -7604.5298    4.3400427    4.3400427    4.3400427   -7604.5298   -13121.949   -10576.463    884.82228     10063.91    7884.6202    1621.8007    81.748916 
   15900    411.65325   -117.81183   0.37247251   -117.43936   -722.21634    4.3525505    4.3525505    4.3525505   -722.21634    8092.7726   -8276.0882   -1983.3334   -6323.7965   -2772.1578    1372.5548    82.457745 
   16000    573.00203   -117.95644   0.51846428   -117.43797   -12391.512    4.3500919    4.3500919    4.3500919   -12391.512   -15433.574   -19270.959    -2470.002    1509.5623   -3614.2148     17.18109    82.318094 
   16100    394.62093   -117.79693   0.35706131   -117.43987   -1808.8083    4.3425426    4.3425426    4.3425426   -1808.8083   -6256.9767   -11277.306    12107.858    14467.667    12488.398    618.68397    81.890262 
   16200    479.75009   -117.87362   0.43408796   -117.43953    -5096.481    4.3553594    4.3553594    4.3553594    -5096.481    2847.9217    -20924.45    2787.0852    119.80391   -1915.4015   -1977.7287    82.617491 
   16300    681.47957   -118.05409   0.61661703   -117.43747    395.41376    4.3445911    4.3445911    4.3445911    395.41376     7188.043   -3375.1497    -2626.652   -196.35105   -2517.4689    21.604042    82.006206 
   16400    337.70961    -117.7474   0.30556675   -117.44183    9114.0609     4.347366     4.347366     4.347366    9114.0609    14184.853   -18532.845    31690.175    6437.1926   -45.769911    1835.0029     82.16344 
   16500    583.92762   -117.96924   0.52834998   -117.44089   -7052.8587    4.3527613    4.3527613    4.3527613   -7052.8587   -5194.4562   -19115.227    3151.1076    4745.2641    9537.3199    -4541.079    82.469726 
   16600     601.0506   -117.98302   0.54384322   -117.43918    15310.558    4.3413218    4.3413218    4.3413218    15310.558    33124.909   -2767.4965    15574.262   -1741.1083   -2115.6883    4939.0211    81.821218 
   16700    532.58036   -117.92355   0.48188991   -117.44166    -3397.638    4.3544532    4.3544532    4.3544532    -3397.638   -7748.1107   -19898.022    17453.218    4650.2755   -7402.9505    -577.0058    82.565933 
   16800    442.73639    -117.8422   0.40059719    -117.4416     4726.481    4.3436091    4.3436091    4.3436091     4726.481    7359.3579   -14584.913    21404.998    13013.589    643.49702    5023.5986    81.950611 
   16900     644.9105   -118.02396   0.58352858   -117.44043   -1653.4332    4.3485672    4.3485672    4.3485672   -1653.4332    7596.2173   -11992.855   -563.66246   -2928.1717    6087.8709   -2248.9154    82.231567 
   17000    519.37594   -117.90972   0.46994227   -117.43978   -4683.3917    4.3545695    4.3545695    4.3545695   -4683.3917   -12114.423     -22838.8    20903.048   -551.53006    3177.6453   -373.25089    82.572549 
   17100    437.65581   -117.83778   0.39600018   -117.44178    98.345613    4.3405984    4.3405984    4.3405984    98.345613   -1703.9874   -6391.4816    8390.5058    15515.168   -10272.577    1586.9328    81.780324 
   17200    575.79443   -117.96313    0.5209909   -117.44214   -7202.9553    4.3527818    4.3527818    4.3527818   -7202.9553   -16491.279   -15442.356     10324.77    2651.3799    732.30455    253.50719    82.470894 
   17300    627.59535   -118.00714   0.56786147   -117.43927   -4181.7483    4.3510299    4.3510299    4.3510299   -4181.7483   -7855.4105   -12536.165     7846.331   -1050.8381    2874.7828    2935.0689    82.371356 
   17400    386.90672   -117.79071   0.35008133   -117.44063    1111.7933    4.3413642    4.3413642    4.3413642    1111.7933   -15483.542     -11187.5    30006.421    8985.9252    -6863.874   -411.63915    81.823617 
   17500    612.33738   -117.99665   0.55405573   -117.44259   -12085.105    4.3540437    4.3540437    4.3540437   -12085.105   -14634.845   -20176.635   -1443.8369    6720.5165    1152.7486    1230.7646    82.542638 
   17600    541.20605   -117.93101   0.48969461   -117.44132    7278.5221    4.3501232    4.3501232    4.3501232    7278.5221   -7038.4988   -5911.2111    34785.276   -287.65421    -7038.199    -1531.399    82.319868 
   17700     570.6124   -117.95792   0.51630209   -117.44161    510.32909    4.3381431    4.3381431    4.3381431    510.32909   -2926.9297   -3518.8218    7976.7388    6964.4102    121.85297     1205.836    81.641621 
   17800    394.84735   -117.80128   0.35726618   -117.44401   -7717.2842    4.3583841    4.3583841    4.3583841   -7717.2842   -19722.419   -28040.105    24610.672    13716.353   -2730.1079    95.420167    82.789739 
   17900    588.89482   -117.96972   0.53284441   -117.43688    9448.9415    4.3481766    4.3481766    4.3481766    9448.9415    10795.452   -1769.5617    19320.935   -1718.9702   -6817.4066    640.59286    82.209408 
   18000     694.0117   -118.06325   0.62795637    -117.4353    8657.9518    4.3375176    4.3375176    4.3375176    8657.9518    2322.6005   -3473.8269    27125.082   -2225.9986    6902.5237   -2165.9518    81.606312 
   18100    334.67826   -117.74412   0.30282392    -117.4413   -8826.8264    4.3617464    4.3617464    4.3617464   -8826.8264   -7757.1437   -25832.928    7109.5923    11747.817   -4293.3567   -578.83019    82.981489 
   18200     531.2456   -117.91909   0.48068219   -117.43841    10125.096    4.3425384    4.3425384    4.3425384    10125.096    8169.7191   -12019.732      34225.3    1705.3917    2488.8188    2259.2835    81.890026 
   18300    717.14003   -118.08632   0.64888337   -117.43744     7940.316    4.3430282    4.3430282    4.3430282     7940.316    11488.227   -2700.6048    15033.326   -2630.4633    -7840.464   -2338.7681    81.917737 
   18400    407.31107   -117.80857   0.36854362   -117.44003   -11225.568    4.3587282    4.3587282    4.3587282   -11225.568   -7284.9092   -31118.624    4726.8282    10722.707     -3214.12   -397.50791    82.809349 
   18500    384.76812   -117.78664   0.34814628    -117.4385    -99.53406    4.3409535    4.3409535    4.3409535    -99.53406   -16121.576   -10833.899    26656.873    8316.5295   -2551.6875    1746.6024    81.800395 
   18600    668.70835   -118.04402   0.60506137   -117.43896   -1875.4363     4.347573     4.347573     4.347573   -1875.4363    4810.9508   -15407.585    4970.3252   -4375.0283    2268.8304   -834.50634    82.175179 
   18700    475.90644   -117.87082   0.43061015   -117.44021   -5268.3748    4.3555026    4.3555026    4.3555026   -5268.3748   -11517.031    -21164.72    16876.626     6332.895   -712.42436    1719.7236    82.625642 
   18800    389.52226    -117.7932   0.35244793   -117.44076   -5036.1524     4.342009     4.342009     4.342009   -5036.1524   -17235.761    -12215.62    14342.924    12739.041    -5664.206   -4566.3969    81.860081 
   18900    500.28496   -117.89356   0.45266835   -117.44089   -3548.8031    4.3519842    4.3519842    4.3519842   -3548.8031    -11708.71   -19680.296    20742.597   -1105.2207   -2921.5338    4218.1465    82.425567 
   19000    616.50286   -117.99582   0.55782475   -117.43799   -2280.6946    4.3522264    4.3522264    4.3522264   -2280.6946    6167.1037   -9547.4628   -3461.7246   -873.64122    3526.9776   -1999.3562    82.439329 
   19100    372.50802   -117.77698   0.33705309   -117.43993    10849.448    4.3381878    4.3381878    4.3381878    10849.448   -9051.5945    -3907.605    45507.543     9876.517    912.47752   -979.73453    81.644148 
   19200    492.54574   -117.88822   0.44566573   -117.44256   -14655.088    4.3573011    4.3573011    4.3573011   -14655.088   -13478.532   -21246.811   -9239.9212    3761.3693    -6107.633    1512.4931    82.728038 
   19300    452.93171   -117.84953   0.40982213   -117.43971    12617.022    4.3450689    4.3450689    4.3450689    12617.022    16546.569   -3026.6423     24331.14   -4771.8083    64.602638   -4273.5636    82.033264 
   19400    599.51137   -117.98194   0.54245049   -117.43949    49.937508    4.3442109    4.3442109    4.3442109    49.937508    2056.2247   -12869.201    10962.789    7572.4992    2469.1681    2898.1203     81.98468 
   19500    348.97298   -117.75677   0.31575809   -117.44101   -5195.4007    4.3541373    4.3541373    4.3541373   -5195.4007    4080.4397   -23269.508    3602.8656    7999.6067   -673.89276   -5755.7134    82.547964 
   19600    473.39719   -117.86682   0.42833972   -117.43848   -859.35427    4.3454909    4.3454909    4.3454909   -859.35427   -12937.825   -7434.0018    17793.764   -7337.5389    -10703.41   -2474.9613     82.05717 
   19700    501.50867   -117.89225   0.45377558   -117.43847   -1024.8856    4.3488477    4.3488477    4.3488477   -1024.8856    1340.2125   -13948.863    9533.9935   -940.01048    4137.1024    2300.4943    82.247479 
   19800    436.25637   -117.83475   0.39473393   -117.44002   -3663.4579    4.3485275    4.3485275    4.3485275   -3663.4579   -7229.9367   -22230.975    18470.538    8144.0056     2893.428   -6933.2898    82.229315 
   19900    485.06663    -117.8807   0.43889848    -117.4418   -9353.8807    4.3478264    4.3478264    4.3478264   -9353.8807   -17125.992   -12838.223    1902.5729      408.843   -1103.3706    117.41583    82.189545 
   20000    456.06139   -117.85437   0.41265393   -117.44172   -1309.8999    4.3504344    4.3504344    4.3504344   -1309.8999   -7978.8155   -11993.902    16043.018   -2136.2673   -3762.3695   -429.22579    82.337534 
   20100    486.76027   -117.88057   0.44043092   -117.44014   -3499.4972    4.3502812    4.3502812    4.3502812   -3499.4972    7741.0138   -20291.287    2051.7821    3028.1956    1328.3346   -2814.8395    82.328841 
   20200    405.51648   -117.80855   0.36691983   -117.44163    233.89013     4.344716     4.344716     4.344716    233.89013   -11926.655   -14216.858    26845.183    4795.0096   -3789.4868    2288.8267    82.013277 
   20300    450.11164   -117.84997   0.40727047    -117.4427   -2693.4692    4.3494427    4.3494427    4.3494427   -2693.4692   -5507.4602   -6432.5856    3859.6382   -4926.5138   -6979.5476   -4278.2628    82.281242 
   20400    397.89599   -117.80123   0.36002465    -117.4412    998.23612    4.3518728    4.3518728    4.3518728    998.23612    9151.1324   -13318.918    7162.4939    942.96962    1403.9241    3620.8019    82.419232 
   20500    559.86939   -117.94572   0.50658159   -117.43914   -2760.9812    4.3427255    4.3427255    4.3427255   -2760.9812   -5796.3192   -6933.5041    4446.8798    7923.6225    5114.8924   -402.20504    81.900611 
   20600    360.45164   -117.76693   0.32614422   -117.44079    927.16461    4.3513412    4.3513412    4.3513412    927.16461     2142.848   -9633.4954    10272.141   -4387.2129    1548.9684   -1661.8336    82.389038 
   20700    549.54705   -117.93524   0.49724172     -117.438   -12023.744    4.3542382    4.3542382    4.3542382   -12023.744    -18548.03    -14813.51   -2709.6911   -701.32872   -8704.8375    3322.7331    82.553701 
   20800    236.43469   -117.65275   0.21393108   -117.43881    16547.942    4.3424572    4.3424572    4.3424572    16547.942    14247.208    3597.5247    31799.092    5818.2814    5382.0765   -3044.7953    81.885433 
   20900    649.41633   -118.02574   0.58760554   -117.43814   -12026.701     4.351464     4.351464     4.351464   -12026.701   -12115.511   -17597.915    -6366.676    104.46561    -2623.266    264.62196    82.396008 
   21000    359.46418    -117.7655   0.32525075   -117.44025     650.1191    4.3522346    4.3522346    4.3522346     650.1191   -24827.579   -676.66157    27454.598   -2527.2601    1458.4072   -286.62581    82.439792 
   21100    515.54959   -117.90505    0.4664801   -117.43857   -3361.1335    4.3427058    4.3427058    4.3427058   -3361.1335   -13756.338    1187.0515    2485.8855    972.07656    2648.3274   -2271.9577    81.899493 
   21200    333.52789   -117.74243   0.30178305   -117.44065    7932.9078    4.3501866    4.3501866    4.3501866    7932.9078   -5492.9844   -5812.9515    35104.659    5128.1586   -300.08673   -2385.3307    82.323469 
   21300    615.20435     -117.996   0.55664983   -117.43935    -9096.851    4.3519015    4.3519015    4.3519015    -9096.851   -18284.347   -8388.9816   -617.22465   -2380.2267    2732.6757    -2115.215    82.420863 
   21400    416.32466   -117.81812    0.3766993   -117.44142    2653.0529    4.3419328    4.3419328    4.3419328    2653.0529   -19736.316    12604.296    15091.178   -1279.7179    -13197.74    2015.5504    81.855767 
   21500    476.33217   -117.87241   0.43099536   -117.44142   -8689.4848    4.3536922    4.3536922    4.3536922   -8689.4848   -16303.315   -12613.138    2847.9981    8526.2942    4128.6314   -1226.7229    82.522652 
   21600    472.71955   -117.86708   0.42772658   -117.43936     3249.961    4.3490429    4.3490429    4.3490429     3249.961    175.05867    532.12945     9042.695    -425.7826   -3626.0245   -1325.9592    82.258555 
   21700    603.05829     -117.983   0.54565981   -117.43734    1648.3672    4.3423418    4.3423418    4.3423418    1648.3672   -14447.975   -50.335352    19443.412   -3922.7471   -3132.3162     624.2416    81.878905 
   21800    413.98098   -117.81558   0.37457869     -117.441   -6432.6167    4.3567715    4.3567715    4.3567715   -6432.6167   -11933.521   -10960.003     3595.674     7057.069    1088.2989     5174.408    82.697873 
   21900     539.2968   -117.92666   0.48796707   -117.43869    4677.9595    4.3426867    4.3426867    4.3426867    4677.9595    3332.3623    1644.3021     9057.214     675.0593   -2386.6241   -3850.8456    81.898416 
   22000    595.98396   -117.97734   0.53925881   -117.43808    1253.5368    4.3487774    4.3487774    4.3487774    1253.5368    4187.8585   -14651.683    14224.435   -2787.7255   -2526.2936   -1788.5697    82.243492 
   22100    498.37278   -117.88952   0.45093817   -117.43858    225.68281    4.3521292    4.3521292    4.3521292    225.68281   -6654.8736    -11035.59    18367.512    3730.6337   -2944.6615    2425.7981    82.433803 
   22200    549.48304   -117.93483    0.4971838   -117.43765    2452.6981    4.3444063    4.3444063    4.3444063    2452.6981       1987.4    -4448.734    9819.4283    3489.2937    7057.4091     2095.901    81.995745 
   22300    526.86775    -117.9144   0.47672101   -117.43768   -405.03649    4.3512056    4.3512056    4.3512056   -405.03649    3183.6196   -21563.542    17164.813   -4130.9442   -1041.4325    3163.4798    82.381334 
   22400    582.56149   -117.96781   0.52711388   -117.44069    517.53773     4.344265     4.344265     4.344265    517.53773    6651.2883   -11978.691    6880.0157    1157.7699   -6538.6204   -9169.1934    81.987745 
   22500    557.56874   -117.94855   0.50449991   -117.44405   -7643.4646    4.3509897    4.3509897    4.3509897   -7643.4646   -6557.5795   -20385.814    4012.9996    7445.2685    3600.7696    9175.7296    82.369072 
   22600    466.77514   -117.86427   0.42234795   -117.44192   -5113.0617    4.3517904    4.3517904    4.3517904   -5113.0617   -5934.2958   -18316.433    8911.5437   -554.93685    4863.1385   -4397.9753    82.414552 
   22700    513.54484   -117.90452   0.46466616   -117.43986    9564.7753    4.3378358    4.3378358    4.3378358    9564.7753    6860.7369   -11639.282    33472.871    -7115.389    1428.9916   -6699.1464    81.624272 
   22800    636.63363   -118.01739   0.57603948   -117.44135   -15980.656    4.3600488    4.3600488    4.3600488   -15980.656   -22135.729   -22625.495   -3180.7445    2929.8596   -7662.5568   -55.634583    82.884641 
   22900    462.47735   -117.86017   0.41845923   -117.44171    3710.5757    4.3447478    4.3447478    4.3447478    3710.5757   -129.94606   -10824.786    22086.459    2007.7564    5871.7373   -3585.9551     82.01508 
   23000    605.31622   -117.98839   0.54770283   -117.44069    6155.2998    4.3382107    4.3382107    4.3382107    6155.2998   -1867.3278    532.17846    19801.049   -7893.9302    4138.2772    1189.6074    81.645438 
   23100    425.77285   -117.82519   0.38524822   -117.43994   -3746.6792    4.3629322    4.3629322    4.3629322   -3746.6792   -18475.221   -20901.611    28136.794     3855.501   -1216.6929   -4946.1454     83.04919 
   23200    638.27349   -118.01416   0.57752327   -117.43664    3885.8193    4.3380336    4.3380336    4.3380336    3885.8193   -5293.7002    4436.9011    12514.257     6884.364   -8622.0189    6713.2917    81.635441 
   23300    543.97777    -117.9339   0.49220252    -117.4417   -50.173258    4.3465262    4.3465262    4.3465262   -50.173258   -5771.4145   -12677.628    18298.523   -6194.5995    4483.0452   -1085.4267    82.115831 
   23400    486.22158   -117.88196   0.43994351   -117.44201   -7800.3152    4.3574671    4.3574671    4.3574671   -7800.3152   -19989.375   -1447.4509   -1964.1196   -1978.8265    2272.7563   -3594.1277    82.737489 
   23500    521.34632   -117.91123   0.47172511   -117.43951    8392.2742    4.3389674    4.3389674    4.3389674    8392.2742   -2606.0121   -582.69904    28365.534    7733.2601   -4403.6023   -5124.3506    81.688172 
   23600    601.52871   -117.98423   0.54427582   -117.43995   -8509.1553    4.3525311    4.3525311    4.3525311   -8509.1553   -20834.241   -16393.242    11700.017   -406.17805   -2674.4757    2863.0099    82.456642 
   23700    472.63948   -117.86844   0.42765414   -117.44078    3814.5715    4.3493307    4.3493307    4.3493307    3814.5715   -2094.0547   -9222.1864    22759.955   -7290.6886    1999.4352   -236.05057    82.274884 
   23800    541.29908   -117.93208   0.48977878    -117.4423   -1035.5206    4.3482745    4.3482745    4.3482745   -1035.5206   -16868.324   -6891.7332    20653.496    4765.4926    4198.4345    543.07598    82.214959 
   23900    608.73269   -117.99243   0.55079413   -117.44164   -5027.7942    4.3482528    4.3482528    4.3482528   -5027.7942   -15236.255    -12761.93    12914.803    6050.1699    -7509.804    1965.9033    82.213732 
   24000    536.50937   -117.92692   0.48544495   -117.44148    583.13277    4.3491666    4.3491666    4.3491666    583.13277   -12063.963   -3415.1971    17228.558    -6016.654   -2027.6392   -906.53416    82.265572 
   24100    410.32765   -117.81255   0.37127308   -117.44128    -1358.229    4.3537877    4.3537877    4.3537877    -1358.229   -15345.786   -12481.073    23752.172    431.99576    2312.9523    -1549.489    82.528079 
   24200    484.89867   -117.87857   0.43874651   -117.43983    2379.6585    4.3413618    4.3413618    4.3413618    2379.6585   -17095.263    9518.7141    14715.525     7823.502   -2151.7643   -7813.2035    81.823481 
   24300    479.44846   -117.87418   0.43381504   -117.44037   -5381.0301    4.3544137    4.3544137    4.3544137   -5381.0301   -13846.884   -345.83437   -1950.3723   -1078.6159   -480.72798    3323.9798    82.563682 
   24400    576.72049   -117.96154   0.52182882   -117.43971   -10373.862    4.3514581    4.3514581    4.3514581   -10373.862   -23180.366   -13537.562     5596.343   -3102.0655   -1258.7962     2859.024    82.395675 
   24500    360.54876    -117.7675    0.3262321   -117.44127    14071.123    4.3385438    4.3385438    4.3385438    14071.123   -5776.7638     16658.58    31331.552    10685.053    2486.2772     4377.586    81.664247 
   24600    522.33427   -117.91311   0.47261903   -117.44049   -8878.3222    4.3573489    4.3573489    4.3573489   -8878.3222   -23663.605   -12516.804    9545.4431    3455.8368   -7652.1865   -1347.6665     82.73076 
   24700    464.19898   -117.85775   0.42001699   -117.43774    5344.0271    4.3483903    4.3483903    4.3483903    5344.0271   -15152.742   -5024.8121    36209.636   -4003.0331   -4908.0981   -698.95307    82.221528 
   24800    605.67172   -117.98729    0.5480245   -117.43926   -1723.3825    4.3440071    4.3440071    4.3440071   -1723.3825   -14961.181   -1905.8037    11696.837    9305.7036    193.32563     1074.896    81.973144 
   24900    338.95819   -117.74889   0.30669649    -117.4422    2180.6932     4.356934     4.356934     4.356934    2180.6932   -16324.136   -3381.9485    26248.164    6120.2325   -4206.3376   -1142.3623     82.70713 
   25000    619.49546   -117.99977   0.56053251   -117.43924   -5724.7189    4.3464548    4.3464548    4.3464548   -5724.7189     -11506.9   -5675.6654    8.4086186   -1182.9829   -3495.7188   -1706.2369    82.111789 
   25100    326.62328   -117.73632   0.29553561   -117.44079    13145.442    4.3427413    4.3427413    4.3427413    13145.442   -16165.969    6658.0559    48944.238   -2347.7632    1824.7616     1187.964    81.901503 
   25200    493.74482   -117.88727   0.44675069   -117.44052    -20951.09     4.361005     4.361005     4.361005    -20951.09   -30375.578   -20394.941   -12082.752    3867.3634    1738.6977    4070.9427    82.939186 
   25300    297.62439   -117.70905   0.26929681   -117.43975    13500.367    4.3369711    4.3369711    4.3369711    13500.367   -3600.1534    25354.121    18747.133    1871.1892   -11786.671    939.53672    81.575472 
   25400    582.27192    -117.9664   0.52685187   -117.43955   -9989.6133    4.3498398    4.3498398    4.3498398   -9989.6133    -23683.88    161.76452   -6446.7245   -5781.9166   -6793.1012   -3913.7306    82.303781 
   25500    362.65824   -117.76901   0.32814079   -117.44087   -4664.2711    4.3551492    4.3551492    4.3551492   -4664.2711   -29007.024   -15426.909    30441.119    5210.4036    2050.9444   -3125.9513    82.605526 
   25600    368.47686   -117.77321    0.3334056    -117.4398    5904.1178    4.3389956    4.3389956    4.3389956    5904.1178   -14121.914    15103.908     16730.36    2013.2212   -10449.253    -500.6599    81.689761 
   25700    425.15767   -117.82471   0.38469159   -117.44001   -5866.0871    4.3549383    4.3549383    4.3549383   -5866.0871   -29208.275   -5546.3196    17156.334   -2371.5181    -3338.046   -1415.0922    82.593527 
   25800    594.59403   -117.97615   0.53800118   -117.43815   -6628.2017    4.3496465    4.3496465    4.3496465   -6628.2017   -17414.378   -3176.3438    706.11637     6701.967    700.40478    4225.7277    82.292812 
   25900     493.6159   -117.88663   0.44663404   -117.43999   -5794.1327    4.3469381    4.3469381    4.3469381   -5794.1327   -23289.253   -10109.271    16016.125    5492.1821    3899.1692    3235.6818    82.139182 
   26000    421.09669   -117.82322   0.38101713   -117.44221   -3809.1669    4.3516022    4.3516022    4.3516022   -3809.1669   -29946.187    8302.8483    10215.838   -117.81194   -9139.1775    2612.4538    82.403862 
   26100    414.85695   -117.81697   0.37537129    -117.4416    10689.169    4.3448761    4.3448761    4.3448761    10689.169   -10193.214    15147.866    27112.855   -2110.4803   -5913.7602   -2925.6769    82.022347 
   26200      498.146   -117.89191   0.45073297   -117.44118   -5923.5737    4.3532932    4.3532932    4.3532932   -5923.5737   -22392.261   -15599.316    20220.856    6002.6037    158.48462   -4714.9478    82.499964 
   26300    411.62785   -117.81422   0.37244953   -117.44177    1488.8626    4.3434786    4.3434786    4.3434786    1488.8626   -20655.047    17496.574    7625.0612    3869.3268   -10222.084    2199.0558    81.943225 
   26400    461.77162   -117.86075   0.41782066   -117.44293   -575.27426    4.3474113    4.3474113    4.3474113   -575.27426   -11318.888    15335.275   -5742.2093   -3901.3844   -5934.6758   -1912.8953    82.166006 
   26500    493.13706   -117.88746   0.44620077   -117.44126   -7919.0674    4.3565979    4.3565979    4.3565979   -7919.0674   -22018.875   -20290.369    18552.042    3617.0845    2495.5177     7413.498    82.687988 
   26600    400.46052   -117.80149    0.3623451   -117.43915    18716.216    4.3357399    4.3357399    4.3357399    18716.216   -2690.4698    17470.507    41368.612    2614.4425    2736.2992   -606.76162    81.506018 
   26700    467.98005   -117.86485   0.42343818   -117.44142    -6788.356    4.3580926    4.3580926    4.3580926    -6788.356   -23030.212   -11514.426     14179.57    645.36435   -5078.2815   -1899.9145    82.773125 
   26800    513.34854   -117.90505   0.46448855   -117.44056   -5052.7582    4.3487265    4.3487265    4.3487265   -5052.7582   -13725.961   -6595.3954    5163.0815    5319.1099   -1524.8351   -8119.6202      82.2406 
   26900    593.31561   -117.97607   0.53684444   -117.43923    2307.0371    4.3398094    4.3398094    4.3398094    2307.0371   -9454.1702    937.10152     15438.18    6187.5336   -475.67345   -4532.6732    81.735732 
   27000    497.01493    -117.8879   0.44970955   -117.43819   -13820.721    4.3654435    4.3654435    4.3654435   -13820.721   -29772.732   -15945.732     4256.302   -706.20368   -9284.9611    3064.0316    83.192681 
   27100     470.9573     -117.864   0.42613206   -117.43786    14183.987    4.3351216    4.3351216    4.3351216    14183.987   -2451.7395    20744.643    24259.057    398.64135   -7729.7137   -593.93085    81.471152 
   27200    419.56001   -117.82279   0.37962671   -117.44316    2280.9226    4.3521799    4.3521799    4.3521799    2280.9226   -24827.817   -6726.4227    38397.008    10288.536    1681.5323    5700.9583    82.436684 
   27300     565.8919   -117.94939   0.51203088   -117.43736   -13793.161    4.3588134    4.3588134    4.3588134   -13793.161   -27683.306   -7880.0869   -5816.0885    2834.5993   -3206.2733     2154.819    82.814207 
   27400    527.55025   -117.91017   0.47733855   -117.43283    9435.9723    4.3335605    4.3335605    4.3335605    9435.9723   -1940.4043    20728.628     9519.693   -2737.7603   -9982.5628    2814.7554    81.383166 
   27500     603.5257   -117.98233   0.54608274   -117.43625   -15407.412    4.3587242    4.3587242    4.3587242   -15407.412   -28343.294   -11471.402   -6407.5415    6273.2519    2240.2155    -3798.122    82.809121 
   27600    582.81296   -117.96642   0.52734142   -117.43908    4042.6424    4.3437279    4.3437279    4.3437279    4042.6424   -13458.768   -1921.0072    27507.703   -532.60891    3163.4315   -7696.5086    81.957334 
   27700    497.54405   -117.89088   0.45018832    -117.4407    821.16261    4.3459165    4.3459165    4.3459165    821.16261   -14339.075   -488.03129    17290.595   -2650.6995   -12155.216    3427.7114     82.08128 
   27800    517.26981   -117.90646   0.46803659   -117.43842   -4500.5596    4.3546506    4.3546506    4.3546506   -4500.5596   -23963.953   -13319.022    23781.296     1110.655   -8500.7516   -648.88902    82.577159 
   27900     657.0168   -118.03136    0.5944826   -117.43688     7209.767    4.3407382    4.3407382    4.3407382     7209.767   -3500.0475    15366.161    9763.1878    5231.9143     670.4126    272.35727    81.788222 
   28000    587.37551   -117.97108    0.5314697   -117.43961   -5122.1034     4.354762     4.354762     4.354762   -5122.1034   -14087.003    -14055.64    12776.333    -1049.969   -2508.3249    3680.9896    82.583496 
   28100    556.03077   -117.94111   0.50310832     -117.438   -4014.4267    4.3496073    4.3496073    4.3496073   -4014.4267   -16036.399    9922.9192   -5929.8008   -2942.0819    -11678.79     2943.056    82.290583 
   28200    524.71442   -117.91117   0.47477264    -117.4364    7817.5177    4.3417926    4.3417926    4.3417926    7817.5177   -3737.5439    339.90164    26850.195    10270.316    2484.8928    264.40286    81.847841 
   28300    475.96892   -117.86705   0.43066668   -117.43638   -2712.0528    4.3577118    4.3577118    4.3577118   -2712.0528   -18375.297   -6320.6318     16559.77    917.22045    5904.2796   -4323.6176     82.75143 
   28400    483.54581   -117.87386   0.43752241   -117.43634    4335.4875    4.3421481    4.3421481    4.3421481    4335.4875   -11108.341    3474.4428    20640.361    -4667.973   -6626.1508   -8134.0034    81.867948 
   28500    430.24444   -117.82973   0.38929421   -117.44044    4032.8872    4.3467872    4.3467872    4.3467872    4032.8872   -7757.3049    9895.0741    9960.8926    5237.4859   -3736.5744    1872.4988    82.130628 
   28600      640.175   -118.01562   0.57924379   -117.43638    -13931.53    4.3568935    4.3568935    4.3568935    -13931.53   -18728.877   -18335.373   -4730.3392    2387.4081    4346.3489   -5953.9638    82.704821 
   28700    499.90377   -117.88695   0.45232343   -117.43462    11976.226    4.3358218    4.3358218    4.3358218    11976.226   -3421.9703    27036.799     12313.85   -2474.3107   -5649.3621    492.67517    81.510633 
   28800    557.52448   -117.94316   0.50445987    -117.4387   -6045.7607    4.3524735    4.3524735    4.3524735   -6045.7607   -12750.886   -4660.4626   -725.93331   -507.76798   -8330.7524    3068.9417    82.453367 
   28900    477.98577   -117.87029   0.43249157    -117.4378    3665.5261     4.350719     4.350719     4.350719    3665.5261   -13269.759    3856.8678     20409.47    6085.7115   -3899.7064    181.13101    82.353699 
   29000    588.67591   -117.96905   0.53264634    -117.4364    8503.5702    4.3352491    4.3352491    4.3352491    8503.5702   -6384.1695    4111.8992    27782.981   -5085.6836    698.21973    6725.3913    81.478338 
   29100    451.38024   -117.84811   0.40841833    -117.4397   -2277.8782    4.3546123    4.3546123    4.3546123   -2277.8782   -27216.908   -1332.4829    21715.756   -8772.0611   -4002.1531   -5503.7667    82.574981 
   29200    573.96138   -117.95624   0.51933232    -117.4369   -5078.0769    4.3497602    4.3497602    4.3497602   -5078.0769   -11605.964   -2557.0179    -1071.249    7129.5686   -3182.1468    2772.1839    82.299263 
   29300    545.39655   -117.92993   0.49348626   -117.43644    4194.5849    4.3365394    4.3365394    4.3365394    4194.5849   -10061.484    4904.3763    17740.863   -1322.6539    5731.1336   -3499.1603    81.551114 
   29400    468.13582   -117.86164   0.42357913   -117.43806   -8880.9188    4.3546683    4.3546683    4.3546683   -8880.9188   -25946.162    446.57996   -1143.1738   -10661.911   -4167.5993   -2056.7601    82.578168 
   29500    556.81145   -117.94084   0.50381471   -117.43703     -5182.81    4.3471771    4.3471771    4.3471771     -5182.81   -18945.367    5498.8082   -2101.8707   -1059.0187   -2810.3928    7338.2826     82.15273 
   29600    454.20969   -117.84798   0.41097847     -117.437    9683.9308    4.3399278    4.3399278    4.3399278    9683.9308   -7717.5761    19527.689     17241.68    5720.5068    3706.5893   -1825.7711    81.742422 
   29700    414.36422   -117.81414   0.37492546   -117.43921   -3602.9111    4.3542056    4.3542056    4.3542056   -3602.9111   -24743.513   -12798.366    26733.146   -5855.1899    141.89806    4360.6226    82.551845 
   29800    432.22479   -117.83057   0.39108607   -117.43949    9339.8952    4.3443498    4.3443498    4.3443498    9339.8952   -14630.411    25414.464    17235.633   -6914.1116   -7097.4856   -4425.7693    81.992543 
   29900    629.86773   -118.00725   0.56991756   -117.43734   -745.16801    4.3467084    4.3467084    4.3467084   -745.16801   -22171.625   -2339.7943    22275.915    6668.3005   -2977.2419    1597.9375    82.126159 
   30000     423.8002   -117.82147   0.38346332     -117.438     2069.629    4.3508916    4.3508916    4.3508916     2069.629   -15758.003    18153.504    3813.3861    -4945.124    3929.0431   -1255.9509    82.363502 
   30100     555.1346   -117.93961   0.50229745   -117.43731   -1926.3135    4.3454435    4.3454435    4.3454435   -1926.3135   -9129.5156   -5116.9931    8467.5684   -8312.7756   -2586.9873   -4694.8518    82.054486 
   30200    553.02291   -117.93658   0.50038675    -117.4362    2585.7909    4.3472732    4.3472732    4.3472732    2585.7909   -20168.861    14572.962    13353.271    1890.8883   -3090.3123    1984.3695    82.158181 
   30300    522.09796   -117.91054    0.4724052   -117.43814   -6094.7879    4.3493816    4.3493816    4.3493816   -6094.7879   -25870.189   -361.35204     7947.177    -1397.755    816.07586   -1259.9041    82.277775 
   30400    225.17419   -117.64474   0.20374234     -117.441    6037.8322    4.3473473    4.3473473    4.3473473    6037.8322   -17575.471    1568.2209    34120.746   -11040.351    6171.0978    5171.5275    82.162378 
   30500     551.3346    -117.9361   0.49885913   -117.43724    1036.2438    4.3453507    4.3453507    4.3453507    1036.2438   -14418.265   -2356.2254    19883.221   -6472.6926   -2009.4796   -1615.8326    82.049229 
   30600    459.85088   -117.85291   0.41608274   -117.43683    324.92917    4.3504272    4.3504272    4.3504272    324.92917    -21526.65    7109.6989    15391.738    4925.1051   -433.19245    2062.4282     82.33713 
   30700      441.241   -117.83775   0.39924413   -117.43851   -13103.329    4.3484777    4.3484777    4.3484777   -13103.329   -34598.945   -12270.821    7559.7797    -9950.096    4050.3081    2471.3586    82.226485 
   30800    421.71789   -117.82117   0.38157921   -117.43959    1963.7809    4.3429893    4.3429893    4.3429893    1963.7809   -15674.666     5755.617    15810.392   -10231.971    1329.3248   -1260.4506    81.915534 
   30900    630.27781   -118.00742   0.57028861   -117.43713    -708.3314    4.3484121    4.3484121    4.3484121    -708.3314    -8684.229    6525.8225    33.412254      4625.79   -2149.0257   -5229.7773    82.222767 
   31000    443.90748   -117.84095   0.40165682   -117.43929   -3491.9713    4.3478367    4.3478367    4.3478367   -3491.9713   -29729.842   -5348.8021     24602.73   -9710.8629    -2119.115   -2259.8161     82.19013 
   31100    347.35109   -117.75597   0.31429057   -117.44168   -333.43729     4.343349     4.343349     4.343349   -333.43729   -28254.252    10012.265    17241.675   -9453.2574    5176.7039    1584.0317    81.935893 
   31200    537.95611   -117.92686   0.48675399    -117.4401    2250.7214    4.3464337    4.3464337    4.3464337    2250.7214   -13150.048     2509.685    17392.528    873.79094    2389.3244   -520.63463    82.110592 
   31300    537.68388   -117.92528   0.48650768   -117.43877   -1181.1997     4.348437     4.348437     4.348437   -1181.1997   -8418.1476   -773.73334    5648.2818   -2143.9139   -627.46262    1452.5268    82.224177 
   31400    443.68764   -117.84083   0.40145791   -117.43938   -12206.945    4.3448835    4.3448835    4.3448835   -12206.945   -33671.437   -839.77702   -2109.6201   -8711.7999    5865.6818   -1113.6314    82.022768 
   31500     388.9862   -117.79219   0.35196289   -117.44023   -2827.6466    4.3456598    4.3456598    4.3456598   -2827.6466   -20632.833    10979.175     1170.719   -5157.0385    2340.1272    8301.6365    82.066738 
   31600    592.64386   -117.97582   0.53623662   -117.43959   -4437.7163    4.3481803    4.3481803    4.3481803   -4437.7163   -7136.0855   -8324.3489    2147.2856     6085.261    139.21143   -5097.1859    82.209617 
   31700    428.15248   -117.82939   0.38740136   -117.44199    7203.3393    4.3407486    4.3407486    4.3407486    7203.3393   -7083.4603    16690.707    12002.771    -8892.766    616.82716   -5222.3365    81.788811 
   31800    436.87312   -117.83775   0.39529198   -117.44246   -8010.7992    4.3513281    4.3513281    4.3513281   -8010.7992   -30447.802   -12544.731    18960.136   -8029.1956    1041.5132    978.63685     82.38829 
   31900    372.74297   -117.77658   0.33726567   -117.43932    7421.8027    4.3466863    4.3466863    4.3466863    7421.8027   -10152.593    14707.326    17710.675    8399.0548    1077.7856   -835.08191    82.124909 
   32000    664.72287   -118.03789   0.60145523   -117.43644    1762.9125    4.3403887    4.3403887    4.3403887    1762.9125   -2176.3483    4436.1673    3028.9184   -4559.9253   -930.37544    2544.4735    81.768469 
   32100    393.70586   -117.79468   0.35623334   -117.43844    835.65044    4.3533688    4.3533688    4.3533688    835.65044   -13444.244    294.48623    15656.709   -6091.9961    3688.9569   -2313.2272    82.504263 
   32200    595.12161   -117.97532   0.53847854   -117.43684   -6489.6603    4.3439769    4.3439769    4.3439769   -6489.6603   -16324.357   -607.45895   -2537.1647    4839.5335    2298.5805    3355.5092    81.971433 
   32300    468.76828   -117.86296   0.42415139   -117.43881    2224.5036    4.3449412    4.3449412    4.3449412    2224.5036   -12113.553    14276.834    4510.2301    5191.8472   -801.14095   -7.4340675    82.026035 
   32400    555.69449   -117.94032   0.50280405   -117.43752    -4647.023    4.3505821    4.3505821    4.3505821    -4647.023    -3228.346   -11341.509    628.78555   -1483.9853    2148.7114   -4609.8941    82.345921 
   32500    453.47111   -117.84803   0.41031019   -117.43772    4057.4121    4.3443969    4.3443969    4.3443969    4057.4121   -12297.801    5537.1273     18932.91   -4910.4659    1096.5359     244.0496    81.995212 
   32600    404.91306   -117.80597   0.36637385    -117.4396    -1504.796     4.349491     4.349491     4.349491    -1504.796   -17127.664    2567.2706    10046.006    6312.4716    1699.1443   -3024.0327    82.283981 
   32700    509.22481   -117.89968   0.46075731   -117.43892   -616.90862    4.3464363    4.3464363    4.3464363   -616.90862   -3293.2214    -3969.657    5412.1526     574.3058    -4224.591   -1350.2122    82.110737 
   32800    493.34405   -117.88468   0.44638806   -117.43829     6088.809    4.3454195    4.3454195    4.3454195     6088.809   -5999.7512    10612.427    13653.751   -5062.6032   -37.733136   -1500.3734    82.053125 
   32900    615.97146   -117.99629   0.55734392   -117.43895   -7985.8543    4.3499164    4.3499164    4.3499164   -7985.8543   -15143.712   -7731.9716   -1081.8789    8661.8222    1827.4288    2230.2073    82.308129 
   33000    460.04057   -117.85557   0.41625437   -117.43932    3399.4569    4.3483463    4.3483463    4.3483463    3399.4569   -4814.3959    10968.516    4044.2507    3848.4255   -1718.4556    975.98998    82.219036 
   33100    748.72876   -118.11366   0.67746552   -117.43619   -6760.3639    4.3455904    4.3455904    4.3455904   -6760.3639   -6251.0603   -1280.8635   -12749.168   -1617.1563     545.5668   -5387.6836    82.062808 
   33200    405.54924   -117.80635   0.36694947    -117.4394    11148.315    4.3468223    4.3468223    4.3468223    11148.315   -1725.1604    10258.009    24912.095    5249.4147   -610.31672    755.56102    82.132616 
   33300    581.88074   -117.96563   0.52649792   -117.43914   -6482.5061    4.3496891    4.3496891    4.3496891   -6482.5061   -13914.963   -9381.8499    3849.2943    5512.8009    5390.4775     -1711.91    82.295225 
   33400    444.30918   -117.84048   0.40202028   -117.43846    10262.419    4.3444122    4.3444122    4.3444122    10262.419    1268.8166    12323.285    17195.156   -493.14991   -607.54168   -1951.2957    81.996078 
   33500     599.6768   -117.98091   0.54260017   -117.43831   -6227.4418     4.349615     4.349615     4.349615   -6227.4418   -10224.649   -15518.866     7061.189   -1948.1141   -1059.8709   -1830.1282     82.29102 
   33600    503.55386   -117.89501   0.45562612   -117.43938   -4466.0641    4.3455775    4.3455775    4.3455775   -4466.0641   -15000.607   -4155.3751    5757.7896    10248.494   -1441.9858   -991.12137    82.062075 
   33700      608.422   -117.98945   0.55051302   -117.43893    -8181.356    4.3472563    4.3472563    4.3472563    -8181.356   -11202.767   -2204.6933   -11136.608    6280.8149   -2051.9776    6349.9024    82.157222 
   33800    603.80631   -117.98629   0.54633664   -117.43996    -2412.442    4.3496057    4.3496057    4.3496057    -2412.442   -1569.5414   -1557.0145     -4110.77   -5548.9545    550.15315   -3845.2575    82.290493 
   33900    610.07053   -117.99204   0.55200464   -117.44003    1445.1448    4.3416257    4.3416257    4.3416257    1445.1448   -6891.2585    9296.1767    1930.5163    7720.0968   -4789.0614   -1930.6633    81.838402 
   34000    495.45909   -117.89037    0.4483018   -117.44207   -1101.8253    4.3497956    4.3497956    4.3497956   -1101.8253   -14607.796    997.98406    10304.336    11085.682    178.06924    -1526.968    82.301271 
   34100    515.49202   -117.90629   0.46642801   -117.43987    8318.8219      4.34752      4.34752      4.34752    8318.8219   -6727.4519    8385.6917    23298.226   -1681.3931    1815.3149   -728.39635    82.172174 
   34200    620.75406   -118.00068   0.56167132   -117.43901    5499.2375    4.3438794    4.3438794    4.3438794    5499.2375    4285.9243    6610.8831     5600.905    1755.8898    5651.7257     272.7356    81.965912 
   34300    480.72153   -117.87519   0.43496694   -117.44023   -390.88435    4.3510523    4.3510523    4.3510523   -390.88435   -14471.483   -7253.6958    20552.525    8275.1861    1685.3251    3114.2456    82.372626 
   34400    611.75101   -117.99167   0.55352517   -117.43815   -6382.3902     4.345915     4.345915     4.345915   -6382.3902   -5699.9739   -4221.7334   -9225.4631   -383.15467    -2647.985    2283.1488      82.0812 
   34500    509.11304   -117.89929   0.46065618   -117.43863    4396.7265    4.3462831    4.3462831    4.3462831    4396.7265    3707.3693    10074.894   -592.08397   -4653.0385    -1256.668    4993.6105    82.102058 
   34600    622.15729   -118.00056   0.56294099   -117.43762   -8034.4898    4.3511024    4.3511024    4.3511024   -8034.4898   -5111.8059   -12029.996   -6961.6672    3015.4064    28.008749   -1688.5589    82.375469 
   34700    382.83809    -117.7877   0.34639995    -117.4413    8298.2336    4.3447717    4.3447717    4.3447717    8298.2336   -11174.546    7734.0513    28335.196    3093.9537   -2992.3449   -4838.6996    82.016433 
   34800    524.72626   -117.91541   0.47478334   -117.44063   -1576.8313    4.3520186    4.3520186    4.3520186   -1576.8313   -14506.939   -882.76945    10659.214   -6564.1126   -8143.3588    -2492.905    82.427517 
   34900    463.95118   -117.85774   0.41979278   -117.43795    4497.2868    4.3512636    4.3512636    4.3512636    4497.2868   -13825.756    2907.7568     24409.86    3260.7546   -2721.9592   -7985.0972    82.384625 
   35000    565.71785   -117.94836    0.5118734   -117.43649    2465.7209    4.3449739    4.3449739    4.3449739    2465.7209   -6677.5315   -4524.2885    18598.983    8000.2085    3578.4827    774.67894    82.027883 
   35100    580.51951   -117.96122   0.52526625   -117.43595   -8075.9898    4.3538767    4.3538767    4.3538767   -8075.9898   -26701.594   -7169.9823    9643.6071   -4316.2898    3817.4315   -206.82883    82.533144 
   35200    637.98191   -118.01282   0.57725944   -117.43556   -5956.1502    4.3479812    4.3479812    4.3479812   -5956.1502   -10342.102   -7921.9196    395.57088    575.09444   -929.95821    3828.2742    82.198326 
   35300    643.37259   -118.01759   0.58213704   -117.43545   -6474.9587    4.3484699    4.3484699    4.3484699   -6474.9587    -15875.08   -11023.018    7473.2224    6182.2396    2729.1818    5963.3082    82.226048 
   35400     459.7573   -117.85321   0.41599806   -117.43721    451.14655    4.3529321    4.3529321    4.3529321    451.14655    -16053.07   -10367.289    27773.798   -1094.9644    3884.8941   -1253.3005    82.479436 
   35500    553.64986   -117.93744   0.50095403   -117.43649    211.95014    4.3463165    4.3463165    4.3463165    211.95014   -19800.083   -2931.5134    23367.446   -1786.2312    1067.6087    1290.0999    82.103948 
   35600    486.98555   -117.87835   0.44063476   -117.43772    3884.4248    4.3474075    4.3474075    4.3474075    3884.4248   -13465.998    4700.4424     20418.83    3912.0122   -5855.0407    -9912.023    82.165794 
   35700    446.28692   -117.84281   0.40380978     -117.439   -6665.5225    4.3568017    4.3568017    4.3568017   -6665.5225   -31849.639    1462.7349    10390.336    3267.5487    -765.6348   -1003.3648    82.699597 
   35800    434.86193   -117.83008   0.39347221   -117.43661    9108.7399    4.3411307    4.3411307    4.3411307    9108.7399     1795.046    15648.652     9882.522   -9176.8717   -122.04351   -4878.1109    81.810411 
   35900    591.80204   -117.97254   0.53547493   -117.43707   -1034.0483    4.3487633    4.3487633    4.3487633   -1034.0483   -13428.289    12095.692   -1769.5476   -3393.4832   -3730.7313    -1476.951     82.24269 
   36000    392.95437   -117.79439   0.35555337   -117.43884   -4721.9672    4.3566643    4.3566643    4.3566643   -4721.9672    -22575.02     2816.733    5592.3857    3002.8046   -30.053403    2656.4369     82.69177 
   36100    513.32413   -117.90014   0.46446646   -117.43567    6974.8247    4.3362012    4.3362012    4.3362012    6974.8247   -5043.9721    564.08605     25404.36    -9110.701    3478.8139    1902.6764    81.532032 
   36200    339.91447   -117.74764   0.30756176   -117.44008    6103.9613    4.3554786    4.3554786    4.3554786    6103.9613   -6450.3395   -4825.3913    29587.615   -4828.3959    5191.2156    7249.7492    82.624276 
   36300    559.29552   -117.94382   0.50606234   -117.43776   -1733.6055    4.3466135    4.3466135    4.3466135   -1733.6055    -13942.95    -6968.137     15710.27    3925.6978    1581.3881   -6738.9435     82.12078 
   36400    330.79729   -117.73781   0.29931234    -117.4385    1348.1482    4.3426604    4.3426604    4.3426604    1348.1482    -17075.31   -12174.894    33294.649   -511.43805    846.03005   -1583.6781    81.896929 
   36500     627.3752   -118.00533   0.56766227   -117.43767    -21140.81    4.3555747    4.3555747    4.3555747    -21140.81   -30943.961   -20649.262   -11829.207   -4625.6503   -100.23605   -1668.9715    82.629743 
   36600    496.48682    -117.8877   0.44923171   -117.43847    4234.7967    4.3427051    4.3427051    4.3427051    4234.7967   -1693.2789    13192.047    1205.6221    2463.4515    -7960.807     -722.023    81.899458 
   36700    568.00159   -117.95244   0.51393977    -117.4385   -14064.326    4.3480831    4.3480831    4.3480831   -14064.326   -29823.843   -9502.1627   -2866.9726    1424.7405   -3164.6096   -937.81799    82.204104 
   36800    323.87595   -117.73357   0.29304977   -117.44052   -3276.5674    4.3534109    4.3534109    4.3534109   -3276.5674    -31325.77   -3281.6542    24777.722   -7786.0521    -1158.686   -1905.4571    82.506653 
   36900    505.21366   -117.89343   0.45712794    -117.4363    6439.4399    4.3466876    4.3466876    4.3466876    6439.4399   -18153.976    18950.324    18521.972   -2956.4178   -179.92955    8758.9606    82.124983 
   37000    381.48438   -117.78241   0.34517508   -117.43723    17099.133     4.344921     4.344921     4.344921    17099.133    4173.4819    10562.416    36561.501    640.60331    688.71461    3377.3126    82.024888 
   37100    300.80111   -117.71334   0.27217117   -117.44117   -1999.8805    4.3544007    4.3544007    4.3544007   -1999.8805   -24166.717    6612.2236    11554.852    -9119.727    4227.4721    1663.2888    82.562947 
   37200    489.76889   -117.88208   0.44315318   -117.43893    1167.1879    4.3462061    4.3462061    4.3462061    1167.1879   -7314.4672    -1332.198    12148.229   -7401.5229    4537.3892   -565.18208    82.097691 
   37300    616.85715   -117.99581   0.55814531   -117.43767    2277.8271    4.3502954    4.3502954    4.3502954    2277.8271    7688.6509    5573.0381   -6428.2076    1855.5525   -1804.8129   -2559.7558    82.329648 
   37400    522.70645   -117.91164   0.47295578   -117.43869   -11332.617     4.352753     4.352753     4.352753   -11332.617   -11181.407   -8642.0958   -14174.349    7.3103496   -8159.4908   -3877.1655    82.469257 
   37500    481.68129   -117.87356   0.43583535   -117.43773   -9657.3601    4.3472908    4.3472908    4.3472908   -9657.3601   -14721.451   -16477.277    2226.6475    -1017.352    -4311.987   -5424.4096    82.159175 
   37600    727.32798   -118.09279   0.65810164   -117.43469   -17020.261    4.3566939    4.3566939    4.3566939   -17020.261   -28425.154   -13599.475   -9036.1551    1781.3314   -4922.0498   -1405.1628    82.693458 
   37700    578.05862   -117.95771   0.52303959   -117.43467    6386.4766    4.3441882    4.3441882    4.3441882    6386.4766    2903.4391    11171.171    5084.8199    4015.3742   -8025.0074   -836.68347    81.983393 
   37800    406.49097   -117.80519   0.36780158   -117.43739   -10474.457    4.3546818    4.3546818    4.3546818   -10474.457   -21510.374   -14672.031    4759.0344   -5324.3519   -2485.6241    1877.8849    82.578936 
   37900    393.39987   -117.79433   0.35595647   -117.43838    2723.9981    4.3505591    4.3505591    4.3505591    2723.9981   -937.16283   -1142.1363    10251.293    -4873.743    4142.8895     2918.866    82.344616 
   38000     534.1945    -117.9186   0.48335041   -117.43525    17353.721    4.3437978    4.3437978    4.3437978    17353.721     24495.72    17782.963      9782.48   -3564.9128    6750.2795    3375.0412    81.961292 
   38100    334.35005   -117.74165   0.30252695   -117.43912    3669.9729    4.3541908    4.3541908    4.3541908    3669.9729    8114.5298    877.26648    2018.1225   -13262.842    1401.2138     4419.672    82.551005 
   38200    274.18533   -117.68847   0.24808865   -117.44039    5309.5783    4.3452799    4.3452799    4.3452799    5309.5783   -2202.2426   -1242.8505    19373.828   -8497.9804    3091.9521    1471.1268    82.045215 
   38300    622.13257   -118.00017   0.56291863   -117.43725   -2556.4227    4.3492863    4.3492863    4.3492863   -2556.4227    -7843.192   -1820.2722    1994.1959    3259.7121    1941.5619    6229.3131    82.272365 
   38400      529.022   -117.91503   0.47867022   -117.43636     1566.958    4.3521289    4.3521289    4.3521289     1566.958   -5736.9591    6441.3622    3996.4708   -1225.7012    306.02088   -674.37915    82.433785 
   38500     496.6375   -117.88606   0.44936805    -117.4367   -12355.076    4.3459735    4.3459735    4.3459735   -12355.076   -20859.787   -18265.357    2059.9183   -8634.7191   -7164.4072   -4067.8254    82.084515 
   38600    417.94569   -117.81648   0.37816605   -117.43831   -1368.1972    4.3463127    4.3463127    4.3463127   -1368.1972   -3881.4294   -5650.3936    5427.2314    2679.9859   -5235.2053    2192.9844    82.103734 
   38700    762.55442   -118.12564   0.68997527   -117.43566    -11118.82    4.3529271    4.3529271    4.3529271    -11118.82   -3844.0315   -11593.084   -17919.346    5883.3142   -3331.7693   -1116.4499    82.479152 
   38800     370.5632   -117.77491   0.33529337   -117.43962    11695.306    4.3426691    4.3426691    4.3426691    11695.306    19182.724    10950.919     4952.277   -13616.962   -3570.9731   -2638.6123     81.89742 
   38900    476.65894   -117.87178   0.43129103   -117.44049   -8246.1267    4.3488151    4.3488151    4.3488151   -8246.1267   -6616.0041   -5741.1006   -12381.275   -10058.275    -844.4005   -2367.5225     82.24563 
   39000    499.11694   -117.88977   0.45161149   -117.43816   -1014.5007     4.351917     4.351917     4.351917   -1014.5007    3458.4799   -958.43585   -5543.5462     2894.885    2073.6808    4961.7539    82.421746 
   39100     645.1392   -118.01957   0.58373551   -117.43584    7979.5174    4.3377283    4.3377283    4.3377283    7979.5174    5607.2999    15713.488    2617.7642   -6569.8411    1938.7153    7334.8997    81.618206 
   39200    465.29145   -117.86003   0.42100548   -117.43902   -4139.6446    4.3534068    4.3534068    4.3534068   -4139.6446   -14750.685    832.02868    1499.7228    -4795.127   -3489.9849    -200.7645    82.506424 
   39300    497.12022   -117.88776   0.44980482   -117.43796   -5495.0478    4.3492667    4.3492667    4.3492667   -5495.0478   -11610.351   -5350.1819    475.38939    2160.7807    2011.2313    4405.8904    82.271254 
   39400     614.9943   -117.99238   0.55645977   -117.43592    3802.3897    4.3403206    4.3403206    4.3403206    3802.3897    2644.5823   -6519.9391    15282.526    6289.4683    811.56963    3043.7232    81.764624 
   39500    491.55651   -117.88195   0.44477066   -117.43718     2352.914    4.3523864    4.3523864    4.3523864     2352.914   -5507.7935    13814.561   -1248.0252    -7775.978   -3428.1656     -2508.69    82.448421 
   39600    453.90019   -117.84818   0.41069843   -117.43748    1988.7724    4.3460856    4.3460856    4.3460856    1988.7724    3660.1551   -6767.3135    9073.4756   -6615.5409   -6607.2403   -212.49192    82.090866 
   39700    420.15043   -117.81823   0.38016094   -117.43807    3127.6386    4.3457451    4.3457451    4.3457451    3127.6386     12881.72    2489.2817    -5988.086    6814.1114   -3829.7278   -592.49408    82.071571 
   39800    556.49938   -117.94102   0.50353233   -117.43749    1579.1896    4.3499726    4.3499726    4.3499726    1579.1896    2285.3483    1207.6403    1244.5802   -8454.3525    2838.1508   -433.12259    82.311317 
   39900    490.27016   -117.88131   0.44360674   -117.43771    6014.2952    4.3447545    4.3447545    4.3447545    6014.2952    14075.674    7959.8964   -3992.6847   -9769.8787   -6142.7619   -617.25579    82.015459 
   40000    481.12957   -117.87361   0.43533615   -117.43828   -3980.9321    4.3468591    4.3468591    4.3468591   -3980.9321   -5272.4003   -1477.7198   -5192.6763    1383.0626   -3244.7752    936.87662    82.134705 
   40100    628.85557   -118.00594   0.56900173   -117.43694   -12187.322    4.3526629    4.3526629    4.3526629   -12187.322   -713.46031   -15822.389   -20026.117    7086.9896    5088.7102    11745.663    82.464134 
   40200    598.31076   -117.97644   0.54136415   -117.43507    2106.2157    4.3449601    4.3449601    4.3449601    2106.2157   -1161.0216    3107.9429    4371.7259   -1274.4903    674.23565   -84.212406    82.027103 
   40300    666.45952   -118.03832   0.60302658    -117.4353   -8084.6878    4.3456778    4.3456778    4.3456778   -8084.6878   -9656.2091   -5248.5664   -9349.2878   -5639.9831    863.02348   -3134.9835     82.06776 
   40400    438.29183   -117.83385   0.39657566   -117.43727   -8087.8308    4.3547927    4.3547927    4.3547927   -8087.8308    1019.4616   -10710.889   -14572.065    8889.4158    67.291898    6839.4977    82.585243 
   40500    604.70541   -117.98159   0.54715016   -117.43444   -1458.0508    4.3447471    4.3447471    4.3447471   -1458.0508    7709.0364   -5606.1144   -6477.0745    -2442.117    1361.1501     1811.249    82.015043 
   40600    466.15437   -117.85796   0.42178627   -117.43617    12051.352    4.3449385    4.3449385    4.3449385    12051.352    13894.858    15013.517    7245.6809   -6304.0352   -7326.9838   -539.71688    82.025883 
   40700    438.64233   -117.83521    0.3968928   -117.43832   -3011.0704    4.3534766    4.3534766    4.3534766   -3011.0704    7391.1226   -314.27821   -16110.056   -1745.4371   -8478.3112   -1496.6656    82.510389 
   40800    348.44702   -117.75483   0.31528219   -117.43954    6934.6856    4.3449874    4.3449874    4.3449874    6934.6856    24709.406   -6166.6386    2261.2892    791.20678   -250.51287    1571.4855    82.028652 
   40900    533.53783   -117.92093   0.48275624   -117.43817    6890.6976    4.3476757    4.3476757    4.3476757    6890.6976    9044.0429    3274.5014    8353.5486   -1068.5773   -7928.3012    503.63871    82.181001 
   41000    564.22631    -117.9487   0.51052382   -117.43818   -3372.0944    4.3537101    4.3537101    4.3537101   -3372.0944   -3594.3872   -8226.0569     1704.161   -4751.0332   -4298.1123    -2325.456    82.523668 
   41100    428.18128   -117.82567   0.38742742   -117.43824   -2297.9408    4.3450082    4.3450082    4.3450082   -2297.9408    3573.2043   -15510.848    5043.8208    15420.546    185.47166    7945.8657    82.029826 
   41200    678.59007   -118.05069   0.61400256   -117.43669   -11400.847    4.3503655    4.3503655    4.3503655   -11400.847   -9015.5629   -12507.263   -12679.715    3237.4332    7118.7933    1887.5531    82.333624 
   41300    609.30226   -117.98857   0.55130949   -117.43727    1000.7998    4.3514888    4.3514888    4.3514888    1000.7998    12067.404   -8991.5839   -73.420996   -320.19273    665.11954   -701.95169    82.397422 
   41400    628.89027   -118.00712   0.56903313   -117.43809   -1821.2949    4.3397457    4.3397457    4.3397457   -1821.2949    4875.0647   -1869.5945   -8469.3549    3686.1801   -6649.4695    5549.2739    81.732134 
   41500     321.0841   -117.73396   0.29052365   -117.44343    796.40847    4.3534992    4.3534992    4.3534992    796.40847    25794.908   -13222.341   -10183.341    1724.0845   -909.75812    4365.2377    82.511674 
   41600    636.70187    -118.0135   0.57610123    -117.4374   -2763.9087    4.3516204    4.3516204    4.3516204   -2763.9087    3250.3305    -10265.72    -1276.337    1145.0319   -3639.4952    1893.6505    82.404897 
   41700    461.64059   -117.85439    0.4177021   -117.43669    16881.404     4.336774     4.336774     4.336774    16881.404    12243.449    8586.2661    29814.498   -8712.4948   -5429.9274   -5715.6377    81.564346 
   41800    308.16452    -117.7201   0.27883373   -117.44126   -6470.1613    4.3572503    4.3572503    4.3572503   -6470.1613   -918.84047    -17439.82   -1051.8237    3694.8685   -4411.4078    1905.5654     82.72514 
   41900    544.72546    -117.9303   0.49287905   -117.43742   -3206.4094    4.3472521    4.3472521    4.3472521   -3206.4094   -7123.2335   -5059.9757    2563.9809    3411.5603    3963.2843   -1060.2841    82.156982 
   42000    556.56508   -117.93976   0.50359178   -117.43617     8759.414     4.342886     4.342886     4.342886     8759.414    3864.0557    6204.5696    16209.617   -4667.6715    3541.4677   -3628.3826     81.90969 
   42100    550.44825   -117.93658   0.49805714   -117.43853   -14471.363    4.3540305    4.3540305    4.3540305   -14471.363   -10392.327   -5871.1091   -27150.654    5712.9563   -2095.4365    3039.2816    82.541886 
   42200    348.97279   -117.75749   0.31575792   -117.44173    2415.9352    4.3449752    4.3449752    4.3449752    2415.9352    23078.839   -4697.0539    -11133.98    6647.9505    71.989757    6372.9253    82.027958 
   42300    568.33744    -117.9556   0.51424366   -117.44135    5518.4931    4.3455989    4.3455989    4.3455989    5518.4931    6667.0376   -4588.8673    14477.309    5668.5919   -3789.8031    3664.6344    82.063287 
   42400    473.40876   -117.87024    0.4283502   -117.44189    6789.7814    4.3510367    4.3510367    4.3510367    6789.7814    3687.7397   -193.82475    16875.429   -2393.9818   -7238.9543    2061.9635    82.371738 
   42500    231.43901   -117.65119   0.20941088   -117.44178   -536.59926    4.3515911    4.3515911    4.3515911   -536.59926   -565.29134   -22286.599    21242.092    3429.0521   -6008.7737    4661.4866    82.403232 
   42600    524.93161   -117.91259   0.47496916   -117.43762   -218.82179    4.3422529    4.3422529    4.3422529   -218.82179    9366.8548   -12696.831    2673.5108    2341.1631    1673.6938    1359.5872    81.873876 
   42700    645.46973   -118.02138   0.58403457   -117.43735   -4447.2958    4.3537491    4.3537491    4.3537491   -4447.2958   -3818.0795   -13346.816    3823.0079   -3356.8126    436.41646   -1677.4213    82.525883 
   42800    566.98053   -117.95331    0.5130159    -117.4403   -14617.981    4.3494293    4.3494293    4.3494293   -14617.981   -6748.5949   -14852.131   -22253.218    4017.3011    -1113.729   -1463.4508    82.280482 
   42900    400.46571   -117.80566   0.36234979   -117.44332   -4727.6339    4.3435938    4.3435938    4.3435938   -4727.6339    5471.2816   -19656.536    2.3527354   -119.18934    1677.2398    1819.0591    81.949745 
   43000    528.36653   -117.91799   0.47807714   -117.43992   -2656.5032    4.3559752    4.3559752    4.3559752   -2656.5032   -9934.3003   -18236.655    20201.446   -2294.7998    4134.3833   -1672.1401     82.65254 
   43100    560.47762   -117.94518   0.50713193   -117.43805    1075.6353    4.3450468    4.3450468    4.3450468    1075.6353   -10456.195   -1554.1119    15237.213   -1766.2234   -2426.0529      2328.65    82.032013 
   43200    376.86488   -117.78246   0.34099526   -117.44147    -7125.596      4.34691      4.34691      4.34691    -7125.596    3135.1424   -15699.562   -8812.3686     2345.659   -7884.9659    6224.6543    82.137587 
   43300    366.11407   -117.77439   0.33126771   -117.44312     2197.774    4.3511959    4.3511959    4.3511959     2197.774    7853.9233   -1960.0839    699.48255    5555.7786   -2379.4004   -2263.9804     82.38078 
   43400    655.86742   -118.03206   0.59344262   -117.43862    4987.3757     4.344805     4.344805     4.344805    4987.3757    9250.6942    9680.1833   -3968.7505   -4669.3877   -204.21019    1134.8721    82.018321 
   43500    438.69056   -117.83652   0.39693644   -117.43959    5372.4396    4.3465971    4.3465971    4.3465971    5372.4396    14276.871   -122.62454    1963.0725    5009.2024    1791.4247   -139.29481     82.11985 
   43600    269.84319   -117.68577   0.24415979   -117.44161   -1210.7855    4.3529594    4.3529594    4.3529594   -1210.7855    1108.6668    1313.3405   -6054.3637    6951.5443    1394.3655   -4728.5573    82.480988 
   43700    376.63747   -117.78027    0.3407895   -117.43948    14134.733    4.3414732    4.3414732    4.3414732    14134.733    15457.432   -4190.0707    31136.836     447.1103    4095.5077   -3001.3661    81.829776 
   43800    635.35754    -118.0145   0.57488485   -117.43962   -2305.2567     4.345428     4.345428     4.345428   -2305.2567   -8672.6081   -2238.3658    3995.2037   -2959.4653    2104.1157   -3236.3754    82.053606 
   43900    379.55358   -117.78705   0.34342806   -117.44362   -13873.794    4.3531603    4.3531603    4.3531603   -13873.794   -16055.582   -8743.5089   -16822.291     703.4893   -5295.9577    5306.4842    82.492407 
   44000    400.00953   -117.80333   0.36193703   -117.44139   -1129.5625    4.3395345    4.3395345    4.3395345   -1129.5625    1418.7565   -10769.059    5961.6148    7099.9275   -800.35763    1177.3174    81.720203 
   44100    540.97353   -117.92962   0.48948422   -117.44013   -9328.8907    4.3499571    4.3499571    4.3499571   -9328.8907   -11726.943   -17074.788    815.05867   -9405.8051   -3823.9178   -2491.6089     82.31044 
   44200    519.63579   -117.91046   0.47017739   -117.44029   -5186.5191     4.345406     4.345406     4.345406   -5186.5191   -17853.156   -6912.1897    9205.7881   -4481.5081   -3309.7321    1514.6954    82.052359 
   44300    370.12501   -117.77729   0.33489689   -117.44239    -2045.691    4.3453316    4.3453316    4.3453316    -2045.691   -12748.727   -8478.3101    15089.964    8646.6569   -3920.7543   -5031.6435    82.048143 
   44400    359.16501   -117.76732   0.32498005   -117.44234   -148.45961    4.3481833    4.3481833    4.3481833   -148.45961   -9371.3496   -8957.8879    17883.859   -6039.4376    519.77409    760.98242    82.209789 
   44500    538.59172   -117.92651   0.48732911   -117.43918    3014.4321     4.343328     4.343328     4.343328    3014.4321   -7677.5737    12284.522    4436.3482   -5486.4073    3863.4185   -2547.7603    81.934704 
   44600    594.04232   -117.97678   0.53750197   -117.43928   -2844.6203    4.3464457    4.3464457    4.3464457   -2844.6203   -13771.613    1934.1609    3303.5917    5473.6631   -1302.3824    1537.1957    82.111273 
   44700    365.46559   -117.77391   0.33068095   -117.44323    7571.7388    4.3462959    4.3462959    4.3462959    7571.7388   -1879.7286    17671.194    6923.7513    1398.1458   -480.85192    16.828581    82.102783 
   44800    428.88125   -117.83116   0.38806077    -117.4431   -6281.5409    4.3504225    4.3504225    4.3504225   -6281.5409   -18879.329   -5176.0272    5210.7331   -7443.8688   -2112.3005    3150.1181    82.336859 
   44900    464.03128   -117.85981   0.41986525   -117.43995    6255.2102    4.3420102    4.3420102    4.3420102    6255.2102    2179.4911    2240.5731    14345.566   -2217.7882   -1552.4739    2819.8278    81.860147 
   45000    527.27341    -117.9174   0.47708806   -117.44031   -2264.2815    4.3499751    4.3499751    4.3499751   -2264.2815   -13800.323   -1948.1306    8955.6086    3240.6524   -8254.5256    -6782.243    82.311463 
   45100    400.24786   -117.80415   0.36215267     -117.442   -10064.605    4.3495409    4.3495409    4.3495409   -10064.605   -17573.149   -10016.257   -2604.4094   -5695.9788   -681.58746     -6487.37    82.286815 
   45200    396.74901   -117.80075   0.35898684   -117.44176    11.535638    4.3404039    4.3404039    4.3404039    11.535638   -6785.7359    1881.0109    4939.3319   -8886.0667     4863.079   -3337.0277    81.769329 
   45300    609.71785    -117.9907   0.55168552   -117.43902   -9023.5296    4.3552196    4.3552196    4.3552196   -9023.5296   -15032.861    5493.0295   -17530.757   -991.21872   -2404.1676    4771.3501    82.609532 
   45400    294.82362   -117.70737   0.26676261   -117.44061    12755.005    4.3464988    4.3464988    4.3464988    12755.005   -17410.346    18422.432    37252.929   -1978.1586   -328.43162    3156.0524    82.114279 
   45500    293.90646   -117.70731   0.26593274   -117.44138    5693.7457    4.3419183    4.3419183    4.3419183    5693.7457    -9055.239     13398.51    12737.966    -11419.75    3643.4748    1234.0368     81.85495 
   45600    351.94135   -117.75919   0.31844393   -117.44075    702.01208    4.3555218    4.3555218    4.3555218    702.01208   -21936.584    8554.8898     15487.73   -622.58424   -96.614374    4716.0381    82.626734 
   45700    582.25228   -117.96486    0.5268341   -117.43802    388.60737    4.3477077    4.3477077    4.3477077    388.60737   -13608.471    14123.416    650.87797    461.12784   -3471.2499    585.97135    82.182814 
   45800    446.37481   -117.84455   0.40388931   -117.44066   -3397.6488    4.3435971    4.3435971    4.3435971   -3397.6488   -14221.985    1781.6461    2247.3921   -9984.7076   -6053.4431   -3545.3793    81.949931 
   45900    503.82588   -117.89648   0.45587225   -117.44061   -19463.287     4.356342     4.356342     4.356342   -19463.287   -18826.663   -23472.117   -16091.083   -2985.4769    324.52771   -7835.9003    82.673418 
   46000    548.22335   -117.93414   0.49604401   -117.43809   -4915.0084    4.3502374    4.3502374    4.3502374   -4915.0084   -22234.524   -3026.1425    10515.641    1818.7986   -4375.9343    -1531.057    82.326355 
   46100    485.77581   -117.87771   0.43954016   -117.43817    7861.5745     4.342868     4.342868     4.342868    7861.5745   -8544.3279    12105.741     20023.31   -1689.6038   -5235.3359    4314.4313    81.908672 
   46200    281.25852   -117.69525   0.25448862   -117.44076    1075.8266    4.3551673    4.3551673    4.3551673    1075.8266   -19929.255    17666.727    5490.0084   -3112.0397    4753.7562    7864.8052     82.60656 
   46300    337.28069   -117.74555   0.30517866   -117.44037    1324.0789    4.3481572    4.3481572    4.3481572    1324.0789    -17351.52    25770.979   -4447.2225     1603.955   -3096.1426    3702.4028    82.208306 
   46400    427.38084   -117.82641   0.38670317    -117.4397    10520.668    4.3409008    4.3409008    4.3409008    10520.668   -9984.8596    34846.523    6700.3413    4384.4413   -1646.4134    1274.8422    81.797419 
   46500    572.97116   -117.95722   0.51843634   -117.43879   -13167.811    4.3580908    4.3580908    4.3580908   -13167.811   -21956.893   -6171.7239   -11374.816   -6576.3849    2451.4114    1986.2336    82.773025 
   46600    519.65439   -117.90937   0.47019421   -117.43918    -11794.92    4.3441539    4.3441539    4.3441539    -11794.92   -3933.8808   -16752.429   -14698.449   -5826.3374   -372.44922    -2198.973    81.981453 
   46700    435.56205   -117.83439   0.39410569   -117.44028   -5653.8808    4.3445341    4.3445341    4.3445341   -5653.8808   -8753.0531   -8086.4831   -122.10611    8719.5066    775.67573   -2145.2919    82.002977 
   46800    532.87034    -117.9219   0.48215228   -117.43975   -5018.9318    4.3549092    4.3549092    4.3549092   -5018.9318   -20701.795     13798.66   -8153.6611    3944.0542   -2839.8161   -4322.0095     82.59187 
   46900    514.93263   -117.90467   0.46592186   -117.43875    16057.071    4.3374524    4.3374524    4.3374524    16057.071    7241.9345    25989.939     14939.34   -5608.3471    2444.3777    4737.5933    81.602629 
   47000     342.6047   -117.75443   0.30999594   -117.44443   -6264.7467    4.3566488    4.3566488    4.3566488   -6264.7467   -18370.834    8680.2199   -9103.6257    5579.4646   -2180.3744    5810.1604    82.690889 
   47100    314.48249   -117.72795   0.28455036    -117.4434    8105.5577    4.3416115    4.3416115    4.3416115    8105.5577   -7314.6299    11017.769    20613.534     6839.068   -7144.2918   -1265.9159    81.837597 
   47200    599.39435    -117.9827    0.5423446   -117.44035    5148.6465    4.3423734    4.3423734    4.3423734    5148.6465    2334.7267    1939.8129      11171.4    1363.5337   -1176.8157    1979.9739    81.880693 
   47300    625.02362   -118.00447    0.5655345   -117.43893   -20355.725    4.3581861    4.3581861    4.3581861   -20355.725     -21858.2   -18509.641   -20699.333   -1253.3529    928.78892   -1660.5578    82.778453 
   47400    298.93642   -117.71043   0.27048396   -117.43995    11128.645    4.3303105    4.3303105    4.3303105    11128.645    12180.972    4962.2926    16242.671    3784.2289     -3638.19   -2623.5976    81.200203 
   47500    515.44065    -117.9086   0.46638153   -117.44222   -17228.315    4.3587351    4.3587351    4.3587351   -17228.315   -21043.171   -17568.554   -13073.221    8315.3124   -2373.1531   -4369.6403    82.809742 
   47600    612.07014   -117.99406   0.55381392   -117.44025       6587.7    4.3429356    4.3429356    4.3429356       6587.7   -4976.2932    7931.4793    16807.914   -6946.8326    4141.8093   -2853.7305    81.912496 
   47700    546.24982   -117.93358   0.49425832   -117.43933     7087.613    4.3361194    4.3361194    4.3361194     7087.613    4836.2594    10965.722     5460.858     2707.995   -2615.4985    4872.7736    81.527421 
   47800    136.61374   -117.56735   0.12361098   -117.44374   -2770.7902    4.3599858    4.3599858    4.3599858   -2770.7902   -25190.126   -3721.8902    20599.646    10788.474   -5793.9596     1288.461    82.881044 
   47900    570.60716   -117.95743   0.51629735   -117.44114    9802.7916    4.3332366    4.3332366    4.3332366    9802.7916    6440.8047    18452.171    4515.3995    221.55171   -3282.2187    947.40669    81.364919 
   48000     628.4732   -118.01231   0.56865576   -117.44365    929.76479    4.3484903    4.3484903    4.3484903    929.76479    -8810.469     1852.603    9747.1604     1878.128    2007.1439   -1886.5051    82.227204 
   48100    481.47324   -117.87844   0.43564711   -117.44279   -15105.434    4.3540509    4.3540509    4.3540509   -15105.434    -17996.67   -18455.919   -8863.7116     8756.908    -5931.668   -4088.1057    82.543046 
   48200    251.88659   -117.66981   0.22791228    -117.4419    9448.2551    4.3323042    4.3323042    4.3323042    9448.2551     6095.181   -594.63509    22844.219     8889.269   -3681.2904   -8208.6354    81.312408 
   48300    655.96031   -118.03393   0.59352667    -117.4404   -14974.992    4.3562589    4.3562589    4.3562589   -14974.992   -14733.614   -22677.163   -7514.1983   -1888.2986    3375.9997   -551.46932    82.668689 
   48400    496.48618    -117.8884   0.44923113   -117.43917    777.34242    4.3487389    4.3487389    4.3487389    777.34242   -4726.0289   -17244.667    24302.723    2352.5079    4211.4267    3130.5753    82.241307 
   48500    358.21942   -117.76343   0.32412445   -117.43931    3670.9308    4.3359675    4.3359675    4.3359675    3670.9308    3915.3013   -7292.7792     14390.27    9497.8944    -3860.805   -2619.7611     81.51885 
   48600     387.9757   -117.79153   0.35104857   -117.44048   -9782.2346    4.3574937    4.3574937    4.3574937   -9782.2346    -13099.58   -14009.501   -2237.6221   -5111.2699    -4162.329    370.26214    82.739004 
   48700    687.63102   -118.05894     0.622183   -117.43676   -1121.6233    4.3450075    4.3450075    4.3450075   -1121.6233   -2047.6106    2647.8065   -3965.0657   -6890.9434    3044.1661    1654.1915     82.02979 
   48800    397.53207   -117.80102   0.35969537   -117.44133    13708.171    4.3415392    4.3415392    4.3415392    13708.171    997.82967    2538.0798    37588.605    5502.7127    -5858.098   -3558.8454     81.83351 
   48900    295.74915   -117.71157   0.26760005   -117.44397   -10120.011    4.3579728    4.3579728    4.3579728   -10120.011   -25330.775    1593.7974   -6623.0542   -500.40881   -10110.186   -10553.486    82.766301 
   49000    415.84259   -117.81583   0.37626311   -117.43957    13923.593    4.3364343    4.3364343    4.3364343    13923.593   -1935.7381    15660.912    28045.604   -8070.2796   -7411.6519   -5670.4031     81.54518 
   49100    637.09115   -118.01757   0.57645346   -117.44112   -1822.5083    4.3497091    4.3497091    4.3497091   -1822.5083   -14351.102   -2648.6641    11532.241    697.93909    4023.4653    32.715848    82.296362 
   49200    427.59068   -117.82877   0.38689303   -117.44188   -12002.434    4.3530946    4.3530946    4.3530946   -12002.434   -20579.101   -6418.7558   -9009.4456    7108.5749   -6926.0843    1045.0359    82.488676 
   49300    447.30713    -117.8444   0.40473289   -117.43966   -6682.1938    4.3363019    4.3363019    4.3363019   -6682.1938   -8392.7361   -4426.7341   -7227.1112   -4532.9255   -8641.9615   -6597.1893    81.537715 
   49400    583.55376   -117.96736    0.5280117   -117.43935   -14368.937    4.3556552    4.3556552    4.3556552   -14368.937   -22567.814   -18281.579   -2257.4195   -5787.5396    2805.7742     4209.695    82.634323 
   49500    618.78054   -117.99752   0.55988563   -117.43763    448.76814    4.3433547    4.3433547    4.3433547    448.76814   -8231.3989    5715.3568    3862.3465    4599.8228   -1412.7828    1806.2621    81.936213 
   49600     355.7369   -117.76266   0.32187822   -117.44078     1653.987    4.3423921    4.3423921    4.3423921     1653.987   -11668.894     14284.55    2346.3049    3475.8887   -3790.5574   -5685.5088    81.881748 
   49700    346.81367   -117.75721    0.3138043    -117.4434   -5154.0686     4.352742     4.352742     4.352742   -5154.0686   -26109.346    11048.117   -400.97697   -7411.8523   -3971.1782    -8787.538    82.468627 
   49800    552.92437   -117.93981   0.50029759   -117.43951    13530.537     4.339293     4.339293     4.339293    13530.537   -1611.9104    29220.831    12982.689   -6033.8607    3517.0206   -534.85345    81.706561 
   49900    545.25619    -117.9338   0.49335926   -117.44044    1936.7582    4.3486082    4.3486082    4.3486082    1936.7582   -6134.5541     2469.591    9475.2376    886.91269     -5765.76   -2037.9608    82.233889 
   50000    434.97669    -117.8345   0.39357605   -117.44092   -9951.3111    4.3486427    4.3486427    4.3486427   -9951.3111   -15312.841   -2421.2665   -12119.825   -9759.8638   -6482.9414   -4281.3516    82.235846 
   50100    389.02154   -117.79199   0.35199487   -117.43999    4665.2427    4.3394134    4.3394134    4.3394134    4665.2427    3365.3819    8837.3786    1792.9675   -4314.4337    3191.0289   -848.41903    81.713359 
   50200    610.64803   -117.99285   0.55252717   -117.44033   -1397.4072    4.3486548    4.3486548    4.3486548   -1397.4072   -6497.0649    11522.572   -9217.7287    2005.7847    -3863.458    2780.7006    82.236537 
   50300     482.3246    -117.8789   0.43641744   -117.44248    1757.4784    4.3463481    4.3463481    4.3463481    1757.4784    4116.9211      17796.7   -16641.186    2545.5753   -1343.3866   -28.953367    82.105739 
   50400    267.10478   -117.68439   0.24168202   -117.44271   -755.30267    4.3443855    4.3443855    4.3443855   -755.30267   -4144.2642    17715.869   -15837.513   -7378.4169    487.80703   -10305.435    81.994567 
   50500    529.97284   -117.91884   0.47953056   -117.43931   -6934.6928    4.3459018    4.3459018    4.3459018   -6934.6928   -9719.3511   -2606.6081   -8478.1192   -5420.7239     3919.396   -2636.0897    82.080451 
   50600    603.22829   -117.98431   0.54581364    -117.4385   -820.22279    4.3469189    4.3469189    4.3469189   -820.22279   -4613.8547    4990.7591   -2837.5728    4764.9613   -187.83642     1592.567    82.138094 
   50700    446.30705   -117.84488     0.403828   -117.44105     2758.166    4.3419493    4.3419493    4.3419493     2758.166   -1674.9375    14448.252   -4498.8166   -8287.8927   -5637.0919   -6321.9107    81.856704 
   50800    321.62832   -117.73351   0.29101606   -117.44249   -22.867583    4.3476073    4.3476073    4.3476073   -22.867583   -16672.761    10076.075    6528.0829   -11724.066    4240.9771   -510.05241    82.177123 
   50900    441.02768   -117.83839   0.39905111   -117.43934    1418.0443    4.3480431    4.3480431    4.3480431    1418.0443   -13564.695    21472.698   -3653.8695   -251.15204   -3223.9804    4788.5643    82.201836 
   51000    571.46855   -117.95463   0.51707675   -117.43755     8843.702    4.3381548    4.3381548    4.3381548     8843.702    800.44839    12721.919    13008.738    4708.7933   -7279.1124    2682.4993    81.642281 
   51100    385.83506   -117.79088   0.34911167   -117.44176   -5219.6684    4.3527051    4.3527051    4.3527051   -5219.6684   -12319.574    3455.0589   -6794.4905   -5099.2158   -1543.0153   -3154.1942    82.466532 
   51200    428.13557   -117.82674   0.38738606   -117.43935   -5450.4685    4.3443289    4.3443289    4.3443289   -5450.4685   -15196.014   -2528.5131    1373.1219   -9752.1246   -1441.4333   -7831.3062    81.991363 
   51300    475.26308   -117.86884   0.43002802   -117.43881    454.00343    4.3429163    4.3429163    4.3429163    454.00343   -6126.8539    13216.575   -5727.7107    3711.9581   -2661.2711    3335.5129    81.911404 
   51400    495.38721   -117.88698   0.44823675   -117.43874   -5966.5204    4.3511235    4.3511235    4.3511235   -5966.5204   -15626.831    8201.9534   -10474.684   -4216.8917   -4504.2151   -3164.2545     82.37667 
   51500    348.16334   -117.75475   0.31502551   -117.43972    3085.8721    4.3408116    4.3408116    4.3408116    3085.8721   -6401.9513    23076.627   -7417.0594   -13841.342    4581.4315     -6985.18    81.792372 
   51600    415.19878   -117.81562   0.37568058   -117.43994   -12373.094    4.3489088    4.3489088    4.3489088   -12373.094   -16550.638   -5900.2254   -14668.417   -1240.1337   -891.98974    4028.3863    82.250948 
   51700    550.60853   -117.93597   0.49820217   -117.43777     -5233.04    4.3461234    4.3461234    4.3461234     -5233.04   -15695.602    698.94284   -702.46029    7108.1684   -3355.3568    2535.2484    82.093008 
   51800    457.71159    -117.8524   0.41414707   -117.43826   -590.96007    4.3460624    4.3460624    4.3460624   -590.96007   -8172.8733    6926.7067   -526.71367   -4288.7024    6105.8078    1238.5885    82.089552 
   51900    408.51073    -117.8088   0.36962909   -117.43917   -122.37213    4.3419135    4.3419135    4.3419135   -122.37213   -9481.7724    4929.2356    4185.4204   -5940.0305    1557.1801   -7799.5796    81.854679 
   52000    356.62502   -117.76332   0.32268181   -117.44064   -2654.4837    4.3490915    4.3490915    4.3490915   -2654.4837   -19603.158    16468.655   -4828.9477     7369.918   -140.15377     1392.005    82.261315 
   52100    467.03755   -117.86155   0.42258539   -117.43896    1986.9297    4.3429962    4.3429962    4.3429962    1986.9297   -9403.3945    4278.3064    11085.877    3884.0674    596.62852    4628.6286    81.915925 
   52200     448.9292   -117.84609   0.40620058   -117.43989    8074.2304    4.3401108    4.3401108    4.3401108    8074.2304   -1038.3236    21960.372    3300.6431   -8511.0098    3249.0177    -6518.696    81.752767 
   52300    411.96353   -117.81247   0.37275326   -117.43972   -15991.977    4.3548334    4.3548334    4.3548334   -15991.977   -21538.086   -20165.818   -6272.0263   -2482.4952    -167.6181    330.86413    82.587559 
   52400    447.89553   -117.84351   0.40526528   -117.43824    2112.8216     4.333915     4.333915     4.333915    2112.8216     1895.521    4168.5833    274.36061    8605.8959   -3863.3492    5933.5047    81.403141 
   52500    445.43637    -117.8447   0.40304019   -117.44166   -296.68847    4.3481487    4.3481487    4.3481487   -296.68847   -10196.828    7223.6675    2083.0955   -1066.3418    3170.8195    7012.3775    82.207827 
   52600    482.56219   -117.87686   0.43663241   -117.44023   -1027.7874    4.3456902    4.3456902    4.3456902   -1027.7874   -2553.5199    8018.3263   -8548.1687   -5954.3305   -1374.5464   -4862.4438    82.068462 
   52700    293.98403   -117.70636   0.26600293   -117.44035    2282.7187    4.3405531    4.3405531    4.3405531    2282.7187   -5046.5051    5708.3549    6186.3063    6315.3954   -2138.5955   -3994.2092    81.777761 
   52800    513.07886   -117.90346   0.46424453   -117.43922   -7976.3024    4.3479375    4.3479375    4.3479375   -7976.3024   -8906.3835    -6139.721   -8882.8027    4902.0186     1841.247    9994.2244    82.195845 
   52900    418.14514   -117.81656   0.37834651   -117.43821    11216.403    4.3445647    4.3445647    4.3445647    11216.403    1221.6622    13582.682    18844.866   -3647.4278      3309.94    -1905.573    82.004713 
   53000    564.86407   -117.94931   0.51110088   -117.43821   -4740.9687    4.3411979    4.3411979    4.3411979   -4740.9687    -6335.209   -6167.4052   -1720.2918    -5157.338    1828.7365   -7084.1263    81.814211 
   53100    273.71092   -117.68971   0.24765939   -117.44205    4993.1149    4.3438886    4.3438886    4.3438886    4993.1149   -4634.1307    15327.213    4286.2627    6625.2309   -2623.4897    6576.8466    81.966436 
   53200    457.12648   -117.85366   0.41361765   -117.44005   -6211.9464    4.3500389    4.3500389    4.3500389   -6211.9464   -14810.096    3300.0202    -7125.764    5775.8888    3098.0393    5480.8828    82.315081 
   53300    503.68471    -117.8928   0.45574451   -117.43706    13435.428    4.3342171    4.3342171    4.3342171    13435.428      -1028.9    26040.348    15294.836     -8060.75    749.81362    390.03457    81.420167 
   53400     445.0694   -117.84247   0.40270814   -117.43976   -11618.608    4.3510082    4.3510082    4.3510082   -11618.608   -18347.129   -6453.8894   -10054.807    242.02645   -3328.2657   -6131.5626    82.370122 
   53500    395.11233   -117.79739   0.35750594   -117.43988   -13052.292    4.3442359    4.3442359    4.3442359   -13052.292   -10019.605   -20509.192   -8628.0793    9697.8056    1517.8371    10145.012    81.986094 
   53600    407.11188    -117.8094   0.36836339   -117.44103    5263.3851    4.3388831    4.3388831    4.3388831    5263.3851    -6127.385    14891.477    7026.0631    865.39481    928.22007    12869.175    81.683409 
   53700    594.85645   -117.97653   0.53823862   -117.43829   -6576.7282    4.3487697    4.3487697    4.3487697   -6576.7282   -20214.088    5420.4563   -4936.5525    -2245.679   -1358.0094   -8245.2009    82.243056 
   53800    275.27087   -117.68981   0.24907087   -117.44074    16.342996    4.3431047    4.3431047    4.3431047    16.342996   -10792.082    13588.247   -2747.1353    2983.3345   -1323.3769    6982.1051    81.922068 
   53900    331.75141   -117.74249   0.30017564   -117.44232   -10395.504    4.3459938    4.3459938    4.3459938   -10395.504   -13958.547   -294.24958   -16933.714    5654.5592    5036.9436     13807.34    82.085661 
   54000    524.28991   -117.91352   0.47438852   -117.43913    5519.5368    4.3419929    4.3419929    4.3419929    5519.5368    -11932.35    17753.025    10737.935   -667.96044    2330.8394   -3605.1922     81.85917 
   54100    655.99962   -118.03135   0.59356224   -117.43778   -12763.395     4.349089     4.349089     4.349089   -12763.395   -16614.614   -9302.1846   -12373.386   -446.15581   -3730.5794   -1056.9942    82.261173 
   54200    297.69548    -117.7115   0.26936113   -117.44214   -142.66373    4.3404098    4.3404098    4.3404098   -142.66373   -3106.2767    2439.1221    239.16331    6918.7304    1730.9413    6219.7072     81.76966 
   54300    403.30062   -117.80774   0.36491487   -117.44282   -4961.8184    4.3470606    4.3470606    4.3470606   -4961.8184   -15195.546    13681.161    -13371.07    3465.3519    1615.7143    12922.266    82.146128 
   54400    527.39413   -117.91675   0.47719729   -117.43955    7847.7342    4.3454245    4.3454245    4.3454245    7847.7342   -9805.2293    16869.748    16478.684   -3012.4642    174.65279   -1805.2287    82.053408 
   54500    461.33424   -117.85628   0.41742491   -117.43885     6113.637    4.3400745    4.3400745    4.3400745     6113.637   -8432.6328    20452.417     6321.127    7511.6236   -1577.1779    2191.4672    81.750715 
   54600     213.3695    -117.6354   0.19306121   -117.44233   -6820.7327    4.3509369    4.3509369    4.3509369   -6820.7327   -14792.011   -13491.623    7821.4357    3300.2391    2000.8665    15324.856    82.366072 
   54700    479.49135   -117.87257   0.43385385   -117.43872    5737.1194    4.3397467    4.3397467    4.3397467    5737.1194    4283.3975    10071.058    2856.9022   -138.15265    548.32971    376.31037    81.732193 
   54800    626.12559   -118.00277   0.56653159   -117.43623    77.327688    4.3469227    4.3469227    4.3469227    77.327688   -12211.078   -2494.1015    14937.162    2799.6847   -5218.3208   -2286.6733     82.13831 
   54900    478.98171   -117.87544   0.43339271   -117.44205    -8554.966     4.343332     4.343332     4.343332    -8554.966   -9906.2085   -11122.438   -4636.2522    309.35631    1534.6995    6424.0597    81.934932 
   55000    303.44826   -117.71968   0.27456636   -117.44511   -2615.1776    4.3442254    4.3442254    4.3442254   -2615.1776    3727.3524    1603.6205   -13176.506     3764.337    1423.8424    12147.654      81.9855 
   55100    459.06911   -117.85755   0.41537538   -117.44218    2417.6302    4.3482735    4.3482735    4.3482735    2417.6302   -9553.2287    2013.0262    14793.093   -3647.7413    433.62287    1286.5202    82.214904 
   55200    559.20056   -117.94471   0.50597642   -117.43873    5723.2986    4.3391297    4.3391297    4.3391297    5723.2986   -5682.8896    11984.036    10868.749   -697.08119    291.99954    319.36065    81.697337 
   55300    250.24409   -117.66914   0.22642611   -117.44271   -5316.1743    4.3505777    4.3505777    4.3505777   -5316.1743   -6665.4612   -8695.8999   -587.16181    5354.4163    2839.4043    18277.633    82.345676 
   55400    340.16248   -117.74938   0.30778616    -117.4416    2893.7689    4.3422593    4.3422593    4.3422593    2893.7689   -4963.8477    2742.4103    10902.744   -3801.2959    1542.1506    1877.4434    81.874236 
   55500    591.23985   -117.97319   0.53496624   -117.43822    568.45616    4.3417975    4.3417975    4.3417975    568.45616   -5193.5403    4370.6949    2528.2139    1668.8764   -6382.3394   -5075.9297    81.848118 
   55600    500.33179   -117.89236   0.45271072   -117.43965   -6057.0356    4.3471312    4.3471312    4.3471312   -6057.0356   -7702.9757   -11647.461    1179.3301    1521.2041    1550.2877    4485.5679    82.150126 
   55700    403.86595   -117.80665    0.3654264   -117.44122   -8200.9045    4.3448055    4.3448055    4.3448055   -8200.9045   -15613.621   -15158.013    6168.9202     3008.739    1419.9919    6026.6101     82.01835 
   55800    372.85493   -117.77799   0.33736697   -117.44062    6986.7901    4.3420072    4.3420072    4.3420072    6986.7901   -5967.9166    9696.4243    17231.863    2147.9115    544.14013   -273.58207    81.859977 
   55900     568.4602   -117.95313   0.51435473   -117.43877    85.130911    4.3449006    4.3449006    4.3449006    85.130911   -9672.8498    4366.0862    5562.1564   -2882.2016    -863.3953   -9105.5002    82.023733 
   56000    437.63147    -117.8368   0.39597815   -117.44082   -525.34657    4.3427888    4.3427888    4.3427888   -525.34657    -10829.48   -663.24975      9916.69    5590.1562    1032.4709    10582.434    81.904192 
   56100    317.72472   -117.73062     0.287484   -117.44313    2931.3529    4.3440085    4.3440085    4.3440085    2931.3529   -9736.8976    22495.082    -3964.126    201.75156    7661.6312     6189.739    81.973219 
   56200    471.34077   -117.86659   0.42647903   -117.44011   -3517.9067    4.3465127    4.3465127    4.3465127   -3517.9067   -12254.028    1918.5124   -218.20419   -1408.9879   -3249.6181   -6626.4045    82.115069 
   56300     473.0079   -117.86784   0.42798749   -117.43986    3373.3258      4.33811      4.33811      4.33811    3373.3258    624.75414    3135.9081    6359.3151    1046.8966   -2416.9271   -8465.4006    81.639755 
   56400    479.02755   -117.87586    0.4334342   -117.44242   -9733.9144    4.3485057    4.3485057    4.3485057   -9733.9144   -14520.397   -7641.2793   -7040.0671    379.76075    1405.5524    6640.0377    82.228074 
   56500    286.78495   -117.70227   0.25948905   -117.44278    182.63769     4.345626     4.345626     4.345626    182.63769   -13553.103   -3075.5626    17176.578     2150.223   -2766.5418    3510.8192    82.064826 
   56600    481.29801   -117.87545   0.43548855   -117.43996   -469.81419    4.3356699    4.3356699    4.3356699   -469.81419    12971.247   -6433.1129    -7947.577   -1635.8074   -2282.2863   -17567.246    81.502066 
   56700    447.80675   -117.84518   0.40518496      -117.44   -7602.4402    4.3514278    4.3514278    4.3514278   -7602.4402   -12308.571   -13329.294    2830.5449    3026.4243   -1518.2499    -15.78219    82.393955 
   56800    538.07333   -117.92576   0.48686006    -117.4389   -5383.1735    4.3432955    4.3432955    4.3432955   -5383.1735   -8415.8536   -5863.8315   -1869.8355    2022.3944    4520.0103    8962.5027    81.932863 
   56900    253.81682    -117.6709   0.22965879   -117.44124    8589.9603    4.3396945    4.3396945    4.3396945    8589.9603    12899.302    2368.1633    10502.415   -217.50219   -481.52185   -6314.6657    81.729244 
   57000    445.27311   -117.84269   0.40289246    -117.4398   -9810.3583    4.3502769    4.3502769    4.3502769   -9810.3583   -13117.304   -11436.626   -4877.1443    3410.1923   -2895.5414   -11451.521    82.328594 
   57100    550.44811   -117.93527   0.49805702   -117.43722     1268.038    4.3412871    4.3412871    4.3412871     1268.038   -6482.0239    3040.5566    7245.5815   -1055.3822    2526.2565    553.54752    81.819253 
   57200    327.61959    -117.7369   0.29643709   -117.44046    7221.6586    4.3435479    4.3435479    4.3435479    7221.6586    1511.5616    2277.6959    17875.718    1385.7561     3143.806    2614.3127     81.94715 
   57300    427.30751   -117.82851   0.38663681   -117.44188   -9840.5512     4.343837     4.343837     4.343837   -9840.5512   -10120.818    1457.6319   -20858.467   -1058.7973   -3678.5608    -13474.77     81.96351 
   57400    383.64102   -117.78906   0.34712646   -117.44194   -17.599416    4.3445848    4.3445848    4.3445848   -17.599416    -5656.105    2928.5216    2674.7852   -1763.4724   -6159.6291   -5113.3956    82.005852 
   57500    674.51329   -118.04851    0.6103138    -117.4382   -4156.4866    4.3451699    4.3451699    4.3451699   -4156.4866   -4709.6011   -6498.6054   -1261.2533    1628.9704    1719.3128     7773.721    82.038989 
   57600    304.25147   -117.71696   0.27529312   -117.44167    4519.7917     4.343703     4.343703     4.343703    4519.7917   -3494.0817    2600.4367     14453.02   -1643.9772   -1525.1049   -4308.5793    81.955928 
   57700    309.86405   -117.72347    0.2803715    -117.4431   -6561.0561    4.3439149    4.3439149    4.3439149   -6561.0561    1657.1926   -2409.9408    -18930.42    828.43258   -4993.1338   -13037.337    81.967922 
   57800    596.37777   -117.97876   0.53961514   -117.43914   -3455.3946     4.344804     4.344804     4.344804   -3455.3946   -8468.4626   -2721.0257    823.30443   -1221.4752    219.36677   -3293.9535    82.018265 
   57900    525.69682   -117.91481   0.47566153   -117.43915    4825.3959    4.3450498    4.3450498    4.3450498    4825.3959    292.94759    62.510594    14120.729    711.18255    591.62382    3664.1754    82.032185 
   58000    304.99883   -117.71833   0.27596936   -117.44236    2213.8539    4.3395688    4.3395688    4.3395688    2213.8539    3745.2542     9499.007   -6602.6994    3274.4538   -1539.4992   -12271.157    81.722141 
   58100    284.52387   -117.70051   0.25744318   -117.44307   -6960.0164    4.3488042    4.3488042    4.3488042   -6960.0164    -14106.09    -5041.813   -1732.1466   -790.11333   -5249.3072   -9428.2801     82.24501 
   58200    671.45352   -118.04509   0.60754525   -117.43754   -1240.6339    4.3417794    4.3417794    4.3417794   -1240.6339   -1653.4827   -1477.4426   -590.97644    7078.9953    217.35263    4561.5981    81.847096 
   58300     373.6257   -117.77951   0.33806439   -117.44144    11592.948     4.340905     4.340905     4.340905    11592.948    4032.9221    3806.0644    26939.858    2209.5014    3014.7742   -3282.9582    81.797653 
   58400    335.69126   -117.74815    0.3037405   -117.44441   -16978.182    4.3473997    4.3473997    4.3473997   -16978.182   -8604.0438   -10635.339   -31695.165   -2127.8997   -7503.9625   -11097.491    82.165353 
   58500    350.30599   -117.76005   0.31696422   -117.44309    1398.9436    4.3389188    4.3389188    4.3389188    1398.9436      1056.98    3592.7158   -452.86488    2573.4598   -4839.8242   -4262.0726    81.685426 
   58600    680.14033    -118.0549   0.61540526   -117.43949   -4096.1094    4.3478882    4.3478882    4.3478882   -4096.1094   -9784.7042   -7751.0009    5247.3768   -975.26979    310.78402    2428.0947    82.193051 
   58700     414.2614   -117.81652   0.37483242   -117.44169   -336.52374    4.3432623    4.3432623    4.3432623   -336.52374    10344.378   -10368.302   -985.64718   -510.87114    350.41749   -12610.276    81.930984 
   58800    235.55514   -117.65528   0.21313524   -117.44215   -4361.2457    4.3406268    4.3406268    4.3406268   -4361.2457    597.33697    -3295.914    -10385.16    35.938025    -8346.938   -9470.3598    81.781928 
   58900    595.31144   -117.97787    0.5386503   -117.43922   -12692.242    4.3484623    4.3484623    4.3484623   -12692.242   -15589.948   -10988.852   -11497.925    2308.9723   -655.19895    4496.2276    82.225612 
   59000    480.66857   -117.87299   0.43491903   -117.43807    11777.133     4.341836     4.341836     4.341836    11777.133    14099.026   -2735.4617    23967.833    1613.0261    1870.6308   -4623.4005    81.850294 
   59100    506.56652   -117.89912   0.45835203   -117.44077   -9108.5533    4.3411116    4.3411116    4.3411116   -9108.5533    1680.3669   -10851.969   -18154.058   -1541.3183    -8023.295   -9345.4051    81.809331 
   59200      236.695   -117.65803   0.21416661   -117.44386    -3446.693    4.3466875    4.3466875    4.3466875    -3446.693   -7710.0848     -1384.16   -1245.8343    520.26882   -2242.3048   -1666.1959    82.124973 
   59300    617.14408   -117.99845   0.55840493   -117.44005   -461.47946    4.3432182    4.3432182    4.3432182   -461.47946   -5150.1492    4443.0869   -677.37602    1208.0146    1957.7657    5738.0748    81.928488 
   59400    550.39801   -117.93779   0.49801169   -117.43978    9451.3685     4.340028     4.340028     4.340028    9451.3685    10207.934   -3595.0419    21741.213   -68.542071     2627.717   -9813.1213    81.748087 
   59500    332.00236   -117.74363   0.30040271   -117.44322     -4989.18    4.3452991    4.3452991    4.3452991     -4989.18    1590.5413   -1691.7873   -14866.294    371.73726   -9460.5934   -10574.682    82.046304 
   59600    396.35729   -117.80065    0.3586324   -117.44202   -5794.9638    4.3446676    4.3446676    4.3446676   -5794.9638   -17157.291    13358.437   -13586.037    2958.0853   -6677.4665     3632.197    82.010538 
   59700     550.0717   -117.93614   0.49771643   -117.43843    5440.0902    4.3421156    4.3421156    4.3421156    5440.0902   -1697.6033   -1884.4604    19902.334    3109.5964    6273.8749      2437.61    81.866107 
   59800    556.67605   -117.94269   0.50369219     -117.439   -744.52522    4.3415722    4.3415722    4.3415722   -744.52522    3909.7067    4743.9768   -10887.259   -646.07589   -7492.7622   -3121.0563    81.835375 
   59900    286.53583   -117.70232   0.25926364   -117.44306   -9953.0116    4.3472159    4.3472159    4.3472159   -9953.0116   -22552.609    1621.2887   -8927.7144    866.90192    -13065.44   -6316.0144    82.154928 
   60000    481.96162   -117.87776     0.436089   -117.44167   -4688.2661    4.3396883    4.3396883    4.3396883   -4688.2661   -7863.2845   -4978.6216   -1222.8923    3919.1907    4861.5215    5256.5906     81.72889 
   60100      556.856   -117.94517   0.50385501   -117.44131    2074.7525    4.3429208    4.3429208    4.3429208    2074.7525   -2253.7369   -2554.1089    11032.103   -406.95932     2751.824    2150.2373    81.911662 
   60200    489.52508    -117.8859   0.44293258   -117.44297    -8368.907    4.3459924    4.3459924    4.3459924    -8368.907   -5124.4141   -8519.2632   -11463.044     12.29041   -8521.0588   -5225.0408    82.085584 
   60300    393.85097   -117.79956   0.35636464   -117.44319   -4839.8165    4.3413503    4.3413503    4.3413503   -4839.8165    -9197.116   -6088.9151    766.58172    6637.7767   -6155.8348   -1441.8367    81.822829 
   60400    500.51978    -117.8939   0.45288081   -117.44102    3505.0722     4.343643     4.343643     4.343643    3505.0722     3747.276   -7182.8076    13950.748    3965.5246    8841.4824    1103.2531     81.95253 
   60500    617.38635   -117.99723   0.55862414   -117.43861    713.24055    4.3441211    4.3441211    4.3441211    713.24055   -1025.7382   -7691.4321    10856.892   -1117.6127   -3820.7831    287.87657    81.979596 
   60600    404.00244   -117.80654    0.3655499   -117.44099   0.47453579    4.3433924    4.3433924    4.3433924   0.47453579    2932.3698   -3604.0375    673.09123    255.33423   -13229.895   -3011.0848    81.938349 
   60700    431.91882   -117.83237   0.39080922   -117.44156    3797.4009    4.3418596    4.3418596    4.3418596    3797.4009     7012.314   -2972.9172    7352.8059    4036.7097    3683.5922     4105.712    81.851628 
   60800    580.55184   -117.96482    0.5252955   -117.43953    1453.1278    4.3457066    4.3457066    4.3457066    1453.1278    -7179.453    846.06079    10692.775    1277.3078    5002.9519    1327.1958    82.069388 
   60900    481.31649   -117.87644   0.43550528   -117.44094    5686.3519    4.3393124    4.3393124    4.3393124    5686.3519    10176.597    4794.8951    2087.5635    -1943.679   -3728.1006   -5116.3671    81.707654 
   61000    463.08893   -117.86208   0.41901259   -117.44307   -6221.5522    4.3460389    4.3460389    4.3460389   -6221.5522   -5541.0016    -121.7845   -13001.871   -635.36362    -14067.15   -1310.5664    82.088221 
   61100    397.62925   -117.80136    0.3597833   -117.44158    1780.4654    4.3458183    4.3458183    4.3458183    1780.4654   -13187.027    2388.3805    16140.043    1189.8551    7545.3617    6583.1231    82.075721 
   61200    579.59239   -117.96414   0.52442738   -117.43971    2491.9433    4.3369915    4.3369915    4.3369915    2491.9433    2573.9171    5018.7736   -116.86074   -744.52009    3212.0969    3125.5253    81.576622 
   61300    503.11653   -117.89649   0.45523041   -117.44126   -11344.449     4.351032     4.351032     4.351032   -11344.449   -14267.076   -6178.6205    -13587.65    968.07426   -12369.757   -7656.4844    82.371475 
   61400    363.02968   -117.77032   0.32847689   -117.44184    2741.7061    4.3420186    4.3420186    4.3420186    2741.7061   -15946.443    8089.8927    16081.669      2527.19    4036.4946   -801.58435    81.860621 
   61500    616.58728   -117.99811   0.55790113   -117.44021    1744.2697    4.3354924    4.3354924    4.3354924    1744.2697   -2269.8965    2227.6538    5275.0517    -1471.157    7552.0027    8451.5367     81.49206 
   61600    456.19118   -117.85453   0.41277137   -117.44176   -3102.3057    4.3542227    4.3542227    4.3542227   -3102.3057   -20216.507   -6412.4725    17322.062   -2199.8843   -1618.5578    2196.7908    82.552818 
   61700     536.6282   -117.92758   0.48555247   -117.44202   -3526.8869    4.3401383    4.3401383    4.3401383   -3526.8869   -12306.092    472.40636    1253.0248    1197.0297   -11741.748   -9727.2704    81.754318 
   61800    401.93573   -117.80631   0.36367989   -117.44263    10195.785    4.3341564    4.3341564    4.3341564    10195.785   -4158.1073    9281.6175    25463.846    6831.1426   -1176.6802    1713.2568    81.416743 
   61900    546.79711   -117.93416   0.49475351   -117.43941   -15538.003    4.3581915    4.3581915    4.3581915   -15538.003   -19202.605   -14412.883   -12998.523    1049.2538    4133.2019    10406.481    82.778765 
   62000    533.70805   -117.91976   0.48291026   -117.43685    2341.2811    4.3360841    4.3360841    4.3360841    2341.2811     -7218.31    11322.132    2920.0211   -1619.0032   -11038.343   -878.89911    81.525426 
   62100    384.03347   -117.78764   0.34748155   -117.44016    5373.2654     4.337937     4.337937     4.337937    5373.2654   -8864.3351    10336.224    14647.908    3709.5119   -7769.8057   -5422.3631    81.629987 
   62200    444.65319   -117.84172   0.40233155   -117.43938    -13620.77    4.3560388    4.3560388    4.3560388    -13620.77   -15327.427   -15870.642   -9664.2422   -348.41609    8016.3601    1123.8316    82.656158 
   62300    428.22163   -117.82452   0.38746393   -117.43706    6282.4561     4.337622     4.337622     4.337622    6282.4561   -3647.9213    19379.762    3115.5277   -1293.1043   -2924.3121    9179.6045    81.612204 
   62400    610.99127   -117.99092   0.55283774   -117.43808   -3005.6868    4.3402342    4.3402342    4.3402342   -3005.6868   -8439.5411    2688.4808   -3266.0001    726.35118   -9241.5167   -3931.1433    81.759741 
   62500    342.92057   -117.75169   0.31028174   -117.44141   -1143.7303    4.3511382    4.3511382    4.3511382   -1143.7303   -7101.2763   -5580.6659    9250.7512    3838.6285    1906.5214   -4908.4933    82.377505 
   62600    496.61954   -117.88884   0.44935179   -117.43949    1961.2142    4.3381353    4.3381353    4.3381353    1961.2142    7325.5177    1950.2469   -3392.1219    158.14971    1708.1822    6890.4985    81.641183 
   62700    598.46634    -117.9822   0.54150492   -117.44069    122.49445    4.3427361    4.3427361    4.3427361    122.49445   -8477.3442   -1020.1668    9864.9943   -3798.6898   -106.23453    1374.2182     81.90121 
   62800     417.4208      -117.82   0.37769112   -117.44231      5164.26    4.3471731    4.3471731    4.3471731      5164.26   -681.77401   -1268.4533    17443.007    6548.6185   -6985.5551   -3349.7011    82.152501 
   62900    466.31958   -117.86367   0.42193576   -117.44173   -735.73367    4.3405186    4.3405186    4.3405186   -735.73367    2191.7333   -6289.3319    1890.3976     2288.562    3734.5506    335.33454    81.775814 
   63000    527.13939   -117.91823    0.4769668   -117.44126   -5785.5276    4.3465222    4.3465222    4.3465222   -5785.5276   -8489.7055   -1164.3113   -7702.5659    139.93267    1795.8129    7980.2388    82.115608 
   63100    450.03297   -117.84798   0.40719929   -117.44078    5602.6135    4.3419066    4.3419066    4.3419066    5602.6135   -3807.1109    7853.1905    12761.761    3446.6144   -4127.8535   -4680.6639    81.854285 
   63200    421.19941   -117.82339   0.38111008   -117.44228   -6334.8567    4.3437243    4.3437243    4.3437243   -6334.8567   -7441.7443   -9890.8266   -1671.9991    2669.9853   -2529.7165   -11075.693    81.957133 
   63300    343.49276   -117.75347   0.31079947   -117.44267   -6005.0323    4.3455448    4.3455448    4.3455448   -6005.0323   -10732.176    -4269.518   -3013.4025    4237.3356    7714.4119    2370.0482    82.060223 
   63400    580.56842   -117.96484   0.52531051   -117.43953   -812.17843    4.3397119    4.3397119    4.3397119   -812.17843   -2908.8529     8408.953   -7936.6354    -2035.495    6343.3894    3876.3465    81.730226 
   63500    444.27918   -117.84168   0.40199314   -117.43969   -7039.8245    4.3490177    4.3490177    4.3490177   -7039.8245   -13938.105   -14189.108    7007.7398    4950.9644   -6234.6853   -9727.1372    82.257124 
   63600    385.62738   -117.78859   0.34892375   -117.43966   -3510.0745    4.3402123    4.3402123    4.3402123   -3510.0745   -6542.6363   -8330.9958    4343.4085    5731.2363    1716.0345   -5935.7368    81.758501 
   63700    545.58635   -117.93273   0.49365799   -117.43908   -4550.9635    4.3437458    4.3437458    4.3437458   -4550.9635   -5846.3673   -408.75795   -7397.7653   -5091.2168    3170.1115    11290.088    81.958348 
   63800    485.15962   -117.87734   0.43898262   -117.43835    1729.7727    4.3476139    4.3476139    4.3476139    1729.7727   -11289.576   -11005.867    27484.761    3713.9316     2025.733    862.97849    82.177498 
   63900    541.22078   -117.93066   0.48970794   -117.44095   -3386.9816    4.3355355    4.3355355    4.3355355   -3386.9816   -2128.0002     -9929.87    1896.9254    5295.4019    -4276.054   -15162.393     81.49449 
   64000    370.78068   -117.78046   0.33549015   -117.44497   -1012.5212    4.3468352    4.3468352    4.3468352   -1012.5212   -7262.5055   -721.99786    4946.9399    136.91081    674.43287     -2420.04     82.13335 
   64100    651.16558   -118.02818    0.5891883   -117.43899   -10282.158    4.3514015    4.3514015    4.3514015   -10282.158   -14370.742   -7357.9113   -9117.8202    1863.7783    8334.6679    6717.3044    82.392459 
   64200    410.88939   -117.81042   0.37178136   -117.43864    14909.329     4.329955     4.329955     4.329955    14909.329    4802.8545    8935.9208    30989.211     111.0682   -5492.3926   -2825.4002    81.180205 
   64300     389.7015   -117.79524    0.3526101   -117.44263   -10976.284    4.3497574    4.3497574    4.3497574   -10976.284   -9774.0083   -13492.808   -9662.0353    4449.4483    871.53899   -14210.513    82.299105 
   64400    514.84485   -117.90602   0.46584244   -117.44018   -6419.9238    4.3476655    4.3476655    4.3476655   -6419.9238   -5359.5494   -1798.0457   -12102.176   -2175.9454    2252.9381    2639.6262    82.180424 
   64500    548.59424   -117.93458    0.4963796    -117.4382    17338.464    4.3295793    4.3295793    4.3295793    17338.464    8385.5859    16529.815     27099.99   -169.15103    5748.1827     7460.891    81.159076 
   64600     524.2207   -117.91554   0.47432591   -117.44122   -13677.488    4.3526544    4.3526544    4.3526544   -13677.488   -11694.897   -23652.949   -5684.6187    6098.7612   -2506.5039   -11365.711     82.46365 
   64700    339.70594   -117.74926   0.30737308   -117.44188    3979.3098    4.3430396    4.3430396    4.3430396    3979.3098    6337.3916   -9023.5764    14624.114    -1773.675   -1903.1694   -11801.453    81.918381 
   64800     659.3894   -118.03473   0.59662939   -117.43811    5593.9259    4.3371396    4.3371396    4.3371396    5593.9259    167.77794    961.86412    15652.136    424.51828    10808.851    2498.2487    81.584979 
   64900    566.10572   -117.95272   0.51222435    -117.4405   -3266.0085    4.3474528    4.3474528    4.3474528   -3266.0085   -7534.0118   -16536.319    14272.305    3141.8977    328.99003    3278.7621    82.168363 
   65000    379.63047   -117.78793   0.34349763   -117.44443   -1298.6116    4.3390717    4.3390717    4.3390717   -1298.6116    13962.716   -15651.336   -2207.2148    4089.8568   -1025.3751   -15973.337    81.694062 
   65100    600.78262   -117.98706   0.54360074   -117.44346   -10003.299    4.3462377    4.3462377    4.3462377   -10003.299   -10963.365   -15965.706   -3080.8264    1045.2885   -2481.1512   -6761.0158    82.099485 
   65200    566.21893   -117.95311   0.51232679   -117.44079    4262.3329    4.3432099    4.3432099    4.3432099    4262.3329   -6198.9992      348.959    18637.039   -2185.5244    7980.2236     4040.733    81.928019 
   65300    486.85679   -117.88106   0.44051825   -117.44054    2212.2991    4.3382976    4.3382976    4.3382976    2212.2991    5844.5254    -11126.32    11918.691    4794.8912   -549.85213   -9624.2415    81.650345 
   65400    426.15025   -117.82659   0.38558971     -117.441    -11885.09    4.3514428    4.3514428    4.3514428    -11885.09   -11989.782   -22007.145   -1658.3434    591.69052   -1184.6443   -12924.798    82.394805 
   65500    558.59611   -117.94495    0.5054295   -117.43952    11492.487     4.335194     4.335194     4.335194    11492.487    1405.4001    11795.589    21276.473   -848.57765    7722.6797   -179.96691    81.475234 
   65600    667.23104    -118.0437   0.60372466   -117.43997     2214.084    4.3428527    4.3428527    4.3428527     2214.084   -1571.4704   -324.85945     8538.582    2788.7787   -597.14341    1662.1743    81.907809 
   65700    345.25299   -117.75435   0.31239216   -117.44196   -2057.7413    4.3502575    4.3502575    4.3502575   -2057.7413   -9956.9496     -17777.3    21561.025   -477.67718   -35.846075   -11484.765    82.327495 
   65800    490.36212   -117.88337   0.44368995   -117.43968    4295.0445    4.3354619    4.3354619    4.3354619    4295.0445    4470.0191    4860.8276    3554.2867   -2340.3196    646.64894   -4079.2085    81.490341 
   65900     604.5447   -117.98685   0.54700475   -117.43985     4157.255    4.3458522    4.3458522    4.3458522     4157.255   -9894.5604   -1125.8595    23492.185    -308.9034    4836.2106    6304.8364     82.07764 
   66000    566.28658   -117.95498   0.51238799    -117.4426   -9793.5063    4.3474115    4.3474115    4.3474115   -9793.5063   -9004.0411   -15129.981   -5246.4966    2623.7789   -1517.9201   -4261.5682    82.166019 
   66100    420.13599   -117.82447   0.38014787   -117.44432    -104.9877     4.331351     4.331351     4.331351    -104.9877    12719.846   -9167.0129   -3867.7959    1093.1027   -133.73616   -16567.534    81.258748 
   66200    511.43626   -117.90655   0.46275827   -117.44379   -10992.719    4.3552984    4.3552984    4.3552984   -10992.719   -15315.473   -17983.382    320.69855   -3408.6115    4878.9881   -3530.6193    82.614019 
   66300     734.2574   -118.10471   0.66437152   -117.44033    3930.0515    4.3382941    4.3382941    4.3382941    3930.0515    634.10443   -3046.6734    14202.723    2019.4407   -1997.0931    3552.4856    81.650146 
   66400    509.39355   -117.90314   0.46090999   -117.44223    7543.0991    4.3360467    4.3360467    4.3360467    7543.0991    8602.0189   -6590.8479    20618.126     2714.504    -3768.709   -9401.1719    81.523318 
   66500    341.04801   -117.75021   0.30858741   -117.44162   -12212.927    4.3587073    4.3587073    4.3587073   -12212.927   -12534.233   -28578.732    4474.1847    -1564.345   -1740.8166   -7156.2353    82.808157 
   66600    653.17963   -118.02647   0.59101066   -117.43546    16263.624    4.3301258    4.3301258    4.3301258    16263.624    14468.429    13820.962     20501.48   -883.42703    5972.1966    3609.1508    81.189813 
   66700    650.02178   -118.02618   0.58815337   -117.43803    7636.9596    4.3443674    4.3443674    4.3443674    7636.9596   -1846.3303   -540.39567    25297.605    1017.8026    3252.0395    788.76775    81.993542 
   66800    428.19637   -117.82951   0.38744108   -117.44207   -8142.6119    4.3507768    4.3507768    4.3507768   -8142.6119   -3084.8215   -16262.568   -5080.4462     1846.277   -4799.5809   -14567.448    82.356981 
   66900     301.7161   -117.71604   0.27299906   -117.44304    12008.427    4.3342535    4.3342535    4.3342535    12008.427    9130.4167    4254.3996    22640.463   -2404.8358    3223.3303   -8212.7895    81.422217 
   67000    714.46389   -118.08638   0.64646194   -117.43992   -6397.3245    4.3505843    4.3505843    4.3505843   -6397.3245   -19091.668   -7145.4961    7045.1906    69.441129     1767.499    -313.4893     82.34605 
   67100    500.85446   -117.89533   0.45318364   -117.44214     -1233.35    4.3427987    4.3427987    4.3427987     -1233.35     1573.814   -4780.3558   -493.50836    1972.6877    1368.1219   -9420.0533    81.904754 
   67200    344.45893   -117.75501   0.31167368   -117.44334   -3946.8882    4.3360164    4.3360164    4.3360164   -3946.8882    2889.9665   -8321.3657   -6409.2654   -4222.9996   -5347.7998   -12755.048    81.521609 
   67300    569.91113    -117.9561   0.51566757   -117.44043   -12928.513    4.3524293    4.3524293    4.3524293   -12928.513   -25205.872   -16641.992     3062.326   -4432.2989   -2004.3626    5172.9329    82.450857 
   67400    722.57377    -118.0913   0.65379993    -117.4375    1203.0882    4.3395789    4.3395789    4.3395789    1203.0882   -2048.5336    -8960.172     14617.97    -1712.345    2859.8036   -581.20972    81.722709 
   67500    445.57264   -117.84387   0.40316349    -117.4407   -394.52806     4.339958     4.339958     4.339958   -394.52806   -1531.1239   -9657.6015    10005.141   -895.21386    816.27592   -11464.499     81.74413 
   67600     375.5318   -117.78136   0.33978906   -117.44157    -7908.201    4.3505835    4.3505835    4.3505835    -7908.201   -17923.477   -21260.426      15459.3   -1561.4481   -592.30099   -4764.3702    82.346006 
   67700    650.42269   -118.02717   0.58851612   -117.43865    8491.3015    4.3361124    4.3361124    4.3361124    8491.3015   -1609.5029    10345.569    16737.838    2428.1816   -2197.2196    420.04841    81.527027 
   67800    567.30594   -117.95409   0.51331034   -117.44078    3680.3195    4.3438592    4.3438592    4.3438592    3680.3195     -6048.37    3253.4519    13835.877    2552.1936    4324.1935   -4606.0776    81.964772 
   67900    315.26268   -117.72969    0.2852563   -117.44444   -2996.3946    4.3472887    4.3472887    4.3472887   -2996.3946   -8198.3371    7967.9829   -8758.8296   -1473.5677   -1319.9205   -5857.5518    82.159054 
   68000    476.80946   -117.87328   0.43142722   -117.44185    3929.6527    4.3384035    4.3384035    4.3384035    3929.6527    179.52085    4577.1231    7032.3142    1853.2582   -5400.3405    3882.4337    81.656326 
   68100    586.75623   -117.97008   0.53090937   -117.43917    65.769435    4.3482361    4.3482361    4.3482361    65.769435   -14774.075   -459.07265    15430.456    2222.8564    1560.2857    2719.2881    82.212781 
   68200    523.25726   -117.91341   0.47345417   -117.43996    863.30949    4.3407042    4.3407042    4.3407042    863.30949   -149.32223    851.66412    1887.5866    334.46707   -4692.6698    -4316.605    81.786305 
   68300    409.70473   -117.81229   0.37070945   -117.44158   -4064.1568    4.3432186    4.3432186    4.3432186   -4064.1568    -512.5724   -14458.168    2778.2703    -3545.153   -1408.3941   -5637.4603    81.928513 
   68400    533.88012   -117.92214   0.48306595   -117.43907   -2976.8101    4.3471394    4.3471394    4.3471394   -2976.8101   -16223.024   -7737.7891    15030.383   -160.45796   -561.35147   -162.96821    82.150595 
   68500    596.14672   -117.97717   0.53940608   -117.43776    4586.7532    4.3400416    4.3400416    4.3400416    4586.7532   -4958.1116    5694.7098    13023.661    2221.3132    1351.8622    -2615.264    81.748854 
   68600     423.9346   -117.82446   0.38358494   -117.44088    3421.3076    4.3429105    4.3429105    4.3429105    3421.3076    -5999.288     12864.65    3398.5604   -2616.0366    3150.6447    -6869.685    81.911075 
   68700    373.78565   -117.77981   0.33820911    -117.4416   -5212.8245    4.3492266    4.3492266    4.3492266   -5212.8245   -20014.393   -5534.0981    9910.0174   -74.371636   -2976.5662    1885.7989    82.268977 
   68800    468.06223   -117.86267   0.42351254   -117.43915    4905.8699    4.3394612    4.3394612    4.3394612    4905.8699   -15241.162    8448.0179    21510.754    4138.1867    3957.6877    6374.2665    81.716063 
   68900    568.06858   -117.95309   0.51400039   -117.43908   -1041.1856    4.3444785    4.3444785    4.3444785   -1041.1856   -11216.145    231.81818    7860.7703    1550.3204   -1086.4846   -1232.8083    81.999829 
   69000    454.10093   -117.85199   0.41088007   -117.44111   -8627.6824    4.3469386    4.3469386    4.3469386   -8627.6824   -12701.016    -8329.615   -4852.4165    618.08261   -4113.2077   -5294.9052    82.139211 
   69100    452.61631   -117.85039   0.40953675   -117.44085   -3482.2407     4.336914     4.336914     4.336914   -3482.2407   -11947.008   -10061.795     11562.08    8670.2288    -430.5657   -1380.0619    81.572249 
   69200    561.87187   -117.94813   0.50839347   -117.43974   -8943.1053    4.3495236    4.3495236    4.3495236   -8943.1053    -20256.37   -10734.207    4161.2612    3365.7683    2192.4817    1313.8408    82.285831 
   69300    560.29623    -117.9456   0.50696781   -117.43863    3360.9992    4.3418683    4.3418683    4.3418683    3360.9992   -2163.3058    13852.645    -1606.342   -2360.0893    53.077705   -2851.1635    81.852121 
   69400    486.43187   -117.87994   0.44013378   -117.43981    2187.6819    4.3384357    4.3384357    4.3384357    2187.6819   -1492.8915   -394.97319    8450.9104    2610.2787   -6618.2173   -2958.0932    81.658141 
   69500    344.52852   -117.75366   0.31173664   -117.44192   -2086.8623    4.3502654    4.3502654    4.3502654   -2086.8623   -20571.894    -1048.992    15360.299    830.97661    5982.8919    2459.3816    82.327944 
   69600    516.27848   -117.90584   0.46713962    -117.4387    8700.2019    4.3406309    4.3406309    4.3406309    8700.2019   -5503.1021    11308.076    20295.632   -1652.6372    380.96066    3129.7905    81.782157 
   69700    583.51663   -117.96603   0.52797811   -117.43805    7876.9131    4.3397277    4.3397277    4.3397277    7876.9131    4326.2172    10859.814    8444.7079   -2263.3689   -6249.1314    1009.9143    81.731116 
   69800    479.25238   -117.87513   0.43363763   -117.44149   -6760.3987    4.3477441    4.3477441    4.3477441   -6760.3987   -15112.673   -13206.648    8038.1243    3897.9809    554.38073     -2545.29    82.184879 
   69900    460.94466   -117.86019   0.41707242   -117.44312   -1695.2379    4.3390635    4.3390635    4.3390635   -1695.2379   -7505.4617   -7999.7195    10419.467    6313.3373     2450.941    2800.8034    81.693594 
   70000    635.02309   -118.01674   0.57458224   -117.44216   -3200.9495    4.3435773    4.3435773    4.3435773   -3200.9495   -8004.7491    6154.9756    -7753.075   -1882.5119    6004.3297   -815.48921    81.948811 
   70100    635.84704   -118.01483   0.57532777    -117.4395   -8311.2779    4.3490656    4.3490656    4.3490656   -8311.2779    -9011.791   -13210.095   -2711.9481    4013.0353   -8983.2758   -3969.8631    82.259841 
   70200    440.06617   -117.83789   0.39818111   -117.43971    1771.0841    4.3368752    4.3368752    4.3368752    1771.0841   -3969.9261    1869.8263    7413.3522    6169.4716    1747.2529    345.95115    81.570058 
   70300    452.15918   -117.85018   0.40912313   -117.44106   -5368.4069    4.3473782    4.3473782    4.3473782   -5368.4069   -12394.855   -5135.3692    1425.0031   -2638.7737    5244.5278    4347.8908    82.164129 
   70400    568.16672   -117.95346   0.51408919   -117.43937    1941.1687     4.345456     4.345456     4.345456    1941.1687   -5757.0882    11046.018    534.57639   -1773.7669   -8935.2668    4850.5551    82.055195 
   70500    552.08021   -117.93775   0.49953378   -117.43821    10054.555     4.336669     4.336669     4.336669    10054.555    7594.6713    10129.913    12439.079    1601.2004    2333.2917   -1913.0698    81.558422 
   70600    443.77917   -117.84244   0.40154072    -117.4409   -5135.8976    4.3484421    4.3484421    4.3484421   -5135.8976    -2928.391   -17011.744    4532.4418    1390.4485    3596.9341    668.04145    82.224468 
   70700    439.57937   -117.83819   0.39774066   -117.44045    1062.9008    4.3439076    4.3439076    4.3439076    1062.9008   -7988.6343    8480.4856    2696.8512   -4920.0038    2044.6604    4958.3302    81.967507 
   70800    680.79104   -118.05445   0.61599404   -117.43846     6509.578    4.3376363    4.3376363    4.3376363     6509.578    9092.9769     930.5419    9505.2152    899.78897   -4512.2222   -89.572792    81.613011 
   70900    677.56732   -118.05321   0.61307715   -117.44013   -6587.6028    4.3477762    4.3477762    4.3477762   -6587.6028   -3763.3242   -12971.425   -3028.0595    380.18341   -2219.4436   -5528.6777    82.186699 
   71000    416.57966   -117.81993   0.37693003     -117.443   -3778.8155    4.3419122    4.3419122    4.3419122   -3778.8155   -6597.0655   -10831.561    6092.1799   -5508.0209    4642.9504   -1870.0057    81.854603 
   71100    506.14178   -117.90098   0.45796772   -117.44302   -3362.8093    4.3412008    4.3412008    4.3412008   -3362.8093   -7204.9796    2730.8653   -5614.3136      1572.24    -10709.48    4498.5786    81.814374 
   71200    658.06367   -118.03421   0.59542984   -117.43878    238.75671    4.3487416    4.3487416    4.3487416    238.75671   -6481.0598   -1167.1775    8364.5074    722.50349   -3315.2687    705.41315    82.241457 
   71300    618.33136   -117.99933   0.55947921   -117.43985   -3682.2109    4.3405804    4.3405804    4.3405804   -3682.2109   -1477.8549   -10507.864    939.08668   -1288.1035    5193.3098    1355.7644    81.779304 
   71400    257.25251   -117.67715   0.23276748   -117.44438    2881.0991    4.3394161    4.3394161    4.3394161    2881.0991   -793.71542     10073.48   -636.46717   -2942.1989    403.16113    8031.8211    81.713515 
   71500    497.11051   -117.89253   0.44979604   -117.44274    -3738.185    4.3493971    4.3493971    4.3493971    -3738.185    -3424.881   -7069.3955   -720.27848   -2126.3527   -1865.6027    2843.5696    82.278657 
   71600    700.78758   -118.07304   0.63408733   -117.43895    8753.5794    4.3375499    4.3375499    4.3375499    8753.5794    12262.822    9399.7405    4598.1759    1429.1968   -5004.0001    13.186699    81.608133 
   71700    497.59514   -117.89396   0.45023454   -117.44372   -66.878803    4.3429481    4.3429481    4.3429481   -66.878803    15866.455    -7901.511   -8165.5806   -6062.0912    3859.7953   -660.08702    81.913202 
   71800    379.00327     -117.786   0.34293012   -117.44307    -11283.33    4.3505541    4.3505541    4.3505541    -11283.33   -2223.1701   -9706.2791    -21920.54   -1756.5698   -5619.9045   -2097.6661    82.344334 
   71900    544.79743   -117.93147   0.49294417   -117.43853    6571.2328    4.3369242    4.3369242    4.3369242    6571.2328    586.71565    5650.4535    13476.529    119.13035   -9877.7956   -128.36807    81.572823 
   72000    755.61394    -118.1208   0.68369537    -117.4371    -6747.189    4.3441499    4.3441499    4.3441499    -6747.189    3002.5601   -18863.057     -4381.07    5860.7464     4669.111     -490.716    81.981228 
   72100    368.27799   -117.77505   0.33322566   -117.44183    -5293.395    4.3484785    4.3484785    4.3484785    -5293.395   -5764.9316   -8571.0972   -1544.1561   -874.91631   -5286.3217    1427.0407    82.226531 
   72200    410.56919   -117.81305   0.37149163   -117.44156   -463.94009     4.338926     4.338926     4.338926   -463.94009   -12972.071    2995.6925    8584.5586   -3125.8234   -2421.2412    2340.4323    81.685831 
   72300    561.85776   -117.94816   0.50838071   -117.43978    211.37508    4.3457504    4.3457504    4.3457504    211.37508   -4381.5073   -6414.3577     11429.99     4633.211    2033.1648    2800.1016    82.071873 
   72400    504.83115   -117.89658   0.45678183    -117.4398    1168.5498    4.3462886    4.3462886    4.3462886    1168.5498     10035.19   -38.214311   -6491.3262   -3741.7305    684.73429    3825.1108    82.102366 
   72500    449.61378   -117.84747      0.40682   -117.44065    761.65682    4.3401492    4.3401492    4.3401492    761.65682    7519.1968     6999.903   -12234.129   -4961.2148    -496.0279    172.97352    81.754933 
   72600    356.76588   -117.76412   0.32280926   -117.44131    3423.4778    4.3477653    4.3477653    4.3477653    3423.4778    2750.1748    5128.3792    2391.8795   -1251.2844   -6849.3869   -1773.9833    82.186081 
   72700    572.83876   -117.95579   0.51831654   -117.43747   -2399.3431    4.3463356    4.3463356    4.3463356   -2399.3431    10587.633    -11645.67   -6139.9924    89.284614     1238.177   -2044.2539     82.10503 
   72800     503.0491   -117.89229   0.45516939   -117.43712    1129.0573     4.341565     4.341565     4.341565    1129.0573    14076.271   -5140.5969   -5548.5024    1251.4011   -3621.6602    1773.4593    81.834967 
   72900    496.73523   -117.88795   0.44945647   -117.43849   -3682.5713    4.3463168    4.3463168    4.3463168   -3682.5713   -1644.7108   -5787.1423   -3615.8609   -74.804868   -7312.0057    1002.7373    82.103963 
   73000    487.36673   -117.87943   0.44097966   -117.43845   -2822.1369    4.3462667    4.3462667    4.3462667   -2822.1369   -6838.5226   -17917.178     16289.29     7305.064    236.26688    573.13678    82.101126 
   73100    517.51855   -117.90623   0.46826166   -117.43797   -3998.7935    4.3429249    4.3429249    4.3429249   -3998.7935    1752.2175   -10377.024   -3371.5736    3869.0801    -2718.993    8968.4222    81.911895 
   73200    511.45664   -117.90091   0.46277672   -117.43813   -2787.3756    4.3437309    4.3437309    4.3437309   -2787.3756      3763.33   -3196.7674   -8928.6893   -1875.8236    1245.4445    2933.2684    81.957505 
   73300    436.75357    -117.8338   0.39518381   -117.43861   -2696.9055    4.3479785    4.3479785    4.3479785   -2696.9055   -13008.381    9413.2103   -4495.5454   -97.158072    -770.5062   -438.37909    82.198173 
   73400    399.19067   -117.79932   0.36119611   -117.43812    2086.2317    4.3420725    4.3420725    4.3420725    2086.2317   -1186.8509   -5113.3831    12558.929    2800.1218    1239.3467    4959.0858    81.863672 
   73500    469.10565   -117.86247   0.42445665   -117.43801   -3108.3794    4.3442748    4.3442748    4.3442748   -3108.3794    8770.5367   -2327.5992   -15768.076   -1732.0538    4063.5007    486.53867    81.988298 
   73600    474.73511   -117.86734    0.4295503   -117.43779    -4034.633    4.3483223    4.3483223    4.3483223    -4034.633    2055.0067   -6055.6101   -8103.2954   -5127.6462   -7086.7592   -2300.4856    82.217673 
   73700    484.04673   -117.87615   0.43797565   -117.43817    2710.9384     4.340147     4.340147     4.340147    2710.9384    4324.4198   -9896.1751     13704.57    4359.2338   -157.66755   -2965.4022    81.754809 
   73800    407.01035   -117.80779   0.36827152   -117.43952   -1039.1135    4.3448861    4.3448861    4.3448861   -1039.1135    5186.2374   -19521.717    11218.139    6260.5227    -1010.313    1684.9765    82.022913 
   73900    457.74871   -117.85308   0.41418065    -117.4389    256.39358    4.3457251    4.3457251    4.3457251    256.39358    7830.0285    -9611.777    2550.9292   -247.80922   -5763.0326    1521.8003    82.070438 
   74000    464.11761   -117.85898   0.41994337   -117.43903     1866.396    4.3435083    4.3435083    4.3435083     1866.396   -1851.3643      10464.1   -3013.5475    5775.4134     76.02206   -330.01716    81.944906 
   74100    329.99255   -117.73954   0.29858419   -117.44095    5995.7649    4.3421338    4.3421338    4.3421338    5995.7649   -10579.761    2607.1236    25959.932    5986.9978   -2271.9229    3802.8793     81.86714 
   74200    408.66123   -117.80991   0.36976527   -117.44015   -2073.3812    4.3463256    4.3463256    4.3463256   -2073.3812   -4659.2317    -518.2875   -1042.6245    2630.6774    1753.7641    2512.5547    82.104463 
   74300    493.23838   -117.88497   0.44629245   -117.43868    -4757.501    4.3440895    4.3440895    4.3440895    -4757.501    1013.2941   -4087.9714   -11197.826    -1987.073   -1592.2925   -3414.7803    81.977807 
   74400    522.69423   -117.91199   0.47294472   -117.43905   -5185.5213    4.3406824    4.3406824    4.3406824   -5185.5213   -8101.6906   -10065.288    2610.4146    1118.1533   -559.62657   -4790.0245    81.785072 
   74500    452.80659   -117.85029   0.40970892   -117.44058   -9965.8937    4.3482187    4.3482187    4.3482187   -9965.8937    -9823.584   -29264.226    9190.1285    4042.5126    4792.0671    4461.4602    82.211797 
   74600    478.10275   -117.87247   0.43259742   -117.43987   -5687.9298    4.3432168    4.3432168    4.3432168   -5687.9298    5103.1691   -9474.6129   -12692.346   -3756.8475   -5250.2961   -3116.7324     81.92841 
   74700    416.85323   -117.81655   0.37717756   -117.43938    1014.5358    4.3424022    4.3424022    4.3424022    1014.5358    126.51458    5197.4621   -2280.3692    1977.0511    1297.0976   -5199.8421    81.882321 
   74800    345.62943   -117.75291   0.31273277   -117.44018    2543.5649    4.3471286    4.3471286    4.3471286    2543.5649   -9230.6562    2069.9244    14791.426    5154.5942    -1331.398    5951.5312    82.149983 
   74900    416.79466   -117.81754   0.37712457   -117.44042    4256.5946    4.3419781    4.3419781    4.3419781    4256.5946    3928.9854    93.282529     8747.516   -163.41842   -1385.2061    9388.5763    81.858329 
   75000    358.13253    -117.7647   0.32404584   -117.44066    4263.8945     4.344726     4.344726     4.344726    4263.8945    3052.6957    5760.7907    3978.1971    1877.7704    862.52019   -5157.9325    82.013849 
   75100    500.71934   -117.89167   0.45306138   -117.43861   -3756.4318    4.3447319    4.3447319    4.3447319   -3756.4318    1178.4904   -14343.297    1895.5115     5442.275   -5417.5231   -7145.0595    82.014179 
   75200    508.69474   -117.89856   0.46027769   -117.43828    608.41322    4.3423743    4.3423743    4.3423743    608.41322    2376.4719   -14460.841    13909.609    2259.3928    3708.5741    2616.1187    81.880741 
   75300    494.13961   -117.88577    0.4471079   -117.43867   -1114.2255    4.3432764    4.3432764    4.3432764   -1114.2255    2252.2784   -11177.431    5582.4757   -5115.1108   -1786.6961    347.54082    81.931783 
   75400    384.65106   -117.78829   0.34804036   -117.44025    364.18755    4.3453193    4.3453193    4.3453193    364.18755    4642.2133    3348.8662   -6898.5169    204.73198   -1797.0844   -8010.5653    82.047449 
   75500    404.20284   -117.80568   0.36573123   -117.43995    1275.3433    4.3452914    4.3452914    4.3452914    1275.3433   -6177.0357    1023.0889    8979.9766    3125.9441    4511.3791   -1213.3905     82.04587 
   75600    436.16871   -117.83364   0.39465461   -117.43899    8964.8433    4.3399377    4.3399377    4.3399377    8964.8433    -1344.008    3368.2501    24870.288    175.14168   -1371.6266    7848.4347    81.742983 
   75700    379.58234   -117.78449   0.34345408   -117.44104   -1341.4731    4.3462646    4.3462646    4.3462646   -1341.4731   -1144.1902      104.419    -2984.648   -203.82261    1612.9095   -2899.2914    82.101008 
   75800    401.28848   -117.80422   0.36309425   -117.44112   -6516.8676    4.3434209    4.3434209    4.3434209   -6516.8676   -326.02555   -17907.004   -1317.5732    4868.1172   -3731.4586   -8039.3747    81.939962 
   75900    487.85125   -117.88146   0.44141807   -117.44004   -2599.4176    4.3435417    4.3435417    4.3435417   -2599.4176    -12176.75   -10468.244    14846.741    5525.2562    -970.1425   -1319.1065    81.946799 
   76000    557.25367   -117.94306   0.50421483   -117.43884   -7082.6363    4.3438277    4.3438277    4.3438277   -7082.6363   -3256.3677   -14972.819   -3018.7228   -1676.3154    515.07003   -3515.1591    81.962984 
   76100     314.5077   -117.72619   0.28457317   -117.44162    915.58302     4.339385     4.339385     4.339385    915.58302    4821.3525    12817.923   -14892.526    921.25356   -5143.1666   -7977.4581    81.711755 
   76200    372.13616   -117.77829   0.33671662   -117.44157   -9917.7355    4.3498997    4.3498997    4.3498997   -9917.7355   -17707.343   -8003.0527    -4042.811     3292.892    1342.1947   -2839.2574     82.30718 
   76300    465.31999   -117.85915   0.42103131   -117.43812    5692.5382    4.3401313    4.3401313    4.3401313    5692.5382   -7204.7004    6984.7814    17297.534   -3492.0297    1563.0358    7064.3713    81.753923 
   76400     469.2816   -117.86351   0.42461585   -117.43889   -267.39371    4.3424671    4.3424671    4.3424671   -267.39371    3727.5551   -5863.1889    1333.4526   -4026.8327   -2084.9693   -5073.7093    81.885989 
   76500    300.31118   -117.71324   0.27172787   -117.44151   -3805.3603    4.3471449    4.3471449    4.3471449   -3805.3603   -1554.9285   -11774.215    1913.0629   -462.22241    906.87385   -10725.138    82.150906 
   76600    465.07899   -117.86029   0.42081325   -117.43947   -3144.5871    4.3416895    4.3416895    4.3416895   -3144.5871   -5360.4136   -13262.126    9188.7785   -392.76219    2877.1586   -1226.9231     81.84201 
   76700    508.82659   -117.89853   0.46039699   -117.43814    4477.0717    4.3437876    4.3437876    4.3437876    4477.0717   -958.96817   -331.03904    14721.222    765.62964    538.72392   -3646.0935    81.960719 
   76800    371.50867   -117.77714   0.33614885     -117.441    2129.1057    4.3456063    4.3456063    4.3456063    2129.1057    3733.2707     12444.19   -9790.1434    3681.6529   -4313.2671   -11093.848    82.063708 
   76900    321.93071   -117.73323   0.29128967   -117.44194    -4624.504    4.3446813    4.3446813    4.3446813    -4624.504   -2345.4321   -2187.0145   -9341.0654    5012.0315   -537.21606   -4125.0734    82.011314 
   77000    444.57239    -117.8421   0.40225844   -117.43985    197.72868    4.3433079    4.3433079    4.3433079    197.72868   -6908.0819    1624.7087    5876.5592    2607.4409    999.52174    7982.2971    81.933568 
   77100    579.66837   -117.96279   0.52449612   -117.43829   -2614.5135    4.3464157    4.3464157    4.3464157   -2614.5135     299.3075   -12319.927    4177.0792   -3415.0419   -3061.5238   -45.173775    82.109569 
   77200    359.20918   -117.76449   0.32502001   -117.43946   -3944.4547    4.3458652    4.3458652    4.3458652   -3944.4547    482.10101    -7707.662   -4607.8032    2568.9192   -3636.6466   -8948.9093    82.078376 
   77300     415.3044   -117.81447   0.37577615   -117.43869    -7695.104    4.3432697    4.3432697    4.3432697    -7695.104   -6439.4752   -16763.131    117.29396    396.40919    2708.8198   -664.93904    81.931402 
   77400     500.1833   -117.89105   0.45257636   -117.43848   -298.75451    4.3461894    4.3461894    4.3461894   -298.75451   -12336.261    2457.3068    8982.6909   -6554.8309    216.35112   -2305.1511    82.096744 
   77500    415.58832   -117.81487   0.37603305   -117.43884    5462.9012     4.345038     4.345038     4.345038    5462.9012    8180.9612    12925.343    -4717.601    725.32484   -3819.1859   -13425.023    82.031517 
   77600     322.4287   -117.73178   0.29174027   -117.44004   -1871.1858    4.3424677    4.3424677    4.3424677   -1871.1858   -4687.0623    11079.045    -12005.54   -6.3835526    1626.5566   -10521.052    81.886028 
   77700    393.59919   -117.79635   0.35613682   -117.44022   -3118.6303    4.3451965    4.3451965    4.3451965   -3118.6303   -1356.4591   -7427.3554   -572.07631    3590.4349    4054.7902    4934.5358    82.040495 
   77800    510.68151   -117.90058   0.46207536   -117.43851   -3144.1321    4.3468023    4.3468023    4.3468023   -3144.1321    1317.2591   -6067.3085    -4682.347    1309.8544    984.25846   -2391.8414    82.131484 
   77900    467.73614   -117.86119   0.42321749   -117.43797    855.40569    4.3380035    4.3380035    4.3380035    855.40569    15565.898   -3070.4458   -9929.2352     722.4699   -3457.8291   -10848.115    81.633742 
   78000    437.02783    -117.8346   0.39543196   -117.43917   -13207.831    4.3488115    4.3488115    4.3488115   -13207.831   -7930.4707   -18195.532   -13497.491    2890.1928    1783.0238    1444.4204    82.245427 
   78100    429.03333   -117.82622   0.38819838   -117.43802   -3817.4526    4.3450866    4.3450866    4.3450866   -3817.4526   -1420.2151   -6600.7461   -3431.3967   -2422.1335    3922.0347    4964.4557     82.03427 
   78200     480.9091   -117.87284   0.43513666    -117.4377    6221.1628    4.3372728    4.3372728    4.3372728    6221.1628     3469.256    17601.549    -2407.317   -914.26321   -8692.9413    -4195.864    81.592496 
   78300    379.63987   -117.78268   0.34350613   -117.43917    -2601.764    4.3489579    4.3489579    4.3489579    -2601.764   -950.90334    5553.1036   -12407.492   -735.98002   -5869.8667   -9418.8603    82.253732 
   78400    405.27897   -117.80548   0.36670493   -117.43877   -2360.5569     4.343644     4.343644     4.343644   -2360.5569   -10587.412   -8088.0072    11593.748   -1670.5683    1321.5567    440.18312    81.952588 
   78500    417.95259   -117.81719   0.37817229   -117.43902    5231.7179    4.3388481    4.3388481    4.3388481    5231.7179    2309.0534    6100.4899    7285.6104   -1466.7824   -2645.8595    1709.6336    81.681432 
   78600    498.62109   -117.89052   0.45116284   -117.43935   -2532.5255    4.3449369    4.3449369    4.3449369   -2532.5255   -2781.1154   -10198.775    5382.3134   -1128.6792   -3284.3547   -7273.4745    82.025791 
   78700     434.9808   -117.83354   0.39357977   -117.43996   -10070.426    4.3479476    4.3479476    4.3479476   -10070.426   -7491.3999   -22804.294    84.414274     355.3345   -2144.9125    -1228.911    82.196418 
   78800    449.95185   -117.84591   0.40712589   -117.43879   -1513.9129    4.3375611    4.3375611    4.3375611   -1513.9129   -139.45372   -7609.6568    3207.3717    297.53783    6500.8207    9337.1353    81.608767 
   78900    463.83955   -117.85928   0.41969177   -117.43959   -1026.2045    4.3460829    4.3460829    4.3460829   -1026.2045    3850.8852    3837.0303   -10766.529   -793.97574   -4149.1077    2570.8686    82.090712 
   79000     481.9953    -117.8756   0.43611948   -117.43948   -5894.7223    4.3474668    4.3474668    4.3474668   -5894.7223    1386.0017   -3402.4235   -15667.745   -2459.9239   -7029.2295   -8157.4021    82.169154 
   79100    411.50449   -117.81037   0.37233791   -117.43803    6320.6905    4.3333711    4.3333711    4.3333711    6320.6905    14167.673    520.05366    4274.3453   -1959.7305    4601.5337   -267.77759      81.3725 
   79200    394.18852   -117.79734   0.35667006   -117.44067   -4737.7601    4.3516843    4.3516843    4.3516843   -4737.7601    6775.4776   -14633.448   -6355.3101    764.94031   -1537.6015    7465.8286    82.408524 
   79300     434.1786   -117.83194   0.39285392   -117.43908    7599.4906    4.3409093    4.3409093    4.3409093    7599.4906    16105.926    2861.2503    3831.2958   -45.277979   -5692.2537   -6982.3537    81.797898 
   79400    487.64624   -117.87891   0.44123256   -117.43768    5785.6844    4.3377237    4.3377237    4.3377237    5785.6844    16740.841   -9566.7247    10182.937   -1769.4733   -4133.4413   -6160.1283    81.617947 
   79500    396.40708   -117.79691   0.35867745   -117.43824   -9962.5479    4.3544944    4.3544944    4.3544944   -9962.5479   -1845.6641   -32055.553    4013.5732    3262.8375    1852.5278    5319.7679    82.568274 
   79600     398.5068   -117.79842   0.36057733   -117.43785    8563.6594    4.3339312    4.3339312    4.3339312    8563.6594    14077.239     2271.204    9342.5353    3338.1369   -1784.0351     10672.79    81.404056 
   79700     509.6766   -117.90024    0.4611661   -117.43907   -2201.0255     4.343339     4.343339     4.343339   -2201.0255   -715.76573    5278.1363   -11165.447   -646.09208   -11828.463    1525.8201    81.935327 
   79800    481.36729   -117.87278   0.43555124   -117.43723   -7677.8847    4.3499096    4.3499096    4.3499096   -7677.8847   -2930.5921    -13168.19   -6934.8723   -81.951396    1623.5149   -1709.2096    82.307742 
   79900     431.3323   -117.82769   0.39027853   -117.43741   -6422.1115     4.339398     4.339398     4.339398   -6422.1115   -4942.4849   -9476.4803   -4847.3694   -681.22857    -1018.775    9736.2606    81.712492 
   80000    380.54275   -117.78336   0.34432308   -117.43903   -730.86215    4.3424442    4.3424442    4.3424442   -730.86215    2850.3283    11799.544   -16842.459   -1815.7064    -8972.765    2928.8743    81.884695 
   80100    632.74769    -118.0099   0.57252341   -117.43737   -11999.041    4.3474519    4.3474519    4.3474519   -11999.041   -9586.8063   -13563.669   -12846.649   -2147.8872   -1863.9586   -4679.5254    82.168311 
   80200    435.04801   -117.83235   0.39364058   -117.43871    -4158.132    4.3421163    4.3421163    4.3421163    -4158.132    363.54088   -17393.587    4555.6502   -2882.8489    477.45526     2088.325    81.866147 
   80300    420.52577   -117.82061   0.38050056   -117.44011   -3805.9885    4.3396562    4.3396562    4.3396562   -3805.9885    200.40996   -13179.859    1561.4831    2112.0504     -5265.19    8465.0702    81.727081 
   80400    406.74308   -117.80799   0.36802969   -117.43996    1549.7906    4.3496838    4.3496838    4.3496838    1549.7906    8824.7822    3923.1234   -8098.5337   -499.51628   -13765.572    1499.7162    82.294929 
   80500    592.97604   -117.97353   0.53653719   -117.43699    4171.5318    4.3384942    4.3384942    4.3384942    4171.5318    4468.8754   -921.80998      8967.53   -388.68811   -90.284479   -1712.6383    81.661446 
   80600    373.83148    -117.7789   0.33825058   -117.44065    1576.8341    4.3418161    4.3418161    4.3418161    1576.8341    12104.148   -9402.6241    2028.9783    4626.1876    2106.0369    13639.345    81.849166 
   80700    258.69114   -117.67541   0.23406918   -117.44134    3770.0328    4.3473223    4.3473223    4.3473223    3770.0328    6092.9512    12699.545   -7482.3976    2005.5945   -13100.544    9435.6973    82.160963 
   80800    606.10776   -117.98646   0.54841904   -117.43804     5519.574    4.3367629    4.3367629    4.3367629     5519.574    5383.1274    11650.376   -474.78163   -754.12859   -2457.8977   -553.00089    81.563721 
   80900    516.74966   -117.90653   0.46756595   -117.43897   -1399.6937    4.3460599    4.3460599    4.3460599   -1399.6937    8267.7783   -8712.4581   -3754.4015   -1231.0769    4047.7831    14.547304    82.089406 
   81000    395.44083   -117.79698   0.35780317   -117.43918    -12260.56    4.3481353    4.3481353    4.3481353    -12260.56   -3163.3176   -23053.665   -10564.698    1656.3085   -5474.0639    9305.7851    82.207066 
   81100    421.64322    -117.8194   0.38151165   -117.43789    5427.5653    4.3355107    4.3355107    4.3355107    5427.5653    631.73444    17934.616   -2283.6546   -416.44223   -9994.1584    4103.7459    81.493089 
   81200    706.60396    -118.0754   0.63935012   -117.43605   -5450.0027     4.344183     4.344183     4.344183   -5450.0027    21.286143   -9132.3755   -7238.9187   -2782.5074   -899.56652   -6800.0572    81.983099 
   81300    450.08025   -117.84744   0.40724207    -117.4402   -9766.3795    4.3477933    4.3477933    4.3477933   -9766.3795   -4176.2543   -16046.645   -9076.2396    2720.2721     1697.015    6082.1553    82.187669 
   81400    289.50535   -117.70449   0.26195053   -117.44254     3163.449    4.3361532    4.3361532    4.3361532     3163.449   -4153.3239    10067.307    3576.3638    2808.0943   -16908.277    6854.7842    81.529327 
   81500    510.56417   -117.90133    0.4619692   -117.43936    245.01967    4.3484972    4.3484972    4.3484972    245.01967   -4193.4205    12439.903   -7511.4238     1417.574   -2186.8105      1360.03    82.227596 
   81600    563.53426   -117.94557   0.50989764   -117.43567    2248.1067    4.3436053    4.3436053    4.3436053    2248.1067    1463.0025   -1699.3178    6980.6352    3616.5098    6295.3078    6206.4423    81.950395 
   81700    319.84871   -117.72972   0.28940584   -117.44031    -2151.853    4.3384451    4.3384451    4.3384451    -2151.853   -1979.2904   -5346.1602    869.89175    3564.9104   -14126.518    9178.6249    81.658674 
   81800    292.74021   -117.70743   0.26487749   -117.44255    939.59355    4.3462127    4.3462127    4.3462127    939.59355   -4980.2243    8805.4756   -1006.4706    1777.5003   -10992.714    4466.2187    82.098068 
   81900    671.65883   -118.04408   0.60773102   -117.43635    2909.1971    4.3433918    4.3433918    4.3433918    2909.1971    3874.5147     1848.253    3004.8237   -2809.1987    3538.0653   -5251.3456    81.938312 
   82000    524.11735   -117.91168   0.47423239   -117.43745   -4177.5463    4.3421852    4.3421852    4.3421852   -4177.5463   -3801.2341    -7918.677   -812.72793    1293.2446   -1531.7099      4374.01    81.870046 
   82100    354.12502   -117.76111   0.32041976   -117.44069   -9311.8652    4.3446365    4.3446365    4.3446365   -9311.8652   -4136.2619   -11194.005   -12605.329    1578.5863   -12853.767    5972.3587    82.008778 
   82200    546.65071   -117.93461   0.49462105   -117.43999   -679.52778    4.3443957    4.3443957    4.3443957   -679.52778   -10034.296    2057.8071    5937.9055   -3474.1369   -1064.3232    -3469.037    81.995142 
   82300     700.3094   -118.07093   0.63365467   -117.43728    5192.6452    4.3379022    4.3379022    4.3379022    5192.6452    2521.2311    3745.0402    9311.6643   -208.96404    8376.9441    1088.3136    81.628022 
   82400    388.57758   -117.79414   0.35159316   -117.44255   -8008.9248    4.3488173    4.3488173    4.3488173   -8008.9248    -12354.76    -11542.58   -129.43413    1126.1099   -9422.6734    8667.7323    82.245752 
   82500    302.75108   -117.71586   0.27393554   -117.44192     2249.496    4.3435088    4.3435088    4.3435088     2249.496    -5599.935    5286.1464    7062.2766    1097.4685   -10545.791    9643.8398    81.944936 
   82600    658.02518   -118.03227   0.59539501   -117.43688    9636.1438    4.3376692    4.3376692    4.3376692    9636.1438    8594.9994    9071.3854    11242.047   -1066.2682    2242.6619   -2364.1076    81.614871 
   82700    488.24029   -117.88075   0.44177008   -117.43898   -2340.1029    4.3500807    4.3500807    4.3500807   -2340.1029    874.63919   -10996.496    3101.5479    2923.3047   -4713.0832    4575.5172    82.317458 
   82800    331.74359   -117.74129   0.30016858   -117.44112   -1529.8878    4.3395497    4.3395497    4.3395497   -1529.8878    15484.494   -4915.3865   -15158.771    4123.5501   -12632.351    11366.299    81.721061 
   82900    454.55566   -117.85141   0.41129151   -117.44012    602.02525    4.3434203    4.3434203    4.3434203    602.02525    5860.6899   -4165.7809    111.16668   -977.03173   -6637.7291   -4494.2652    81.939924 
   83000    679.50506   -118.05085   0.61483045   -117.43602   -44.293593    4.3450253    4.3450253    4.3450253   -44.293593     7796.442    -6330.583   -1598.7398    -690.2541    6721.2736   -1055.6236    82.030797 
   83100    461.06137   -117.85695   0.41717802   -117.43978   -3686.4679    4.3412347    4.3412347    4.3412347   -3686.4679    6109.2604   -12385.174   -4783.4904    1162.8763   -4278.8783    9296.1406     81.81629 
   83200    411.76751    -117.8141    0.3725759   -117.44152    -7163.275    4.3433521    4.3433521    4.3433521    -7163.275    -9683.984   -10057.821   -1748.0196    2666.6279   -13382.299    1553.0796    81.936064 
   83300    583.86428   -117.96653   0.52829267   -117.43824    1976.5942    4.3439184    4.3439184    4.3439184    1976.5942   -7442.3206    292.79466    13079.308    -5135.244    4491.8467   -4715.9127    81.968122 
   83400    638.50492   -118.01436   0.57773267   -117.43662   -2502.6465    4.3427539    4.3427539    4.3427539   -2502.6465    3187.3927   -9072.4912   -1622.8411   -5580.6028   -3306.3306    3450.1771    81.902218 
   83500    383.10519    -117.7863   0.34664162   -117.43966    -1529.558    4.3417734    4.3417734    4.3417734    -1529.558   -6290.7787    2771.7408   -1069.6359    2619.9212   -12157.407    12814.582    81.846754 
   83600    467.91157   -117.86391   0.42337623   -117.44053   -479.85222    4.3437967    4.3437967    4.3437967   -479.85222    3154.5907   -2530.3241   -2063.8233    456.98968    -5866.175     -5783.62    81.961229 
   83700    605.95632   -117.98643   0.54828201   -117.43815    5875.9932    4.3406029    4.3406029    4.3406029    5875.9932    10880.518    3777.0521    2970.4092   -409.88308   -118.32423   -6261.7215    81.780576 
   83800    441.19735   -117.83866   0.39920463   -117.43946    5127.5717    4.3426893    4.3426893    4.3426893    5127.5717     10026.56   -672.28783    6028.4429    272.13584   -94.730994    10590.337     81.89856 
   83900    490.13403   -117.88228   0.44348357    -117.4388     -8096.12    4.3456674    4.3456674    4.3456674     -8096.12    5293.6371   -13414.729   -16167.268    3637.2901   -10136.076    3181.3528    82.067169 
   84000    489.91152   -117.88124   0.44328224   -117.43796    6792.7084    4.3382834    4.3382834    4.3382834    6792.7084    6765.5179    3546.4751    10066.132   -5295.7394      2454.75   -5514.9435    81.649543 
   84100    657.73541   -118.03274   0.59513283   -117.43761   -5472.3708    4.3433919    4.3433919    4.3433919   -5472.3708   -1175.2955   -12038.883   -3202.9338   -7137.3215    2036.2821   -1117.2014    81.938321 
   84200    470.04481   -117.86454   0.42530642   -117.43923   -5161.7191    4.3451368    4.3451368    4.3451368   -5161.7191     5176.264   -10019.575   -10641.846    905.00115   -10935.014    11784.409    82.037111 
   84300    546.65502   -117.93298   0.49462495   -117.43835   -5101.1147    4.3393292    4.3393292    4.3393292   -5101.1147   -2628.3049   -4088.7892   -8586.2501   -6333.2656   -3835.1296    499.43943    81.708606 
   84400    555.37753   -117.94007   0.50251726   -117.43756     323.7317    4.3430958    4.3430958    4.3430958     323.7317   -2471.1649   -4263.5643    7705.9242   -6234.6198   -450.73631   -6151.2979    81.921563 
   84500     558.5581   -117.94346   0.50539511   -117.43807   -233.46831     4.343305     4.343305     4.343305   -233.46831    11672.942   -763.28445   -11610.062   -1062.7046    1200.9519     12257.04    81.933402 
   84600    463.80749   -117.85888   0.41966276   -117.43922    2895.9312    4.3410582    4.3410582    4.3410582    2895.9312    8581.6107   -287.07326    393.25609    6552.2566   -8103.8888    2040.6857    81.806313 
   84700    521.02958   -117.91035   0.47143852   -117.43891    1522.8434    4.3426627    4.3426627    4.3426627    1522.8434    9318.2706   -3832.1364   -917.60403    655.19172   -4757.3342   -9213.8084    81.897059 
   84800     528.7997   -117.91667   0.47846908    -117.4382    4794.3597    4.3427703    4.3427703    4.3427703    4794.3597    6941.8735    1952.8585    5488.3472   -7934.8552    7142.7585    2141.2263    81.903146 
   84900    558.17565   -117.94319   0.50504906   -117.43815   -557.71049    4.3413615    4.3413615    4.3413615   -557.71049    6077.2647   -2800.7499   -4949.6462   -1000.7884   -8919.9185     6073.785    81.823461 
   85000    534.49353   -117.92259   0.48362098   -117.43897   -3116.4235    4.3434602    4.3434602    4.3434602   -3116.4235   -2537.9189   -2118.4111   -4692.9404   -290.85166   -6312.9825   -3692.7681    81.942184 
   85100    598.65151   -117.97981   0.54167247   -117.43814   -4899.0274     4.342705     4.342705     4.342705   -4899.0274   -1482.4778   -11236.324   -1978.2805   -6228.7883    519.09138   -9064.7293    81.899449 
   85200    577.51467    -117.9603   0.52254741   -117.43775    797.21985    4.3403198    4.3403198    4.3403198    797.21985   -5424.8129    4040.6943    3775.7782   -8214.2455   -961.93881    7702.7736    81.764577 
   85300    555.67154   -117.94087   0.50278328   -117.43809    -4700.954    4.3456879    4.3456879    4.3456879    -4700.954    490.68512   -1489.7002   -13103.847    1555.5327    -4469.953    6851.4887    82.068331 
   85400    527.06561   -117.91449   0.47690004   -117.43759   -430.02423    4.3417746    4.3417746    4.3417746   -430.02423    6957.8419   -1167.2832   -7080.6314   -603.47175    -7226.045    -9974.105    81.846823 
   85500    494.27912   -117.88555   0.44723413   -117.43832    4687.0432    4.3413638    4.3413638    4.3413638    4687.0432    4113.8045    2651.6199    7295.7053   -6971.9848    6195.9895   -1313.1815    81.823593 
   85600    550.74523   -117.93645   0.49832586   -117.43812    3507.6743    4.3424968    4.3424968    4.3424968    3507.6743    16123.957    1162.4623   -6763.3965    1665.1826   -3796.6617    4221.8168    81.887672 
   85700    518.38501   -117.90819   0.46904565   -117.43915    816.25421    4.3436651    4.3436651    4.3436651    816.25421    5138.4718    3790.7027   -6480.4118    781.51476   -10492.872    -2379.677    81.953781 
   85800    562.22573    -117.9472   0.50871365   -117.43848   -2441.4156    4.3426459    4.3426459    4.3426459   -2441.4156    1030.3802   -9820.0024    1465.3755   -10359.911    3897.6708    -5012.353    81.896107 
   85900    578.80013   -117.96114   0.52371052   -117.43743    1405.1792     4.342231     4.342231     4.342231    1405.1792      2979.61   -4723.3481    5959.2759   -6924.2787   -1996.7899    3816.7151    81.872634 
   86000    677.67051   -118.05022   0.61317052   -117.43705   -5066.0261    4.3435392    4.3435392    4.3435392   -5066.0261   -6072.4809   -28.963857   -9096.6336    1848.7776   -2983.5512    5637.3092    81.946654 
   86100    538.19921   -117.92577   0.48697396   -117.43879    371.33392    4.3419118    4.3419118    4.3419118    371.33392   -963.07231   -6277.6846    8354.7587   -2518.2731    -6704.354   -7336.3208    81.854579 
   86200    584.00247   -117.96769    0.5284177   -117.43927   -3177.4769    4.3445644    4.3445644    4.3445644   -3177.4769    5668.4522   -8079.9712   -7120.9115   -10530.091      1933.21    -810.7401    82.004693 
   86300    506.09675   -117.89666   0.45792697   -117.43873    10418.518    4.3412662    4.3412662    4.3412662    10418.518    9023.2622    9057.2662    13175.025   -996.17097    2618.0268    6845.0991    81.818073 
   86400    603.41612   -117.98397   0.54598359   -117.43798    96.883499    4.3434251    4.3434251    4.3434251    96.883499    12288.084    2984.9906   -14982.424    6805.7119   -12040.738   -7402.3698      81.9402 
   86500    394.52954   -117.79729   0.35697862   -117.44031    4615.2855    4.3437185    4.3437185    4.3437185    4615.2855    8872.2513    2788.8785    2184.7268   -2595.0837    2901.2728   -9591.1999    81.956804 
   86600    613.62996   -117.99421   0.55522528   -117.43898    -3915.262    4.3424511    4.3424511    4.3424511    -3915.262   -6725.3273   -4382.7586   -637.70009   -9011.5177    1802.8832    614.89482    81.885083 
   86700    592.31039   -117.97394   0.53593489     -117.438    1928.1651    4.3428357    4.3428357    4.3428357    1928.1651    607.28517    5831.1023   -653.89208   -474.46893   -3972.8223    3260.7301    81.906848 
   86800    637.63348   -118.01498   0.57694417   -117.43803   -9719.7536    4.3445051    4.3445051    4.3445051   -9719.7536   -8441.7872   -4738.3036    -15979.17   -1299.0282   -5423.3847   -4209.5914    82.001337 
   86900    542.94858   -117.93024   0.49127128   -117.43897   -6204.1263    4.3426113    4.3426113    4.3426113   -6204.1263   -11589.429   -15460.056    8437.1063   -15880.749   -2200.5712   -3971.2421    81.894149 
   87000    638.73223   -118.01605   0.57793834   -117.43811   -621.40146    4.3423997    4.3423997    4.3423997   -621.40146    2693.6895   -5830.6916    1272.7977   -7054.3843    3629.3819    4914.6053    81.882176 
   87100    616.22049     -117.996   0.55756925   -117.43843   -687.49299    4.3449917    4.3449917    4.3449917   -687.49299    6125.3203   -321.43215   -7866.3671     3034.777   -11788.521   -2730.9283    82.028895 
   87200    466.19807   -117.86162   0.42182581   -117.43979    6734.4235    4.3408428    4.3408428    4.3408428    6734.4235    7609.8538    4771.8234    7821.5934   -3811.6426   -3587.7996   -4945.9924    81.794139 
   87300    525.13385   -117.91387   0.47515215   -117.43872    500.48579    4.3466837    4.3466837    4.3466837    500.48579    5554.6748   -3226.1514   -827.06599   -7785.7926    3851.4069     1141.429    82.124758 
   87400    590.60701   -117.97196   0.53439364   -117.43757    9512.4454    4.3396782    4.3396782    4.3396782    9512.4454   -465.66486    20270.454    8732.5471    4301.8972   -7647.9167   -943.62786     81.72832 
   87500    560.39798   -117.94699   0.50705987   -117.43993    933.71138    4.3434635    4.3434635    4.3434635    933.71138   -7807.5477    17485.327   -6876.6452    1817.8306    -5303.924   -4271.0781    81.942369 
   87600    518.36909   -117.90839   0.46903124   -117.43936   -3840.9401      4.34615      4.34615      4.34615   -3840.9401   -5207.1514   -4332.4023   -1983.2666   -11811.956   -564.15283   -5641.7049    82.094514 
   87700    643.31334   -118.01931   0.58208342   -117.43722   -266.88938    4.3406859    4.3406859    4.3406859   -266.88938   -4972.6887    3852.8697    319.15079   -9125.8441    2878.5868     2414.328     81.78527 
   87800    641.57141   -118.01709    0.5805073   -117.43659   -3048.8167    4.3444946    4.3444946    4.3444946   -3048.8167    -6163.665    2079.6796   -5062.4646    2312.1577   -10471.945     928.8971    82.000744 
   87900    580.43798   -117.96309   0.52519248   -117.43789   -4479.6544    4.3427676    4.3427676    4.3427676   -4479.6544    7964.3001   -7570.9353   -13832.328   -3008.8015   -7762.0092   -8556.5702    81.902993 
   88000    507.21715   -117.89763   0.45894074   -117.43869   -317.06796    4.3441065    4.3441065    4.3441065   -317.06796    1424.2114   -6911.6067    4536.1914   -10292.417    6354.1705   -919.62541    81.978768 
   88100    689.06554   -118.06014   0.62348098   -117.43666   -2455.6352    4.3427785    4.3427785    4.3427785   -2455.6352   -1074.6215    5854.5158     -12146.8     1426.396   -6683.6566    2264.9834    81.903609 
   88200    471.78044   -117.86565   0.42687686   -117.43877    5233.8211    4.3428211    4.3428211    4.3428211    5233.8211    7296.8303    13957.303   -5552.6697    3792.1408   -6855.9229   -8522.5328    81.906019 
   88300    548.60205   -117.93508   0.49638666   -117.43869   -4521.8096    4.3429797    4.3429797    4.3429797   -4521.8096   -7642.0615    43.064712    -5966.432   -7478.8339     466.3328   -5292.6623    81.914996 
   88400    546.02672   -117.93287   0.49405645   -117.43881    2841.4527    4.3415994    4.3415994    4.3415994    2841.4527   -5933.9399    5968.4431    8489.8548   -8106.9242    1059.5794    1422.5434    81.836913 
   88500    662.23546   -118.03699   0.59920456   -117.43778   -775.08912     4.344026     4.344026     4.344026   -775.08912    1572.6072    8796.2124   -12694.087    924.23126   -6564.3257    1434.3838    81.974213 
   88600    535.09036   -117.92323     0.484161   -117.43907   -206.63558    4.3431541    4.3431541    4.3431541   -206.63558   -7378.9115    1058.9396    5700.0652   -6267.2069    -7510.681   -6984.2708    81.924864 
   88700    571.79193   -117.95619   0.51736935   -117.43882     210.6064    4.3400517    4.3400517    4.3400517     210.6064    3415.2115   -9972.0345    7188.6422   -15722.077    3865.8848   -2537.7415    81.749428 
   88800    631.14532   -118.00849   0.57107355   -117.43741   -1556.0718    4.3451593    4.3451593    4.3451593   -1556.0718   -2324.4691     2860.904   -5204.6502   -247.04982   -7106.3694    4260.5376    82.038388 
   88900    585.81199   -117.96803     0.530055   -117.43798    4708.6452    4.3403433    4.3403433    4.3403433    4708.6452   -1552.2814    15377.611     300.6065    3904.5654   -12208.441   -3926.9398    81.765906 
   89000     518.9502   -117.90947   0.46955705   -117.43991    1703.0944    4.3419783    4.3419783    4.3419783    1703.0944    -1266.837     5540.436    835.68408   -8038.3901     1557.173   -3698.1411    81.858343 
   89100    543.05401   -117.92999   0.49136668   -117.43862   -283.13892    4.3444585    4.3444585    4.3444585   -283.13892   -4915.5212    4027.3942    38.710214   -6122.9397    602.38648   -1639.3634      81.9987 
   89200    612.36698   -117.99108   0.55408251     -117.437    2974.4125    4.3391355    4.3391355    4.3391355    2974.4125   -5596.4697    21295.676   -6775.9691    3604.1886    -7555.728   -573.04251    81.697662 
   89300    546.96095   -117.93297   0.49490177   -117.43807   -1866.3766      4.34373      4.34373      4.34373   -1866.3766   -6256.5071    6145.0199   -5487.6425   -1339.6273   -7839.5103    -3520.151    81.957458 
   89400    578.42058   -117.96143   0.52336709   -117.43807   -3924.5583    4.3424754    4.3424754    4.3424754   -3924.5583   -1179.4359   -8042.5233   -2551.7157   -11244.001     4278.915   -5058.8019    81.886461 
   89500     586.2649   -117.96775    0.5304648   -117.43729   -2376.0656     4.341989     4.341989     4.341989   -2376.0656   -8280.2082    6211.0321   -5059.0209   -2456.0076   -7284.0206    5313.4284    81.858946 
   89600    654.46916   -118.02949   0.59217745   -117.43731   -5148.8564    4.3415907    4.3415907    4.3415907   -5148.8564   -1356.1044    5940.2055    -20030.67    457.66354   -14441.379   -4942.3339    81.836424 
   89700    501.38906   -117.89294   0.45366736   -117.43927     1932.257    4.3429073    4.3429073    4.3429073     1932.257    3688.3733    1883.1486    225.24909   -7169.4345     2164.418   -9212.0179    81.910894 
   89800    595.52631   -117.97735   0.53884472    -117.4385   -1966.0059    4.3412898    4.3412898    4.3412898   -1966.0059   -1641.7099   -139.68938   -4116.6184   -5562.9058   -3454.2133   -3.2324074    81.819409 
   89900    531.07115   -117.91929   0.48052434   -117.43876    4825.5808    4.3409679    4.3409679    4.3409679    4825.5808   -122.75712    24957.799   -10358.299    4017.1299   -10753.696     1368.703    81.801207 
   90000    587.64474    -117.9699   0.53171331   -117.43819   -1290.9686    4.3447857    4.3447857    4.3447857   -1290.9686    880.10808    4022.5193   -8775.5331    1276.4098   -1860.7845   -444.09751    82.017227 
   90100    522.33185   -117.91119   0.47261683   -117.43857    4249.8205     4.340151     4.340151     4.340151    4249.8205    -1988.205    4168.0572    10569.609   -13284.789    4459.3712   -8711.4639    81.755034 
   90200    593.26686   -117.97526   0.53680033   -117.43846    357.84757    4.3406295    4.3406295    4.3406295    357.84757    1008.8145    4544.4451   -4479.7169   -3712.1093   -5526.2666    353.76999    81.782079 
   90300    632.38216   -118.00992   0.57219267   -117.43773   -3188.3731    4.3455532    4.3455532    4.3455532   -3188.3731   -10724.025    4321.3153   -3162.4097    1289.3493   -11170.611   -721.69734    82.060702 
   90400    576.27079   -117.95932   0.52142192   -117.43789    4059.3571    4.3400909    4.3400909    4.3400909    4059.3571    4009.0934    6927.3261    1241.6519   -9198.8762    3378.5579   -3718.4142    81.751641 
   90500    608.30224    -117.9883   0.55040465   -117.43789   -3449.3129    4.3425257    4.3425257    4.3425257   -3449.3129   -8800.9957   -6297.4747    4750.5317   -7150.6631   -1471.0161    1492.1414    81.889305 
   90600    511.81288   -117.90113   0.46309905   -117.43803    5538.4083    4.3431771    4.3431771    4.3431771    5538.4083   -1852.7012    18354.683    113.24287    1155.0675   -12996.828   -418.87159    81.926161 
   90700    680.09765   -118.05196   0.61536665    -117.4366   -1242.5093    4.3420832    4.3420832    4.3420832   -1242.5093   -641.65827    9408.7592   -12494.629    3295.9971   -1249.7433   -538.40661    81.864274 
   90800    454.96325   -117.85085   0.41166031   -117.43918    8722.2139    4.3412271    4.3412271    4.3412271    8722.2139    7286.8953    9870.8592     9008.887   -7849.0537    3852.1546   -6000.0349    81.815861 
   90900    562.97284   -117.94865   0.50938965   -117.43926   -1140.6729    4.3441286    4.3441286    4.3441286   -1140.6729     1276.001    235.57839    -4933.598   -1893.3417   -5114.6115    1844.4376    81.980023 
   91000    610.99422   -117.99038   0.55284041   -117.43754   -34.749725    4.3431911    4.3431911    4.3431911   -34.749725    3067.5863    11167.612   -14339.447    4015.2838   -8583.7112    1647.8344    81.926953 
   91100     591.4415   -117.97358    0.5351487   -117.43843    1754.5757    4.3392943    4.3392943    4.3392943    1754.5757    5297.4188     -410.433    376.74131   -8026.7809     3203.246   -8630.3144    81.706636 
   91200    589.14962   -117.97213   0.53307496   -117.43906    -9767.075    4.3465019    4.3465019    4.3465019    -9767.075   -10518.512   -13601.039   -5181.6744   -10308.988    304.41692   -2919.1058    82.114455 
   91300    598.54335   -117.97976    0.5415746   -117.43819   -1527.7236    4.3424269    4.3424269    4.3424269   -1527.7236   -1101.4125    11784.325   -15266.083   -2636.4763   -15897.893   -2214.8379    81.883719 
   91400     652.8802   -118.02774   0.59073973     -117.437   -146.49492    4.3404122    4.3404122    4.3404122   -146.49492   -1051.6689    8207.7214   -7595.5373    3337.3377   -2316.9002    1094.2121    81.769797 
   91500    448.36424    -117.8451   0.40568938   -117.43941    1439.4937    4.3453956    4.3453956    4.3453956    1439.4937    8740.2255    8511.4833   -12933.228   -3842.5995     7110.264    524.52217    82.051772 
   91600     484.4054   -117.87781   0.43830018   -117.43951    1398.3599    4.3430681    4.3430681    4.3430681    1398.3599    5307.1483    11138.384   -12250.452   -3939.1343   -7877.4903    953.57507    81.919993 
   91700    610.36057   -117.98983   0.55226707   -117.43756    6829.5701    4.3388956    4.3388956    4.3388956    6829.5701    11825.742    21141.237   -12478.268     5527.007   -7517.1601    314.44837    81.684113 
   91800    577.80629   -117.96244   0.52281128   -117.43963    -7402.822    4.3490321    4.3490321    4.3490321    -7402.822   -4949.1934    4804.7573    -22064.03   -4056.2088    9747.8302   -6608.3599    82.257944 
   91900    525.05111   -117.91453   0.47507728   -117.43945   -5848.7132    4.3412557    4.3412557    4.3412557   -5848.7132   -5851.0722    109.56614   -11804.634   -9997.0902    2800.9491   -1221.4035    81.817482 
   92000    691.57604   -118.06403   0.62575254   -117.43828   -2114.4519    4.3398261    4.3398261    4.3398261   -2114.4519   -853.39219    3086.8343   -8576.7977    -6391.861   -7888.3334    1206.8409    81.736677 
   92100    718.06561    -118.0867   0.64972085   -117.43698   -12645.795    4.3519166    4.3519166    4.3519166   -12645.795   -4767.4457   -5881.6659   -27288.275    2110.5781    4464.8737    774.53079    82.421726 
   92200    393.90562   -117.79609   0.35641408   -117.43968    6709.2774    4.3388263    4.3388263    4.3388263    6709.2774     16742.97    14500.756   -11115.894   -3185.5915    9853.4575   -4337.8098    81.680201 
   92300    572.28602   -117.95724   0.51781642   -117.43942   -1158.7257    4.3435376    4.3435376    4.3435376   -1158.7257     2734.617    5839.9339   -12050.728   -5259.6802   -3566.2858   -882.94809    81.946566 
   92400    566.80335   -117.95065   0.51285558    -117.4378    5811.5843    4.3476371    4.3476371    4.3476371    5811.5843     13725.17    20022.461   -16312.878    7141.9025   -3613.5659   -609.23709    82.178813 
   92500    500.26236   -117.89212    0.4526479   -117.43947    3.2728091    4.3415335    4.3415335    4.3415335    3.2728091   -6114.3132    24513.009   -18388.877     2960.712     12066.27    924.89429    81.833189 
   92600    450.48529   -117.84896   0.40760856   -117.44135   -1455.8357    4.3407231    4.3407231    4.3407231   -1455.8357   -9263.1207    6821.7085   -1926.0949   -11602.087    2402.6003    1920.8862    81.787372 
   92700    698.37155   -118.06991   0.63190125   -117.43801   -6917.4909     4.349236     4.349236     4.349236   -6917.4909   -8736.9747   -4186.3956   -7829.1024   -10295.519   -4819.1665    2267.7063     82.26951 
   92800    646.95078   -118.02326   0.58537466   -117.43788   -5201.4611    4.3436915    4.3436915    4.3436915   -5201.4611    724.27442    156.09191    -16484.75   -249.13641    11422.206    730.48515    81.955279 
   92900    465.34352   -117.86084    0.4210526   -117.43979    5857.7825    4.3344756    4.3344756    4.3344756    5857.7825     1265.729    19729.528   -3421.9091   -2847.9118    11211.339     -6610.19    81.434738 
   93000    505.61561   -117.89659   0.45749163    -117.4391   -4551.3107    4.3546461    4.3546461    4.3546461   -4551.3107    5847.7694   -7336.3504   -12165.351   -7850.1874   -1080.8323    478.77004    82.576906 
   93100    616.99411   -117.99488   0.55826924   -117.43662    12956.115    4.3363387    4.3363387    4.3363387    12956.115    14697.785    28538.301   -4367.7424     4877.619    3195.0784   -2420.8732    81.539789 
   93200    470.82548   -117.86732   0.42601279   -117.44131    4093.7312    4.3411584    4.3411584    4.3411584    4093.7312    4455.0238    26043.129   -18216.959    2547.7905    14386.361   -2974.9685    81.811977 
   93300    478.11955    -117.8719   0.43261261   -117.43928   -5195.5354    4.3493632    4.3493632    4.3493632   -5195.5354    1780.1184   -1669.1354   -15697.589   -4957.8265    3528.0524   -4013.4347    82.276729 
   93400    671.15198   -118.04356   0.60727241   -117.43629    5560.0365     4.335993     4.335993     4.335993    5560.0365    3293.2382    8918.8997    4467.9715    -11439.31   -4102.6471   -1155.4794    81.520289 
   93500    640.03134   -118.01709   0.57911381   -117.43797   -9777.5918    4.3480312    4.3480312    4.3480312   -9777.5918   -4172.5002   -4898.8606   -20261.414   -3362.9304    10041.418    230.76393    82.201163 
   93600    477.81052    -117.8715     0.432333   -117.43917   -2296.6305    4.3429307    4.3429307    4.3429307   -2296.6305    6740.2715     1413.709   -15043.872    970.18329    5139.2811   -5615.2832    81.912222 
   93700    541.05256    -117.9279   0.48955572   -117.43835   -1844.3507    4.3426156    4.3426156    4.3426156   -1844.3507    8476.0934   -10199.151    -3809.994   -11219.631   -4525.9874    3687.0318    81.894391 
   93800    619.10316   -117.99739   0.56017755   -117.43721    4111.4014    4.3406333    4.3406333    4.3406333    4111.4014    4975.5882    12274.353   -4915.7375    2587.6221    3745.2316    2532.3938    81.782297 
   93900    525.89195   -117.91516   0.47583809   -117.43932   -4879.0054    4.3483491    4.3483491    4.3483491   -4879.0054    -765.3117     8302.245   -22173.949    5242.1509    9282.3696   -1731.3944    82.219193 
   94000    426.63801   -117.82613   0.38603104    -117.4401    845.39813    4.3395181    4.3395181    4.3395181    845.39813   -6735.3497     15402.93   -6131.3861   -5833.2028    1951.9438   -2499.3101    81.719276 
   94100    606.40063   -117.98757   0.54868403   -117.43888    2949.6163    4.3386512    4.3386512    4.3386512    2949.6163    2822.4007     7567.978   -1541.5297   -8655.4719   -5353.4711   -2435.0162     81.67031 
   94200    641.30911   -118.01697   0.58026996    -117.4367   -9241.6609    4.3540893    4.3540893    4.3540893   -9241.6609   -4439.9439    -4351.537   -18933.502   -3483.2885    8034.2136   -1717.1654    82.545231 
   94300    584.14642   -117.96468   0.52854796   -117.43613    6473.5168    4.3318895    4.3318895    4.3318895    6473.5168    7774.2978    11733.205   -86.952694   -2770.5533      8645.91   -5150.9415     81.28906 
   94400    484.92129   -117.87839   0.43876698   -117.43963   -3390.5589    4.3452183    4.3452183    4.3452183   -3390.5589    12812.832   -16342.844   -6641.6647    -11207.65   -5556.0071    451.42997     82.04173 
   94500    622.81436   -118.00185   0.56353553   -117.43832   -1744.8621    4.3483012    4.3483012    4.3483012   -1744.8621    3919.9172   -3831.4167   -5323.0867    108.65973   -490.92071    741.81547    82.216478 
   94600    649.93711   -118.02345   0.58807675   -117.43538    10677.176    4.3359934    4.3359934    4.3359934    10677.176    15136.196    14698.229    2197.1041    8219.5913    2472.5453   -1170.7781    81.520313 
   94700    464.04591     -117.859   0.41987849   -117.43912   -441.97115     4.345584     4.345584     4.345584   -441.97115    6528.7097    3057.8241   -10912.447   -4290.9051    13.696427   -2401.6613    82.062443 
   94800    414.08033   -117.81512   0.37466858   -117.44045    4875.6156    4.3432921    4.3432921    4.3432921    4875.6156    1170.8563    9080.0959    4375.8945   -7812.3944     -5172.34    1347.0401    81.932674 
   94900    693.04857   -118.06419   0.62708491    -117.4371    1038.1985     4.341774     4.341774     4.341774    1038.1985    -4067.674    11916.038   -4733.7681   -5715.1037   -2942.6445    2644.6822    81.846787 
   95000    573.35864   -117.95783   0.51878695   -117.43904    5373.5135    4.3419601    4.3419601    4.3419601    5373.5135    16517.039    7095.3576    -7491.856   -1455.2712     7543.781    125.75912    81.857311 
   95100    441.54201   -117.83982   0.39951649    -117.4403   -6613.7236     4.346724     4.346724     4.346724   -6613.7236   -318.00534   -14097.051    -5426.114   -13140.488   -4609.6993   -2688.7327    82.127043 
   95200    529.80949   -117.91791   0.47938277   -117.43853    732.20065    4.3402814    4.3402814    4.3402814    732.20065    11212.839   -4438.3814   -4577.8556     -7236.85   -6057.3906   -1244.7475    81.762407 
   95300      711.241    -118.0803    0.6435458   -117.43675   -2216.9111    4.3441538    4.3441538    4.3441538   -2216.9111    15607.146   -7398.9691    -14858.91    5619.2528    3746.4704    1447.4206    81.981445 
   95400    618.40552   -117.99856   0.55954631   -117.43902   -8323.3825    4.3445338    4.3445338    4.3445338   -8323.3825   -4236.9019   -15027.966   -5705.2792   -2118.2509   -396.30063   -1256.8836    82.002964 
   95500     426.4078   -117.82757   0.38582274   -117.44175   -3435.9718    4.3396974    4.3396974    4.3396974   -3435.9718   -5470.3231   -1500.9685   -3336.6237   -7812.3095   -8261.1634    -41.37125    81.729404 
   95600    672.38299   -118.04762   0.60838626   -117.43924   -7803.3398     4.347048     4.347048     4.347048   -7803.3398   -1787.3242   -1682.6381   -19940.057   -501.40817   -9930.0051    476.72683    82.145414 
   95700    647.34444   -118.02271   0.58573085   -117.43698    4939.7148    4.3430652    4.3430652    4.3430652    4939.7148    14196.146     8353.624   -7730.6259   -3292.0269    1568.9124   -1355.3537    81.919832 
   95800    436.09433   -117.83455   0.39458732   -117.43996     2247.111      4.34059      4.34059      4.34059     2247.111    14188.826   -277.87122   -7169.6219   -13345.967   -1434.6956   -1925.1784     81.77985 
   95900    386.71147   -117.79283   0.34990467   -117.44293    1018.9795    4.3434642    4.3434642    4.3434642    1018.9795    6815.7509    9557.1818   -13315.994   -6994.7018   -13439.691    213.01748     81.94241 
   96000    630.91092   -118.01018   0.57086146   -117.43932    4788.8711    4.3423178    4.3423178    4.3423178    4788.8711      13113.3    12569.036   -11315.722    3750.7158    974.87413    4788.0622    81.877547 
   96100    677.62287   -118.05195   0.61312741   -117.43882   -7449.5928    4.3452979    4.3452979    4.3452979   -7449.5928     3420.037   -10415.647   -15353.168   -1459.1205    2384.6591    226.97654    82.046237 
   96200    432.84221   -117.83183   0.39164473   -117.44019   -5056.1662    4.3421728    4.3421728    4.3421728   -5056.1662   -11563.882    5242.4075   -8847.0245   -1772.2493    -12111.22    -806.3634    81.869345 
   96300    671.06238   -118.04546   0.60719134   -117.43827   -8601.5802    4.3424795    4.3424795    4.3424795   -8601.5802   -9127.4474    -5599.886   -11077.407     372.9816   -3907.9004    1025.3941    81.886691 
   96400    646.95156    -118.0243   0.58537536   -117.43892    -333.6631    4.3447353    4.3447353    4.3447353    -333.6631    16438.838   -1298.6357   -16141.192    3286.2962    4781.6097    1018.8364    82.014372 
   96500     499.2647   -117.89254   0.45174519   -117.44079    6792.9143    4.3390643    4.3390643    4.3390643    6792.9143    16860.161    11953.376   -8434.7943   -8935.2638   -1500.4218    362.40681    81.693639 
   96600     434.2266   -117.83441   0.39289735   -117.44151    1162.3782    4.3477344    4.3477344    4.3477344    1162.3782    11359.973    5829.8088   -13702.647   -6928.5514   -8980.1275    139.66062    82.184329 
   96700    566.17815   -117.94993   0.51228989   -117.43764    7774.7973    4.3421799    4.3421799    4.3421799    7774.7973    13578.533    21437.302   -11691.444   -2611.0567   -390.51328    2119.2722    81.869742 
   96800    584.10707   -117.96693   0.52851235   -117.43841     1865.112    4.3408918    4.3408918    4.3408918     1865.112    9141.1428    10726.719   -14272.526   -3418.5002    7466.5309   -2038.3355    81.796907 
   96900    509.24847   -117.90054   0.46077872   -117.43976   -6358.6485     4.345851     4.345851     4.345851   -6358.6485   -7765.5344    -1405.732   -9904.6791   -6015.0315   -8277.5129   -5474.1942    82.077571 
   97000    635.12824   -118.01267   0.57467738   -117.43799   -7209.6082    4.3433436    4.3433436    4.3433436   -7209.6082   -11950.778   -2068.3736   -7609.6729   -591.65523   -3713.9025   -1291.6822    81.935586 
   97100    607.63255   -117.98777    0.5497987   -117.43797   -4697.3558    4.3452177    4.3452177    4.3452177   -4697.3558    2761.2035   -2082.9602   -14770.311    6458.2045    12010.649    2146.0935    82.041696 
   97200    534.44862    -117.9226   0.48358034   -117.43902   -1042.0744    4.3410958    4.3410958    4.3410958   -1042.0744    10549.701   -11533.563   -2142.3613   -6884.0795    489.28177   -1423.2989    81.808438 
   97300    497.90362   -117.89004   0.45051366   -117.43953    728.73209    4.3452054    4.3452054    4.3452054    728.73209    5340.1481   -369.91111   -2784.0407    -7092.851   -5807.6189    560.08135       82.041 
   97400     526.1399   -117.91458   0.47606244   -117.43852    3563.9025    4.3449633    4.3449633    4.3449633    3563.9025     15302.62    11433.605   -16044.518   -2401.0973    8083.1165    2659.3421    82.027283 
   97500    491.28038   -117.88214   0.44452081   -117.43762    11128.015    4.3402427    4.3402427    4.3402427    11128.015    13936.939    18876.164    570.94132   -3211.9292    9156.8062     19.40126    81.760217 
   97600    475.08522   -117.86796   0.42986709    -117.4381    1672.1134    4.3457637    4.3457637    4.3457637    1672.1134   -4199.7228    11700.825    -2484.762   -10076.171   -5659.9072    1302.4092    82.072626 
   97700    550.02756   -117.93574   0.49767649   -117.43806    1696.4138    4.3413051    4.3413051    4.3413051    1696.4138    698.34958     14365.35    -9974.458   -5161.3421   -5723.3309    234.42128    81.820274 
   97800    562.22791   -117.94798   0.50871563   -117.43926    2753.7295    4.3423688    4.3423688    4.3423688    2753.7295     2966.819    13930.959   -8636.5899    3958.5127    9596.3073    1038.8718     81.88043 
   97900    570.06331   -117.95517   0.51580526   -117.43936   -1233.7262    4.3430103    4.3430103    4.3430103   -1233.7262    4875.4743   -2809.9794   -5766.6736    1984.0857    3218.2155    -5458.098    81.916727 
   98000    512.38436   -117.90348   0.46361614   -117.43986   -4631.5562    4.3419883    4.3419883    4.3419883   -4631.5562    4621.1776   -11443.713   -7072.1333   -4594.0294   -8601.4682   -4698.1948    81.858905 
   98100      527.138   -117.91599   0.47696554   -117.43902   -4712.5748    4.3440817    4.3440817    4.3440817   -4712.5748   -1068.3449   -4072.7394   -8996.6401   -3948.9618    5422.5805    3112.4853    81.977367 
   98200    598.55945   -117.97931   0.54158917   -117.43772    577.85384    4.3420659    4.3420659    4.3420659    577.85384    11561.574    2886.0403   -12714.053    3393.9508    8216.2124   -1854.1068    81.863298 
   98300    483.21336   -117.87694   0.43722161   -117.43972    115.26268    4.3409372    4.3409372    4.3409372    115.26268   -5500.1806    2934.0411    2911.9275   -7600.7239   -3832.7109    -262.0406    81.799476 
   98400    441.01355   -117.84002   0.39903833   -117.44098    -2266.785    4.3415074    4.3415074    4.3415074    -2266.785   -9687.4708    7735.8927   -4848.7769   -10270.543   -1602.2647   -1459.4686     81.83171 
   98500    499.87321   -117.89136   0.45229579   -117.43906    1138.8748    4.3463215    4.3463215    4.3463215    1138.8748    3882.2734    12335.988   -12801.637    308.90657    6973.6398    1628.5317     82.10423 
   98600    591.86774   -117.97243   0.53553437    -117.4369    5905.0527    4.3385091    4.3385091    4.3385091    5905.0527    7263.1207    14631.627   -4179.5892    3232.7256    2228.3287    3937.4831    81.662288 
   98700    379.58566   -117.78388   0.34345708   -117.44043    3995.6312    4.3394649    4.3394649    4.3394649    3995.6312    4638.4834   -1154.3923    8502.8025   -5726.8392   -6794.7709   -2860.4869    81.716273 
   98800    461.63687    -117.8583   0.41769874    -117.4406   -7151.7911    4.3471039    4.3471039    4.3471039   -7151.7911    587.18935   -4320.3238   -17722.239   -4168.8481    4303.0145      3678.96     82.14858 
   98900    588.22842   -117.96935   0.53224144    -117.4371    5535.4083    4.3403106    4.3403106    4.3403106    5535.4083    16754.428     6013.233   -6161.4365    4056.7998    8682.7195   -1083.1629    81.764058 
   99000    605.21834   -117.98534   0.54761427   -117.43772   -1387.6103    4.3394718    4.3394718    4.3394718   -1387.6103    368.64981   -4266.8527   -264.62807   -466.63177   -5147.2602   -4524.5286    81.716659 
   99100    381.75018   -117.78638   0.34541559   -117.44096   -6964.2754    4.3452884    4.3452884    4.3452884   -6964.2754   -7036.8971    -11757.54   -2098.3888   -6724.3646   -1273.3354   -438.43486    82.045696 
   99200    546.18879   -117.93459   0.49420309   -117.44039   -2813.6757    4.3399759    4.3399759    4.3399759   -2813.6757   -3229.5311    11141.124    -16352.62   -4513.7942    9182.0018    -3980.999    81.745145 
   99300    646.17008   -118.02368   0.58466827   -117.43901    4798.6493    4.3394608    4.3394608    4.3394608    4798.6493      3471.03    11746.486    -821.5686    5543.5295    4134.8312    1629.8613     81.71604 
   99400    422.67583   -117.82367   0.38244598   -117.44122   -4347.8436    4.3474006    4.3474006    4.3474006   -4347.8436   -8356.3812    1345.0544   -6032.2041    1523.4615   -2953.3591   -3131.8808    82.165399 
   99500    389.03813   -117.79293   0.35200987   -117.44092    1369.8815    4.3372712    4.3372712    4.3372712    1369.8815   -8671.0647    13894.906   -1114.1973   -6860.2668    68.953927   -2095.7818    81.592402 
   99600    579.51635   -117.96337   0.52435857   -117.43901     3696.576    4.3418514    4.3418514    4.3418514     3696.576    13150.615     7194.058   -9254.9448    1438.9775    5868.0678     6254.894    81.851167 
   99700    618.92962    -117.9981   0.56002053   -117.43808   -4680.4625    4.3457024    4.3457024    4.3457024   -4680.4625   -8610.7259    701.88333   -6132.5448     3879.151   -530.33366   -61.142171    82.069153 
   99800    415.82832    -117.8177    0.3762502   -117.44145    130.69733    4.3351546    4.3351546    4.3351546    130.69733   -6096.5762   -880.60975     7369.278   -8953.8333   -4208.9862    2194.0457    81.473014 
   99900    474.07753   -117.87082   0.42895531   -117.44187   -1612.8883    4.3440364    4.3440364    4.3440364   -1612.8883    9478.4219    -6348.975   -7968.1118     -6085.71    4483.7863   -973.62156      81.9748 
  100000    649.34384   -118.02573   0.58753995   -117.43819   -2975.1796    4.3463265    4.3463265    4.3463265   -2975.1796    10310.774   -6056.0071   -13180.305     3195.268    1528.8659    -2439.306    82.104516 
Loop time of 22.6146 on 1 procs for 100000 steps with 8 atoms

Pair  time (%) = 7.05061 (31.1772)
Kspce time (%) = 5.5493 (24.5386)
Neigh time (%) = 0 (0)
Comm  time (%) = 1.14458 (5.06123)
Outpt time (%) = 0.0274622 (0.121436)
Other time (%) = 8.84266 (39.1015)

Nlocal:    8 ave 8 max 8 min
Histogram: 1 0 0 0 0 0 0 0 0 0
Nghost:    2189 ave 2189 max 2189 min
Histogram: 1 0 0 0 0 0 0 0 0 0
Neighs:    2056 ave 2056 max 2056 min
Histogram: 1 0 0 0 0 0 0 0 0 0

Total # of neighbors = 2056
Ave neighs/atom = 257
Neighbor list builds = 0
Dangerous builds = 0
unfix 20
unfix 21
print "seeds:1209997"
seeds:1209997
