LAMMPS (10 Feb 2015)
# ---- initialize simulations
clear
units metal
dimension 3
boundary p p p
atom_style charge
atom_modify map array
# ---- create atoms
read_data /Users/eugeneragasa/pyflamestk_git/pypospack/tests/tests_integration/workflow/WorkflowLammpsThermalExpansion/param_2217/MgO_NaCl_unit.npt.T200/lammps.structure
  triclinic box = (0 0 0) to (4.2565 4.2565 4.2565) with tilt (0 0 0)
  1 by 1 by 1 MPI processor grid
  reading atoms ...
  8 atoms
# ---- define interatomic potential
include potential.mod
mass 1 24.305
mass 2 15.999

group Mg type 1
4 atoms in group Mg
group O type 2
4 atoms in group O

set group Mg charge 1.63539617609
  4 settings made for charge
set group O charge -1.63539617609
  4 settings made for charge

variable R_cut equal 10.0

pair_style buck/coul/long ${R_cut}
pair_style buck/coul/long 10
pair_coeff 1 1 0.0 0.5 0.0 ${R_cut}
pair_coeff 1 1 0.0 0.5 0.0 10
pair_coeff 1 2 1445.86118726 0.28350177361 0.0 ${R_cut}
pair_coeff 1 2 1445.86118726 0.28350177361 0.0 10
pair_coeff 2 2 14001.7361193 0.0970682303871 13.3227844282 ${R_cut}
pair_coeff 2 2 14001.7361193 0.0970682303871 13.3227844282 10

kspace_style pppm 1.0e-5

neighbor 1.0 bin
neigh_modify every 1 delay 0 check yes
# ---- define settings
compute eng all pe/atom
compute eatoms all reduce sum c_eng
# ---- run minimization
reset_timestep 0
fix 1 all box/relax iso 0.0 vmax 0.001
thermo 10
thermo_style custom step pe lx ly lz xy xz yz press pxx pyy pzz pxy pxz pyz c_eatoms
min_style cg
minimize 1e-25 1e-25 5000 10000
PPPM initialization ...
  G vector (1/distance) = 0.35265
  grid = 8 8 8
  stencil order = 5
  estimated absolute RMS force accuracy = 3.8734e-05
  estimated relative force accuracy = 2.68993e-06
  using double precision FFTs
  3d grid and FFT values/proc = 3375 512
Neighbor list info ...
  1 neighbor list requests
  update every 1 steps, delay 0 steps, check yes
  master list distance cutoff = 11
Memory usage per processor = 4.06549 Mbytes
Step PotEng Lx Ly Lz Xy Xz Yz Press Pxx Pyy Pzz Pxy Pxz Pyz eatoms 
       0   -107.83625       4.2565       4.2565       4.2565            0            0            0    103722.55    103722.55    103722.55    103722.55 -7.9651797e-11 -6.6040977e-11 3.4954802e-10   -107.83625 
      10   -107.94585     4.299065     4.299065     4.299065            0            0            0    48505.206    48505.206    48505.206    48505.206 -1.814552e-10 -8.0829294e-11 -4.0355362e-11   -107.94585 
      20   -107.98099     4.341612     4.341612     4.341612            0            0            0  -0.16598057  -0.16598057  -0.16598058  -0.16598057 -1.539671e-10 -9.8603927e-12 -7.0562295e-11   -107.98099 
      24     -107.981    4.3416118    4.3416118    4.3416118            0            0            0 -0.022137581 -0.022137581 -0.022137581 -0.022137581 -7.2866315e-11 -1.1353573e-10 -3.1341588e-11     -107.981 
Loop time of 0.01226 on 1 procs for 24 steps with 8 atoms

Minimization stats:
  Stopping criterion = linesearch alpha is zero
  Energy initial, next-to-last, final = 
        -107.836253395     -107.981002151     -107.981002151
  Force two-norm initial, final = 14.9776 3.56003e-06
  Force max component initial, final = 14.9776 3.3258e-06
  Final line search alpha, max atom move = 0.5 1.6629e-06
  Iterations, force evaluations = 24 36

Pair  time (%) = 0.00324559 (26.4731)
Kspce time (%) = 0.002033 (16.5824)
Neigh time (%) = 0 (0)
Comm  time (%) = 0.000374794 (3.05706)
Outpt time (%) = 2.69413e-05 (0.21975)
Other time (%) = 0.00657964 (53.6677)

Nlocal:    8 ave 8 max 8 min
Histogram: 1 0 0 0 0 0 0 0 0 0
Nghost:    2189 ave 2189 max 2189 min
Histogram: 1 0 0 0 0 0 0 0 0 0
Neighs:    2344 ave 2344 max 2344 min
Histogram: 1 0 0 0 0 0 0 0 0 0

Total # of neighbors = 2344
Ave neighs/atom = 293
Neighbor list builds = 0
Dangerous builds = 0
unfix 1
# ---- define output variables ----
variable natoms equal "count(all)"
variable tot_energy equal "c_eatoms"
variable length_x equal "lx"
variable length_y equal "ly"
variable length_z equal "lz"
variable tilt_xy equal "xy"
variable tilt_xz equal "xz"
variable tilt_yz equal "yz"
variable tot_press equal "press"
variable press_xx equal "pxx"
variable press_yy equal "pyy"
variable press_zz equal "pzz"
variable press_xy equal "pxy"
variable press_xz equal "pxz"
variable press_yz equal "pyz"

# ---- output ----
print "pypospack:output_section:begin"
pypospack:output_section:begin
print "tot_energy = ${tot_energy}"
tot_energy = -107.981002151143
print "num_atoms = ${natoms}"
num_atoms = 8
print "xx = ${length_x}"
xx = 4.34161184326772
print "yy = ${length_y}"
yy = 4.34161184326772
print "zz = ${length_z}"
zz = 4.34161184326772
print "xy = ${tilt_xy}"
xy = 0
print "xz = ${tilt_xz}"
xz = 0
print "yz = ${tilt_yz}"
yz = 0
print "tot_press = ${tot_press}"
tot_press = -0.0221375810241508
print "pxx = ${press_xx}"
pxx = -0.0221375810918532
print "pyy = ${press_yy}"
pyy = -0.0221375807194137
print "pzz = ${press_zz}"
pzz = -0.0221375812611855
print "pxy = ${press_xy}"
pxy = -7.28663154154814e-11
print "pxz = ${press_xz}"
pxz = -1.13535727889352e-10
print "pyz = ${press_yz}"
pyz = -3.13415884666446e-11
print "pypospack:output_section:done"
pypospack:output_section:done
print "pypospack:lammps_sim:done"
pypospack:lammps_sim:done
#------------------------------------------------------------------------------
# RUN THERMOSTAT
# running using an NPT Nose-Hoover style thermostat
#------------------------------------------------------------------------------
variable tempdamp equal 0.1
variable pressdamp equal 1.0
# set initial velocities
velocity all create 200 7030652 mom yes dist gaussian loop all
# fix for Nose-Hoover style thermostat
fix 20 all npt temp 200 200 0.1 aniso 0.0 0.0 1.0 drag 1.0 couple xyz
variable boxx equal lx
variable boxy equal ly
variable boxz equal lz
variable boxp equal press
variable boxt equal temp
# calculate averages every 10000 steps
reset_timestep 0
fix 21 all ave/time 10 10 100 v_boxx v_boxy v_boxz v_boxp v_boxt file lattice.out
thermo_style custom step temp pe ke etotal press lx ly lz press pxx pyy pzz pxy pxz pyz vol
thermo_modify flush yes
thermo 100
run 100000
PPPM initialization ...
  G vector (1/distance) = 0.3518
  grid = 8 8 8
  stencil order = 5
  estimated absolute RMS force accuracy = 4.02804e-05
  estimated relative force accuracy = 2.79732e-06
  using double precision FFTs
  3d grid and FFT values/proc = 3375 512
Memory usage per processor = 3.06549 Mbytes
Step Temp PotEng KinEng TotEng Press Lx Ly Lz Press Pxx Pyy Pzz Pxy Pxz Pyz Volume 
       0          200   -107.98101    0.1809642   -107.80005    2359.8472    4.3416118    4.3416118    4.3416118    2359.8472    1285.5193    2831.9243    2962.0979   -1048.1983   -285.70659    1567.2831    81.837618 
     100    40.302815   -107.81025  0.036466834   -107.77378   -777.13655    4.3530839    4.3530839    4.3530839   -777.13655   -6582.4529    2418.3001    1832.7431    295.03033    624.54474   -1579.1027    82.488065 
     200    194.51493   -107.90135    0.1760012   -107.72535   -4412.0698    4.3502809    4.3502809    4.3502809   -4412.0698   -3330.6415   -2999.9771   -6905.5907    224.50186    534.79796    63.468248     82.32882 
     300    72.839299   -107.75046  0.065906528   -107.68456    5968.8888    4.3498019    4.3498019    4.3498019    5968.8888    3224.4374    9766.6444    4915.5847     1538.135    730.11509    -903.4226    82.301631 
     400    225.77982   -107.85375   0.20429032   -107.64945   -9045.5613    4.3579958    4.3579958    4.3579958   -9045.5613   -8380.3059   -7908.4714   -10847.907    302.65822    1123.0857   -2114.0405    82.767612 
     500    190.73654   -107.80057   0.17258243   -107.62799    6546.9428    4.3486232    4.3486232    4.3486232    6546.9428    1316.2603    9433.5668    8891.0014   -209.49148   -445.75911   -364.23229     82.23474 
     600    221.14516   -107.81843   0.20009679   -107.61833   -7779.0604    4.3600304    4.3600304    4.3600304   -7779.0604   -14233.813   -1611.6358    -7491.732    31.217784    201.71054   -2088.9449    82.883591 
     700      195.712   -107.79437   0.17708433   -107.61728    1075.7211    4.3534472    4.3534472    4.3534472    1075.7211   -6161.9403    3941.8113    5447.2923    556.64641    883.13766   -1240.3286    82.508721 
     800    202.84119   -107.80123   0.18353498    -107.6177    6439.3044     4.350189     4.350189     4.350189    6439.3044    795.67125    13497.367    5024.8753    1518.9404    262.18212    -1872.739    82.323604 
     900    226.69431   -107.82223   0.20511777   -107.61711   -11492.644    4.3636998    4.3636998    4.3636998   -11492.644   -10056.126   -13854.307     -10567.5    488.09134    1583.3034    684.61146    83.093033 
    1000    120.21609   -107.72647   0.10877404    -107.6177    11557.966    4.3466364    4.3466364    4.3466364    11557.966    8426.7881    18232.236    8014.8729    777.51964    570.33767   -1402.0275    82.122077 
    1100    265.38815   -107.85865   0.24012877   -107.61852   -7232.0242    4.3571327    4.3571327    4.3571327   -7232.0242   -5539.8956   -8817.9485   -7338.2284   -1656.9145   -430.42263    1500.8804    82.718443 
    1200    109.96994   -107.71951  0.099503117      -107.62   -917.33976    4.3603806    4.3603806    4.3603806   -917.33976   -12256.568    9244.9309    259.61827   -1353.7829    555.88474   -1962.4065    82.903564 
    1300    323.19279   -107.90942   0.29243162   -107.61699    5263.2358    4.3447992    4.3447992    4.3447992    5263.2358    1843.2127    6151.7711    7794.7237   -857.95652   -92.905408   -53.997066    82.017991 
    1400     118.4076   -107.72535   0.10713769   -107.61821   -2424.8096    4.3632393    4.3632393    4.3632393   -2424.8096   -12992.327      5860.15   -142.25161    946.38604    165.52773   -151.41539    83.066726 
    1500    260.36237   -107.85357   0.23558134   -107.61799   -2499.8272     4.353018     4.353018     4.353018   -2499.8272   -2625.6495   -2491.5648   -2382.2672   -170.35668    1362.6086   -1397.5401    82.484316 
    1600    130.52307   -107.73576   0.11810002   -107.61766    9599.3897    4.3501572    4.3501572    4.3501572    9599.3897    6705.4615    12127.324    9965.3832   -97.710947   -1161.7985    611.58837    82.321797 
    1700     239.8951   -107.83353   0.21706213   -107.61647   -11208.264     4.363264     4.363264     4.363264   -11208.264   -12636.304   -6152.3735   -14836.115   -1020.0781    216.85978   -2114.8429    83.068139 
    1800    140.51491   -107.74383   0.12714085   -107.61669    8791.0346    4.3474714    4.3474714    4.3474714    8791.0346     5073.431    7948.4415    13351.231    762.76367    243.08346    268.51283    82.169418 
    1900    260.54886   -107.85256   0.23575009   -107.61681   -6532.9011     4.358537     4.358537     4.358537   -6532.9011   -12259.804    3613.9183   -10952.818     480.2046    -371.3276   -1074.2868    82.798449 
    2000    186.87519   -107.78709    0.1690886   -107.61801   -1340.6678    4.3569635    4.3569635    4.3569635   -1340.6678   -9072.1941    -3708.098    8758.2887    1056.2066    1588.4186    308.55376    82.708806 
    2100     236.9359   -107.83199   0.21438458    -107.6176    4546.1537    4.3493982    4.3493982    4.3493982    4546.1537     1044.963    14123.118   -1529.6198    598.59098    460.74241    12.275089    82.278714 
    2200    186.25397   -107.78629   0.16852651   -107.61776   -4164.6776    4.3612166    4.3612166    4.3612166   -4164.6776   -7956.2609   -7653.9717    3116.1999    -2332.258   -248.53158   -543.40778    82.951259 
    2300    129.79271   -107.73608   0.11743917   -107.61864    5714.1689    4.3498795    4.3498795    4.3498795    5714.1689    5483.4944    13723.555   -2064.5422   -1586.8292   -230.64335   -957.80579    82.306037 
    2400    235.83279   -107.83202   0.21338647   -107.61864   -3467.7695    4.3565988    4.3565988    4.3565988   -3467.7695   -3658.9356   -6996.4523    252.07947   -1703.7201   -764.60064    174.06731     82.68804 
    2500    185.92199   -107.78809   0.16822612   -107.61986   -1470.4342    4.3563938    4.3563938    4.3563938   -1470.4342   -7889.8991    7869.6795   -4391.0831    1198.0441    645.38833    899.56456     82.67637 
    2600    239.57398   -107.83532   0.21677157   -107.61855    1077.7644    4.3513588    4.3513588    4.3513588    1077.7644   -1102.1753    1682.0644    2653.4043   -295.54826    305.35767   -923.35183    82.390037 
    2700    191.71002   -107.79118   0.17346326   -107.61772   -1645.2167    4.3591277    4.3591277    4.3591277   -1645.2167   -11713.429    10089.062   -3311.2829    992.02097    77.337966    1468.9695    82.832118 
    2800    197.45646    -107.7962   0.17866275   -107.61754    2521.6125    4.3519564    4.3519564    4.3519564    2521.6125    2104.5182    958.30716     4502.012   -1617.1737   -27.415607   -2233.6059    82.423985 
    2900    190.78748   -107.79035   0.17262852   -107.61772    1535.2217    4.3554102    4.3554102    4.3554102    1535.2217    442.14498    5897.3783   -1733.8582    903.65351   -92.992068    794.29661    82.620382 
    3000    203.66545   -107.80215   0.18428078   -107.61787   -1395.7411    4.3566589    4.3566589    4.3566589   -1395.7411   -2253.8425   -1519.8231   -413.55776    870.07966    252.28378   -900.76904    82.691466 
    3100    186.53593   -107.78663   0.16878163   -107.61784    1618.0604    4.3516066    4.3516066    4.3516066    1618.0604      2903.61    2712.9774   -762.40626     1208.247    1478.1518   -1439.6098    82.404109 
    3200    200.39719   -107.79858   0.18132359   -107.61725   -2614.2157    4.3589208    4.3589208    4.3589208   -2614.2157   -11465.905    7990.4658   -4367.2083    1530.5362    36.033942     547.6649    82.820325 
    3300    244.72154   -107.83861   0.22142919   -107.61718    1015.5728    4.3523977    4.3523977    4.3523977    1015.5728   -2698.4312     2547.876    3197.2735   -1392.1737    675.50345   -2018.7525    82.449059 
    3400     170.3096   -107.77186    0.1540997   -107.61776    2723.5394    4.3550424    4.3550424    4.3550424    2723.5394   -2505.9645    13004.801   -2328.2179   -272.26475   -75.638268    418.82851    82.599451 
    3500    247.41325   -107.84129   0.22386471   -107.61743   -3633.3094    4.3575257    4.3575257    4.3575257   -3633.3094   -4584.4117   -6982.5024    666.98582   -1390.6186   -966.30335    683.75135    82.740831 
    3600    113.71359   -107.72182   0.10289044   -107.61893    7109.3868    4.3508765    4.3508765    4.3508765    7109.3868    6856.6313    15339.854   -868.32474    2514.8308    1207.4461    534.59847     82.36264 
    3700    225.54192   -107.82343   0.20407507   -107.61935   -4555.9703    4.3572073    4.3572073    4.3572073   -4555.9703   -6557.0611   -6784.9914   -325.85831   -1254.1726    499.34234   -966.19395    82.722693 
    3800    206.26335   -107.80613   0.18663142    -107.6195   -487.35824    4.3552054    4.3552054    4.3552054   -487.35824   -4684.6645    9289.7965   -6067.2068    579.57183     273.6891     1307.167    82.608726 
    3900    200.19737    -107.7996   0.18114278   -107.61846    0.3171811    4.3532608    4.3532608    4.3532608    0.3171811    -3232.746    -2198.157    5431.8546   -1218.1944    542.83114   -1653.1272     82.49812 
    4000    243.74861   -107.83784   0.22054886    -107.6173   -4290.3642      4.35704      4.35704      4.35704   -4290.3642    -9845.821    6659.0657   -9684.3372     185.8626   -85.355694    270.74366    82.713165 
    4100    147.79713   -107.75212   0.13372995   -107.61839    3890.7859      4.35395      4.35395      4.35395    3890.7859    2531.0357    588.79713    8552.5249     1095.533    839.30017   -499.57146    82.537311 
    4200    236.61587   -107.83243   0.21409501   -107.61834   -3260.2908    4.3550479    4.3550479    4.3550479   -3260.2908   -3862.0005    3844.5035   -9763.3753    2771.5226    832.45574   -3069.6503    82.599763 
    4300    124.31779   -107.73117   0.11248535   -107.61868    4441.4297     4.354811     4.354811     4.354811    4441.4297     3463.868    834.90906    9025.5122    1743.3073    914.54735    972.58385    82.586285 
    4400    263.83001   -107.85656   0.23871894   -107.61784   -7467.1187    4.3556234    4.3556234    4.3556234   -7467.1187   -5056.4967   -7837.5768   -9507.2825   -970.19363    636.97341   -2508.5116    82.632517 
    4500    134.37078   -107.73986   0.12158151   -107.61828    2902.8134    4.3551409    4.3551409    4.3551409    2902.8134   -5715.3268    8883.9826    5539.7843    344.10288    435.63705      512.473    82.605058 
    4600    309.87349   -107.89746   0.28038004   -107.61708   -3924.4912    4.3540058    4.3540058    4.3540058   -3924.4912   -5472.1389   -1121.6657   -5179.6691   -1595.7446   -398.58071    422.03513    82.540486 
    4700    102.78941   -107.71165  0.093006017   -107.61865    2636.4502    4.3565779    4.3565779    4.3565779    2636.4502   -5490.5288    11002.233    2397.6463    1482.2892    756.03451   -1604.1654    82.686852 
    4800    273.64123    -107.8656   0.24759633   -107.61801   -2638.0914    4.3542749    4.3542749    4.3542749   -2638.0914   -303.87392   -6290.2402   -1320.1601   -938.04821    471.36159    390.97256    82.555788 
    4900    107.20621   -107.71654  0.097002429   -107.61953    5508.1137    4.3534934    4.3534934    4.3534934    5508.1137    3968.2576    6487.2047    6068.8788   -653.76825    1439.1866   -346.66423    82.511346 
    5000    258.11327   -107.85219   0.23354631   -107.61864   -6980.7115    4.3576856    4.3576856    4.3576856   -6980.7115   -8187.2463   -7763.5326   -4991.3556   -1760.1681    689.66785    531.12791     82.74994 
    5100    164.98008   -107.76766   0.14927745   -107.61838    5924.6025    4.3522636    4.3522636    4.3522636    5924.6025   -717.97051     14200.36     4291.418   -515.25705   -669.61342   -915.23924    82.441439 
    5200    241.85332   -107.83701   0.21883397   -107.61818   -5208.7801    4.3564711    4.3564711    4.3564711   -5208.7801   -10675.155   -3197.5415   -1753.6439    826.39442    1149.9944    472.25543    82.680772 
    5300    186.53811   -107.78715    0.1687836   -107.61837    944.02677    4.3556001    4.3556001    4.3556001    944.02677   -5761.9579    9629.1737   -1035.1355    1300.9806    89.956162   -2272.9284     82.63119 
    5400    209.26224   -107.80777   0.18934487   -107.61843    2821.8266    4.3528179    4.3528179    4.3528179    2821.8266    102.96588    874.34612    7488.1678    1585.0549    630.35321    936.49951    82.472944 
    5500    211.91421   -107.81016   0.19174443   -107.61841     -3548.84    4.3577732    4.3577732    4.3577732     -3548.84   -5636.6036    168.74783   -5178.6643   -696.36079    1568.4103    -1066.792    82.754929 
    5600    135.13885   -107.74055   0.12227647   -107.61827    6812.2628    4.3524894    4.3524894    4.3524894    6812.2628    3185.3349    7287.3493    9964.1044   -746.06525   -1380.8061   -599.64479    82.454276 
    5700    267.25641   -107.85952   0.24181922    -107.6177   -6189.8841    4.3558794    4.3558794    4.3558794   -6189.8841   -9074.2774   -4797.5907   -4697.7842   -1766.9174    498.51317   -305.03688    82.647088 
    5800    102.95288   -107.71194  0.093153926   -107.61879    4041.9996    4.3558356    4.3558356    4.3558356    4041.9996   -5563.9075    10117.106    7572.7999    840.63284   -22.746777   -2143.8344    82.644595 
    5900    354.88384   -107.93822   0.32110635   -107.61712   -5265.8226    4.3526715    4.3526715    4.3526715   -5265.8226    -8203.918   -4019.3654   -3574.1845   -750.83527   -286.67795    1177.9124    82.464625 
    6000    75.794022   -107.68805  0.068580024   -107.61947    4448.5229    4.3578394    4.3578394    4.3578394    4448.5229   -5894.9966     10422.09    8818.4753   -972.80806    1699.2337   -863.55141    82.758701 
    6100    297.69363   -107.88769   0.26935945   -107.61833   -3632.5827    4.3525039    4.3525039    4.3525039   -3632.5827   -1384.2828   -3331.2958   -6182.1696   -1619.9195    281.97782    880.60659    82.455099 
    6200    71.745379   -107.68451  0.064916726   -107.61959    6773.7331    4.3553779    4.3553779    4.3553779    6773.7331   -412.29692    6563.8693    14169.627   -1753.2653   -610.21942    -1333.384    82.618544 
    6300    277.94762   -107.87012   0.25149285   -107.61863   -7932.8571    4.3568737    4.3568737    4.3568737   -7932.8571   -6836.0777   -6799.2388   -10163.255   -643.57688    425.02114    58.357253    82.703694 
    6400    143.69157   -107.74847   0.13001515   -107.61846    5987.1423    4.3515657    4.3515657    4.3515657    5987.1423   -992.99975    6329.8055    12624.621    1680.9584   -67.329827    -393.8856    82.401788 
    6500    285.75054   -107.87622   0.25855309   -107.61767   -9758.0931    4.3591513    4.3591513    4.3591513   -9758.0931   -14501.978   -6299.4557   -8472.8452    935.31742    917.17924    273.60212    82.833463 
    6600    139.42704   -107.74461   0.12615652   -107.61846    3969.4242    4.3525382    4.3525382    4.3525382    3969.4242   -2527.4097    10516.987    3918.6955    252.68503    794.94412   -1624.6123    82.457044 
    6700    238.03012   -107.83337   0.21537466   -107.61799   -1326.8511    4.3548918    4.3548918    4.3548918   -1326.8511   -6202.6145   -648.75962     2870.821     101.1877   -317.38582    -1093.316    82.590884 
    6800    170.77981    -107.7731   0.15452516   -107.61857   -1795.3397    4.3578804    4.3578804    4.3578804   -1795.3397   -2779.1929   -367.63384   -2239.1923   -1368.3033   -218.21697   -903.37734    82.761038 
    6900    185.77065   -107.78627   0.16808919   -107.61818    3107.9975      4.35104      4.35104      4.35104    3107.9975    1747.7805   -289.00242    7865.2146    640.93964    452.46881   -2226.4199    82.371928 
    7000    241.04831   -107.83569   0.21810558   -107.61758   -6553.3038     4.358441     4.358441     4.358441   -6553.3038   -7975.6562   -7433.8796   -4250.3754   -432.28699    -269.7219    1591.8696    82.792978 
    7100    127.01514   -107.73368   0.11492597   -107.61875    1932.4714    4.3539969    4.3539969    4.3539969    1932.4714   -6101.2826    9109.0879    2789.6089    1472.1806    2042.2465   -1972.6143    82.539977 
    7200    305.56948   -107.89434   0.27648569   -107.61785   -4838.5596     4.353842     4.353842     4.353842   -4838.5596   -9003.0218   -688.73471   -4823.9223   -2630.1943   -270.01037    580.62557    82.531169 
    7300    97.628182    -107.7082  0.088336031   -107.61987    2893.3369    4.3575339    4.3575339    4.3575339    2893.3369   -4288.6803    5969.9724    6998.7185    -749.6707    211.23182   -472.72123    82.741298 
    7400    295.50685   -107.88616   0.26738081   -107.61878   -4973.1109    4.3527021    4.3527021    4.3527021   -4973.1109   -2519.2721   -5796.0184   -6604.0421   -1000.0917   -36.030841   -673.26481    82.466364 
    7500    89.995398   -107.70094  0.081429728   -107.61951    5752.3363    4.3559337    4.3559337    4.3559337    5752.3363    2004.2241    2476.7272    12776.058    353.47089   -471.54652    1319.6862    82.650177 
    7600    282.45645   -107.87334   0.25557253   -107.61777   -7536.9818    4.3560009    4.3560009    4.3560009   -7536.9818   -7656.2685   -4445.9306   -10508.746    2147.1479    2215.8432   -1356.8602    82.654001 
    7700    119.04288   -107.72573    0.1077125   -107.61802    6125.5485    4.3528966    4.3528966    4.3528966    6125.5485   -2522.0253    8635.5161    12263.155    297.78651    403.52299   -1528.7642    82.477416 
    7800    290.14422   -107.87967   0.26252859   -107.61714   -8065.0026    4.3577432    4.3577432    4.3577432   -8065.0026   -11452.885   -5331.8102   -7410.3128       936.74    556.52723   -862.09976     82.75322 
    7900    134.95669   -107.74058   0.12211165   -107.61847    3328.2145    4.3529127    4.3529127    4.3529127    3328.2145   -4077.6045     9394.775    4667.4729   -833.82025    484.30586   -518.46618    82.478334 
    8000    272.03936   -107.86454   0.24614693   -107.61839   -3998.4813    4.3560521    4.3560521    4.3560521   -3998.4813   -6062.5146   -4814.9266   -1118.0028    1863.8056   -45.658359   -1148.4949    82.656918 
    8100    137.42615   -107.74337   0.12434607   -107.61902     4090.391     4.355104     4.355104     4.355104     4090.391    -1219.152    9565.8859    3924.4391    721.65929    1304.1903    266.65102    82.602958 
    8200    215.84215   -107.81383   0.19529851   -107.61853    392.64694    4.3534873    4.3534873    4.3534873    392.64694   -2711.7516   -1175.1658    5064.8582     1500.403    1182.2315   -1254.0452       82.511 
    8300    172.91693   -107.77535   0.15645887   -107.61889    280.16251    4.3566831    4.3566831    4.3566831    280.16251   -3941.9811    1437.3065    3345.1621    704.88983     576.5332    287.57905     82.69284 
    8400    216.58065   -107.81486   0.19596672   -107.61889   -604.35278    4.3536185    4.3536185    4.3536185   -604.35278   -7320.6311      3300.87    2206.7028   -1565.4427    529.86311    70.993304    82.518457 
    8500    250.58428   -107.84516   0.22673392   -107.61843   -3131.6972    4.3554289    4.3554289    4.3554289   -3131.6972   -7794.4396   -502.01075   -1098.6414   -1047.9365   -186.77811    191.42696    82.621446 
    8600    169.19076   -107.77188   0.15308736   -107.61879    1585.7455    4.3561323    4.3561323    4.3561323    1585.7455   -6663.7098    7206.6979    4214.2485   -312.08544   -776.95834    259.84434    82.661482 
    8700    245.25098   -107.84012   0.22190824   -107.61821   -1251.6485    4.3530834    4.3530834    4.3530834   -1251.6485   -3456.7784    1856.4699   -2154.6371    1045.0588    2353.0438   -1697.2151    82.488037 
    8800    87.205867   -107.69777  0.078905701   -107.61886    5538.7319    4.3560644    4.3560644    4.3560644    5538.7319    762.79276    5324.6487    10528.754    1416.9988    -176.3908   -609.28702    82.657615 
    8900    309.21364   -107.89765     0.279783   -107.61786   -5502.0361    4.3549991    4.3549991    4.3549991   -5502.0361   -5561.9351    -6420.579   -4523.5941   -8.2675182    1242.8206    -712.2868    82.596988 
    9000    100.97047   -107.71032  0.091360206   -107.61896    6388.3827    4.3538347    4.3538347    4.3538347    6388.3827   -795.48442    9318.9793    10641.653    503.85595    13.971255   -432.35851    82.530752 
    9100    322.71637   -107.90939   0.29200055   -107.61739   -9132.6321    4.3569172    4.3569172    4.3569172   -9132.6321   -9914.4009   -8521.4868   -8962.0086    -211.6338   -915.43088   -946.71792    82.706171 
    9200    92.088523   -107.70206  0.083323631   -107.61874    6980.7142    4.3532302    4.3532302    4.3532302    6980.7142    -4896.772    16104.919    9733.9954    913.67357    1287.1797   -1036.5734    82.496382 
    9300    275.61937   -107.86736    0.2493862   -107.61798    -6066.639    4.3559694    4.3559694    4.3559694    -6066.639   -3557.2542   -6285.9964   -8356.6665    1741.9393   -14.192463   -1593.5098    82.652207 
    9400    140.40167   -107.74575   0.12703838   -107.61872    4328.3531    4.3553103    4.3553103    4.3553103    4328.3531   -2717.1695    5998.7332    9703.4956    200.77088    964.18159   -159.84605    82.614695 
    9500    238.92577   -107.83468   0.21618506    -107.6185   -1701.2765    4.3536103    4.3536103    4.3536103   -1701.2765    2570.0573   -3825.4703   -3848.4165    212.58946    365.85088   -506.28827    82.517991 
    9600    160.51315   -107.76417   0.14523567   -107.61894   -19.880602    4.3566044    4.3566044    4.3566044   -19.880602   -3418.5009   -2348.4682    5707.3272   -2312.7895   -533.85648   -1020.5577    82.688357 
    9700     216.8214   -107.81458   0.19618456   -107.61839    55.965444    4.3542076    4.3542076    4.3542076    55.965444   -5221.5176    6746.3971   -1356.9831   -595.37618   -382.29716    344.28239    82.551964 
    9800    210.17139    -107.8083   0.19016749   -107.61813   -1640.8383    4.3547063    4.3547063    4.3547063   -1640.8383   -4519.4277   -903.83893    500.75155   -627.00986    1101.7657   -2580.9904    82.580328 
    9900    192.81336   -107.79223   0.17446158   -107.61777   -814.05597    4.3567318    4.3567318    4.3567318   -814.05597   -7526.8367      5389.17   -304.50126    778.04688    563.27873    513.90464    82.695612 
   10000    244.53424    -107.8386   0.22125972   -107.61734   -1762.1346     4.352989     4.352989     4.352989   -1762.1346    2138.2697    -2755.847   -4668.8266   -207.78524    1270.2346   -72.670529    82.482669 
   10100    97.033138    -107.7072  0.087797622    -107.6194    3565.5127    4.3557966    4.3557966    4.3557966    3565.5127   -1690.1213    6930.1462    5456.5131   -1814.5829   -445.53415    -2713.115    82.642373 
   10200    295.30335   -107.88582   0.26719668   -107.61862   -3830.3582    4.3554869    4.3554869    4.3554869   -3830.3582   -3312.2571   -4191.3034    -3987.514    181.41351   -1014.6832    148.75681    82.624748 
   10300     82.99267   -107.69467  0.075093512   -107.61958    7906.5717    4.3528087    4.3528087    4.3528087    7906.5717    606.84244    12562.329    10550.543   -1042.8217    1214.0004     -2920.16     82.47242 
   10400    329.25811   -107.91565   0.29791966   -107.61773   -10438.542    4.3580535    4.3580535    4.3580535   -10438.542   -12875.817   -9192.9859   -9246.8232    1434.7647   -1081.0789   -915.22492      82.7709 
   10500    120.43087   -107.72743   0.10896838   -107.61846    6552.7841    4.3525684    4.3525684    4.3525684    6552.7841    382.97396    14630.387    4644.9918    127.71239    1590.7429   -86.150633    82.458765 
   10600    273.70178   -107.86569   0.24765113   -107.61804    -7085.452    4.3561853    4.3561853    4.3561853    -7085.452   -6590.2553   -5608.7906   -9057.3101    608.95777    66.287408   -1279.5241    82.664501 
   10700    142.05821   -107.74759   0.12853725   -107.61905    4351.6339    4.3554717    4.3554717    4.3554717    4351.6339   -1746.0842    9118.0487    5682.9372   -2363.2764   -1266.0058   -528.94287    82.623879 
   10800     204.6473   -107.80368   0.18516918   -107.61852     1367.555    4.3526733    4.3526733    4.3526733     1367.555     3953.333    3197.1968   -3047.8648   -674.18829    119.37642    -474.5185    82.464724 
   10900    177.91399   -107.77918   0.16098031    -107.6182    -1994.189    4.3579229    4.3579229    4.3579229    -1994.189   -8015.4716   -2286.9693     4319.874   -846.66213    156.13291   -352.69041    82.763459 
   11000    232.00907   -107.82744   0.20992668   -107.61751    1767.3196     4.352998     4.352998     4.352998    1767.3196   -560.43919    8681.2904   -2818.8925    94.278141    719.02381    971.61316    82.483182 
   11100    221.18144   -107.81798   0.20012961   -107.61785   -1981.6153    4.3550159    4.3550159    4.3550159   -1981.6153   -7887.0452   -968.96986    2911.1692    372.87703    1669.0969   -326.33673    82.597944 
   11200    175.44389    -107.7773   0.15874532   -107.61855   -583.35613    4.3575723    4.3575723    4.3575723   -583.35613   -7295.0889    10912.668   -5367.6476   -1787.8428    93.787917   -2164.5214    82.743484 
   11300     216.6284   -107.81437   0.19600993   -107.61836    1761.4415    4.3511627    4.3511627    4.3511627    1761.4415    2893.5876   -279.46719    2670.2039   -937.71522   -1359.6401    308.37882    82.378898 
   11400    136.84773   -107.74312    0.1238227   -107.61929   -552.32131    4.3579578    4.3579578    4.3579578   -552.32131   -4279.6738    7490.4833   -4867.7734   -212.15628    1047.2988   -1398.1929    82.765445 
   11500    265.39697   -107.85807   0.24013676   -107.61794   -1258.2862    4.3542153    4.3542153    4.3542153   -1258.2862   -138.19932   -6728.8832     3092.224    1433.0852   -842.54924   -512.33134    82.552401 
   11600    148.88011   -107.75292   0.13470985   -107.61821    4651.6151    4.3532481    4.3532481    4.3532481    4651.6151   -2770.3474    16019.998    705.19421    837.37278    1228.2686    955.96174    82.497399 
   11700    246.36897    -107.8407   0.22291982   -107.61778   -5840.9239    4.3583073    4.3583073    4.3583073   -5840.9239   -11078.883   -5663.0479   -780.84097    1256.5765    450.35442   -2426.2876    82.785359 
   11800    156.36651   -107.75956   0.14148371   -107.61807    5682.7672    4.3518414    4.3518414    4.3518414    5682.7672   -424.66736    14755.762    2717.2071   -839.74346   -706.22325     1556.876    82.417451 
   11900    251.90158   -107.84642   0.22792584   -107.61849   -6424.0964    4.3569256    4.3569256    4.3569256   -6424.0964   -9454.8274   -4197.2477    -5620.214   -182.25038    565.58944   -283.46065    82.706647 
   12000    158.68798   -107.76261   0.14358422   -107.61903    2150.6467    4.3552581    4.3552581    4.3552581    2150.6467    900.81998    2311.1942     3239.926    105.92706   -728.86763    1183.3981    82.611724 
   12100     225.1777   -107.82147   0.20374552   -107.61772    266.96033    4.3526515    4.3526515    4.3526515    266.96033   -810.14673    7280.5942   -5669.5664    1181.7588    1618.0654    584.31119    82.463483 
   12200    148.93778   -107.75298   0.13476204   -107.61822   -1220.8097    4.3585543    4.3585543    4.3585543   -1220.8097   -7179.7419   -2369.8604    5887.1731    234.10139    1776.0099   -891.43887    82.799435 
   12300    232.11228   -107.82769   0.21002006   -107.61767    2791.4694    4.3518417    4.3518417    4.3518417    2791.4694    -1442.329    10333.292   -516.55469   -458.07457    390.51041   -122.99878     82.41747 
   12400    231.36999   -107.82712   0.20934843   -107.61777   -2392.6509     4.356362     4.356362     4.356362   -2392.6509   -10412.006   -3166.3615    6400.4146   -923.30964    640.66848    -185.0636    82.674559 
   12500    176.20439    -107.7777   0.15943343   -107.61827   -1024.5011     4.356296     4.356296     4.356296   -1024.5011    -5302.392    8191.9203   -5963.0314    585.96108    61.382719    373.55912    82.670799 
   12600    230.08743   -107.82571   0.20818795   -107.61752    592.88734    4.3523478    4.3523478    4.3523478    592.88734   -1060.4574    2097.7691    741.35031    1029.4187   -604.85731   -1669.5718    82.446229 
   12700    130.89425   -107.73667   0.11843587   -107.61823    160.69205      4.35788      4.35788      4.35788    160.69205    -3705.198    9095.4953   -4908.2211    1407.3348     2025.038    922.20491    82.761011 
   12800    245.37628   -107.83966   0.22202162   -107.61764   -547.58682     4.353372     4.353372     4.353372   -547.58682   -1237.5168   -4106.6574    3701.4138    808.43464    184.72243   -2336.2044    82.504446 
   12900     180.7578   -107.78157   0.16355345   -107.61801    2581.3616     4.354356     4.354356     4.354356    2581.3616    -4612.141    13184.408   -828.18195   -83.506449    -308.3545    2016.8845    82.560405 
   13000    209.05172   -107.80756   0.18915439   -107.61841   -3466.2192    4.3577135    4.3577135    4.3577135   -3466.2192   -9328.8436   -4607.0671    3537.2529   -414.80652    820.85278   -956.85418     82.75153 
   13100     241.3005   -107.83697   0.21833376   -107.61864    1551.1978    4.3514617    4.3514617    4.3514617    1551.1978   -4332.5557    12582.259   -3596.1102    115.32569   -1345.6413    519.53001     82.39588 
   13200    154.80845   -107.75996   0.14007394   -107.61989    211.25054    4.3570783    4.3570783    4.3570783    211.25054   -6184.5781    1484.8151    5333.5146    1155.6381    961.55735    -1110.689    82.715345 
   13300    232.03617   -107.82906   0.20995121   -107.61911   -3818.7657    4.3556174    4.3556174    4.3556174   -3818.7657   -4045.3361   -134.31309    -7276.648   -1345.3219     1525.728   -247.96271    82.632173 
   13400    157.40077   -107.76083   0.14241952   -107.61841     4444.161    4.3522643    4.3522643    4.3522643     4444.161    445.07065     8020.006    4867.4063    109.26634    781.83034    1221.5467    82.441482 
   13500    213.24848   -107.81095   0.19295171     -107.618   -5064.7601    4.3584352    4.3584352    4.3584352   -5064.7601   -7834.5573   -672.03587   -6687.6871    -2849.819    1178.2114   -692.88562    82.792647 
   13600    185.04303   -107.78536   0.16743082   -107.61793    2999.2492      4.35297      4.35297      4.35297    2999.2492   -5498.8641    11961.692    2534.9203    -498.2215   -412.16352   -47.542854    82.481591 
   13700     245.3114    -107.8395   0.22196291   -107.61754   -3070.2772    4.3557127    4.3557127    4.3557127   -3070.2772   -8886.2491   -614.98852    290.40604    85.336831    998.75767    -1627.684    82.637596 
   13800    166.20959   -107.76852   0.15038993   -107.61813   -1771.8759    4.3566648    4.3566648    4.3566648   -1771.8759   -7922.0007    5089.8616   -2483.4886   -544.54591    1164.8826    225.23351    82.691799 
   13900     238.2351   -107.83311   0.21556013   -107.61755   -1324.3857    4.3526748    4.3526748    4.3526748   -1324.3857   -2143.3294   -2459.7529    629.92529     961.3874    258.08409   -2108.2155    82.464808 
   14000    148.95216   -107.75273   0.13477504   -107.61796     -1077.15    4.3576217    4.3576217    4.3576217     -1077.15   -5252.0761    10082.246   -8061.6199   -2579.3941    1784.3227    1038.5189    82.746301 
   14100    208.61213   -107.80665   0.18875664    -107.6179   -1014.4441    4.3537596    4.3537596    4.3537596   -1014.4441   -3270.9421   -1287.5841    1515.1939    793.87509   -681.00151   -2605.8338    82.526484 
   14200    202.67638   -107.80154   0.18338585   -107.61816   -541.13277    4.3546552    4.3546552    4.3546552   -541.13277    -5563.791    10307.404   -6367.0115   -2107.6073   -757.30479   -207.85301    82.577425 
   14300    177.17879   -107.77986   0.16031509   -107.61954   -2485.8253     4.356898     4.356898     4.356898   -2485.8253   -8608.7035   -2647.9208    3799.1484    2782.2428    1653.9701   -793.50963    82.705081 
   14400    273.91817   -107.86721   0.24784691   -107.61936   -2677.1552    4.3527718    4.3527718    4.3527718   -2677.1552   -5562.8254    1933.5858   -4402.2262    -1452.265   -1460.4969   -928.54042    82.470325 
   14500      133.658   -107.74107   0.12093657   -107.62013    2088.3695    4.3564507    4.3564507    4.3564507    2088.3695   -4947.5833    5753.9008     5458.791   -41.887615    2321.8466    2033.2152    82.679611 
   14600    254.59768   -107.84896   0.23036533    -107.6186   -5751.6056    4.3556466    4.3556466    4.3556466   -5751.6056   -6358.7237   -491.08577   -10405.007   -1802.5474    808.88074   -2140.1208    82.633832 
   14700    110.65402   -107.71864   0.10012208   -107.61852    6192.9139    4.3532001    4.3532001    4.3532001    6192.9139    3450.7006    8910.7897    6217.2514   -1543.0088   -58.378907    -381.1453    82.494671 
   14800    280.40458   -107.87114   0.25371595   -107.61742   -6900.0218    4.3572143    4.3572143    4.3572143   -6900.0218   -8042.0245   -4190.4713   -8467.5695    1055.6312    387.18373   -897.67978    82.723092 
   14900    140.13366    -107.7453   0.12679588   -107.61851    5112.6502     4.353642     4.353642     4.353642    5112.6502   -2455.9199     8516.871    9276.9995   -168.31634    1000.9635   -140.58241    82.519797 
   15000     273.5334   -107.86549   0.24749877   -107.61799   -3855.9116    4.3554484    4.3554484    4.3554484   -3855.9116   -6956.5721   -1283.9599    -3327.203     1731.116    612.89062    -1497.974    82.622553 
   15100    135.91596    -107.7415   0.12297962   -107.61852    2470.6424    4.3557457    4.3557457    4.3557457    2470.6424   -5890.1165    7784.9643    5517.0795   -1328.4548    927.36799   -453.03392    82.639474 
   15200    243.79933   -107.83848   0.22059476   -107.61789   -1089.8099    4.3537406    4.3537406    4.3537406   -1089.8099    1572.9051   -4599.9994   -242.33553    703.23325     186.3592    -1998.494    82.525402 
   15300    169.83087   -107.77213   0.15366654   -107.61846    1596.0139    4.3558967    4.3558967    4.3558967    1596.0139   -3438.8631    7595.1388    631.76598    206.10494   -2212.4794   -559.52347     82.64807 
   15400    217.37945   -107.81553   0.19668949   -107.61884   -171.36249    4.3547334    4.3547334    4.3547334   -171.36249   -2074.7287   -2134.8171    3695.4583    1813.1393    1184.3643    860.91471    82.581869 
   15500     191.6448    -107.7928   0.17340424    -107.6194    1351.5833     4.354367     4.354367     4.354367    1351.5833    -4052.958    10397.995   -2290.2876    783.09155   -1364.3534    -1122.018    82.561025 
   15600    192.32232   -107.79357   0.17401728   -107.61956    134.37141    4.3559672    4.3559672    4.3559672    134.37141   -8136.2786    1346.1139     7193.279   -596.67764    795.36859    1263.6778    82.652085 
   15700    239.16172   -107.83511   0.21639855   -107.61871    -287.9995    4.3542513    4.3542513    4.3542513    -287.9995   -2432.7975    1586.0807   -17.281656   -941.81543     83.42013   -2047.0986    82.554445 
   15800    162.90613   -107.76595   0.14740089   -107.61855    2860.1216    4.3551083    4.3551083    4.3551083    2860.1216   -2642.3452    1374.8845    9847.8256   -857.77586   -1546.0364    433.06041    82.603199 
   15900    253.44484   -107.84702   0.22932222   -107.61769   -3075.6043    4.3555576    4.3555576    4.3555576   -3075.6043   -2794.2793   -2634.6594   -3797.8742     775.5455    1795.8273   -169.99677     82.62877 
   16000    93.812513   -107.70351  0.084883533   -107.61863    6698.5359    4.3536544    4.3536544    4.3536544    6698.5359    1872.3116    11298.927    6924.3692    1113.1504   -1934.3249   -751.21699    82.520503 
   16100    310.87663   -107.89922   0.28128771   -107.61793   -7145.7045    4.3564937    4.3564937    4.3564937   -7145.7045   -9564.8416   -4478.9271   -7393.3448    605.32441    2823.0135   -814.35306    82.682055 
   16200    102.01443   -107.71168  0.092304804   -107.61937    7408.4129     4.354021     4.354021     4.354021    7408.4129    302.24899    9087.7785    12835.211   -226.43763     183.6627   -1741.1665    82.541348 
   16300    317.26363   -107.90512    0.2870668   -107.61805   -7506.1055    4.3556534    4.3556534    4.3556534   -7506.1055   -9577.5409   -9415.1721   -3525.6034   -37.831075   -585.04129   -215.91136     82.63422 
   16400    111.65503   -107.72003   0.10102781     -107.619    5284.7617    4.3553495    4.3553495    4.3553495    5284.7617    914.96183    5459.9927    9479.3306    460.82665   -674.24861   -132.31886    82.616926 
   16500    243.07378   -107.83837   0.21993827   -107.61843   -2213.5417    4.3535052    4.3535052    4.3535052   -2213.5417   -826.01819   -3044.6839    -2769.923    1353.9065   -1138.7467    17.163719    82.512018 
   16600    167.77578   -107.77095   0.15180705   -107.61914    316.33397    4.3566862    4.3566862    4.3566862    316.33397   -3758.0528    5475.3169   -768.26221    1709.4975    451.06892   -1454.3763    82.693019 
   16700    194.61013   -107.79507   0.17608733   -107.61898    1212.5009    4.3539918    4.3539918    4.3539918    1212.5009    528.71389   -952.10218    4060.8911    282.01297   -643.14249    2.3361288    82.539686 
   16800    230.84519   -107.82768   0.20887358   -107.61881   -3630.6629    4.3546126    4.3546126    4.3546126   -3630.6629   -7736.5959    747.49385   -3902.8868   -1471.6273    287.69073   -2008.1795    82.574996 
   16900    172.66001    -107.7754   0.15622641   -107.61917    298.10668    4.3568359    4.3568359    4.3568359    298.10668   -2645.0263   -4678.0941    8217.4405    90.245322   -1815.8769     488.8259    82.701541 
   17000    257.20348   -107.85075   0.23272312   -107.61802   -2190.3263    4.3533718    4.3533718    4.3533718   -2190.3263   -3669.8325    290.72714   -3191.8735   -733.19385    1081.1985   -936.96362     82.50443 
   17100    119.94413   -107.72743   0.10852797    -107.6189    2885.8794    4.3559818    4.3559818    4.3559818    2885.8794   -307.22188    480.21784    8484.6422    1092.8257   -667.05431   -2790.1078    82.652914 
   17200    260.46563   -107.85378   0.23567478   -107.61811   -3473.3076    4.3552101    4.3552101    4.3552101   -3473.3076   -700.51401   -4745.6185   -4973.7902    705.45601    1412.5633    175.76377    82.608996 
   17300    109.59366    -107.7184  0.099162644   -107.61924    4002.8713    4.3534631    4.3534631    4.3534631    4002.8713   -423.40737    3543.6494    8888.3717   -610.45162    1258.5113   -2949.4229    82.509626 
   17400    298.67977   -107.88839   0.27025173   -107.61814   -7672.6592    4.3576513    4.3576513    4.3576513   -7672.6592   -6823.5562   -9348.7463   -6845.6753    35.840836   -435.82363    243.21205    82.747983 
   17500    156.09123   -107.75942   0.14123462   -107.61819    5064.5468    4.3526979    4.3526979    4.3526979    5064.5468   -2368.1528    6471.9249    11089.868   -1065.4353   -233.34397    83.911299    82.466124 
   17600    243.63341   -107.83829   0.22044463   -107.61784    -5623.058    4.3570369    4.3570369    4.3570369    -5623.058   -6604.3601   -7336.2078   -2928.6062     1836.063   -807.57217   -2474.7433    82.712986 
   17700    141.68335   -107.74709   0.12819807   -107.61889    5028.3269    4.3541215    4.3541215    4.3541215    5028.3269    2665.0088    2462.4437    9957.5283    244.85533    835.64107   -714.92364    82.547062 
   17800    218.83415   -107.81672   0.19800574   -107.61872   -645.09306    4.3539328    4.3539328    4.3539328   -645.09306   -3170.5619   -4324.1646    5559.4473    1944.4574    537.94398   -749.60547    82.536333 
   17900    194.00571   -107.79434   0.17554044    -107.6188   -2168.8021     4.357788     4.357788     4.357788   -2168.8021   -1076.0526   -3304.1401   -2126.2136   -511.74668   -1493.7918   -1304.9612    82.755775 
   18000        225.4   -107.82217   0.20394666   -107.61822    2125.0381     4.351876     4.351876     4.351876    2125.0381   -5309.3504   -1909.3002    13593.765   -1044.3396   -283.28241    400.75938    82.419419 
   18100    206.22686   -107.80542    0.1865984   -107.61882   -3040.6684    4.3569531    4.3569531    4.3569531   -3040.6684    -6303.473    1134.5185   -3953.0507   -126.48664    104.24403   -1443.4809    82.708215 
   18200     160.3405   -107.76417   0.14507946   -107.61909    3162.6283    4.3553331    4.3553331    4.3553331    3162.6283     -3137.99   -4670.0033    17295.878    46.532282    716.95284   -469.68968    82.615996 
   18300    251.00789    -107.8453   0.22711721   -107.61819    376.89657    4.3523713    4.3523713    4.3523713    376.89657   -2604.6035    5042.0258   -1306.7326     1179.286    1043.5996   -21.935404     82.44756 
   18400    130.47682   -107.73717   0.11805817   -107.61911    283.65391    4.3586344    4.3586344    4.3586344    283.65391   -1195.1284   -10754.265    12800.355   -1164.2849    656.63127    233.68341    82.804002 
   18500    257.57085   -107.85088   0.23305552   -107.61783   -140.95999    4.3518738    4.3518738    4.3518738   -140.95999   -1364.3965    1674.6495   -733.13296    461.09251     109.6094   -224.25248    82.419289 
   18600     165.5975   -107.76835    0.1498361   -107.61852    7.1645159    4.3561997    4.3561997    4.3561997    7.1645159   -4847.6955   -5467.8902    10337.079   -2237.9739   -94.740576    492.03541    82.665318 
   18700    215.07033   -107.81305   0.19460015   -107.61845   -1734.4858    4.3566902    4.3566902    4.3566902   -1734.4858   -7894.0882    1987.7382    702.89273    204.74458    341.38647   -2410.3725    82.693246 
   18800    219.63585   -107.81632   0.19873113   -107.61759    3539.8483    4.3513769    4.3513769    4.3513769    3539.8483   -2069.4725    3940.1032    8748.9142    1107.8367    822.21388    737.53364     82.39106 
   18900    164.46415   -107.76675   0.14881062   -107.61794   -2543.0741    4.3593232    4.3593232    4.3593232   -2543.0741   -6272.1798    -3643.032    2285.9896   -253.17713    403.90111   -255.22853    82.843266 
   19000    222.20505    -107.8185    0.2010558   -107.61745    908.09049    4.3528339    4.3528339    4.3528339    908.09049    571.37057   -895.44797    3048.3489    1258.8065   -1725.4458   -822.86685    82.473852 
   19100    156.30068   -107.75915   0.14142414   -107.61773    2993.7204    4.3542135    4.3542135    4.3542135    2993.7204   -1116.6565   -2181.5596    12279.377   -1430.9264   -611.65789    1359.7491    82.552297 
   19200    251.68428   -107.84574   0.22772922   -107.61802   -7823.0164    4.3591758    4.3591758    4.3591758   -7823.0164   -10144.915   -4337.1758   -8986.9582    -583.8575   -536.70871   -2831.9368    82.834863 
   19300    153.31494   -107.75709   0.13872258   -107.61837    6944.2346    4.3499177    4.3499177    4.3499177    6944.2346   -858.89408    4089.1741    17602.424   -433.18745    901.35918    2984.9409    82.308202 
   19400    249.76133   -107.84445    0.2259893   -107.61846    -7201.627    4.3589842    4.3589842    4.3589842    -7201.627   -10330.957   -2130.3984   -9143.5261    27.170825   -30.481386   -1488.5725    82.823939 
   19500    159.38885   -107.76346   0.14421838   -107.61924    2325.9196    4.3543806    4.3543806    4.3543806    2325.9196   -4206.5775   -3057.5122    14241.849    879.44022   -210.10313    874.27493    82.561803 
   19600    227.76512   -107.82484   0.20608667   -107.61875    1481.5966     4.352643     4.352643     4.352643    1481.5966     558.2245    2595.5535    1291.0117   -1185.7249    -42.71051   -218.19182    82.463003 
   19700    196.12061   -107.79705   0.17745405    -107.6196   -4877.6382    4.3591497    4.3591497    4.3591497   -4877.6382   -10293.153   -8698.4605    4358.6993   -1087.1825   -1380.5893   -1235.5848    82.833373 
   19800    154.96925   -107.76049   0.14021944   -107.62027    4688.0547    4.3512924    4.3512924    4.3512924    4688.0547    1876.2773    6593.4179    5594.4689   -1334.9677    419.51754     -805.712    82.386264 
   19900    263.17124   -107.85767   0.23812287   -107.61954   -5446.1624    4.3568776    4.3568776    4.3568776   -5446.1624   -10184.416   -5887.5876   -266.48385   -1456.3316    387.39654    1372.3352    82.703914 
   20000    139.11951   -107.74563   0.12587826   -107.61975    2171.8525    4.3558111    4.3558111    4.3558111    2171.8525   -5906.9934    5391.0671    7031.4836    1509.5071   -214.46525    166.03094      82.6432 
   20100    282.02828   -107.87288   0.25518512    -107.6177   -2045.1842    4.3526754    4.3526754    4.3526754   -2045.1842   -5801.9702   -4009.4656    3675.8831   -218.61813   -1781.4782   -1365.3122    82.464842 
   20200    133.06551   -107.73851   0.12040047   -107.61811    615.22565    4.3585486    4.3585486    4.3585486    615.22565   -6098.4946    2801.6718    5142.4998   -255.32588    81.404666    245.00196    82.799111 
   20300    244.77455   -107.83914   0.22147716   -107.61766   -1390.7163    4.3527035    4.3527035    4.3527035   -1390.7163    -2893.508    -1927.081    648.44018   -476.89845   -1195.6266   -2472.3828    82.466439 
   20400    138.01674   -107.74352   0.12488045   -107.61864    3657.1608    4.3553001    4.3553001    4.3553001    3657.1608   -1918.9235    3916.3679    8974.0379   -1999.8587    1236.8057    2062.9065    82.614115 
   20500    248.51408   -107.84378   0.22486076   -107.61891   -5486.2388    4.3571645    4.3571645    4.3571645   -5486.2388   -10942.601   -3713.1069   -1803.0082    386.97775   -155.78921     -2534.11    82.720259 
   20600    148.34772   -107.75329   0.13422814   -107.61907    4425.5326    4.3518032    4.3518032    4.3518032    4425.5326   -1376.0091    2929.1257    11723.481   -1380.1145   -1744.2844    986.65667    82.415283 
   20700    267.48898    -107.8603   0.24202965   -107.61827   -6955.9045    4.3583843    4.3583843    4.3583843   -6955.9045   -13821.192   -4625.3067   -2421.2152    896.77852    1524.0017   -521.43298    82.789746 
   20800    193.10159   -107.79361   0.17472238   -107.61889    1157.7441    4.3536368    4.3536368    4.3536368    1157.7441   -4213.3679    3280.3882    4406.2121   -1136.5975   -2344.7136   -747.39018      82.5195 
   20900    163.67063   -107.76823   0.14809263   -107.62014     3140.297    4.3540366    4.3540366    4.3540366     3140.297   -2923.6907    3844.6957    8499.8858   -1658.2442    1729.5794    1096.6207    82.542234 
   21000    252.44715   -107.84857   0.22841948   -107.62015   -5913.4113    4.3580928    4.3580928    4.3580928   -5913.4113   -10266.668   -2291.9708    -5181.595   -964.73536    920.94274    711.03168    82.773138 
   21100    87.096272   -107.69944  0.078806537   -107.62064    7258.5798    4.3513328    4.3513328    4.3513328    7258.5798    3668.4031    4763.6284    13343.708   -2263.4397   -101.95942   -1576.5008    82.388559 
   21200    308.24586   -107.89738   0.27890733   -107.61848   -9164.6822    4.3581876    4.3581876    4.3581876   -9164.6822   -10862.532   -10848.836   -5782.6785    893.14805    445.30971   -1159.6766    82.778537 
   21300     144.6123    -107.7499   0.13084825   -107.61906    3287.8179    4.3541228    4.3541228    4.3541228    3287.8179   -5108.6147    6718.1247    8253.9438    313.16261   -537.32041   -1695.6661    82.547139 
   21400    249.69321   -107.84392   0.22592766   -107.61799   -3125.9316    4.3545094    4.3545094    4.3545094   -3125.9316   -5722.7247   -6247.3945    2592.3244    367.26866   -97.926052   -1833.7061    82.569128 
   21500    173.48998   -107.77488   0.15697738    -107.6179    363.14871     4.357576     4.357576     4.357576    363.14871   -10073.132    8570.4728    2592.1051   -200.58375    1190.3473    1082.9783    82.743693 
   21600    183.77403   -107.78467    0.1662826   -107.61838    2443.4546    4.3519176    4.3519176    4.3519176    2443.4546    1699.1369   -3181.9683    8813.1953   -1292.8421   -387.58118   -4055.7222     82.42178 
   21700    217.39761   -107.81487   0.19670592   -107.61817   -2812.6829    4.3576846    4.3576846    4.3576846   -2812.6829   -4809.9359   -1620.1724   -2007.9404     528.6022    364.04625    1425.7063    82.749879 
   21800    173.73984   -107.77569   0.15720346   -107.61849    2052.3841    4.3545643    4.3545643    4.3545643    2052.3841   -3266.0271   -2542.4991    11965.678   -335.07974    444.36367   -1422.4974    82.572253 
   21900    237.79182   -107.83377   0.21515904   -107.61861   -2483.2098    4.3532759    4.3532759    4.3532759   -2483.2098    -1254.222    -3022.887   -3172.5203    1117.3562   -553.84112   -1020.8906    82.498979 
   22000    156.53383   -107.76134    0.1416351   -107.61971    533.55341    4.3584221    4.3584221    4.3584221    533.55341   -12708.305    286.77782    14022.188    164.68087   -205.15524     1635.734    82.791905 
   22100    245.64167   -107.84221   0.22226174   -107.61995    631.15691    4.3516092    4.3516092    4.3516092    631.15691    1288.1055    3589.7999   -2984.4346   -2224.9255    792.44411   -1647.3292    82.404259 
   22200    165.35361   -107.76997   0.14961542   -107.62036    1156.5609    4.3562825    4.3562825    4.3562825    1156.5609   -6057.2693   -2270.7265    11797.678    933.07085    -1720.748     336.1786    82.670032 
   22300    219.60844   -107.81757   0.19870633   -107.61887   -1232.7408    4.3565792    4.3565792    4.3565792   -1232.7408   -1533.9916    381.88438    -2546.115   -2351.5385    29.130708    -763.1152    82.686923 
   22400    171.65428   -107.77368    0.1553164   -107.61837    2637.8503    4.3521391    4.3521391    4.3521391    2637.8503    2606.9427   -2985.5687    8292.1769    1643.3186   -1742.4447   -561.33336    82.434364 
   22500    202.37013   -107.80069   0.18310874   -107.61758   -2166.2346    4.3581414    4.3581414    4.3581414   -2166.2346   -8489.1739   -188.88021    2179.3504      538.821   -798.59922   -479.13528    82.775907 
   22600    230.20453   -107.82536    0.2082939   -107.61707    183.73383    4.3536323    4.3536323    4.3536323    183.73383     -1801.71    1401.3964    951.51502   -513.77078    410.59072    122.68232    82.519242 
   22700    167.65552   -107.76943   0.15169824   -107.61774    1179.2006    4.3551237    4.3551237    4.3551237    1179.2006   -5427.8725   -2008.9311    10974.405     462.5176   -1268.6353   -1782.7752    82.604077 
   22800    252.70987   -107.84609    0.2286572   -107.61744   -2948.7041     4.356921     4.356921     4.356921   -2948.7041   -4835.5288    856.07448    -4866.658   -1848.3681    1056.8026   -133.73798    82.706391 
   22900    139.81058   -107.74504   0.12650355   -107.61853    5823.2514    4.3524309    4.3524309    4.3524309    5823.2514    4611.2747   -2198.5909     15057.07    2050.8521   -582.52059    15.097122    82.450946 
   23000    230.32959   -107.82728   0.20840706   -107.61887   -3963.2537    4.3573803    4.3573803    4.3573803   -3963.2537   -7863.1327    3879.7032   -7906.3314    504.00871    306.09728   -1525.0484    82.732546 
   23100    169.12435   -107.77281   0.15302727   -107.61978    3563.9174    4.3535763    4.3535763    4.3535763    3563.9174    873.08632   -3036.3523    12855.018    1602.0388   -1394.6762      2226.85    82.516062 
   23200     200.2802   -107.80181   0.18121773   -107.62059   -1149.3488    4.3547858    4.3547858    4.3547858   -1149.3488   -9286.1682    7294.5157   -1456.3939     240.1965    427.72967   -1331.5134    82.584852 
   23300    231.67816   -107.82977   0.20962727   -107.62014   -3182.4467    4.3566572    4.3566572    4.3566572   -3182.4467   -5987.7478   -8305.3073     4745.715    -1463.176   -1200.2269    546.80247    82.691367 
   23400    195.59637   -107.79663   0.17697971   -107.61965    3134.9823    4.3534716    4.3534716    4.3534716    3134.9823   -3049.7191    8015.9951     4438.671     935.4703   -398.59894    83.375972    82.510109 
   23500    204.27089   -107.80363   0.18482859    -107.6188   -1752.7471    4.3560956    4.3560956    4.3560956   -1752.7471   -4909.0581   -2055.7297    1706.5464   -291.92903   -1282.2647   -388.57846    82.659392 
   23600    162.68434   -107.76528   0.14720021   -107.61808    2922.9814      4.35507      4.35507      4.35507    2922.9814   -187.10495    6535.8425    2420.2067    1839.4099   -611.40033   -401.97046    82.601021 
   23700    214.54547   -107.81168   0.19412525   -107.61755   -716.09013    4.3545426    4.3545426    4.3545426   -716.09013   -6471.3378    3186.3533    1136.7142    348.96648    318.62508   -745.62364    82.571016 
   23800    183.24456   -107.78352   0.16580353   -107.61772    -1329.011    4.3564021    4.3564021    4.3564021    -1329.011   -4738.9634   -2672.8028     3424.733   -308.81764   -1419.9605   -1202.2688    82.676841 
   23900     249.9715   -107.84343   0.22617947   -107.61725   -750.37508    4.3542962    4.3542962    4.3542962   -750.37508   -7855.0692    5263.1641    340.77987    329.42906    2245.8313   -1198.8548       82.557 
   24000     189.3728   -107.78945   0.17134849    -107.6181   -711.12914    4.3555745    4.3555745    4.3555745   -711.12914   -8433.4015   -2045.0388    8345.0528   -806.21981    -1237.137   -162.65512    82.629733 
   24100    191.12823   -107.79201   0.17293684   -107.61908    586.82578    4.3554538    4.3554538    4.3554538    586.82578   -4855.0736    9825.5655   -3210.0146    2421.6007    1019.7171   -856.47042    82.622864 
   24200    206.23241     -107.806   0.18660342   -107.61939    2179.3221     4.353851     4.353851     4.353851    2179.3221   -4453.8071    1407.5791    9584.1943    1582.9406   -610.79942    1377.6797    82.531682 
   24300    170.26444   -107.77477   0.15405884   -107.62071   -802.90139    4.3560515    4.3560515    4.3560515   -802.90139   -2836.9172    4987.2296   -4559.0166    834.39917   -295.67473   -1452.9214    82.656881 
   24400    226.26099   -107.82484    0.2047257   -107.62011   -807.27855     4.354681     4.354681     4.354681   -807.27855   -4503.7584   -2725.1556    4807.0784    1624.0742    1387.6004    1316.0188    82.578891 
   24500    180.91958    -107.7834   0.16369984    -107.6197    1052.2995    4.3542944    4.3542944    4.3542944    1052.2995   -5743.9825    6540.6597    2360.2212   -2218.1821   -936.85512   -373.31905    82.556896 
   24600    212.40296   -107.81116   0.19218667   -107.61897   -3401.9248    4.3568136    4.3568136    4.3568136   -3401.9248   -9792.4543   -570.88901    157.56899    1491.3336    59.561191   -33.010358    82.700272 
   24700    218.66141    -107.8159   0.19784944   -107.61805    1884.0661    4.3540439    4.3540439    4.3540439    1884.0661   -5018.4223     6503.224    4167.3967   -11.620645   -620.28141    23.381921    82.542651 
   24800    198.54246   -107.79839   0.17964539   -107.61875   -831.92961    4.3552063    4.3552063    4.3552063   -831.92961   -5641.4363    3970.4877   -824.84021    675.34024   -486.53431   -1183.3963    82.608777 
   24900    191.14848   -107.79196   0.17295516     -107.619   -1179.0683    4.3561397    4.3561397    4.3561397   -1179.0683   -2585.6564   -1360.0225    408.47418    -501.0036   -354.02493   -871.39356      82.6619 
   25000    195.80266   -107.79609   0.17716636   -107.61892    1491.9721    4.3539959    4.3539959    4.3539959    1491.9721   -3556.9747    9994.7342   -1961.8432   -2045.7337     334.3872   -253.26883    82.539923 
   25100    175.13757   -107.77785   0.15846815   -107.61938   -845.46236    4.3557083    4.3557083    4.3557083   -845.46236   -6060.7761   -230.14015    3754.5292    1323.6692    205.07254   -892.80339    82.637344 
   25200    227.90134   -107.82513   0.20620992   -107.61892   -1080.2294    4.3551805    4.3551805    4.3551805   -1080.2294   -7147.4925    8230.5085   -4323.7042   -1466.5276    23.414016   -546.80724    82.607307 
   25300    216.77599   -107.81529   0.19614347   -107.61915   -787.25841    4.3546515    4.3546515    4.3546515   -787.25841   -10468.303    1995.3073    6111.2203    2708.4813    906.47912    636.27508    82.577209 
   25400    184.88861    -107.7874    0.1672911   -107.62011   -651.19378    4.3561533    4.3561533    4.3561533   -651.19378   -3476.5262    7784.5073   -6261.5625   -549.78777   -1356.4586   -1689.1719    82.662677 
   25500    225.26779   -107.82313   0.20382703    -107.6193    911.02371    4.3537786    4.3537786    4.3537786    911.02371    -7366.882    7219.5786    2880.3745    21.962358     1872.366    1612.3183    82.527564 
   25600    163.62826   -107.76707   0.14805429   -107.61902    786.76285    4.3559144    4.3559144    4.3559144    786.76285    822.28365    5800.6495   -4262.6446   -950.80879    397.65046    213.32145    82.649075 
   25700    200.35665   -107.79961   0.18128691   -107.61832   -809.21562    4.3553963    4.3553963    4.3553963   -809.21562   -6665.9048    5598.8246   -1360.5667   -153.66794   -438.22996   -1104.7672     82.61959 
   25800    208.51162    -107.8063   0.18866569   -107.61763    606.14266    4.3542202    4.3542202    4.3542202    606.14266    -4223.755    3934.6654    2107.5176    508.85774    1419.5493    723.23129    82.552679 
   25900    210.93464   -107.80902    0.1908581   -107.61817   -2123.3029    4.3564445    4.3564445    4.3564445   -2123.3029   -9547.8119    7449.4589   -4271.5556   -439.35212   -2196.9631   -1682.8461    82.679258 
   26000    203.61921   -107.80277   0.18423894   -107.61853    1307.5845    4.3540941    4.3540941    4.3540941    1307.5845   -7068.6057    6867.6296    4123.7296   -315.90293    924.88499   -1382.4989    82.545505 
   26100    221.97099   -107.81999   0.20084402   -107.61914   -1268.5926    4.3553821    4.3553821    4.3553821   -1268.5926   -7725.4049    9710.6467   -5791.0197   -2401.9958   -982.55649   -145.54218    82.618783 
   26200    171.17615   -107.77476   0.15488378   -107.61987    410.66293    4.3555287    4.3555287    4.3555287    410.66293   -2530.1568     1211.348    2550.7976    -633.1758   -490.03997   -1900.1251    82.627123 
   26300    206.35973   -107.80643   0.18671862   -107.61971    283.86002    4.3540179    4.3540179    4.3540179    283.86002   -2583.0408      9851.35   -6416.7292    522.03442    615.60337   -454.03016    82.541171 
   26400    171.65995   -107.77523   0.15532153   -107.61991    806.00209    4.3562882    4.3562882    4.3562882    806.00209   -3929.9264    2792.3692    3555.5635    1597.2058   -1200.9988    -108.6356    82.670355 
   26500    232.19912   -107.82934   0.21009864   -107.61924   -1803.4813    4.3540532    4.3540532    4.3540532   -1803.4813   -6911.1292    7194.4047   -5693.7193   -156.96964    608.83972    58.480258    82.543178 
   26600     173.8568   -107.77687   0.15730929   -107.61956    1384.9732    4.3552195    4.3552195    4.3552195    1384.9732    -8771.427    7094.7002    5831.6466   -1564.9957    -1322.849    1132.0522    82.609527 
   26700    257.78793   -107.85217   0.23325194   -107.61892   -4838.2177    4.3563481    4.3563481    4.3563481   -4838.2177   -10333.667    845.10685   -5026.0927    822.76354    381.81286     388.5771    82.673769 
   26800     147.9437   -107.75319   0.13386257   -107.61933    2898.7122    4.3535542    4.3535542    4.3535542    2898.7122   -5488.5635    12431.737    1752.9627   -776.33264    719.97945   -378.08432    82.514803 
   26900    239.31999   -107.83485   0.21654176   -107.61831   -3567.7216     4.356771     4.356771     4.356771   -3567.7216   -5865.8807   -3842.1094   -995.17463   -338.49654   -691.41965    715.17632    82.697844 
   27000    152.97332   -107.75741   0.13841348     -107.619    1707.3742    4.3537323    4.3537323    4.3537323    1707.3742   -2890.7056    13104.534   -5091.7057    1256.8314   -379.73835    -1132.714    82.524928 
   27100    209.29597    -107.8085   0.18937539   -107.61912   -1925.6368    4.3562002    4.3562002    4.3562002   -1925.6368   -8650.4003   -4822.5241    7696.0141   -2335.5858   -1697.8316   -402.40273    82.665349 
   27200    196.98357   -107.79775   0.17823487   -107.61952    1699.8223    4.3541745    4.3541745    4.3541745    1699.8223   -5111.6548    14683.113   -4471.9911    305.48591    -1142.262   -1575.1986     82.55008 
   27300    200.95422   -107.80134    0.1818276   -107.61951   -510.61491    4.3551501    4.3551501    4.3551501   -510.61491   -12029.007     3213.483    7283.6794   -952.35577    9.8707741   -1506.6503    82.605581 
   27400    231.43524    -107.8281   0.20940747   -107.61869   -2525.6936     4.356672     4.356672     4.356672   -2525.6936   -7674.8984    5455.0671   -5357.2496    776.76487   -489.36145    434.83601    82.692211 
   27500    163.72609   -107.76687    0.1481428   -107.61873    3379.7521    4.3525813    4.3525813    4.3525813    3379.7521   -6391.5601    14200.972    2329.8446    92.596969    147.73304   -1218.0905    82.459496 
   27600    246.14151   -107.84102   0.22271401   -107.61831   -4683.9998    4.3574957    4.3574957    4.3574957   -4683.9998   -5800.2886   -6047.6261   -2204.0849   -488.20323   -654.35334    1231.4047    82.739122 
   27700    122.17501   -107.72995   0.11054651   -107.61941    6871.3823    4.3536955    4.3536955    4.3536955    6871.3823   -3899.8397    23464.715    1049.2717    101.28981   -954.42129   -313.89494    82.522839 
   27800    263.00048   -107.85693   0.23796836   -107.61896   -2898.7933     4.354401     4.354401     4.354401   -2898.7933   -5497.4147   -5543.4151      2344.45   -192.96399   -1065.5107    185.35122    82.562959 
   27900    133.95334   -107.74075   0.12120379   -107.61954     2748.387    4.3574442    4.3574442    4.3574442     2748.387   -9816.3729    18933.979   -872.44469    51.993572   -708.17307    -205.3143    82.736189 
   28000     267.2928   -107.86041   0.24185214   -107.61855   -959.03423    4.3517616    4.3517616    4.3517616   -959.03423   -6840.4858    2394.1342    1569.2489    2.6407875    737.06707    1043.6541    82.412915 
   28100    186.25755   -107.78762   0.16852974   -107.61909   -2071.0673    4.3580149    4.3580149    4.3580149   -2071.0673   -10150.066    7726.3692   -3789.5054    235.14988   -1008.8246   -1900.4696      82.7687 
   28200    187.45384   -107.78915   0.16961217   -107.61954    1824.7169    4.3539375    4.3539375    4.3539375    1824.7169   -4564.0433      8901.11     1137.084   -1642.2387    185.10774    29.134201    82.536599 
   28300    233.27608   -107.83065    0.2110731   -107.61957   -1275.2783    4.3537322    4.3537322    4.3537322   -1275.2783   -3790.2663    2001.3833   -2036.9519    568.77852   -2713.5051   -1217.8865    82.524926 
   28400    106.76596   -107.71703  0.096604081   -107.62042    2994.7904    4.3581027    4.3581027    4.3581027    2994.7904   -5208.7935    14993.047   -799.88179    1441.5306    1032.6067   -408.31077    82.773703 
   28500    290.75664   -107.88227   0.26308271   -107.61919   -1830.1636    4.3512724    4.3512724    4.3512724   -1830.1636    -4897.514    -606.5835    13.606645   -270.58245   -318.93131    384.11945    82.385125 
   28600    127.19608   -107.73463   0.11508968   -107.61954     1775.043    4.3580715    4.3580715    4.3580715     1775.043   -9605.9736    17814.463   -2883.3602    1373.6877   -210.11061   -1087.7648    82.771926 
   28700    270.47361   -107.86306    0.2447302   -107.61833   -4895.9205    4.3546892    4.3546892    4.3546892   -4895.9205   -8204.4655   -5982.4967   -500.79928     -586.395    2561.4853    368.24442    82.579358 
   28800    156.02228   -107.75986   0.14117224   -107.61868    2792.5173    4.3531362    4.3531362    4.3531362    2792.5173   -8080.0553    16171.902    285.70513   -547.92162   -2498.1741   -22.411839    82.491036 
   28900    226.49637   -107.82334   0.20493868    -107.6184   -5613.7557    4.3592752    4.3592752    4.3592752   -5613.7557   -9105.5943   -3935.3977    -3800.275    1680.8372    1799.5465    766.96996    82.840526 
   29000    163.62591   -107.76663   0.14805216   -107.61858    4406.7975    4.3510312    4.3510312    4.3510312    4406.7975   -1310.6025    10618.644    3912.3509   -1768.8358   -1344.0113   -877.65092    82.371427 
   29100    213.62779   -107.81136   0.19329491   -107.61806   -3540.5603    4.3578829    4.3578829    4.3578829   -3540.5603   -8351.2474    3128.2459   -5398.6794     1311.087   -712.07611    1367.9021    82.761181 
   29200    206.76174   -107.80519   0.18708237    -107.6181   -1925.5139     4.355801     4.355801     4.355801   -1925.5139   -5163.0494    -2412.947    1799.4548   -2101.1454    1671.7041   -2715.2436    82.642621 
   29300    175.28127   -107.77768   0.15859818   -107.61908    3456.8228    4.3518041    4.3518041    4.3518041    3456.8228   -7682.8071    14403.842    3649.4331    -801.5315   -1101.6666    1133.0792    82.415332 
   29400    260.96263   -107.85565   0.23612447   -107.61952   -7557.0887    4.3592405    4.3592405    4.3592405   -7557.0887   -12123.449   -8965.1508   -1582.6667    153.37014     633.9008   -314.23042    82.838551 
   29500      127.121   -107.73554   0.11502175   -107.62052     5165.736    4.3523917    4.3523917    4.3523917     5165.736   -5420.5811    17483.329    3434.4601   -1120.2781   -1838.3457   -611.05683    82.448723 
   29600    266.79896   -107.86044   0.24140531   -107.61903   -5259.1171    4.3560175    4.3560175    4.3560175   -5259.1171   -8790.9353   -6945.5099   -40.906044    1223.8382   -205.27646   -461.33169    82.654948 
   29700    138.09625   -107.74384   0.12495238   -107.61889     2460.742    4.3563315    4.3563315    4.3563315     2460.742   -3205.5761     11557.94   -970.13818   -1090.4404    703.39853   -628.86725     82.67282 
   29800    237.45783   -107.83306   0.21485683   -107.61821    625.76162    4.3526791    4.3526791    4.3526791    625.76162   -6606.4832   -396.66466    8880.4327    258.61774     334.5936    439.81397    82.465056 
   29900     162.3271   -107.76577   0.14687697    -107.6189    266.89303    4.3574096    4.3574096    4.3574096    266.89303   -6721.8743    8004.7164   -482.16301   -1163.6038    481.63293      1276.01    82.734214 
   30000    213.45996   -107.81211   0.19314305   -107.61897    191.38688    4.3539756    4.3539756    4.3539756    191.38688   -8221.8684    3868.6463    4927.3827    405.33243   -898.01709    887.30792    82.538764 
   30100    222.47898   -107.82008   0.20130366   -107.61877   -1492.8054    4.3549834    4.3549834    4.3549834   -1492.8054   -8441.6681    1031.3801    2931.8717    289.21142   -238.34164   -166.97941    82.596094 
   30200    180.64752   -107.78261   0.16345367   -107.61915    19.213585    4.3562471    4.3562471    4.3562471    19.213585   -7933.0926    11257.253   -3266.5195   -1315.4366   -1693.4128    1116.7712    82.668017 
   30300    232.90113   -107.82956   0.21073383   -107.61883    320.02146    4.3537991    4.3537991    4.3537991    320.02146   -6190.8306   -2005.8318    9156.7268   -1017.3538    449.95356   -1006.6106    82.528731 
   30400    129.44403   -107.73702   0.11712367   -107.61989    3375.2836    4.3557043    4.3557043    4.3557043    3375.2836   -6568.0169    19456.722   -2762.8538   -2471.1711   -495.60486    1410.8989    82.637119 
   30500     243.0265   -107.83922   0.21989549   -107.61932    -1481.065    4.3550727    4.3550727    4.3550727    -1481.065   -4284.1847    -7244.507    7085.4966   -563.82774   -18.564143   -1470.7562    82.601178 
   30600    167.29804   -107.77097   0.15137478    -107.6196     2320.085    4.3545342    4.3545342    4.3545342     2320.085   -7853.5798    16493.238   -1679.4033   -566.75604   -326.79094   -114.01899    82.570537 
   30700    241.77937    -107.8375   0.21876706   -107.61874   -3840.3946     4.356113     4.356113     4.356113   -3840.3946    -7543.027   -3033.8618   -944.29504   -698.53358   -3563.4948   -1814.5488    82.660383 
   30800    191.30497   -107.79131   0.17309676   -107.61822     1169.664    4.3547831    4.3547831    4.3547831     1169.664   -8282.8279    9784.8592    2006.9607    1059.9349    231.04712     618.4316    82.584697 
   30900    177.23278   -107.77919   0.16036394   -107.61882   -560.20201     4.355354     4.355354     4.355354   -560.20201   -6246.1729    4593.6345   -28.067666   -2208.3436   -1750.3217    461.73095    82.617184 
   31000    225.66749   -107.82309   0.20418868    -107.6189   -1065.2126     4.355523     4.355523     4.355523   -1065.2126   -6201.4088    1391.9638    1613.8073    1422.8041    666.37948    550.22734    82.626802 
   31100    169.55787    -107.7734   0.15341952   -107.61998    2422.9553    4.3540295    4.3540295    4.3540295    2422.9553   -3197.9025    10228.023    238.74573    -546.8575   -1285.8434   -576.36397    82.541831 
   31200    231.00557   -107.82877   0.20901869   -107.61975   -4771.1988    4.3564616    4.3564616    4.3564616   -4771.1988   -8493.8196   -2959.3922   -2860.3848    970.52753   -2890.1986    1453.7615    82.680231 
   31300    177.04868   -107.77944   0.16019737   -107.61924    1888.0436    4.3546513    4.3546513    4.3546513    1888.0436   -6109.9518    12901.906   -1127.8236    989.55189    850.03078   -194.33722    82.577202 
   31400    212.96626   -107.81133   0.19269635   -107.61863   -2950.2407    4.3550819    4.3550819    4.3550819   -2950.2407   -8504.2942   -3612.9464    3266.5185   -1595.6539   -2840.0314   -738.16196    82.601697 
   31500    180.09058   -107.78164   0.16294974   -107.61869   -59.003099    4.3559431    4.3559431    4.3559431   -59.003099   -6913.4831    10441.421   -3704.9471    1090.7391    1069.5285    1180.1187    82.650714 
   31600    250.04454   -107.84464   0.22624555   -107.61839    -2148.965    4.3544307    4.3544307    4.3544307    -2148.965   -7386.7973   -3654.1677    4594.0701   -2572.7219    1.0745484   -3245.7454     82.56465 
   31700    131.40206   -107.73863   0.11889535   -107.61973    1523.7717    4.3556097    4.3556097    4.3556097    1523.7717   -2508.3342    11325.531   -4245.8818     1894.333   -2312.0944    358.15967    82.631735 
   31800    257.94609   -107.85232   0.23339504   -107.61893   -2430.7134    4.3551434    4.3551434    4.3551434   -2430.7134   -9567.9493   -615.51415    2891.3233   -862.43349    -129.7725   -1277.3784    82.605197 
   31900    144.55579   -107.74994   0.13079711   -107.61914    2553.7671    4.3548101    4.3548101    4.3548101    2553.7671   -1463.5026     6671.213     2453.591    458.90608   -2661.0682    1250.6276    82.586232 
   32000    227.19262   -107.82424   0.20556866   -107.61867    -3294.381    4.3558099    4.3558099    4.3558099    -3294.381   -11720.281    1772.5398    64.597627   -249.60067   -1185.8249   -663.71747    82.643127 
   32100    222.57472    -107.8198   0.20139028   -107.61841    -145.8692    4.3544217    4.3544217    4.3544217    -145.8692   -3699.4152    841.09384    2420.7138   -90.075827    468.76616    1113.1833    82.564137 
   32200    176.44806   -107.77961   0.15965392   -107.61996    -850.6297    4.3559466    4.3559466    4.3559466    -850.6297   -8281.0869    7281.7156   -1552.5179    1359.4226   -419.61103   -140.62053    82.650912 
   32300    230.73311   -107.82863   0.20877217   -107.61986   -651.22673    4.3544885    4.3544885    4.3544885   -651.22673   -5400.9102   -1223.6484    4670.8785    331.00269    -1193.428     2788.813     82.56794 
   32400    166.83454   -107.77095    0.1509554      -107.62    2801.2613    4.3551094    4.3551094    4.3551094    2801.2613   -3525.9943    10287.145    1642.6336    1363.2217   -507.86157   -48.494436    82.603264 
   32500    191.28638   -107.79262   0.17307994   -107.61954   -1119.3546    4.3556782    4.3556782    4.3556782   -1119.3546     -8823.44   -3140.0109     8605.387   -38.815589   -564.39259    447.41054    82.635631 
   32600    216.48208   -107.81422   0.19587753   -107.61834     298.5983    4.3540834    4.3540834    4.3540834     298.5983   -5083.9666    9280.5518   -3300.7903    532.67659   -161.81369    308.99361    82.544896 
   32700    215.35437   -107.81307   0.19485716   -107.61822    -2624.445     4.356914     4.356914     4.356914    -2624.445   -7759.9813   -4039.1678    3925.8141   -363.74168    2221.1458   -2323.1325    82.705989 
   32800    192.67193   -107.79263   0.17433361    -107.6183    901.81881    4.3538766    4.3538766    4.3538766    901.81881   -7100.1925    9460.6763    344.97262    -614.0271   -2111.3344    1148.4981    82.533138 
   32900    225.36873   -107.82214   0.20391836   -107.61823   -655.87878    4.3557129    4.3557129    4.3557129   -655.87878   -3737.3969     682.9316     1086.829    937.59488    1049.7892   -1862.6246    82.637608 
   33000     139.2497   -107.74503   0.12599606   -107.61904    2250.5306    4.3558551    4.3558551    4.3558551    2250.5306    -6474.725    4915.3547    8310.9622   -116.69984   -1092.8514    2213.1667    82.645699 
   33100     246.2169   -107.84153   0.22278223   -107.61875   -1335.2286     4.353375     4.353375     4.353375   -1335.2286   -5732.5347    6310.9103   -4584.0615   -514.94894   -1961.1235   -1733.3213    82.504613 
   33200    185.15794   -107.78683   0.16753479   -107.61929    244.95749    4.3566351    4.3566351    4.3566351    244.95749    -4669.896    147.93405    5256.8344    598.85272    2685.7269    1604.3082    82.690105 
   33300    225.40243   -107.82395   0.20394886      -107.62   -2599.6646    4.3546758    4.3546758    4.3546758   -2599.6646   -10618.565    8769.2035   -5949.6323   -1208.1433   -2149.7533     141.2092    82.578594 
   33400    193.36143   -107.79498   0.17495749   -107.62002    995.88026    4.3544114    4.3544114    4.3544114    995.88026   -3910.1207    1963.4079    4934.3536    2369.2858    2088.0022    2343.7183    82.563554 
   33500     171.4621   -107.77477   0.15514251   -107.61963    439.58803    4.3570676    4.3570676    4.3570676    439.58803    -5496.144    6660.2585    154.64963   -982.00841   -1925.3783    233.49162    82.714735 
   33600    219.89415   -107.81754   0.19896485   -107.61857   -24.347486    4.3525293    4.3525293    4.3525293   -24.347486   -4804.6894    2981.5409    1750.1061    1473.7613   -1512.0088     291.2621    82.456538 
   33700    180.88224    -107.7817   0.16366606   -107.61804    290.20226     4.357567     4.357567     4.357567    290.20226    -2641.016    6180.5434   -2668.9206   -547.11031    1468.6111   -616.96935    82.743184 
   33800    249.01162   -107.84368   0.22531094   -107.61837   -3610.1634    4.3544462    4.3544462    4.3544462   -3610.1634   -9873.6674   -78.637555   -878.18542   -621.65456   -568.42024   -1154.6485     82.56553 
   33900    135.68345   -107.74219   0.12276923   -107.61942    3021.8328    4.3540981    4.3540981    4.3540981    3021.8328    -3558.996    9531.3012    3093.1931     1141.703    1181.3168    831.56186    82.545732 
   34000    271.82721   -107.86453   0.24595497   -107.61857   -5826.9652    4.3580964    4.3580964    4.3580964   -5826.9652     -10162.3    -6333.328   -985.26746   -1260.7081   -1946.4032   -2305.9343    82.773346 
   34100    117.97919   -107.72612   0.10675005   -107.61937    5738.2242    4.3516739    4.3516739    4.3516739    5738.2242   -2124.3272     12771.81    6567.1896    1042.2413   -20.353315    69.863766    82.407932 
   34200    278.62295   -107.87028    0.2521039   -107.61817   -6560.6328    4.3581769    4.3581769    4.3581769   -6560.6328   -4296.3593   -6151.6881    -9233.851   -2217.1231   -1074.2517   -1328.3543     82.77793 
   34300    145.70845    -107.7508   0.13184007   -107.61896    3876.3439    4.3543999    4.3543999    4.3543999    3876.3439   -7846.6906    10863.098    8612.6244    406.80101    608.36692    570.03471    82.562899 
   34400    222.67634   -107.82071   0.20148223   -107.61923   -1337.2047    4.3534066    4.3534066    4.3534066   -1337.2047    60.315694    147.79817   -4219.7279   -1348.9258    261.91588    137.76076     82.50641 
   34500    192.21758   -107.79335   0.17392251   -107.61943   -1071.8499    4.3583333    4.3583333    4.3583333   -1071.8499   -13715.671     2207.017    8293.1039    563.79886   -292.46422    1761.3908    82.786845 
   34600    195.25438   -107.79584   0.17667027   -107.61917    1940.1055    4.3519658    4.3519658    4.3519658    1940.1055   -704.15795    4481.2896    2043.1849    35.863193   -872.10782   -391.23336    82.424518 
   34700    218.85806   -107.81631   0.19802737   -107.61829   -3513.6437    4.3574071    4.3574071    4.3574071   -3513.6437   -8162.7881   -1744.8543   -633.28875   -828.23531   -1535.9943    1244.5143    82.734077 
   34800    178.80727   -107.77946   0.16178857   -107.61768    2321.2149    4.3554936    4.3554936    4.3554936    2321.2149   -3936.7478    7116.7612    3783.6314    1044.6032    1135.7918   -112.86917    82.625128 
   34900    229.48616   -107.82534    0.2076439   -107.61769    24.549271    4.3527665    4.3527665    4.3527665    24.549271   -1945.8654   -2202.5086    4222.0218    -1885.163   -744.82072    479.01668     82.47002 
   35000    133.92948   -107.74034   0.12118221   -107.61915    2013.1015      4.35797      4.35797      4.35797    2013.1015   -8012.0802    8699.2266     5352.158    127.83559    1426.6291    580.02253    82.766143 
   35100    293.33971   -107.88473   0.26541994   -107.61931   -2980.8236    4.3531255    4.3531255    4.3531255   -2980.8236   -6098.0754   -5978.9047    3134.5092   -19.809137     -851.337   -1442.5248    82.490432 
   35200    104.04396   -107.71469  0.094141158   -107.62054    4149.8551    4.3556464    4.3556464    4.3556464    4149.8551   -5300.3584     12012.38    5737.5436   -1449.7876   -2267.7003   -508.79142    82.633826 
   35300    329.67335   -107.91702   0.29829538   -107.61873   -8273.1091    4.3566902    4.3566902    4.3566902   -8273.1091   -11014.467   -8391.6719   -5413.1881     286.6845    1695.8351   -1044.2897    82.693245 
   35400    63.456592   -107.67726  0.057416858   -107.61984     10135.25    4.3525223    4.3525223    4.3525223     10135.25    1636.9441    12767.827    16000.979   -2842.2314   -1791.2326    989.59612    82.456145 
   35500    281.73086   -107.87325     0.254916   -107.61834   -7842.9067    4.3577381    4.3577381    4.3577381   -7842.9067   -11744.052    -6347.206   -5437.4626     38.32935    1371.0376   -512.24917    82.752927 
   35600    136.99948   -107.74276   0.12396001    -107.6188    5584.9949    4.3537159    4.3537159    4.3537159    5584.9949   -511.39789    7329.6175    9936.7652   -1159.8319   -469.70166    1026.1029    82.523998 
   35700    238.08119   -107.83355   0.21542086   -107.61813   -3555.5792    4.3554971    4.3554971    4.3554971   -3555.5792   -8328.4773    493.07404   -2831.3344   -1099.2061   -1900.3485    178.71953    82.625325 
   35800    223.28665   -107.81982   0.20203446   -107.61778   -3496.7016    4.3568188    4.3568188    4.3568188   -3496.7016   -9731.9779    2221.0241    -2979.151    1069.7194    99.885534    459.51972    82.700566 
   35900     149.3135   -107.75284   0.13510199   -107.61773    4991.8692     4.353273     4.353273     4.353273    4991.8692   -1946.5406    7299.8417    9622.3065   -2902.1726   -801.80315    1874.2428    82.498813 
   36000    235.02026   -107.83014   0.21265127   -107.61749   -5594.7126    4.3571157    4.3571157    4.3571157   -5594.7126   -10858.182   -2922.1501   -3003.8056    1029.2191    1521.2544    632.97122    82.717476 
   36100     146.5357    -107.7512   0.13258858   -107.61861    3278.5895    4.3548962    4.3548962    4.3548962    3278.5895   -4115.6815    7608.4263    6343.0236   -1780.8243    461.65837    530.63119    82.591131 
   36200    249.91872   -107.84539   0.22613171   -107.61926   -2783.1144    4.3538437    4.3538437    4.3538437   -2783.1144   -3379.3962   -3429.2817   -1540.6652   -430.39616    207.39453   -1523.0387    82.531264 
   36300     174.7472   -107.77833   0.15811494   -107.62022     -2213.67    4.3572483    4.3572483    4.3572483     -2213.67   -12215.918    8172.6436   -2597.7357    893.00154   -2104.9582    237.55986    82.725027 
   36400    241.13654   -107.83693    0.2181854   -107.61874   -724.96205    4.3541301    4.3541301    4.3541301   -724.96205    -3005.711   -2210.3624    3041.1872   -2037.6936    718.51653   -1727.5194    82.547552 
   36500    143.59189   -107.74871   0.12992496   -107.61879    1682.4452    4.3553008    4.3553008    4.3553008    1682.4452   -9142.6631     8699.825    5490.1738    594.58697    -743.5214    353.36499    82.614155 
   36600    255.52529   -107.84887   0.23120465   -107.61767   -4580.3455    4.3566659    4.3566659    4.3566659   -4580.3455   -7148.0735   -2509.3738   -4083.5892   -2087.1143    852.35138   -1255.9014    82.691861 
   36700    147.82748   -107.75182   0.13375741   -107.61807    5170.0459    4.3532627    4.3532627    4.3532627    5170.0459   -395.98243    6993.9736    8912.1466    409.94083    806.69401   -485.49185    82.498229 
   36800    249.82981   -107.84376   0.22605127   -107.61771   -5844.1078    4.3571718    4.3571718    4.3571718   -5844.1078   -9994.1865   -1318.6659    -6219.471   -691.04987   -2692.7107    716.71627    82.720673 
   36900    147.50543   -107.75153   0.13346602   -107.61807    4807.1966    4.3544168    4.3544168    4.3544168    4807.1966   -1542.9307    6458.4442    9506.0765   -206.28346    1089.6316     664.9873    82.563859 
   37000    245.59175   -107.83989   0.22221657   -107.61767   -1911.0421    4.3545573    4.3545573    4.3545573   -1911.0421   -9900.1009   -189.32363    4356.2984   -120.44199   -1561.7688    754.41755    82.571855 
   37100    176.41488   -107.77812   0.15962389    -107.6185   -66.737281    4.3571237    4.3571237    4.3571237   -66.737281   -6976.6345    7252.6497   -476.22707   -1129.8031    1437.3602    757.54969    82.717929 
   37200    245.43894    -107.8402   0.22207831   -107.61812    834.77823    4.3530036    4.3530036    4.3530036    834.77823    -4104.236    190.02798    6418.5427    1196.3526    1933.0548    394.92185    82.483499 
   37300     182.3722   -107.78432    0.1650142   -107.61931    9.7662168    4.3566602    4.3566602    4.3566602    9.7662168   -5645.5753     7431.373    -1756.499   -881.02926   -1538.8364   -475.58859    82.691536 
   37400    184.74477   -107.78717   0.16716095   -107.62001    1530.2473    4.3546988    4.3546988    4.3546988    1530.2473   -1973.0187   -171.27566    6735.0364    1761.3821   -5.2368913    420.54486    82.579904 
   37500    216.40125   -107.81524    0.1958044   -107.61943    858.63494    4.3539352    4.3539352    4.3539352    858.63494   -5646.2961    4162.0396    4060.1613   -9.6094483   -1302.2485   -397.40823    82.536466 
   37600     171.8106   -107.77455   0.15545784   -107.61909   -39.562276      4.35726      4.35726      4.35726   -39.562276   -7771.6425    3082.7553    4570.2004   -268.75006    481.29205   -1482.5071    82.725694 
   37700    263.83986   -107.85639   0.23872785   -107.61766   -1937.5135    4.3533526    4.3533526    4.3533526   -1937.5135   -5445.9909    923.55053   -1290.1001    250.00584    1015.9679   -709.72784    82.503343 
   37800    158.32384   -107.76164   0.14325474   -107.61839    2003.7598    4.3567545    4.3567545    4.3567545    2003.7598    -7851.402    8739.5849    5123.0964   -534.25656   -310.80459    -525.8276    82.696906 
   37900    232.98606   -107.82936   0.21081068   -107.61855   -1874.1341    4.3546943    4.3546943    4.3546943   -1874.1341   -2153.6736   -3384.4745    -84.25431     1366.939   -489.29876    567.53246    82.579644 
   38000    137.25377   -107.74334    0.1241901   -107.61915    4483.3443    4.3540799    4.3540799    4.3540799    4483.3443   -5022.0577    12014.341    6457.7491   -172.17216   -551.08759   -438.88007    82.544696 
   38100    242.75409   -107.83816     0.219649   -107.61851   -5107.7802    4.3575916    4.3575916    4.3575916   -5107.7802   -5656.3397   -9385.9414   -281.05953   -608.88885    11.326265    1329.0418    82.744583 
   38200    166.68916   -107.76955   0.15082386   -107.61873    1606.0979    4.3527113    4.3527113    4.3527113    1606.0979   -8322.9406    13117.387    23.847112    2003.3234    373.65903   -297.77889    82.466887 
   38300    253.73973   -107.84803   0.22958904   -107.61844   -5272.4151    4.3574241    4.3574241    4.3574241   -5272.4151   -8892.2036   -7523.8421     598.8003   -1259.8187    1975.6999    1613.2904     82.73504 
   38400    168.18764   -107.77167   0.15217971   -107.61949    575.25085    4.3543805    4.3543805    4.3543805    575.25085   -9063.3728    9622.8648    1166.2606    2568.3598   -1802.9873    -238.5193    82.561796 
   38500    210.34447   -107.80988   0.19032409   -107.61955   -1250.1803     4.354887     4.354887     4.354887   -1250.1803   -5267.7588   -1552.6171    3069.8349    208.47416    340.91582    623.43827    82.590609 
   38600    182.26992   -107.78413   0.16492166   -107.61921   -549.86545    4.3570457    4.3570457    4.3570457   -549.86545   -4596.9208    2823.4191    123.90541    640.97672   -2175.3332   -804.31415    82.713493 
   38700    176.27962   -107.77794    0.1595015   -107.61844    779.14111    4.3527065    4.3527065    4.3527065    779.14111   -3106.9717    4124.3366    1320.0584    1161.6008    -257.1069   -495.43577     82.46661 
   38800     249.1578    -107.8426   0.22544322   -107.61715   -6091.0394    4.3584317    4.3584317    4.3584317   -6091.0394   -9515.1612   -4374.8754   -4383.0816   -1000.1715    2614.2416   -873.51518    82.792448 
   38900    129.01156   -107.73465   0.11673237   -107.61792    4009.5819    4.3535449    4.3535449    4.3535449    4009.5819   -6440.7895    8696.3679    9773.1674    2048.5618   -2268.9667   -34.871188    82.514275 
   39000    303.83685   -107.89298   0.27491796   -107.61806   -7315.8694    4.3551262    4.3551262    4.3551262   -7315.8694   -11660.793   -6047.9289   -4238.8866   -1397.6031    1428.5286   -470.02281    82.604221 
   39100    96.732172    -107.7082  0.087525302   -107.62068    4756.1647    4.3572939    4.3572939    4.3572939    4756.1647   -5630.7163    10210.302    9688.9081    1383.8834   -2140.1022   -401.00969    82.727624 
   39200    293.33369   -107.88517   0.26541449   -107.61975   -3269.2756    4.3519609    4.3519609    4.3519609   -3269.2756   -3021.6176    -4006.972   -2779.2371   -1030.8801   -18.544098     1145.976     82.42424 
   39300    107.90523   -107.71824  0.097634917   -107.62061    3898.1542    4.3578057    4.3578057    4.3578057    3898.1542   -4495.6148    8870.3859    7319.6915    218.21386    562.15014   -511.09647    82.756783 
   39400    253.61136   -107.84833   0.22947289   -107.61885   -1765.8019    4.3540073    4.3540073    4.3540073   -1765.8019    -5009.706   -3806.4357     3518.736    229.31652   -412.41909    1903.4637    82.540567 
   39500    165.43327   -107.76853    0.1496875   -107.61885    2526.2688    4.3543842    4.3543842    4.3543842    2526.2688   -6093.8118     7801.753    5870.8651    28.474316    947.12421   -182.41288    82.562006 
   39600    245.41885    -107.8402   0.22206013   -107.61814   -4094.0209    4.3578763    4.3578763    4.3578763   -4094.0209   -12540.406    -2945.229    3203.5723    1457.6105   -908.50036    665.05847    82.760805 
   39700    201.14388    -107.8002   0.18199921   -107.61821    3282.1482    4.3519807    4.3519807    4.3519807    3282.1482   -1851.2205    8303.0265    3394.6388   -575.44577   -575.70455    369.44276    82.425367 
   39800    193.51259    -107.7937   0.17509426   -107.61861   -831.88488     4.357854     4.357854     4.357854   -831.88488   -8975.8626    333.58297     6146.625    1400.1595    39.789951   -314.88037    82.759532 
   39900    195.97045   -107.79546   0.17731818   -107.61814    2379.4036    4.3543097    4.3543097    4.3543097    2379.4036     1251.383    4369.0214    1517.8063    -239.8522     1819.693    4.0469801    82.557766 
   40000    170.26523   -107.77264   0.15405956   -107.61858    4307.7549    4.3536887    4.3536887    4.3536887    4307.7549   -2989.9045    4466.1505    11447.019    788.27555   -23.541506   -627.19161    82.522451 
   40100    238.43353   -107.83484   0.21573967    -107.6191   -4454.4961    4.3577883    4.3577883    4.3577883   -4454.4961   -7940.8855    1246.9447   -6669.5474     1133.286    819.94436   -584.77285    82.755788 
   40200    173.14335    -107.7771   0.15666374   -107.62044    4034.7283    4.3524107    4.3524107    4.3524107    4034.7283   -5157.5691    5772.1341     11489.62   -810.03337   -1027.6953   -28.872849    82.449799 
   40300    262.46591   -107.85765   0.23748467   -107.62016    -5545.931    4.3570253    4.3570253    4.3570253    -5545.931   -12004.397    235.28548   -4868.6816    17.873011    167.20474    1524.4966    82.712329 
   40400    137.91751   -107.74534   0.12479066   -107.62055    3311.1332    4.3546746    4.3546746    4.3546746    3311.1332   -2176.5236    4810.5362     7299.387    -951.2143    2527.3161   -2036.5556    82.578527 
   40500    255.44624   -107.84996   0.23113312   -107.61882   -1764.6762    4.3547091    4.3547091    4.3547091   -1764.6762   -5653.4421    54.823575    304.58987   -89.130367   -90.194967    2747.0315    82.580488 
   40600    125.28563   -107.73234   0.11336107   -107.61898    1841.2953    4.3563453    4.3563453    4.3563453    1841.2953   -39.134879    4833.8784     729.1422    1196.5999    2496.4439   -2133.6165    82.673609 
   40700    247.82026   -107.84216   0.22423298   -107.61793   -2037.5405    4.3543522    4.3543522    4.3543522   -2037.5405   -5421.7005   -1511.7385    820.81751   -938.37579    526.29465    1904.3587    82.560186 
   40800    171.99297   -107.77381   0.15562286   -107.61818    600.08925    4.3556202    4.3556202    4.3556202    600.08925   -5395.3339    7400.2333   -204.63169     1162.206   -859.48262    112.68409    82.632334 
   40900    234.66269    -107.8301   0.21232773   -107.61777   -4624.9259    4.3561122    4.3561122    4.3561122   -4624.9259   -9938.9491   -6803.9321    2868.1035    -381.4284    1499.9358    -838.5402    82.660338 
   41000      191.599   -107.79121   0.17336281   -107.61784    1746.7686    4.3542879    4.3542879    4.3542879    1746.7686   -6161.6688    11921.481   -519.50626     115.6219   -318.58946     1179.938     82.55653 
   41100    206.41965   -107.80532   0.18677284   -107.61855   -3137.2039    4.3562385    4.3562385    4.3562385   -3137.2039   -6595.4711    -8479.301    5663.1603    991.52775    1618.4079   -1200.5522    82.667525 
   41200    188.28743   -107.78956   0.17036642   -107.61919    950.41389    4.3550278    4.3550278    4.3550278    950.41389   -1313.3883    10016.769    -5852.139   -295.77492    379.70987    -102.3833    82.598623 
   41300    180.16272   -107.78303   0.16301502   -107.62001    2690.8986    4.3539408    4.3539408    4.3539408    2690.8986   -1931.8645   -3386.8416    13391.402    1482.3868   -2133.2648    29.284313    82.536787 
   41400    200.50933   -107.80156   0.18142505   -107.62013   -2265.6002     4.356574     4.356574     4.356574   -2265.6002   -4941.2162    2805.0851   -4660.6694   -1086.6951    199.31576    643.21326    82.686629 
   41500    199.19031   -107.79941   0.18023158   -107.61917    1738.5807    4.3548083    4.3548083    4.3548083    1738.5807   -8699.6466    1317.5088     12597.88   -13.313113    846.93588   -1904.4138     82.58613 
   41600    230.12514   -107.82639   0.20822206   -107.61817   -1950.7826    4.3548257    4.3548257    4.3548257   -1950.7826   -4986.4361   -723.54115   -142.37053   -900.36249    864.92881    1549.9156    82.587121 
   41700    185.17151    -107.7855   0.16754707   -107.61795    125.99464    4.3567958    4.3567958    4.3567958    125.99464   -9821.1984    4991.1144     5208.068    171.25431    1557.7416   -1133.2838    82.699257 
   41800    216.15242   -107.81301   0.19557925   -107.61743     1996.625    4.3535494    4.3535494    4.3535494     1996.625    886.27853   -3842.7029    8946.2994    346.34984   -544.95982      1447.44    82.514529 
   41900    156.38164   -107.76007    0.1414974   -107.61857    1563.1916    4.3559464    4.3559464    4.3559464    1563.1916   -4783.2744    7859.9173    1612.9319   -1709.5412    -559.2456    123.92925    82.650901 
   42000    211.56508   -107.80994   0.19142853   -107.61851    556.28306    4.3555871    4.3555871    4.3555871    556.28306   -3964.9878   -6516.9408    12150.778      385.003     906.7763    114.11583    82.630446 
   42100    204.91332   -107.80397   0.18540988   -107.61856    1276.6915    4.3534312    4.3534312    4.3534312    1276.6915    -5350.245    10682.013   -1501.6934   -1697.4975   -1227.9124    1135.6325    82.507812 
   42200    190.81874   -107.79136    0.1726568    -107.6187   -1462.7055    4.3577002    4.3577002    4.3577002   -1462.7055   -10542.336   -6270.7713    12424.991    954.30749    865.25453   -439.16709    82.750768 
   42300     251.0464   -107.84551   0.22715205   -107.61836    -739.0878      4.35316      4.35316      4.35316    -739.0878   -7918.6692    8605.7541   -2904.3484    359.32761     449.4521    1267.0438     82.49239 
   42400    154.83758   -107.75968   0.14010029   -107.61958    1111.3834    4.3560566    4.3560566    4.3560566    1111.3834   -6163.8675    -4232.315    13730.333    205.98163   -1491.3868    47.890442     82.65717 
   42500    218.42361   -107.81694   0.19763427   -107.61931   -2147.8841    4.3561297    4.3561297    4.3561297   -2147.8841   -5978.2117    4145.7315   -4611.1722    669.21302   -166.79861    56.136074    82.661333 
   42600    170.22621   -107.77285   0.15402425   -107.61883    2720.5317    4.3532763    4.3532763    4.3532763    2720.5317   -1013.5443    1952.4348    7222.7046   -1755.4425    338.85984   -825.62539    82.499005 
   42700    192.63411   -107.79231   0.17429939   -107.61801   -2132.5483    4.3575454    4.3575454    4.3575454   -2132.5483   -6281.5798     677.1524   -793.21747    -42.39757    136.02816    1247.0058     82.74195 
   42800    215.55254   -107.81263   0.19503647   -107.61759   -532.42029    4.3541058    4.3541058    4.3541058   -532.42029   -6453.4919    3330.8074    1525.4236   -339.24158    2169.5623   -1118.6834    82.546172 
   42900    200.15265   -107.79943   0.18110233   -107.61833   -791.61879     4.355356     4.355356     4.355356   -791.61879   -8369.9306   -988.35969    6983.4339   -1089.3032   -819.30802    1677.2511    82.617295 
   43000    229.53948   -107.82713   0.20769214   -107.61944   -3686.9872    4.3565973    4.3565973    4.3565973   -3686.9872   -9203.6718    1591.8974   -3449.1872    1381.5055    352.53858    -1226.542    82.687954 
   43100    185.60419   -107.78767   0.16793857   -107.61973    1561.0223    4.3531539    4.3531539    4.3531539    1561.0223   -5500.9275    2803.7512    7380.2431   -2921.3863    686.75345    1972.1852    82.492044 
   43200    204.22119    -107.8047   0.18478362   -107.61992   -2463.4284    4.3572843    4.3572843    4.3572843   -2463.4284   -2266.7717   -366.30364     -4757.21    566.56771    24.106088     804.1624     82.72708 
   43300    161.99741   -107.76599   0.14657866   -107.61942    2511.6602     4.353827     4.353827     4.353827    2511.6602   -4162.8224    3257.2668     8440.536   -1247.2944    967.72319    42.772618    82.530318 
   43400    218.41455     -107.816   0.19762608   -107.61837    -832.3786    4.3555722    4.3555722    4.3555722    -832.3786   -396.32913    652.64374   -2753.4504   -514.05769    625.59582    1565.2289    82.629601 
   43500    201.95612   -107.80111   0.18273414   -107.61838   -862.25753    4.3559763    4.3559763    4.3559763   -862.25753   -9300.3957   -2093.3602    8806.9832    2137.8935    1236.2187   -239.26994    82.652603 
   43600    205.99513   -107.80448   0.18638873   -107.61809     821.1378    4.3543558    4.3543558    4.3543558     821.1378   -4785.1164    7319.8126   -71.282849   -1374.5617   -590.92272   -167.30909    82.560391 
   43700    238.86927   -107.83403   0.21613393   -107.61789   -2426.3565    4.3563269    4.3563269    4.3563269   -2426.3565   -6455.5613   -6392.0252     5568.517    1875.8472     551.3498   -474.15518     82.67256 
   43800    134.24401   -107.73969    0.1214668   -107.61822    4019.8583    4.3544868    4.3544868    4.3544868    4019.8583   -2879.3962    12195.042    2743.9292   -1262.1927    278.95079    715.69845    82.567844 
   43900    255.75509   -107.84932   0.23141258   -107.61791   -2062.3288    4.3556168    4.3556168    4.3556168   -2062.3288   -1309.4637   -8987.0837     4109.561    667.98857    1723.3209   -1458.4511    82.632137 
   44000    126.53307    -107.7341   0.11448978   -107.61961    5032.1277    4.3547311    4.3547311    4.3547311    5032.1277   -2398.6773    12425.923    5069.1376    1248.6742    356.25432     862.1502    82.581739 
   44100    263.84494   -107.85845   0.23873245   -107.61971   -2986.7695    4.3549718    4.3549718    4.3549718   -2986.7695   -5998.6372   -5993.5765    3031.9052   -132.01074   -935.96487   -587.17747    82.595436 
   44200    175.16838     -107.779   0.15849603    -107.6205    2518.2158    4.3556796    4.3556796    4.3556796    2518.2158   -6601.1873    8225.9547      5929.88    1142.9469   -230.51853    1821.7464    82.635712 
   44300    235.64038   -107.83288   0.21321237   -107.61967   -1835.1785    4.3545561    4.3545561    4.3545561   -1835.1785   -7424.3324    101.19033    1817.6066    -1234.989   -64.897038     1355.801    82.571786 
   44400    184.53229   -107.78566    0.1669687   -107.61869    1338.5229    4.3560499    4.3560499    4.3560499    1338.5229   -4764.5173    631.96897     8148.117    15.926337    997.11829    1041.9731    82.656792 
   44500    196.02922   -107.79532   0.17737136   -107.61795    742.21427     4.354819     4.354819     4.354819    742.21427   -1270.4774    5516.9718   -2019.8516    29.229469    479.03322    1172.9225    82.586743 
   44600    202.54347   -107.80124   0.18326559   -107.61798   -511.54165    4.3552552    4.3552552    4.3552552   -511.54165   -4172.8952   -3710.8206    6349.0909    857.89426    1110.9552    864.80882    82.611559 
   44700    159.82449   -107.76306   0.14461256   -107.61844    2958.7139    4.3553981    4.3553981    4.3553981    2958.7139   -2602.7387    11612.435   -133.55454    2024.2093   -164.45069    252.32043    82.619693 
   44800     254.9918    -107.8489   0.23072194   -107.61818   -3774.7298    4.3547387    4.3547387    4.3547387   -3774.7298   -9243.4768   -4910.4126       2829.7    225.69136    186.11543    545.35936    82.582173 
   44900    149.21847   -107.75366   0.13501601   -107.61865    1772.1267    4.3563372    4.3563372    4.3563372    1772.1267   -7015.0881    9249.8741    3081.5941    1299.9204     860.4888    179.66811    82.673147 
   45000    279.23552   -107.87045   0.25265816   -107.61779   -4243.5762    4.3543722    4.3543722    4.3543722   -4243.5762   -8641.4059   -3990.8745   -98.448309    514.01262    331.21203   -734.42261    82.561323 
   45100    147.26169    -107.7524   0.13324547   -107.61916    1272.1236    4.3555428    4.3555428    4.3555428    1272.1236    -3312.729    7383.5401   -254.44018    802.68762    1656.0903    620.96572    82.627929 
   45200    221.19771   -107.81932   0.20014434   -107.61918   -2017.7299    4.3559023    4.3559023    4.3559023   -2017.7299   -5959.6253    433.24194   -526.80651    2916.3807   -583.16977   -270.88299    82.648391 
   45300    165.93539    -107.7697   0.15014182   -107.61956    1771.1427    4.3542181    4.3542181    4.3542181    1771.1427   -571.57349    4399.6019    1485.3996   -123.77877   -1714.9734    2316.9336    82.552558 
   45400    199.72634   -107.79961   0.18071659   -107.61889   -2295.2412     4.356614     4.356614     4.356614   -2295.2412   -9267.8005    156.28641    2225.7904     1865.926   -293.39983    561.61364    82.688906 
   45500    204.95983   -107.80367   0.18545196   -107.61822   -404.13071    4.3546251    4.3546251    4.3546251   -404.13071   -3775.9049    636.37211    1927.1407   -800.86932   -491.54321    397.17063    82.575712 
   45600    230.29135   -107.82633   0.20837246   -107.61795   -4058.6311    4.3557967    4.3557967    4.3557967   -4058.6311   -11645.151    1473.7635   -2004.5062   -342.65219    375.32642    1132.0724     82.64238 
   45700    185.99305   -107.78647   0.16829042   -107.61818   -398.81068    4.3556245    4.3556245    4.3556245   -398.81068   -5786.6857    581.92323    4008.3304    2216.8135    844.68415    499.27008    82.632579 
   45800    222.40797   -107.81964   0.20123941    -107.6184   -1170.9886    4.3546736    4.3546736    4.3546736   -1170.9886   -4904.3201    3626.9481   -2235.5939   -2007.7329   -326.82826    789.59343    82.578467 
   45900    157.23018   -107.76118   0.14226517   -107.61892    589.95778    4.3559528    4.3559528    4.3559528    589.95778   -3844.8977   -728.51498     6343.286    3881.0283    91.117333    658.23987    82.651265 
   46000    205.75255   -107.80435   0.18616923   -107.61818    329.39435    4.3547648    4.3547648    4.3547648    329.39435   -2062.5464    2415.4252    635.30424   -1882.3179    1323.1648    10.476707    82.583659 
   46100    208.71037   -107.80678   0.18884553   -107.61794   -1058.8858    4.3554747    4.3554747    4.3554747   -1058.8858   -6078.9076   -1059.9861    3962.2364    1146.6992    3.8461477   -548.81145    82.624054 
   46200    203.96955   -107.80268   0.18455593   -107.61812   -1500.5345    4.3555049    4.3555049    4.3555049   -1500.5345    -7816.595     2677.017     637.9745    464.28636     2320.331    767.67566    82.625771 
   46300    229.46577   -107.82635   0.20762545   -107.61873   -792.72915    4.3553075    4.3553075    4.3553075   -792.72915    -6567.623   -452.39706    4641.8327   -790.36101     890.0809   -857.80701    82.614535 
   46400    190.79543   -107.79224   0.17263572   -107.61961    202.66055    4.3548167    4.3548167    4.3548167    202.66055   -6115.8615    4531.9959    2191.8473    3122.1591   -946.86215    2083.4943    82.586607 
   46500    198.18905   -107.79903   0.17932562   -107.61971    494.72843    4.3552391    4.3552391    4.3552391    494.72843    60.279596   -3138.7442    4562.6499   -1925.3145   -281.22429   -345.88261    82.610645 
   46600     180.3088   -107.78235   0.16314719    -107.6192     1839.621    4.3555451    4.3555451    4.3555451     1839.621   -5144.7375    7031.5653    3632.0354     381.1749   -1773.2081     361.6596    82.628058 
   46700    209.25543   -107.80798   0.18933871   -107.61864   -1266.5792    4.3546855    4.3546855    4.3546855   -1266.5792   -288.53723   -4137.2115    626.01098   -1433.3077    719.62447    1397.4209    82.579146 
   46800    174.99541   -107.77684   0.15833953    -107.6185    2204.7685    4.3555396    4.3555396    4.3555396    2204.7685   -9203.9204    8345.7933    7472.4324    -1117.312    227.51479    1265.0169    82.627744 
   46900    258.81448   -107.85234   0.23418078   -107.61816   -4085.3662    4.3553787    4.3553787    4.3553787   -4085.3662   -6690.2182   -3892.0474   -1673.8329    590.76881   -150.65463    845.35568    82.618589 
   47000     156.8619   -107.76094   0.14193194   -107.61901    1646.3181    4.3549549    4.3549549    4.3549549    1646.3181   -6670.0483    3886.6159    7722.3868   -702.97038   -286.55656    1142.0072     82.59447 
   47100    248.61902   -107.84288   0.22495571   -107.61792    -2235.258    4.3560862    4.3560862    4.3560862    -2235.258   -5201.9721    1088.7198   -2592.5218   -9.2407975    947.84686   -478.90197     82.65886 
   47200    166.05347   -107.76904   0.15024867   -107.61879    1263.2778     4.354217     4.354217     4.354217    1263.2778   -1547.3566     428.6126    4908.5773   -1169.2064   -190.06471    988.76753    82.552494 
   47300    175.80345   -107.77789   0.15907066   -107.61882    790.44531     4.356058     4.356058     4.356058    790.44531   -4552.9006     7993.557   -1069.3205   -1906.3782    2067.4484    616.03138    82.657251 
   47400    227.49311   -107.82465   0.20584054   -107.61881   -1247.2822    4.3545537    4.3545537    4.3545537   -1247.2822   -5505.2397   -4962.6647    6726.0578    829.99684    1207.4833    64.776119    82.571647 
   47500    155.56129    -107.7605   0.14075513   -107.61974    258.69264     4.355585     4.355585     4.355585    258.69264   -7099.9221    8790.2567   -914.25667   -1679.9483    448.62194    1244.1038    82.630326 
   47600    275.21622   -107.86774   0.24902142   -107.61871    -4924.839    4.3558338    4.3558338    4.3558338    -4924.839   -9225.8447   -7203.4601    1654.7878    1603.8848    49.509096   -1098.8932    82.644489 
   47700    159.34554   -107.76308   0.14417919    -107.6189    2037.8781    4.3546757    4.3546757    4.3546757    2037.8781    -6070.684    11712.026    472.29198   -1618.4904   -1310.8103    1086.5824    82.578586 
   47800    216.21176   -107.81362   0.19563294   -107.61799   -2403.0705    4.3559011    4.3559011    4.3559011   -2403.0705   -4437.0461   -3679.5464      907.381   -1163.8739     1752.078    1564.6144    82.648322 
   47900     157.7813   -107.76054   0.14276383   -107.61778    3457.7252    4.3550752    4.3550752    4.3550752    3457.7252   -3183.5531    6432.3138     7124.415   -281.70491   -306.75506      459.507    82.601318 
   48000    225.29186   -107.82189   0.20384881   -107.61804   -2277.6983    4.3552155    4.3552155    4.3552155   -2277.6983   -1727.4623   -2271.2314   -2834.4012   -2009.0278    1475.9353    1256.8635    82.609303 
   48100    162.23162   -107.76588   0.14679058   -107.61909    1281.6692    4.3553053    4.3553053    4.3553053    1281.6692   -6230.8281   -587.48571    10663.322    2331.7396    -1352.581   -239.03131     82.61441 
   48200    261.98496   -107.85594    0.2370495   -107.61889   -2956.1092    4.3551533    4.3551533    4.3551533   -2956.1092   -7078.0626    3564.6363   -5354.9011   -1871.3756    250.11774    244.79281    82.605759 
   48300    153.06703   -107.75801   0.13849826   -107.61951    1603.7156    4.3553293    4.3553293    4.3553293    1603.7156   -7122.3617   -2983.5009    14917.009    592.83525   -335.41901    1421.8446    82.615776 
   48400    240.99314   -107.83668   0.21805566   -107.61862   -1409.0203    4.3551435    4.3551435    4.3551435   -1409.0203   -5712.0561    5383.5289   -3898.5336    -359.1042    1098.7591   -11.823222    82.605202 
   48500    166.38509   -107.76967   0.15054872   -107.61913     3140.311    4.3551389    4.3551389    4.3551389     3140.311   -716.58461   -3449.1493    13586.667   -1286.9574    764.74931    13.248213    82.604941 
   48600     195.9731   -107.79677   0.17732058   -107.61945   -78.572127    4.3547296    4.3547296    4.3547296   -78.572127   -583.43324    1974.2743   -1626.5574    2129.0923    716.54566    1384.7975    82.581655 
   48700    226.20615   -107.82359   0.20467608   -107.61891   -543.38149    4.3560192    4.3560192    4.3560192   -543.38149   -4799.8166   -1847.9648     5017.637   -1202.7992   -746.44267   -1302.5374    82.655045 
   48800    148.72984   -107.75361   0.13457388   -107.61903    2985.1771    4.3543897    4.3543897    4.3543897    2985.1771   -1706.3612    3716.7822    6945.1102    2148.5813   -1175.4337    2617.8499     82.56232 
   48900    279.90743   -107.87104   0.25326613   -107.61777    -5530.245    4.3559197    4.3559197    4.3559197    -5530.245   -11285.267   -3207.8344   -2097.6335   -716.54428    1645.8342    116.15122    82.649377 
   49000    130.18517   -107.73619   0.11779428    -107.6184    5445.8497    4.3554744    4.3554744    4.3554744    5445.8497    540.86821    4639.1031    11157.578   -1044.0252   -235.83942     1170.545    82.624034 
   49100    282.32582   -107.87351   0.25545434   -107.61805   -5509.7364    4.3541881    4.3541881    4.3541881   -5509.7364   -5427.7981   -4306.5423   -6794.8688    1273.3915    1176.4789    329.31012    82.550853 
   49200    99.889599    -107.7099  0.090382208   -107.61952    5757.3264    4.3565787    4.3565787    4.3565787    5757.3264    1906.3827    4425.6387    10939.958   -651.18807   -1728.7238    944.60109    82.686894 
   49300    273.94724   -107.86693   0.24787322   -107.61906   -3782.3163    4.3542684    4.3542684    4.3542684   -3782.3163   -3640.8751   -2911.9405   -4794.1333    2238.8782   -806.16138    1382.9406    82.555417 
   49400    118.13466    -107.7271   0.10689072   -107.62021    2735.8805    4.3547823    4.3547823    4.3547823    2735.8805   -3122.0209    2797.4506    8532.2119   -482.58919   -187.83953    1128.7433    82.584654 
   49500    285.87452   -107.87741   0.25866527   -107.61874   -5393.3255    4.3569641    4.3569641    4.3569641   -5393.3255   -9232.7791   -1508.8374   -5438.3602   -11.281926   -93.407967     567.5172    82.708846 
   49600    173.42649   -107.77604   0.15691993   -107.61912    235.36338    4.3534766    4.3534766    4.3534766    235.36338   -4648.2125    867.67056    4486.6321    1405.6388    1130.7759   -207.55044    82.510393 
   49700    201.13768   -107.80092    0.1819936   -107.61893   -2170.9082    4.3568964    4.3568964    4.3568964   -2170.9082   -3983.4096    1490.8948   -4020.2097    220.03113   -705.80854    2648.1963    82.704989 
   49800    215.40855   -107.81346   0.19490618   -107.61855    246.40623    4.3546831    4.3546831    4.3546831    246.40623   -1326.5754   -378.54057    2444.3347    1455.3882   -250.46908   -1144.9372    82.579006 
   49900    123.16333   -107.73068   0.11144077   -107.61924    1958.5952    4.3546719    4.3546719    4.3546719    1958.5952    -433.9299    4406.3675     1903.348    329.29401   -1708.1221    3633.5508     82.57837 
   50000    260.79586    -107.8536   0.23597357   -107.61763   -4368.7163    4.3572002    4.3572002    4.3572002   -4368.7163   -4159.1309    -2826.449   -6120.5689    1446.7128    592.91235    -24.70902     82.72229 
   50100    161.20222   -107.76353   0.14585915   -107.61767    2114.9526    4.3535071    4.3535071    4.3535071    2114.9526   -5579.0302    6648.5828    5275.3052   -584.83968    697.68597    1230.5906    82.512124 
   50200    272.80674   -107.86414   0.24684127    -107.6173   -8117.2356    4.3572279    4.3572279    4.3572279   -8117.2356   -7139.7362   -5512.4507    -11699.52    106.29265    582.09445    2074.5826    82.723868 
   50300    141.92436   -107.74705   0.12841614   -107.61864    5169.8057    4.3543731    4.3543731    4.3543731    5169.8057   -4491.8182      9097.44    10903.795    307.60981    1245.2928   -229.06759    82.561374 
   50400    229.64763   -107.82723      0.20779   -107.61944   -3354.0553     4.354653     4.354653     4.354653   -3354.0553   -3394.3724    381.81607   -7049.6095    626.81976   -1916.0483    3652.6163    82.577298 
   50500    157.32855    -107.7625   0.14235418   -107.62015    1257.3777    4.3568058    4.3568058    4.3568058    1257.3777   -1515.4641    1446.4837    3841.1133    1738.8667    1443.9194   -204.77256    82.699825 
   50600     212.4126   -107.81183   0.19219538   -107.61963    1621.6277    4.3530798    4.3530798    4.3530798    1621.6277    -743.1182     9392.252   -3784.2507   -1422.5186   -285.82588    1186.5097    82.487833 
   50700    229.61213   -107.82758   0.20775788   -107.61982    -5212.695    4.3565814    4.3565814    4.3565814    -5212.695    -5245.428   -6018.3013   -4374.3556    747.50007    1567.3949    926.21213    82.687052 
   50800    171.26365   -107.77425   0.15496295   -107.61929    2337.9388    4.3556348    4.3556348    4.3556348    2337.9388   -6246.5169    10906.759    2353.5737   -804.85513    1203.6727    629.13992    82.633165 
   50900    256.46538   -107.85045   0.23205527   -107.61839   -2527.5744    4.3538583    4.3538583    4.3538583   -2527.5744   -4486.2766   -1340.4194   -1756.0271     1364.629   -1409.2556    1231.2337    82.532098 
   51000    122.72405   -107.73052    0.1110433   -107.61948    2034.7031    4.3570811    4.3570811    4.3570811    2034.7031   -3798.3406    7398.6193    2503.8304    615.29097     339.9636    1443.5313    82.715504 
   51100    257.23457   -107.85079   0.23275124   -107.61804   -464.96509    4.3540319    4.3540319    4.3540319   -464.96509    406.34245    640.82126    -2442.059    1631.7193   -2094.1971   -29.414512    82.541969 
   51200     161.2424   -107.76453   0.14589551   -107.61863     726.8817    4.3554634    4.3554634    4.3554634     726.8817   -1038.5965    4999.8796    -1780.638   -994.19564    1673.8895    195.51213    82.623411 
   51300    205.10263   -107.80329   0.18558117   -107.61771   -946.83035    4.3564819    4.3564819    4.3564819   -946.83035   -4557.0114    2669.3811   -952.86079   -233.29431    537.83458    1035.2661    82.681386 
   51400    245.41419   -107.83921   0.22205591   -107.61716    -327.6595    4.3538663    4.3538663    4.3538663    -327.6595   -5277.0285    4187.4358    106.61423   -373.04238    1044.9296    793.29893    82.532548 
   51500    139.12033   -107.74477     0.125879   -107.61889    948.08872    4.3565635    4.3565635    4.3565635    948.08872   -2917.9728    5643.4958    118.74321    722.38955    427.05919    1703.2978     82.68603 
   51600    277.06264   -107.86874    0.2506921   -107.61805   -2462.0681    4.3545309    4.3545309    4.3545309   -2462.0681   -5455.4213   -359.38299      -1571.4   -568.04244   -933.61113   -516.33723     82.57035 
   51700    136.67111   -107.74306    0.1236629    -107.6194    4151.5397    4.3548024    4.3548024    4.3548024    4151.5397    2568.0731    11753.513   -1866.9665   -1437.8169    1436.2901   -103.39477    82.585795 
   51800    225.20416   -107.82273   0.20376946   -107.61896   -3501.7791    4.3565848    4.3565848    4.3565848   -3501.7791   -5489.2001   -1656.9459   -3359.1914    18.188416    1328.9567    1347.5469    82.687245 
   51900    191.16306   -107.79124   0.17296836   -107.61827    3506.6001    4.3538596    4.3538596    4.3538596    3506.6001   -430.03367    10815.926    133.90812   -1487.5491    1879.5145    -224.8168    82.532167 
   52000    191.78887   -107.79188    0.1735346   -107.61834   -1515.9567    4.3563752    4.3563752    4.3563752   -1515.9567   -6904.9246   -1295.4409    3652.4954    1687.5811    1343.6922    671.74772    82.675311 
   52100    202.36991   -107.80119   0.18310854   -107.61809   -275.92568    4.3549414    4.3549414    4.3549414   -275.92568   -4393.8474    7502.7888   -3936.7184    -5.170037    -632.0256   -334.33838    82.593707 
   52200    232.40754   -107.82772   0.21028722   -107.61743   -150.24912    4.3554018    4.3554018    4.3554018   -150.24912   -6306.4753    2237.2349     3618.493    750.27259    -960.0187     424.7283    82.619901 
   52300    173.50746   -107.77476    0.1569932   -107.61777   -702.06235    4.3561659    4.3561659    4.3561659   -702.06235   -757.31197    6944.8237   -8293.6988    1019.0824    44.077114   -339.90838    82.663394 
   52400    224.14691   -107.82057   0.20281284   -107.61776    642.29246    4.3542506    4.3542506    4.3542506    642.29246   -4046.5296    4082.0138    1891.3931   -316.18422   -523.52806    952.74043    82.554406 
   52500    168.61588   -107.77124   0.15256719   -107.61867    1749.5076     4.355819     4.355819     4.355819    1749.5076   -770.08611    4914.9453    1103.6636   -739.25472    1991.5798     1765.391    82.643649 
   52600    198.05463   -107.79887   0.17920399   -107.61967     -2112.36    4.3547671    4.3547671    4.3547671     -2112.36   -7077.6462    1239.1776   -498.61154    1296.1517   -237.19994     1572.907    82.583787 
   52700    219.61331    -107.8178   0.19871074   -107.61909    28.433189    4.3557478    4.3557478    4.3557478    28.433189   -3876.4396    1967.2274    1994.5117   -697.18201    62.828818    434.67542    82.639597 
   52800    209.13493   -107.80784   0.18922968   -107.61861   -2110.3613    4.3554277    4.3554277    4.3554277   -2110.3613    -6101.854    4681.7811   -4911.0109   -135.63517   -145.98368    492.73745    82.621378 
   52900    214.72483   -107.81222   0.19428754   -107.61793    -1919.258    4.3554149    4.3554149    4.3554149    -1919.258   -2662.5049   -939.73127   -2155.5379   -415.85221   -34.323732    2507.5382     82.62065 
   53000    177.92456   -107.77834   0.16098988   -107.61735    2863.3663     4.355699     4.355699     4.355699    2863.3663   -2444.6669    7539.5652    3495.2007   -749.22974    3255.6279    116.69104    82.636816 
   53100    186.95084   -107.78703   0.16915704   -107.61787   -999.32014    4.3546862    4.3546862    4.3546862   -999.32014   -3470.7406    -3794.985    4267.7651    1063.3149    965.80935     1891.041    82.579188 
   53200    173.63125   -107.77536    0.1571052   -107.61825    1015.8167    4.3564991    4.3564991    4.3564991    1015.8167   -4570.7963     5354.069    2264.1772    646.64378    2905.6306   -1546.7467    82.682363 
   53300    238.72782   -107.83433   0.21600595   -107.61832   -2354.1929     4.354583     4.354583     4.354583   -2354.1929   -3614.7901   -2318.8877   -1128.9009    379.34296   -1603.4272     1641.592    82.573313 
   53400      191.995   -107.79267   0.17372111   -107.61895   -2606.0766    4.3554814    4.3554814    4.3554814   -2606.0766    -7583.412    4308.8277   -4543.6455     1178.117     302.0294    1290.1642    82.624435 
   53500    230.54819   -107.82709   0.20860484   -107.61848   -1218.4818    4.3563615    4.3563615    4.3563615   -1218.4818   -2803.9793   -1354.6631      503.197   -339.88222    -485.9739   -120.90109    82.674528 
   53600    189.22334   -107.79013   0.17121325   -107.61892    729.34439    4.3534804    4.3534804    4.3534804    729.34439   -5002.2594    4008.4003    3181.8922    32.153275   -420.93145     3105.408    82.510607 
   53700    145.79694   -107.75188   0.13192013   -107.61996    1192.2148    4.3567476    4.3567476    4.3567476    1192.2148   -1278.4622    1832.9759    3022.1308    57.696476    2420.1295   -1264.7735    82.696516 
   53800    261.48033   -107.85602    0.2365929   -107.61943   -1535.2503    4.3542409    4.3542409    4.3542409   -1535.2503    -3073.091   -539.95513   -992.70481    186.13679   -2104.8911    1818.3333    82.553854 
   53900    148.97232   -107.75484   0.13479329   -107.62005    835.14142    4.3551282    4.3551282    4.3551282    835.14142   -3995.0888    5944.5503    555.96275    -346.5324    1091.8441    782.24541    82.604333 
   54000    271.72195   -107.86426   0.24585973    -107.6184   -5030.1448    4.3571818    4.3571818    4.3571818   -5030.1448   -5963.7481   -5512.9333   -3613.7529   -1086.2268   -2129.4466    1494.7588    82.721243 
   54100    153.64698   -107.75718   0.13902302   -107.61816    5491.0966    4.3528989    4.3528989    4.3528989    5491.0966   -4267.3205    9546.0863    11194.524     154.1116    1127.1062    69.847082     82.47755 
   54200    203.11106   -107.80211   0.18377916   -107.61833   -2661.9971    4.3572552    4.3572552    4.3572552   -2661.9971   -1287.7601    -5545.916   -1152.3151    366.37649    1973.6542    257.82171    82.725424 
   54300    191.06704   -107.79114   0.17288147   -107.61826    3200.1138    4.3545771    4.3545771    4.3545771    3200.1138   -2206.2746    6829.0107    4977.6054    349.74805    1676.5152     727.6207    82.572979 
   54400     216.2846   -107.81446   0.19569885   -107.61876     79.46112     4.354341     4.354341     4.354341     79.46112    2169.8586   -628.61639   -1302.8588   -499.02219    789.64919    212.23053     82.55955 
   54500    198.87639   -107.79883   0.17994754   -107.61888   -2126.0625    4.3573624    4.3573624    4.3573624   -2126.0625   -5191.2651    1269.1707    -2456.093    489.44273   -890.78936    1040.1095     82.73153 
   54600    208.12043   -107.80655   0.18831174   -107.61824     3304.835    4.3531788    4.3531788    4.3531788     3304.835    -3177.404    4137.4349    8954.4743   -2.2145873    297.01807   -1493.4635    82.493459 
   54700    203.86047   -107.80293   0.18445724   -107.61847   -1696.7234    4.3562879    4.3562879    4.3562879   -1696.7234   -3713.9179   -591.63234   -784.62013   -436.24398   -548.74949    2001.4039     82.67034 
   54800    166.66126   -107.76957   0.15079861   -107.61877    2466.9935     4.355362     4.355362     4.355362    2466.9935   -2341.8742    1979.1424    7763.7122    1177.4587    1626.7758   -685.87108    82.617636 
   54900    271.32175   -107.86408   0.24549763   -107.61858   -1008.9172    4.3540577    4.3540577    4.3540577   -1008.9172   -1322.6587     1284.202   -2988.2949   -1788.5431   -1322.5379    1292.1559    82.543437 
   55000    118.04447   -107.72679   0.10680912   -107.61998    2213.8909    4.3569181    4.3569181    4.3569181    2213.8909    1635.4062   -52.814879    5059.0816    1908.8843   -1010.5902    1371.7872    82.706223 
   55100    282.94727   -107.87383   0.25601663   -107.61782   -2189.3236     4.354145     4.354145     4.354145   -2189.3236   -7186.1658   -332.00803    950.20286   -1514.4941   -1966.7507    -476.4108    82.548398 
   55200    103.51553   -107.71193   0.09366303   -107.61826    5918.0517    4.3555256    4.3555256    4.3555256    5918.0517      1163.64    4049.4267    12541.088    123.60173   -902.34216    1135.0712     82.62695 
   55300    285.84541   -107.87572   0.25863894   -107.61708   -7416.5914    4.3565397    4.3565397    4.3565397   -7416.5914    -11677.32   -7708.1822   -2864.2717    1153.4594    555.74966    7.1452935    82.684679 
   55400    154.75748   -107.75797   0.14002782   -107.61794    5849.4882     4.353689     4.353689     4.353689    5849.4882    3176.5948    8118.7091    6253.1606   -763.81287    928.77669    1074.1285    82.522471 
   55500    253.65809   -107.84801   0.22951517    -107.6185   -5881.4581    4.3568763    4.3568763    4.3568763   -5881.4581    -7764.696   -9182.4172    -697.2612    1476.2793    263.99207     887.4995    82.703845 
   55600    137.64508   -107.74401   0.12454416   -107.61946    3966.4879    4.3545782    4.3545782    4.3545782    3966.4879    1392.7256    6838.1636    3668.5745   -1917.4314   -909.41731   -747.85018     82.57304 
   55700    213.81906     -107.812   0.19346798   -107.61853    715.85578    4.3550072    4.3550072    4.3550072    715.85578   -3204.0067   -6453.1669    11804.741    1152.8717   -430.86642   -1052.0332    82.597449 
   55800    187.65062   -107.78854   0.16979022   -107.61875   -2971.6453    4.3562961    4.3562961    4.3562961   -2971.6453   -5354.5032    1636.3381   -5196.7707    243.31059    734.73335    1671.0025    82.670805 
   55900    226.04132   -107.82241   0.20452693   -107.61788   -517.14892    4.3547884    4.3547884    4.3547884   -517.14892   -1593.1938   -6147.5434    6189.2904    464.12715    839.67721    52.620259       82.585 
   56000    226.66537   -107.82339   0.20509159    -107.6183   -2829.9325    4.3555413    4.3555413    4.3555413   -2829.9325    -5406.625    1188.1621   -4271.3347    907.46415   -195.74747    1029.9109    82.627839 
   56100    163.57536   -107.76781   0.14800642    -107.6198   -274.11642    4.3557116    4.3557116    4.3557116   -274.11642   -2554.5523   -6560.2234    8292.4264    -903.8557   -1185.6588    826.27756    82.637532 
   56200    188.61527   -107.78961   0.17066306   -107.61895    2784.4204    4.3548599    4.3548599    4.3548599    2784.4204    525.81173    909.79615    6917.6534    909.85342   -1657.2472   -683.54074    82.589066 
   56300    189.13374   -107.78963   0.17113218   -107.61849   -2128.1548    4.3555732    4.3555732    4.3555732   -2128.1548   -5144.8544   -3701.3067    2461.6968   -582.89372   -115.52796    2264.1478     82.62966 
   56400    219.66025   -107.81623   0.19875321   -107.61748    -2118.738    4.3561184    4.3561184    4.3561184    -2118.738    1158.5256   -4444.7551   -3069.9845    606.03827   -298.37087    539.09293    82.660688 
   56500     221.1522   -107.81746   0.20010315   -107.61736   -291.24828    4.3548417    4.3548417    4.3548417   -291.24828    -6269.603    1320.1855    4075.6726    466.81587    1147.5733    734.19135     82.58803 
   56600    183.53524   -107.78427   0.16606654    -107.6182   -2252.5386    4.3559243    4.3559243    4.3559243   -2252.5386   -2332.2246   -7586.0477    3160.6567   -302.82016   -248.23112    1178.1211    82.649643 
   56700    176.06557   -107.77793   0.15930783   -107.61862     2727.846    4.3551685    4.3551685    4.3551685     2727.846   -2097.8666    3649.7731    6631.6314    652.49492   -161.08756   -1363.2548    82.606624 
   56800    220.96095   -107.81872   0.19993011   -107.61879   -1603.4662    4.3548697    4.3548697    4.3548697   -1603.4662   -3732.6421    -5772.663    4694.9064   -928.25065   -326.77353    717.76529    82.589624 
   56900      179.446   -107.78153   0.16236651   -107.61916   -813.16379    4.3565048    4.3565048    4.3565048   -813.16379    1176.1745    2406.4192   -6022.0851    1694.0614    1705.5889    654.60311    82.682687 
   57000    249.92898   -107.84414     0.226141     -107.618   -284.06289    4.3542571    4.3542571    4.3542571   -284.06289    -7696.218   -3707.3229    10551.352    57.779787    1606.9935   -360.11829    82.554777 
   57100    150.88765   -107.75556   0.13652631   -107.61904    1361.7051    4.3559024    4.3559024    4.3559024    1361.7051    720.31183    3159.7991    205.00427    719.79707    320.71276    171.10668    82.648394 
   57200     217.1235   -107.81531   0.19645791   -107.61885   -827.87001    4.3554775    4.3554775    4.3554775   -827.87001    -8461.746   -4268.2481    10246.384    631.66332   -483.21481   -551.96607    82.624211 
   57300     183.3059   -107.78483   0.16585903   -107.61897    2712.8738    4.3543218    4.3543218    4.3543218    2712.8738     343.6727    5995.8692    1799.0796   -1242.5632   -1095.1579   -180.75978    82.558459 
   57400    235.16157    -107.8313   0.21277913   -107.61852   -4539.2553    4.3572141    4.3572141    4.3572141   -4539.2553   -5861.9252    -6079.031   -1676.8095      1593.59    1690.2158    1883.6951    82.723082 
   57500    175.91761   -107.77715   0.15917395   -107.61798    3761.9832    4.3538483    4.3538483    4.3538483    3761.9832   -1989.8071    7090.5662    6185.1904   -1146.9038    215.75814   -537.70124    82.531525 
   57600    233.17889    -107.8287   0.21098516   -107.61772   -1694.9935    4.3558446    4.3558446    4.3558446   -1694.9935   -6258.6119   -5432.8621    6606.4934     1062.777    1786.1405    545.09375    82.645105 
   57700    120.90733   -107.72825   0.10939949   -107.61886     3872.892     4.355804     4.355804     4.355804     3872.892   -2662.9749    7465.1537    6816.4972    601.83977    -149.4738    -156.2275    82.642792 
   57800     295.3233   -107.88547   0.26721473   -107.61826    -3133.261    4.3539077    4.3539077    4.3539077    -3133.261   -7729.2177   -3501.2027    1830.6373   -1224.6436     -88.0243   -637.57418    82.534903 
   57900    139.17289    -107.7457   0.12592655   -107.61977    1600.0019    4.3570355    4.3570355    4.3570355    1600.0019    -472.5198    4538.0837    734.44186    1763.5807    1121.1165    1883.7755    82.712911 
   58000    270.82138   -107.86432   0.24504488   -107.61927    -3579.459    4.3543481    4.3543481    4.3543481    -3579.459     -8462.18   -3003.8309    727.63379    -1097.751   -526.33302    509.89055     82.55995 
   58100    118.94426   -107.72723   0.10762326    -107.6196    5882.9276     4.354876     4.354876     4.354876    5882.9276    1079.9956    3473.1526    13095.635     2054.744    3057.1624   -377.39693    82.589985 
   58200    228.07598   -107.82503   0.20636794   -107.61867   -3996.2845    4.3566647    4.3566647    4.3566647   -3996.2845   -8640.1112   -1718.4781   -1630.2641    502.38976   -51.563844   -55.398624    82.691792 
   58300    191.00415   -107.79106   0.17282457   -107.61824    1817.3982    4.3538923    4.3538923    4.3538923    1817.3982   -1730.8631    1242.9255    5940.1321    487.74082    529.08945    360.00246     82.53403 
   58400    222.24383    -107.8193   0.20109089   -107.61821   -2636.7576     4.356601     4.356601     4.356601   -2636.7576   -5974.7801    3218.6499   -5154.1426    960.78724    781.77056    554.40601    82.688167 
   58500    223.78732   -107.82074   0.20248747   -107.61826   -2512.0283    4.3552795    4.3552795    4.3552795   -2512.0283   -5088.4817   -5277.5215    2829.9181   -73.921778    -686.3318    1503.6825    82.612944 
   58600    136.74363   -107.74211   0.12372851   -107.61838    5293.4354    4.3547156    4.3547156    4.3547156    5293.4354    -2402.554    8792.4656    9490.3947    1252.4766    2711.7152    -1697.451    82.580857 
   58700    238.47784   -107.83372   0.21577976   -107.61794   -4097.0337    4.3563632    4.3563632    4.3563632   -4097.0337    -5697.633   -8467.1878    1873.7198    226.88017   -94.328804    1003.4381    82.674628 
   58800    152.23628   -107.75616   0.13774658   -107.61841    2480.5344    4.3548039    4.3548039    4.3548039    2480.5344   -3393.5356    8115.9967    2719.1422    865.79888    1903.6582    344.50566    82.585881 
   58900    274.69607   -107.86663   0.24855078   -107.61808   -4522.4654    4.3557364    4.3557364    4.3557364   -4522.4654   -2490.2825   -7516.5704   -3560.5433    86.573142   -1620.6376    357.79507    82.638943 
   59000    155.36778   -107.76003   0.14058004   -107.61945    1096.0856    4.3548885    4.3548885    4.3548885    1096.0856   -7109.8866    5566.5219    4831.6215    306.32811    330.38178    2132.3778    82.590694 
   59100    231.32108   -107.82816   0.20930418   -107.61885   -1368.0501    4.3559331    4.3559331    4.3559331   -1368.0501    -1197.464   -8685.4362    5778.7498   -123.72521   -1162.3449   -758.83217    82.650141 
   59200    133.15978   -107.73964   0.12048577   -107.61916    4393.3819    4.3543379    4.3543379    4.3543379    4393.3819   -6023.9293    7549.5234    11654.552    416.24724   -504.06736    499.84095    82.559372 
   59300    265.39401   -107.85854   0.24013407    -107.6184    -5194.386    4.3563006    4.3563006    4.3563006    -5194.386   -2538.9653   -8091.1614   -4953.0314     230.2628    1516.5147    115.88126    82.671062 
   59400    162.28193   -107.76535    0.1468361   -107.61851    3308.4439    4.3550017    4.3550017    4.3550017    3308.4439    -2711.558    5135.6989    7501.1907    516.65144   -2785.2014    1138.1344    82.597135 
   59500      247.904   -107.84228   0.22430875   -107.61798   -3565.8059    4.3552642    4.3552642    4.3552642   -3565.8059   -6176.6669   -6043.3419    1522.5909    405.88206    1573.8576     586.2585    82.612073 
   59600    142.72262    -107.7474   0.12913842   -107.61826     3042.144    4.3561342    4.3561342    4.3561342     3042.144   -2000.2358    80.851421    11045.816     281.9965   -2763.5889    567.69368     82.66159 
   59700    206.26246   -107.80419    0.1866306   -107.61756     586.0715    4.3541403    4.3541403    4.3541403     586.0715   -6660.9374   -452.77459    8871.9265    126.87113    1600.5113   -1567.8462    82.548133 
   59800    232.59927   -107.82813   0.21046071   -107.61767   -3389.2402    4.3564141    4.3564141    4.3564141   -3389.2402   -3417.1852   -3046.5201   -3704.0154    1403.8149    591.96767    1380.6419    82.677523 
   59900    189.40722   -107.78947   0.17137963   -107.61809    1486.8287    4.3551416    4.3551416    4.3551416    1486.8287   -4323.9807    1930.8777    6853.5891   -1019.2475   -736.37801    198.12772    82.605096 
   60000    233.62157   -107.82992    0.2113857   -107.61853   -1455.1774    4.3547312    4.3547312    4.3547312   -1455.1774   -4600.2982   -4542.2263    4776.9923    1316.8728    1031.8037   -514.76041    82.581745 
   60100     142.4405    -107.7489   0.12888315   -107.62001    1910.8763     4.356547     4.356547     4.356547    1910.8763   -4903.5556    1297.3014    9338.8831   -971.58746   -1238.2228    988.78159    82.685092 
   60200    220.24996   -107.81889   0.19928679    -107.6196   -40.200609    4.3531968    4.3531968    4.3531968   -40.200609   -3638.1777   -2647.4187    6164.9945   -335.87898    1137.0984   -2687.8698    82.494485 
   60300    194.15633   -107.79496   0.17567673   -107.61929   -1881.4212     4.357137     4.357137     4.357137   -1881.4212   -6005.9218    3311.8518   -2950.1936    282.15336   -1662.8746    1033.9902     82.71869 
   60400    238.87783   -107.83475   0.21614168   -107.61861    -2328.381    4.3546774    4.3546774    4.3546774    -2328.381   -2474.5709   -4879.4743    368.90207   -1306.7957    1059.6666    862.18469    82.578687 
   60500    169.59707   -107.77238   0.15345499   -107.61892    2255.7771    4.3549492    4.3549492    4.3549492    2255.7771    -6902.543    4995.4581    8674.4161    767.49902   -1678.2379    241.16996    82.594148 
   60600    194.97676     -107.795   0.17641907   -107.61858   -1745.3275    4.3569412    4.3569412    4.3569412   -1745.3275   -858.72902   -7135.5718    2758.3184   -698.26709   -549.13967    209.50447    82.707538 
   60700    189.30689   -107.78972   0.17128886   -107.61843    1642.2131    4.3532509    4.3532509    4.3532509    1642.2131   -4506.3177    4897.3904    4535.5666    469.04407   -1018.5088    58.381792     82.49756 
   60800     217.8669   -107.81517   0.19713055   -107.61804   -2766.6983    4.3571333    4.3571333    4.3571333   -2766.6983    1077.8594    -4296.934   -5081.0202   -308.44171   -1119.2312    76.970181    82.718477 
   60900    210.95301   -107.80882   0.19087472   -107.61794    -2175.278    4.3552879    4.3552879    4.3552879    -2175.278   -6357.0136    1321.4269   -1490.2474    871.95256    1870.7682    858.89849    82.613422 
   61000    182.68985    -107.7832   0.16530162    -107.6179    1633.6977     4.354298     4.354298     4.354298    1633.6977    1683.3455   -2942.1628    6159.9105   -15.746833   -1151.9228    576.58665    82.557105 
   61100     185.4052   -107.78554   0.16775852   -107.61779   -1034.4073    4.3572785    4.3572785    4.3572785   -1034.4073   -7386.2623    2110.4126    2172.6279    399.32079    1401.6443   -1385.6183    82.726751 
   61200    224.57248    -107.8209    0.2031979    -107.6177   -718.59459    4.3533536    4.3533536    4.3533536   -718.59459    79.450883   -6102.5064    3867.2718     635.4586   -1078.2366    1299.4263    82.503398 
   61300    179.86922   -107.78116   0.16274945   -107.61841     599.7071    4.3570478    4.3570478    4.3570478     599.7071   -1035.8022    5354.6976   -2519.7741   -1461.1051    1262.5228   -1793.6756    82.713607 
   61400    252.70498   -107.84716   0.22865277    -107.6185   -3658.2375     4.354737     4.354737     4.354737   -3658.2375   -3383.3153   -7836.1129    244.71573    1266.1424    587.29419    1291.0244    82.582074 
   61500    136.74707   -107.74294   0.12373162   -107.61921    4299.2952     4.354596     4.354596     4.354596    4299.2952    1191.5227    4548.1859     7158.177   -2564.3574    394.63436    1816.7186    82.574056 
   61600    214.95337   -107.81326   0.19449433   -107.61876   -1834.9032     4.356537     4.356537     4.356537   -1834.9032   -4656.8019   -7858.7369    7010.8293    1829.8422    457.80744   -812.91399    82.684524 
   61700    205.54123   -107.80483   0.18597802   -107.61885   -312.22208    4.3541203    4.3541203    4.3541203   -312.22208   -1973.2603    523.46539    513.12869    -1699.128     -991.912     1559.641    82.546995 
   61800    206.51179   -107.80575   0.18685621   -107.61889   -392.67867    4.3565131    4.3565131    4.3565131   -392.67867    -21.38627   -3890.4083    2733.7585    594.16726    40.531029   -758.26256    82.683159 
   61900    241.11657   -107.83673   0.21816734   -107.61856   -2559.3982    4.3548398    4.3548398    4.3548398   -2559.3982   -5214.0342   -1988.7395   -475.42099    95.050307   -853.71882    2027.4333    82.587927 
   62000    152.14587   -107.75666   0.13766478     -107.619    3450.6547    4.3549354    4.3549354    4.3549354    3450.6547    3154.3454   -1180.2216    8377.8402   -1054.6651    2085.0205    996.08633    82.593362 
   62100    207.22707    -107.8056   0.18750341    -107.6181   -450.74827    4.3563566    4.3563566    4.3563566   -450.74827   -6156.3516   -5402.3321    10206.439    1831.3762     42.99491   -645.82248    82.674254 
   62200    189.21057   -107.78903    0.1712017   -107.61783    1130.2582    4.3538597    4.3538597    4.3538597    1130.2582     247.9604    2156.0478    986.76638   -1520.1393    1685.6541    256.57648    82.532176 
   62300    235.05096    -107.8302   0.21267905   -107.61752    -2764.392    4.3568545    4.3568545    4.3568545    -2764.392   -3775.6368   -8881.1476    4363.6086     1853.246   -65.201257   -657.32196    82.702603 
   62400    194.07023    -107.7943   0.17559882   -107.61871    302.08707     4.354426     4.354426     4.354426    302.08707   -4607.2516    3979.0926    1534.4202    -1418.646    1238.9614   -219.00666    82.564382 
   62500    190.08094    -107.7913   0.17198923   -107.61931    299.97615    4.3554304    4.3554304    4.3554304    299.97615    1868.9798   -9696.9406    8727.8892    421.99654    2815.1262    116.91186    82.621528 
   62600    178.65163   -107.78078   0.16164775   -107.61913    892.98455    4.3554395    4.3554395    4.3554395    892.98455   -7808.7232    2481.6137    8006.0631   -568.25638    141.08011    614.95106    82.622048 
   62700    210.93903   -107.80969   0.19086206   -107.61883    -724.0567    4.3548001    4.3548001    4.3548001    -724.0567    5229.4909   -7956.8763    555.21533   -867.96727    1819.4422   -1530.2018    82.585666 
   62800    222.08107   -107.81954   0.20094362    -107.6186   -1867.4868    4.3559146    4.3559146    4.3559146   -1867.4868   -7509.6879    1848.1511    59.076438    749.74821   -778.29752    1467.2746    82.649089 
   62900    201.69083   -107.80168    0.1824941   -107.61919   -519.66906     4.354761     4.354761     4.354761   -519.66906    2732.4785   -6557.0367     2265.551   -1388.2593    187.97946   -458.03523    82.583442 
   63000    190.12499   -107.79147   0.17202909   -107.61944   -237.47786    4.3561615    4.3561615    4.3561615   -237.47786   -6205.9199   -238.30738    5731.7937    880.74751   -1014.9697    2253.4227    82.663141 
   63100    181.19279   -107.78314   0.16394704    -107.6192    245.06399     4.354651     4.354651     4.354651    245.06399    -29.69015   -5985.0693    6749.9514   -1737.5954    1712.7759    784.07062    82.577185 
   63200     199.1823   -107.79874   0.18022433   -107.61852   -721.34835    4.3556175    4.3556175    4.3556175   -721.34835   -572.25015    -993.9947   -597.80019    545.67651    380.28181   -1450.4992    82.632177 
   63300    241.32582   -107.83582   0.21835668   -107.61746    -3161.652     4.356053     4.356053     4.356053    -3161.652   -2640.5563   -5583.1679   -1261.2319   -90.654681   -38.444996     1835.051     82.65697 
   63400     163.0938   -107.76527    0.1475707    -107.6177    1715.4731     4.354372     4.354372     4.354372    1715.4731    2153.1347    245.58421    2747.7004   -492.84639    279.34669   -1211.2569    82.561313 
   63500    236.82462   -107.83223    0.2142839   -107.61795   -2503.0946    4.3565968    4.3565968    4.3565968   -2503.0946   -6649.2571   -6381.9666    5521.9399    702.34672   -169.01211    920.73344    82.687925 
   63600    142.43906   -107.74816   0.12888186   -107.61928    3759.6266    4.3540357    4.3540357    4.3540357    3759.6266     3567.836    2264.3063    5446.7375   -1620.2382    3481.0348   -611.44921    82.542185 
   63700    250.70063   -107.84562    0.2268392   -107.61878   -3834.8874    4.3559782    4.3559782    4.3559782   -3834.8874   -2402.9303   -8434.6993   -667.03278    894.92113    431.58919   -434.30871    82.652709 
   63800     190.4495   -107.79136   0.17232271   -107.61903    581.40558    4.3555958    4.3555958    4.3555958    581.40558    2597.7984     2419.643   -3273.2247   -1105.9435    1358.1994   -537.61202    82.630942 
   63900    197.61958   -107.79719   0.17881035   -107.61838   -347.62133     4.354421     4.354421     4.354421   -347.62133    3226.6093   -7379.5502    3110.0769   -1.4173427   -524.24796      353.187      82.5641 
   64000    198.11352   -107.79742   0.17925727   -107.61817    -28.24344    4.3566032    4.3566032    4.3566032    -28.24344   -4264.5115    389.53818     3790.243     345.1055    37.839358    14.333903    82.688291 
   64100    186.35981   -107.78742   0.16862227    -107.6188    2148.7034    4.3535971    4.3535971    4.3535971    2148.7034    4583.2362    -3735.866    5598.7398   -909.37218    148.47279    1665.4988     82.51724 
   64200    206.30268   -107.80577     0.186667    -107.6191   -1103.4614    4.3565584    4.3565584    4.3565584   -1103.4614   -2322.0371   -2891.3025    1902.9554    84.928459    502.91637    135.68593    82.685738 
   64300     222.1824   -107.81959    0.2010353   -107.61855   -381.44126    4.3550462    4.3550462    4.3550462   -381.44126    3102.9428   -1830.6742   -2416.5923   -772.00585    193.48105   -643.57704    82.599669 
   64400    182.55779   -107.78326   0.16518213   -107.61808    1176.2686    4.3543705    4.3543705    4.3543705    1176.2686    4080.9829   -4362.5942     3810.417    14.927968   -2101.8683    2231.0413    82.561225 
   64500    204.47055    -107.8027   0.18500925    -107.6177   -959.62191    4.3573657    4.3573657    4.3573657   -959.62191   -4447.4398   -2251.6547    3820.2288    98.256844   -151.84069   -819.05774    82.731716 
   64600    197.73416    -107.7969   0.17891402   -107.61799    1971.3537    4.3529819    4.3529819    4.3529819    1971.3537     4882.761   -4311.2287    5342.5287   -464.56916    71.036594    1605.8935    82.482265 
   64700    206.24968   -107.80611   0.18661905   -107.61949   -1290.3987    4.3565357    4.3565357    4.3565357   -1290.3987     -2275.76   -773.67807   -821.75815   -302.92448    2577.6068   -348.06236    82.684447 
   64800    215.55225   -107.81537   0.19503621   -107.62033   -368.86219    4.3554829    4.3554829    4.3554829   -368.86219     4764.399   -5562.1716   -308.81393   -37.393789    647.17607   -1154.5983    82.624517 
   64900    195.76221   -107.79785   0.17712976   -107.62072     995.4312    4.3533508    4.3533508    4.3533508     995.4312    3667.3178    735.42518   -1416.4493    36.903433    623.08991     1505.211    82.503239 
   65000     165.9292   -107.76979   0.15013622   -107.61965    449.41644     4.357813     4.357813     4.357813    449.41644    838.47678   -6712.7576    7222.5302   -1306.7775    1015.6421   -1933.2614    82.757198 
   65100     241.8272   -107.83625   0.21881033   -107.61744   -1138.5416    4.3534623    4.3534623    4.3534623   -1138.5416   -1746.7522   -1238.9497   -429.92278    1007.4336    278.23726    937.53292    82.509575 
   65200    165.85702   -107.76769   0.15007092   -107.61762    749.03027     4.355862     4.355862     4.355862    749.03027     5401.634   -6338.2822     3183.739    -1399.442    2923.6324    301.38606    82.646092 
   65300    226.15614   -107.82257   0.20463083   -107.61794   -2316.9821    4.3563358    4.3563358    4.3563358   -2316.9821    1273.5804   -1672.5504   -6551.9764    293.48934   -574.29654   -740.96124    82.673065 
   65400    210.47096   -107.80872   0.19043855   -107.61829   -316.62409    4.3537149    4.3537149    4.3537149   -316.62409    6612.6922   -6314.5844   -1247.9801    -428.3008    647.03446    616.75439     82.52394 
   65500     143.0377   -107.74786   0.12942352   -107.61844    1208.3267    4.3573829    4.3573829    4.3573829    1208.3267    3694.7311    837.96948    -907.7205   -414.96479   -1099.2135    359.60936    82.732693 
   65600    290.61909   -107.88005   0.26295826   -107.61709   -4930.2281    4.3544647    4.3544647    4.3544647   -4930.2281   -4610.2896   -8950.5851   -1229.8096    821.40451   -320.79586    6.2059888    82.566584 
   65700    91.025626   -107.70066  0.082361899   -107.61829    5439.2418    4.3548368    4.3548368    4.3548368    5439.2418    9516.5325    4474.3349    2326.8579   -1437.0543    3119.7768    1512.0146    82.587753 
   65800    310.80875   -107.89949   0.28122629   -107.61826   -8672.8224    4.3570427    4.3570427    4.3570427   -8672.8224   -1127.1428   -13268.683   -11622.641    723.17654   -20.826957   -248.11184    82.713317 
   65900    102.46831    -107.7138  0.092715482   -107.62109    6203.1334    4.3526367    4.3526367    4.3526367    6203.1334    11769.767    4422.9309    2416.7022    -113.4364    2519.5535   -812.70607    82.462646 
   66000    267.32794   -107.86271   0.24188394   -107.62082   -7418.9762    4.3576104    4.3576104    4.3576104   -7418.9762    380.18283   -12083.443   -10553.668    311.46666   -2016.0316    2331.9853    82.745655 
   66100    147.18164   -107.75335   0.13317304   -107.62017     2530.128    4.3540707    4.3540707    4.3540707     2530.128    2545.3251    2442.0363    2603.0226   -1608.3528    3248.4171   -2878.4819    82.544175 
   66200    246.72368   -107.84121   0.22324077   -107.61797   -3977.5507    4.3554576    4.3554576    4.3554576   -3977.5507   -160.35368   -7153.9985      -4618.3    448.06932     1187.462    1056.1052     82.62308 
   66300    146.06288   -107.74994   0.13216077   -107.61778    792.74983    4.3568212    4.3568212    4.3568212    792.74983    8987.1931   -2443.0584   -4165.8852   -1206.3843    1297.7758   -259.73561    82.700703 
   66400    240.56722   -107.83493   0.21767027   -107.61726   -2128.0318    4.3536036    4.3536036    4.3536036   -2128.0318    1688.3042    -3467.488   -4604.9117    294.79636    853.68738   -2314.1858     82.51761 
   66500    171.23634    -107.7731   0.15493823   -107.61816   -930.14596    4.3567815    4.3567815    4.3567815   -930.14596    6210.1674   -4552.8565   -4447.7488   -91.024431   -2163.3177    2200.3765    82.698442 
   66600    241.32018   -107.83629   0.21835157   -107.61794   -3913.8234    4.3555292    4.3555292    4.3555292   -3913.8234   -2575.5015    -3458.986   -5706.9827   -267.03541    775.45915   -2843.4893    82.627153 
   66700    175.54859   -107.77709   0.15884005   -107.61825     1728.418    4.3538994    4.3538994    4.3538994     1728.418    4820.7157   -2653.6261    3018.1643     1949.211   -1188.7201    161.31657    82.534435 
   66800     191.6338   -107.79151   0.17339429   -107.61812   -2226.2128    4.3576613    4.3576613    4.3576613   -2226.2128    5361.0622   -4386.1758    -7653.525   -1685.8546    2125.1688    505.31233    82.748556 
   66900    197.78089    -107.7971   0.17895631   -107.61814    1452.6774    4.3531738    4.3531738    4.3531738    1452.6774    4486.5556   -1361.5439    1233.0206    1535.4885   -235.63023   -1015.1783    82.493176 
   67000    222.31189   -107.82056   0.20115247   -107.61941   -2105.0402    4.3559667    4.3559667    4.3559667   -2105.0402    2831.7713   -1656.7865   -7490.1053   -831.65933    318.69261    502.93512    82.652057 
   67100    207.81743   -107.80879   0.18803757   -107.62075   -1302.7922    4.3554641    4.3554641    4.3554641   -1302.7922   -555.25429   -3110.3456   -242.77679    541.26968   -1458.5478    282.93661    82.623448 
   67200    204.66162   -107.80554   0.18518213   -107.62036    805.77344      4.35439      4.35439      4.35439    805.77344    3298.4421   -1015.9484    134.82663   -1153.4815    2596.4477   -461.42657    82.562333 
   67300    188.39091   -107.78952   0.17046005   -107.61906   -535.51677    4.3564993    4.3564993    4.3564993   -535.51677    2942.8848   -3760.2925   -789.14262    -68.14418    1452.6474    556.56133    82.682378 
   67400    153.81601   -107.75715   0.13917596   -107.61797    3670.5953    4.3542858    4.3542858    4.3542858    3670.5953    11088.276   -118.19824    41.707637   -237.25769    -122.5769   -282.84492     82.55641 
   67500    282.46078   -107.87272   0.25557645   -107.61714   -4736.0747    4.3557441    4.3557441    4.3557441   -4736.0747   -4995.4608    -4310.632   -4902.1312   -775.13784     507.3164   -481.65268    82.639385 
   67600    124.55399   -107.73166   0.11269907   -107.61896    3754.5985    4.3556716    4.3556716    4.3556716    3754.5985    6932.2657    2675.7318    1655.7979    747.09775   -2777.9438    977.15492     82.63526 
   67700    305.99262   -107.89491   0.27686855   -107.61804   -4633.7826     4.354649     4.354649     4.354649   -4633.7826   -3397.3504   -7256.7632   -3247.2343   -546.06202     1367.716   -1733.6962    82.577067 
   67800    86.052755   -107.69728  0.077862341   -107.61942    6486.3531    4.3556933    4.3556933    4.3556933    6486.3531    8983.9056      5934.83    4540.3236     2004.598   -718.45357   -21.578768    82.636494 
   67900    264.99408   -107.85786   0.23977222   -107.61809   -3745.6221    4.3551522    4.3551522    4.3551522   -3745.6221    5078.1009   -11148.815   -5166.1522    -146.0492    251.59347   -196.06284    82.605701 
   68000    149.52614   -107.75367   0.13529439   -107.61838    4084.1301    4.3547926    4.3547926    4.3547926    4084.1301    2249.7689    7031.6494    2970.9719    605.71293    344.57735   -1371.4122     82.58524 
   68100    276.63218    -107.8685   0.25030261    -107.6182   -5669.7034    4.3561075    4.3561075    4.3561075   -5669.7034    1223.7121   -10830.823   -7401.9997    973.53657   -1865.8656    1414.6565    82.660069 
   68200    148.85432   -107.75467   0.13468651   -107.61998     3987.288    4.3546873    4.3546873    4.3546873     3987.288    2886.4269    5288.1317    3787.3055   -671.99157    463.85044   -1196.7926    82.579246 
   68300    235.26726   -107.83271   0.21287476   -107.61984   -1431.0754    4.3550198    4.3550198    4.3550198   -1431.0754    6496.1484   -7502.9478   -3286.4267    658.70954    2252.4225    927.42068    82.598163 
   68400    139.38491   -107.74592   0.12611839    -107.6198    2940.5855    4.3557438    4.3557438    4.3557438    2940.5855    4305.3775    1252.5997    3263.7793   -410.39679    1579.1691    435.27365    82.639367 
   68500    232.72981   -107.82854   0.21057883   -107.61796   -639.34644     4.354734     4.354734     4.354734   -639.34644    5492.9051   -4268.8947   -3142.0497    518.20832   -479.47702   -971.76266    82.581904 
   68600    233.50976   -107.82897   0.21128454   -107.61768   -2771.4775    4.3560128    4.3560128    4.3560128   -2771.4775   -4701.1109   -1620.3959   -1992.9258   -559.78525   -630.93715    1316.7157    82.654679 
   68700    160.19001   -107.76458   0.14494329   -107.61964     2522.738     4.354985     4.354985     4.354985     2522.738    14455.502   -4506.4048   -2380.8831   -301.09628     -872.695    90.134659    82.596183 
   68800    242.90003   -107.83985   0.21978105   -107.62007   -1193.4207    4.3544369    4.3544369    4.3544369   -1193.4207   -404.28839   -2636.7281   -539.24549    -372.5721    1408.0553   -247.15518    82.565002 
   68900    133.40851    -107.7416   0.12071082   -107.62089    2970.8256    4.3559175    4.3559175    4.3559175    2970.8256    14076.739   -4448.5196   -715.74289     1715.431    540.15039    187.64138    82.649252 
   69000    234.59071   -107.83145    0.2122626   -107.61919   -918.30731    4.3548394    4.3548394    4.3548394   -918.30731   -3031.0353   -1469.7223    1745.8356    456.59131   -2222.1267   -1609.2423    82.587904 
   69100    213.68031   -107.81197   0.19334243   -107.61863    -526.3082    4.3551084    4.3551084    4.3551084    -526.3082    6889.3319   -3739.9885    -4728.268    482.98816    1537.7587    321.86272    82.603209 
   69200    180.33881   -107.78168   0.16317435    -107.6185    574.61589    4.3559576    4.3559576    4.3559576    574.61589    4452.0554   -3064.0909    335.88326    1249.4693   -2512.3416   -637.59761    82.651534 
   69300    212.95238   -107.81113   0.19268379   -107.61845    671.78315    4.3542494    4.3542494    4.3542494    671.78315    8436.3623   -4550.7307   -1870.2821   -681.73825    2310.8833   -252.95996    82.554338 
   69400     179.7028   -107.78161   0.16259887   -107.61901    306.30711    4.3558729    4.3558729    4.3558729    306.30711    6708.7224   -4883.7823   -906.01874    2056.1819    1187.5011    281.72784    82.646715 
   69500    210.95728   -107.80947   0.19087858   -107.61859   -918.54499    4.3554917    4.3554917    4.3554917   -918.54499   -2066.1546   -3336.6078    2647.1275   -410.70515    16.681539   -752.18437     82.62502 
   69600    217.54299   -107.81459   0.19683747   -107.61776   -388.21141    4.3546859    4.3546859    4.3546859   -388.21141    8557.4824   -4853.6754   -4868.4413    929.61026    606.44043   -521.26987    82.579171 
   69700    178.11718   -107.77889   0.16116417   -107.61772    62.072677    4.3563045    4.3563045    4.3563045    62.072677    296.25348   -980.72671    870.69126   -1140.4068   -1607.1154   -40.439762    82.671285 
   69800    196.94328   -107.79609   0.17819842   -107.61789    1002.9452    4.3542426    4.3542426    4.3542426    1002.9452     17424.07   -6740.8264   -7674.4079   -1322.6474    1245.8942    236.87585    82.553952 
   69900    185.24422   -107.78744   0.16761287   -107.61983    468.00847    4.3553265    4.3553265    4.3553265    468.00847   -3052.9935    55.579832    4401.4391   -193.26511    1274.2005    3.2746999    82.615617 
   70000    227.04921   -107.82588    0.2054389   -107.62044   -3382.6633    4.3561142    4.3561142    4.3561142   -3382.6633    6415.2264   -10716.679    -5846.537    321.21854    625.53552    814.63537    82.660448 
   70100     182.1416   -107.78462   0.16480555   -107.61982    1757.4887     4.353769     4.353769     4.353769    1757.4887   -555.75537    2352.6186    3475.6028    112.00868   -2039.1955   -2673.4096    82.527019 
   70200    207.99221   -107.80684   0.18819572   -107.61864   -2483.2042    4.3568399    4.3568399    4.3568399   -2483.2042    10556.081   -10855.651   -7150.0432   -1063.7095    2381.9578    669.07322     82.70177 
   70300    175.58983   -107.77686   0.15887737   -107.61799    857.08992    4.3547627    4.3547627    4.3547627    857.08992    4526.9844    1332.1946   -3287.9093    411.63037   -804.97469   -739.44306    82.583537 
   70400    227.52686    -107.8234   0.20587108   -107.61753   -1659.7036    4.3549823    4.3549823    4.3549823   -1659.7036    6860.2448   -9293.6883   -2545.6674   -734.97019    3425.3558   -1638.8849    82.596033 
   70500    175.66995   -107.77719   0.15894986   -107.61824    -733.9485    4.3567363    4.3567363    4.3567363    -733.9485    819.71742   -1536.4506   -1485.1124     1178.561     272.9656    1922.2825    82.695869 
   70600     254.2332   -107.84792   0.23003555   -107.61789   -2940.9972    4.3540837    4.3540837    4.3540837   -2940.9972    2495.4919   -8418.9357   -2899.5478   -193.88269    377.02142   -3578.9401    82.544914 
   70700    106.61891   -107.71505  0.096471033   -107.61858    4742.2658    4.3559615    4.3559615    4.3559615    4742.2658    11988.697   -50.734174    2288.8351   -390.78187    976.34548    375.55494    82.651756 
   70800    298.06866   -107.88697   0.26969879   -107.61727   -7719.9511    4.3558606    4.3558606    4.3558606   -7719.9511   -1767.2447   -10012.386   -11380.222   -727.03073   -1061.8942   -940.52404    82.646013 
   70900    103.41355   -107.71209  0.093570755   -107.61852    6137.0535    4.3539594    4.3539594    4.3539594    6137.0535    13685.021    2198.7562    2527.3836   -1475.2235    2000.1353   -2014.9418    82.537848 
   71000    309.46764   -107.89922   0.28001282   -107.61921   -8477.7357    4.3569557    4.3569557    4.3569557   -8477.7357   -6354.8202   -11163.182   -7915.2052    1129.0361   -277.65912    2220.8545    82.708362 
   71100    115.00013   -107.72551   0.10405453   -107.62146    4762.1739    4.3536052    4.3536052    4.3536052    4762.1739    11789.824    783.09825    1713.5995    398.87014   -1307.1892   -2046.7675    82.517705 
   71200    254.15808      -107.85   0.22996757   -107.62003   -3299.0807    4.3561624    4.3561624    4.3561624   -3299.0807    3107.8743   -10769.868   -2235.2482    63.023886   -1617.4236    584.20262    82.663195 
   71300    134.30921   -107.74117   0.12152579   -107.61964    2244.4212    4.3553537    4.3553537    4.3553537    2244.4212    10357.055     818.4156   -4442.2067   -1057.4679    1691.5677   -1387.9172    82.617166 
   71400    265.98499   -107.85842   0.24066881   -107.61775   -3757.4347    4.3545029    4.3545029    4.3545029   -3757.4347   -1087.5979   -8035.3435   -2149.3626   -492.00712    178.44418   -752.39724    82.568756 
   71500    167.25237   -107.76935   0.15133346   -107.61802    1004.7056    4.3568796    4.3568796    4.3568796    1004.7056    7985.2813    442.26147   -5413.4258    630.34916    2110.1522    1347.7344    82.704031 
   71600     212.6042   -107.81061   0.19236875   -107.61825   -1948.8121    4.3539494    4.3539494    4.3539494   -1948.8121    1741.6574   -8364.2956      776.202   -141.71239   -1412.6766   -847.03899    82.537278 
   71700    183.04594   -107.78436   0.16562381   -107.61874    1222.0305    4.3557475    4.3557475    4.3557475    1222.0305    11822.809    -2323.615   -5833.1025    339.08103    752.97325   -218.35152     82.63958 
   71800    199.41919   -107.79904   0.18043868    -107.6186   -1499.0945    4.3560178    4.3560178    4.3560178   -1499.0945    2421.5886   -7591.9961    673.12394   -1271.6645    632.45679    -996.4764    82.654965 
   71900    223.89695   -107.82057   0.20258667   -107.61799   -1687.5304     4.353954     4.353954     4.353954   -1687.5304    3992.2108   -447.38213     -8607.42   -98.198767   -334.86327   -1092.8317     82.53754 
   72000    204.15463   -107.80232    0.1847234   -107.61759   -328.72239    4.3570094    4.3570094    4.3570094   -328.72239    3450.6446   -5308.4116    871.59986   -268.41084    1962.8568   -364.74102    82.711422 
   72100    174.14818   -107.77577   0.15757294   -107.61819    696.65861    4.3541021    4.3541021    4.3541021    696.65861    6004.8167    571.64619   -4486.4871    1703.3088   -1986.8567   -176.63494    82.545959 
   72200    208.62148   -107.80767    0.1887651    -107.6189     -254.546    4.3552676    4.3552676    4.3552676     -254.546     8015.026   -8265.1981   -513.46584    708.34237   -891.57165   -837.79128    82.612267 
   72300    197.57964   -107.79805   0.17877421   -107.61928   -844.26634    4.3562776    4.3562776    4.3562776   -844.26634    1862.0589   -976.57014   -3418.2878    9.8765501   -549.45541    149.53105    82.669756 
   72400    199.76966   -107.79946   0.18075578   -107.61871   -1073.2941    4.3539895    4.3539895    4.3539895   -1073.2941    6636.1585   -6212.7471   -3643.2938    342.30045    1896.9307   -1452.8167    82.539558 
   72500    249.00873   -107.84297   0.22530833   -107.61766    -3111.669    4.3569523    4.3569523    4.3569523    -3111.669   -1301.4611   -1636.9732   -6396.5727    141.44255    910.58215   -611.98004    82.708173 
   72600    117.90153   -107.72548   0.10667978    -107.6188    4539.4381    4.3537801    4.3537801    4.3537801    4539.4381    17302.489   -3015.3853   -668.78922    2129.9022    251.17773    1264.6083    82.527651 
   72700    257.95868   -107.85236   0.23340644   -107.61896   -3995.3264    4.3557786    4.3557786    4.3557786   -3995.3264   -2985.0322   -4031.2055   -4969.7417   -316.48846   -346.26259    35.061175    82.641346 
   72800    137.71932    -107.7446   0.12461133   -107.61998    4179.9699    4.3553471    4.3553471    4.3553471    4179.9699    14489.583   -4993.9661    3044.2934    207.94044   -197.04702    729.86645    82.616792 
   72900    272.48062   -107.86576    0.2465462   -107.61922   -5624.5862    4.3546242    4.3546242    4.3546242   -5624.5862   -4871.2149    -5484.364   -6518.1797   -1134.9304    2505.0439   -375.53515    82.575657 
   73000    141.83561   -107.74755   0.12833584   -107.61921    3260.2053    4.3562979    4.3562979    4.3562979    3260.2053    15927.766   -5845.8401   -301.31038    677.24863    -1781.186   -1078.4394     82.67091 
   73100    261.34887   -107.85448   0.23647395   -107.61801   -3223.7329    4.3544532    4.3544532    4.3544532   -3223.7329   -678.43886   -2770.1737   -6222.5861    298.97603    1302.6105    507.00249    82.565932 
   73200    128.95279   -107.73584   0.11667919   -107.61916    3468.2638    4.3550943    4.3550943    4.3550943    3468.2638    14416.272   -4096.3627     84.88161    1213.6918   -2024.6695     336.9503    82.602403 
   73300    233.06128    -107.8291   0.21087875   -107.61822   -934.34172     4.356015     4.356015     4.356015   -934.34172   -160.71527   -2771.6886    129.37869    733.29647    -1002.215   -506.30101    82.654804 
   73400     199.5697   -107.79936   0.18057486   -107.61878    133.96886    4.3541479    4.3541479    4.3541479    133.96886    6868.0715   -5052.6862   -1413.4787   -1195.4969    1564.4305    1019.9742    82.548566 
   73500     165.9015   -107.76893   0.15011116   -107.61882    1574.3889     4.356084     4.356084     4.356084    1574.3889    10196.037   -5640.6026    167.73261    1545.3495   -1160.8246   -2009.1092    82.658731 
   73600    277.54367   -107.86852   0.25112735   -107.61739   -3826.4026     4.355347     4.355347     4.355347   -3826.4026    -1336.412   -4635.9774   -5506.8185    291.91036    1283.6211   -230.50267    82.616783 
   73700    125.80263   -107.73211   0.11382886   -107.61828    3510.3387      4.35451      4.35451      4.35451    3510.3387    13804.937   -4334.4201    1060.4995    2048.4511   -1382.0025    267.14959     82.56916 
   73800    259.69712    -107.8529   0.23497941   -107.61793    -3472.298    4.3562958    4.3562958    4.3562958    -3472.298   -5552.9582   -1793.1212   -3070.8146   -352.26264    1348.6706   -982.81482    82.670788 
   73900    147.34618   -107.75257   0.13332192   -107.61925    3839.1247    4.3543062    4.3543062    4.3543062    3839.1247    14168.946   -5237.5053    2585.9333   -1554.9373    168.47192    2501.5965    82.557568 
   74000     212.9083   -107.81232    0.1926439   -107.61968    -1785.197    4.3553304    4.3553304    4.3553304    -1785.197    908.43414   -2358.7427   -3905.2825    470.50666    3001.6444   -1614.0059     82.61584 
   74100    202.00224   -107.80176   0.18277588   -107.61899    216.83711    4.3557025    4.3557025    4.3557025    216.83711    9798.4018   -8114.2347   -1033.6558   -388.84491   -2546.8376    86.412915    82.637018 
   74200    231.71692   -107.82801   0.20966234   -107.61835   -2507.2001    4.3548492    4.3548492    4.3548492   -2507.2001    -742.0715   -1367.8392   -5411.6896     802.9036    1428.6621   -370.72981    82.588459 
   74300    164.83324   -107.76763   0.14914458   -107.61849     871.7635    4.3559324    4.3559324    4.3559324     871.7635    10476.085   -5859.7587   -2001.0356   -986.32241    76.058122   -378.80184    82.650101 
   74400    231.29454   -107.82699   0.20928016   -107.61771   -1072.5763    4.3548501    4.3548501    4.3548501   -1072.5763    236.10055   -1220.0086   -2233.8209    58.269939    551.73786     1758.205    82.588512 
   74500    141.12337   -107.74635   0.12769139   -107.61866     2165.026    4.3550787    4.3550787    4.3550787     2165.026    11038.674   -4600.9383    57.342675   -491.37552    2077.8778   -313.74117    82.601518 
   74600    240.26281   -107.83527   0.21739484   -107.61788   -2943.5081    4.3559657    4.3559657    4.3559657   -2943.5081    1392.7461   -3652.5665   -6570.7039    8.0429324   -1731.5992   -241.34776    82.651998 
   74700    210.75713   -107.80852   0.19069748   -107.61783   -489.89574    4.3548843    4.3548843    4.3548843   -489.89574    5457.7161   -5832.7839   -1094.6194    897.05671    2732.4184   -1225.2315    82.590454 
   74800    178.65026   -107.77973   0.16164651   -107.61809   -404.16771    4.3556922    4.3556922    4.3556922   -404.16771    9178.1568   -203.82915   -10186.831   -727.55905   -1320.0628   -481.08155    82.636429 
   74900    253.03522   -107.84672   0.22895159   -107.61776   -2445.2172    4.3554308    4.3554308    4.3554308   -2445.2172     411.7892   -5884.7525   -1862.6882    237.70026    1535.6691    -701.2994    82.621555 
   75000    113.52312   -107.72173    0.1027181   -107.61901    4504.3886    4.3545292    4.3545292    4.3545292    4504.3886    15131.357    3513.3329   -5131.5246   -1034.6106     1856.698    794.78452    82.570256 
   75100    274.68939   -107.86673   0.24854473   -107.61819   -5771.6462    4.3561746    4.3561746    4.3561746   -5771.6462   -4481.9728   -10229.117   -2603.8491    1023.9019   -687.16928    -590.2722    82.663888 
   75200    130.26445   -107.73678   0.11786601   -107.61892     4741.426    4.3545475    4.3545475    4.3545475     4741.426    17159.885    2456.8354    -5392.442   -68.421359    300.21635   -485.44797    82.571297 
   75300    269.01612   -107.86163   0.24341144   -107.61822   -6274.6042    4.3558227    4.3558227    4.3558227   -6274.6042   -3155.3027   -10770.274   -4898.2355       386.47   -266.94971   -630.76923     82.64386 
   75400    154.30369   -107.75824   0.13961723   -107.61862    2777.3789    4.3553723    4.3553723    4.3553723    2777.3789    14225.298    4079.6821   -9972.8437   -637.30019    721.45063   -1710.1285    82.618222 
   75500    243.02454   -107.83796   0.21989371   -107.61806   -2600.4442    4.3549942    4.3549942    4.3549942   -2600.4442   -1041.5705   -6055.8575   -703.90457     527.6401    1511.8111    1692.7764    82.596709 
   75600    148.09568   -107.75305   0.13400009   -107.61905    1671.5952    4.3555066    4.3555066    4.3555066    1671.5952    10250.993    1467.0671   -6703.2747    962.14813   -207.55104   -416.41317    82.625864 
   75700    224.95294   -107.82197   0.20354214   -107.61843   -826.77605    4.3552423    4.3552423    4.3552423   -826.77605    4595.7591   -7485.0549     408.9677   -201.22458    66.980843    850.27225    82.610829 
   75800    191.64862   -107.79232    0.1734077   -107.61891   -1160.4772    4.3551448    4.3551448    4.3551448   -1160.4772    3513.7532   -2304.4726   -4690.7123   -62.688129    326.11238   -669.77004    82.605279 
   75900     191.9134     -107.792   0.17364728   -107.61835   -434.48209    4.3556176    4.3556176    4.3556176   -434.48209    11237.882    -5984.943   -6556.3852   -798.43576    1765.2075    -1965.981    82.632182 
   76000    239.20462   -107.83415   0.21643737   -107.61771   -1722.8206    4.3550354    4.3550354    4.3550354   -1722.8206    433.15931    354.12996    -5955.751    927.17188   -1551.8866    513.44973    82.599051 
   76100    157.98778    -107.7615   0.14295067   -107.61855    560.61135    4.3556034    4.3556034    4.3556034    560.61135    13373.127   -5367.5075   -6323.7854    270.58183    184.87791   -603.07702    82.631374 
   76200    225.72194   -107.82237   0.20423795   -107.61813   -744.97209    4.3550092    4.3550092    4.3550092   -744.97209    1542.8205   -1405.9832   -2371.7536   -348.81129   -1652.5164    44.545301    82.597563 
   76300    191.32667   -107.79197    0.1731164   -107.61886    75.715112    4.3552811    4.3552811    4.3552811    75.715112    10773.162   -8826.7499   -1719.2668    594.27915    1789.2501   -24.138326    82.613032 
   76400    179.75105   -107.78173   0.16264253   -107.61909   -220.22283    4.3553892    4.3553892    4.3553892   -220.22283    6879.0723    -2465.473   -5074.2678    286.95381    982.77328   -2082.9182    82.619183 
   76500    229.65494   -107.82568   0.20779662   -107.61789   -583.32735    4.3551156    4.3551156    4.3551156   -583.32735    7802.7888   -6868.9837   -2683.7872    2282.4756    125.98624    -818.5013    82.603614 
   76600    188.44874   -107.78879   0.17051238   -107.61827   -972.63712     4.355757     4.355757     4.355757   -972.63712    6072.9676    521.60176   -9512.4807   -195.52323    515.52944   -383.40835    82.640119 
   76700    186.27961   -107.78697    0.1685497   -107.61842    1279.2081    4.3545111    4.3545111    4.3545111    1279.2081     11915.51   -5340.2489   -2737.6371   -758.88765    387.86911   -1027.3563    82.569222 
   76800    245.07585   -107.84025   0.22174978    -107.6185   -1977.0886    4.3558367    4.3558367    4.3558367   -1977.0886    1799.0116   -2551.5646   -5178.7128   -307.64857    670.28662    1861.5434    82.644656 
   76900    148.47259   -107.75419   0.13434112   -107.61985    1766.9665    4.3549519    4.3549519    4.3549519    1766.9665    13563.967   -7706.2332   -556.83443    530.75598     936.4973   -1247.9675    82.594302 
   77000    235.13476   -107.83125   0.21275487    -107.6185   -851.66608    4.3552919    4.3552919    4.3552919   -851.66608    3271.2982   -3547.8301   -2278.4663   -382.00439   -1853.8826   -520.72862    82.613649 
   77100    197.20918   -107.79674   0.17843901    -107.6183   -281.09677    4.3557212    4.3557212    4.3557212   -281.09677    9092.1649   -4268.4881   -5666.9672    -346.2357    20.629256    -350.4556    82.638081 
   77200    156.41009   -107.76008   0.14152314   -107.61855    1914.0631    4.3543226    4.3543226    4.3543226    1914.0631    13495.835    -2583.293   -5170.3525   -1968.1472    236.39716   -1533.2954    82.558502 
   77300    280.65561   -107.87191    0.2539431   -107.61797   -4159.3975    4.3564539    4.3564539    4.3564539   -4159.3975   -2622.3082   -1985.8318   -7870.0524    632.71515    617.00394    1766.3373    82.679788 
   77400    104.23701   -107.71382  0.094315833   -107.61951    4852.8674    4.3542368    4.3542368    4.3542368    4852.8674    21784.374   -6402.0034   -823.76891    1032.1957   -493.77876   -808.23501    82.553621 
   77500     294.4772     -107.885   0.26644916   -107.61855   -5587.7878    4.3557703    4.3557703    4.3557703   -5587.7878    -5780.273   -4674.6164   -6308.4741   -904.51933    45.533093    249.42166    82.640873 
   77600    111.73941   -107.72034   0.10110417   -107.61923    6239.3926    4.3552446    4.3552446    4.3552446    6239.3926     23779.64   -5587.3933    525.93144    918.37419   -1598.7287    -1290.003    82.610956 
   77700    255.80033   -107.84966   0.23145352    -107.6182   -4265.3031    4.3547226    4.3547226    4.3547226   -4265.3031   -2570.7132   -2544.6225   -7680.5735   -1052.0372    870.91273   -1779.5981    82.581256 
   77800    171.53552   -107.77356   0.15520894   -107.61835     2609.197    4.3560365    4.3560365    4.3560365     2609.197     15615.53     -3136.96   -4650.9792    1216.7657   -461.48433   -350.90614    82.656026 
   77900    213.64914   -107.81153   0.19331423   -107.61822   -733.15583    4.3547594    4.3547594    4.3547594   -733.15583    6601.9827   -2605.2937   -6196.1565    434.09872   -513.20015   -258.12476    82.583347 
   78000    196.27238   -107.79603   0.17759138   -107.61844   -790.28171    4.3553673    4.3553673    4.3553673   -790.28171    9671.3179   -7321.9696   -4720.1934    781.78255   -291.87998     419.8513    82.617942 
   78100    200.55998   -107.79956   0.18147088   -107.61809    1149.7336    4.3556911    4.3556911    4.3556911    1149.7336    9998.7813   -2515.5996   -4033.9809   -279.52829   -1433.3373   -841.77701    82.636368 
   78200    223.05437   -107.81998   0.20182428   -107.61815   -2437.6926    4.3546752    4.3546752    4.3546752   -2437.6926    3177.8234   -7287.0277   -3203.8736    135.07851    1531.2182   -411.84177    82.578558 
   78300    149.84197   -107.75387   0.13558016   -107.61829    3049.0983    4.3559173    4.3559173    4.3559173    3049.0983    14114.088    2595.7845   -7562.5772    836.95712    397.30139   -1477.0201    82.649241 
   78400    250.67619   -107.84444   0.22681708   -107.61762   -2125.5027    4.3550351    4.3550351    4.3550351   -2125.5027    2894.7505   -4850.1802   -4421.0785    994.27171    1628.7136    433.72419    82.599037 
   78500    144.41522   -107.74959   0.13066993   -107.61892    1590.3101    4.3549342    4.3549342    4.3549342    1590.3101    13278.306     856.8305   -9364.2064    1347.9776    362.51862    64.315519    82.593297 
   78600    263.36108   -107.85735   0.23829464   -107.61906   -3018.6015    4.3558029    4.3558029    4.3558029   -3018.6015    1617.0316   -6819.4967   -3853.3394   -1685.4776    546.32458    541.51617    82.642732 
   78700     176.9792   -107.78014    0.1601345      -107.62    319.25699    4.3547762    4.3547762    4.3547762    319.25699    10175.598   -1661.7546   -7556.0726     43.52962    594.65246    103.36281    82.584303 
   78800    195.07453   -107.79562   0.17650754   -107.61911   -1193.9448    4.3556879    4.3556879    4.3556879   -1193.9448    7168.8556   -6367.4686   -4383.2214    769.18871    1365.5521   -1718.0794    82.636186 
   78900    172.01268   -107.77386   0.15564068   -107.61822    2683.3241    4.3551591    4.3551591    4.3551591    2683.3241    11452.703    3901.7873   -7304.5182    694.77497   -225.55156   -159.07987     82.60609 
   79000    251.60944   -107.84621   0.22766151   -107.61855    -5016.473    4.3549991    4.3549991    4.3549991    -5016.473   -3419.6385   -5854.1538   -5775.6267    865.14464   -718.28754   -1333.9427    82.596987 
   79100    135.04757   -107.74223   0.12219388   -107.62004    3579.8988    4.3556996    4.3556996    4.3556996    3579.8988     16144.54    3857.2728   -9262.1169   -2146.1258    301.85583    109.98046    82.636852 
   79200    297.21038   -107.88833    0.2689222   -107.61941   -5369.8999    4.3547363    4.3547363    4.3547363   -5369.8999   -2122.3633   -9856.8946   -4130.4418    1379.4329    603.50907    385.29161    82.582035 
   79300    96.611142   -107.70791  0.087415792    -107.6205    3922.3751    4.3555344    4.3555344    4.3555344    3922.3751    18560.866    2858.2539   -9651.9946     56.70641     755.7945   -871.48297    82.627449 
   79400    287.47758   -107.87813   0.26011575   -107.61801    -4374.513    4.3556669    4.3556669    4.3556669    -4374.513   -4555.9811   -6379.5297    -2188.028    1417.1401    2411.3936   -779.15602    82.634991 
   79500    124.01007   -107.73111   0.11220692    -107.6189     3578.954    4.3543067    4.3543067    4.3543067     3578.954    12638.893     6343.508    -8245.539   -612.84345   -2195.5871    -652.1737    82.557595 
   79600    229.12459   -107.82581   0.20731675   -107.61849   -3205.9669    4.3564421    4.3564421    4.3564421   -3205.9669    1804.2168   -6638.3521   -4783.7653   -376.03143    1738.0811   -1155.7287    82.679116 
   79700     189.5479   -107.79004   0.17150693   -107.61853    1934.5694     4.354378     4.354378     4.354378    1934.5694    12026.697    1465.4923   -7688.4815   -1498.6692   -2317.2757    1186.2688    82.561655 
   79800    201.39921    -107.8014   0.18223024   -107.61917   -2254.3776    4.3556751    4.3556751    4.3556751   -2254.3776    6623.5741   -7115.5031   -6271.2039    1383.4225     1202.433   -9.3132972    82.635457 
   79900     248.0187   -107.84276   0.22441253   -107.61834   -2609.0338    4.3558945    4.3558945    4.3558945   -2609.0338   -804.90508   -139.26821   -6882.9281    82.315638   -212.00913   -275.75639    82.647947 
   80000    136.29132   -107.74172   0.12331925    -107.6184    4378.3177     4.354123     4.354123     4.354123    4378.3177    16240.335    633.61913   -3739.0013   -1481.6849   -2196.6744    362.90737     82.54715 
   80100    234.98167   -107.83051   0.21261636   -107.61789   -4126.0818    4.3566083    4.3566083    4.3566083   -4126.0818   -788.67431   -3630.8018   -7958.7693   -974.94472   -103.08713   -2442.5147    82.688584 
   80200    136.79734   -107.74242   0.12377711   -107.61864    5314.0821    4.3542428    4.3542428    4.3542428    5314.0821    18368.749   -647.55565   -1778.9465   -1416.0684   -2327.2895    1081.0484    82.553961 
   80300    264.82161   -107.85904   0.23961616   -107.61943   -5740.3427    4.3555174    4.3555174    4.3555174   -5740.3427   -2193.8858   -6854.7014   -8172.4407    2215.8323    718.98845   -1104.3875    82.626479 
   80400    180.37684   -107.78336   0.16320875   -107.62015     476.7287    4.3561133    4.3561133    4.3561133     476.7287    8241.0572   -4009.4797   -2801.3913   -759.76208    992.34879    445.71369    82.660397 
   80500    233.89404   -107.83044   0.21163224   -107.61881   -258.09072    4.3538869    4.3538869    4.3538869   -258.09072    7526.3839   -767.08177   -7533.5743    546.23734   -1076.2455    272.95678    82.533722 
   80600    135.71947   -107.74194   0.12280183   -107.61914     1978.362    4.3564017    4.3564017    4.3564017     1978.362    11260.986   -2369.0705   -2956.8293   -1632.3732    156.27133   -2042.4258     82.67682 
   80700     239.8341   -107.83487   0.21700693   -107.61786   -801.70804    4.3549223    4.3549223    4.3549223   -801.70804    4093.7236   -1250.0429   -5248.8048    848.64797   -2407.2409   -165.78435    82.592616 
   80800     169.2443   -107.77167    0.1531358   -107.61854     2162.022    4.3544621    4.3544621    4.3544621     2162.022    9617.7542   -2485.3608   -646.32752    1108.7826    1315.7249   -1334.3449     82.56644 
   80900    241.45871   -107.83676   0.21847691   -107.61828   -4126.1036    4.3570643    4.3570643    4.3570643   -4126.1036     3168.446   -9012.5866   -6534.1702    224.63512   -271.04297    686.68863    82.714546 
   81000    170.46572   -107.77237   0.15424097   -107.61813    4547.0652    4.3534794    4.3534794    4.3534794    4547.0652     12539.59    1785.1075   -683.50219     932.8331    362.18237    287.88901    82.510551 
   81100     236.1237   -107.83142   0.21364969   -107.61777   -2926.4352     4.356221     4.356221     4.356221   -2926.4352     4553.547   -6198.0611   -7134.7914   -1599.3315    341.20428    118.54412    82.666533 
   81200    154.97352   -107.75813    0.1402233   -107.61791    3539.3484    4.3556615    4.3556615    4.3556615    3539.3484    6143.9844     3482.736    991.32475    1945.4477    -477.9338   -803.40176    82.634681 
   81300    243.77366   -107.83782   0.22057153   -107.61724    76.192733    4.3537998    4.3537998    4.3537998    76.192733    10430.347   -6324.8999   -3876.8686   -613.61381    1552.4454   -187.56704    82.528767 
   81400    161.23584   -107.76414   0.14588957   -107.61825    1154.6271    4.3567226    4.3567226    4.3567226    1154.6271    3165.3657   -1766.9245    2065.4401    1257.8353    84.661941   -367.91367    82.695088 
   81500      219.524   -107.81607   0.19862993   -107.61744    1085.0456     4.354541     4.354541     4.354541    1085.0456    16169.742   -9260.2869   -3654.3184   -289.00277    1828.0621   -181.65537    82.570925 
   81600    215.51179   -107.81266   0.19499959   -107.61766  -0.47701002    4.3548948    4.3548948    4.3548948  -0.47701002   -1089.4631    1590.6971   -502.66508   -1438.9745    -1303.353    1021.4172    82.591053 
   81700    181.00123   -107.78172   0.16377372   -107.61795    334.24498    4.3566813    4.3566813    4.3566813    334.24498    13118.455   -9437.2821   -2678.4378    2250.8933    545.23023     -1531.08    82.692741 
   81800    208.89849   -107.80609   0.18901574   -107.61707    2656.7775     4.353681     4.353681     4.353681    2656.7775    5385.7507    4551.4103   -1966.8286   -32.903873    444.30385    96.082926    82.522013 
   81900    184.66393   -107.78492    0.1670878   -107.61783     578.5925    4.3562292    4.3562292    4.3562292     578.5925    9935.5188   -11043.969    2844.2275    1655.1796    330.58684   -1731.0028    82.666997 
   82000    189.73043   -107.78994   0.17167208   -107.61827    1771.9044    4.3550198    4.3550198    4.3550198    1771.9044    8835.3554   -109.21093   -3410.4314    587.27951    921.33549   -307.44301    82.598166 
   82100    259.28789   -107.85317   0.23460913   -107.61856    -1630.009    4.3545532    4.3545532    4.3545532    -1630.009    351.88962   -9600.0243    4358.1078    -1254.682   -1272.7157    661.72139    82.571617 
   82200    148.02257    -107.7535   0.13393393   -107.61956    1516.8181    4.3564905    4.3564905    4.3564905    1516.8181    12354.627   -2508.8337   -5295.3386    2060.7338    223.84439   -635.15876    82.681874 
   82300    251.14045   -107.84549   0.22723716   -107.61825   -1527.2672    4.3542076    4.3542076    4.3542076   -1527.2672    391.31115   -5245.3529    272.24023    384.81264    358.08794    555.50536     82.55196 
   82400     130.6887   -107.73676   0.11824988   -107.61851     3956.585    4.3558542    4.3558542    4.3558542     3956.585    12298.064   -138.58895   -289.72032    1928.9981    1911.1332   -1262.0173    82.645653 
   82500    245.03478   -107.83923   0.22171262   -107.61752   -3857.8089    4.3556071    4.3556071    4.3556071   -3857.8089   -3043.9033   -6932.1954    -1597.328    541.37184     578.2232   -583.04004    82.631588 
   82600     182.0779   -107.78273   0.16474791   -107.61798    2468.0087    4.3542899    4.3542899    4.3542899    2468.0087    6410.2179   -651.38669     1645.195   -1559.2959    218.10999    639.06476    82.556642 
   82700    223.30395   -107.82022   0.20205011   -107.61817   -3107.2064    4.3568572    4.3568572    4.3568572   -3107.2064    2570.6995   -9825.3088     -2067.01    1413.0387   -497.88366   -36.641971    82.702754 
   82800     193.9886   -107.79385   0.17552496   -107.61832    226.69219    4.3540894    4.3540894    4.3540894    226.69219    4058.4781    788.26065   -4166.6622   -860.95735    453.07802    290.43304     82.54524 
   82900    182.13815   -107.78295   0.16480242   -107.61814    1053.2859    4.3558061    4.3558061    4.3558061    1053.2859    5820.4571   -6093.1074    3432.5082    2053.5336    103.56249   -230.78583    82.642913 
   83000    218.58763   -107.81557   0.19778268   -107.61779   -3196.2805    4.3559661    4.3559661    4.3559661   -3196.2805   -4596.5341    2983.5464   -7975.8539   -716.25379   -128.37888   -1417.2979    82.652019 
   83100    168.14463   -107.77013    0.1521408   -107.61799    1925.5236    4.3539616    4.3539616    4.3539616    1925.5236     7234.766   -7136.8827    5678.6876   -965.04525   -697.78257    466.38179    82.537967 
   83200    238.90931   -107.83392   0.21617017   -107.61775   -3945.7236    4.3571134    4.3571134    4.3571134   -3945.7236   -3033.2685    3.6632139   -8807.5655    357.25381   -1520.8844   -756.75296    82.717343 
   83300    167.67599   -107.77005   0.15171676   -107.61834    803.50325    4.3542858    4.3542858    4.3542858    803.50325    9279.2709   -7168.4333    299.67214   -688.16516   -72.154728    317.18561    82.556407 
   83400    219.07491   -107.81609   0.19822358   -107.61787   -1260.3479     4.355726     4.355726     4.355726   -1260.3479   -963.20841    2019.7549   -4837.5901    2983.5207    214.43939      129.928    82.638356 
   83500    202.38444   -107.80107    0.1831217   -107.61795   -1741.1945    4.3561617    4.3561617    4.3561617   -1741.1945    -225.8968   -1988.6829   -3009.0039    -946.0951    540.52979   -1796.1217    82.663156 
   83600    174.00339   -107.77533   0.15744192   -107.61789    1040.3254    4.3539245    4.3539245    4.3539245    1040.3254    4225.3923   -1137.1689    32.752788    1007.3189    629.65843    -175.4173    82.535863 
   83700    227.76595   -107.82393   0.20608742   -107.61785   -2701.2566    4.3568985    4.3568985    4.3568985   -2701.2566    748.24582   -2894.0218   -5957.9939   -1173.6318   -451.58154    -654.3074    82.705106 
   83800    189.21168   -107.79013    0.1712027   -107.61893   -692.52086    4.3542474    4.3542474    4.3542474   -692.52086    7907.6592   -7243.4808   -2741.7411    703.32179    928.42892    877.93693    82.554226 
   83900    208.93307   -107.80839   0.18904703   -107.61934    -1171.843    4.3556989    4.3556989    4.3556989    -1171.843    722.96003    1511.5964   -5750.0853    1939.5178    1154.9569   -295.21167    82.636809 
   84000    212.55388   -107.81135   0.19232322   -107.61902     -1781.47    4.3561326    4.3561326    4.3561326     -1781.47    2559.3825    -5399.394   -2504.3984   -2113.5806   -17.109038   -361.30201    82.661499 
   84100    175.93433   -107.77801   0.15918908   -107.61882     1161.876    4.3535233    4.3535233    4.3535233     1161.876    3601.9882    2171.0072   -2287.3673    1120.6925   -743.22167    -2317.316    82.513044 
   84200    187.94497   -107.78817   0.17005656   -107.61811    -32.68096    4.3574389    4.3574389    4.3574389    -32.68096    8784.7629   -5876.4087    -3006.397   -3825.6242   -1763.8636    539.05821    82.735886 
   84300    205.06667   -107.80326   0.18554863   -107.61771   -919.46434    4.3540803    4.3540803    4.3540803   -919.46434    4863.4464     -4174.63   -3447.2094    1037.6395   -904.42869   -1421.1789    82.544719 
   84400    201.40951   -107.80018   0.18223956   -107.61794   -951.38256    4.3554118    4.3554118    4.3554118   -951.38256    7472.8351   -5035.7604   -5291.2223   -414.17867    24.518207   -469.38424    82.620474 
   84500    232.01659   -107.82753   0.20993349    -107.6176   -3125.5344    4.3568879    4.3568879    4.3568879   -3125.5344   -317.67446   -3806.6507   -5252.2781   -641.58443    221.89779     758.0844    82.704506 
   84600    177.62819   -107.77865   0.16072171   -107.61793     1182.295    4.3530747    4.3530747    4.3530747     1182.295    10441.698   -3497.4403   -3397.3732    315.29792   -724.77432   -2959.4556    82.487542 
   84700    187.87417   -107.78757   0.16999249   -107.61758   -278.17717    4.3575221    4.3575221    4.3575221   -278.17717    4740.2492    76.661185   -5651.4419   -2332.5457   -41.241398    670.98662    82.740624 
   84800    196.93775   -107.79542   0.17819341   -107.61722   -65.121009    4.3542831    4.3542831    4.3542831   -65.121009     5990.534   -6993.2254    807.32839    594.43372   -645.56906   -2276.5559    82.556257 
   84900    197.87259    -107.7967   0.17903927   -107.61766   -968.74052     4.355111     4.355111     4.355111   -968.74052    6105.8958   -80.661317    -8931.456   -288.67008    1207.4736   -252.16495    82.603355 
   85000    246.96758   -107.84135   0.22346146   -107.61789   -4392.2009    4.3569627    4.3569627    4.3569627   -4392.2009   -1302.0317   -10824.077   -1050.4943    925.45365    930.42409    449.52562    82.708764 
   85100     153.8898   -107.75801   0.13924272   -107.61877    2094.0872    4.3533008    4.3533008    4.3533008    2094.0872    14830.324     1818.813   -10366.875   -1097.6647    86.187258   -1057.6026    82.500395 
   85200    237.30764   -107.83303   0.21472094   -107.61831   -3730.3344    4.3572466    4.3572466    4.3572466   -3730.3344   -1111.0778   -8583.6675   -1496.2578   -644.07938    -243.7022    309.46553    82.724931 
   85300    149.63207    -107.7539   0.13539024   -107.61851    2492.3052    4.3544576    4.3544576    4.3544576    2492.3052     12039.78    2151.8009   -6714.6655   -1276.4101   -1563.1066   -2393.9803    82.566183 
   85400    237.22214    -107.8324   0.21464358   -107.61776   -2483.2676    4.3548116    4.3548116    4.3548116   -2483.2676   -1722.1005   -6129.3033    401.60105    315.97303   -727.17959    66.532769    82.586321 
   85500    180.82206    -107.7821    0.1636116   -107.61849    484.80648    4.3567926    4.3567926    4.3567926    484.80648    10232.947   -2551.3968   -6227.1304    606.95969    1089.4281   -887.43034    82.699076 
   85600    200.71323   -107.80039   0.18160955   -107.61878    -349.4917     4.353543     4.353543     4.353543    -349.4917    7351.1204   -5638.7288   -2760.8667   -1194.7569   -1326.3447   -498.66152    82.514168 
   85700    222.62783   -107.81985   0.20143834   -107.61841    -2061.993    4.3566217    4.3566217    4.3566217    -2061.993    4506.3726   -3387.5219   -7304.8297    744.15937   -160.16482   -57.821839    82.689342 
   85800    179.47458   -107.78032   0.16239237   -107.61793    663.24038    4.3551984    4.3551984    4.3551984    663.24038    8504.3734   -4175.4849   -2339.1673   -1562.2571   -244.35186   -1654.5503    82.608326 
   85900    228.65108   -107.82409    0.2068883    -107.6172   -2131.2975    4.3545399    4.3545399    4.3545399   -2131.2975    889.60944   -1614.8804   -5668.6216    1013.6635   -958.82967   -1034.5721    82.570861 
   86000    149.42961    -107.7529   0.13520705   -107.61769    3466.6738    4.3565238    4.3565238    4.3565238    3466.6738    16135.031   -5279.8408   -455.16901    890.88334     3339.598    -1093.144    82.683771 
   86100    224.67678   -107.82086   0.20329228   -107.61757    -1217.064    4.3541757    4.3541757    4.3541757    -1217.064    4287.8796   -1708.8679   -6230.2038    75.417792   -1318.8123   -1448.1897    82.550148 
   86200    185.24931   -107.78568   0.16761747   -107.61806    1291.1107    4.3557481    4.3557481    4.3557481    1291.1107        13648   -7314.7597   -2459.9077    342.68139    1763.8985   -45.490414    82.639614 
   86300    244.34808   -107.83871   0.22109128   -107.61762   -1505.5028    4.3554609    4.3554609    4.3554609   -1505.5028    4358.5358   -2472.2232    -6402.821   -448.82285    -951.0589   -268.73035    82.623267 
   86400    172.89454   -107.77463   0.15643861   -107.61819    1248.6975    4.3546807    4.3546807    4.3546807    1248.6975    13647.534   -6325.8065    -3575.635    1209.3929    270.45685   -916.65868    82.578871 
   86500     206.6358   -107.80466   0.18696842   -107.61769    787.04745    4.3559325    4.3559325    4.3559325    787.04745    10525.379   -3805.6808    -4358.556     490.9351    1737.7395   -263.79091    82.650105 
   86600    165.25925   -107.76757   0.14953004   -107.61804    2910.3348     4.354186     4.354186     4.354186    2910.3348     11105.69   -2574.1441    199.45802    1904.5501    531.05256   -2091.1739    82.550734 
   86700     254.1143    -107.8484   0.22992796   -107.61847   -3581.0497    4.3557171    4.3557171    4.3557171   -3581.0497    1889.0511   -7930.5375   -4701.6627   -1649.8646    332.75661    207.16097    82.637846 
   86800    170.95974   -107.77407   0.15468796   -107.61938    3352.3601    4.3550505    4.3550505    4.3550505    3352.3601    10751.365   -1294.9631    600.67815    372.57257    -1030.951   -1066.8049    82.599913 
   86900    229.86424   -107.82732   0.20798599   -107.61934   -2048.3402    4.3549616    4.3549616    4.3549616   -2048.3402    7541.8246   -7566.0464   -6120.7989    -379.0195    904.60699    513.37423    82.594853 
   87000    182.23205   -107.78381   0.16488739   -107.61892    1039.6714    4.3558478    4.3558478    4.3558478    1039.6714    7364.8371   -3432.5393   -813.28364    249.68022    368.27855    -846.2389    82.645285 
   87100    193.35779   -107.79311   0.17495419   -107.61816    1109.0621    4.3545481    4.3545481    4.3545481    1109.0621    6332.6574   -2003.3415   -1002.1297    1145.4089    2954.8502   -1407.6611    82.571329 
   87200    232.38629    -107.8285     0.210268   -107.61823   -3601.7102    4.3556483    4.3556483    4.3556483   -3601.7102   -3387.4474    -6177.188   -1240.4953   -2141.4823   -1557.3923    -282.3065    82.633931 
   87300    138.65715    -107.7444    0.1254599   -107.61894    3615.2205    4.3556834    4.3556834    4.3556834    3615.2205    13453.076   -3527.1694    919.75446    33.870671   -1201.0987   -2296.0582    82.635927 
   87400    246.98649   -107.84231   0.22347856   -107.61883    -3497.352    4.3545648    4.3545648    4.3545648    -3497.352    314.19544   -4116.4036   -6689.8479   -1860.4458   -213.93531    1029.4893     82.57228 
   87500    149.34448   -107.75431   0.13513002   -107.61918     1461.252    4.3558099    4.3558099    4.3558099     1461.252    11294.779   -8308.3992     1397.376     114.8481   -521.86669   -1327.3143    82.643127 
   87600    268.94549   -107.86094   0.24334753   -107.61759   -4178.6712    4.3556555    4.3556555    4.3556555   -4178.6712   -5149.8157    99.863402   -7486.0613     434.5589    1854.0338    80.956558    82.634343 
   87700    158.40717   -107.76149   0.14333013   -107.61816    950.13978    4.3545734    4.3545734    4.3545734    950.13978    9978.5498   -10180.702    3052.5712   -1380.7389      -780.71   -326.41508     82.57277 
   87800    204.56523   -107.80288   0.18509492   -107.61779   -1119.9778    4.3564066    4.3564066    4.3564066   -1119.9778    1336.1446    782.81402   -5478.8921   -703.93188   -933.02521   -2049.7996    82.677097 
   87900    178.64668   -107.77973   0.16164327   -107.61809    1225.6699    4.3541755    4.3541755    4.3541755    1225.6699    10921.455   -7767.7178    523.27221   -668.13739     604.3683    488.16011    82.550133 
   88000    206.47584   -107.80507   0.18682368   -107.61825   -2345.6316     4.356013     4.356013     4.356013   -2345.6316    2300.7946   -3380.4677   -5957.2217   -679.57232    -200.8322   -1278.3615    82.654688 
   88100    231.86405   -107.82759   0.20979546   -107.61779   -1797.4681    4.3558661    4.3558661    4.3558661   -1797.4681    2835.7178   -6181.1955   -2046.9267    806.17107     1941.113    922.50009     82.64633 
   88200    185.63814   -107.78577   0.16796929    -107.6178    479.05514     4.354235     4.354235     4.354235    479.05514    11107.013   -5138.9141   -4530.9337   -712.89615   -83.155348   -157.57278    82.553518 
   88300    207.89796   -107.80581   0.18811044    -107.6177   -1463.4898    4.3569785    4.3569785    4.3569785   -1463.4898    210.76317   -5298.3023    697.06982   -1096.7324    -803.5045   -1098.0291    82.709664 
   88400    156.65039    -107.7595   0.14174057   -107.61776    4514.6748    4.3534365    4.3534365    4.3534365    4514.6748    16698.837   -349.77854    -2805.034   -1356.4941   -1354.6962   -255.24864    82.508112 
   88500    241.89757   -107.83706   0.21887401   -107.61819   -3798.7001    4.3562748    4.3562748    4.3562748   -3798.7001   -6499.8502   -6872.6687    1976.4187    -549.7635    652.66087   -1607.4123    82.669593 
   88600    161.06025   -107.76455    0.1457307   -107.61882    2830.9342    4.3554744    4.3554744    4.3554744    2830.9342    15442.637    320.43399   -7270.2679    84.867792   -737.68804    69.033753    82.624037 
   88700    239.83854   -107.83528   0.21701095   -107.61827   -1236.2326    4.3537383    4.3537383    4.3537383   -1236.2326    2925.7506   -7885.3336    1250.8853   -66.857571    590.82388    440.12587     82.52527 
   88800    180.05008   -107.78144   0.16291309   -107.61852   -410.87593    4.3573269    4.3573269    4.3573269   -410.87593    10107.701   -3606.3357   -7733.9927   -665.73347     -1176.87    -832.8499    82.729507 
   88900    197.72186   -107.79654   0.17890289   -107.61764    2607.3246    4.3535567    4.3535567    4.3535567    2607.3246    8551.7607   -4264.1443    3534.3573   -1233.3902   -637.92945    657.15907    82.514945 
   89000    239.03875   -107.83413   0.21628729   -107.61785   -2148.9037    4.3559754    4.3559754    4.3559754   -2148.9037    80.184294   -2883.7053   -3643.1902    572.44442    2289.6153   -1472.8926    82.652552 
   89100    118.34364   -107.72585   0.10707981   -107.61877    4680.4184    4.3559715    4.3559715    4.3559715    4680.4184      17405.3   -3576.5423    212.49792    1008.7891    458.80976   -841.79152    82.652328 
   89200     275.6103   -107.86713   0.24937799   -107.61775   -1855.6416    4.3531267    4.3531267    4.3531267   -1855.6416    341.50901    -1111.614     -4796.82      699.517     2758.172    1502.0971    82.490499 
   89300    137.07113   -107.74261   0.12402483   -107.61858    1714.7594    4.3576167    4.3576167    4.3576167    1714.7594    14320.455   -6587.0982    -2589.079    385.91502   -964.09318   -1508.2321    82.746011 
   89400    270.09661   -107.86162   0.24438909   -107.61723   -3530.5413    4.3540452    4.3540452    4.3540452   -3530.5413   -1889.8415   -2561.2872   -6140.4951   -1128.4255    1255.2157    2640.9715    82.542726 
   89500    173.04545   -107.77448   0.15657516    -107.6179    2384.5952    4.3551401    4.3551401    4.3551401    2384.5952    10633.499   -4715.5906    1235.8766    577.78139    466.87373    -1738.338    82.605012 
   89600    180.64611   -107.78161    0.1634524   -107.61815   -708.54108    4.3566797    4.3566797    4.3566797   -708.54108     4908.419   -285.82015   -6748.2221    345.25093    768.23448    128.59037    82.692647 
   89700    203.62962   -107.80216   0.18424836   -107.61791    1475.1438    4.3529728    4.3529728    4.3529728    1475.1438    6633.2533   -2445.6626    237.84082     47.22324    317.54265    40.687227    82.481749 
   89800    192.25365   -107.79213   0.17395514   -107.61818   -922.41582    4.3573744    4.3573744    4.3573744   -922.41582    3768.7359    233.98619   -6769.9696     16.69134   -767.25419   -1090.0257    82.732214 
   89900    236.79051    -107.8319   0.21425303   -107.61764   -3520.8635     4.354748     4.354748     4.354748   -3520.8635   -1102.9141   -4349.1999   -5110.4766   -2112.9601   -698.18369    2350.4054    82.582703 
   90000    190.13746   -107.78962   0.17204037   -107.61758     1284.014    4.3549844    4.3549844    4.3549844     1284.014    8985.4924   -2916.6079   -2216.8425   -16.577096   -238.62671   -1478.1998    82.596151 
   90100    190.52227   -107.79016   0.17238855   -107.61778   -1554.3136    4.3568531    4.3568531    4.3568531   -1554.3136    1572.8199    1049.0821   -7284.8429     330.8737    2352.3701    477.63685    82.702519 
   90200    174.63079    -107.7762   0.15800961   -107.61819     2069.118    4.3530336    4.3530336    4.3530336     2069.118    10846.137   -5512.6864    873.90353    509.96738    1217.6455     -885.278    82.485202 
   90300    211.29492   -107.81006   0.19118408   -107.61887   -1007.0135    4.3572643    4.3572643    4.3572643   -1007.0135   -641.47755    6066.9504   -8446.5134    6.5699929    1659.5785   -598.33678    82.725939 
   90400    216.91956   -107.81579   0.19627338   -107.61951   -1831.5683    4.3539052    4.3539052    4.3539052   -1831.5683    3295.7425   -6639.2545   -2151.1928   -659.94157   -117.42963    1033.8244    82.534763 
   90500    200.95348   -107.80104   0.18182693   -107.61922    392.27691    4.3554083    4.3554083    4.3554083    392.27691    6085.6453    2093.1818   -7001.9963    -746.5554    340.08865   -562.17966    82.620271 
   90600     198.2922   -107.79798   0.17941895   -107.61856   -821.86861    4.3563483    4.3563483    4.3563483   -821.86861    5313.7431   -2578.0024   -5201.3465    1593.3272    1268.4419    1184.5076    82.673778 
   90700    183.17661   -107.78394   0.16574205    -107.6182    635.60473    4.3533673    4.3533673    4.3533673    635.60473    4636.2291    -390.0518   -2339.3631   -189.73484    119.65654   -1608.3543    82.504174 
   90800    206.61137   -107.80484   0.18694631   -107.61789   -258.68347    4.3573788    4.3573788    4.3573788   -258.68347    2530.5833    1466.7224   -4773.3561    -285.9509   -158.68389    106.31797    82.732462 
   90900    209.11967   -107.80734   0.18921587   -107.61813   -695.39143    4.3538387    4.3538387    4.3538387   -695.39143    3422.8834   -2289.2131   -3219.8446   -1217.9904   -647.22586   -1020.8377    82.530982 
   91000      192.331   -107.79257   0.17402513   -107.61854    724.33423    4.3556041    4.3556041    4.3556041    724.33423    7404.1756   -1006.0769   -4225.0961   -1278.8356   -1604.1349    495.36806    82.631419 
   91100    214.37848   -107.81195   0.19397415   -107.61798   -509.47207    4.3563871    4.3563871    4.3563871   -509.47207    7225.4461   -224.15816   -8529.7042    753.83714    1072.3874     413.8842    82.675989 
   91200    190.76081   -107.79112   0.17260439   -107.61852     585.9045    4.3530106    4.3530106    4.3530106     585.9045    2411.3683     -254.392   -399.26279   -385.04859   -171.46854   -2245.5246    82.483898 
   91300    197.01244   -107.79658     0.178261   -107.61832   -138.47637      4.35759      4.35759      4.35759   -138.47637    6508.3501    2354.1172   -9277.8964    177.65497    1168.8259    -635.5418    82.744494 
   91400    210.19054   -107.80863   0.19018482   -107.61844    -473.6414    4.3537309    4.3537309    4.3537309    -473.6414    -157.8255   -3767.5379    2504.4392   -1333.9697   -633.44931   -2013.4462     82.52485 
   91500    179.77931   -107.78159    0.1626681   -107.61892    102.27635    4.3553396    4.3553396    4.3553396    102.27635    11301.923    140.29712   -11135.391    174.87085    -86.82335   -697.29065    82.616362 
   91600     202.9002   -107.80185   0.18358836   -107.61826   -147.54962     4.356567     4.356567     4.356567   -147.54962     3325.403   -3014.1335   -753.91842    552.82191    548.80733    765.78615    82.686233 
   91700     234.4544   -107.82997   0.21213927   -107.61783   -2678.6267    4.3533386    4.3533386    4.3533386   -2678.6267    3478.6314    299.45023   -11813.962    1214.3962    666.95599   -2050.3909    82.502544 
   91800    155.10563   -107.75845   0.14034283   -107.61811    1322.0908    4.3573064    4.3573064    4.3573064    1322.0908    3204.2566    1699.0835   -937.06784   -445.46014    1203.9222    93.566227    82.728336 
   91900    272.04631   -107.86378   0.24615322   -107.61763    -4198.423     4.354512     4.354512     4.354512    -4198.423    722.53087   -5497.3471   -7820.4529   -1023.7432   -1649.2599   -1292.7205    82.569277 
   92000    86.254514   -107.69767  0.078044897   -107.61963    4976.1658    4.3546285    4.3546285    4.3546285    4976.1658    12331.848    2966.3564   -369.70681   -841.91449   -860.15291   -1797.0349    82.575901 
   92100    299.20606   -107.88944   0.27072793   -107.61871   -7158.2189    4.3569933    4.3569933    4.3569933   -7158.2189   -1429.3187    -11023.47   -9021.8682    -376.4692    -1443.482    1566.3922    82.710505 
   92200    111.43856   -107.72041   0.10083195   -107.61958    3992.7697    4.3532692    4.3532692    4.3532692    3992.7697    8051.9434    6488.2801   -2561.9145    857.15652    1179.1215   -1965.9812    82.498599 
   92300    294.06173   -107.88404   0.26607324   -107.61797   -8250.7518    4.3574234    4.3574234    4.3574234   -8250.7518   -3487.4919   -8856.8401   -12407.923   -2008.5149    289.15378    288.45485    82.735003 
   92400    131.82184   -107.73769   0.11927517   -107.61842    4208.9885    4.3543391    4.3543391    4.3543391    4208.9885    10810.608    3384.4849   -1568.1278   -258.83683    534.28189   -1205.3802    82.559441 
   92500    234.55994   -107.83018   0.21223476   -107.61795    -4094.174    4.3551926    4.3551926    4.3551926    -4094.174    3488.7465   -5732.1481    -10039.12   -1298.6505    -1147.747   -2625.4156    82.607997 
   92600    169.25285   -107.77161   0.15314353   -107.61847    957.16144    4.3564409    4.3564409    4.3564409    957.16144    6663.8078   -5007.2519    1214.9285    1168.5566   -235.51665    161.07967    82.679053 
   92700    226.38374   -107.82294   0.20483676   -107.61811   -1587.3516    4.3538746    4.3538746    4.3538746   -1587.3516     2318.555   -97.887434   -6982.7223    518.25017   -327.00276   -1323.1783     82.53302 
   92800    189.52854   -107.78989    0.1714894    -107.6184    -1466.659     4.356555     4.356555     4.356555    -1466.659    4576.8556   -6640.4544   -2336.3783   -111.14192    1813.8679    36.049516    82.685548 
   92900     196.5673   -107.79572   0.17785822   -107.61786    797.45463    4.3547723    4.3547723    4.3547723    797.45463    10647.743    1379.3635   -9634.7423   -1109.4373   -1552.4044   -751.99598    82.584086 
   93000    200.47574   -107.79979   0.18139467   -107.61839   -498.86573      4.35472      4.35472      4.35472   -498.86573    5798.0627   -4280.7968   -3013.8631   -222.48333     -9.21968   -1844.9431    82.581111 
   93100    224.54069   -107.82173   0.20316914   -107.61856   -2005.6799    4.3564569    4.3564569    4.3564569   -2005.6799    6984.5645   -4906.1582   -8095.4461     115.4129   -2403.4164   -675.60417    82.679959 
   93200    185.33803   -107.78671   0.16769774   -107.61901    2669.7721    4.3540365    4.3540365    4.3540365    2669.7721    6300.8075    -1403.037    3111.5458   -298.00766    1053.3701    27.852411    82.542231 
   93300    214.62827   -107.81375   0.19420017   -107.61955   -1039.3908     4.355328     4.355328     4.355328   -1039.3908    10213.506   -6294.2004   -7037.4782   -449.65421    2004.8145    126.67655    82.615701 
   93400    175.70357   -107.77802   0.15898028   -107.61904    2688.1819    4.3555435    4.3555435    4.3555435    2688.1819    8124.2967   -1325.5412    1265.7902   -2333.5309     66.72071    116.06205    82.627967 
   93500    217.80783   -107.81557    0.1970771    -107.6185    477.58685    4.3542544    4.3542544    4.3542544    477.58685    11605.358   -330.43057   -9842.1671    405.26287    1429.6548   -59.749437    82.554622 
   93600    217.38366   -107.81488   0.19669331   -107.61819   -1556.0853    4.3562244    4.3562244    4.3562244   -1556.0853    2852.0471   -6090.9486   -1429.3544   -316.09413   -1051.2577   -1465.7162    82.666723 
   93700    188.02921   -107.78842   0.17013278   -107.61828    2509.7743    4.3546143    4.3546143    4.3546143    2509.7743    10595.366      2889.46   -5955.5033    191.24827    2428.5505    34.707945    82.575096 
   93800    199.00526   -107.79872   0.18006414   -107.61866    518.60478     4.354847     4.354847     4.354847    518.60478    9260.0935   -8280.4638    576.18465   -360.44113    664.98739   -771.91153    82.588335 
   93900    184.03579   -107.78512   0.16651945    -107.6186    1263.3439    4.3557997    4.3557997    4.3557997    1263.3439    3811.0538    4574.7829   -4595.8049   -893.46336    324.07758    114.55996    82.642548 
   94000     206.8245   -107.80519   0.18713915   -107.61805    935.30985    4.3546542    4.3546542    4.3546542    935.30985    10055.553   -4131.1345    -3118.489    77.838353   -394.48828    340.96054    82.577363 
   94100    217.26547   -107.81421   0.19658636   -107.61763   -2019.2875    4.3557512    4.3557512    4.3557512   -2019.2875   -224.24624    1239.2574   -7072.8737    47.228296   -908.92025   -1540.8935    82.639787 
   94200    201.26607   -107.79945   0.18210977   -107.61734    794.48316    4.3553885    4.3553885    4.3553885    794.48316    9136.4183   -2512.4114   -4240.5574    486.65934    62.540138   -608.25775    82.619144 
   94300    211.83919   -107.80896   0.19167655   -107.61728   -524.31303    4.3551027    4.3551027    4.3551027   -524.31303     4091.261   -2869.4587   -2794.7414   -1259.6927    756.49603   -1234.8865     82.60288 
   94400    176.04501   -107.77715   0.15928922   -107.61786    844.49953    4.3554871    4.3554871    4.3554871    844.49953    2583.3812    1472.8404   -1522.7229   -268.18098    682.59282     279.4249    82.624756 
   94500    203.49406   -107.80183    0.1841257   -107.61771    712.94892    4.3551176    4.3551176    4.3551176    712.94892    6930.1116   -1747.2284   -3044.0364   -1443.3477    805.60383    1586.5737    82.603733 
   94600    197.11656   -107.79657   0.17835521   -107.61821   -1028.4771    4.3550373    4.3550373    4.3550373   -1028.4771   -2636.2965    3428.6575   -3877.7922    254.58279   -6.8886583   -740.22945     82.59916 
   94700    210.96668   -107.80943   0.19088709   -107.61854   -1219.8427    4.3554229    4.3554229    4.3554229   -1219.8427    7954.3108   -3449.5718    -8164.267    -27.54924    1896.4757    510.17457    82.621106 
   94800    212.48221   -107.81096   0.19225837    -107.6187   -1115.0184    4.3556194    4.3556194    4.3556194   -1115.0184   -748.42042    89.759414   -2686.3942   -1582.4785    413.12075   -1064.1586    82.632289 
   94900    192.38432   -107.79254   0.17407337   -107.61847   -1162.1955    4.3551485    4.3551485    4.3551485   -1162.1955    1773.2517   -465.23446   -4794.6037    249.75164     2989.337     496.4667     82.60549 
   95000    193.77895   -107.79313   0.17533526   -107.61779    715.43994    4.3554075    4.3554075    4.3554075    715.43994    711.09054   -336.84455    1772.0738   -1825.9578    389.85768    1508.5287    82.620229 
   95100     196.5266   -107.79542    0.1778214    -107.6176   -894.80488    4.3554016    4.3554016    4.3554016   -894.80488   -3223.4851    2455.3795    -1916.309    968.78198    -1303.799   -906.17999    82.619894 
   95200    175.82908    -107.7769   0.15909385   -107.61781    64.952743    4.3550686    4.3550686    4.3550686    64.952743    7829.1127   -1201.9663   -6432.2881   -61.265109    471.67799    788.81343    82.600941 
   95300     253.0496    -107.8468   0.22896459   -107.61784   -3413.6555    4.3560806    4.3560806    4.3560806   -3413.6555   -4915.4587   -1774.2043   -3551.3034    -702.1351    -1667.503   -1563.1141     82.65854 
   95400    156.37552   -107.76005   0.14149186   -107.61856    618.51127    4.3546357    4.3546357    4.3546357    618.51127    6773.2542    3566.9947    -8484.715   -190.91766    2054.1703    -768.6645    82.576311 
   95500    239.57883   -107.83505   0.21677596   -107.61828   -2917.8726    4.3556342    4.3556342    4.3556342   -2917.8726   -6622.1782   -4045.2864    1913.8469   -1154.0155   -1025.1023    545.64909    82.633127 
   95600    153.44334    -107.7576   0.13883876   -107.61876    2663.3166    4.3551982    4.3551982    4.3551982    2663.3166    4529.4153    6779.3684   -3318.8338    582.81164   -652.75535   -994.42192    82.608314 
   95700    194.86564   -107.79451   0.17631852   -107.61819   -1322.5626    4.3550517    4.3550517    4.3550517   -1322.5626    554.30694   -4663.5101    141.51529    -50.96151    -154.7115    574.06631    82.599983 
   95800    240.75356   -107.83556   0.21783888   -107.61772   -2335.7965    4.3561717    4.3561717    4.3561717   -2335.7965   -307.66447    1858.5095   -8558.2344    -338.5155    481.61733   -925.18666    82.663725 
   95900    161.01464   -107.76444   0.14568943   -107.61875    1325.5572    4.3542325    4.3542325    4.3542325    1325.5572    6441.5404   -169.52818   -2295.3407   -1055.2729     1884.031   -1313.6539    82.553378 
   96000     274.1093   -107.86605   0.24801986   -107.61803   -6165.5073    4.3564477    4.3564477    4.3564477   -6165.5073   -7963.5144   -1467.1924    -9065.815   -25.495617    1170.3759    482.01837    82.679439 
   96100    98.467585   -107.70788   0.08909554   -107.61878    6508.8877    4.3549164    4.3549164    4.3549164    6508.8877    11762.812    4674.2632    3089.5877   -159.85393   -184.13688    1342.6784    82.592279 
   96200    268.27185    -107.8606   0.24273801   -107.61786   -5982.4206    4.3548492    4.3548492    4.3548492   -5982.4206   -7023.8293    -4874.501   -6048.9315     513.2648    488.71701   -326.63377    82.588461 
   96300    123.26618   -107.72988   0.11153383   -107.61835    4373.4323     4.356361     4.356361     4.356361    4373.4323    9862.7662    2034.5906    1222.9401   -267.65837   -1035.4161   -703.71838      82.6745 
   96400    290.35067   -107.88075   0.26271539   -107.61804    -5179.976    4.3541375    4.3541375    4.3541375    -5179.976     -3161.44   -3396.0913   -8982.3966   -617.63023    791.16614   -1248.6794    82.547975 
   96500    142.28035   -107.74839   0.12873825   -107.61966    1345.8172    4.3556166    4.3556166    4.3556166    1345.8172    2732.9708    3773.4686   -2468.9878    393.95982   -12.881447   -1579.6134    82.632126 
   96600    243.07135   -107.83855   0.21993607   -107.61861   -2024.9832    4.3561305    4.3561305    4.3561305   -2024.9832    3891.1203   -2483.6854   -7482.3844    546.30701   -928.17507    1680.5891    82.661381 
   96700    140.27194    -107.7457     0.126921   -107.61877    2638.8872    4.3535688    4.3535688    4.3535688    2638.8872   -688.25529    5330.6344    3274.2827    -121.5945    14.631787   -2397.9099    82.515633 
   96800    224.49446   -107.82076    0.2031273   -107.61764   -2908.2396    4.3572465    4.3572465    4.3572465   -2908.2396    7932.5668   -7708.0675   -8949.2181    199.22014   -1864.1254   -192.77624    82.724929 
   96900    194.74769   -107.79344    0.1762118   -107.61723    1687.8607    4.3540617    4.3540617    4.3540617    1687.8607   -2933.8726    6712.2687     1285.186   -518.10256    1786.0605    -1124.822    82.543665 
   97000    219.51969   -107.81642   0.19862603    -107.6178    -3120.078    4.3556286    4.3556286    4.3556286    -3120.078    4386.8923   -3323.1451   -10423.981    5.6827184   -229.78813   -2759.5185    82.632811 
   97100    197.33656   -107.79647   0.17855427   -107.61792    1104.9498     4.356207     4.356207     4.356207    1104.9498    2074.0558    3639.3872   -2398.5937    576.13547    1978.7121    1734.5259    82.665734 
   97200    190.25546   -107.79008   0.17214714   -107.61794     1635.655    4.3534546    4.3534546    4.3534546     1635.655    1644.2205    4617.5404   -1354.7958    781.13329   -839.34389   -1448.1592     82.50914 
   97300    201.56044   -107.80021   0.18237612   -107.61784   -1927.4489    4.3570406    4.3570406    4.3570406   -1927.4489    5181.3124   -7277.1702   -3686.4889    279.54872    231.23355    706.13488    82.713198 
   97400    181.92084   -107.78179    0.1646058   -107.61719    3313.3488    4.3543858    4.3543858    4.3543858    3313.3488    -352.1328    9590.6745    701.50459   -421.29503    319.65955   -672.90073    82.562098 
   97500     253.6416   -107.84686   0.22950025   -107.61736   -3986.8809    4.3550254    4.3550254    4.3550254   -3986.8809    2964.5273   -7289.5593   -7635.6108    162.34215    152.08036   -2359.9022    82.598482 
   97600    136.46966   -107.74243   0.12348062   -107.61895    3709.2955    4.3564105    4.3564105    4.3564105    3709.2955    4310.0906    11846.469   -5028.6728    732.10563    1042.9316    603.81071    82.677321 
   97700    282.11577   -107.87381   0.25526428   -107.61854    -1891.307    4.3533765    4.3533765    4.3533765    -1891.307    -150.6147   -2528.6217   -2994.6846    1377.6694   -2289.8918    594.49962    82.504697 
   97800    110.27502   -107.71947  0.099779153   -107.61969    3983.5885    4.3564591    4.3564591    4.3564591    3983.5885    10835.729      3806.77   -2691.7335   -1416.7353    1079.0537   -198.12248    82.680088 
   97900    258.23938   -107.85136   0.23366041    -107.6177    -1153.893     4.355045     4.355045     4.355045    -1153.893   -5461.7558     772.9419     1227.135    1179.5144   -2247.0262   -360.08094    82.599599 
   98000    179.50528   -107.78007   0.16242015   -107.61765    2337.2696    4.3543112    4.3543112    4.3543112    2337.2696    8495.1136    619.56098   -2102.8656   -2321.2961    941.05842   -923.25219    82.557851 
   98100    190.33309   -107.78983   0.17221738   -107.61761   -559.06999    4.3567817    4.3567817    4.3567817   -559.06999   -2725.7751    7200.1765   -6151.6114    1702.4289    782.09131   -1390.1136    82.698456 
   98200    239.88783   -107.83447   0.21705555   -107.61742    717.32918    4.3538618    4.3538618    4.3538618    717.32918    5276.5808   -2279.0442   -845.54897    236.66339    407.61298    2146.5169    82.532296 
   98300    152.63082   -107.75665   0.13810357   -107.61855    2096.9356    4.3556342    4.3556342    4.3556342    2096.9356    7598.9502    5459.0437   -6767.1871   -410.33183    147.93459   -1508.4269    82.633131 
   98400    237.85775   -107.83327   0.21521869   -107.61805   -1334.6269    4.3553525    4.3553525    4.3553525   -1334.6269   -4435.1913   -3125.2738    3556.5843    735.55617   -45.153092    469.24698    82.617099 
   98500    168.02952   -107.77028   0.15203664   -107.61824    4235.2753    4.3545172    4.3545172    4.3545172    4235.2753    11099.887    5700.2816   -4094.3423   -914.82348     567.5129    69.340676    82.569571 
   98600    219.06683   -107.81632   0.19821627   -107.61811   -2573.1802    4.3560963    4.3560963    4.3560963   -2573.1802   -6380.0928   -898.77331   -440.67451    1528.0514    1516.7051   -2554.3395    82.659432 
   98700    186.29872   -107.78663     0.168567   -107.61806    2756.0158    4.3543613    4.3543613    4.3543613    2756.0158    10900.311    4411.9589   -7044.2231   -248.78127    1085.0385    1572.1821    82.560704 
   98800    223.18213   -107.82005   0.20193988   -107.61812   -1672.5734    4.3559691    4.3559691    4.3559691   -1672.5734   -714.10706    -795.9114   -3507.7016    1950.2271   -1471.6108   -1495.7382    82.652193 
   98900    186.68043   -107.78718   0.16891237   -107.61827   -360.52658    4.3550895    4.3550895    4.3550895   -360.52658    3821.4633    194.79574   -5097.8388   -285.81554    684.51537    1118.2365    82.602131 
   99000    212.38767   -107.80966   0.19217283   -107.61749    1242.4344    4.3548776    4.3548776    4.3548776    1242.4344    1415.2949     325.4376    1986.5708    238.72181   -564.37874   -342.48376    82.590072 
   99100    192.34654   -107.79172   0.17403919   -107.61768   -1227.3128    4.3561661    4.3561661    4.3561661   -1227.3128    86.386787   -367.46178   -3400.8635    1400.9068    780.39388   -1869.9521    82.663404 
   99200    164.58598   -107.76657   0.14892085   -107.61765    2410.7531    4.3543098    4.3543098    4.3543098    2410.7531    4660.3268     2158.046    413.88657    7.8761173    1401.9935    212.05177    82.557774 
   99300    268.76286   -107.86048   0.24318228   -107.61729   -3688.8485    4.3560383    4.3560383    4.3560383   -3688.8485    274.31648   -3489.7437   -7851.1182    1803.8277   -18.132652   -171.01642    82.656128 
   99400    134.62683   -107.74066   0.12181318   -107.61885    1388.1642    4.3552044    4.3552044    4.3552044    1388.1642    6204.5587   -1767.0816   -272.98436   -682.15979    15.552577     848.7758    82.608667 
   99500    276.26628   -107.86758   0.24997153   -107.61761   -4053.9513    4.3551832    4.3551832    4.3551832   -4053.9513   -2992.0715   -2877.2043   -6292.5781    125.33008    1038.8636   -468.81038    82.607463 
   99600    132.69879   -107.73872   0.12006866   -107.61865    2940.4972    4.3555984    4.3555984    4.3555984    2940.4972    5022.8279    9.5856369     3789.078    49.501413    -751.4313   -1168.1512    82.631089 
   99700    232.40775   -107.82855   0.21028741   -107.61827   -4070.0697    4.3551916    4.3551916    4.3551916   -4070.0697   -2835.0539   -2361.7964   -7013.3587    848.27764    2541.5403   -1273.1882    82.607941 
   99800    152.30748   -107.75618   0.13781101   -107.61837    3779.9236    4.3550022    4.3550022    4.3550022    3779.9236      10208.3    -513.5797    1645.0509    2434.5631    676.85804    62.734799    82.597165 
   99900     253.2024   -107.84752   0.22910286   -107.61842   -5633.4395    4.3559074    4.3559074    4.3559074   -5633.4395    -1546.204   -6381.8632   -8972.2513   -1064.7944   -335.83312   -457.40171     82.64868 
  100000    164.92937   -107.76809   0.14923156   -107.61886    964.05163    4.3550878    4.3550878    4.3550878    964.05163    3878.4865   -1399.1312    412.79954    1665.2089   -499.95612   -554.37465    82.602037 
Loop time of 21.8271 on 1 procs for 100000 steps with 8 atoms

Pair  time (%) = 6.68345 (30.6199)
Kspce time (%) = 5.34585 (24.4918)
Neigh time (%) = 0 (0)
Comm  time (%) = 1.08006 (4.94824)
Outpt time (%) = 0.0224009 (0.102628)
Other time (%) = 8.69537 (39.8374)

Nlocal:    8 ave 8 max 8 min
Histogram: 1 0 0 0 0 0 0 0 0 0
Nghost:    2189 ave 2189 max 2189 min
Histogram: 1 0 0 0 0 0 0 0 0 0
Neighs:    2056 ave 2056 max 2056 min
Histogram: 1 0 0 0 0 0 0 0 0 0

Total # of neighbors = 2056
Ave neighs/atom = 257
Neighbor list builds = 0
Dangerous builds = 0
unfix 20
unfix 21
print "seeds:7030652"
seeds:7030652
