LAMMPS (10 Feb 2015)
# ---- initialize simulations
clear
units metal
dimension 3
boundary p p p
atom_style charge
atom_modify map array
# ---- create atoms
read_data /Users/eugeneragasa/pyflamestk_git/pypospack/tests/tests_integration/workflow/WorkflowLammpsThermalExpansion/param_9215/MgO_NaCl_unit.npt.T400/lammps.structure
  triclinic box = (0 0 0) to (4.2565 4.2565 4.2565) with tilt (0 0 0)
  1 by 1 by 1 MPI processor grid
  reading atoms ...
  8 atoms
# ---- define interatomic potential
include potential.mod
mass 1 24.305
mass 2 15.999

group Mg type 1
4 atoms in group Mg
group O type 2
4 atoms in group O

set group Mg charge 1.57990545172
  4 settings made for charge
set group O charge -1.57990545172
  4 settings made for charge

variable R_cut equal 10.0

pair_style buck/coul/long ${R_cut}
pair_style buck/coul/long 10
pair_coeff 1 1 0.0 0.5 0.0 ${R_cut}
pair_coeff 1 1 0.0 0.5 0.0 10
pair_coeff 1 2 1322.20855758 0.285006791586 0.0 ${R_cut}
pair_coeff 1 2 1322.20855758 0.285006791586 0.0 10
pair_coeff 2 2 14469.0891926 0.219096223147 48.5612274161 ${R_cut}
pair_coeff 2 2 14469.0891926 0.219096223147 48.5612274161 10

kspace_style pppm 1.0e-5

neighbor 1.0 bin
neigh_modify every 1 delay 0 check yes
# ---- define settings
compute eng all pe/atom
compute eatoms all reduce sum c_eng
# ---- run minimization
reset_timestep 0
fix 1 all box/relax iso 0.0 vmax 0.001
thermo 10
thermo_style custom step pe lx ly lz xy xz yz press pxx pyy pzz pxy pxz pyz c_eatoms
min_style cg
minimize 1e-25 1e-25 5000 10000
PPPM initialization ...
  G vector (1/distance) = 0.352172
  grid = 8 8 8
  stencil order = 5
  estimated absolute RMS force accuracy = 3.68665e-05
  estimated relative force accuracy = 2.56024e-06
  using double precision FFTs
  3d grid and FFT values/proc = 3375 512
Neighbor list info ...
  1 neighbor list requests
  update every 1 steps, delay 0 steps, check yes
  master list distance cutoff = 11
Memory usage per processor = 4.06549 Mbytes
Step PotEng Lx Ly Lz Xy Xz Yz Press Pxx Pyy Pzz Pxy Pxz Pyz eatoms 
       0   -101.30442       4.2565       4.2565       4.2565            0            0            0    88329.967    88329.967    88329.967    88329.967 -1.1961844e-11 -2.4099438e-10 5.9240466e-12   -101.30442 
      10    -101.3918     4.299065     4.299065     4.299065            0            0            0    35693.934    35693.934    35693.934    35693.934 1.4632835e-11 -2.3788485e-11 -3.8066587e-11    -101.3918 
      20   -101.41159    4.3315082    4.3315082    4.3315082            0            0            0   -5.9294003   -5.9294003   -5.9294003   -5.9294003 1.7198652e-10 1.1926792e-10 -5.3176444e-11   -101.41159 
Loop time of 0.0117521 on 1 procs for 20 steps with 8 atoms

Minimization stats:
  Stopping criterion = linesearch alpha is zero
  Energy initial, next-to-last, final = 
        -101.304424021     -101.411593199     -101.411593199
  Force two-norm initial, final = 12.7549 0.00088671
  Force max component initial, final = 12.7549 0.000886651
  Final line search alpha, max atom move = 0.015625 1.38539e-05
  Iterations, force evaluations = 20 34

Pair  time (%) = 0.00317812 (27.0429)
Kspce time (%) = 0.00200868 (17.092)
Neigh time (%) = 0 (0)
Comm  time (%) = 0.000344753 (2.93354)
Outpt time (%) = 1.21593e-05 (0.103465)
Other time (%) = 0.00620842 (52.828)

Nlocal:    8 ave 8 max 8 min
Histogram: 1 0 0 0 0 0 0 0 0 0
Nghost:    2189 ave 2189 max 2189 min
Histogram: 1 0 0 0 0 0 0 0 0 0
Neighs:    2344 ave 2344 max 2344 min
Histogram: 1 0 0 0 0 0 0 0 0 0

Total # of neighbors = 2344
Ave neighs/atom = 293
Neighbor list builds = 0
Dangerous builds = 0
unfix 1
# ---- define output variables ----
variable natoms equal "count(all)"
variable tot_energy equal "c_eatoms"
variable length_x equal "lx"
variable length_y equal "ly"
variable length_z equal "lz"
variable tilt_xy equal "xy"
variable tilt_xz equal "xz"
variable tilt_yz equal "yz"
variable tot_press equal "press"
variable press_xx equal "pxx"
variable press_yy equal "pyy"
variable press_zz equal "pzz"
variable press_xy equal "pxy"
variable press_xz equal "pxz"
variable press_yz equal "pyz"

# ---- output ----
print "pypospack:output_section:begin"
pypospack:output_section:begin
print "tot_energy = ${tot_energy}"
tot_energy = -101.411593198701
print "num_atoms = ${natoms}"
num_atoms = 8
print "xx = ${length_x}"
xx = 4.33150823558717
print "yy = ${length_y}"
yy = 4.33150823558717
print "zz = ${length_z}"
zz = 4.33150823558717
print "xy = ${tilt_xy}"
xy = 0
print "xz = ${tilt_xz}"
xz = 0
print "yz = ${tilt_yz}"
yz = 0
print "tot_press = ${tot_press}"
tot_press = -5.92940031006952
print "pxx = ${press_xx}"
pxx = -5.92940030994687
print "pyy = ${press_yy}"
pyy = -5.92940031012476
print "pzz = ${press_zz}"
pzz = -5.92940031013695
print "pxy = ${press_xy}"
pxy = 1.71986520125442e-10
print "pxz = ${press_xz}"
pxz = 1.19267916823708e-10
print "pyz = ${press_yz}"
pyz = -5.31764436793611e-11
print "pypospack:output_section:done"
pypospack:output_section:done
print "pypospack:lammps_sim:done"
pypospack:lammps_sim:done
#------------------------------------------------------------------------------
# RUN THERMOSTAT
# running using an NPT Nose-Hoover style thermostat
#------------------------------------------------------------------------------
variable tempdamp equal 0.1
variable pressdamp equal 1.0
# set initial velocities
velocity all create 400 8525259 mom yes dist gaussian loop all
# fix for Nose-Hoover style thermostat
fix 20 all npt temp 400 400 0.1 aniso 0.0 0.0 1.0 drag 1.0 couple xyz
variable boxx equal lx
variable boxy equal ly
variable boxz equal lz
variable boxp equal press
variable boxt equal temp
# calculate averages every 10000 steps
reset_timestep 0
fix 21 all ave/time 10 10 100 v_boxx v_boxy v_boxz v_boxp v_boxt file lattice.out
thermo_style custom step temp pe ke etotal press lx ly lz press pxx pyy pzz pxy pxz pyz vol
thermo_modify flush yes
thermo 100
run 100000
PPPM initialization ...
  G vector (1/distance) = 0.351443
  grid = 8 8 8
  stencil order = 5
  estimated absolute RMS force accuracy = 3.81088e-05
  estimated relative force accuracy = 2.64651e-06
  using double precision FFTs
  3d grid and FFT values/proc = 3375 512
Memory usage per processor = 3.06549 Mbytes
Step Temp PotEng KinEng TotEng Press Lx Ly Lz Press Pxx Pyy Pzz Pxy Pxz Pyz Volume 
       0          400    -101.4116   0.36192841   -101.04968    4749.2073    4.3315082    4.3315082    4.3315082    4749.2073    2869.9694    3201.1283    8176.5241   -669.80565   -1228.8689    3933.2538      81.2676 
     100    52.227168   -101.04576  0.047256239    -100.9985   -2259.8883    4.3453843    4.3453843    4.3453843   -2259.8883    5653.3788   -15149.303    2716.2588   -399.29472    3198.2307   -10021.839     82.05113 
     200    391.19314   -101.25344   0.35395977   -100.89949    2185.7185    4.3380495    4.3380495    4.3380495    2185.7185    4374.4236   -2636.0929    4818.8248    916.85985    727.78329    45.251705     81.63634 
     300    299.86602   -101.09154   0.27132508   -100.82021    1310.3337    4.3448761    4.3448761    4.3448761    1310.3337    1904.9705   -8905.9327    10931.963   -1305.0418   -3.5209077   -6937.0606    82.022345 
     400    252.80895   -100.97906   0.22874685   -100.75031    140.49743    4.3467371    4.3467371    4.3467371    140.49743    14536.378   -12430.642   -1684.2433    2016.1016    5935.1819    -10774.29    82.127789 
     500      524.847   -101.18054   0.47489259   -100.70565     4150.302     4.340762     4.340762     4.340762     4150.302     2525.869   -5046.2447    14971.282   -52.859413   -5381.0051    924.47132    81.789567 
     600     236.0446   -100.90211   0.21357812   -100.68853   -9060.4671    4.3543487    4.3543487    4.3543487   -9060.4671    7399.9538    -27554.79    -7026.565   -1412.6094     6012.427   -17199.205    82.559984 
     700    606.65867    -101.2242   0.54891751   -100.67528    10588.048    4.3365547    4.3365547    4.3365547    10588.048     17300.79    1798.6243    12664.729   -6.7005979   -3207.3611    3902.8223    81.551975 
     800    238.81861    -100.8993   0.21608809   -100.68321   -14846.318     4.356461     4.356461     4.356461   -14846.318   -4596.1725   -35084.318   -4858.4635   -508.53245    196.39602   -17592.806    82.680193 
     900    531.78107    -101.1621   0.48116668   -100.68093     10146.18    4.3382111    4.3382111    4.3382111     10146.18    23058.103    3316.0632    4064.3752   -1759.1897    2272.9175    1112.3825     81.64546 
    1000    343.25719   -100.99648   0.31058632    -100.6859   -3248.5528    4.3495013    4.3495013    4.3495013   -3248.5528      3491.07   -18777.132    5540.4033      2667.31   -4608.8032   -13601.526     82.28457 
    1100    353.11236   -101.00423   0.31950348   -100.68473   -2125.0921    4.3481568    4.3481568    4.3481568   -2125.0921    10982.446   -11256.664   -6101.0583    188.47659    2264.0883   -4019.8409    82.208284 
    1200    432.60636   -101.07433   0.39143132    -100.6829    13807.026    4.3373863    4.3373863    4.3373863    13807.026    20355.755    2965.0629     18100.26    1504.5948   -3917.4427   -5582.2749    81.598901 
    1300    352.16535   -101.00321   0.31864661   -100.68456   -17563.803    4.3599116    4.3599116    4.3599116   -17563.803   -9136.9995   -28889.759   -14664.652    583.75754    599.30542   -11770.326    82.876817 
    1400    459.38684   -101.09467   0.41566287   -100.67901    21211.616    4.3284032    4.3284032    4.3284032    21211.616    28680.216    12306.183     22648.45   -1645.6227   -2995.9457    4906.7343    81.092953 
    1500    321.22013   -100.97658   0.29064672   -100.68593       -20053    4.3629474    4.3629474    4.3629474       -20053   -9162.9329   -38906.686   -12089.383   -462.83329    183.27517   -17678.586    83.050057 
    1600    566.48178   -101.19272   0.51256462   -100.68015    13864.826    4.3322222    4.3322222    4.3322222    13864.826    22084.845    5173.7906    14335.843    1573.7513   -237.47248    8479.6295    81.307791 
    1700    222.89303   -100.88835    0.2016783   -100.68667    -4858.553    4.3522727    4.3522727    4.3522727    -4858.553    11736.868   -26672.983    360.45574   -82.164352   -323.23545   -17078.412    82.441955 
    1800    532.91307   -101.16404   0.48219095   -100.68185   -3663.8245    4.3473522    4.3473522    4.3473522   -3663.8245    1905.2968   -10641.881   -2254.8895    4519.3547    825.69073    3058.6707    82.162656 
    1900    332.77293   -100.98282   0.30109994   -100.68172    13579.378    4.3359552    4.3359552    4.3359552    13579.378    26568.958    3362.6586    10806.516    686.00002   -3081.4056   -7113.1356    81.518157 
    2000    345.96823   -100.99454   0.31303932    -100.6815   -15258.739    4.3602393    4.3602393    4.3602393   -15258.739   -7730.8576   -26420.071   -11625.289   -318.56206    468.36058   -6742.4379    82.895506 
    2100    522.48021   -101.15071   0.47275107   -100.67796    16305.964     4.328786     4.328786     4.328786    16305.964     19180.39    14701.745    15035.756    2618.3767    1105.6321     3436.093    81.114475 
    2200    247.73311   -100.90857   0.22415412   -100.68442   -11528.246    4.3606614    4.3606614    4.3606614   -11528.246     4635.591    -29973.51   -9246.8198   -1785.4274   -4044.1636   -16140.858    82.919581 
    2300    610.44362   -101.23069   0.55234221   -100.67835    6395.3456    4.3348431    4.3348431    4.3348431    6395.3456     6997.037    3413.8078     8775.192   -17.877788    5729.8509    8239.0902    81.455448 
    2400    223.87177    -100.8871   0.20256388   -100.68453   -846.91581    4.3491025    4.3491025    4.3491025   -846.91581    15070.304   -19256.886    1645.8345    2727.5313   -5804.4568       -17667    82.261936 
    2500     526.3034   -101.15617   0.47621037   -100.67996   -581.76917    4.3483425    4.3483425    4.3483425   -581.76917     3886.517   -5439.1364   -192.68814    55.322349    2632.0046      5558.78    82.218818 
    2600     347.5661   -100.99622   0.31448511   -100.68174     5238.019    4.3378247    4.3378247    4.3378247     5238.019    11417.807   -2266.5907     6562.841    125.24226   -1244.1901   -10937.007    81.623646 
    2700    306.32571   -100.96061   0.27716994   -100.68344   -2381.1924    4.3554966    4.3554966    4.3554966   -2381.1924    9253.4234   -12564.247   -3832.7533     1835.007   -3216.3149   -1606.6641    82.625296 
    2800    549.06378   -101.17709   0.49680445   -100.68028    4964.2824    4.3357497    4.3357497    4.3357497    4964.2824    6820.4081    4746.7503    3325.6888   -4851.7142    3807.9592   -1869.9585    81.506566 
    2900    228.69632   -100.89232   0.20692923   -100.68539   -4077.0405    4.3515217    4.3515217    4.3515217   -4077.0405    13690.663   -20671.716    -5250.069    766.12124   -3819.9165   -12783.547    82.399286 
    3000    557.75992   -101.18506   0.50467289   -100.68039    1531.5763    4.3431734    4.3431734    4.3431734    1531.5763    10058.506   -1732.4238   -3731.3529   -2129.3106    509.73791    6493.1019    81.925951 
    3100    331.71228   -100.98476   0.30014024   -100.68462   -3528.4434    4.3438727    4.3438727    4.3438727   -3528.4434    4924.8125   -13786.345   -1723.7977   -1829.2063    168.39222   -19323.634    81.965535 
    3200    435.38251   -101.07583   0.39394325   -100.68189    217.45611    4.3502968    4.3502968    4.3502968    217.45611    12321.137   -3774.2307   -7894.5379   -447.89522   -4602.8149    9533.5541    82.329723 
    3300    351.75021   -101.00163   0.31827098   -100.68336    3911.1799    4.3383262    4.3383262    4.3383262    3911.1799    7516.4932    1697.0683     2519.978     49.70964    4615.5068   -14060.487    81.651959 
    3400    401.63667   -101.04714    0.3634093   -100.68373   -2937.5139    4.3526117    4.3526117    4.3526117   -2937.5139    1809.4127   -4914.7524   -5707.2021   -4103.6071   -4925.5848    1972.1843    82.461226 
    3500     370.5625   -101.01771   0.33529274   -100.68242     7519.173    4.3400976    4.3400976    4.3400976     7519.173    19654.239    6831.2193   -3927.9388    1988.1922    2660.1063   -2497.7894    81.752022 
    3600    404.82234   -101.05054   0.36629176   -100.68425   -7170.1274    4.3471489    4.3471489    4.3471489   -7170.1274    510.83582   -17877.421   -4143.7974   -3683.9196    492.61521   -12400.055    82.151133 
    3700    461.24242   -101.09846   0.41734184   -100.68111    3524.1897    4.3477175    4.3477175    4.3477175    3524.1897    15934.397    1993.3704   -7355.1987   -141.20642   -1809.9609    6668.8756    82.183368 
    3800     344.2288   -100.99596   0.31146545    -100.6845   -2729.8163    4.3399142    4.3399142    4.3399142   -2729.8163    9796.0043   -11380.709   -6604.7442    1740.8245     5030.308    -18757.02    81.741656 
    3900    472.05462   -101.10955   0.42712494   -100.68243   -1470.0668    4.3526853    4.3526853    4.3526853   -1470.0668    4313.3788    -4785.658   -3937.9213   -127.43738   -3167.9957    9228.3238    82.465407 
    4000    279.84545   -100.93845   0.25321005   -100.68524    5164.4136     4.338545     4.338545     4.338545    5164.4136    18872.321    5858.2066   -9237.2869     800.5855    5345.5718   -14577.685    81.664312 
    4100    468.28714   -101.10728   0.42371604   -100.68356   -4378.9232    4.3487328    4.3487328    4.3487328   -4378.9232   -3507.7189   -6027.0282   -3602.0223     2765.279   -293.81445    2496.2433    82.240961 
    4200    335.69199   -100.98742   0.30374117   -100.68368    2257.0482    4.3455874    4.3455874    4.3455874    2257.0482     16164.68    2759.8757   -12153.411   -2055.9777    2127.6258   -6767.5023    82.062637 
    4300    437.00273   -101.07928   0.39540925   -100.68387    -2185.832    4.3418297    4.3418297    4.3418297    -2185.832     4672.723   -5787.8289     -5442.39    4232.9008    3791.2088   -9804.2705     81.84994 
    4400    499.60986   -101.13362    0.4520575   -100.68156   -4052.6385    4.3515337    4.3515337    4.3515337   -4052.6385    2738.9109   -2628.1053   -12268.721    1971.2465   -1960.6262    2552.9906    82.399968 
    4500    242.09555   -100.90435   0.21905314    -100.6853    4337.4529    4.3390986    4.3390986    4.3390986    4337.4529    21832.683   -382.90761    -8437.417   -434.18831    3515.4853   -19228.965    81.695582 
    4600    597.51467   -101.22211   0.54064383   -100.68147   -2368.9942    4.3499797    4.3499797    4.3499797   -2368.9942   -5429.8177    1222.5857   -2899.7506    4493.1273   -385.27689    10442.202    82.311723 
    4700    175.48078   -100.84516    0.1587787   -100.68638    4229.6006    4.3434405    4.3434405    4.3434405    4229.6006    20489.814    4455.5247   -12256.537   -1512.2636   -1246.1765   -19658.075     81.94107 
    4800    524.81774   -101.15675   0.47486612   -100.68189    642.40761    4.3439827    4.3439827    4.3439827    642.40761    2625.9621   -2972.6136    2273.8743    1264.6297    3569.0162    5406.4879    81.971757 
    4900    355.33804     -101.006   0.32151733   -100.68448   -4456.8415    4.3490461    4.3490461    4.3490461   -4456.8415    7396.7409   -7972.0797   -12795.186    399.81273   -3629.4072   -11921.954    82.258738 
    5000    393.54497      -101.04   0.35608776   -100.68392    2170.4603    4.3409341    4.3409341    4.3409341    2170.4603    13664.031    663.01374    -7815.664   -67.055826    2701.9201   -9250.0064    81.799299 
    5100    519.04147   -101.15231   0.46963963   -100.68267   -8216.9045     4.350278     4.350278     4.350278   -8216.9045   -3243.0707   -12482.071   -8925.5714   -703.62769   -2510.6557   -1126.5046    82.328656 
    5200    227.16176   -100.89251   0.20554074   -100.68697    3483.4651    4.3425787    4.3425787    4.3425787    3483.4651    18882.267    6226.7001   -14658.571    664.01106    -1182.434   -17764.861    81.892303 
    5300    596.23954   -101.22127   0.53949007   -100.68178    615.73791    4.3453277    4.3453277    4.3453277    615.73791   -967.79669    6759.0211   -3944.0107   -5449.4825    69.916518    6722.8211    82.047923 
    5400    156.18688   -100.82927   0.14132117   -100.68794   -1184.7471     4.347515     4.347515     4.347515   -1184.7471     14948.24   -2996.2405   -15506.241   -891.35274    330.76649   -18097.275    82.171891 
    5500     564.5132   -101.19234   0.51078341   -100.68156    3575.0234    4.3422734    4.3422734    4.3422734    3575.0234    4221.4268    8943.5532   -2439.9097   -2841.2504   -1174.7282    4700.3878    81.875036 
    5600    348.42397   -101.00196   0.31526133   -100.68669   -7146.4517      4.34824      4.34824      4.34824   -7146.4517     8437.145   -12122.484   -17754.017    383.26456    1369.3756   -17376.346    82.213005 
    5700    384.23754     -101.033    0.3476662   -100.68533    1003.0536    4.3445554    4.3445554    4.3445554    1003.0536    8002.8985    2410.1937   -7403.9313    50.395833   -3668.5779   -2124.6269    82.004185 
    5800    500.39472    -101.1371   0.45276766   -100.68433   -4793.2044    4.3436559    4.3436559    4.3436559   -4793.2044    5536.4095   -7439.3115   -12476.711    800.66846    3219.9075    -10373.85    81.953259 
    5900    263.22986   -100.92535   0.23817591   -100.68718   -2150.5744    4.3499781    4.3499781    4.3499781   -2150.5744    8381.1141    2123.3259   -16956.163   -3304.9765   -1497.9989     -10141.7    82.311632 
    6000    502.82692   -101.13684   0.45496836   -100.68187    3166.8403    4.3399913    4.3399913    4.3399913    3166.8403    5339.2169    6627.0323   -2465.7281    5014.6539    1029.3886    913.70346    81.746014 
    6100    254.24929   -100.91695    0.2300501    -100.6869    -7909.099    4.3501251    4.3501251    4.3501251    -7909.099    8578.6823   -11687.374   -20618.606    -2308.606    366.43517   -19906.945    82.319979 
    6200     550.8586   -101.17969   0.49842844   -100.68126    3360.9638    4.3431086    4.3431086    4.3431086    3360.9638    213.43871    13784.676   -3915.2229    4954.6378   -2122.9315    6380.9171    81.922286 
    6300    307.26198   -100.96391    0.2780171   -100.68589   -7771.1318    4.3457395    4.3457395    4.3457395   -7771.1318    15953.977   -19537.799   -19729.573     749.4037    696.22716   -21983.225    82.071254 
    6400    461.66689   -101.09993   0.41772591   -100.68221   -710.29657    4.3484213    4.3484213    4.3484213   -710.29657   -237.59363    7801.4993   -9694.7954   -1414.5329   -965.45676    1857.7838    82.223291 
    6500    379.50915    -101.0274   0.34338785   -100.68401   -1027.7661    4.3404881    4.3404881    4.3404881   -1027.7661    12499.601    872.46764   -16455.367    3091.3102   -1851.2142   -14254.188     81.77409 
    6600    374.75924   -101.02337   0.33909003   -100.68428   -5899.9456    4.3511549    4.3511549    4.3511549   -5899.9456    3092.4298   -3119.2686   -17672.998   -1890.6895    2132.9423   -5835.0055    82.378455 
    6700    380.25861    -101.0272   0.34406598   -100.68313    1795.8776    4.3412258    4.3412258    4.3412258    1795.8776    5006.6575    8594.1106   -8213.1354   0.99854894   -4438.1993   -3762.9066    81.815792 
    6800    400.69166   -101.04875   0.36255423    -100.6862   -8391.2103    4.3472405    4.3472405    4.3472405   -8391.2103    8662.7573   -11958.281   -21878.107    2084.3687    2547.5642    -14454.86    82.156322 
    6900    463.37303   -101.10169   0.41926966   -100.68242   -2781.0896    4.3480023    4.3480023    4.3480023   -2781.0896   -3669.4209    1477.3739   -6151.2219    -2672.535   -3999.7887    3600.2713     82.19952 
    7000    303.31409   -100.96007   0.27444497   -100.68562    -1858.196    4.3387672    4.3387672    4.3387672    -1858.196    19480.657   -9753.9218   -15301.323    1501.9079    403.49392   -20915.737    81.676861 
    7100    520.14283   -101.15177   0.47063616   -100.68114   -5569.6554    4.3554187    4.3554187    4.3554187   -5569.6554   -8152.3252    4445.7128   -13002.354   -3612.8473   -1062.5525    7219.2339    82.620864 
    7200    253.08285   -100.91283   0.22899468   -100.68383    5776.3654    4.3356796    4.3356796    4.3356796    5776.3654    16276.298    7444.9792   -6392.1814   -1436.5208   -3033.4241   -18380.754    81.502618 
    7300    444.93195    -101.0858   0.40258378   -100.68322    -4945.105    4.3521296    4.3521296    4.3521296    -4945.105    -1081.857   -868.21794    -12885.24   -2688.5673     908.5602    451.81976    82.433825 
    7400    376.64224   -101.02521   0.34079381   -100.68442    1933.8854    4.3431823    4.3431823    4.3431823    1933.8854    2380.1495    10155.642   -6734.1356   -1117.1779   -4669.7371   -6957.8121    81.926455 
    7500    427.55571    -101.0719   0.38686139   -100.68504   -3606.6235    4.3431657    4.3431657    4.3431657   -3606.6235    6686.3362   -7088.7943   -10417.413    509.66225   -284.67489   -12691.876    81.925517 
    7600    433.52864   -101.07467   0.39226582   -100.68241   -4092.5104    4.3511796    4.3511796    4.3511796   -4092.5104   -5492.1976   -1085.7313   -5699.6023   -1716.0814   -633.53478    4027.4513    82.379853 
    7700    344.86022   -100.99657   0.31203677   -100.68454   -159.09111    4.3386947    4.3386947    4.3386947   -159.09111    8918.3466    966.21323   -10361.833    1840.6915   -4460.8084   -19748.171    81.672767 
    7800    507.94256   -101.14045   0.45959711   -100.68086   -3578.9548    4.3509481    4.3509481    4.3509481   -3578.9548   -6005.6895    1034.1113   -5765.2862   -2798.1757    3507.4466     6661.167    82.366706 
    7900    200.89024   -100.86654   0.18176971   -100.68477    1450.0042    4.3426723    4.3426723    4.3426723    1450.0042    7992.7491    2275.7808   -5918.5173   -1205.7032   -5163.1464   -16594.428    81.897599 
    8000    579.80198   -101.20651   0.52461702    -100.6819   -1519.8115    4.3450524    4.3450524    4.3450524   -1519.8115    1654.2353     816.8917   -7030.5616    271.33087    1769.5656    770.26846    82.032334 
    8100    306.39997   -100.96183   0.27723714   -100.68459   -2244.9754     4.348218     4.348218     4.348218   -2244.9754    1168.5085   -3251.4523   -4651.9824   -3123.8014   -716.76004   -9647.0533    82.211754 
    8200    411.54495   -101.05549   0.37237452   -100.68312    3275.5113    4.3405907    4.3405907    4.3405907    3275.5113    14454.341   -2937.6449   -1690.1625    2656.8455   -3756.9289   -8181.2195    81.779887 
    8300    462.50084    -101.1009   0.41848048   -100.68242   -2506.9864    4.3510247    4.3510247    4.3510247   -2506.9864   -6550.9368    3420.6961   -4390.7184   -283.49549    2280.0319    1390.2794     82.37106 
    8400    302.18525   -100.95792   0.27342356    -100.6845    4529.0795    4.3415266    4.3415266    4.3415266    4529.0795    16235.533    2071.2536   -4719.5483   -1326.6397   -3565.2862   -15908.518      81.8328 
    8500    504.59567   -101.13835   0.45656877   -100.68178    1624.6883    4.3452882    4.3452882    4.3452882    1624.6883   -2382.5411    4500.6544    2755.9517    2068.9882    2521.8819    7961.5338    82.045689 
    8600    296.53302   -100.95404   0.26830931   -100.68573   -5369.8938     4.349061     4.349061     4.349061   -5369.8938    5308.0564   -7505.0899   -13912.648   -5464.1034   -1755.4957   -18934.501    82.259583 
    8700    548.97515   -101.17855   0.49672425   -100.68183    7043.2237     4.338276     4.338276     4.338276    7043.2237    11760.535    1770.0614    7599.0744     2148.102    2158.9415     4827.491    81.649125 
    8800    290.93528   -100.94792   0.26324436   -100.68467   -13329.218     4.354823     4.354823     4.354823   -13329.218   -4072.7885    -16928.45   -18986.414   -1667.7522   -2630.7216   -9993.8211    82.586969 
    8900    422.84784   -101.06472   0.38260161   -100.68212    11877.433     4.335207     4.335207     4.335207    11877.433    23626.494     2743.719    9262.0849    -1362.863    153.01731   -4486.9086    81.475965 
    9000    472.26139    -101.1107   0.42731203   -100.68339   -10089.325    4.3523545    4.3523545    4.3523545   -10089.325   -9442.7884   -8050.9277    -12774.26    2688.7781   -323.68923    3146.1542    82.446606 
    9100    260.22403   -100.92061   0.23545617   -100.68515    3482.2275    4.3423814    4.3423814    4.3423814    3482.2275    11811.113   -1669.7614    305.33047   -5175.3074   -1392.9924   -14292.131    81.881145 
    9200    558.80476   -101.18753   0.50561829   -100.68191    1838.9936    4.3435849    4.3435849    4.3435849    1838.9936    4803.9626   -424.15642    1137.1746    2084.2336     2092.384     8656.141    81.949243 
    9300     327.0909   -100.98094   0.29595872   -100.68498   -9100.2182    4.3512604    4.3512604    4.3512604   -9100.2182   -4260.4712   -9714.7841   -13325.399   -3298.9561   -2181.0707   -15642.369    82.384447 
    9400    441.61113   -101.08028   0.39957903    -100.6807    14751.945    4.3365338    4.3365338    4.3365338    14751.945    24765.157     3380.614    16110.065   -1728.3343   -230.29577    6286.6801    81.550794 
    9500    350.26499   -101.00131   0.31692712   -100.68438   -10644.955    4.3536704    4.3536704    4.3536704   -10644.955   -1214.8639   -13919.008   -16800.993    2071.4648   -1616.8625   -9222.6334    82.521409 
    9600    413.99595   -101.05649   0.37459223    -100.6819    12000.688    4.3400612    4.3400612    4.3400612    12000.688    22234.071    5285.9595    8482.0334   -3893.3388   -2783.8728   -754.66811    81.749961 
    9700    396.90571   -101.04341   0.35912863   -100.68428   -3510.2464    4.3451011    4.3451011    4.3451011   -3510.2464    3606.9293   -9208.6523   -4929.0163     2735.951    1475.4286   -1036.7312     82.03509 
    9800    378.36889   -101.02852   0.34235613   -100.68617   -5952.2117     4.349227     4.349227     4.349227   -5952.2117   -512.64055   -7039.1664   -10304.828   -3456.2458    -2653.946   -10665.962    82.269004 
    9900    503.44725   -101.13814   0.45552965   -100.68261    7936.2484    4.3380924    4.3380924    4.3380924    7936.2484    15054.592      442.686    8311.4678   -1419.4711    1258.9162    5756.4179    81.638758 
   10000    295.74456   -100.95349   0.26759589   -100.68589   -15367.324    4.3537206    4.3537206    4.3537206   -15367.324   -5776.7121   -21640.298   -18684.961    553.65707   -1960.3642   -16698.632    82.524263 
   10100    480.17105   -101.11601   0.43446886   -100.68154    13313.322    4.3380384    4.3380384    4.3380384    13313.322    23733.813    3887.3648    12318.787   -3255.7665    -2283.747    8149.2913    81.635711 
   10200    320.36746   -100.97688   0.28987521     -100.687   -8140.1177     4.348914     4.348914     4.348914   -8140.1177     5259.619   -16523.697   -13156.275    3020.9963   -983.66739   -14971.533    82.251243 
   10300     429.5911   -101.07137   0.38870305   -100.68266    2090.8827    4.3464973    4.3464973    4.3464973    2090.8827    10911.296   -5884.3956    1245.7475   -2369.9096   -1982.0886    1436.6879    82.114197 
   10400    372.29996   -101.02177   0.33686482   -100.68491    4288.3441    4.3390938    4.3390938    4.3390938    4288.3441    17156.187   -5595.6701    1304.5158    297.62093    2084.6009   -7539.5318    81.695308 
   10500    485.27143   -101.12336   0.43908379   -100.68427   -13384.887    4.3549432    4.3549432    4.3549432   -13384.887   -9567.2212   -15034.158    -15553.28   -1291.3924   -1443.2512   -10073.794    82.593806 
   10600    353.55783   -101.00229   0.31990655   -100.68238    16191.121    4.3337495    4.3337495    4.3337495    16191.121    25126.214    5525.8434    17921.305   -1701.1217    1382.4415    2123.7348    81.393816 
   10700    379.49099   -101.02969   0.34337142   -100.68632   -15839.287    4.3548039    4.3548039    4.3548039   -15839.287   -5029.1739   -22568.445   -19920.241     773.6165   -2707.7915   -17322.558    82.585879 
   10800    470.08629   -101.10772   0.42534395   -100.68238    12132.778     4.340644     4.340644     4.340644    12132.778    18203.512    7499.7259    10695.095   -1343.3951    1065.0042    4517.0265      81.7829 
   10900    227.92331   -100.89456    0.2062298   -100.68833   -4856.2565     4.343214     4.343214     4.343214   -4856.2565    14682.769   -18400.847   -10850.692    298.10467   -298.66965   -17915.603    81.928252 
   11000    593.66425   -101.21867   0.53715989   -100.68151   -8425.0302    4.3536582    4.3536582    4.3536582   -8425.0302   -6085.6181   -13047.441   -6142.0315    97.288562    180.91264    1531.7354    82.520718 
   11100    272.35228    -100.9315   0.24643006   -100.68507    8352.3364    4.3328578    4.3328578    4.3328578    8352.3364    25062.161    -2311.515    2306.3633   -3449.2726    2646.9553   -14633.179    81.343582 
   11200    491.14662   -101.12819   0.44439979    -100.6838   -18665.397    4.3572835    4.3572835    4.3572835   -18665.397   -15498.522    -27857.24   -12640.428     1398.939   -1080.7255   -3769.6734    82.727036 
   11300    370.80597   -101.01963   0.33551304   -100.68412    8013.3121    4.3365196    4.3365196    4.3365196    8013.3121    20896.429   -3521.7443    6665.2514   -3791.0624    183.37214   -7279.9122    81.549995 
   11400    367.07395   -101.02015   0.33213622   -100.68801   -8537.7356    4.3475858    4.3475858    4.3475858   -8537.7356     2906.091   -18457.707   -10061.591    3100.0203   -224.51145   -11162.767    82.175904 
   11500    493.92473    -101.1299   0.44691348   -100.68299   -4828.9899     4.349746     4.349746     4.349746   -4828.9899    4846.9346   -17957.272   -1376.6325   -2399.8945    -2627.256    1345.2128    82.298459 
   11600    179.72426   -100.85036   0.16261829   -100.68775    7298.5404    4.3348021    4.3348021    4.3348021    7298.5404    27159.537    -4268.072   -995.84358   -810.16918    1781.0579   -19673.543    81.453137 
   11700    685.19821   -101.29975   0.61998174   -100.67976   -15848.316    4.3584794    4.3584794    4.3584794   -15848.316   -16572.081   -18896.903   -12075.964   -1062.8714    -1837.016    6887.2695    82.795167 
   11800    112.60791   -100.78784      0.10189   -100.68595    13313.496    4.3308856    4.3308856    4.3308856    13313.496    28040.225    3629.0836    8271.1803    -4515.548    1303.8989   -18987.382    81.232561 
   11900    583.97351   -101.21197    0.5283915   -100.68358     -16643.6    4.3570592    4.3570592    4.3570592     -16643.6   -18416.386   -16888.268   -14626.147    1419.7807   -2306.0015    4102.9224    82.714256 
   12000    373.77124   -101.02351   0.33819608   -100.68532    4996.3109    4.3382444    4.3382444    4.3382444    4996.3109    12556.799    822.29031     1609.844   -1795.4709   -582.50006   -12511.846    81.647342 
   12100    320.18968   -100.97794   0.28971435   -100.68822   -5065.1444    4.3441219    4.3441219    4.3441219   -5065.1444    7977.5936   -14867.134   -8305.8932    145.88571   -1552.4298   -7825.2527    81.979638 
   12200     570.7703   -101.19856   0.51644496   -100.68212   -10880.258    4.3534583    4.3534583    4.3534583   -10880.258   -8045.4048   -16748.851    -7846.519    1179.8037   -411.44982   -755.69696    82.509349 
   12300    199.94329   -100.86678    0.1809129   -100.68586    10533.261    4.3314132    4.3314132    4.3314132    10533.261    30311.111    764.73183    523.93897   -4035.8644    1415.2263     -17816.9    81.262253 
   12400    564.62971   -101.18976   0.51088883   -100.67887   -15400.428     4.359628     4.359628     4.359628   -15400.428   -14135.625    -20682.29   -11383.369    475.06794   -1170.5263    6774.0424    82.860645 
   12500     218.6572   -100.88187   0.19784563   -100.68403    8333.8763    4.3322201    4.3322201    4.3322201    8333.8763    22350.971    1760.7429    889.91488   -3385.4388    2894.3483   -19162.063    81.307674 
   12600    511.01402   -101.14567   0.46237622    -100.6833   -5674.0435    4.3516829    4.3516829    4.3516829   -5674.0435   -1661.4695   -4628.6866   -10731.974   -921.50981   -1719.7832    4262.0639    82.408446 
   12700    428.58077   -101.07158   0.38778889   -100.68379   -7915.7618    4.3453887    4.3453887    4.3453887   -7915.7618   -725.52114   -14300.377   -8721.3872    2371.6628    1404.6588   -14162.561    82.051382 
   12800    285.86354   -100.94471   0.25865534   -100.68606    7521.8643    4.3372327    4.3372327    4.3372327    7521.8643    18795.097    4341.8959   -571.39967   -2650.4583    384.51278   -3018.1239    81.590232 
   12900    609.04661   -101.23268   0.55107818   -100.68161   -13512.422    4.3564908    4.3564908    4.3564908   -13512.422    -11394.82   -16350.473   -12791.974    3810.1358     63.31016   -4345.0148    82.681889 
   13000    201.82744   -100.86774   0.18261771   -100.68512    10999.049    4.3315831    4.3315831    4.3315831    10999.049    21433.505    6891.8495    4671.7916   -3875.0228    2648.9314   -9719.8527    81.271815 
   13100    481.50019   -101.11686   0.43567149   -100.68119    -9064.694    4.3567058    4.3567058    4.3567058    -9064.694    1140.4952   -17605.848   -10728.729    999.94635    1528.9929    6931.6797    82.694134 
   13200      360.691   -101.01014    0.3263608   -100.68378    3427.3592    4.3359596    4.3359596    4.3359596    3427.3592    12949.397    2555.1973   -5222.5164    -2424.273    1130.4032   -18019.812    81.518405 
   13300    384.50049   -101.03135   0.34790413   -100.68345    -1776.273    4.3475203    4.3475203    4.3475203    -1776.273    13682.239   -12402.612   -6608.4454   -29.422767    1512.9997     10110.26    82.172186 
   13400    422.45856   -101.06517   0.38224938   -100.68293   -8390.1802    4.3478894    4.3478894    4.3478894   -8390.1802    2406.9552   -18227.622   -9349.8736    1998.4928   -1167.6957   -15979.193    82.193117 
   13500    399.83311   -101.04648    0.3617774    -100.6847    4816.1318    4.3365717    4.3365717    4.3365717    4816.1318    16247.521   -26.878314   -1772.2479   -980.68175    2003.7449    4937.8541    81.552934 
   13600    446.60132   -101.08613   0.40409426   -100.68203   -9726.0915    4.3549043    4.3549043    4.3549043   -9726.0915    2991.6148   -21573.631   -10596.258    1148.5109   -1162.2919   -3188.1378    82.591591 
   13700     311.6118   -100.96533    0.2819529   -100.68337    3993.6202    4.3351645    4.3351645    4.3351645    3993.6202    10872.438    1658.5354   -550.11255   -14.371905    2937.0556   -5878.9605    81.473571 
   13800    451.72524   -101.09073   0.40873049     -100.682    501.92859     4.349876     4.349876     4.349876    501.92859    15021.052   -3867.7953   -9647.4714   -3176.2235    166.39109    9677.3251    82.305838 
   13900    360.73696   -101.00967   0.32640238   -100.68327   -3656.2538    4.3447601    4.3447601    4.3447601   -3656.2538    5349.2264   -7966.2803   -8351.7075    121.44319    504.92608   -14872.107    82.015775 
   14000    367.70099   -101.01547   0.33270359   -100.68276    6885.7201    4.3391845    4.3391845    4.3391845    6885.7201     20537.21    2437.1605   -2317.2099   -2261.5728    639.92166    13756.415    81.700431 
   14100    471.02221   -101.10939    0.4261908    -100.6832   -8922.2719    4.3525002    4.3525002    4.3525002   -8922.2719    295.53035       -16145   -10917.346    745.11206   -2098.3848   -14108.512    82.454884 
   14200    382.19983   -101.02938   0.34582244   -100.68356    4555.2707    4.3358871    4.3358871    4.3358871    4555.2707    13930.659    81.336768   -346.18323   -282.31727    3481.9562    8854.5156    81.514319 
   14300    405.91506   -101.04997   0.36728048   -100.68268   -4407.1357     4.350996     4.350996     4.350996   -4407.1357    12061.889   -18422.865   -6860.4313   -335.21608   -2178.4171   -4309.8463    82.369428 
   14400    403.23106   -101.04867   0.36485194   -100.68382   -2131.5081    4.3419206    4.3419206    4.3419206   -2131.5081    6259.3657   -4825.1098   -7828.7801   -2332.2456      4542.22   -572.27326    81.855077 
   14500    364.13002   -101.01278    0.3294725   -100.68331    7010.9495    4.3412193    4.3412193    4.3412193    7010.9495    25922.336   -3805.6839   -1083.8037   -2236.1209    662.28075    6664.5639    81.815421 
   14600    371.13993   -101.01968    0.3358152   -100.68386   -11768.565    4.3519897    4.3519897    4.3519897   -11768.565   -2546.6473   -18597.667   -14161.381   -2135.1479    580.02047   -11453.082    82.425875 
   14700    388.53917    -101.0345   0.35155841   -100.68294    11362.331    4.3344234    4.3344234    4.3344234    11362.331    22896.951    8375.4371    2814.6061   -582.11643    3775.5925    14020.299    81.431793 
   14800     476.4657   -101.11344   0.43111618   -100.68233   -13387.284    4.3542003    4.3542003    4.3542003   -13387.284   -3865.3473    -22556.65   -13739.856    2515.0794   -1560.5835   -16145.708    82.551543 
   14900    332.47108   -100.98403   0.30082682   -100.68321    4681.2482    4.3376649    4.3376649    4.3376649    4681.2482    16699.144   -2269.7555   -385.64437   -552.61079    4738.0256    13996.309    81.614628 
   15000    498.39131   -101.13312   0.45095493   -100.68217   -882.55462    4.3458807    4.3458807    4.3458807   -882.55462     10776.75   -6805.3055   -6619.1087    2661.4384    -648.1448   -9008.1718    82.079254 
   15100    341.40209   -100.99297   0.30890779   -100.68406   -5206.4911    4.3486513    4.3486513    4.3486513   -5206.4911    4148.5419   -10774.854   -8993.1611    82.183694    2438.5347    2904.1563    82.236338 
   15200    378.75973   -101.02502   0.34270977   -100.68231    13424.774    4.3346826    4.3346826    4.3346826    13424.774    28585.855    9127.5065    2560.9613   -2962.9804    3035.1819    4873.3205    81.446402 
   15300    410.28548   -101.05459   0.37123492   -100.68335   -12074.578    4.3560709    4.3560709    4.3560709   -12074.578   -8958.3902   -13765.463    -13499.88    2398.8365   -2194.4978   -10632.616    82.657987 
   15400    370.61315   -101.01709   0.33533857   -100.68176    12263.602    4.3335907    4.3335907    4.3335907    12263.602      23950.9    9428.9148    3410.9918    385.42928    5624.7142    14136.097    81.384867 
   15500     442.3691   -101.08277   0.40026486   -100.68251   -9840.6186    4.3504678    4.3504678    4.3504678   -9840.6186   -2537.0352   -19949.442   -7035.3786     1728.254   -2859.2952   -15482.992    82.339432 
   15600    400.31531   -101.04542   0.36221371    -100.6832   -1709.9726    4.3442987    4.3442987    4.3442987   -1709.9726    7832.4243   -8502.5331    -4459.809    3841.6526    2421.7622    13081.481    81.989651 
   15700    446.09743   -101.08576   0.40363833   -100.68212    4963.1156    4.3384625    4.3384625    4.3384625    4963.1156    15689.551    -3287.587    2487.3829   -1525.6113    924.87568   -11128.122    81.659655 
   15800    356.69469    -101.0066   0.32274485   -100.68386   -11886.359    4.3538007    4.3538007    4.3538007   -11886.359   -1246.3107   -22629.377    -11783.39    415.69507   -140.51735    5847.6406    82.528818 
   15900    380.19345   -101.02593   0.34400703   -100.68192    16676.573    4.3329881    4.3329881    4.3329881    16676.573    24382.543    17514.246    8132.9307   -1913.7285    5138.7962     160.8766    81.350926 
   16000    415.56692   -101.05923   0.37601368   -100.68322   -11630.106    4.3536543    4.3536543    4.3536543   -11630.106   -9914.5751   -13458.461   -11517.282   -2565.8936   -1361.3983   -5720.4946    82.520493 
   16100    335.41625   -100.98576   0.30349167   -100.68227     10421.96    4.3386099    4.3386099    4.3386099     10421.96    17737.456    7223.6973    6304.7257    1773.5521    3562.6258    11104.646    81.667978 
   16200    491.05696   -101.12685   0.44431866   -100.68253   -2433.3749     4.343759     4.343759     4.343759   -2433.3749    2276.2964   -6029.7084   -3546.7127   -1522.6145    1778.8666   -15012.817    81.959098 
   16300    388.64593   -101.03505     0.351655    -100.6834   -3922.1718    4.3494842    4.3494842    4.3494842   -3922.1718   -2009.3694   -7838.3601   -1918.7858    834.71607    412.84769    15270.883    82.283598 
   16400    428.27701   -101.06916   0.38751404   -100.68165    7772.9952    4.3357787    4.3357787    4.3357787    7772.9952     17663.58    2174.3549    3481.0508    -1247.792    3309.8289   -12733.261    81.508204 
   16500    365.03064    -101.0144   0.33028739   -100.68411   -6645.6141    4.3526478    4.3526478    4.3526478   -6645.6141   -2296.3224   -12224.969   -5415.5509   -2189.9683    576.45115    7038.6437    82.463274 
   16600    412.78545   -101.05607   0.37349695   -100.68257    7536.5166    4.3381789    4.3381789    4.3381789    7536.5166    14846.806    6515.3143     1247.429    -4176.897     2461.482    545.37411    81.643644 
   16700    315.33628   -100.96965    0.2853229   -100.68433    786.90081    4.3442902    4.3442902    4.3442902    786.90081    6044.6815   -6767.0616    3083.0825   -1627.9399    1595.4345   -6753.1584    81.989167 
   16800    448.15197   -101.08849   0.40549732   -100.68299   -4023.6057     4.348793     4.348793     4.348793   -4023.6057    2642.0495   -8842.2588   -5870.6079   -1424.5234    2396.5143     12742.43    82.244374 
   16900    407.21245   -101.05082   0.36845438   -100.68237    9932.2178    4.3352044    4.3352044    4.3352044    9932.2178    13515.324    5772.8351    10508.494   -917.92282    574.69148   -14190.878     81.47582 
   17000    415.91188   -101.05931   0.37632581   -100.68298   -13096.796    4.3548013    4.3548013    4.3548013   -13096.796    -8576.863   -22516.323   -8197.2009     2739.405    1270.2392    11795.389    82.585734 
   17100    439.52136   -101.07951   0.39768816   -100.68182    13138.768    4.3342512    4.3342512    4.3342512    13138.768    17568.394    12733.352    9114.5573    -2407.722   -602.37154   -8866.7831    81.422085 
   17200    400.26473   -101.04615   0.36216794   -100.68398   -5610.5841    4.3497166    4.3497166    4.3497166   -5610.5841   -4641.9134   -6702.6864   -5487.1525    2597.2237    403.28639    3653.4354     82.29679 
   17300    366.37538   -101.01449   0.33150414   -100.68299    6323.7296    4.3429641    4.3429641    4.3429641    6323.7296    7507.0454    9085.3735      2378.77   -1926.1727    1222.1179    2448.0715    81.914109 
   17400    385.06887   -101.03177    0.3484184   -100.68335    6845.5038    4.3382432    4.3382432    4.3382432    6845.5038    13189.092    2287.1954    5060.2238   -1797.3152   -546.20654    -6869.864    81.647276 
   17500     426.8884   -101.06915    0.3862576   -100.68289   -5569.3262    4.3529631    4.3529631    4.3529631   -5569.3262   -2488.8077   -7541.0558   -6678.1151    1482.8158    2362.7226    10522.723    82.481199 
   17600     372.9628    -101.0197   0.33746458   -100.68223    11488.609    4.3328741    4.3328741    4.3328741    11488.609    20063.849    4386.1337    10015.845   -1238.2468   -691.71246   -12516.394    81.344503 
   17700     401.0413   -101.04689    0.3628706   -100.68402   -10167.094    4.3532341    4.3532341    4.3532341   -10167.094   -3020.1899   -19301.518   -8179.5743    3942.4813    2697.4298    12241.367    82.496603 
   17800     478.6401   -101.11456   0.43308362   -100.68148    6830.2692    4.3385306    4.3385306    4.3385306    6830.2692     10666.87     6366.844    3457.0932    1434.0973   -1539.2581   -10222.847    81.663501 
   17900    328.69657   -100.98125   0.29741157   -100.68384   -3541.9265     4.343968     4.343968     4.343968   -3541.9265    1802.6144   -9802.7483   -2625.6456    1983.0382    2542.5778    6763.8723    81.970929 
   18000    460.65829   -101.09954    0.4168133   -100.68272   -73.553362    4.3472602    4.3472602    4.3472602   -73.553362   -623.13979     1648.263   -1245.7833    419.56011   -566.85657    1620.5284     82.15744 
   18100    384.51438   -101.03171   0.34791669   -100.68379    6068.6326    4.3378222    4.3378222    4.3378222    6068.6326    13795.585    4450.9497   -40.637216   -2580.5738    1758.1598   -2467.8551    81.623506 
   18200    398.86559   -101.04501   0.36090197    -100.6841   -5028.6632    4.3490919    4.3490919    4.3490919   -5028.6632   -1799.0901   -10669.963   -2616.9361    1119.1774    3397.9001    11285.763    82.261337 
   18300    375.48879   -101.02311   0.33975015   -100.68336    7594.2433     4.340038     4.340038     4.340038    7594.2433    15846.289    7280.8935   -344.45313   -3563.3479   -1540.6477   -9319.3811    81.748654 
   18400    408.63432   -101.05426   0.36974092   -100.68452   -1081.6591    4.3435647    4.3435647    4.3435647   -1081.6591    9393.9923   -9485.8258   -3153.1439    3609.1228    4859.8413    14155.597    81.948097 
   18500    425.85861   -101.06718   0.38532582   -100.68185   -466.12308    4.3473658    4.3473658    4.3473658   -466.12308    2179.5287    1600.1874   -5178.0853   -3099.0469   -2297.7736   -6794.3116    82.163427 
   18600    305.78068   -100.96099   0.27667678   -100.68431    3023.9915    4.3371961    4.3371961    4.3371961    3023.9915    14786.771   -7206.4652    1491.6685    2445.0411    601.20733    10642.695    81.588168 
   18700    552.66437   -101.18296   0.50006233    -100.6829   -7311.7933    4.3510338    4.3510338    4.3510338   -7311.7933   -6457.1441    -7549.284   -7928.9518   -3293.3671    1201.3513    827.51709    82.371578 
   18800    293.60183   -100.95118    0.2656571   -100.68552     2094.537    4.3380606    4.3380606    4.3380606     2094.537    10804.049   -5226.7766    706.33865   -3525.3325   -3565.3401    3335.9177    81.636964 
   18900    442.92487   -101.08557   0.40076773    -100.6848   -6844.2402    4.3452478    4.3452478    4.3452478   -6844.2402    1953.7732    -17118.62    -5367.874    866.10827    2960.4661    8345.1703    82.043398 
   19000    420.91958   -101.06546   0.38085688    -100.6846    -1610.157    4.3464146    4.3464146    4.3464146    -1610.157    6813.3166   -5407.4793   -6236.3083   -6368.4841   -2545.2056   -4338.5313     82.10951 
   19100    343.19641   -100.99563   0.31053132    -100.6851    2172.6265    4.3363857    4.3363857    4.3363857    2172.6265    19142.373   -8644.7568   -3979.7362    4069.7571    249.89803    12078.619    81.542439 
   19200    449.51434   -101.08868   0.40673002   -100.68195   -6390.3601     4.352438     4.352438     4.352438   -6390.3601    -5798.731   -6016.2797   -7356.0697   -3971.4685   -1359.8699   -4725.5803    82.451352 
   19300    332.33902   -100.98545   0.30070733   -100.68474      3122.42    4.3358481    4.3358481    4.3358481      3122.42    18178.199   -1779.8314   -7031.1072   -1211.4585   -2600.3364    11874.691    81.512116 
   19400    537.12357   -101.16786    0.4860007   -100.68186   -5586.3667    4.3480888    4.3480888    4.3480888   -5586.3667   -6794.9372   -6683.9848   -3280.1782   -513.13975   -26.779434    3.2321063    82.204429 
   19500    267.86585   -100.92763   0.24237065   -100.68526   -2793.6433    4.3433738    4.3433738    4.3433738   -2793.6433    6861.0736   -6172.4467   -9069.5566   -4701.4368   -2778.6916    4538.3434    81.937292 
   19600    482.66318   -101.12003   0.43672379   -100.68331    2579.5639    4.3393915    4.3393915    4.3393915    2579.5639    12580.717    -4953.116    111.09074     1384.783    2429.1455    8179.1746    81.712124 
   19700    403.78611   -101.04939   0.36535416   -100.68404   -5742.9345    4.3490881    4.3490881    4.3490881   -5742.9345    882.01196   -7645.4595   -10465.356   -2747.8892   -3754.0254   -3687.3534    82.261118 
   19800    248.98619   -100.91134   0.22528794   -100.68605    2050.8333    4.3381947    4.3381947    4.3381947    2050.8333    19920.307   -9300.4604   -4467.3469    977.76605    1099.2229    15040.789    81.644537 
   19900    606.69832   -101.23176   0.54895339    -100.6828   -5933.8156    4.3470056    4.3470056    4.3470056   -5933.8156   -6776.1043   -6976.9933   -4048.3491   -2256.7576   -2167.9373   -5152.4744    82.143008 
   20000    225.42751   -100.89178   0.20397155   -100.68781    -4827.118     4.344073     4.344073     4.344073    -4827.118    11090.699   -14412.662   -11159.391   -709.92959   -2834.0973    13915.761    81.976874 
   20100    567.59264   -101.19538   0.51356975   -100.68181     1005.966    4.3391798    4.3391798    4.3391798     1005.966    1209.3452   -5074.5095    6883.0623   -2083.6151    2677.8267    1324.6628    81.700167 
   20200    267.98562   -100.92947   0.24247902   -100.68699   -6029.3413    4.3496291    4.3496291    4.3496291   -6029.3413    1041.6513   -9351.8074   -9777.8677   -3042.5552    -3685.653    4984.4702    82.291822 
   20300    487.72384   -101.12544   0.44130278   -100.68414    5983.2993    4.3367157    4.3367157    4.3367157    5983.2993    19686.204    -3973.137    2236.8311    3593.9859    4092.0583    9076.1326    81.561059 
   20400    329.85139   -100.98421   0.29845647   -100.68575   -960.75973    4.3479362    4.3479362    4.3479362   -960.75973    856.01858    -1457.464   -2280.8338    -4759.705   -3079.1815   -950.16154    82.195774 
   20500    349.24487   -101.00316   0.31600409   -100.68716   -3013.2281    4.3427921    4.3427921    4.3427921   -3013.2281    14988.692   -12199.654   -11828.723    2376.3974    -1090.034    15196.595    81.904376 
   20600    575.01638   -101.20324   0.52028691   -100.68296    5245.5959    4.3401657    4.3401657    4.3401657    5245.5959    1710.8885    6509.6072     7516.292   -4643.8828   -1191.2046   -2856.7198    81.755868 
   20700    209.74049   -100.87757   0.18977761   -100.68779   -12007.373    4.3504622    4.3504622    4.3504622   -12007.373    1380.7974   -22033.616   -15369.302   -3236.9551   -4185.8454    14023.318    82.339115 
   20800    569.77253   -101.19654   0.51554216     -100.681    10269.726     4.334359     4.334359     4.334359    10269.726    7577.0025    7407.5442    15824.633    -52.50556    1814.3181   -2277.1303    81.428163 
   20900    304.70314   -100.96193    0.2757018   -100.68623    -11087.66    4.3517388    4.3517388    4.3517388    -11087.66   -2562.6581   -17420.044   -13280.277   -4568.7535   -1633.8679    10459.619    82.411623 
   21000    379.93716   -101.02786   0.34377513   -100.68409    7460.7872    4.3369039    4.3369039    4.3369039    7460.7872    18436.863    -4643.185    8588.6834   -669.80963    839.25202    3291.0796    81.571678 
   21100    450.84853   -101.09315   0.40793722   -100.68522   -3994.1074    4.3463146    4.3463146    4.3463146   -3994.1074   -1621.9465   -8571.1607   -1789.2149   -2806.9572   -456.33453    4977.2735    82.103843 
   21200    298.07712   -100.95639   0.26970645   -100.68668    -1984.847    4.3461715    4.3461715    4.3461715    -1984.847    11416.193   -11030.073   -6340.6614   -3406.0177   -4008.3485    9679.1484    82.095732 
   21300    550.32988   -101.17899   0.49795004   -100.68104    5468.9022    4.3367023    4.3367023    4.3367023    5468.9022    3091.8623    2462.9947     10851.85   -3477.8248    871.06639   -3246.5252    81.560306 
   21400      227.023   -100.89173   0.20541518   -100.68632   -7293.4201    4.3516105    4.3516105    4.3516105   -7293.4201   -4125.2503   -10068.984   -7686.0261   -1553.1021   -3205.0384    14124.845    82.404335 
   21500    579.90337   -101.20502   0.52470876   -100.68031    7504.2763    4.3366378    4.3366378    4.3366378    7504.2763    4035.2982    7327.7313    11149.799    -4273.971    1372.0075   -7830.2413    81.556666 
   21600    245.82929    -100.9087   0.22243151   -100.68627   -3937.0627    4.3463407    4.3463407    4.3463407   -3937.0627    85.299584   -8052.5485   -3843.9392    922.87165    1929.9738    12512.628    82.105321 
   21700    472.61251   -101.11186   0.42762973   -100.68423     -1068.81    4.3449614    4.3449614    4.3449614     -1068.81    5145.8473   -8267.9631   -84.314216    -2723.023   -391.37286   -140.47478     82.02718 
   21800    425.48378   -101.06975   0.38498666   -100.68477    2623.0263    4.3384532    4.3384532    4.3384532    2623.0263    4069.2437    1450.2855    2349.5497   -2873.1447    2303.5838    5729.0937    81.659131 
   21900    306.02671   -100.96316    0.2768994   -100.68626   -7433.1243    4.3501821    4.3501821    4.3501821   -7433.1243    4139.7759   -16199.769   -10239.379   -1771.2663   -4146.0806    9387.7457    82.323214 
   22000    507.09913   -101.14085   0.45883395   -100.68202    5256.9525     4.337115     4.337115     4.337115    5256.9525   -12.942874    4175.1193    11608.681   -3873.3569    1510.5619   -3078.5687    81.583592 
   22100    273.40701   -100.93476   0.24738441   -100.68737   -6056.1215    4.3470803    4.3470803    4.3470803   -6056.1215   -1075.1354   -10117.303   -6975.9265   -756.16009   -3066.5877    13224.847    82.147242 
   22200    505.90795   -101.14008   0.45775614   -100.68233    3009.6713    4.3425088    4.3425088    4.3425088    3009.6713    1432.3239   -2915.9738    10512.664    972.44996    641.10603   -4267.1334     81.88835 
   22300    306.92313   -100.96478    0.2777105   -100.68707   -3707.5896    4.3415851    4.3415851    4.3415851   -3707.5896   -203.54025   -9581.4382   -1337.7902    -1975.723    1012.1233    13596.354    81.836108 
   22400    494.81152   -101.13129   0.44771586   -100.68358   -333.09628    4.3476158    4.3476158    4.3476158   -333.09628    2489.3973    -2329.799   -1158.8872    905.61725   -1978.6449    2698.5648    82.177603 
   22500    375.21104   -101.02398   0.33949883   -100.68448    494.54318    4.3385073    4.3385073    4.3385073    494.54318    1881.2904     286.1764   -683.83728   -1386.2556    2695.6585    8064.9103    81.662188 
   22600    327.17196   -100.98238   0.29603207   -100.68635   -3071.0072    4.3479661    4.3479661    4.3479661   -3071.0072    1952.1831    -3053.767   -8111.4376   -2658.8336   -4231.8855    9666.9138    82.197468 
   22700    518.57717    -101.1521   0.46921952   -100.68288    4987.2851     4.340344     4.340344     4.340344    4987.2851    2088.1812    8440.8038    4432.8705    693.06087    339.23795   -1557.0647    81.765941 
   22800    240.30454   -100.90582    0.2174326   -100.68839   -7715.9349    4.3441963    4.3441963    4.3441963   -7715.9349    -1929.752   -12869.692   -8348.3612   -904.93307   -814.59336    16680.632     81.98385 
   22900    526.07751   -101.15901   0.47600599   -100.68301    2186.7317    4.3447957    4.3447957    4.3447957    2186.7317    3559.8073   -2940.1508    5940.5386    1143.6828   -2347.2841   -3641.2421    82.017795 
   23000    328.27919   -100.98559   0.29703391   -100.68856   -5697.2107    4.3399035    4.3399035    4.3399035   -5697.2107    605.93388   -12029.229   -5668.3371    1181.6667    2969.5407    18839.406    81.741049 
   23100    475.57789   -101.11486   0.43031287   -100.68455    -3215.804    4.3487303    4.3487303    4.3487303    -3215.804   -2425.6566   -1979.6155   -5242.1399    418.69579   -2073.3863    3097.9268    82.240819 
   23200    306.40316   -100.96348   0.27724002   -100.68624    2811.6831    4.3382747    4.3382747    4.3382747    2811.6831    12626.207    -3682.881   -508.27717   -1676.0934    1616.0336    8754.0535     81.64905 
   23300    418.37981    -101.0656   0.37855884   -100.68704   -6096.0246    4.3475196    4.3475196    4.3475196   -6096.0246    -6438.466   -752.23357   -11097.374    1289.2091   -779.69008    11785.409    82.172151 
   23400    478.22332   -101.11671   0.43270651     -100.684    6300.4344    4.3407388    4.3407388    4.3407388    6300.4344    12680.895     1933.958    4286.4508   -1712.4467   -1665.3177   -5172.6231    81.788259 
   23500    225.16842   -100.89317   0.20373712   -100.68943   -6331.1003    4.3437097    4.3437097    4.3437097   -6331.1003    2755.4723   -13402.687   -8346.0863    301.38634    2062.6219     20812.91    81.956309 
   23600    648.88106   -101.26957   0.58712122   -100.68245    812.96798    4.3460222    4.3460222    4.3460222    812.96798   -2742.7833     4207.594    974.09326     2256.177   -2398.2738   -6876.7069     82.08727 
   23700    172.53963   -100.84501   0.15611748   -100.68889    1845.4973    4.3388506    4.3388506    4.3388506    1845.4973    17070.786   -1241.6413   -10292.652   -1619.0897    2465.7291    19233.485    81.681573 
   23800    509.19639   -101.14432   0.46073159   -100.68359   -6347.9386    4.3487492    4.3487492    4.3487492   -6347.9386   -10582.554    -1841.358    -6619.904    -792.2716    179.91885    228.91586    82.241891 
   23900    353.26905   -101.00564   0.31964526   -100.68599    3734.0545    4.3388718    4.3388718    4.3388718    3734.0545    18051.802    648.91371   -7498.5519    364.30237    225.40044    6022.4861    81.682768 
   24000    407.61444   -101.05503   0.36881811   -100.68622   -8543.8831    4.3474312    4.3474312    4.3474312   -8543.8831   -1872.6958   -11740.697   -12018.256   -3829.4815    1918.6134    9642.2928    82.167136 
   24100    504.88469   -101.13981   0.45683028   -100.68298   -1134.8724    4.3418232    4.3418232    4.3418232   -1134.8724    5636.7749   -9406.6106    365.21854    1393.7517   -1960.8277   -5062.0798    81.849571 
   24200    227.25511    -100.8943    0.2056252   -100.68867    1532.2951    4.3422361    4.3422361    4.3422361    1532.2951    15604.823    -3137.465   -7870.4729    658.41629    2479.8311    17976.153    81.872921 
   24300    623.18045    -101.2462   0.56386677   -100.68233   -1755.4158    4.3475341    4.3475341    4.3475341   -1755.4158    -9670.517    5229.2925   -825.02291     -1342.67   -1327.7054   -6882.2325    82.172969 
   24400     142.3038   -100.81658   0.12875947   -100.68782    7591.6033    4.3376753    4.3376753    4.3376753    7591.6033    21635.978    3326.1075   -2187.2758     1276.084     999.7918     18871.17    81.615213 
   24500    534.63301   -101.16639   0.48374718   -100.68265   -2853.6768    4.3496074    4.3496074    4.3496074   -2853.6768   -5321.1878    864.80121   -4104.6437    -1899.509    2121.6898   -2552.2034    82.290588 
   24600    446.15038   -101.08809   0.40368624   -100.68441     874.0614     4.338698     4.338698     4.338698     874.0614    7811.5013   -3360.7676   -1828.5495   -3481.9719   -908.75194    9065.7266    81.672955 
   24700    308.83091   -100.96581   0.27943669   -100.68638   -1289.9867    4.3462468    4.3462468    4.3462468   -1289.9867    8743.4411   -6685.8167   -5927.5843    1358.9195    3318.3884    8262.9772    82.100001 
   24800    506.30491   -101.14122   0.45811533   -100.68311   -1790.5305    4.3439399    4.3439399    4.3439399   -1790.5305    -683.0744   -4342.8106   -345.70638    -1823.254   -1145.0276   -959.59041    81.969335 
   24900    291.77198   -100.95171   0.26400142   -100.68771    2270.5136    4.3403753    4.3403753    4.3403753    2270.5136    10719.379    3199.7625   -7107.6004    499.28211    1694.3199    19244.234    81.767712 
   25000    455.42065   -101.09492   0.41207418   -100.68285    1379.9937    4.3475177    4.3475177    4.3475177    1379.9937    1207.6205   -1700.9417    4633.3023    719.86013    1264.3399   -5071.6903    82.172043 
   25100    301.53273   -100.95967   0.27283315   -100.68684   -3352.3695    4.3407635    4.3407635    4.3407635   -3352.3695    5077.8886    -11434.91   -3700.0866   -1013.2151   -1658.3329    17236.313    81.789657 
   25200    545.94837   -101.17652   0.49398556   -100.68253    4360.6209    4.3446928    4.3446928    4.3446928    4360.6209    1878.5092      4477.72    6725.6334   -2133.1631    3606.5487   -937.13422    82.011966 
   25300    334.07852    -100.9881   0.30228126   -100.68581   -5231.3174    4.3449679    4.3449679    4.3449679   -5231.3174    1916.1445   -13698.879   -3911.2181    229.08532   -2106.0412    5598.0009    82.027544 
   25400    406.17848   -101.05325   0.36751883   -100.68573    5558.1002    4.3390182    4.3390182    4.3390182    5558.1002    3430.4795    6395.5685    6848.2525   -1345.6382     2923.042    7911.2309    81.691036 
   25500    448.54573   -101.09052    0.4058536   -100.68467   -3077.6483    4.3506339    4.3506339    4.3506339   -3077.6483   -2397.4358   -3811.4066   -3024.1024   -15.312451   -1338.0914   -1980.2504    82.348862 
   25600    292.65208   -100.95108   0.26479775   -100.68628    5141.7548    4.3355412    4.3355412    4.3355412    5141.7548    7915.7216     2417.866    5091.6767    3409.6355   -831.39441     14114.01    81.494813 
   25700    479.73535   -101.11613   0.43407463   -100.68205   -3743.7892    4.3504667    4.3504667    4.3504667   -3743.7892   -4763.3979   -14018.573    7550.6034    -460.3435    192.81074   -3993.4458    82.339369 
   25800    300.79064   -100.95932   0.27216169   -100.68716   -1992.4965    4.3397991    4.3397991    4.3397991   -1992.4965    8942.2852   -10536.895   -4382.8792     1193.987   -4606.3661    10064.609    81.735152 
   25900    543.21615   -101.17435   0.49151339   -100.68284    2674.0719    4.3433295    4.3433295    4.3433295    2674.0719   -1010.7772   -4578.4158    13611.409    1099.9064     2412.702   -54.198305    81.934786 
   26000    294.47438   -100.95316   0.26644661   -100.68672       -10873    4.3488412    4.3488412    4.3488412       -10873   -67.014634   -22728.291   -9823.6938    -2301.859   -2767.2191     4597.408    82.247112 
   26100    419.45631   -101.06505   0.37953288   -100.68551    12063.579    4.3352909    4.3352909    4.3352909    12063.579    7624.0485     13070.21    15496.479    801.86279    -672.6465    6969.1996    81.480699 
   26200    500.50427    -101.1375   0.45286678   -100.68463   -9550.6792     4.352277     4.352277     4.352277   -9550.6792   -11789.641   -14549.802   -2312.5942    1740.7928    252.55674    2688.7343    82.442203 
   26300    173.30084   -100.84442   0.15680624   -100.68761    8227.2837     4.337354     4.337354     4.337354    8227.2837    8297.8817    1914.4047    14469.565   -102.22715   -5011.5182      11129.6    81.597076 
   26400    667.06015     -101.285   0.60357004   -100.68143   -556.87437    4.3462775    4.3462775    4.3462775   -556.87437    -1972.738   -4824.0439    5126.1588     3852.049   -85.492467   -1360.2661    82.101736 
   26500    204.69614   -100.87357   0.18521337   -100.68836   -4019.1319    4.3451332    4.3451332    4.3451332   -4019.1319    2745.4367   -13375.205   -1427.6273    1920.6391    -4452.082    12785.495    82.036911 
   26600    540.62658   -101.17228    0.4891703   -100.68311    7242.6352    4.3386451    4.3386451    4.3386451    7242.6352    13225.247   -1888.4857    10391.144    860.26074   -1158.6227   -3820.5457    81.669966 
   26700    293.72567   -100.95375   0.26576916   -100.68798   -7796.2287    4.3510774    4.3510774    4.3510774   -7796.2287    1708.8462   -18677.945   -6419.5875    411.62535    287.79828    11615.058    82.374053 
   26800    434.65121   -101.07937   0.39328155   -100.68609    8228.8349    4.3361566    4.3361566    4.3361566    8228.8349    10091.348    4071.6243    10523.532    874.09402   -2129.6332    1561.1825    81.529518 
   26900    391.54704   -101.03968   0.35427999    -100.6854    -2264.324    4.3486073    4.3486073    4.3486073    -2264.324    6251.9045   -15449.378    2404.5015   -1775.6193    2703.7797    5471.3763    82.233838 
   27000    279.08487   -100.94071   0.25252186   -100.68818   -850.78387    4.3420573    4.3420573    4.3420573   -850.78387    16.473768   -5720.6657    3151.8403    2496.8317   -3578.1493    8696.9695    81.862812 
   27100    652.46279   -101.27242   0.59036204   -100.68206    5247.1607    4.3411155    4.3411155    4.3411155    5247.1607    4835.7679    1517.1404    9388.5739    1457.7397    136.45855    -5039.539    81.809554 
   27200    176.33532   -100.84831    0.1595519   -100.68876   -7322.8014     4.350454     4.350454     4.350454   -7322.8014   -99.306513   -21702.985   -166.11282     934.0947   -837.79265    11662.065     82.33865 
   27300    620.39804   -101.24446   0.56134919   -100.68311     8498.727     4.335439     4.335439     4.335439     8498.727    3987.6092    9672.4275    11836.144    2196.8748    14.343769   -6571.3692    81.489047 
   27400    313.69068   -100.97103   0.28383392   -100.68719   -1135.0317    4.3501988    4.3501988    4.3501988   -1135.0317    2675.2404   -11054.262     4973.927   -272.20757    2191.7327    10178.113    82.324163 
   27500    337.93985   -100.99139   0.30577508   -100.68561    3711.6017    4.3419127    4.3419127    4.3419127    3711.6017    2702.7983    3581.8904    4850.1164   -2108.1621    275.77597    782.60361    81.854631 
   27600    467.76567   -101.10591   0.42324421   -100.68266    7642.2134    4.3394204    4.3394204    4.3394204    7642.2134    9841.0602    1489.0754    11596.505    -1034.658    3571.6944    3311.5874    81.713758 
   27700    264.98869   -100.92635   0.23976734   -100.68658   -6085.9391    4.3524875    4.3524875    4.3524875   -6085.9391    2305.9358   -9593.1232    -10970.63   -2780.8142    21.415089    7025.9466    82.454165 
   27800    533.22339   -101.16322   0.48247173   -100.68074    11909.638    4.3316611    4.3316611    4.3316611    11909.638    11529.629    6413.5249    17785.761   -1437.4769    2994.8508   -3611.1141    81.276204 
   27900    282.09232   -100.94253   0.25524306   -100.68729   -12861.971    4.3557107    4.3557107    4.3557107   -12861.971   -829.92858   -25355.719   -12400.264     906.7217   -1002.9705     11513.72    82.637486 
   28000    507.02766   -101.14214   0.45876928   -100.68337    11365.882    4.3345634    4.3345634    4.3345634    11365.882    6200.7318    13568.188    14328.725    501.98213    2336.6445   -4831.9128    81.439683 
   28100    393.94348   -101.04111   0.35644834   -100.68466   -7231.3513    4.3471765    4.3471765    4.3471765   -7231.3513   -5963.3952   -13592.923   -2137.7361   -9.4035741    1285.0752    12787.032    82.152699 
   28200    318.64021   -100.97322   0.28831235   -100.68491    4371.6994    4.3451304    4.3451304    4.3451304    4371.6994    1558.7574     7768.748    3787.5927    290.54583    1159.5686   -806.11762     82.03675 
   28300    545.22368   -101.17513   0.49332985    -100.6818    4562.8082    4.3371322    4.3371322    4.3371322    4562.8082   -1792.1563     9724.874    5755.7069   -2279.2929    3973.9791     4868.493     81.58456 
   28400    267.00166   -100.92697   0.24158872   -100.68538   -4395.2102    4.3522412    4.3522412    4.3522412   -4395.2102   -2128.7189   -6963.7971   -4093.1145   -2145.0256   -1777.9985    4487.2609    82.440168 
   28500    499.43826   -101.13375   0.45190223   -100.68185    7869.5677    4.3345121    4.3345121    4.3345121    7869.5677    8742.4744     6360.072    8506.1568    1616.2078    4467.3784   -4738.1515    81.436792 
   28600    329.26373   -100.98398   0.29792474   -100.68606   -5158.4471    4.3500026    4.3500026    4.3500026   -5158.4471   -1984.1081   -7630.9448   -5860.2882   -770.73478    -2057.046    11434.817     82.31302 
   28700     434.0336   -101.07615   0.39272272   -100.68342    4246.3884    4.3411453    4.3411453    4.3411453    4246.3884    3784.6307    4723.0936    4231.4411    3081.9766    2792.1573   -8628.0459     81.81124 
   28800    324.06653   -100.97734    0.2932222   -100.68412    564.20351    4.3415351    4.3415351    4.3415351    564.20351    2935.7825    -944.0523   -299.11963     2500.641    1824.1542    9905.0004    81.833276 
   28900    453.93024   -101.09371   0.41072562   -100.68299   -3315.9754    4.3485277    4.3485277    4.3485277   -3315.9754   -7654.3915    220.87953   -2514.4142    502.30804   -1651.7159   -3628.8817    82.229322 
   29000    399.89904   -101.04484   0.36183706   -100.68301     4059.083    4.3371123    4.3371123    4.3371123     4059.083   -2633.6066    5993.4366    8817.4189   -709.04442    7434.7621    2587.8726    81.583435 
   29100    398.50088   -101.04559   0.36057197   -100.68502   -5807.1392    4.3483677    4.3483677    4.3483677   -5807.1392   -5616.7563    -9579.694   -2224.9673    726.17951   -3480.1252    4012.6446    82.220248 
   29200     474.4804   -101.11293   0.42931984   -100.68361    2378.9224     4.342088     4.342088     4.342088    2378.9224   -6158.1779    5123.9411    8171.0042   -3781.8359    8088.5563    -3166.909    81.864549 
   29300    333.04218   -100.98649   0.30134357   -100.68514    1075.0039    4.3410301    4.3410301    4.3410301    1075.0039    938.73384    2426.6573   -140.37954    2363.1019     88.87492    9444.1823    81.804725 
   29400    427.89472    -101.0699   0.38716814   -100.68273     609.5452    4.3474865    4.3474865    4.3474865     609.5452   -3206.8005    352.02455    4683.4115    344.77849    2185.0795   -2587.7914    82.170273 
   29500    319.94263   -100.97448   0.28949082   -100.68499    4645.4069    4.3379662    4.3379662    4.3379662    4645.4069    3678.2908    8825.1495    1432.7806    543.11504    6374.0822    8311.1874    81.631633 
   29600    429.04535   -101.07245   0.38820925   -100.68424   -696.94946    4.3477271    4.3477271    4.3477271   -696.94946    -3171.367    1498.4294   -417.91088    2100.7081   -2142.9518    2630.2155    82.183918 
   29700    355.50595    -101.0068   0.32166925   -100.68513   -786.02329    4.3421373    4.3421373    4.3421373   -786.02329   -4833.9853   -3867.5358    6343.4512    -1288.923    10010.593    3148.3323    81.867337 
   29800    463.91362   -101.10479    0.4197588   -100.68504   -431.14478    4.3401612    4.3401612    4.3401612   -431.14478     2520.051   -1752.7603   -2060.7251   -1745.4245   -513.81416     8222.287    81.755611 
   29900    432.89208   -101.07533   0.39168985   -100.68364   -4822.2235    4.3502974    4.3502974    4.3502974   -4822.2235   -16654.739   -7902.8721    10090.941    239.61303    7402.9189   -1598.6868    82.329761 
   30000    393.36129   -101.03986   0.35592157   -100.68394    1921.2229    4.3338676    4.3338676    4.3338676    1921.2229    4408.7852    415.21293    939.67067   -2302.4403    4087.2771    9886.6342    81.400472 
   30100     423.9281   -101.06706   0.38357905   -100.68348    90.039077    4.3523364    4.3523364    4.3523364    90.039077   -8240.2912   -4101.1127    12611.521    1633.6855    2773.8023   -1869.6438    82.445579 
   30200    353.50304   -101.00651   0.31985698   -100.68665    1506.8243    4.3365366    4.3365366    4.3365366    1506.8243    65.801401    4990.5775   -535.90606     2031.238    6755.7367     7312.731    81.550957 
   30300    355.50167   -101.00929   0.32166538   -100.68763    7505.0291    4.3437333    4.3437333    4.3437333    7505.0291    3518.3573    3153.7136    15843.016    1886.1283   -988.41367    2399.4279    81.957644 
   30400    398.58028   -101.04722   0.36064381   -100.68657   -4711.6809    4.3484085    4.3484085    4.3484085   -4711.6809    -5334.242   -3856.9847   -4943.8161    2696.6967    8917.5728    -587.7421     82.22256 
   30500    383.07947   -101.03079   0.34661836   -100.68417    8866.0053     4.331735     4.331735     4.331735    8866.0053    7899.7492    5879.0851    12819.182    1497.6498   -2300.0412    7932.0524    81.280366 
   30600    437.23048   -101.07579   0.39561533   -100.68018    -9882.938    4.3567925    4.3567925    4.3567925    -9882.938   -15227.923   -15444.403    1023.5119    211.36705    7806.4026   -5947.9794    82.699068 
   30700    409.37658   -101.05163   0.37041253   -100.68121    5668.5402    4.3293301    4.3293301    4.3293301    5668.5402    10511.113    2744.0979    3750.4094   -552.18839   -84.307632     12568.45    81.145064 
   30800    448.37208   -101.08818   0.40569648   -100.68249   -4208.7277    4.3524794    4.3524794    4.3524794   -4208.7277   -15596.057   -9562.9887    12532.863     2137.501     2064.219   -5633.8414    82.453702 
   30900    345.96123   -100.99896   0.31303299   -100.68593    1048.7077    4.3385379    4.3385379    4.3385379    1048.7077    2526.9898    2730.1336   -2111.0002   -860.39721    6809.1141    10494.824    81.663913 
   31000    408.01747   -101.05608   0.36918278   -100.68689    6874.1262    4.3399271    4.3399271    4.3399271    6874.1262    2012.2448   -555.63186    19165.766    4045.4666   -3992.3402    637.68449    81.742386 
   31100    383.40552   -101.03129   0.34691337   -100.68438   -3712.0662    4.3507044    4.3507044    4.3507044   -3712.0662   -5210.2454   -278.72485   -5647.2283    2111.3031    9896.6425    4438.1516    82.352867 
   31200    325.69118   -100.97838   0.29469222   -100.68369    10169.848    4.3311844    4.3311844    4.3311844    10169.848    12017.297    1576.1106    16916.136    1363.2154   -3492.7653    7966.3993    81.249376 
   31300    484.58177   -101.11934   0.43845977   -100.68088    -5832.534    4.3533352    4.3533352    4.3533352    -5832.534   -8361.7898   -7990.0321     -1145.78    1828.2661    7981.9583   -1882.5473    82.502353 
   31400    362.72813   -101.01124   0.32820404   -100.68304    4370.3879    4.3345636    4.3345636    4.3345636    4370.3879    11865.216      279.049    966.89902   -1317.8906    1952.8797    12083.797    81.439693 
   31500    446.79123   -101.08741   0.40426609   -100.68314   -3933.4247    4.3467363    4.3467363    4.3467363   -3933.4247   -16213.459   -5041.0199    9454.2052   -1218.4049    1203.0151    -1141.066    82.127739 
   31600    410.92421   -101.05604   0.37181286   -100.68423    356.37749     4.342534     4.342534     4.342534    356.37749    6448.5551   -192.02224   -5187.4004    1209.4674    7707.7691    8042.4829    81.889773 
   31700    406.26138   -101.05199   0.36759384    -100.6844    1395.2455    4.3398382    4.3398382    4.3398382    1395.2455   -2004.6766   -1195.0634    7385.4767   -967.69649   -3881.7745    4550.8074    81.737362 
   31800     372.1222    -101.0198   0.33670399    -100.6831    2880.1998    4.3455696    4.3455696    4.3455696    2880.1998    44.579795    2589.6308    6006.3889    2163.4773    9262.3437    276.60261     82.06163 
   31900    354.64348   -101.00588   0.32088887   -100.68499   -269.72812    4.3408869    4.3408869    4.3408869   -269.72812     11362.22   -8416.8958   -3754.5083    1800.3923   -2173.4802    8871.8252    81.796628 
   32000    461.76117   -101.10155   0.41781121   -100.68373    5844.8311    4.3417785    4.3417785    4.3417785    5844.8311   -1319.7329    1009.3306    17844.896    -946.5006    4602.1313   -3201.7753    81.847044 
   32100     344.2393   -100.99684   0.31147495   -100.68537   -6516.0323    4.3459005    4.3459005    4.3459005   -6516.0323    1545.6919   -8727.0144   -12366.774      84.9998    2098.5273    8670.2245    82.080379 
   32200    454.76623   -101.09541   0.41148204   -100.68393     4633.171    4.3376617    4.3376617    4.3376617     4633.171   -3990.6486   -2218.9842    20109.146   -1508.4431   -1502.1877   -517.75967    81.614448 
   32300    461.02081   -101.10112   0.41714131   -100.68397   -5019.6638    4.3476574    4.3476574    4.3476574   -5019.6638    757.62729   -3223.6404   -12592.978    -991.8556    5227.9745    4314.2258    82.179965 
   32400    308.34475   -100.96387   0.27899681   -100.68487    3515.3895    4.3390798    4.3390798    4.3390798    3515.3895    1657.1376   -789.70997    9678.7408     1166.353   -4960.7755    5306.5685    81.694517 
   32500    455.22922    -101.0954   0.41190096    -100.6835    3476.8684    4.3427691    4.3427691    4.3427691    3476.8684    2393.7734    6936.4699     1100.362    1038.9967    6806.7099   -3069.0557     81.90308 
   32600    314.61439   -100.97065   0.28466971   -100.68599   -2346.1306    4.3453646    4.3453646    4.3453646   -2346.1306    9980.6086   -7923.0759   -9095.9245    851.30048   -2166.7253    11107.244    82.050014 
   32700     461.0392   -101.10026   0.41715796    -100.6831    6162.7719    4.3365538    4.3365538    4.3365538    6162.7719   -3691.0451    7300.5455    14878.815    645.77101    2683.9981   -7093.8328    81.551927 
   32800    349.24186   -101.00075   0.31600138   -100.68474     -7152.77    4.3493262    4.3493262    4.3493262     -7152.77    1671.1454   -11381.202   -11748.254   -1312.4341    2292.0602    13336.535    82.274631 
   32900    483.80812   -101.12111   0.43775976   -100.68335    2532.0233    4.3371209    4.3371209    4.3371209    2532.0233   -2038.7609   -1066.2143    10701.045    -1336.474   -4288.8204   -3478.7875    81.583924 
   33000    418.34093   -101.06175   0.37852366   -100.68322    -1135.703    4.3452523    4.3452523    4.3452523    -1135.703    1292.0177   -2954.8438    -1744.283    653.04942    6403.6486    8522.4401    82.043655 
   33100    311.24207   -100.96751   0.28161837   -100.68589   -2797.3264    4.3429955    4.3429955    4.3429955   -2797.3264   -916.72659   -4950.7951   -2524.4575    412.03283   -4829.5284    5468.0033    81.915889 
   33200    475.98214   -101.11439   0.43067864   -100.68371    8452.7346    4.3385848    4.3385848    4.3385848    8452.7346    6132.1837    7939.4396     11286.58    1111.5724    3968.4669   -466.92591    81.666564 
   33300      315.577   -100.97122    0.2855407   -100.68568   -6805.2259    4.3484801    4.3484801    4.3484801   -6805.2259    1517.5416   -6883.2533   -15049.966    3926.0532    1491.7975     13840.54    82.226623 
   33400    408.93374    -101.0531   0.37001184   -100.68309    7524.3379    4.3361916    4.3361916    4.3361916    7524.3379   -2674.3401    7693.9867    17553.367   -3141.7196   -1743.6484    -5396.289    81.531494 
   33500    461.23499   -101.10126   0.41733511   -100.68393   -7161.8592    4.3471159    4.3471159    4.3471159   -7161.8592    3072.4129   -9192.0924   -15365.898    2488.7316    3984.7747    16456.682    82.149262 
   33600    388.81151   -101.03627   0.35180483   -100.68446     96.49659    4.3402617    4.3402617    4.3402617     96.49659   -6361.1766    1216.8695    5433.7968   -2893.0868   -5448.2072   -2531.9532    81.761294 
   33700     443.4096    -101.0846   0.40120633   -100.68339   -1759.9807     4.342354     4.342354     4.342354   -1759.9807   -542.68464   -2195.7734   -2541.4839    242.96891    1540.5571    12029.565    81.879591 
   33800    335.71291   -100.98936    0.3037601    -100.6856   -2660.3061    4.3448671    4.3448671    4.3448671   -2660.3061    1766.2195   -2070.3329   -7676.8049     3421.323    -1960.705    4131.3208    82.021838 
   33900    443.91548   -101.08528   0.40166406   -100.68361    3515.2795    4.3393404    4.3393404    4.3393404    3515.2795    341.06776    5230.0725    4974.6982   -1548.1385   -2092.0899    2575.2206    81.709239 
   34000    302.73388     -100.959   0.27391998   -100.68508   -2304.3842    4.3448942    4.3448942    4.3448942   -2304.3842    2213.7647   -2829.3918   -6297.5254    4041.6144    1502.7108    10756.277    82.023371 
   34100    429.94762   -101.07273   0.38902565    -100.6837   -1395.0325     4.342376     4.342376     4.342376   -1395.0325   -9243.5321    450.46716    4607.9675   -2676.2083   -5052.7711   -3540.0064    81.880837 
   34200     450.3395   -101.09145   0.40747664   -100.68397    619.14375    4.3396555    4.3396555    4.3396555    619.14375    7915.8661   -4699.8627   -1358.5722   -1157.0215    1149.3326    13396.648    81.727039 
   34300    386.75896   -101.03456   0.34994763   -100.68461   -10312.945    4.3482469    4.3482469    4.3482469   -10312.945   -19912.068    -5788.946   -5237.8202   -654.19992   -6325.6838   -2673.3699    82.213397 
   34400    418.28185   -101.06216   0.37847021   -100.68369    5093.3953    4.3356691    4.3356691    4.3356691    5093.3953     6385.759    2107.3752    6787.0518   -2953.5256     -416.089    8355.4754    81.502022 
   34500    416.18324   -101.06114   0.37657134   -100.68457   -8064.9446    4.3489244    4.3489244    4.3489244   -8064.9446   -3468.8479   -5430.6559    -15295.33    2813.8315   -3550.3496    3756.5549    82.251833 
   34600     325.2126   -100.97871   0.29425919   -100.68445    4657.0361    4.3378373    4.3378373    4.3378373    4657.0361   -2166.2104    9568.4176    6568.9012    -1009.611   -3031.3358   -1493.4089     81.62436 
   34700    385.09044   -101.03282   0.34843792   -100.68438   -2540.0167    4.3437376    4.3437376    4.3437376   -2540.0167    6257.1156   -3827.0899   -10050.076    2328.7932     1795.195    10629.925    81.957883 
   34800      412.442   -101.05697   0.37318619   -100.68378   -5405.9976    4.3453139    4.3453139    4.3453139   -5405.9976   -11041.128   -225.53194   -4951.3326   -1075.0266   -6271.4004   -4441.6279    82.047142 
   34900    389.63342    -101.0369    0.3525485   -100.68435    2218.7514    4.3354696    4.3354696    4.3354696    2218.7514    8529.5849   -4230.6049    2357.2741   -1719.9828    2095.7326    14083.797     81.49077 
   35000    456.33015   -101.09586   0.41289711   -100.68296   -13601.211    4.3517796    4.3517796    4.3517796   -13601.211   -22212.639   -8044.2282   -10546.765   -35.955086   -4388.1687    505.80578    82.413939 
   35100    374.06212   -101.02207   0.33845927   -100.68361    7158.1211    4.3329648    4.3329648    4.3329648    7158.1211     8918.633    2693.9875    9861.7429   -3208.2239   -2848.8689    7695.6099     81.34961 
   35200    450.98833   -101.09126   0.40806372    -100.6832   -8577.1526    4.3497945    4.3497945    4.3497945   -8577.1526   -7778.1336   -6329.8514   -11623.473    3787.4451    2597.0151    8287.4495    82.301212 
   35300    304.02394   -100.95939   0.27508725    -100.6843    4408.9176    4.3390448    4.3390448    4.3390448    4408.9176   -5410.9674     8531.012    10106.708   -1321.0882   -8042.1563   -65.274746    81.692539 
   35400     429.8936   -101.07395   0.38897676   -100.68498   -984.65648    4.3404871    4.3404871    4.3404871   -984.65648    13786.561   -4907.0782   -11833.452    3730.3526     3325.559    18461.154    81.774032 
   35500    389.60033   -101.03616   0.35251857   -100.68364   -5358.5604    4.3488507    4.3488507    4.3488507   -5358.5604   -14034.567    1506.8195   -3547.9337    463.01089   -5809.3078   -4989.0568    82.247649 
   35600    370.61711   -101.01986   0.33534215   -100.68452    2814.0539    4.3327371    4.3327371    4.3327371    2814.0539    14005.388   -4330.4994   -1232.7268   -1736.5357    -2906.464    21264.228    81.336787 
   35700    458.59351   -101.09756   0.41494504   -100.68262   -10130.136    4.3519943    4.3519943    4.3519943   -10130.136   -13103.459    -6257.111   -11029.837    2206.7852   -1284.7184   -2289.9878    82.426138 
   35800    383.77354   -101.03085   0.34724636    -100.6836    1723.7629    4.3346857    4.3346857    4.3346857    1723.7629    2666.3017    1224.5544    1280.4326   -4754.0809   -6240.8609    12131.484    81.446576 
   35900    410.08001   -101.05489   0.37104901   -100.68384   -3089.3072    4.3462003    4.3462003    4.3462003   -3089.3072   -3848.4057   -3106.6256   -2312.8902    2666.6698    1702.7385    5677.3268    82.097362 
   36000    414.64886   -101.05901     0.375183   -100.68382   -3426.4877    4.3429189    4.3429189    4.3429189   -3426.4877   -8847.6529    3161.0236   -4592.8337    -448.0667   -5769.2232    1527.5239    81.911552 
   36100    343.60304   -100.99623   0.31089925   -100.68533    6722.5292    4.3368764    4.3368764    4.3368764    6722.5292    17262.524   -2517.5343    5422.5982   -782.69728    794.81019    15998.012    81.570125 
   36200    468.02292   -101.10648   0.42347698     -100.683   -6167.4157     4.350156     4.350156     4.350156   -6167.4157   -12987.224   -940.63231   -4574.3905    4331.9706   -4647.2338   -5522.7292     82.32173 
   36300     292.8592   -100.95039   0.26498516   -100.68541    8829.7422    4.3331812    4.3331812    4.3331812    8829.7422    19043.683   -4475.1779    11920.722   -5283.3349    -2500.375    17378.064    81.361798 
   36400    482.32031   -101.11897   0.43641355   -100.68256   -5831.7718     4.349615     4.349615     4.349615   -5831.7718    -1878.996   -4129.0691    -11487.25    2773.1105   -538.79215   -5345.5774    82.291023 
   36500    342.15953   -100.99397   0.30959313   -100.68438     1029.917    4.3385219    4.3385219    4.3385219     1029.917    1356.8191   -1653.0547    3385.9868   -4178.1817   -2946.8898    9805.5062    81.663008 
   36600    438.72651   -101.08096   0.39696897   -100.68399   -1173.1946     4.341303     4.341303     4.341303   -1173.1946    7008.9621   -1011.4881   -9517.0578   -633.11781    2967.1872    4079.8485    81.820153 
   36700    406.55595   -101.05155   0.36786037   -100.68369   -7244.2358    4.3476359    4.3476359    4.3476359   -7244.2358   -9291.1664     769.2396   -13210.781    1394.6251   -1282.8956    1580.1505    82.178745 
   36800    391.11254   -101.03899   0.35388685   -100.68511    2232.8443    4.3351185    4.3351185    4.3351185    2232.8443    11073.727   -5196.1908    820.99672   -2043.7115     1519.044    14047.184    81.470975 
   36900    463.24945   -101.10238   0.41915784   -100.68322   -3429.1189    4.3478571    4.3478571    4.3478571   -3429.1189   -5349.8404    1590.2829   -6527.7992    3227.5219    1216.3984    -3625.777    82.191286 
   37000    303.82709   -100.96118   0.27490914   -100.68627    802.39278    4.3392412    4.3392412    4.3392412    802.39278    10757.628   -10508.007     2157.558   -1824.1871   -3303.0271    15391.173    81.703636 
   37100    484.58703   -101.12205   0.43846453   -100.68359    6129.6892    4.3404601    4.3404601    4.3404601    6129.6892     10021.99    4573.6052    3793.4726    456.28603    2727.1952   -2943.5749    81.772508 
   37200    326.88758   -100.98188   0.29577475   -100.68611   -4412.9686    4.3476285    4.3476285    4.3476285   -4412.9686   -1536.3418   -8126.7572   -3575.8067   -1455.4367    -3069.904     10782.77    82.178325 
   37300    416.77622   -101.06077   0.37710788   -100.68366     9331.452    4.3343258    4.3343258    4.3343258     9331.452    17372.297    4396.8728     6225.186   -647.71655    2289.7533    5414.7105    81.426293 
   37400    430.43404   -101.07397   0.38946576    -100.6845   -4948.4968    4.3489331    4.3489331    4.3489331   -4948.4968   -5875.6783   -3091.8239   -5877.9882    627.76483   -402.41515    3165.0311    82.252327 
   37500    361.16338   -101.01164   0.32678822   -100.68485    1805.1341    4.3387738    4.3387738    4.3387738    1805.1341    4563.5374    -9123.321    9975.1859   -490.29705   -677.78296    14933.442    81.677235 
   37600     468.8941   -101.10662   0.42426524   -100.68236    1714.5733    4.3408742    4.3408742    4.3408742    1714.5733     3510.261    5061.6741   -3428.2151    2552.7668    807.52369   -5851.7554     81.79591 
   37700     353.0648   -101.00499   0.31946045   -100.68553   -9488.8831    4.3477753    4.3477753    4.3477753   -9488.8831   -3150.9918   -18219.903   -7095.7542   -279.93981   -5550.0259    17655.114    82.186649 
   37800     497.3004   -101.13259   0.44996785   -100.68262    10474.926    4.3325655    4.3325655    4.3325655    10474.926    10580.248    8453.4718    12391.057    420.70681    3733.9535   -6542.9983    81.327125 
   37900    314.99811   -100.97157   0.28501691   -100.68656   -11753.027     4.352767     4.352767     4.352767   -11753.027   -5713.0732   -14573.709     -14972.3    915.62421   -5053.7697    12215.594    82.470048 
   38000    396.26584    -101.0435   0.35854966   -100.68496    14880.004    4.3321361    4.3321361    4.3321361    14880.004    13782.575    5220.6415    25636.797   -3291.9924    5574.3182    4344.9801    81.302943 
   38100    431.31096   -101.07598   0.39025922   -100.68573   -862.16114    4.3461676    4.3461676    4.3461676   -862.16114     -2664.19   -3997.1683    4074.8748    2131.2987   -447.18114    1472.5736    82.095512 
   38200    283.46795   -100.94176   0.25648776   -100.68527    4022.2876    4.3440522    4.3440522    4.3440522    4022.2876    3983.8612   -6122.3522    14205.354   -3083.9166   -193.58283    13581.265    81.975696 
   38300    537.13314    -101.1675   0.48600935   -100.68149    7235.5774    4.3341051    4.3341051    4.3341051    7235.5774    6710.0562    8120.6416    6876.0344    897.25747    3763.4787   -9393.8135    81.413855 
   38400    318.44495   -100.97422   0.28813569   -100.68609   -7051.5461    4.3521649    4.3521649    4.3521649   -7051.5461   -5623.8429    -16976.83    1446.0347    110.68201   -4608.4849    16292.192    82.435831 
   38500    505.15387   -101.14021   0.45707383   -100.68313    9305.8469    4.3320852    4.3320852    4.3320852    9305.8469    4253.6786     9894.855    13769.007    77.754731    4493.2892   -8033.4644    81.300079 
   38600    343.00541   -100.99762    0.3103585   -100.68726    -5541.397    4.3480707    4.3480707    4.3480707    -5541.397   -2077.4855   -13801.023   -745.68234    1423.0182    -1122.505    12850.652    82.203402 
   38700    461.09118   -101.10176   0.41720499   -100.68455    4840.5874    4.3408512    4.3408512    4.3408512    4840.5874   -482.06548    1872.5185    13131.309   -1213.3173    273.07279    2139.5948    81.794612 
   38800    416.38677   -101.05922    0.3767555   -100.68247     3826.561     4.336936     4.336936     4.336936     3826.561    1118.2201    3380.5561    6980.9069    829.50695    2710.9558    1781.7613    81.573491 
   38900    301.90654   -100.95738   0.27317138   -100.68421    710.25352    4.3496279    4.3496279    4.3496279    710.25352    257.11901   -6809.8059    8683.4474   -2926.9367   -4245.3656    12326.552    82.291754 
   39000    510.84876    -101.1436   0.46222669   -100.68138    11912.195    4.3324129    4.3324129    4.3324129    11912.195     4671.734    14548.858    16515.994    168.62803    1710.7669   -8401.7347     81.31853 
   39100    243.40716   -100.90764   0.22023991    -100.6874   -1830.1894    4.3489655    4.3489655    4.3489655   -1830.1894   -1673.2051   -13907.559    10090.195   -1458.1491   -5734.0637    17249.622    82.254162 
   39200     511.6441   -101.14721   0.46294634   -100.68426     5822.364    4.3371807    4.3371807    4.3371807     5822.364    4386.9587    11302.775    1777.3587   -494.07606    2147.0031   -5912.9384    81.587299 
   39300    357.25047   -101.01071   0.32324774   -100.68747   -1649.9526    4.3424731    4.3424731    4.3424731   -1649.9526     143.5594   -11552.686    6459.2684     1664.143   -1259.3035    12767.779    81.886333 
   39400    467.21155   -101.10682   0.42274283   -100.68407   -1890.9687    4.3441607    4.3441607    4.3441607   -1890.9687   -3053.0103   -620.86258   -1999.0332    479.68652    1108.5542    4149.9975    81.981836 
   39500    367.34271   -101.01579   0.33237941   -100.68341    2530.9412    4.3373905    4.3373905    4.3373905    2530.9412    698.30635    4475.6747    2418.8424    886.81935    3043.9732    -420.6403    81.599139 
   39600    404.04856   -101.05064   0.36559163   -100.68505   -2039.9758    4.3445846    4.3445846    4.3445846   -2039.9758   -1191.3974   -7388.4345    2459.9043    1776.5221   -3645.2414     14402.86    82.005836 
   39700    454.54682   -101.09444   0.41128351   -100.68316    4246.5094    4.3400075    4.3400075    4.3400075    4246.5094    -5159.226    12076.312     5822.442   -1770.2937    5660.1344   -9262.8523    81.746926 
   39800    294.25316   -100.95266   0.26624644   -100.68641   -266.24793    4.3417993    4.3417993    4.3417993   -266.24793     1842.973   -7691.3652    5049.6484    115.10331   -3434.3093    19538.849     81.84822 
   39900    532.35976   -101.16533    0.4816903   -100.68364    4171.4318    4.3418296    4.3418296    4.3418296    4171.4318   -252.85088     6782.275    5984.8714   -964.16255    6952.3427    -6209.935    81.849932 
   40000    302.48571   -100.95951   0.27369542   -100.68581    1392.5815    4.3419753    4.3419753    4.3419753    1392.5815    640.14076   -8854.0182    12391.622   -1176.9375    714.29859    11394.343    81.858174 
   40100    418.33499   -101.06284   0.37851829   -100.68432    2907.4108    4.3401147    4.3401147    4.3401147    2907.4108    3694.9119    1537.2055    3490.1151    1280.8498    3421.7431    4377.8954    81.752983 
   40200    394.30114   -101.04115   0.35677196   -100.68438    1485.1089    4.3443609    4.3443609    4.3443609    1485.1089    -5.178077    22.545354    4437.9594    443.35633    4537.8956   -2655.5058    81.993173 
   40300    393.70983   -101.04183   0.35623693   -100.68559    1089.5972    4.3367964    4.3367964    4.3367964    1089.5972    4966.2832   -1084.0797   -613.41188    735.55665   -2512.0519    17552.034     81.56561 
   40400    382.31233   -101.02991   0.34592423   -100.68399    122.94434    4.3466694    4.3466694    4.3466694    122.94434   -6780.1505    6629.9894     518.9942    587.91324    5064.8215   -9261.9711    82.123949 
   40500    398.21212   -101.04621    0.3603107    -100.6859   -2387.6705    4.3386713    4.3386713    4.3386713   -2387.6705    4607.3437   -8140.2481   -3630.1072   -60.578776   -4592.0317    21801.352    81.671444 
   40600    468.50035   -101.10798   0.42390896   -100.68407    4490.2147    4.3406125    4.3406125    4.3406125    4490.2147   -2661.3863    5894.2034    10237.827   -1858.6419    4227.3081   -6640.3024    81.781118 
   40700    346.33606   -100.99902   0.31337215   -100.68564   -9160.4925     4.347259     4.347259     4.347259   -9160.4925   -7431.8102    -14327.74   -5721.9271    537.02577   -273.04414     11570.49     82.15737 
   40800    455.76122   -101.09708   0.41238233    -100.6847    9825.7422    4.3319667    4.3319667    4.3319667    9825.7422    9351.3123    7076.3086    13049.606   -1326.2232   -485.84057    6376.4233    81.293405 
   40900    430.10051   -101.07311   0.38916398   -100.68395   -8647.4648    4.3532647    4.3532647    4.3532647   -8647.4648   -14523.276   -9198.0811   -2221.0374    1311.9467    3825.5864   -1931.8981    82.498345 
   41000     291.7968   -100.94875   0.26402388   -100.68472     10260.09    4.3299007    4.3299007    4.3299007     10260.09    12787.951    7263.9701    10728.349    2223.1651   -4550.6727    20181.072    81.177149 
   41100    452.55413   -101.09263   0.40948049   -100.68315   -3555.0435    4.3500758    4.3500758    4.3500758   -3555.0435    -10427.17   -1376.5076    1138.5468    1447.8045    4469.4372   -9354.5033     82.31718 
   41200    351.99612   -101.00346   0.31849348   -100.68497    181.96038    4.3382852    4.3382852    4.3382852    181.96038    10253.957   -9474.6366   -233.43897    2541.2808   -1165.6215    20341.104    81.649646 
   41300    416.48085   -101.05996   0.37684062   -100.68312    3176.2639    4.3385441    4.3385441    4.3385441    3176.2639   -1944.9998    4046.0756    7427.7158    1120.4689    1885.6565   -5342.7999    81.664264 
   41400    379.60926   -101.02779   0.34347843   -100.68431   -12200.875    4.3503929    4.3503929    4.3503929   -12200.875   -2683.3308   -21856.973   -12062.321   -828.02565    4542.3677    10049.408    82.335179 
   41500      438.586   -101.08031   0.39684183   -100.68347    13211.776    4.3278811    4.3278811    4.3278811    13211.776    14163.623    6116.0062      19355.7    702.03645    295.41753    8913.7956    81.063614 
   41600      408.505   -101.05421   0.36962391   -100.68459   -15868.144    4.3559205    4.3559205    4.3559205   -15868.144   -18526.751   -17341.589   -11736.091   -1584.2791    5279.5805   -311.38873    82.649426 
   41700    307.56022   -100.96503   0.27828695   -100.68674    12927.204    4.3274079    4.3274079    4.3274079    12927.204    18420.103    5329.8968    15031.611   -253.21153   -2057.4879    20546.472    81.037027 
   41800    569.09774   -101.19988   0.51493159   -100.68495   -8198.5961    4.3499925    4.3499925    4.3499925   -8198.5961   -16719.557   -6502.0345   -1374.1965     891.1342    4406.6319   -7797.2685    82.312451 
   41900    243.74819   -100.90742   0.22054849   -100.68688   -412.63674    4.3388861    4.3388861    4.3388861   -412.63674    7372.4393   -10633.865    2023.5156   -648.76778   -1133.3532    22002.833    81.683579 
   42000    501.10614   -101.13534   0.45341136   -100.68193    5467.2749    4.3350539    4.3350539    4.3350539    5467.2749   -1368.4039    6006.8703    11763.358    2227.4393    4503.9393   -4063.0802    81.467335 
   42100    366.15134   -101.01505   0.33130143   -100.68375       -15692    4.3533144    4.3533144    4.3533144       -15692   -6723.7795   -27408.701    -12943.52   -1226.7343    376.96882    15203.068    82.501167 
   42200    430.52838   -101.07059   0.38955113   -100.68104    15460.631    4.3239083    4.3239083    4.3239083    15460.631    19586.912    11104.249    15690.732    1289.9929    821.50061     8184.049    80.840583 
   42300    357.15367   -101.00607   0.32316015   -100.68291   -19750.186    4.3581562    4.3581562    4.3581562   -19750.186   -19914.644   -21151.678   -18184.236   -2533.9277    4085.0695    3082.5351    82.776753 
   42400    358.75322    -101.0091   0.32460745   -100.68449    14626.582     4.326417     4.326417     4.326417    14626.582    26442.786     6214.929    11222.031   -878.14135    -3934.628    18561.571     80.98137 
   42500    515.04778   -101.14808   0.46602606   -100.68205   -8024.5225    4.3492675    4.3492675    4.3492675   -8024.5225    -15318.89    -5448.243   -3306.4345    -1288.109    6790.5802   -6563.6598    82.271298 
   42600    165.94445    -100.8368   0.15015003   -100.68665    2447.4243    4.3381184    4.3381184    4.3381184    2447.4243    12047.095   -5888.9703    1184.1483   -1360.7656   -3001.0845    21816.305    81.640227 
   42700    652.96147   -101.27191   0.59081326    -100.6811    4509.0092    4.3370962    4.3370962    4.3370962    4509.0092    -1428.884    3671.5514     11284.36    1737.0851    4566.3983   -5947.4104     81.58253 
   42800    259.68666   -100.92206   0.23496994   -100.68709   -8578.0298     4.348032     4.348032     4.348032   -8578.0298   -3859.7562   -18554.016   -3320.3176    107.36262     3279.209    16900.315    82.201206 
   42900    490.92459   -101.12771   0.44419888   -100.68351    9031.1906    4.3311284    4.3311284    4.3311284    9031.1906    9220.9105    6827.7684    11044.893    1544.4963   -212.26352    2516.5605    81.246222 
   43000    398.45884   -101.04596   0.36053394   -100.68543   -11189.678    4.3504936    4.3504936    4.3504936   -11189.678   -15171.659    -14501.11   -3896.2638    71.519178    5595.6077     5077.959      82.3409 
   43100    363.83048    -101.0161   0.32920147    -100.6869    6941.1242    4.3317863    4.3317863    4.3317863    6941.1242    17797.475    2699.6305    326.26691   -610.27084   -1407.0298    12874.305    81.283253 
   43200     474.2054   -101.11159   0.42907101   -100.68252   -6306.0519    4.3477225    4.3477225    4.3477225   -6306.0519   -14046.994   -2248.9627   -2622.1994   -2072.0145    3538.8023   -3287.1683    82.183653 
   43300    207.25386   -100.87592   0.18752765   -100.68839     1016.467    4.3362735    4.3362735    4.3362735     1016.467    12285.563   -4577.9177   -4658.2445   -2060.6648    2328.2348    20352.017    81.536111 
   43400    621.43326   -101.24439   0.56228587    -100.6821    2388.8141    4.3419462    4.3419462    4.3419462    2388.8141    1321.4278   -696.24812    6541.2625   -1820.1506    1513.5716   -4390.2998    81.856527 
   43500    201.84497   -100.87123   0.18263357    -100.6886   -4543.3634    4.3424174    4.3424174    4.3424174   -4543.3634    2739.5613   -11931.785   -4437.8663   -1358.7194    2973.3419    17700.601    81.883178 
   43600    476.60198   -101.11613   0.43123949   -100.68489     5922.031    4.3376076    4.3376076    4.3376076     5922.031    7969.7968    1128.5716    8667.7246    415.97916    909.65032    1221.0243     81.61139 
   43700    450.63085   -101.09391   0.40774026   -100.68617   -3709.4336    4.3442955    4.3442955    4.3442955   -3709.4336   -1503.0435   -9635.2005    9.9432816    147.89793     187.6562     8438.911    81.989468 
   43800     277.4237   -100.93889    0.2510188   -100.68788    3661.8024    4.3377074    4.3377074    4.3377074    3661.8024    9617.2122    1538.7186   -170.52357     -294.939    533.43313    13712.244    81.617026 
   43900    526.99514   -101.16041   0.47683628   -100.68357     377.7955    4.3426977    4.3426977    4.3426977     377.7955   -5926.7428    2045.3539    5014.7754    1875.9216   -1273.5466   -1714.7075    81.899035 
   44000    271.02182   -100.93449   0.24522624   -100.68926   -2170.8035    4.3395554    4.3395554    4.3395554   -2170.8035    5701.6347   -6533.4048   -5680.6406     -2859.79    772.93823    24008.232    81.721385 
   44100    578.31329   -101.20624   0.52327001   -100.68297    1041.0373    4.3415142    4.3415142    4.3415142    1041.0373   -1579.6087    3109.9482    1592.7722    1758.3448   -1287.5368   -7118.6309    81.832098 
   44200    254.71979   -100.91893   0.23047582   -100.68845   -6523.4383    4.3404569    4.3404569    4.3404569   -6523.4383    1327.3714   -10558.781   -10338.905   -1246.7575    835.64976    21905.575    81.772324 
   44300    522.86696   -101.15852   0.47310102   -100.68542    1112.2717    4.3407526    4.3407526    4.3407526    1112.2717    1651.6208    1196.9561     488.2382    797.69158   -1622.5532   -374.30868    81.789039 
   44400    373.92389   -101.02477   0.33833419   -100.68644   -2068.2306    4.3416265    4.3416265    4.3416265   -2068.2306     5792.313   -5665.7271   -6331.2778    2881.5689   -971.97614    10749.333    81.838445 
   44500    267.27938    -100.9302      0.24184   -100.68836     2337.428    4.3395688    4.3395688    4.3395688     2337.428    4549.1559    1087.8791    1375.2491    779.61646   -879.28179    15081.573    81.722139 
   44600    543.56747   -101.17577   0.49183127   -100.68394    1733.9431    4.3424942    4.3424942    4.3424942    1733.9431    430.35005    2118.9129    2652.5662    4015.7972     -3556.71   -2953.5326    81.887523 
   44700    199.50752   -100.86988    0.1805186   -100.68936    1260.6271     4.338751     4.338751     4.338751    1260.6271    15764.794   -7065.2065   -4917.7059    563.81436    1824.6723    24356.815    81.675948 
   44800     605.7791    -101.2302   0.54812166   -100.68208   -1317.5829     4.343032     4.343032     4.343032   -1317.5829   -5478.6836    1451.0814    74.853446    1050.7847   -3629.0648   -9134.6761    81.917953 
   44900    219.80111   -100.88775   0.19888066   -100.68887   -1130.3654     4.339275     4.339275     4.339275   -1130.3654    13709.295   -11577.334   -5523.0567   -1069.5932    2825.0626    23364.375    81.705542 
   45000    587.81369   -101.21624   0.53186618   -100.68438   -3756.4896    4.3423025    4.3423025    4.3423025   -3756.4896   -3812.4756   -2295.6913    -5161.302   -1080.9147   -785.25368    -1832.017    81.876683 
   45100    305.48907   -100.96414   0.27641293   -100.68772   -1568.1238    4.3403841    4.3403841    4.3403841   -1568.1238    5605.3154   -3886.0262   -6423.6606   -1081.3436     545.1008    14490.354    81.768213 
   45200    378.92505   -101.03197   0.34285935   -100.68911   -3482.9819     4.341167     4.341167     4.341167   -3482.9819   -2403.2401   -4063.0911   -3982.6146   -604.41411    1138.8913    12019.427    81.812468 
   45300    528.29432   -101.16336   0.47801181   -100.68534    25.587951    4.3412775    4.3412775    4.3412775    25.587951   -1452.0484     4678.669   -3149.8568    36.290943   -139.00416    715.59103    81.818715 
   45400     199.1938    -100.8711   0.18023473   -100.69086   -942.02693    4.3390023    4.3390023    4.3390023   -942.02693    12395.914   -9314.1813   -5907.8139    1242.3016    2645.2855    22221.996    81.690143 
   45500     588.7835   -101.21564   0.53274368   -100.68289    -1510.662    4.3448912    4.3448912    4.3448912    -1510.662   -10863.987    577.13292    5754.8678   -1693.3148    771.96769   -6629.3135    82.023203 
   45600    252.19357   -100.91691   0.22819004   -100.68872    1296.9333    4.3358063    4.3358063    4.3358063    1296.9333    18714.011   -10607.279   -4215.9325    1831.0489    1450.8006     25436.16    81.509762 
   45700    495.27958   -101.13227   0.44813937   -100.68414   -4003.1315    4.3464347    4.3464347    4.3464347   -4003.1315   -5721.2137   -3922.4571   -2365.7238   -4880.2592    3713.1674   -2627.4706    82.110649 
   45800     343.2458   -100.99663   0.31057601   -100.68606    2575.4301    4.3362745    4.3362745    4.3362745    2575.4301    10166.389    1098.2963   -3538.3948   -190.41419   -1850.3512    16979.499     81.53617 
   45900    371.68608   -101.02297   0.33630938   -100.68666   -4854.3203    4.3446453    4.3446453    4.3446453   -4854.3203     444.1791   -5812.2803   -9194.8596   -2834.2635    3407.4063    9039.5322    82.009276 
   46000    456.92083     -101.097   0.41343157   -100.68357    1110.4708    4.3394464    4.3394464    4.3394464    1110.4708    2062.5636    7440.4833   -6171.6345   -2744.8645   -957.71298    2216.3388    81.715224 
   46100    296.31053   -100.95684   0.26810799   -100.68873   -7415.8291    4.3408968    4.3408968    4.3408968   -7415.8291    3177.2531   -12237.025   -13187.715    1799.0032   -41.607487    20607.665    81.797191 
   46200    541.25488   -101.17338   0.48973879   -100.68364   -451.97235    4.3424621    4.3424621    4.3424621   -451.97235   -7973.5021    2478.4637    4139.1214   -2960.5444    3443.4441   -6970.7649    81.885706 
   46300    316.03262   -100.97428   0.28595296   -100.68833    -6808.728    4.3392218    4.3392218    4.3392218    -6808.728     8531.729   -13414.463    -15543.45    1740.1422   -3152.1122    23344.542    81.702536 
   46400    469.52115   -101.10995    0.4248326   -100.68512    972.71576    4.3424437    4.3424437    4.3424437    972.71576   -8582.4612    1748.8911    9751.7174   -2603.9911    5646.5915   -3444.6769    81.884665 
   46500    369.85481   -101.02074   0.33465241   -100.68609   -2189.9296    4.3400163    4.3400163    4.3400163   -2189.9296    5044.2194   -2767.7828   -8846.2254   -810.56486    -3689.265    13258.774    81.747423 
   46600    329.73238   -100.98435   0.29834878     -100.686    1981.7523    4.3418515    4.3418515    4.3418515    1981.7523    1065.2077   -791.90579    5671.9549   -3410.9423    3511.7184    8206.5568    81.851171 
   46700     460.4387    -101.1002   0.41661462   -100.68358    136.11653    4.3396761    4.3396761    4.3396761    136.11653    3344.2301    2233.6169   -5169.4975   -1230.2095    -148.1169    1138.9922    81.728205 
   46800    287.89402   -100.94802   0.26049256   -100.68753   -4360.5944    4.3433439    4.3433439    4.3433439   -4360.5944    2019.6124   -13287.175   -1814.2208   -2087.2353    262.24545    19761.698    81.935602 
   46900    555.82515   -101.18573   0.50292228   -100.68281    2751.2981    4.3369661    4.3369661    4.3369661    2751.2981    4180.4413    2643.1879    1430.2651   -368.65627    2443.8656   -5266.9067    81.575188 
   47000    268.29269   -100.93048   0.24275687   -100.68773   -11876.149    4.3472734    4.3472734    4.3472734   -11876.149    2215.2026   -20780.743   -17062.908    822.17205   -490.61409    22931.703    82.158188 
   47100    534.75145   -101.16712   0.48385435   -100.68327    8924.9524    4.3336521    4.3336521    4.3336521    8924.9524    318.19083    12320.612    14136.054    -723.4719     1501.975   -3938.0075    81.388327 
   47200    316.68325   -100.97263   0.28654166   -100.68609   -10646.381    4.3478819    4.3478819    4.3478819   -10646.381    52.849281   -13960.648   -18031.343   -920.87491   -532.39474    16663.119    82.192694 
   47300    370.94095   -101.02059   0.33563517   -100.68496    8108.7852    4.3363381    4.3363381    4.3363381    8108.7852    3204.7313    8445.8758    12675.749   -922.62134   -1394.3939     5267.952    81.539758 
   47400    496.38568    -101.1326   0.44914019   -100.68346   -3314.5882    4.3424892    4.3424892    4.3424892   -3314.5882   -2962.8562   -6031.4442   -949.46408   -3637.5038   -400.88611    6072.2766    81.887244 
   47500    246.03404   -100.90967   0.22261677   -100.68705   -823.99468    4.3437659    4.3437659    4.3437659   -823.99468    2789.3279   -10047.865     4786.553     1104.742   -1551.0231    17040.425    81.959486 
   47600    577.37131   -101.20496   0.52241769   -100.68254    6116.9967    4.3337724    4.3337724    4.3337724    6116.9967    4172.7403    3565.1215    10613.128   -1485.6679   -1363.9994   -4928.2248    81.395109 
   47700    229.26955   -100.89536    0.2074479   -100.68791   -8687.1987    4.3504795    4.3504795    4.3504795   -8687.1987   -2421.2114   -21843.915     -1796.47    1610.5136   -524.58704    20050.007    82.340099 
   47800    532.78931   -101.16485   0.48207896   -100.68277    8932.1553    4.3318913    4.3318913    4.3318913    8932.1553    1813.7736    12833.121    12149.571     1843.946   -4323.9613   -6682.8003    81.289165 
   47900     290.0746   -100.94825    0.2624656   -100.68579   -6205.8342    4.3466825    4.3466825    4.3466825   -6205.8342    1412.6461   -14528.345   -5501.8036    43.747712    1300.5381    14367.786    82.124693 
   48000    436.22359   -101.07918   0.39470428   -100.68447   -556.75066    4.3398209    4.3398209    4.3398209   -556.75066   -6867.1874    3032.6592    2164.2762    2056.3428   -7328.3726    2890.6283    81.736381 
   48100    450.22207    -101.0906   0.40737039   -100.68323     4728.672    4.3367419    4.3367419    4.3367419     4728.672    3460.8502    753.22569    9971.9402   -2256.0694    1590.9584    4701.5483    81.562535 
   48200    312.27267   -100.96917   0.28255087   -100.68662   -11584.841    4.3494574    4.3494574    4.3494574   -11584.841   -6284.0132   -19173.391   -9297.1195    1524.1319    -4971.019     13552.44    82.282077 
   48300    522.17273   -101.15473   0.47247286   -100.68226    15326.768    4.3292909    4.3292909    4.3292909    15326.768    7001.6894    15186.938    23791.677   -1433.3256   -987.79901    -4506.304    81.142857 
   48400    305.13385   -100.96264   0.27609152   -100.68655   -13152.134    4.3521854    4.3521854    4.3521854   -13152.134   -6113.4179   -23146.157   -10196.828    1603.6857    727.29111    16974.104       82.437 
   48500    432.92765   -101.07469   0.39172204   -100.68297    11828.283    4.3326126    4.3326126    4.3326126    11828.283    3247.3686    18061.431    14176.048     1937.787   -6693.4121   -3314.6631    81.329774 
   48600    376.36337   -101.02481   0.34054148   -100.68427   -3821.7577    4.3444425    4.3444425    4.3444425   -3821.7577    1691.7529   -11881.598   -1275.4284    718.62163    2975.4729    13807.229     81.99779 
   48700    351.41907   -101.00245   0.31797136   -100.68448   -1662.6956    4.3423828    4.3423828    4.3423828   -1662.6956   -7533.7989    2439.2047    106.50738    2350.3418   -8912.5132     6538.919    81.881223 
   48800    451.75209   -101.09126   0.40875479    -100.6825    5739.2447     4.334448     4.334448     4.334448    5739.2447    7057.5038    117.76927    10042.461    1125.6952    610.09429    4304.9837    81.433179 
   48900    320.77671   -100.97604   0.29024551    -100.6858   -13808.359    4.3503939    4.3503939    4.3503939   -13808.359   -7340.4878   -20765.913   -13318.675   -1606.0262   -5725.2436    14493.643    82.335236 
   49000    532.94346   -101.16387   0.48221844   -100.68165    8486.4146    4.3313929    4.3313929    4.3313929    8486.4146    1645.7568     10391.68    13421.807    1748.2131   -3627.2927   -3632.9563     81.26111 
   49100    344.48693   -100.99712   0.31169902   -100.68542   -12881.352    4.3479484    4.3479484    4.3479484   -12881.352   -370.01285   -21421.478   -16852.564   -2131.6385   -890.23572    17535.042    82.196463 
   49200    423.87231   -101.06837   0.38352857   -100.68484    5977.1427    4.3368489    4.3368489    4.3368489    5977.1427   -1038.3105    12354.431    6615.3073    1018.1854   -8908.1777   -2993.1836    81.568576 
   49300    433.95155   -101.07676   0.39264848   -100.68411   -2381.9406     4.342533     4.342533     4.342533   -2381.9406    1351.0585   -6345.3123   -2151.5682    577.84116    1473.2486    13988.921    81.889721 
   49400    282.15001   -100.94145   0.25529526   -100.68616    1001.8248    4.3411463    4.3411463    4.3411463    1001.8248   -443.42583    5074.4284    -1625.528    1156.5416   -11668.174    5281.6635    81.811296 
   49500     495.5055   -101.13128   0.44834379   -100.68293    2970.7546    4.3386116    4.3386116    4.3386116    2970.7546     5646.276    -2051.766    5317.7537    1318.4088   -346.36672    2153.6755    81.668073 
   49600     321.1482   -100.97664   0.29058164   -100.68606   -6159.9821    4.3439845    4.3439845    4.3439845   -6159.9821    1375.3049   -10315.675   -9539.5763    345.56068   -6572.2533    13384.866    81.971865 
   49700    467.74307   -101.10597   0.42322376   -100.68274    2383.4411    4.3381279    4.3381279    4.3381279    2383.4411    763.51346    3480.8404    2905.9696    1037.1339   -6384.8613   -6846.5816    81.640763 
   49800    377.89375   -101.02679   0.34192621   -100.68486   -8339.0375    4.3433698    4.3433698    4.3433698   -8339.0375    4863.0021   -18768.927   -11111.188   -2180.4159    2779.3373     16304.08    81.937066 
   49900    424.73134   -101.06933   0.38430584   -100.68502    274.65653    4.3386719    4.3386719    4.3386719    274.65653   -3624.5085    5883.1741    -1434.696     1527.486   -13397.714   -3814.1726    81.671481 
   50000    408.27426   -101.05331   0.36941513   -100.68389   -5466.9603    4.3436977    4.3436977    4.3436977   -5466.9603    340.11431   -10082.211   -6658.7843   -1740.3768    5215.0485    10628.685    81.955627 
   50100    346.93335    -100.9992   0.31391258   -100.68528   -413.03241    4.3374097    4.3374097    4.3374097   -413.03241    5367.4238    1410.0456   -8016.5666    1383.1285    -12782.42    5123.3658    81.600222 
   50200    448.85309   -101.08887   0.40613171   -100.68274   -592.71469    4.3447617    4.3447617    4.3447617   -592.71469   -781.62028   -2142.5157    1145.9919    2281.9438    -1707.385     928.6014    82.015869 
   50300    341.48889    -100.9939   0.30898633   -100.68491   -154.24929     4.336844     4.336844     4.336844   -154.24929    9987.9216   -481.64885   -9969.0207    106.83969   -3141.8699    11623.866    81.568297 
   50400     389.7477   -101.03749   0.35265191   -100.68484    3011.9388    4.3430055    4.3430055    4.3430055    3011.9388     1564.021    2796.2023     4675.593    2215.2276   -9851.3708   -5295.3149    81.916454 
   50500    449.99014   -101.09246   0.40716054    -100.6853   -3259.7436    4.3410117    4.3410117    4.3410117   -3259.7436    6362.7334   -9195.6697   -6946.2945    274.34369    4370.6034    14409.605    81.803687 
   50600       354.26   -101.00655    0.3205419   -100.68601    3621.5029    4.3375155    4.3375155    4.3375155    3621.5029   -2769.8226    10717.804    2916.5272   -964.03653   -15452.948   -2868.9577    81.606196 
   50700    478.30934     -101.116   0.43278434   -100.68321   -8210.0719    4.3466258    4.3466258    4.3466258   -8210.0719   -2345.5696   -12158.037    -10126.61     2755.448    4644.0923    10059.765     82.12148 
   50800    336.33732   -100.98922   0.30432507   -100.68489    3263.5976    4.3333492    4.3333492    4.3333492    3263.5976    3569.0313    7873.2626    -1651.501   -614.64849   -14495.528     5091.521    81.371267 
   50900    472.83362   -101.11055    0.4278298   -100.68272   -6816.3073    4.3479358    4.3479358    4.3479358   -6816.3073   -6296.7114   -4452.3479   -9699.8627     4538.754   -246.41395    1231.8174     82.19575 
   51000    291.03436   -100.94856   0.26333401   -100.68523    2532.7101    4.3349103    4.3349103    4.3349103    2532.7101    11708.169    2641.6062   -6751.6447    2605.6153   -5823.9885    10872.234    81.459238 
   51100    421.43885   -101.06672   0.38132672    -100.6854   -2587.1827    4.3436429    4.3436429    4.3436429   -2587.1827   -3603.4495   -1011.4304   -3146.6682    2848.0084   -9307.7133   -3368.5753    81.952524 
   51200    417.92172   -101.06296   0.37814435   -100.68482   -1471.7972    4.3414088    4.3414088    4.3414088   -1471.7972    5825.5109   -2577.5169   -7663.3856    3760.4967    2620.7053    12165.086    81.826135 
   51300    342.39219   -100.99544   0.30980365   -100.68564    953.58473    4.3366553    4.3366553    4.3366553    953.58473   -3620.4019    7828.5964   -1347.4404   -939.36454   -18372.611     -271.141    81.557653 
   51400    527.59689    -101.1593   0.47738076   -100.68192   -5708.2856    4.3470627    4.3470627    4.3470627   -5708.2856    -2670.774   -12315.822   -2138.2606    3054.6763    5735.9949    7377.2908    82.146246 
   51500    309.16344   -100.96481   0.27973757   -100.68508     5179.962    4.3330226    4.3330226    4.3330226     5179.962    624.83317    15297.798   -382.74461   -2289.9361   -17348.209    3808.5614    81.352867 
   51600    502.41347     -101.137   0.45459426   -100.68241   -6103.3674     4.347919     4.347919     4.347919   -6103.3674   -8307.8642   -6490.9117   -3511.3264    3113.6484    54.854113    1349.3232    82.194798 
   51700    285.62624   -100.94414   0.25844063   -100.68569    5099.4663    4.3352709    4.3352709    4.3352709    5099.4663     9745.727     7982.486   -2429.8141   -76.955201   -6924.5757    6400.5074    81.479571 
   51800    450.10145   -101.09306   0.40726125    -100.6858   -4125.0695    4.3428007    4.3428007    4.3428007   -4125.0695   -9046.7586    5317.5855   -8646.0354    1678.5745   -13264.055   -1569.7685    81.904865 
   51900    393.24141   -101.04056    0.3558131   -100.68475   -1021.9877    4.3422039    4.3422039    4.3422039   -1021.9877    4931.8676     -979.479   -7018.3518    1786.9319    3308.1961    7873.2649    81.871101 
   52000    303.98883   -100.96204   0.27505549   -100.68699   -2267.6676     4.335448     4.335448     4.335448   -2267.6676   -7290.9236    10135.511   -9647.5902   -1336.3236   -21609.932   -1243.3533    81.489554 
   52100     535.3464   -101.16699   0.48439267    -100.6826   -5280.1915    4.3470519    4.3470519    4.3470519   -5280.1915   -4193.2378   -12573.827     926.4901    686.67307    5214.1378    4772.4485    82.145635 
   52200    296.55691   -100.95517   0.26833092   -100.68684   -1551.6697     4.334714     4.334714     4.334714   -1551.6697   -4009.0617    11900.238   -12546.185   -718.18093   -16729.641    2545.6194    81.448175 
   52300    483.42134   -101.12025   0.43740979   -100.68284   -3123.6966    4.3453216    4.3453216    4.3453216   -3123.6966   -3872.7338    -10323.79    4825.4337   -1256.2308   -2772.9585     -1775.13    82.047578 
   52400    377.56823   -101.02708   0.34163167   -100.68545   -3153.6477    4.3392499    4.3392499    4.3392499   -3153.6477    2246.2862   -1183.3081   -10523.921    1216.7545    -6049.631    6652.5848    81.704128 
   52500    390.06591   -101.03877   0.35293983   -100.68583    2633.3737    4.3394736    4.3394736    4.3394736    2633.3737   -5591.3698    11747.941    1743.5497    617.95865    -16331.21    -3378.114    81.716765 
   52600    454.50711   -101.09519   0.41124758   -100.68395    -2711.019     4.343829     4.343829     4.343829    -2711.019    4669.3456   -8068.6371   -4733.7655    597.56451    3400.6166    6134.9946    81.963057 
   52700    251.65759   -100.91585   0.22770507   -100.68815    1776.0106     4.336635     4.336635     4.336635    1776.0106   -9403.0646    17549.348    -2818.252    1932.1972   -23635.322    3398.0101    81.556507 
   52800     585.5745   -101.21222   0.52984011   -100.68238   -897.93772    4.3438744    4.3438744    4.3438744   -897.93772    1864.0845   -2164.4592   -2393.4385   -589.75722    6497.9485    804.45225     81.96563 
   52900     217.0244   -100.88516   0.19636824   -100.68879   -4006.2692     4.338493     4.338493     4.338493   -4006.2692   -6843.5035    11074.773   -16250.078    474.03819   -20016.629    8717.2605    81.661379 
   53000    525.70532   -101.15993   0.47566922   -100.68426   -323.85196    4.3415095    4.3415095    4.3415095   -323.85196     1501.163   -3648.7187    1175.9999   -2210.6619   -1306.9182    -2956.204    81.831828 
   53100    334.57908   -100.99033   0.30273418   -100.68759   -6505.2185    4.3423798    4.3423798    4.3423798   -6505.2185   -738.25807   -1989.0009   -16788.397    785.18788   -10238.394    7950.2633    81.881054 
   53200    397.64622   -101.04734   0.35979865   -100.68754    647.63205    4.3377419    4.3377419    4.3377419    647.63205     -3354.02    5530.5017    -233.5855   -2279.3652   -15765.637   -596.79524    81.618973 
   53300    464.39657   -101.10554   0.42019578   -100.68534   -2254.1461    4.3434072    4.3434072    4.3434072   -2254.1461    5418.7293   -13468.695    1287.5271    3527.7423    2056.7098    4501.9141    81.939186 
   53400    276.28546   -100.93944   0.24998889   -100.68945   -4002.9773    4.3399278    4.3399278    4.3399278   -4002.9773   -13455.906    8002.5878   -6555.6135   -1937.0019   -23438.145    4105.5073    81.742422 
   53500    603.40535   -101.22838   0.54597384   -100.68241    6232.9591    4.3394792    4.3394792    4.3394792    6232.9591    7529.4319    2872.6588    8296.7867     2649.141    8743.5245    384.86905    81.717079 
   53600    197.54488   -100.86803   0.17874276   -100.68929   -7755.8735    4.3434271    4.3434271    4.3434271   -7755.8735   -12371.317    3337.8763   -14234.179    394.86234   -22169.584    6130.3939    81.940311 
   53700    527.10357    -101.1613   0.47693438   -100.68436    9502.2253    4.3373031    4.3373031    4.3373031    9502.2253    4959.0921    14261.137    9286.4464   -1412.3337    1823.7978   -2495.7112    81.594205 
   53800    336.06426   -100.99207   0.30407801     -100.688   -4620.2665    4.3437981    4.3437981    4.3437981   -4620.2665   -4839.7072    5256.6103   -14277.703    3368.3243   -12547.067     3683.672     81.96131 
   53900    352.51646   -101.00732    0.3189643   -100.68836    2164.8151    4.3390216    4.3390216    4.3390216    2164.8151   -4949.9077    9588.4811     1855.872   -1362.4635   -12165.352   -265.74719    81.691231 
   54000    507.08236   -101.14374   0.45881878   -100.68492     1911.575    4.3394617    4.3394617    4.3394617     1911.575    4960.7527   -2630.0814    3404.0537    3984.2107    526.16173    1086.1776    81.716093 
   54100     252.4322   -100.91879   0.22840596   -100.69039   -10367.475    4.3456708    4.3456708    4.3456708   -10367.475   -18183.271    2788.2451   -15707.398    1566.9128   -20382.332    4201.6005     82.06736 
   54200    664.85599   -101.28363   0.60157567   -100.68205    8705.1796    4.3340986    4.3340986    4.3340986    8705.1796    9745.8333    1879.2725    14490.433    2888.1513    6850.0772    1510.0078    81.413486 
   54300    169.12526   -100.84285   0.15302809   -100.68982   -13015.031    4.3481647    4.3481647    4.3481647   -13015.031   -19459.019   -4072.6268   -15513.447    1809.0025   -21448.785    3179.2707    82.208733 
   54400    556.04568   -101.18789   0.50312182   -100.68477    11290.011    4.3348654    4.3348654    4.3348654    11290.011    6879.0607    11858.889    15132.083    1401.6825    1700.4725    3308.3385    81.456708 
   54500    339.04058    -100.9945   0.30677104   -100.68773   -1512.4989     4.343339     4.343339     4.343339   -1512.4989   -10509.958    7627.9533   -1655.4915   -849.58414   -14977.247   -2040.8461    81.935327 
   54600     295.4212   -100.95505   0.26730331   -100.68774    2201.4201    4.3427047    4.3427047    4.3427047    2201.4201   -2328.5694     3237.055    5695.7749    1891.7214   -8868.0081     6187.777    81.899433 
   54700    535.78314   -101.16808   0.48478784   -100.68329     9388.257    4.3343964    4.3343964    4.3343964     9388.257    2924.0379    18192.174    7048.5588   -2166.6849   -3045.2467   -2623.5409    81.430271 
   54800    251.00108    -100.9167   0.22711106   -100.68959   -9523.3704    4.3498576    4.3498576    4.3498576   -9523.3704   -17772.487    1201.4376   -11999.062    3809.6865   -17933.287    6508.4061    82.304792 
   54900    622.00167   -101.24455   0.56280019   -100.68175    11407.446    4.3318693    4.3318693    4.3318693    11407.446    11871.847    11592.953    10757.537   -2137.4196    6129.0882    353.00863    81.287922 
   55000    181.44536   -100.85289   0.16417557   -100.68871   -10974.737    4.3480109    4.3480109    4.3480109   -10974.737   -22256.394    460.94097   -11128.758     2787.497   -20908.259    939.77093     82.20001 
   55100    594.68736   -101.22168   0.53808562    -100.6836    4640.2202    4.3375385    4.3375385    4.3375385    4640.2202    8196.4631    3981.1896    1743.0079   -1621.4293    3005.1805    3655.1333     81.60749 
   55200    287.84999     -100.947   0.26045272   -100.68655    1453.5529    4.3392037    4.3392037    4.3392037    1453.5529   -8140.3576    9050.8279    3450.1885   -1032.6356   -14903.693   -4520.8194    81.701516 
   55300    342.83925   -100.99637   0.31020816   -100.68617   -7017.3428    4.3470244    4.3470244    4.3470244   -7017.3428    -2652.966   -7613.7068   -10785.356   -2217.7063   -7255.5374    5150.5591    82.144074 
   55400    493.66462   -101.12967   0.44667812   -100.68299    13879.426    4.3321551    4.3321551    4.3321551    13879.426    8019.5865    22576.147    11042.544   -2811.5972   -2889.3506   -3468.6186    81.304015 
   55500    294.69477    -100.9537   0.26664602   -100.68706   -14810.688    4.3509425    4.3509425    4.3509425   -14810.688   -15626.425   -9068.9965   -19736.644   -1058.6081   -15729.604    4909.8938    82.366391 
   55600    489.59212   -101.12472   0.44299324   -100.68173    13768.317     4.332357     4.332357     4.332357    13768.317    14937.145    13933.997    12433.809   -1538.7018    5907.5567    2274.2211     81.31538 
   55700    348.55486   -101.00152   0.31537976   -100.68614   -10580.899    4.3464493    4.3464493    4.3464493   -10580.899   -23396.563    6491.6265   -14837.762    1167.8237   -18821.778    817.55388    82.111475 
   55800     493.2378   -101.12956   0.44629193   -100.68327    5822.6662    4.3391207    4.3391207    4.3391207    5822.6662    9676.9237    4463.1025    3327.9724   -2278.9337    3088.3036    5854.7639    81.696825 
   55900    320.09131   -100.97508   0.28962534   -100.68546    451.28939    4.3385492    4.3385492    4.3385492    451.28939   -8372.2736    15165.981   -5439.8394    1251.1876   -13854.426   -1932.3404    81.664549 
   56000    365.88825   -101.01736   0.33106338   -100.68629   -4994.2101    4.3458435    4.3458435    4.3458435   -4994.2101   -1191.6346    -2539.435   -11251.561   -2542.6175   -6279.2912    6350.5666    82.077147 
   56100    496.82234   -101.13304   0.44953529    -100.6835    6510.0792    4.3356086    4.3356086    4.3356086    6510.0792    6786.3108    13575.781   -831.85458   -314.13208   -1996.4078     1554.521    81.498613 
   56200    233.37532   -100.89753   0.21116289   -100.68636   -10209.659     4.345718     4.345718     4.345718   -10209.659    -8949.763   -5869.0584   -15810.156    945.73863    -14742.41    2867.3825    82.070034 
   56300    552.71508   -101.18212   0.50010822   -100.68201    1173.4746    4.3390701    4.3390701    4.3390701    1173.4746    7269.2134   -3712.3633   -36.426285      1551.14    6447.7364    8469.1132    81.693972 
   56400     350.4509   -101.00277   0.31709534   -100.68567   -4396.1906    4.3408085    4.3408085    4.3408085   -4396.1906   -14336.628    10587.514   -9439.4575    1431.4719   -18535.419   -2966.5582    81.792197 
   56500    463.07635   -101.10253   0.41900121   -100.68353   -4816.7305     4.343079     4.343079     4.343079   -4816.7305    5571.3784   -15703.802   -4317.7681    5411.8775    3938.8715    10542.819     81.92061 
   56600    327.07696   -100.98146    0.2959461   -100.68551    5499.3957     4.337998     4.337998     4.337998    5499.3957   -5638.9708    22266.928   -129.76987   -3337.9315   -13242.317   -3919.5056    81.633428 
   56700    458.78519   -101.10051   0.41511848   -100.68539   -5197.7794    4.3433576    4.3433576    4.3433576   -5197.7794    708.84766   -2764.9109   -13537.275    6240.5494   -5808.1674    7485.9629    81.936378 
   56800    348.65527   -100.99945   0.31547062   -100.68398    7167.6509     4.340054     4.340054     4.340054    7167.6509    2920.9758    15831.343    2750.6335   -3989.5506   -1222.4276    2589.1333    81.749557 
   56900    356.03416   -101.00811   0.32214719   -100.68596   -4933.6947    4.3397278    4.3397278    4.3397278   -4933.6947   -6580.6674     3355.924   -11576.341    3242.3508   -14727.806    1985.7807    81.731126 
   57000    498.74012   -101.13477   0.45127055    -100.6835    414.14477    4.3441876    4.3441876    4.3441876    414.14477    2778.5413   -1063.6491   -472.45793    1390.3559    6321.1464    8931.2549    81.983363 
   57100    354.07234   -101.00622    0.3203721   -100.68584   -2889.3954    4.3367025    4.3367025    4.3367025   -2889.3954    -10317.57    9633.1093   -7983.7255   -1301.3343   -18197.565   -2404.6618    81.560312 
   57200    406.24552   -101.05209   0.36757949   -100.68451   -5729.4497    4.3452786    4.3452786    4.3452786   -5729.4497    5590.2925    -17533.06   -5245.5818    2896.2758    3467.8049    9628.1784    82.045146 
   57300    432.55434   -101.07611   0.39138426   -100.68473   -520.19476    4.3383298    4.3383298    4.3383298   -520.19476   -5086.7867     9993.073   -6466.8706    -4269.557   -12621.937   -2972.5114    81.652165 
   57400    342.88942   -100.99544   0.31025355   -100.68519   -2831.3327    4.3417363    4.3417363    4.3417363   -2831.3327     6675.055   -1552.0376   -13617.015   -598.02907    -4508.316     8026.964    81.844658 
   57500    422.93295   -101.06587   0.38267862   -100.68319   -2204.4738    4.3424852    4.3424852    4.3424852   -2204.4738   -1279.0547   -2853.7265   -2480.6403   -4575.0699   -1534.8135    1283.6953    81.887013 
   57600    319.51462   -100.97502   0.28910354   -100.68592    1785.0988    4.3383037    4.3383037    4.3383037    1785.0988   -1948.8209    18328.823   -11024.706    -562.0197   -11761.322    3771.0405    81.650688 
   57700    542.65425   -101.17326   0.49100497   -100.68225   -4211.9644    4.3440774    4.3440774    4.3440774   -4211.9644     1015.407    -9083.057   -4568.2433   -4123.3565    4866.9273    7153.4365    81.977123 
   57800    237.80632   -100.90172   0.21517215   -100.68655     2862.586    4.3381336    4.3381336    4.3381336     2862.586   -10665.657    21531.874   -2278.4592    952.99977   -14655.108   -2543.5563    81.641088 
   57900    551.13083    -101.1825   0.49867475   -100.68383   -3674.8481    4.3420061    4.3420061    4.3420061   -3674.8481    6922.4921   -10803.486   -7143.5508    -3462.665    1939.4869    8590.3575    81.859916 
   58000    324.54049   -100.98028   0.29365106   -100.68663    2246.7253    4.3412533    4.3412533    4.3412533    2246.7253   -6585.5673    16071.816   -2746.0725   -1446.3449   -9299.7404   -3430.4575    81.817343 
   58100    386.35504   -101.03547   0.34958216   -100.68589   -3681.6002    4.3405019    4.3405019    4.3405019   -3681.6002    6692.7535   -4416.5425   -13321.011    -2926.866    -4469.287    4268.6236    81.774869 
   58200    418.92064   -101.06301    0.3790482   -100.68396    1376.7849    4.3419677    4.3419677    4.3419677    1376.7849    2639.6133   -134.01492    1624.7562   -2438.7715   -516.73758    3072.0305     81.85774 
   58300    324.31414   -100.98011   0.29344625   -100.68666   -5746.1577    4.3409919    4.3409919    4.3409919   -5746.1577   -6025.5023    6926.8775   -18139.848   -3185.2289   -9972.7006   -1255.6904    81.802564 
   58400    486.49053   -101.12242   0.44018685   -100.68224    1581.7309    4.3401662    4.3401662    4.3401662    1581.7309    8858.9618   -6194.0507    2080.2817    1630.5509    4025.4079    7720.7538    81.755895 
   58500    313.37516   -100.97016   0.28354843   -100.68662   -10026.338    4.3438878    4.3438878    4.3438878   -10026.338   -17681.382    1251.6255   -13649.257   -3021.2755   -13527.217   -3937.3791    81.966387 
   58600    493.17539    -101.1302   0.44623546   -100.68397    4639.1604    4.3369882    4.3369882    4.3369882    4639.1604    14055.927    5809.5725   -5948.0188    2985.0423    1666.1673    5617.6599    81.576436 
   58700    393.11826   -101.04167   0.35570167   -100.68597   -7551.8507    4.3453549    4.3453549    4.3453549   -7551.8507   -13279.372   -1350.5299   -8025.6497   -730.64662   -9658.3396   -1856.6833    82.049463 
   58800    323.97796   -100.98037   0.29314206   -100.68722    4329.9945    4.3376432    4.3376432    4.3376432    4329.9945    8828.2911    12752.388   -8590.6953   -1462.9907   -3673.5387    2408.8946    81.613398 
   58900     527.5028   -101.16055   0.47729562   -100.68325   -793.74461    4.3430234    4.3430234    4.3430234   -793.74461   -132.22348   -1596.9343   -652.07603    3049.8148   -763.78454    3766.8116    81.917464 
   59000     213.7303   -100.88169   0.19338766    -100.6883   -583.80351    4.3403399    4.3403399    4.3403399   -583.80351   -6625.2365    14960.897   -10087.071   -4564.8674   -9475.3058    276.89499    81.765711 
   59100    558.42219   -101.18814   0.50527213   -100.68287    2961.4886    4.3394567    4.3394567    4.3394567    2961.4886    10126.874   -5888.1682    4645.7595    5424.7201     4587.486    7036.3886    81.715808 
   59200    282.29785   -100.94328   0.25542903   -100.68785   -7146.2507    4.3441971    4.3441971    4.3441971   -7146.2507   -14917.335    3659.0483   -10180.465   -2043.6994   -13747.973   -2462.8397      81.9839 
   59300    497.20646   -101.13457   0.44988285   -100.68468    1932.3996    4.3380064    4.3380064    4.3380064    1932.3996    13066.443    -406.2869   -6862.9573    3653.1572    3535.3815    5729.2336    81.633904 
   59400    399.17295   -101.04664   0.36118008   -100.68546   -6158.1042    4.3439294    4.3439294    4.3439294   -6158.1042   -7286.1582   -6439.8449   -4748.3096   -375.31396   -10081.589   -1878.5593    81.968743 
   59500    342.81176   -100.99767   0.31018328   -100.68749   -1296.3751    4.3398474    4.3398474    4.3398474   -1296.3751    8785.7768    2619.1896   -15294.092    418.43876   -1819.0778    1582.4629    81.737881 
   59600    489.84547   -101.12661   0.44322248   -100.68339    3553.9822    4.3399809    4.3399809    4.3399809    3553.9822     3583.646    5735.0581    1343.2425   -1217.5891   -952.05912    3528.5413    81.745424 
   59700    254.98151   -100.91916   0.23071262   -100.68845   -5626.3983     4.343449     4.343449     4.343449   -5626.3983   -7809.5524    4391.7753   -13461.418   -537.48452   -8648.2264   -1931.1599    81.941551 
   59800    522.58293   -101.15565   0.47284402   -100.68281    8459.1883    4.3378211    4.3378211    4.3378211    8459.1883    11153.386    11924.115    2300.0633   -1394.9718    3313.8573    4926.4774    81.623441 
   59900    296.79468   -100.95604   0.26854606   -100.68749   -7207.1211    4.3440736    4.3440736    4.3440736   -7207.1211   -15708.606    3906.3525   -9819.1101    792.28684   -12449.864    -2768.684    81.976905 
   60000    466.77757   -101.10706   0.42235015   -100.68471    4891.9703    4.3390842    4.3390842    4.3390842    4891.9703    10037.128    8077.7768   -3438.9935   -1524.0318    2673.9579    4.0736411    81.694768 
   60100    427.44928   -101.07195   0.38676509   -100.68519   -1683.6354    4.3415532    4.3415532    4.3415532   -1683.6354   -1007.5557    -4300.651    257.30055    927.31326   -8539.2239   -19.782341    81.834301 
   60200    318.66973   -100.97543   0.28833907   -100.68709   -2058.1713    4.3420988    4.3420988    4.3420988   -2058.1713    4073.6836     3204.728   -13452.925   -3225.2289   -1362.5921   -4037.1754    81.865158 
   60300    494.91738   -101.13064   0.44781165   -100.68283    6559.4823    4.3380229    4.3380229    4.3380229    6559.4823    9466.5676    1642.5639    8569.3155   -151.52884   -1030.2579    2676.7532    81.634837 
   60400    296.55946   -100.95565   0.26833323   -100.68732   -7583.9093    4.3450912    4.3450912    4.3450912   -7583.9093   -7661.9019   -1911.8899   -13177.936   -1921.0164   -8602.1694   -2591.2657    82.034526 
   60500    498.25057    -101.1333   0.45082758   -100.68248    8176.8599    4.3373921    4.3373921    4.3373921    8176.8599    14061.639    10327.503     141.4379   -1442.6131    4548.7762    517.60034    81.599229 
   60600    313.05462   -100.96972    0.2832584   -100.68646   -6785.1212     4.343928     4.343928     4.343928   -6785.1212   -13694.593    3711.9732   -10372.744    4869.9621   -13701.868    215.93125    81.968664 
   60700    478.46028   -101.11757   0.43292091   -100.68465    3616.3637    4.3401841    4.3401841    4.3401841    3616.3637    13798.632    5090.0105   -8039.5509   -3372.2881    5422.4757    -4119.933    81.756905 
   60800    381.76382   -101.03081   0.34542793   -100.68539    678.26579    4.3393957    4.3393957    4.3393957    678.26579   -1712.3077    5601.0983   -1853.9932    9445.1552   -8715.6908    1200.4648    81.712364 
   60900    334.48926   -100.99007   0.30265292   -100.68742   -2945.6687    4.3437968    4.3437968    4.3437968   -2945.6687    202.54464    1946.0388   -10985.589   -4875.9145   -1577.2202   -3973.4591     81.96124 
   61000    532.79985   -101.16544    0.4820885   -100.68335    6948.0299    4.3379661    4.3379661    4.3379661    6948.0299    7112.4188    6169.8321    7561.8389    7687.6376    1806.8392    847.94519    81.631629 
   61100    280.64862     -100.941   0.25393677   -100.68706   -5307.7481    4.3437714    4.3437714    4.3437714   -5307.7481   -6911.4156   -25.261086   -8986.5677   -30.771164    -11637.43   -1386.2439    81.959798 
   61200    484.75674   -101.12136   0.43861809   -100.68275     8152.067    4.3394923    4.3394923    4.3394923     8152.067    11749.959    9784.9614    2921.2804    4429.4475    6953.8567    -828.3416    81.717821 
   61300     343.9422   -100.99773   0.31120613   -100.68652   -191.93114    4.3411502    4.3411502    4.3411502   -191.93114    -1234.859    2673.1162   -2014.0507    7189.1786   -14041.791     374.1376    81.811515 
   61400     424.1633   -101.06828   0.38379187   -100.68448     3611.035    4.3427112    4.3427112    4.3427112     3611.035    17263.174    3383.5457   -9813.6145    1826.9313    5160.3919   -4309.8505    81.899803 
   61500    364.01184   -101.01421   0.32936557   -100.68484    5064.3756    4.3371764    4.3371764    4.3371764    5064.3756     3583.595    8696.7314    2912.8004    8300.9242   -8145.7369       598.92    81.587058 
   61600    384.08195   -101.03404   0.34752542   -100.68651   -5439.1051    4.3464393    4.3464393    4.3464393   -5439.1051   -328.58978   -2865.3067   -13123.419   -778.38992   -1455.1381   -4051.8392    82.110906 
   61700    531.11473   -101.16321   0.48056377   -100.68264    7441.1431    4.3357024    4.3357024    4.3357024    7441.1431    7320.7972    10920.615     4082.017    5207.8027   -931.72561   -8.9593018    81.503901 
   61800    249.09678   -100.91264     0.225388   -100.68725   -8779.3309    4.3458048    4.3458048    4.3458048   -8779.3309   -11773.361    289.33367   -14853.966    578.34717   -9723.1628   -564.67432    82.074955 
   61900    556.40249   -101.18643   0.50344466   -100.68299    8310.1209    4.3381952    4.3381952    4.3381952    8310.1209    10972.287    11593.267    2364.8092    3090.6536    3509.6295   -1904.0273    81.644563 
   62000    293.43034   -100.95308   0.26550193   -100.68758   -551.83043    4.3410904    4.3410904    4.3410904   -551.83043     1852.027    2882.6553   -6390.1735    4280.9301   -12232.801    3151.4996    81.808134 
   62100    404.96441   -101.05104   0.36642031   -100.68462    2997.4468    4.3430231    4.3430231    4.3430231    2997.4468    8025.6206    7815.3501   -6848.6304    1959.9997    4368.1008    -4579.273    81.917449 
   62200    407.25322   -101.05382   0.36849127   -100.68533    7559.2441     4.337127     4.337127     4.337127    7559.2441    7068.4288    9720.8228    5888.4806    3180.4563   -7093.2511    3235.7213     81.58427 
   62300    400.94219   -101.04899   0.36278092   -100.68621   -5268.4827    4.3468587    4.3468587    4.3468587   -5268.4827   -1408.8477   -2475.6698    -11920.93    522.43664   -2866.4278   -2470.4435    82.134681 
   62400    481.14703   -101.11786   0.43535195    -100.6825     11445.28    4.3350621    4.3350621    4.3350621     11445.28    13074.783    11168.361    10092.696   -227.06101    1651.2777   -0.9027013    81.467796 
   62500    266.60574   -100.92907   0.24123048   -100.68784    -8234.732    4.3459424    4.3459424    4.3459424    -8234.732   -9615.0243   -3663.6993   -11425.472    3988.2175     -11670.7    2438.7751    82.082752 
   62600    591.30225   -101.21754    0.5350227   -100.68252    11174.149    4.3376994    4.3376994    4.3376994    11174.149    18557.639    9944.8156    5019.9909    -1963.516    5417.2488   -2425.5958    81.616575 
   62700    218.99176   -100.88613   0.19814834   -100.68798   -4456.5417    4.3422527    4.3422527    4.3422527   -4456.5417   -5803.6339    3036.8691    -10602.86    8144.0219   -11038.349    4670.4973    81.873861 
   62800    460.77097   -101.10171   0.41691526    -100.6848    2780.3297    4.3422831    4.3422831    4.3422831    2780.3297    3540.1668    8909.9203    -4109.098   -2680.5778    1567.1917   -2611.0088    81.875583 
   62900    452.68407   -101.09556   0.40959806   -100.68597     1883.708    4.3383838    4.3383838    4.3383838     1883.708    486.69624    7298.7036   -2134.2759    5784.1607    -3664.405    2411.5743    81.655211 
   63000     299.9726   -100.95984   0.27142152   -100.68842   -5798.4492    4.3442194    4.3442194    4.3442194   -5798.4492    -4319.416    682.21116   -13758.143    9.5075922   -6058.8538   -374.86206    81.985163 
   63100    531.10763   -101.16385   0.48055734   -100.68329    6288.1894    4.3393713    4.3393713    4.3393713    6288.1894    9700.3733    5578.5215    3585.6734   -817.56565    1733.4755   -11.140168    81.710983 
   63200    261.10536   -100.92569   0.23625361   -100.68944   -5300.4101    4.3417397    4.3417397    4.3417397   -5300.4101   -1976.2671   -5481.4001    -8443.563    6324.1147   -11699.275     1962.941    81.844847 
   63300    568.59779   -101.19775   0.51447923   -100.68328     7708.782    4.3413869    4.3413869    4.3413869     7708.782    15852.997    6467.4699    805.87878   -2096.8125    2822.3731    214.08742    81.824896 
   63400    209.28702    -100.8792    0.1893673   -100.68983   -1346.6455     4.340397     4.340397     4.340397   -1346.6455   -5448.7237    1372.8814    35.905731    8768.7307   -11545.167    3231.9713    81.768937 
   63500    520.84123   -101.15775   0.47126809   -100.68648    2426.8972    4.3440342    4.3440342    4.3440342    2426.8972    4005.6697    8474.4602   -5199.4382   -1134.2439     85.28204    1461.6996    81.974677 
   63600     412.5226   -101.06085   0.37325912   -100.68759    3856.1304    4.3377587    4.3377587    4.3377587    3856.1304   -334.11784      6322.45     5580.059    3863.8858   -5964.1419    1339.6854    81.619923 
   63700    229.61692   -100.89869   0.20776221   -100.69093   -4831.2187    4.3432673    4.3432673    4.3432673   -4831.2187   -6607.3821    3859.8372   -11746.111    1526.3757   -8493.6362    2968.9564     81.93127 
   63800    622.03938   -101.24665   0.56283431   -100.68382     4824.011    4.3413181    4.3413181    4.3413181     4824.011    7386.0788    2587.2357    4498.7184    1416.0664    828.49691   -885.43708    81.821011 
   63900    216.12086   -100.88598   0.19555069   -100.69043   -6998.8145    4.3398845    4.3398845    4.3398845   -6998.8145   -6660.5498   -2438.9147   -11896.979    3816.1251   -15158.575    4135.8927    81.739975 
   64000    552.21116   -101.18319   0.49965227   -100.68354    786.60361    4.3441342    4.3441342    4.3441342    786.60361    2539.4194    1889.5677   -2069.1762    2880.5839    1863.6779   -446.51562    81.980335 
   64100    285.56709   -100.94799    0.2583871   -100.68961   -1460.8036    4.3384129    4.3384129    4.3384129   -1460.8036   -2253.1437    2643.4704   -4772.7375    3820.0616   -10563.424    3292.4873    81.656857 
   64200    483.15179   -101.12356   0.43716589    -100.6864   -2260.1089    4.3453062    4.3453062    4.3453062   -2260.1089    -2594.761     3018.986   -7204.5518     2492.245   -4891.4901    3139.0422    82.046708 
   64300    356.76721   -101.00884   0.32281047   -100.68603    3663.7227    4.3389293    4.3389293    4.3389293    3663.7227     4321.558     9467.714   -2798.1038    926.39715   -574.05337   -2364.6386    81.686016 
   64400    284.59867   -100.94689   0.25751086   -100.68938   -4988.3762    4.3426379    4.3426379    4.3426379   -4988.3762   -8215.1825    -2516.618    -4233.328    3068.2462   -13299.681     5670.022    81.895651 
   64500    625.10983   -101.24885   0.56561251   -100.68324    4891.0277    4.3415857    4.3415857    4.3415857    4891.0277    8461.3194    6090.2477    121.51595     -796.992    4441.9446   -6613.7042    81.836141 
   64600     159.3684   -100.83465   0.14419988   -100.69045   -6305.1203    4.3403682    4.3403682    4.3403682   -6305.1203   -14393.844   -3683.6977   -837.81952    5920.0311   -14357.703    5183.0531    81.767311 
   64700     597.8669   -101.22558   0.54096254   -100.68462    149.67083    4.3428912    4.3428912    4.3428912    149.67083   -367.72647    1214.7432   -398.00428   -236.67849    3380.4075   -3292.3896    81.909985 
   64800    312.43697   -100.97169   0.28269954   -100.68899   -3001.3603    4.3410095    4.3410095    4.3410095   -3001.3603   -8588.1612    827.69317   -1243.6127    3628.8667   -7908.3604    1031.9849    81.803558 
   64900    403.55019   -101.05187   0.36514069   -100.68673   -2497.4807    4.3413474    4.3413474    4.3413474   -2497.4807   -7441.0253    6275.4841   -6326.9008    1814.5476   -2732.6867    2423.5011    81.822665 
   65000    384.77137   -101.03353   0.34814922   -100.68538    139.98444    4.3430579    4.3430579    4.3430579    139.98444    367.32348    4610.1323   -4557.5025   -2274.8986    228.83391   -2819.1019    81.919416 
   65100    348.44625   -101.00348   0.31528149    -100.6882   -3765.3372    4.3395741    4.3395741    4.3395741   -3765.3372   -3892.5412    259.32823   -7662.7988    5453.2196   -10940.689    2501.7324    81.722439 
   65200    497.77245    -101.1339   0.45039497    -100.6835    1087.5809    4.3440757    4.3440757    4.3440757    1087.5809    836.58731    3457.0539   -1030.8986   -3415.2911    6019.2904   -2915.4163    81.977024 
   65300    247.57235   -100.91235   0.22400866   -100.68834   -3396.1742    4.3386715    4.3386715    4.3386715   -3396.1742   -5109.4038   -2504.8366   -2574.2821    5797.0196   -14314.637    637.83488     81.67146 
   65400    571.96824   -101.20124   0.51752889   -100.68371   -109.65713    4.3445021    4.3445021    4.3445021   -109.65713    306.63201   -5307.7683     4672.165     15.87909    5708.6442    1343.9497    82.001169 
   65500    328.95032   -100.98418   0.29764116   -100.68654   -1469.3838    4.3401549    4.3401549    4.3401549   -1469.3838   -2878.2111    3337.0545   -4866.9948    1967.8175   -8900.7708    384.65925    81.755258 
   65600    386.11645   -101.03501   0.34936628   -100.68565   -1560.0373    4.3422306    4.3422306    4.3422306   -1560.0373   -7380.8877   -1027.8747    3728.6505    2725.8026   -3878.4698    3326.8492    81.872615 
   65700    461.33386   -101.10165   0.41742457   -100.68422    303.10715    4.3425525    4.3425525    4.3425525    303.10715    1725.3627    3290.0487     -4106.09   -1288.6243    718.93062   -1046.6717     81.89082 
   65800    304.66317   -100.96308   0.27566564   -100.68741   -1466.0397    4.3394535    4.3394535    4.3394535   -1466.0397   -10530.182    5370.5814     761.4815    3850.8143   -15116.466    1267.1231    81.715626 
   65900    468.16876   -101.10678   0.42360893   -100.68317   -1585.3079    4.3446606    4.3446606    4.3446606   -1585.3079   -6097.8897    2457.0985   -1115.1326   -192.61039     6630.803   -1462.7171    82.010141 
   66000    283.60175   -100.94409   0.25660883   -100.68748   -467.45628     4.338006     4.338006     4.338006   -467.45628   -2376.6403    4988.3991   -4014.1277    4738.3894   -14239.006   -473.28583    81.633882 
   66100    533.11709   -101.16578   0.48237555    -100.6834   -4156.7943     4.345051     4.345051     4.345051   -4156.7943   -6736.5734   -5156.2068   -577.60271    1159.0783    1368.2276    1894.8436    82.032252 
   66200    314.15387    -100.9706   0.28425302   -100.68635    774.44133    4.3391273    4.3391273    4.3391273    774.44133    3719.2117    6281.0925   -7676.9802    2599.7187   -3107.2184   -2000.2446    81.697202 
   66300    448.37097    -101.0915   0.40569548   -100.68581    -3669.794    4.3438363    4.3438363    4.3438363    -3669.794    -2961.492   -10002.276    1954.3857    2259.0273   -10493.062    4762.6522    81.963475 
   66400    468.61643   -101.10859   0.42401399   -100.68458    2040.7073    4.3401745    4.3401745    4.3401745    2040.7073    4461.5614    2380.3806    -719.8203   -1453.6291    6780.5803   -3077.9958    81.756364 
   66500    287.86333   -100.94816   0.26046479   -100.68769      868.843    4.3409619    4.3409619    4.3409619      868.843   -7729.0238    4306.2636    6029.2892    3680.9021   -15615.421    1989.1506    81.800868 
   66600    525.93709   -101.15878   0.47587893   -100.68291   -1919.4902    4.3454158    4.3454158    4.3454158   -1919.4902   -918.21175   -7927.3683    3087.1095   -2199.5148    9026.6169   -3331.9324    82.052915 
   66700    255.29983   -100.91789   0.23100065   -100.68689    6283.9353    4.3354622    4.3354622    4.3354622    6283.9353   -489.26043    17901.949    1439.1171    3384.1869   -11168.449   -1409.8826    81.490354 
   66800    507.30906   -101.14197    0.4590239   -100.68295   -7845.8817    4.3494314    4.3494314    4.3494314   -7845.8817   -12624.305   -5965.8654   -4947.4747    2153.5782    1559.9203   -519.20187    82.280599 
   66900    314.75041    -100.9697   0.28479279   -100.68491    7167.6179    4.3337353    4.3337353    4.3337353    7167.6179    6550.8767    15477.809   -525.83198   -304.96905    -2221.317   -1615.0933    81.393017 
   67000    400.97152   -101.04802   0.36280745   -100.68522   -7843.8197     4.347711     4.347711     4.347711   -7843.8197   -12136.565   -4231.7326    -7163.162    5040.3874   -10373.548    780.78956    82.183001 
   67100    459.48926    -101.0989   0.41575554   -100.68314    3188.1176    4.3384287    4.3384287    4.3384287    3188.1176   -739.92322     5139.587     5164.689   -2972.3915    6676.8965   -713.71624    81.657745 
   67200    311.14945   -100.96886   0.28153456   -100.68733   -3044.2858    4.3409885    4.3409885    4.3409885   -3044.2858   -4803.2975    5645.3833   -9974.9432    4574.1653   -17438.959   -1610.4435    81.802375 
   67300    523.16579   -101.15629    0.4733714   -100.68292   -2120.9437    4.3453369    4.3453369    4.3453369   -2120.9437   -1653.9032   -12515.435    7806.5074   -1471.4424    9359.0624    -649.0025    82.048444 
   67400    318.85508   -100.97561   0.28850678    -100.6871    908.32983    4.3363041    4.3363041    4.3363041    908.32983   -458.01988    13354.207   -10171.198    2491.2723   -14987.359   -3388.8253     81.53784 
   67500    480.48068   -101.11885   0.43474901    -100.6841   -2635.9643    4.3476764    4.3476764    4.3476764   -2635.9643   -4480.5144     -8870.41    5443.0315    2403.6694    369.69728    1063.0655     82.18104 
   67600     363.7138   -101.01406   0.32909589   -100.68497    834.30237    4.3366691    4.3366691    4.3366691    834.30237    2734.9172    4406.8223   -4638.8323   -1076.2033   -7253.6701   -837.59374    81.558428 
   67700    324.27004   -100.98049   0.29340634   -100.68708    858.75641    4.3435202    4.3435202    4.3435202    858.75641   -11717.943    8507.3162    5786.8962     5464.793   -10683.548    2001.4027    81.945581 
   67800    511.91076   -101.14688   0.46318762   -100.68369   -3091.8043     4.343692     4.343692     4.343692   -3091.8043   -4794.9792   -2343.2646   -2137.1691   -6519.7383    2822.5571    2271.8051    81.955302 
   67900    210.32647   -100.87812   0.19030781   -100.68781    2909.2323    4.3365982    4.3365982    4.3365982    2909.2323   -5136.9421    14153.395    -288.7563     5934.254   -16705.879    653.95736    81.554429 
   68000    562.80015   -101.19129   0.50923341   -100.68206   -8109.5706    4.3486785    4.3486785    4.3486785   -8109.5706   -9885.1813   -10261.231   -4182.2991   -6930.6951    4863.4879    1934.4248    82.237878 
   68100    314.01925   -100.97037   0.28413121   -100.68624    1614.4686    4.3345576    4.3345576    4.3345576    1614.4686    -3120.342    13257.054   -5293.3062    842.98502   -13999.364   -1769.4242    81.439357 
   68200    475.94249   -101.11439   0.43064276   -100.68374   -6432.4803    4.3467376    4.3467376    4.3467376   -6432.4803     -4769.11   -11732.047   -2796.2837    113.97738   -2628.2737    1465.0306    82.127817 
   68300    363.72605   -101.01437   0.32910697   -100.68526   -2392.6691     4.340226     4.340226     4.340226   -2392.6691   -6565.7101   -2017.3932     1405.096   -6581.9359   -4834.6483   -1834.6328    81.759276 
   68400    414.96436   -101.06243   0.37546848   -100.68696    221.48969    4.3389289    4.3389289    4.3389289    221.48969   -3167.5553    7760.9234    -3928.899    4446.9723   -11382.317    2450.6616    81.685995 
   68500    430.53605   -101.07402   0.38955806   -100.68446   -4351.3895    4.3470842    4.3470842    4.3470842   -4351.3895   -3152.2668   -15355.535    5453.6329   -8514.9632    4358.1098    224.47075    82.147461 
   68600    263.28081   -100.92553   0.23822201   -100.68731    757.25641    4.3352983    4.3352983    4.3352983    757.25641   -3270.6928    12959.425   -7416.9626    1122.3538   -13835.534    1642.9685    81.481111 
   68700    545.61067   -101.17632      0.49368   -100.68264   -3404.0174    4.3481282    4.3481282    4.3481282   -3404.0174   -5685.4431   -6288.2962    1761.6871   -5301.6807     2977.891   -1426.1553    82.206664 
   68800    293.06207   -100.95127   0.26516872    -100.6861   -1820.9952    4.3360816    4.3360816    4.3360816   -1820.9952   -6622.2115    9632.2834   -8473.0576   -2457.5101   -10961.005   -462.75442    81.525289 
   68900    393.08295   -101.04012   0.35566971   -100.68445     -2478.28    4.3450701    4.3450701    4.3450701     -2478.28   -7243.2431    -2509.385    2317.7881   -874.08848   -4059.0515   -3147.9997    82.033336 
   69000    461.42768   -101.10266   0.41750946   -100.68515   -4684.6659     4.341416     4.341416     4.341416   -4684.6659   -10825.622    232.13661   -3460.5125   -3475.3515   -3153.6843   -815.56344    81.826543 
   69100    336.13071   -100.99058   0.30413813   -100.68644   -291.82413    4.3390848    4.3390848    4.3390848   -291.82413    -4746.359    6777.5434   -2906.6568    741.57405   -12485.853   -1897.3584    81.694799 
   69200    476.35634    -101.1144   0.43101723   -100.68338   -6387.9854    4.3456583    4.3456583    4.3456583   -6387.9854   -6658.7045   -15169.464    2664.2121   -4391.7088    3751.4986    1063.5142    82.066651 
   69300    324.58912   -100.98078   0.29369506   -100.68709   -2105.3343     4.337827     4.337827     4.337827   -2105.3343    -7858.003    10983.312   -9441.3124    107.39665   -18261.573    296.07769    81.623778 
   69400      574.083   -101.20254   0.51944236    -100.6831   -1838.0221    4.3438422    4.3438422    4.3438422   -1838.0221   -1355.3216   -6127.8168    1969.0722   -3251.0823    3739.7707    448.54585    81.963805 
   69500    204.23288   -100.87205    0.1847942   -100.68726    -4913.647    4.3418024    4.3418024    4.3418024    -4913.647   -10335.783   -299.59753   -4105.5605   -2399.1657    -16189.85    -930.2064    81.848392 
   69600    491.85689   -101.13013   0.44504245   -100.68509    2319.7457    4.3391663    4.3391663    4.3391663    2319.7457   -1647.5701    7072.3594     1534.448    1840.0925    -2404.641   -1264.0316    81.699405 
   69700    365.46106   -101.01684   0.33067685   -100.68616   -2811.8154    4.3454672    4.3454672    4.3454672   -2811.8154   -9442.0547   -1684.8065    2691.4151   -5749.4044   -6629.9578   -1202.9857    82.055829 
   69800    311.85359   -100.96804   0.28217168   -100.68587   -1778.3133        4.338        4.338        4.338   -1778.3133   -6283.8045    5945.0525    -4996.188    3907.8003   -11617.905   -1825.5264    81.633541 
   69900    491.12284   -101.12799   0.44437827   -100.68361   -1606.0177    4.3444642    4.3444642    4.3444642   -1606.0177   -4304.4795   -3955.9938    3442.4201   -5843.9133     2654.554     1671.379     81.99902 
   70000    375.40116   -101.02626   0.33967086   -100.68659   -5721.5017     4.340204     4.340204     4.340204   -5721.5017   -13876.798    7383.1843   -10670.891   -1307.2996   -19392.539   -498.84907    81.758034 
   70100    478.57778   -101.11601   0.43302723   -100.68298    652.25371    4.3418536    4.3418536    4.3418536    652.25371   -621.55331   -2659.0259    5237.3404   -984.67576    7572.0457    1964.8048     81.85129 
   70200    302.92997   -100.96046    0.2740974   -100.68636   -5366.2657    4.3433289    4.3433289    4.3433289   -5366.2657   -14252.136   -466.26691   -1380.3942   -7180.4256   -17965.173   -1483.9459    81.934756 
   70300     516.6207   -101.15187   0.46744926   -100.68442    3478.7607    4.3386358    4.3386358    4.3386358    3478.7607   -936.02474    11510.224   -137.91754    3181.6382    3703.1255   -1201.5005     81.66944 
   70400    318.05112   -100.97334   0.28777934   -100.68556   -1659.3131    4.3446175    4.3446175    4.3446175   -1659.3131   -9052.1787     -901.324    4975.5636   -8344.2396   -8407.4072   -2699.6836    82.007703 
   70500    346.21924   -100.99957   0.31326644   -100.68631   -1847.0833    4.3391544    4.3391544    4.3391544   -1847.0833   -5301.6184     7783.452   -8023.0835    1971.3241   -8264.7324    703.65991    81.698734 
   70600     515.4724   -101.15057   0.46641026   -100.68416     812.6939     4.342862     4.342862     4.342862     812.6939   -2115.9696    2073.1096    2480.9417   -7331.2681    3300.9386   -1380.7334    81.908333 
   70700    275.78402    -100.9368   0.24953517   -100.68726   -5786.4082    4.3420669    4.3420669    4.3420669   -5786.4082   -12049.877     4254.395   -9563.7424   -1826.5057   -16908.221    3518.6502    81.863355 
   70800    484.38371   -101.12126   0.43828056   -100.68298     2331.124    4.3398087    4.3398087    4.3398087     2331.124    2362.2635   -3574.9018    8206.0103    -3609.498     8687.306   -1146.2239    81.735695 
   70900    336.13114     -100.991   0.30413852   -100.68686   -4425.2188    4.3443981    4.3443981    4.3443981   -4425.2188   -11826.024    3748.5911   -5198.2232   -4212.4026   -15744.978    1710.9169     81.99528 
   71000    493.18076   -101.12993   0.44624031   -100.68369    1495.1562    4.3390348    4.3390348    4.3390348    1495.1562   -3756.5344    4491.6859    3750.3169     200.7333    3205.2877   -1681.1082    81.691976 
   71100    345.68486   -100.99805   0.31278293   -100.68526   -2132.8298     4.343838     4.343838     4.343838   -2132.8298   -7879.6432    3667.2216   -2186.0677   -3955.3612   -7516.2632   -1362.6424    81.963571 
   71200    410.49194   -101.05745   0.37142173   -100.68603    154.18108    4.3399991    4.3399991    4.3399991    154.18108   -7423.6437    9741.1803   -1854.9934   -434.25007   -8435.3973    -1523.254    81.746451 
   71300    484.38432   -101.12163   0.43828111   -100.68335    1841.2794    4.3428466    4.3428466    4.3428466    1841.2794   -4925.3516    11193.688    -744.4985   -1917.8038    3451.9832   -130.70767    81.907463 
   71400    239.18527   -100.90374   0.21641986   -100.68732   -502.31378    4.3411569    4.3411569    4.3411569   -502.31378    -10060.38    8090.3908    463.04766   -1924.6007   -17220.739   -43.717064    81.811896 
   71500    519.32054   -101.15259   0.46989214    -100.6827    2279.7916    4.3409405    4.3409405    4.3409405    2279.7916    1237.5577    4037.3917    1564.4254   -450.88989    9450.9769   -304.86035     81.79966 
   71600     297.3243   -100.95692   0.26902527    -100.6879   -4447.0902     4.342622     4.342622     4.342622   -4447.0902   -12334.787    4610.3652   -5616.8491   -1442.8476   -17868.492   -892.38765    81.894755 
   71700    492.51781   -101.13047   0.44564047   -100.68483   -525.78124    4.3399679    4.3399679    4.3399679   -525.78124   -460.08834    -14.63007   -1102.6253   -510.69882    2662.3978   -2471.9338    81.744693 
   71800    391.45847   -101.04028   0.35419985   -100.68608   -5918.8438     4.344006     4.344006     4.344006   -5918.8438   -7803.8912   -1929.3742    -8023.266    1488.4383   -7759.3811   -285.80986    81.973078 
   71900    376.58751   -101.02718    0.3407443   -100.68644    777.10901    4.3398782    4.3398782    4.3398782    777.10901   -5576.1663    14571.791   -6664.2981   -3699.4563   -10900.838   -2611.4807    81.739621 
   72000     521.5051   -101.15479   0.47186877   -100.68292    724.36015    4.3432966    4.3432966    4.3432966    724.36015   -6731.6606    4632.7321     4272.009    3372.7178    6154.5424    2982.3777    81.932924 
   72100    201.03482   -100.86954   0.18190053   -100.68764    2040.6427     4.341534     4.341534     4.341534    2040.6427   -10163.725    19078.474    -2792.821   -6077.8502   -19699.381    1392.6212    81.833219 
   72200    541.00286   -101.17173   0.48951075   -100.68222    5083.3221    4.3406366    4.3406366    4.3406366    5083.3221   -2612.1064    9052.8795    8809.1932    3989.0555    9276.0833    4439.5234    81.782481 
   72300     245.1054   -100.91013   0.22177652   -100.68836   -2408.3895    4.3436164    4.3436164    4.3436164   -2408.3895   -17752.032    17051.899   -6525.0358   -5308.1247   -18416.862    1374.6493    81.951025 
   72400    528.58513   -101.16244   0.47827493   -100.68416    1918.7504    4.3391134    4.3391134    4.3391134    1918.7504    1331.2366   -496.85164    4921.8661       1455.2    669.34943    3576.9261    81.696415 
   72500    346.45799   -100.99969   0.31348247   -100.68621   -6520.5579    4.3446841    4.3446841    4.3446841   -6520.5579   -12737.394    6017.5539   -12841.834   -1998.8371   -8621.2105   -1063.9283    82.011476 
   72600    389.31046   -101.04003   0.35225629   -100.68777   -1282.9881    4.3388585    4.3388585    4.3388585   -1282.9881   -4079.1876    4147.2476   -3917.0243   -4081.1644   -9919.0658    3446.7494    81.682021 
   72700    538.64039   -101.17138   0.48737315   -100.68401   -389.59136    4.3437281    4.3437281    4.3437281   -389.59136   -4576.8243    5519.9385   -2111.8883   -40.519424    967.78771   -1348.8062     81.95735 
   72800    169.42626    -100.8426   0.15330044    -100.6893   -3077.4884    4.3415718    4.3415718    4.3415718   -3077.4884   -11290.957    12559.922    -10501.43   -6250.4154    -17161.68    4058.9765    81.835353 
   72900    539.72639   -101.17193   0.48835578   -100.68357     7738.387    4.3394453    4.3394453    4.3394453     7738.387    96.708782    13942.562    9175.8905   -1671.0375    6074.6405   -104.37636    81.715161 
   73000    320.36397   -100.97827   0.28987205    -100.6884   -6416.9807     4.345827     4.345827     4.345827   -6416.9807   -18114.395    9654.1917   -10790.739    -2268.555   -19210.569    431.71756    82.076211 
   73100    413.39186   -101.05947   0.37404564   -100.68542    4806.4622    4.3370467    4.3370467    4.3370467    4806.4622     1396.201    6764.7268    6258.4587   -5796.9416    2790.0057   -1796.3363    81.579734 
   73200    429.68187   -101.07367   0.38878519   -100.68489   -8562.2404    4.3465965    4.3465965    4.3465965   -8562.2404   -16165.668    4946.2375   -14467.291    1029.7287   -12078.895   -2116.6592    82.119818 
   73300    393.29821   -101.04234   0.35586448   -100.68648   -1514.7329      4.33906      4.33906      4.33906   -1514.7329   -7982.6789    4374.6666   -936.18636   -8275.6033   -6836.4067    -3544.202    81.693398 
   73400    482.66133   -101.11935   0.43672211   -100.68263   -1619.8712    4.3427135    4.3427135    4.3427135   -1619.8712   -6530.9864    6470.3888    -4799.016   -690.30943    298.14282   -57.844094    81.899931 
   73500    240.84007   -100.90486   0.21791716   -100.68694   -8011.6634    4.3436635    4.3436635    4.3436635   -8011.6634   -18125.555    6171.9645     -12081.4   -5028.1125   -15657.953   -1317.8664     81.95369 
   73600    523.40447   -101.15689   0.47358737    -100.6833    7253.5929    4.3384378    4.3384378    4.3384378    7253.5929   -724.90354    10191.804    12293.879    -3632.547    6200.7741    406.23749     81.65826 
   73700    358.78399   -101.01099    0.3246353   -100.68635    -10951.86    4.3462234    4.3462234    4.3462234    -10951.86   -20292.671    2339.6232   -14902.531   -94.703881    -16963.43    986.44982     82.09867 
   73800    313.67577   -100.96951   0.28382043   -100.68569    8511.2996    4.3368024    4.3368024    4.3368024    8511.2996    852.32425     12561.93    12119.645   -6171.6415    2708.6956   -2989.2459    81.565953 
   73900    523.87142   -101.15859   0.47400987   -100.68458   -8232.0258    4.3458707    4.3458707    4.3458707   -8232.0258   -14777.344    5200.9282   -15119.661    4130.4861   -11730.946    1865.6334    82.078686 
   74000    317.64725   -100.97343   0.28741391   -100.68602    2797.7389    4.3395794    4.3395794    4.3395794    2797.7389   -6753.8443    15125.947    21.114088   -8057.6893   -4437.9895   -2796.8646    81.722738 
   74100    435.67581   -101.07738   0.39420863   -100.68318   -3046.4792    4.3415915    4.3415915    4.3415915   -3046.4792   -5764.7718    5740.6174   -9115.2832    4077.1045   -3250.7326    2430.6758    81.836469 
   74200    345.81626   -100.99866   0.31290182   -100.68575   -5227.0953    4.3442079    4.3442079    4.3442079   -5227.0953   -14601.415    8861.9235   -9941.7945    -5143.255   -10888.426    640.43009     81.98451 
   74300    519.77743   -101.15349   0.47030554   -100.68319    544.86676    4.3386155    4.3386155    4.3386155    544.86676   -4677.2622   -3112.7462    9424.6087    1005.1449    3606.4607    2893.9705    81.668296 
   74400    278.77783    -100.9372   0.25224403   -100.68496   -7813.0794    4.3452698    4.3452698    4.3452698   -7813.0794   -16073.413    6528.3655   -13894.191    58.470304   -16413.465   -1696.7708    82.044643 
   74500    459.04873   -101.09894   0.41535694   -100.68358   -762.03751    4.3398824    4.3398824    4.3398824   -762.03751   -8733.1333   -6122.2006    12569.221   -2984.3159    4182.8563     3368.275    81.739861 
   74600     396.4306   -101.04321   0.35869874   -100.68452    177.40453    4.3416755    4.3416755    4.3416755    177.40453   -9497.9382    17158.583   -7128.4313    1786.2091   -14479.688   -4567.6033     81.84122 
   74700    369.59921   -101.01901   0.33442113   -100.68458   -4844.5729    4.3436116    4.3436116    4.3436116   -4844.5729   -13905.721    3039.2123   -3667.2102   -4213.4776   -3846.6012    2965.4476    81.950753 
   74800    361.28326   -101.01133   0.32689668   -100.68443    5068.2026    4.3383627    4.3383627    4.3383627    5068.2026   -2768.8469    18143.296   -169.84147   -1639.4088   -3822.7834   -1841.8724    81.654021 
   74900    491.01723   -101.12918   0.44428271    -100.6849    -7960.095    4.3458164    4.3458164    4.3458164    -7960.095   -14181.154    3448.3189    -13147.45   -317.36598   -12530.063    1852.7248    82.075611 
   75000     366.0895   -101.01558   0.33124548   -100.68434    3506.8543    4.3375147    4.3375147    4.3375147    3506.8543   -3762.0871    6309.3482    7973.3019   -6686.0986    3129.8027     498.2062     81.60615 
   75100    375.95332   -101.02515   0.34017047   -100.68498   -7667.4203    4.3451841    4.3451841    4.3451841   -7667.4203   -10357.608    4111.5056   -16756.158    4040.7794   -14051.263    194.79745    82.039792 
   75200    466.09858    -101.1054   0.42173579   -100.68366    1309.1771    4.3407875    4.3407875    4.3407875    1309.1771   -7851.9432    1008.0563    10771.418   -10803.358    1145.4979   -2121.1712    81.791009 
   75300    326.93326   -100.98098   0.29581608   -100.68517   -1167.2415    4.3400902    4.3400902    4.3400902   -1167.2415   -7590.1502    11117.155   -7028.7288    3570.2552   -11470.672    214.93805      81.7516 
   75400    376.73238   -101.02456   0.34087538   -100.68368    -4610.604    4.3455689    4.3455689    4.3455689    -4610.604   -9244.4012   -1087.3961   -3500.0147   -9996.2714   -4738.4929   -2470.2951     82.06159 
   75500    416.43603   -101.06148   0.37680007   -100.68468    4898.1131    4.3359852    4.3359852    4.3359852    4898.1131   -3961.1351    9083.0548    9572.4196   -1405.4321   -4720.0057   -522.32832    81.519849 
   75600    423.70425     -101.067   0.38337651   -100.68362   -8714.3171    4.3482302    4.3482302    4.3482302   -8714.3171   -11387.142    560.13188   -15315.941   -1063.6815   -9663.4218    1853.3984    82.212451 
   75700    370.25973   -101.01853   0.33501878   -100.68351     5313.667    4.3360595    4.3360595    4.3360595     5313.667   -5644.9567    9297.8527    12288.105   -8007.2259    2973.2333   -2582.2923    81.524042 
   75800    426.94007   -101.07134   0.38630435   -100.68504   -5163.7863    4.3452601    4.3452601    4.3452601   -5163.7863   -9150.3649    6888.9378   -13229.932    6585.7975   -12925.903    2868.8006    82.044094 
   75900    446.37229   -101.08732   0.40388702   -100.68344    4200.4096    4.3403789    4.3403789    4.3403789    4200.4096   -6935.5551    11335.585    8201.1989   -12550.765      4722.02   -3273.0803    81.767915 
   76000    285.32899   -100.94376   0.25817166   -100.68559   -290.01464    4.3402555    4.3402555    4.3402555   -290.01464   -5995.7698    9492.4094   -4366.6836    6569.1342   -10678.133    882.89959    81.760941 
   76100    454.25713   -101.09484    0.4110214   -100.68382   -1385.6363    4.3449431    4.3449431    4.3449431   -1385.6363   -3131.3259    1141.0846   -2166.6677   -8415.6362   -2466.3946   -1992.1435     82.02614 
   76200    418.41667   -101.06377   0.37859219   -100.68518    2055.0445     4.336789     4.336789     4.336789    2055.0445    -5290.766    1085.0558    10370.844    1294.9731   -2090.0325    2207.8581    81.565193 
   76300    328.84452   -100.98239   0.29754543   -100.68484   -6611.3915    4.3473053    4.3473053    4.3473053   -6611.3915   -5691.2359     747.6261   -14890.565    1714.5801   -9772.3225   -1050.4323    82.160001 
   76400    482.78927   -101.12017   0.43683788   -100.68333    1535.2308    4.3376489    4.3376489    4.3376489    1535.2308   -5032.7416   -1946.1739    11584.608    -4737.293    4862.6752    4842.7307    81.613723 
   76500    357.37173   -101.00902   0.32335745   -100.68567   -1478.6736    4.3434911    4.3434911    4.3434911   -1478.6736   -10745.416    12665.573   -6356.1781    6833.5684   -10866.819   -1400.1733    81.943932 
   76600    461.43086   -101.10035   0.41751234   -100.68284   -1452.1537    4.3421338    4.3421338    4.3421338   -1452.1537    -3050.078   -1916.1785    609.79528   -7611.5618    3448.1236    2841.9857    81.867138 
   76700     291.0684   -100.94943   0.26336481   -100.68606    4344.6243      4.33894      4.33894      4.33894    4344.6243   -7252.4745    15489.544    4796.8031    4419.4973   -8192.0489   -799.32102    81.686621 
   76800    545.14326   -101.17668   0.49325708   -100.68342   -2767.0873    4.3453389    4.3453389    4.3453389   -2767.0873   -1342.0643   -4157.2291   -2801.9684   -2116.6894   -2265.2618    293.10112    82.048562 
   76900    284.40535   -100.94276   0.25733594   -100.68542    6821.1501    4.3378716    4.3378716    4.3378716    6821.1501    -5917.567    14285.194    12095.824   -1153.9343   -4545.9996    1192.3247    81.626295 
   77000    398.65195   -101.04599   0.36070866   -100.68528   -2294.9456     4.343504     4.343504     4.343504   -2294.9456   -2228.3215    1323.7571   -5980.2723    7165.9818   -7237.4744    1106.1616    81.944664 
   77100    457.99484   -101.09839   0.41440335   -100.68399    3466.0769    4.3425412    4.3425412    4.3425412    3466.0769   -5362.4039    7124.6083    8636.0263    -8375.151    817.06267    416.93846    81.890183 
   77200    332.15773   -100.98681    0.3005433   -100.68626   -248.98367    4.3372464    4.3372464    4.3372464   -248.98367   -6757.5096    7164.1143   -1153.5558    10028.906    -11078.29    352.98387    81.591008 
   77300    427.97668   -101.07087   0.38724229   -100.68363   -4995.1927     4.348642     4.348642     4.348642   -4995.1927   -1558.2199   -5879.2918   -7548.0663   -9437.8685      3793.03   -412.60881    82.235807 
   77400    438.10239   -101.08168   0.39640425   -100.68528    2778.1234    4.3336419    4.3336419    4.3336419    2778.1234   -5742.5265    3681.6338    10395.263    6553.2867   -11204.672   -3074.1266    81.387753 
   77500     398.9654   -101.04503   0.36099227   -100.68404   -5842.1583    4.3492365    4.3492365    4.3492365   -5842.1583   -4983.6524   -1728.6595   -10814.163   -541.46922   -1426.7506    1421.7286    82.269538 
   77600    390.61122   -101.03703   0.35343324    -100.6836    3528.9309    4.3366359    4.3366359    4.3366359    3528.9309   -2994.7449    5570.6683    8010.8692   -1064.9726   -3850.9459   -3725.6252    81.556556 
   77700    369.67354    -101.0206   0.33448839   -100.68611    814.59062     4.342807     4.342807     4.342807    814.59062   -9745.3438    11408.709    780.40679    8406.5681   -9460.8647    3122.8601    81.905223 
   77800    490.63591   -101.12706   0.44393768   -100.68312    6.7153682    4.3443231    4.3443231    4.3443231    6.7153682   -6184.6921    2445.0579    3759.7802   -8176.6752    3615.1893   -957.37869     81.99103 
   77900     225.3095   -100.89103   0.20386477   -100.68716    6099.6568    4.3347858    4.3347858    4.3347858    6099.6568   -7642.9983    15195.296    10746.672    11407.009   -10352.534    1382.5638    81.452218 
   78000    573.31146   -101.20235   0.51874426    -100.6836    -7319.598    4.3504423    4.3504423    4.3504423    -7319.598   -9021.3071   -7006.2718    -5931.215   -6872.5542    4049.7306   -721.61531    82.337984 
   78100    330.10785   -100.98422   0.29868852   -100.68553    7803.9167    4.3333194    4.3333194    4.3333194    7803.9167   -5029.5701    12765.373    15675.947    8632.6927   -6301.6688    1554.3452    81.369587 
   78200     374.5468   -101.02415   0.33889781   -100.68525   -8560.6334    4.3469639    4.3469639    4.3469639   -8560.6334   -11522.837   -801.35932   -13357.704    1579.5738   -385.38284   -817.71902    82.140642 
   78300    471.38873   -101.10979   0.42652243   -100.68327    2099.0026     4.340305     4.340305     4.340305    2099.0026   -4540.6436     4558.836    6278.8154    1595.4611   -1650.3774    4465.9026    81.763741 
   78400    329.16711   -100.98415   0.29783732   -100.68631   -2286.0737    4.3397489    4.3397489    4.3397489   -2286.0737   -15453.443    5729.8424    2865.3797    9026.7716   -5193.8445    1266.9863    81.732316 
   78500    469.77745   -101.10726   0.42506451    -100.6822   -6028.4035    4.3467113    4.3467113    4.3467113   -6028.4035   -8586.6221   -4390.3864   -5108.2022    -3779.404    4960.7697    4217.0637    82.126327 
   78600    284.41233    -100.9442   0.25734226   -100.68686     3996.393    4.3352189    4.3352189    4.3352189     3996.393   -10915.934    7958.3861    14946.727     12259.71   -8815.8494    1435.7925    81.476638 
   78700    543.17581   -101.17516   0.49147689   -100.68368   -7251.0402    4.3473882    4.3473882    4.3473882   -7251.0402   -15046.219   -2608.2499   -4098.6514   -1354.4776    8993.5956    479.81003    82.164697 
   78800    278.71465    -100.9376   0.25218687   -100.68542    3477.8826    4.3385681    4.3385681    4.3385681    3477.8826   -7499.0087    11018.597    6914.0599    8704.9557    -6347.589    509.50277     81.66562 
   78900    411.33536   -101.05826   0.37218488   -100.68607   -2254.8301    4.3407089    4.3407089    4.3407089   -2254.8301    -12842.93    6890.0462   -811.60676    7434.5789    2471.7136    376.99499    81.786566 
   79000      511.215   -101.14647   0.46255808   -100.68391   -1395.2449    4.3456032    4.3456032    4.3456032   -1395.2449    -11512.55    6365.8431    960.97198    649.25374    3335.2724    843.28544    82.063531 
   79100     242.5148   -100.90667   0.21943249   -100.68724    2129.5473    4.3355298    4.3355298    4.3355298    2129.5473   -10989.412    4214.5524    13163.501    14818.628   -8059.8104    458.29144    81.494166 
   79200    514.76733   -101.14917    0.4657723    -100.6834   -5876.6604    4.3485227    4.3485227    4.3485227   -5876.6604   -12950.483   -158.21174   -4521.2861   -4525.9621    10633.504    358.40293    82.229041 
   79300    364.02711    -101.0149   0.32937938   -100.68552    1129.2887     4.336883     4.336883     4.336883    1129.2887   -13844.846   -2547.3539    19780.066    14969.988   -9569.2762   -3675.1835      81.5705 
   79400    358.97379   -101.00974   0.32480703   -100.68494   -4040.1529    4.3425655    4.3425655    4.3425655   -4040.1529   -11119.658     5145.325   -6146.1256   -987.57898     9355.647   -93.261363    81.891558 
   79500    443.97859   -101.08556   0.40172116   -100.68384   -6666.9823    4.3448594    4.3448594    4.3448594   -6666.9823   -14078.791   -6273.3613    351.20497    8799.6099   -3087.5855   -5407.7885    82.021398 
   79600    345.82156   -100.99895   0.31290661   -100.68605    2356.4908    4.3363154    4.3363154    4.3363154    2356.4908   -10137.065    14041.685    3164.8534    7611.3371    1788.5676    234.30593    81.538475 
   79700    493.11152   -101.12892   0.44617767   -100.68274   -9958.9773    4.3480269    4.3480269    4.3480269   -9958.9773   -13230.892   -7283.7115   -9362.3282    921.69551    4026.1828   -2273.6344     82.20092 
   79800    254.31186   -100.91655   0.23010672   -100.68644    4899.4909    4.3359754    4.3359754    4.3359754    4899.4909   -8852.0468    11346.501    12204.018    12868.518   -5961.2291    562.91748      81.5193 
   79900    545.16734   -101.17679   0.49327887   -100.68351   -3806.9374    4.3447026    4.3447026    4.3447026   -3806.9374   -11017.621   -1779.2167    1376.0254   -4611.2757    8365.1668   -185.74366    82.012522 
   80000    312.45794   -100.96768   0.28271851   -100.68496     609.8147    4.3419819    4.3419819    4.3419819     609.8147   -14135.477    1801.4444    14163.476    12818.316   -7435.0403   -1127.5236    81.858547 
   80100    387.93969   -101.03588   0.35101598   -100.68487    2438.0425    4.3373115    4.3373115    4.3373115    2438.0425   -5430.5524    8666.9174    4077.7623   -2654.1924    7540.4928   -483.82755    81.594677 
   80200    477.96733   -101.11647   0.43247488   -100.68399   -4839.9762     4.348265     4.348265     4.348265   -4839.9762   -14214.898   -2077.3082     1772.278    7855.6602   -1825.9047    543.96923    82.214421 
   80300    352.87636   -101.00471   0.31928995   -100.68542    2585.7232    4.3344486    4.3344486    4.3344486    2585.7232   -7737.9136    7790.1365    7704.9466    4766.3102   -1430.5579    2046.3149    81.433211 
   80400    383.20554    -101.0302   0.34673242   -100.68346   -5274.8077    4.3477739    4.3477739    4.3477739   -5274.8077   -5825.2987   -3631.9214    -6367.203    1370.5848    5501.0608    2255.6852    82.186568 
   80500    418.90786   -101.06347   0.37903664   -100.68443   -2321.5239     4.339429     4.339429     4.339429   -2321.5239   -12163.798    -4546.716    9745.9417    9597.9311   -8876.5266     4095.775    81.714245 
   80600      374.513   -101.02247   0.33886723    -100.6836    1830.7008    4.3393357    4.3393357    4.3393357    1830.7008   -2596.9037    5269.0079    2819.9982   -2589.1787    8073.4264    730.68649    81.708972 
   80700    389.60664   -101.03701   0.35252428   -100.68449   -9942.6484    4.3469572    4.3469572    4.3469572   -9942.6484   -12441.897    -17778.13    392.08177    9445.6467   -4432.3581       2688.8    82.140265 
   80800    415.26874   -101.06096   0.37574388   -100.68521    6243.9783    4.3348415    4.3348415    4.3348415    6243.9783   -3759.7795    16790.087    5701.6268   -669.41502    2818.8179   -794.76704    81.455361 
   80900    478.19026   -101.11664    0.4326766   -100.68396   -7799.4519    4.3475158    4.3475158    4.3475158   -7799.4519   -10017.323   -14347.942    966.90889    5909.5418    4677.0892    2632.7012    82.171935 
   81000    285.88442   -100.94408   0.25867423    -100.6854    7313.6985    4.3377048    4.3377048    4.3377048    7313.6985   -5172.4566    14989.357    12124.195    5009.3609   -4709.2186    190.26635     81.61688 
   81100    472.88257   -101.11141   0.42787409   -100.68354    761.43943    4.3420055    4.3420055    4.3420055    761.43943   -2349.2756   -1273.0995    5906.6934    2037.8322    8869.0324     3145.361    81.859882 
   81200    328.44627   -100.98261   0.29718509   -100.68542    2495.1603    4.3441174    4.3441174    4.3441174    2495.1603   -9746.5436    1480.8638    15751.161    9228.3498    -7295.351    841.35631    81.979383 
   81300    427.42101   -101.07003   0.38673951   -100.68329    3298.5801    4.3366878    4.3366878    4.3366878    3298.5801   -1065.4582    7652.7609    3308.4377   -1339.8956    8943.9451    184.14935    81.559486 
   81400    355.19237   -101.00629   0.32138552    -100.6849   -5867.3803    4.3474934    4.3474934    4.3474934   -5867.3803   -7766.6776   -10067.723    232.25972    9773.6341   -2112.1511    84.018425    82.170662 
   81500    526.31967   -101.15936   0.47622509   -100.68314    20.417388    4.3364121    4.3364121    4.3364121    20.417388   -6763.1919    7589.0554   -764.61134   -613.01903    3037.8346   -3207.3522    81.543929 
   81600    326.84234   -100.97978   0.29573381   -100.68405   -4031.5086    4.3444538    4.3444538    4.3444538   -4031.5086   -3389.4101   -10077.551     1372.435     6821.261    5049.8984     1547.077    81.998433 
   81700    423.10892   -101.06683   0.38283785   -100.68399   -4931.8936    4.3429693    4.3429693    4.3429693   -4931.8936   -7785.8013   -3869.7522   -3140.1273    5109.1435   -5603.5014   -3814.4049    81.914404 
   81800     401.6657   -101.04743   0.36343556   -100.68399    8928.4024    4.3359987    4.3359987    4.3359987    8928.4024    1.2056189    10250.417    16533.585    1549.7125    6261.8717    3407.2957    81.520612 
   81900     358.1439   -101.00984   0.32405613   -100.68579   -8135.9659    4.3490618    4.3490618    4.3490618   -8135.9659   -9692.3485   -17008.019    2292.4697    10974.031   -5152.9366    -4062.493    82.259627 
   82000    383.17542   -101.03023   0.34670517   -100.68352    12239.591    4.3345225    4.3345225    4.3345225    12239.591    2095.8078    23339.764    11283.201   -2537.5053   -726.81174    3079.3125    81.437381 
   82100    452.28454   -101.09345   0.40923656   -100.68421   -7605.2682     4.345929     4.345929     4.345929   -7605.2682   -10225.217   -15731.919    3141.3317    11617.513    2742.8298   -4866.4732    82.081989 
   82200    419.75399   -101.06268   0.37980223   -100.68288    3661.1632    4.3411472    4.3411472    4.3411472    3661.1632   -4625.8784    14834.254     775.1143   -1261.6746   -8335.9347    451.62207    81.811344 
   82300    394.84298   -101.04068   0.35726222   -100.68342   -788.29772    4.3381056    4.3381056    4.3381056   -788.29772   -2917.7595   -3964.2816     4517.148    7207.3879    5239.3538   -2458.6267    81.639502 
   82400    375.04637   -101.02476   0.33934984   -100.68541   -3873.7763    4.3475273    4.3475273    4.3475273   -3873.7763    -9825.661    438.12453   -2233.7923    5175.3974   -9897.9747    561.17234    82.172586 
   82500    458.31637   -101.09876   0.41469428   -100.68407    7243.3789    4.3340425    4.3340425    4.3340425    7243.3789   -1057.1505    6964.8801    15822.407    1012.5973   -744.08099    583.39819    81.410328 
   82600    261.36688   -100.92212   0.23649025   -100.68563   -8570.2597    4.3485739    4.3485739    4.3485739   -8570.2597   -8634.7837   -11740.553   -5335.4424    11640.431   -4837.5088    840.03909    82.231944 
   82700    482.66106   -101.11943   0.43672187   -100.68271    5537.0781    4.3363895    4.3363895    4.3363895    5537.0781   -1558.5987    10441.475    7728.3584    -3939.227    -6559.044   -73.702968    81.542659 
   82800    405.69511   -101.05125   0.36708146   -100.68417   -5272.7054    4.3432206    4.3432206    4.3432206   -5272.7054    -11107.51    -10798.63    6088.0235    14411.549    3574.7462   -676.26554    81.928627 
   82900    413.91392   -101.05799   0.37451802   -100.68347   -2251.7357    4.3436526    4.3436526    4.3436526   -2251.7357   -5445.8214    955.68056   -2265.0662   -4199.8767   -9992.9061    298.92138    81.953077 
   83000    391.98711   -101.03909   0.35467818   -100.68441    4556.4196    4.3364623    4.3364623    4.3364623    4556.4196   -6153.9891    6099.2092    13724.039    10985.406    6567.1775   -2802.7196    81.546763 
   83100    431.78885   -101.07611   0.39069163   -100.68542   -5060.6658    4.3469677    4.3469677    4.3469677   -5060.6658   -12400.632   -6636.4345    3855.0691    3486.2341   -9632.8493    3750.7668    82.140862 
   83200    359.28245   -101.00911   0.32508631   -100.68403    7844.9861    4.3373498    4.3373498    4.3373498    7844.9861   -2262.8591    15984.519    9813.2982    3700.4929    1071.2063   -3112.3324    81.596841 
   83300    335.20002    -100.9881   0.30329602    -100.6848   -6209.5258    4.3426526    4.3426526    4.3426526   -6209.5258   -8793.2011   -8806.5335    -1028.843    13649.592   -2647.9851    4125.8007    81.896485 
   83400    479.77703   -101.11753   0.43411234   -100.68342    404.64488    4.3435186    4.3435186    4.3435186    404.64488   -7149.6857    13694.725   -5331.1044   -2996.9043   -6402.9091   -3176.9527    81.945491 
   83500    389.21448   -101.03689   0.35216944   -100.68472   -2466.2147    4.3373573    4.3373573    4.3373573   -2466.2147   -7072.8414   -8023.7204    7697.9176    17403.856    5320.4144    2434.1405    81.597262 
   83600    375.34029   -101.02484   0.33961578   -100.68522    -6589.363    4.3462414    4.3462414    4.3462414    -6589.363   -9502.8256     1970.309   -12235.572   -3849.7819   -8428.8127    -4342.554    82.099695 
   83700    448.07659   -101.09032   0.40542912   -100.68489    2728.0983    4.3378811    4.3378811    4.3378811    2728.0983   -9409.8726    -3392.558    20986.725     13907.83    2846.0528    2437.4714    81.626832 
   83800    411.91474   -101.05722   0.37270912   -100.68451   -4757.6048    4.3433717    4.3433717    4.3433717   -4757.6048   -11610.571   -3674.0808    1011.8377    2355.0678    -4588.443   -2386.9773    81.937175 
   83900    322.66738   -100.97576   0.29195623   -100.68381    2903.1924    4.3416352    4.3416352    4.3416352    2903.1924   -6442.8643    2835.4094    12317.032    6792.6714   -7718.7624    2515.3623     81.83894 
   84000     410.3031   -101.05612   0.37125087   -100.68487    613.59806    4.3382548    4.3382548    4.3382548    613.59806   -5743.9204      2579.08    5005.6345    11605.242    1946.5627   -830.55971    81.647925 
   84100    458.42564   -101.09891   0.41479315   -100.68412   -3889.9814    4.3469635    4.3469635    4.3469635   -3889.9814   -8693.5307    1596.0005    -4572.414    -1160.808   -12329.779   -854.63327    82.140618 
   84200    327.34813   -100.98096   0.29619147   -100.68477    3580.0311    4.3347104    4.3347104    4.3347104    3580.0311   -1463.8323    4888.0727    7315.8529    15735.071    4917.5557   -300.00017    81.447967 
   84300    437.04227   -101.07988   0.39544503   -100.68443   -9947.0316    4.3474956    4.3474956    4.3474956   -9947.0316   -11642.554   -1619.3409     -16579.2   -3794.8931   -10861.675   -987.92432    82.170787 
   84400     420.0534   -101.06417   0.38007314   -100.68409    3923.0019    4.3380917    4.3380917    4.3380917    3923.0019   -8736.2393    4725.4711    15779.774    11606.957     404.1079   -245.35624    81.638717 
   84500    399.45253   -101.04473   0.36143304    -100.6833   -5851.9971    4.3418865    4.3418865    4.3418865   -5851.9971   -8081.2256   -5347.4167   -4127.3488     2624.256   -6075.1209    975.37518    81.853152 
   84600    344.12299   -100.99588   0.31136971   -100.68451   -373.48589    4.3437147    4.3437147    4.3437147   -373.48589   -7781.0873    2636.2829    4024.3468     3705.938    -8905.438    819.67735    81.956587 
   84700    467.44084   -101.10699   0.42295029   -100.68404     2044.704    4.3383174    4.3383174    4.3383174     2044.704   -2459.2753   -3035.1402    11628.527    11442.346    1239.5301   -1133.0911    81.651464 
   84800    388.90572   -101.03617   0.35189007   -100.68428   -2268.1552    4.3442208    4.3442208    4.3442208   -2268.1552   -4040.0334    439.23149   -3203.6637    -2113.886   -12183.146    1365.2422     81.98524 
   84900    321.95641   -100.97633   0.29131292   -100.68502    2073.0219    4.3399854    4.3399854    4.3399854    2073.0219   -4593.6483   -4389.3502    15202.064    14927.228    5379.1368   -3690.4668    81.745678 
   85000    494.08526   -101.13031   0.44705872   -100.68325   -1663.1178    4.3419616    4.3419616    4.3419616   -1663.1178   -6093.0582    5385.0592   -4281.3544   -2278.5999   -9036.1454    2467.9804    81.857397 
   85100    363.86448   -101.01514   0.32923223    -100.6859   -1578.8731    4.3418318    4.3418318    4.3418318   -1578.8731   -12289.375   -4596.4195    12149.175    11174.464   -631.17705   -3834.0071    81.850059 
   85200    389.55003   -101.03693   0.35247305   -100.68446   -1485.9588    4.3407307    4.3407307    4.3407307   -1485.9588   -3867.8003    4971.0901   -5561.1662    4204.9635   -3388.1633    3054.9217    81.787799 
   85300    425.41702   -101.07074   0.38492626   -100.68581   -3958.2663    4.3418692    4.3418692    4.3418692   -3958.2663   -6916.2337    466.43689    -5425.002    4592.0999   -6621.9283    -3482.357    81.852171 
   85400    390.27435   -101.03845   0.35312843   -100.68532     849.8449    4.3425024    4.3425024    4.3425024     849.8449   -3747.5808   -1035.1907    7332.3062        13243    912.52605    2215.6043    81.887989 
   85500    424.08886   -101.06695   0.38372451   -100.68322   -1607.0186    4.3398364    4.3398364    4.3398364   -1607.0186    3529.6971    4365.2686   -12716.021   -2190.9136   -4520.3481   -4207.6584    81.737261 
   85600    275.68231   -100.93585   0.24944314    -100.6864    1878.9832    4.3441926    4.3441926    4.3441926    1878.9832   -8143.9508   -4755.6133    18536.514    18161.716    1513.2171    721.93585    81.983644 
   85700     582.7484   -101.20959     0.527283   -100.68231    3456.8162     4.338605     4.338605     4.338605    3456.8162     1088.862    5484.1745     3797.412   -4916.7961   -91.025553   -3032.4377    81.667704 
   85800    213.91869   -100.88122   0.19355813   -100.68766   -718.54489    4.3439262    4.3439262    4.3439262   -718.54489   -13855.207   -8221.6812    19921.254     15946.47   -4424.9211   -849.89604    81.968564 
   85900    526.15136   -101.15948    0.4760728   -100.68341    2042.0873    4.3398888    4.3398888    4.3398888    2042.0873   -566.87096    3710.7404    2982.3924    1148.1418    2129.6811   -1396.9629    81.740218 
   86000    350.24732   -101.00318   0.31691113   -100.68627   -554.84689    4.3417186    4.3417186    4.3417186   -554.84689   -7906.5418   -351.56399    6593.5651    6253.8793   -7521.1068   -272.50771    81.843657 
   86100     424.3497   -101.06933   0.38396052   -100.68537   -2387.0097    4.3424247    4.3424247    4.3424247   -2387.0097   -3888.3049   -6120.2858    2847.5615    13083.727    3641.7044   -707.55449    81.883595 
   86200    372.58835   -101.02115   0.33712577   -100.68403    1437.6521    4.3402589    4.3402589    4.3402589    1437.6521    3679.4833      9061.71   -8428.2371   -3650.7797   -3970.2352   -1081.8771    81.761133 
   86300    342.98305   -100.99856   0.31033827   -100.68822    -4922.515    4.3425869    4.3425869    4.3425869    -4922.515   -13064.722   -9435.8004    7732.9776    20494.393    1661.0391   -572.70926    81.892771 
   86400    520.66061   -101.15427   0.47110466   -100.68317    5297.2525    4.3412564    4.3412564    4.3412564    5297.2525    2774.4372    8251.5537    4865.7665   -6774.1835   -985.35187   -2266.3212    81.817517 
   86500    253.44981   -100.91717   0.22932671   -100.68784   -7223.9191    4.3416001    4.3416001    4.3416001   -7223.9191   -16245.854    -6383.251    957.34818    18237.881    -4521.346    884.07135    81.836956 
   86600    502.52079   -101.13855   0.45469137   -100.68386    7296.8799    4.3425349    4.3425349    4.3425349    7296.8799    2059.4489    4087.1536    15744.037   -910.52608    418.65952   -1285.6474    81.889827 
   86700    427.64688   -101.07346   0.38694389   -100.68651   -4748.6163    4.3407298    4.3407298    4.3407298   -4748.6163   -9742.7309   -5119.8192    616.70116    9101.6952   -7720.4833    2622.8262    81.787747 
   86800    290.19433   -100.95128   0.26257393   -100.68871    6439.9585    4.3415557    4.3415557    4.3415557    6439.9585    1752.1674   -3312.7619     20880.47    11370.979    2439.5042   -834.65627    81.834446 
   86900    534.91975   -101.16925   0.48400663   -100.68525   -2496.2152    4.3427352    4.3427352    4.3427352   -2496.2152   -1608.0566   -511.41505   -5369.1739   -1098.3201   -5672.3942    3720.6516    81.901158 
   87000    218.35692   -100.88869   0.19757393   -100.69112    1457.8046    4.3386241    4.3386241    4.3386241    1457.8046   -11399.515   -8125.4053    23898.335    21225.112   -154.29382   -1823.6686    81.668782 
   87100    636.93757   -101.25904   0.57631449   -100.68273   -3743.3339    4.3455411    4.3455411    4.3455411   -3743.3339   -1013.8238   -2137.2037   -8078.9742   -6896.0457   -3382.5101    4141.1797    82.060015 
   87200    125.83521   -100.80318   0.11385834   -100.68933   -3554.8382     4.337632     4.337632     4.337632   -3554.8382   -13140.599   -2737.8412    5213.9259    20758.974   -4915.1198   -1254.6733     81.61277 
   87300    646.87993    -101.2702   0.58531056   -100.68489   -3461.7453    4.3446792    4.3446792    4.3446792   -3461.7453   -1438.4176   -7073.4274   -1873.3908   -2580.9387   -2865.4457    3923.9438    82.011197 
   87400    295.17554   -100.95642   0.26708103   -100.68934   -1094.3684    4.3405462    4.3405462    4.3405462   -1094.3684   -4234.6441   -3603.8602    4555.3993    11655.435   -2139.7478    627.43291     81.77737 
   87500    359.86167     -101.015    0.3256104   -100.68939   -2835.2774     4.341361     4.341361     4.341361   -2835.2774   -2405.0099   -7552.1122    1451.2897    10282.207   -4502.1708     2503.518    81.823436 
   87600    496.09152   -101.13383   0.44887403   -100.68495    5704.2287    4.3433975    4.3433975    4.3433975    5704.2287    1038.4152   -237.22361    16311.495    1239.0742    4078.5991   -294.91068    81.938634 
   87700    276.38669   -100.93876   0.25008048   -100.68868   -3339.4414    4.3393066    4.3393066    4.3393066   -3339.4414   -14873.439   -8898.2851      13753.4    19730.106   -6001.3968    266.14411    81.707326 
   87800    517.43395   -101.15027   0.46818511   -100.68209    7380.4198    4.3435178    4.3435178    4.3435178    7380.4198    4614.3061    3721.8245    13805.129    -5539.938    3120.4479   -2020.4619    81.945447 
   87900    254.45285   -100.91918   0.23023429   -100.68895   -7011.6793    4.3402444    4.3402444    4.3402444   -7011.6793   -16120.139    -9151.438    4236.5391    20538.263   -3407.6976   -800.00053    81.760316 
   88000    547.43718   -101.18173   0.49533267    -100.6864    2284.1575    4.3418714    4.3418714    4.3418714    2284.1575    3112.7916   -3090.2668    6829.9475   -3078.5719   -152.81834   -1134.7895    81.852299 
   88100    364.58446   -101.01782   0.32988368   -100.68794   -6491.1053    4.3423881    4.3423881    4.3423881   -6491.1053   -6278.3929   -8767.8729   -4427.0502    13981.847    1835.4209   -263.81233    81.881524 
   88200    298.78866   -100.95868   0.27035026   -100.68833   -4188.6206    4.3408589    4.3408589    4.3408589   -4188.6206    -3609.083   -4516.4238   -4440.3549    7775.1059    -878.7679   -1769.6868    81.795045 
   88300    591.27351    -101.2181    0.5349967    -100.6831    -1131.734    4.3431648    4.3431648    4.3431648    -1131.734    -3723.774   -6296.5056    6625.0775    4321.1808    4237.2486   -1595.2901    81.925467 
   88400    199.50802   -100.86831   0.18051905   -100.68779   -4357.8291    4.3406859    4.3406859    4.3406859   -4357.8291   -14408.076    -3021.642    4356.2306    17459.534   -3492.7882   -2721.4168     81.78527 
   88500    515.11624   -101.14958     0.466088   -100.68349    4029.4686    4.3410364    4.3410364    4.3410364    4029.4686    1993.7468    4742.7888    5351.8703   -4555.6332    3494.6919   -1942.7656    81.805082 
   88600    307.70607   -100.96637   0.27841892   -100.68795   -2037.2847    4.3439668    4.3439668    4.3439668   -2037.2847   -16275.496   -5433.7389     15597.38    19308.876   -5121.2829    534.76842    81.970858 
   88700    515.25461   -101.15004    0.4662132   -100.68383    4260.3083    4.3382672    4.3382672    4.3382672    4260.3083    3213.2821    4077.5055    5490.1374   -4610.8755    1876.7511   -544.02379    81.648627 
   88800    309.36022   -100.96511   0.27991563   -100.68519   -285.60879    4.3444694    4.3444694    4.3444694   -285.60879   -7183.9578   -4558.0466    10885.178    14467.361   -1469.5115     3864.565    81.999315 
   88900    426.50407   -101.07115   0.38590984   -100.68524    -829.4749    4.3395244    4.3395244    4.3395244    -829.4749   -5588.9182    411.91876    2688.5747    4722.0745   -1790.6504   -1952.6022     81.71963 
   89000     469.7419   -101.11006   0.42503235   -100.68503     3097.832     4.341598     4.341598     4.341598     3097.832   -2295.4244     1171.025    10417.895     4119.133    1536.3313    4248.9723    81.836833 
   89100    251.82831   -100.91544   0.22785955   -100.68758    -6862.587     4.343343     4.343343     4.343343    -6862.587   -14993.672   -1988.7601   -3605.3285    14053.228   -3748.5063    -3021.853    81.935552 
   89200    501.05721    -101.1379   0.45336709   -100.68453    2744.9794    4.3382459    4.3382459    4.3382459    2744.9794    2864.0914    10514.511    -5143.664    -4565.472    -2561.208    4468.0452    81.647423 
   89300    370.12694   -101.02103   0.33489864   -100.68613   -6934.4038    4.3462891    4.3462891    4.3462891   -6934.4038   -18064.107   -9048.6337    6309.5293    15721.685   -10.258878   -274.98335    82.102394 
   89400    462.47415   -101.10002   0.41845633   -100.68156    922.96247    4.3368246    4.3368246    4.3368246    922.96247    2811.1211    11062.854   -11105.087   -4338.5528   -7333.0524    4809.3006    81.567206 
   89500    340.96665   -100.99301   0.30851379   -100.68449    -3430.735    4.3458481    4.3458481    4.3458481    -3430.735    -11596.83   -9342.2451     10646.87    11898.275    4608.7683    1034.7342    82.077404 
   89600    488.84036   -101.12686   0.44231303   -100.68454    3360.2295    4.3381849    4.3381849    4.3381849    3360.2295   -6051.2303    9298.2772    6833.6414    4185.7789   -7898.3009    1824.7394     81.64398 
   89700    347.79811   -101.00126   0.31469503   -100.68656    4316.5229    4.3418745    4.3418745    4.3418745    4316.5229   -5433.1107    3619.9759    14762.704    3240.6438    2930.6472   -1713.9257    81.852472 
   89800    310.33919    -100.9676   0.28080142    -100.6868    356.21442    4.3433633    4.3433633    4.3433633    356.21442   -11608.852     7254.996     5422.499    12847.089   -3552.6989    1429.5027    81.936703 
   89900    531.68533   -101.16376   0.48108006   -100.68268    3978.9734    4.3377143    4.3377143    4.3377143    3978.9734   -1367.2111    9055.3394    4248.7919    -4131.986   -3272.2417   -1764.5689    81.617413 
   90000    311.26314   -100.96685   0.28163743   -100.68521    -4121.926    4.3450135    4.3450135    4.3450135    -4121.926   -14263.831   -346.78935    2244.8426    16928.716    2134.1354    1533.2635    82.030129 
   90100    482.43777   -101.11924   0.43651984   -100.68272   -884.08993    4.3387865    4.3387865    4.3387865   -884.08993    723.91814    9497.2455   -12873.433   -3945.4985   -7392.0246    712.05082    81.677952 
   90200    369.11459   -101.02111   0.33398264   -100.68713   -1468.7545    4.3428359    4.3428359    4.3428359   -1468.7545   -10300.512    1121.7502    4772.4981    14735.269    5071.6239    325.23275    81.906857 
   90300    425.39038   -101.07132   0.38490216   -100.68642   -86.570764    4.3417522    4.3417522    4.3417522   -86.570764   -6834.4944    4567.8232    2006.9589    4680.6321   -6132.2435   -171.05329    81.845553 
   90400    348.39367   -101.00079   0.31523392   -100.68555    2380.5836    4.3397275    4.3397275    4.3397275    2380.5836   -4018.0846    12165.399   -1005.5639    6222.4443    3107.6676   -2799.9732    81.731109 
   90500    328.84657   -100.98315   0.29754729    -100.6856    1321.5947    4.3439053    4.3439053    4.3439053    1321.5947   -11912.175    1486.5661    14390.393     14528.98   -2410.6227    973.16186     81.96738 
   90600     531.5814   -101.16321   0.48098602   -100.68222    2328.7838    4.3378716    4.3378716    4.3378716    2328.7838   -4248.5423    11259.316   -24.422223   -3405.9427   -2030.1133   -2366.0435    81.626294 
   90700    279.30569   -100.93953   0.25272165   -100.68681   -1989.3591    4.3447312    4.3447312    4.3447312   -1989.3591   -13613.855   -3792.6702    11438.448    19765.755    943.07938    4190.6726    82.014139 
   90800    536.25759   -101.16939   0.48521713   -100.68417    245.90175    4.3390454    4.3390454    4.3390454    245.90175   -2348.8884    10492.871   -7406.2771   -6475.7842   -4944.8531   -2397.0945    81.692574 
   90900     342.8462   -100.99791   0.31021444    -100.6877    418.75188    4.3418112    4.3418112    4.3418112    418.75188   -14556.664    2804.5563    13008.364    17470.328    2573.3094    3246.4722    81.848894 
   91000     393.1349   -101.04083   0.35571672   -100.68512    611.85307    4.3429714    4.3429714    4.3429714    611.85307    -4666.307    12369.347   -5867.4809    404.42992   -4193.8121    -3235.127    81.914522 
   91100     375.5851   -101.02324   0.33983729    -100.6834    1566.4087    4.3387223    4.3387223    4.3387223    1566.4087   -6847.6638    10387.483    1159.4073    8002.2343    188.91524   -3.0373085    81.674328 
   91200    377.11685   -101.02655   0.34122325   -100.68533   -2488.9148    4.3439464    4.3439464    4.3439464   -2488.9148    -11534.96   -1774.5371    5842.7525     10706.34     1004.182    -1608.798    81.969705 
   91300    463.40002   -101.10271   0.41929408   -100.68342    63.972273    4.3393707    4.3393707    4.3393707    63.972273   -928.20851    6761.0789   -5640.9536   -3025.1553   -6829.3386    1456.8194    81.710952 
   91400    336.53463   -100.99213    0.3045036   -100.68763   -6544.6774     4.343986     4.343986     4.343986   -6544.6774    -13354.84   -7920.0404     1640.848    16215.668    5744.8517   -137.85258    81.971948 
   91500    511.46068   -101.14662   0.46278037   -100.68384     3061.355    4.3396194    4.3396194    4.3396194     3061.355   -826.44706    7214.8399     2795.672   -5446.6048   -10029.115    2098.2649    81.724998 
   91600    338.00116   -100.99204   0.30583056   -100.68621   -7032.2213    4.3435302    4.3435302    4.3435302   -7032.2213   -17546.923   -6809.7028     3259.962    14008.335    3807.3414   -1784.8391    81.946145 
   91700    397.77697   -101.04407   0.35991696   -100.68415    6486.9232    4.3403539    4.3403539    4.3403539    6486.9232   -2125.3129    12339.268    9246.8142    2225.3098   -4841.7394    1057.7659    81.766505 
   91800    425.24094   -101.06882   0.38476694   -100.68406   -3889.3118    4.3418916    4.3418916    4.3418916   -3889.3118   -13815.217   -1161.4517    3308.7331    6288.1998   -3079.7497   -2200.4864     81.85344 
   91900    306.35881   -100.96432   0.27719989   -100.68712    3111.2766    4.3416968    4.3416968    4.3416968    3111.2766    -9994.755      3749.17    15579.415     11581.05    3173.1375    1796.4022     81.84242 
   92000    542.86569   -101.17478   0.49119628   -100.68359   -1444.2026     4.340706     4.340706     4.340706   -1444.2026   -635.68198    2939.0777   -6636.0036   -1029.8256   -8136.8677     901.3941    81.786406 
   92100    225.26501     -100.893   0.20382451   -100.68917   -2555.6797    4.3426761    4.3426761    4.3426761   -2555.6797    -17359.55    3552.8493    6139.6619    16249.103    5077.4933    1469.5743    81.897813 
   92200    602.33089   -101.22764   0.54500164   -100.68264    1080.7341    4.3405891    4.3405891    4.3405891    1080.7341    2206.7899    3617.4635   -2582.0511   -2074.7312   -7247.6923    2090.4151    81.779799 
   92300    248.70014   -100.91232   0.22502911   -100.68729   -6430.0693    4.3429425    4.3429425    4.3429425   -6430.0693   -14594.216   -3335.3727   -1360.6196    16446.627    2401.8214   -1345.7328    81.912887 
   92400    504.85251   -101.14178   0.45680116   -100.68497    1542.2587    4.3398563    4.3398563    4.3398563    1542.2587   -789.82352   -408.63539    5825.2351     3911.986   -2675.1219    2209.4088    81.738383 
   92500    373.80896   -101.02414    0.3382302   -100.68591   -3806.1416    4.3445048    4.3445048    4.3445048   -3806.1416   -8939.9744   -7402.7839    4924.3335    8107.0899    788.15417   -2786.0488    82.001321 
   92600    351.99993   -101.00632   0.31849694   -100.68782    48.727911     4.339039     4.339039     4.339039    48.727911   -5353.9744   -6569.9671    12070.125    12325.712    2721.2695    3527.1368    81.692215 
   92700    457.11622   -101.09717   0.41360836   -100.68356    6159.4971    4.3426994    4.3426994    4.3426994    6159.4971    675.94867    11155.901    6646.6417   -3403.9553    -84.62057    629.07851    81.899135 
   92800    266.78601   -100.92925   0.24139358   -100.68785    -5495.463     4.341782     4.341782     4.341782    -5495.463   -18559.163   -8388.5791    10461.353    18996.616    4017.3871    2428.2344    81.847242 
   92900    523.88105    -101.1567   0.47401858   -100.68268    9950.9768    4.3403736    4.3403736    4.3403736    9950.9768    5037.6907    18197.827     6617.413   -7413.2722     668.8427    984.65661    81.767616 
   93000    329.40469   -100.98513   0.29805229   -100.68708   -10144.474    4.3436566    4.3436566    4.3436566   -10144.474   -16981.415   -11229.831   -2222.1765    18580.818    2074.0382    169.91196    81.953301 
   93100    448.43468   -101.09204   0.40575312   -100.68628     4636.858    4.3392081    4.3392081    4.3392081     4636.858   -1772.3017    11890.263    3792.6124   -1123.7599    4036.0146   -761.14391    81.701764 
   93200    454.81767   -101.09763   0.41152859   -100.68611   -4582.9749     4.343659     4.343659     4.343659   -4582.9749   -3485.6039   -10271.617    8.2964276    7694.4727    263.21247    2077.4803    81.953436 
   93300    282.64487   -100.94404   0.25574301   -100.68829   -995.82427    4.3400696    4.3400696    4.3400696   -995.82427    -7097.972      3443.42    667.07919    9662.6946    6365.6892   -1078.0743    81.750435 
   93400    502.09998   -101.13736   0.45431062   -100.68305    3101.7538    4.3422991    4.3422991    4.3422991    3101.7538     1751.237    299.27033    7254.7541   -4270.9044    2052.3619    4398.9297    81.876485 
   93500    285.57363   -100.94572   0.25839302   -100.68733   -5363.7212    4.3415016    4.3415016    4.3415016   -5363.7212   -12462.236   -13408.255    9779.3271    20444.257    3671.5517   -1116.6938    81.831382 
   93600    497.89377   -101.13399   0.45050475   -100.68348    6354.6685    4.3407661    4.3407661    4.3407661    6354.6685    2885.0121     9723.212    6455.7816   -8191.1725    4644.4925    1251.9215    81.789801 
   93700    311.43363   -100.96908   0.28179169   -100.68729   -4885.3601    4.3433246    4.3433246    4.3433246   -4885.3601   -14486.727   -10025.557    9856.2038     20753.63   -2179.2269   -881.10442    81.934511 
   93800    452.12209    -101.0946   0.40908957   -100.68552    5432.5287     4.339484     4.339484     4.339484    5432.5287   -2750.6991    14771.566    4276.7194   -3770.3708    5902.4677   -881.16514    81.717349 
   93900    415.56837   -101.06107     0.376015   -100.68505   -1247.9886    4.3433512    4.3433512    4.3433512   -1247.9886   -6896.8754    186.03277     2966.877    10953.717   -3978.3558    1204.3927    81.936018 
   94000    312.39365   -100.96867   0.28266034   -100.68601   -1116.0689    4.3405454    4.3405454    4.3405454   -1116.0689    -10733.85      9289.85   -1904.2065    7113.5854    5787.0915   -121.88166    81.777329 
   94100     554.6961   -101.18491   0.50190069   -100.68301   -263.67952    4.3413485    4.3413485    4.3413485   -263.67952   -2710.2144    345.03762    1574.1382    -190.3845   -1366.2471    2992.4646    81.822727 
   94200    279.55802   -100.94002   0.25294997   -100.68707   -4261.3184    4.3425045    4.3425045    4.3425045   -4261.3184   -11865.747   -4732.5657    3814.3576    17422.916    2908.3904    -1242.037    81.888105 
   94300    482.09737   -101.11998   0.43621183   -100.68377   -110.75616    4.3402485    4.3402485    4.3402485   -110.75616   -5638.8388    8697.8641   -3391.2938   -6453.2227    1300.0014    1689.0917    81.760547 
   94400    282.91824   -100.94314   0.25599037   -100.68715   -236.22263    4.3427245    4.3427245    4.3427245   -236.22263   -9675.0058    -5081.343    14047.681    16555.233   -922.42737   -2440.2284    81.900555 
   94500    505.89925   -101.14193   0.45774827   -100.68418   -1682.0331    4.3413732    4.3413732    4.3413732   -1682.0331   -6845.7229    5066.3842   -3266.7605   -3373.9049    3951.6982    1377.2633    81.824126 
   94600    296.22008   -100.95375   0.26802616   -100.68573    2555.0333    4.3408184    4.3408184    4.3408184    2555.0333    -5827.012    3205.7931    10286.319    7692.5588   -2888.5258    1569.8453     81.79276 
   94700    477.07892   -101.11625   0.43167103   -100.68457   -5426.5927    4.3431992    4.3431992    4.3431992   -5426.5927   -11934.027   -2381.7476   -1964.0039    5651.6938       5237.4    2135.9196    81.927417 
   94800     426.0001   -101.06916   0.38545384    -100.6837    3706.7231    4.3409926    4.3409926    4.3409926    3706.7231    -3144.236    13379.487    884.91853   -709.34528   -1079.4862    4095.9369    81.802606 
   94900    351.22961   -101.00295   0.31779993   -100.68515   -4574.0792    4.3405759    4.3405759    4.3405759   -4574.0792   -15350.064   -1483.0216    3110.8476    13049.134     3892.523    818.21511    81.779049 
   95000    428.98142   -101.07215    0.3881514     -100.684    850.73584    4.3436013    4.3436013    4.3436013    850.73584   -8431.2309    19441.479   -8458.0411   -4928.6953     3124.478    227.90042    81.950169 
   95100    411.89684   -101.05885   0.37269292   -100.68615   -1890.5369    4.3381712    4.3381712    4.3381712   -1890.5369   -10306.775   -7910.0778    12545.242    12168.554   -53.374025    2260.1913    81.643208 
   95200     364.8859   -101.01489   0.33015643   -100.68474    -5569.603    4.3465625    4.3465625    4.3465625    -5569.603   -15915.873    9933.6582   -10726.594   -625.59903    5388.3698   -694.41697    82.117891 
   95300    396.47139   -101.04354   0.35873564    -100.6848    1968.0018    4.3354907    4.3354907    4.3354907    1968.0018   -4846.6784    2211.7913    8538.8925    5009.7521   -1238.7949    4222.6706    81.491962 
   95400    395.08795   -101.04271   0.35748388   -100.68522   -6499.1763    4.3477182    4.3477182    4.3477182   -6499.1763   -16517.654    1810.3431   -4790.2179    9216.2463    3810.4873    1176.0193    82.183412 
   95500    408.41853   -101.05308   0.36954567   -100.68354    3027.3087    4.3370936    4.3370936    4.3370936    3027.3087   -4395.2276     15952.01   -2474.8562   -3059.9772    2108.5386   -52.193301    81.582384 
   95600    352.60793   -101.00452   0.31904706   -100.68547   -4200.7443    4.3431621    4.3431621    4.3431621   -4200.7443   -12218.748   -2360.5021    1977.0171     16063.62    400.14902    1983.9728    81.925314 
   95700    506.82304   -101.14224   0.45858414   -100.68366   -1356.4249    4.3430525    4.3430525    4.3430525   -1356.4249   -7101.8421    13343.421   -10310.853   -6178.4472    6482.0918   -5801.7548    81.919111 
   95800    367.25976    -101.0173   0.33230435   -100.68499    2752.7867    4.3373177    4.3373177    4.3373177    2752.7867   -5977.1564    1311.2381    12924.278    14063.477   -1454.4316    1693.6434    81.595027 
   95900    379.78728   -101.02842   0.34363951   -100.68478   -3883.3602    4.3467506    4.3467506    4.3467506   -3883.3602   -14797.513    15393.211   -12245.779   -632.94649    7354.7476   -3175.6114     82.12855 
   96000    422.67977   -101.06671   0.38244954   -100.68427    3718.6437    4.3365225    4.3365225    4.3365225    3718.6437   -3203.0592    2661.3598    11697.631    7318.3601   -941.77172   -1100.5219    81.550157 
   96100    342.89705   -100.99586   0.31026045    -100.6856   -4418.1259    4.3441925    4.3441925    4.3441925   -4418.1259   -15314.319    4117.1031   -2057.1623    7387.1357    4725.6742    301.16289    81.983639 
   96200    428.09288   -101.07114   0.38734743   -100.68379   -5462.5563    4.3420382    4.3420382    4.3420382   -5462.5563   -8084.0547    1303.2391   -9606.8534    1087.8311    1507.1963   -5676.2228    81.861728 
   96300    399.46062   -101.04626   0.36144036   -100.68482   -1487.7974    4.3381556    4.3381556    4.3381556   -1487.7974   -6600.7639   -4055.1072    6192.4788    9908.1386    359.27352   -395.34307     81.64233 
   96400    436.11022   -101.07878   0.39460169   -100.68418   -10051.094    4.3469259    4.3469259    4.3469259   -10051.094    -12897.79    -368.9964   -16886.495   -1753.1977    7056.0193   -6324.3501    82.138488 
   96500    368.34036   -101.01747    0.3332821   -100.68419    3967.6099    4.3358824    4.3358824    4.3358824    3967.6099   -4782.2639    10305.024     6380.069    7327.1666   -3529.3798    260.16861    81.514054 
   96600    402.90566   -101.04941    0.3645575   -100.68485   -4771.7417    4.3461346    4.3461346    4.3461346   -4771.7417   -10581.782    2245.8813   -5979.3245    392.11237    10736.138   -2049.5099    82.093643 
   96700    391.62987   -101.03858   0.35435493   -100.68422    4032.0608    4.3387728    4.3387728    4.3387728    4032.0608   -5335.3721     10603.14    6828.4145    3175.5978   -3626.9032    -415.1784    81.677177 
   96800      386.166   -101.03464   0.34941112   -100.68523    1389.7715    4.3407861    4.3407861    4.3407861    1389.7715   -6356.5038    1753.0063     8772.812    4088.0586    6434.5238    51.359888    81.790931 
   96900    416.07046    -101.0609    0.3764693   -100.68443   -3363.9232    4.3447309    4.3447309    4.3447309   -3363.9232   -5988.3329    5263.5429   -9366.9795    -772.1695    2709.0585   -4630.7927    82.014124 
   97000    389.95112   -101.03689   0.35283597   -100.68405    4429.3575    4.3358533    4.3358533    4.3358533    4429.3575   -344.53886   -2314.2534    15946.865    4807.6149   -591.74571    496.39709    81.512411 
   97100    406.17439    -101.0522   0.36751513   -100.68468   -7939.6538    4.3473837    4.3473837    4.3473837   -7939.6538   -11424.527    6897.8467   -19292.281   -1838.5992    9159.2652   -3168.2062    82.164446 
   97200     394.5191    -101.0411   0.35696917   -100.68414    2424.3593    4.3363296    4.3363296    4.3363296    2424.3593    585.17321    -1320.503    8008.4076    2996.6404   -2910.7148    514.72572    81.539275 
   97300    384.86115   -101.03312   0.34823046   -100.68489   -7744.7848    4.3447485    4.3447485    4.3447485   -7744.7848   -13360.905    -4308.414   -5565.0352     2327.393    10259.048    2196.6118    82.015119 
   97400    404.84056    -101.0504   0.36630824   -100.68409   -1041.2781    4.3410891    4.3410891    4.3410891   -1041.2781   -3696.7156   -2536.4197    3109.3011   -280.47514   -246.37986   -4838.4744    81.808059 
   97500    426.12931   -101.06965   0.38557076   -100.68408   -1662.1098     4.339019     4.339019     4.339019   -1662.1098   -10622.171   -1267.9433     6903.785    7419.9968    5677.9451    3329.4038    81.691086 
   97600    353.44069   -101.00422   0.31980057   -100.68442   -1295.4736    4.3452537    4.3452537    4.3452537   -1295.4736   -4285.0238    271.50365    127.09935   -3627.7324    4038.4033   -8313.8258    82.043735 
   97700    451.38562   -101.09222    0.4084232    -100.6838    1960.9126    4.3373012    4.3373012    4.3373012    1960.9126   -9062.1892     6456.248    8488.6789    8697.9027    1562.6602   -382.48152    81.594098 
   97800    371.46103   -101.02152   0.33610574   -100.68541    1254.4202    4.3443649    4.3443649    4.3443649    1254.4202   -4809.9691    11825.434   -3252.2043   -3418.4617    9266.4363   -2514.5039    81.993399 
   97900    411.07486   -101.05613   0.37194917   -100.68418    275.66635    4.3397453    4.3397453    4.3397453    275.66635   -4253.7244   -1967.4143    7048.1377    6985.2766   -1125.7581   -5243.2779    81.732112 
   98000    361.85595   -101.01317   0.32741487   -100.68576    880.21067    4.3409238    4.3409238    4.3409238    880.21067    -6644.022    2544.2695    6740.3845    1159.7783    10315.703    1725.4076    81.798718 
   98100    478.23606   -101.11679   0.43271804   -100.68407   -3360.6965    4.3429101    4.3429101    4.3429101   -3360.6965   -3409.2175   -4952.4102   -1720.4616    2924.7067    595.50141   -9106.0192    81.911053 
   98200    323.47311   -100.97755   0.29268527   -100.68486     -1280.87     4.339299     4.339299     4.339299     -1280.87   -5876.9803   -6189.3146    8223.6849     4941.578    4254.7456   -601.85358    81.706899 
   98300    448.91346   -101.09047   0.40618634   -100.68429   -3745.2672    4.3433463    4.3433463    4.3433463   -3745.2672    -5302.999    -656.1451   -5276.6575   -356.94642    5535.4568   -7606.4206     81.93574 
   98400    390.22084    -101.0379   0.35308002   -100.68482    -147.6129    4.3406407    4.3406407    4.3406407    -147.6129   -6383.0398      4643.76     1296.441    4925.0176    -1944.211   -2640.5682    81.782716 
   98500    411.22916   -101.05632   0.37208879   -100.68423    -1627.065       4.3417       4.3417       4.3417    -1627.065   -7558.2841    3204.3598   -527.27079   -1325.8139    9010.1418   -1200.6034    81.842603 
   98600    347.99484   -100.99956   0.31487305   -100.68469    1589.8259    4.3417261    4.3417261    4.3417261    1589.8259     -4308.74    2438.9737     6639.244    4035.0126   -2925.9471   -2425.2366    81.844078 
   98700    465.11181    -101.1056   0.42084294   -100.68476    108.24746    4.3397445    4.3397445    4.3397445    108.24746   -12496.981    4896.2883    7925.4352   -434.57828    4965.3863     715.7917    81.732066 
   98800    382.56002   -101.03048   0.34614835   -100.68433    3246.4344    4.3428525    4.3428525    4.3428525    3246.4344   -344.52061    3009.7046    7074.1194    2019.6689    1255.3978   -2512.9057    81.907795 
   98900    361.17199   -101.01206     0.326796   -100.68527   -2086.9055    4.3401715    4.3401715    4.3401715   -2086.9055   -12707.673   -1358.0937    7805.0499    992.64061   -2045.5309   -1264.1761    81.756194 
   99000    473.69545   -101.11283    0.4286096   -100.68422    3807.2956    4.3414613    4.3414613    4.3414613    3807.2956    548.35888    11227.931   -354.40329   -1005.4473    5606.6261    1047.1409    81.829105 
   99100    342.12189   -100.99554   0.30955907   -100.68598   -3962.9024    4.3423371    4.3423371    4.3423371   -3962.9024   -8844.9051   -2399.5082   -644.29377    2599.0972   -5789.7295    -1531.125    81.878637 
   99200    404.14023   -101.05005   0.36567457   -100.68438    1454.8957    4.3402976    4.3402976    4.3402976    1454.8957    -748.3896    1508.0654    3605.0113    -2176.198    4994.7911    6532.9651    81.763324 
   99300    419.91847   -101.06482   0.37995105   -100.68487   -2619.1174    4.3425141    4.3425141    4.3425141   -2619.1174    -4389.176   -5524.7574    2056.5811    2126.7267   -3283.9569   -762.95887    81.888648 
   99400    392.60227   -101.04005   0.35523478   -100.68482    -1574.743    4.3409789    4.3409789    4.3409789    -1574.743   -5880.5417   -1474.0403    2630.3532    1418.9779   -16.337578    3316.8852    81.801834 
   99500      415.869   -101.05998   0.37628701   -100.68369    885.16552    4.3414668    4.3414668    4.3414668    885.16552    1020.0153   -6340.7413    7976.2225   -963.95304    1306.7608    212.97393    81.829417 
   99600    339.35588   -100.99353   0.30705633   -100.68648   -1289.0326    4.3414924    4.3414924    4.3414924   -1289.0326   -10532.111    6542.7105    122.30235    4534.7698   -6106.5309   -2053.3059    81.830863 
   99700    519.61252   -101.15383   0.47015633   -100.68367    4817.9445    4.3410335    4.3410335    4.3410335    4817.9445    45.022386    7255.9111    7152.9001   -2747.4817    5100.9056    3282.4328    81.804915 
   99800    254.35169   -100.91714   0.23014276     -100.687   -270.00363    4.3417938    4.3417938    4.3417938   -270.00363   -7232.6806    5823.1472    599.52249    5000.9625   -7812.1523   -2805.1962    81.847908 
   99900    496.58717   -101.13368   0.44932251   -100.68436    1919.5591    4.3407822    4.3407822    4.3407822    1919.5591   -6730.4839    3012.8816    9476.2795   -1097.0747    4012.7722     4185.098    81.790712 
  100000    380.00805   -101.02974   0.34383927    -100.6859    2113.2948    4.3415597    4.3415597    4.3415597    2113.2948    2141.5007    1126.5037    3071.8798    4190.8385   -3393.3116   -797.09428    81.834671 
Loop time of 21.5134 on 1 procs for 100000 steps with 8 atoms

Pair  time (%) = 6.63025 (30.8192)
Kspce time (%) = 5.26428 (24.4698)
Neigh time (%) = 0 (0)
Comm  time (%) = 1.03187 (4.7964)
Outpt time (%) = 0.0245435 (0.114085)
Other time (%) = 8.56246 (39.8006)

Nlocal:    8 ave 8 max 8 min
Histogram: 1 0 0 0 0 0 0 0 0 0
Nghost:    2189 ave 2189 max 2189 min
Histogram: 1 0 0 0 0 0 0 0 0 0
Neighs:    2056 ave 2056 max 2056 min
Histogram: 1 0 0 0 0 0 0 0 0 0

Total # of neighbors = 2056
Ave neighs/atom = 257
Neighbor list builds = 0
Dangerous builds = 0
unfix 20
unfix 21
print "seeds:8525259"
seeds:8525259
