LAMMPS (10 Feb 2015)
# ---- initialize simulations
clear
units metal
dimension 3
boundary p p p
atom_style charge
atom_modify map array
# ---- create atoms
read_data /Users/eugeneragasa/pyflamestk_git/pypospack/tests/tests_integration/workflow/WorkflowLammpsThermalExpansion/param_5861/MgO_NaCl_unit.npt.T1000/lammps.structure
  triclinic box = (0 0 0) to (4.2565 4.2565 4.2565) with tilt (0 0 0)
  1 by 1 by 1 MPI processor grid
  reading atoms ...
  8 atoms
# ---- define interatomic potential
include potential.mod
mass 1 24.305
mass 2 15.999

group Mg type 1
4 atoms in group Mg
group O type 2
4 atoms in group O

set group Mg charge 1.63577302612
  4 settings made for charge
set group O charge -1.63577302612
  4 settings made for charge

variable R_cut equal 10.0

pair_style buck/coul/long ${R_cut}
pair_style buck/coul/long 10
pair_coeff 1 1 0.0 0.5 0.0 ${R_cut}
pair_coeff 1 1 0.0 0.5 0.0 10
pair_coeff 1 2 1558.72850733 0.278190610155 0.0 ${R_cut}
pair_coeff 1 2 1558.72850733 0.278190610155 0.0 10
pair_coeff 2 2 26609.5495557 0.148782776904 9.00084075824 ${R_cut}
pair_coeff 2 2 26609.5495557 0.148782776904 9.00084075824 10

kspace_style pppm 1.0e-5

neighbor 1.0 bin
neigh_modify every 1 delay 0 check yes
# ---- define settings
compute eng all pe/atom
compute eatoms all reduce sum c_eng
# ---- run minimization
reset_timestep 0
fix 1 all box/relax iso 0.0 vmax 0.001
thermo 10
thermo_style custom step pe lx ly lz xy xz yz press pxx pyy pzz pxy pxz pyz c_eatoms
min_style cg
minimize 1e-25 1e-25 5000 10000
PPPM initialization ...
  G vector (1/distance) = 0.352653
  grid = 8 8 8
  stencil order = 5
  estimated absolute RMS force accuracy = 3.87471e-05
  estimated relative force accuracy = 2.69083e-06
  using double precision FFTs
  3d grid and FFT values/proc = 3375 512
Neighbor list info ...
  1 neighbor list requests
  update every 1 steps, delay 0 steps, check yes
  master list distance cutoff = 11
Memory usage per processor = 4.06549 Mbytes
Step PotEng Lx Ly Lz Xy Xz Yz Press Pxx Pyy Pzz Pxy Pxz Pyz eatoms 
       0   -109.00108       4.2565       4.2565       4.2565            0            0            0    61252.417    61252.417    61252.417    61252.417 -3.6848803e-11 -3.3369169e-11 3.6549969e-10   -109.00108 
      10    -109.0509     4.299065     4.299065     4.299065            0            0            0    8703.9294    8703.9294    8703.9294    8703.9294 1.5032756e-10 -1.0327816e-11 -1.1009458e-10    -109.0509 
      15   -109.05203    4.3066964    4.3066964    4.3066964            0            0            0 0.0034250328 0.0034250327  0.003425033 0.0034250328 -1.8553982e-10 4.3823803e-11 -1.4551403e-10   -109.05203 
Loop time of 0.00865817 on 1 procs for 15 steps with 8 atoms

Minimization stats:
  Stopping criterion = linesearch alpha is zero
  Energy initial, next-to-last, final = 
        -109.001077098     -109.052033723     -109.052033723
  Force two-norm initial, final = 8.84488 3.43431e-05
  Force max component initial, final = 8.84488 7.26821e-06
  Final line search alpha, max atom move = 0.5 3.63411e-06
  Iterations, force evaluations = 15 22

Pair  time (%) = 0.0023675 (27.3441)
Kspce time (%) = 0.00151348 (17.4804)
Neigh time (%) = 0 (0)
Comm  time (%) = 0.000299454 (3.45863)
Outpt time (%) = 2.00272e-05 (0.231309)
Other time (%) = 0.00445771 (51.4856)

Nlocal:    8 ave 8 max 8 min
Histogram: 1 0 0 0 0 0 0 0 0 0
Nghost:    2189 ave 2189 max 2189 min
Histogram: 1 0 0 0 0 0 0 0 0 0
Neighs:    2344 ave 2344 max 2344 min
Histogram: 1 0 0 0 0 0 0 0 0 0

Total # of neighbors = 2344
Ave neighs/atom = 293
Neighbor list builds = 0
Dangerous builds = 0
unfix 1
# ---- define output variables ----
variable natoms equal "count(all)"
variable tot_energy equal "c_eatoms"
variable length_x equal "lx"
variable length_y equal "ly"
variable length_z equal "lz"
variable tilt_xy equal "xy"
variable tilt_xz equal "xz"
variable tilt_yz equal "yz"
variable tot_press equal "press"
variable press_xx equal "pxx"
variable press_yy equal "pyy"
variable press_zz equal "pzz"
variable press_xy equal "pxy"
variable press_xz equal "pxz"
variable press_yz equal "pyz"

# ---- output ----
print "pypospack:output_section:begin"
pypospack:output_section:begin
print "tot_energy = ${tot_energy}"
tot_energy = -109.052033723467
print "num_atoms = ${natoms}"
num_atoms = 8
print "xx = ${length_x}"
xx = 4.30669636930156
print "yy = ${length_y}"
yy = 4.30669636930156
print "zz = ${length_z}"
zz = 4.30669636930156
print "xy = ${tilt_xy}"
xy = 0
print "xz = ${tilt_xz}"
xz = 0
print "yz = ${tilt_yz}"
yz = 0
print "tot_press = ${tot_press}"
tot_press = 0.00342503281246904
print "pxx = ${press_xx}"
pxx = 0.00342503266517326
print "pyy = ${press_yy}"
pyy = 0.00342503296687446
print "pzz = ${press_zz}"
pzz = 0.00342503280535941
print "pxy = ${press_xy}"
pxy = -1.85539817051957e-10
print "pxz = ${press_xz}"
pxz = 4.38238030577261e-11
print "pyz = ${press_yz}"
pyz = -1.45514027090344e-10
print "pypospack:output_section:done"
pypospack:output_section:done
print "pypospack:lammps_sim:done"
pypospack:lammps_sim:done
#------------------------------------------------------------------------------
# RUN THERMOSTAT
# running using an NPT Nose-Hoover style thermostat
#------------------------------------------------------------------------------
variable tempdamp equal 0.1
variable pressdamp equal 1.0
# set initial velocities
velocity all create 1000 892121 mom yes dist gaussian loop all
# fix for Nose-Hoover style thermostat
fix 20 all npt temp 1000 1000 0.1 aniso 0.0 0.0 1.0 drag 1.0 couple xyz
variable boxx equal lx
variable boxy equal ly
variable boxz equal lz
variable boxp equal press
variable boxt equal temp
# calculate averages every 10000 steps
reset_timestep 0
fix 21 all ave/time 10 10 100 v_boxx v_boxy v_boxz v_boxp v_boxt file lattice.out
thermo_style custom step temp pe ke etotal press lx ly lz press pxx pyy pzz pxy pxz pyz vol
thermo_modify flush yes
thermo 100
run 100000
PPPM initialization ...
  G vector (1/distance) = 0.352152
  grid = 8 8 8
  stencil order = 5
  estimated absolute RMS force accuracy = 3.96483e-05
  estimated relative force accuracy = 2.75342e-06
  using double precision FFTs
  3d grid and FFT values/proc = 3375 512
Memory usage per processor = 3.06549 Mbytes
Step Temp PotEng KinEng TotEng Press Lx Ly Lz Press Pxx Pyy Pzz Pxy Pxz Pyz Volume 
       0         1000   -109.05204   0.90482102   -108.14722    12097.532    4.3066964    4.3066964    4.3066964    12097.532    6659.8084    12429.701    17203.088    2752.4043    1860.9032    1665.1849    79.879026 
     100     288.5769   -108.29102   0.26111044   -108.02991    2960.4123    4.3229042    4.3229042    4.3229042    2960.4123   -1329.1143    2871.8598    7338.4914   -5843.6215   -9027.6684   -13216.844    80.784275 
     200    636.62552   -108.34679   0.57603215   -107.77076    -21032.71    4.3358663    4.3358663    4.3358663    -21032.71   -7225.8297   -27318.099   -28554.202   -1234.6024   -10202.358   -9363.6423    81.513146 
     300    1077.6889    -108.5427   0.97511552   -107.56758    13467.221    4.3223298    4.3223298    4.3223298    13467.221    20744.974    11314.831    8341.8586    831.13304    5339.0228    4416.3882    80.752075 
     400    460.23853   -107.82642    0.4164335   -107.40999    16529.538    4.3215841    4.3215841    4.3215841    16529.538    35435.959    23713.887   -9561.2323   -6321.3525   -19184.059   -25617.868     80.71029 
     500     1308.461    -108.4717     1.183923   -107.28778   -18736.499    4.3472883    4.3472883    4.3472883   -18736.499    -17944.63   -14396.764   -23868.104   -9861.3716   -157.20372    -6493.829    82.159032 
     600    1202.3666   -108.31843    1.0879265    -107.2305    26184.318    4.3313243    4.3313243    4.3313243    26184.318     30664.15    42901.045    4987.7607    2395.2061    10131.137   -3114.7034    81.257248 
     700    691.44007   -107.84468   0.62562951   -107.21905   -10854.247    4.3257252    4.3257252    4.3257252   -10854.247   -7760.8213   -6949.2234   -17852.697   -11848.773   -29133.066   -25444.594    80.942532 
     800    1131.9513   -108.23744    1.0242133   -107.21322    158.55883     4.338521     4.338521     4.338521    158.55883    11418.453   -457.64616    -10485.13   -2759.3138    10630.631    6772.4035    81.662956 
     900     1047.865   -108.16424   0.94813024   -107.21611   -7243.9946    4.3398268    4.3398268    4.3398268   -7243.9946    15017.768    -18321.42   -18428.331    4121.6283   -7697.2593   -15368.565    81.736717 
    1000    754.38682   -107.90609   0.68258504    -107.2235    3134.8315    4.3339096    4.3339096    4.3339096    3134.8315    9675.8709     18033.97   -18305.346   -13465.069   -29002.748   -14224.321    81.402838 
    1100    1492.4099   -108.56543    1.3503638   -107.21507    4977.8579    4.3250804    4.3250804    4.3250804    4977.8579    15372.824    6023.5883   -6462.8387    5433.5902    13038.692    10961.196    80.906338 
    1200    520.23923   -107.70587   0.47072339   -107.23515    1621.0892    4.3361617    4.3361617    4.3361617    1621.0892    1111.4248    23371.044   -19619.201   -376.88062    -19608.03   -27084.484    81.529803 
    1300    1119.5118   -108.23791    1.0129578   -107.22495   -20416.515    4.3412012    4.3412012    4.3412012   -20416.515   -27166.639    -17807.65   -16275.256   -4842.1105   -21870.367    1204.2462    81.814397 
    1400    1150.6622   -108.25955    1.0411433   -107.21841    11914.402    4.3277144    4.3277144    4.3277144    11914.402    27181.524    1291.0722    7270.6095    1084.5397    18188.977   -4695.5142    81.054246 
    1500    870.37485   -108.01693   0.78753346   -107.22939   -7981.0204    4.3293196    4.3293196    4.3293196   -7981.0204    3156.3956   -9143.1323   -17956.324   -1119.4031   -30486.031   -24575.611    81.144475 
    1600    1056.9537   -108.17954   0.95635394   -107.22319   -6412.8707    4.3419782    4.3419782    4.3419782   -6412.8707    9791.8398    -5602.093   -23428.359   -7987.6126   -4312.4841     8788.798    81.858339 
    1700    976.88759   -108.10668   0.88390842   -107.22277   -12873.916    4.3375309    4.3375309    4.3375309   -12873.916   -3122.7631   -17071.295   -18427.689   -3230.7536    7001.1821   -17497.864    81.607061 
    1800    887.62309   -108.02854   0.80314002    -107.2254    5553.0527    4.3267413    4.3267413    4.3267413    5553.0527    8812.5835    14666.011   -6819.4368    2515.3222   -24428.466   -9556.7907    80.999587 
    1900    1165.3637   -108.27701    1.0544456   -107.22256    18545.407    4.3329683    4.3329683    4.3329683    18545.407    34448.843   -1746.4389    22933.817    -12926.18    8654.0946    9424.0592    81.349809 
    2000    997.00976   -108.12917   0.90211538   -107.22706   -2916.4175    4.3389312    4.3389312    4.3389312   -2916.4175    11161.585   -6377.6464   -13533.191    999.00515   -191.87206   -18545.445    81.686124 
    2100    813.30869   -107.96071   0.73589879   -107.22481    8638.1164    4.3331238    4.3331238    4.3331238    8638.1164    16041.351    6658.4134    3214.5846    276.66344   -26581.221    1639.2967    81.358566 
    2200    1069.6101   -108.18902   0.96780571   -107.22121   -5491.9245    4.3346628    4.3346628    4.3346628   -5491.9245    12235.317   -18633.816   -10077.274   -15272.152    6368.3222    12980.767    81.445289 
    2300    1091.5956   -108.20931   0.98769862   -107.22161   -10412.831    4.3368088    4.3368088    4.3368088   -10412.831   -1882.0081   -6193.8786   -23162.607    8393.3081   -12811.631   -15962.007    81.566314 
    2400    1046.6387   -108.16654   0.94702073   -107.21952     3928.453    4.3365804    4.3365804    4.3365804     3928.453    11610.517    -13924.39    14099.233    -2736.351   -11419.046    11094.997    81.553425 
    2500    1167.2277   -108.27522    1.0561321   -107.21909    -18643.34    4.3379864    4.3379864    4.3379864    -18643.34    3613.9469   -19640.309   -39903.657   -2009.0556    9342.3191    12449.951    81.632775 
    2600    673.28837   -107.83481   0.60920547    -107.2256    21593.873    4.3282699    4.3282699    4.3282699    21593.873    21871.681    25967.375    16942.563    12895.046   -11497.917   -21085.969    81.085463 
    2700    1025.1554   -108.15644   0.92758211   -107.22886   -10761.816    4.3385456    4.3385456    4.3385456   -10761.816     15091.38   -22748.762   -24628.067    12671.742   -70.406628    30146.604    81.664346 
    2800     1025.558   -108.14937   0.92794646   -107.22143    2993.2346    4.3446785    4.3446785    4.3446785    2993.2346    17059.927     3660.838   -11741.061   -3618.1262   -2507.8445     627.3255    82.011155 
    2900    1012.9505   -108.13704   0.91653886    -107.2205   -2564.1608    4.3289054    4.3289054    4.3289054   -2564.1608    15713.816   -11125.233   -12281.065    16913.447   -9119.6642    3768.1169    81.121185 
    3000    776.85561   -107.93003   0.70291529   -107.22712   -3672.7745    4.3299808    4.3299808    4.3299808   -3672.7745    18076.054   -3275.2524   -25819.125    5349.6931   -844.50128    36456.074    81.181656 
    3100    1277.3917   -108.37799    1.1558109   -107.22218   -11219.371    4.3427391    4.3427391    4.3427391   -11219.371   -9415.9796   -5601.0535   -18641.081   -11890.315   -6599.9061   -5777.5758     81.90138 
    3200     757.4101   -107.90736   0.68532058   -107.22204   -13746.753    4.3463396    4.3463396    4.3463396   -13746.753   -20535.475   -16409.335     -4295.45    15033.234   -9009.4875    17337.186    82.105256 
    3300    1297.1588   -108.38751    1.1736965   -107.21381   -953.94176    4.3338752    4.3338752    4.3338752   -953.94176    30150.557   -17751.425   -15260.958     -10594.8    406.28431    20179.983      81.4009 
    3400    1223.1435   -108.32245    1.1067259   -107.21573    16518.692    4.3307785    4.3307785    4.3307785    16518.692    12227.776    21545.769    15782.531    7322.2009   -20933.753   -9019.4887    81.226535 
    3500      569.987   -107.74742   0.51573622   -107.23168   -18215.489    4.3462336    4.3462336    4.3462336   -18215.489    23583.045   -23763.445   -54466.065    13923.571   -6498.4946    28999.775    82.099253 
    3600    1040.6561   -108.15791   0.94160749   -107.21631    1977.9289    4.3421776    4.3421776    4.3421776    1977.9289    13093.989    18901.629   -26061.832    8630.5166    2711.6581    7844.3173    81.869613 
    3700    1055.0367   -108.17179   0.95461936   -107.21718    4030.6245    4.3286273    4.3286273    4.3286273    4030.6245   -7524.9216    34394.179   -14777.384    6085.0304   -14482.018   -173.07322    81.105551 
    3800    718.89328   -107.88094   0.65046975   -107.23047   -17059.615    4.3390932    4.3390932    4.3390932   -17059.615   -3256.4276   -18870.787   -29051.632    9806.1825     6661.636    34692.691    81.695272 
    3900    1473.4261   -108.55467    1.3331869   -107.22149    614.18704    4.3403169    4.3403169    4.3403169    614.18704    3726.1036    9370.4435   -11253.986   -2189.7566    14801.197   -13948.224    81.764413 
    4000    841.49376   -107.99023   0.76140124   -107.22882   -18059.622    4.3420454    4.3420454    4.3420454   -18059.622    1264.9776   -22074.754   -33369.091   -1200.5507   -21995.569    29587.185    81.862136 
    4100     751.4346   -107.91097   0.67991382   -107.23106   -3747.5956    4.3302663    4.3302663    4.3302663   -3747.5956    18215.965    6747.6645   -36206.417    14007.558    20162.545    17983.242    81.197714 
    4200    1176.6004   -108.29174    1.0646128   -107.22713    9906.7109    4.3394081    4.3394081    4.3394081    9906.7109    9631.6227    38407.251   -18318.741   -25.146878   -3040.6617    38.434811    81.713065 
    4300    810.03005   -107.96149   0.73293221   -107.22856   -10814.604    4.3467293    4.3467293    4.3467293   -10814.604    648.97128    9906.6058   -42999.389   -859.42426   -14618.782    37226.658    82.127343 
    4400    954.23181   -108.08375     0.863409   -107.22034    14118.441    4.3305982    4.3305982    4.3305982    14118.441    28306.821      16567.1   -2518.5974    10315.467    19541.115   -595.33658    81.216391 
    4500    1268.6738   -108.36689    1.1479227   -107.21896   -6988.4777    4.3422121    4.3422121    4.3422121   -6988.4777    20547.301   -13656.882   -27855.853   -2768.9234   -6701.0532    14194.742    81.871565 
    4600    923.48917   -108.05887   0.83559241   -107.22328    2749.2619    4.3364483    4.3364483    4.3364483    2749.2619    34536.661   -20267.639    -6021.236    8979.6026   -738.17055    19149.892    81.545976 
    4700    1027.0757   -108.15664   0.92931966   -107.22732    443.62451    4.3383454    4.3383454    4.3383454    443.62451    -2154.002     20943.82   -17458.944   -809.13179    25983.806   -14218.352    81.653041 
    4800    1135.9338   -108.25017    1.0278168   -107.22236   -4988.3868    4.3412716    4.3412716    4.3412716   -4988.3868    9465.2425   -8324.9182   -16105.485    857.10521    1183.8048    25094.764    81.818378 
    4900    973.68743    -108.1025   0.88101285   -107.22149    14185.572    4.3305044    4.3305044    4.3305044    14185.572     26464.61    33218.546    -17126.44    635.77976    16385.878    15934.599     81.21111 
    5000    894.36956   -108.03872   0.80924437   -107.22947   -17316.966    4.3430175    4.3430175    4.3430175   -17316.966    -26412.55    -9261.609   -16276.739    12035.604    13941.074   -162.54493    81.917135 
    5100    925.99347   -108.06249   0.83785836   -107.22464    5626.1385    4.3362185    4.3362185    4.3362185    5626.1385    18607.617   -11670.407    9941.2056    -9345.377   -3949.2897    27600.298     81.53301 
    5200    1194.0466   -108.30154    1.0803984   -107.22114   -3029.1786    4.3411184    4.3411184    4.3411184   -3029.1786   -19855.351    8753.9808    2013.8341    26.337252    15657.463    -5275.409    81.809717 
    5300    956.57191   -108.09096   0.86552636   -107.22544   -11381.714    4.3361745    4.3361745    4.3361745   -11381.714   -1302.3978   -15787.229   -17055.515    7710.1506     5223.343    9251.6733    81.530525 
    5400    882.35157   -108.02446   0.79837024   -107.22609    13812.371    4.3263971    4.3263971    4.3263971    13812.371    14601.321    13879.636    12956.156   -5838.7787   -9412.4249    27226.151    80.980255 
    5500    1129.9313    -108.2439    1.0223856   -107.22151   -22170.219    4.3511811    4.3511811    4.3511811   -22170.219   -25266.713    -8265.213   -32978.732     1331.058    23952.158   -7042.0339    82.379942 
    5600    674.40889    -107.8368   0.61021933   -107.22659    6336.9251    4.3314004    4.3314004    4.3314004    6336.9251    26643.125    2820.1276   -10452.477    -1992.253   -59.562541    30385.174    81.261532 
    5700    1172.7929   -108.28286    1.0611677   -107.22169    11729.701    4.3252357    4.3252357    4.3252357    11729.701    1826.7646   -7116.9361    40479.274   -3380.1192    2477.9641    7290.7912    80.915055 
    5800    1217.2371    -108.3206    1.1013817   -107.21921   -22348.248    4.3487401    4.3487401    4.3487401   -22348.248   -23764.502   -12735.924   -30544.318    1047.0413    28046.068    1160.8613    82.241375 
    5900    900.80577   -108.03469   0.81506799   -107.21962    6100.0848    4.3317434    4.3317434    4.3317434    6100.0848    5319.8621    -1006.484    13986.876   -3441.9592   -8072.9637    23028.551    81.280837 
    6000    1048.3824   -108.17042   0.94859844   -107.22182   -14434.267    4.3392628    4.3392628    4.3392628   -14434.267   -18003.961   -14474.149   -10824.691   -9225.0433     14426.34   -12462.105    81.704855 
    6100    845.48694   -107.98834   0.76501435   -107.22332   -3234.6787    4.3390237    4.3390237    4.3390237   -3234.6787   -4836.7809   -5823.2091    955.95372     5354.995    11574.718    6405.7871    81.691348 
    6200    964.44945   -108.09871   0.87265413   -107.22606    16638.691    4.3304772    4.3304772    4.3304772    16638.691   -1589.7719    38937.371    12568.473   -7888.3576   -4799.9483    21196.563     81.20958 
    6300    1235.2688   -108.34657    1.1176971   -107.22888   -13856.001    4.3395609    4.3395609    4.3395609   -13856.001   -24241.455   -7123.3075    -10203.24   -10998.465    10116.031   -9495.4124    81.721692 
    6400    864.88839   -108.01346   0.78256919   -107.23089    14083.173    4.3323887    4.3323887    4.3323887    14083.173   -2319.2584    61092.052   -16523.274    2520.9608    4597.4719    8467.8044    81.317165 
    6500    1016.0841   -108.14984   0.91937423   -107.23046   -15511.447    4.3412667    4.3412667    4.3412667   -15511.447   -20496.678   -11607.247   -14430.418    4555.4052   -11312.377    16273.162      81.8181 
    6600    1180.2339   -108.29145    1.0679004   -107.22355    531.01887    4.3368195    4.3368195    4.3368195    531.01887   -16872.292    18354.043    111.30609    1840.2868    7895.8238    -7492.392    81.566915 
    6700    879.47069   -108.02451   0.79576356   -107.22875    5581.5515    4.3312926    4.3312926    4.3312926    5581.5515    269.97173    22037.908   -5563.2254    3591.8659    4262.7448    18109.184    81.255461 
    6800    893.11722   -108.04416   0.80811123   -107.23605    -8545.447    4.3392776    4.3392776    4.3392776    -8545.447   -22776.857   -4457.8941    1598.4097     2599.102   -13008.177    3799.8217    81.705693 
    6900    1230.6234   -108.34039    1.1134939   -107.22689    13198.733     4.332688     4.332688     4.332688    13198.733    10739.178    29754.003   -896.98167   -11078.344    17934.436   -7978.9122    81.334021 
    7000     635.9755   -107.81194     0.575444   -107.23649   -17707.078    4.3435384    4.3435384    4.3435384   -17707.078   -9329.3303    -22181.19   -21610.714    8816.9832   -9571.8392    9778.3473    81.946612 
    7100    1033.2155   -108.16347   0.93487506   -107.22859   -16779.668    4.3395087    4.3395087    4.3395087   -16779.668   -20950.532    1088.3201   -30476.791   -14136.748   -18324.762    5740.7399    81.718745 
    7200    1310.6811   -108.40478    1.1859318   -107.21885    25151.388    4.3217368    4.3217368    4.3217368    25151.388    26109.953    26303.443    23040.768    2485.7629    8422.3194   -6006.8138    80.718848 
    7300    650.57515   -107.82662   0.58865407   -107.23797   -26758.256    4.3438603    4.3438603    4.3438603   -26758.256   -29619.783   -25469.124   -25185.861    4117.5225   -22200.171    14645.186    81.964829 
    7400    1144.8126   -108.26291    1.0358505   -107.22706    11.204271    4.3383271    4.3383271    4.3383271    11.204271   -6818.4202    17753.277   -10901.244   -5863.7342   -8963.2548    4678.4142    81.652009 
    7500    963.14103   -108.09889   0.87147025   -107.22742    10437.612    4.3351696    4.3351696    4.3351696    10437.612     23867.37    3464.8632    3980.6026    8576.8599    3527.6707    852.36277    81.473857 
    7600    821.66953     -107.978   0.74346386   -107.23454   -24781.241    4.3344403    4.3344403    4.3344403   -24781.241   -24034.421   -13168.578   -37140.723     979.8194   -27030.194    12047.418    81.432748 
    7700    1181.8905   -108.29975    1.0693994   -107.23035    24988.377    4.3298643    4.3298643    4.3298643    24988.377    21753.181    45549.414    7662.5353    2445.3177    6442.8885   -2831.8833    81.175104 
    7800    1050.4325   -108.18041   0.95045342   -107.22996   -22455.979    4.3484446    4.3484446    4.3484446   -22455.979   -11928.651    -27936.06   -27503.227   -3836.7626   -1369.5028    2895.8076    82.224613 
    7900    787.54487   -107.93951   0.71258714   -107.22692    7118.6208    4.3244253    4.3244253    4.3244253    7118.6208   -3152.9034     36202.64   -11693.874    6718.2953   -22824.315    16508.783    80.869584 
    8000    1041.6516   -108.17014   0.94250824   -107.22763    11927.101    4.3309326    4.3309326    4.3309326    11927.101    4579.4958    22614.521    8587.2877    -4770.209    20503.678   -7918.1777    81.235202 
    8100    1125.9811   -108.24424    1.0188114   -107.22543   -12119.176    4.3430861    4.3430861    4.3430861   -12119.176   -5639.8934    -22753.63   -7964.0051    2859.5765   -4775.6066    4728.4843    81.921016 
    8200     947.5011   -108.08226   0.85731891   -107.22494    15348.109    4.3311304    4.3311304    4.3311304    15348.109   -4374.4611    39963.658     10455.13    2736.5186   -16234.084     15501.35    81.246332 
    8300    1142.9551   -108.25883    1.0341698   -107.22466   -973.12944    4.3375059    4.3375059    4.3375059   -973.12944   -362.26581    18667.585   -21224.707   -976.75126    30172.185   -16582.923    81.605649 
    8400    1080.5933   -108.20087   0.97774349   -107.22313    17389.819     4.331561     4.331561     4.331561    17389.819    9472.4704     20662.02    22034.966    8174.8042       -15499      18162.7    81.270569 
    8500    691.21563      -107.86   0.62542643   -107.23458   -4779.6556    4.3369735    4.3369735    4.3369735   -4779.6556   -9104.4259    31770.108   -37004.649    1064.6552    9565.0335    2782.1752    81.575607 
    8600    1191.7103   -108.30838    1.0782845    -107.2301    4510.6728    4.3357873    4.3357873    4.3357873    4510.6728   -4836.7793    7768.0429    10600.755   -6447.2956     22720.09   -2978.8201    81.508688 
    8700    1270.4091    -108.3771    1.1494928   -107.22761    11665.455    4.3279583    4.3279583    4.3279583    11665.455     12064.44    32883.357   -9951.4303   -2412.4191   -8482.1416    15945.596    81.067954 
    8800    621.24997   -107.79825   0.56212002   -107.23613   -19597.171    4.3418278    4.3418278    4.3418278   -19597.171   -36946.138    14757.866    -36603.24   -5320.5061    26128.147    3388.0729    81.849831 
    8900    1177.2287   -108.28552    1.0651813   -107.22034    1194.7829    4.3340272    4.3340272    4.3340272    1194.7829    66.205009    22607.197   -19089.053   -12681.106   -2196.0224   -1517.5322    81.409466 
    9000    932.20872   -108.07063   0.84348204   -107.22715    -4080.005    4.3296712    4.3296712    4.3296712    -4080.005   -13194.411    20113.176    -19158.78    3996.0884    8875.9868    8972.5699    81.164242 
    9100    840.42436   -107.99348   0.76043362   -107.23305   -15163.986    4.3409495    4.3409495    4.3409495   -15163.986   -39715.828    22631.511    -28407.64   -9684.8455    19085.271    474.11478    81.800169 
    9200    1357.2466   -108.45322    1.2280653   -107.22515    7561.6964    4.3307514    4.3307514    4.3307514    7561.6964    4718.9539    7006.5977    10959.537   -1129.6624   -11601.337   -17285.041     81.22501 
    9300    862.03914   -108.01383   0.77999113   -107.23383   -12659.594    4.3363257    4.3363257    4.3363257   -12659.594   -31612.995    32727.927   -39093.715   -4117.8716    23994.264    12892.111    81.539056 
    9400    1012.5322   -108.14217   0.91616043   -107.22601   -1378.1707    4.3338455    4.3338455    4.3338455   -1378.1707   -9322.9481     25066.55   -19878.114   -6053.1098    446.66686     -4960.91    81.399224 
    9500    865.28148   -108.01054   0.78292487   -107.22762    4107.8085    4.3346783    4.3346783    4.3346783    4107.8085   -4508.2231    29891.353   -13059.704   -14283.416    3394.7917   -5597.1648    81.446163 
    9600    1190.1262   -108.30252    1.0768512   -107.22567   -12642.401    4.3379856    4.3379856    4.3379856   -12642.401   -18351.306    12837.598   -32413.496    979.16021     22510.15    4877.6729    81.632731 
    9700    1043.6233   -108.16637   0.94429233   -107.22208    28100.559    4.3286062    4.3286062    4.3286062    28100.559    3804.7135    58759.417    21737.546   -7555.0256    -7226.832   -8037.8856    81.104368 
    9800     807.3672   -107.96452   0.73052281   -107.23399   -21651.471    4.3394434    4.3394434    4.3394434   -21651.471   -17420.905   -12758.678   -34774.828   -9526.4996    19950.031   -22457.682    81.715059 
    9900    1081.3808   -108.20497   0.97845609   -107.22651    6127.9346    4.3364426    4.3364426    4.3364426    6127.9346    3656.0965    39194.619   -24466.911    13416.344    9508.5552    8421.4061    81.545654 
   10000    1025.0025   -108.15522   0.92744384   -107.22778   -4494.6444     4.335415     4.335415     4.335415   -4494.6444   -11001.191   -1353.9235   -1128.8189   -16906.916    26.074043   -23553.821    81.487693 
   10100    764.58248   -107.92628    0.6918103   -107.23447   -8036.3187    4.3310622    4.3310622    4.3310622   -8036.3187   -5797.7131     10970.46   -29281.703   -2476.5192    31218.034   -8849.5937    81.242496 
   10200    1358.9442   -108.45649    1.2296013   -107.22689    11774.413    4.3393276    4.3393276    4.3393276    11774.413    -7673.984    42953.665    43.557541   -1581.4301   -4334.8634    9660.8523    81.708515 
   10300    716.78806    -107.8887    0.6485649   -107.24013   -11791.186    4.3349211    4.3349211    4.3349211   -11791.186   -11223.009   -3888.4827   -20262.065   -9062.8295     15440.66   -24375.168    81.459847 
   10400    744.79285   -107.91086   0.67390422   -107.23696    20807.426    4.3263721    4.3263721    4.3263721    20807.426    18726.831    75932.506   -32237.057   -7838.9389    18951.457    238.38075    80.978853 
   10500    1643.7568   -108.71048    1.4873057   -107.22317   -8881.8339    4.3450158    4.3450158    4.3450158   -8881.8339   -4834.1581   -13548.071   -8263.2727    4845.9269   -9250.7498    1793.8958    82.030257 
   10600    390.89962   -107.58954   0.35369419   -107.23585    19387.129    4.3316624    4.3316624    4.3316624    19387.129    32346.492    56297.216    -30482.32   -5764.1418    25398.537   -9977.9434    81.276278 
   10700    1291.7438   -108.39583     1.168797   -107.22703   -7057.3681    4.3368706    4.3368706    4.3368706   -7057.3681   -6084.7789    1840.3246    -16927.65   -10350.735    1055.6213   -6683.4244    81.569799 
   10800    1120.7773   -108.23925    1.0141028   -107.22515    18154.448    4.3314892    4.3314892    4.3314892    18154.448    29666.498    37613.269   -12816.423     6118.799   -1179.1579    10330.558    81.266527 
   10900    758.95174   -107.92382   0.68671548    -107.2371   -4853.9889    4.3355575    4.3355575    4.3355575   -4853.9889    3437.2896   -4017.4516   -13981.805   -9077.4206    26286.526       -20170    81.495731 
   11000    1350.9261   -108.44813    1.2223464   -107.22578   -16893.353    4.3456696    4.3456696    4.3456696   -16893.353   -14965.747   -16969.465   -18744.848   -3937.1539    -10873.32   -7892.8983    82.067294 
   11100    871.37396   -108.01243   0.78843747     -107.224     21582.81    4.3214445    4.3214445    4.3214445     21582.81    31502.206    21259.609    11986.615    3279.1651    21628.722    18641.979    80.702469 
   11200    740.43998    -107.9032   0.66996565   -107.23323   -17041.755    4.3377651    4.3377651    4.3377651   -17041.755   -11540.642   -10789.105   -28795.518   -8524.5146     9294.029    -30783.63     81.62028 
   11300    1302.2728   -108.39898    1.1783238   -107.22065   -6739.3436    4.3404971    4.3404971    4.3404971   -6739.3436     2564.903   -7574.7149   -15208.219   -2289.3009   -7429.4371    8213.3395    81.774597 
   11400    891.83943   -108.03169   0.80695506   -107.22473    12640.977     4.329271     4.329271     4.329271    12640.977    8876.7038    30999.175   -1952.9477    6233.3878    31290.143    821.64108    81.141739 
   11500    1071.5636   -108.19298   0.96957324   -107.22341   -16506.275    4.3410897    4.3410897    4.3410897   -16506.275   -2642.5462   -27709.133   -19167.144   -7260.5484   -6561.9673   -20728.948    81.808094 
   11600     1009.725   -108.13503   0.91362044   -107.22141    16946.908    4.3311243    4.3311243    4.3311243    16946.908   -9706.0387    47818.498    12728.264    445.57137    5632.2689    9589.8723    81.245989 
   11700    813.24978   -107.96721   0.73584549   -107.23137    -1597.829    4.3346798    4.3346798    4.3346798    -1597.829    12686.974   -7621.9099   -9858.5514    3650.5314    23037.262   -6005.2818    81.446245 
   11800    1208.2054   -108.31653    1.0932096   -107.22332    -7954.573    4.3421056    4.3421056    4.3421056    -7954.573   -14879.131    5809.5059   -14794.094   -11824.468   -18811.153   -5475.4937    81.865543 
   11900    878.52994   -108.02009   0.79491235   -107.22518    20422.169    4.3269997    4.3269997    4.3269997    20422.169    20659.462    46394.082   -5787.0383   -436.10499    15039.312    4028.9098    81.014099 
   12000    1232.8922   -108.34178    1.1155468   -107.22623   -6541.5846    4.3348588    4.3348588    4.3348588   -6541.5846    6707.8137   -7082.5719   -19249.996    775.10456    13748.058   -5103.6843    81.456336 
   12100    959.44999   -108.09287   0.86813052   -107.22474    16581.371    4.3387289    4.3387289    4.3387289    16581.371     21508.59    40461.786   -12226.262   -8250.1714   -17055.667   -13699.382    81.674697 
   12200    706.19856   -107.86683   0.63898329   -107.22785   -9592.7097    4.3372728    4.3372728    4.3372728   -9592.7097   -4209.1543   -10456.351   -14112.624    4057.7438     19728.15    10113.403    81.592493 
   12300    1230.8831   -108.33638    1.1137289   -107.22265    1325.8496    4.3304095    4.3304095    4.3304095    1325.8496    14212.598    205.75973   -10440.809    6803.2022    1393.6866   -1051.3815    81.205774 
   12400     928.6688   -108.06996   0.84027904   -107.22968    23590.193    4.3311873    4.3311873    4.3311873    23590.193    17129.177    42453.497    11187.906   -227.08048   -2763.2901   -2871.3197    81.249535 
   12500    1028.2361   -108.16285   0.93036967   -107.23248   -28378.962    4.3468826    4.3468826    4.3468826   -28378.962   -20522.372   -15828.805   -48785.709    11114.364    21476.292    18762.342    82.136036 
   12600    1071.4433   -108.19194   0.96946442   -107.22248    19085.672    4.3311441    4.3311441    4.3311441    19085.672    12100.751    28469.593    16686.673    -11533.95   -11571.035    8410.2069    81.247103 
   12700    942.93029   -108.07869   0.85318314   -107.22551    1711.4575    4.3265194    4.3265194    4.3265194    1711.4575    6808.7514      21280.2   -22954.579   -273.64732    14106.222   -3941.9085     80.98712 
   12800    792.89065   -107.94892   0.71742412    -107.2315   -6921.8404    4.3423326    4.3423326    4.3423326   -6921.8404   -13063.184    5732.8821   -13435.219   -1422.6143    12257.718    20931.464    81.878383 
   12900    1188.7543   -108.30207    1.0756099   -107.22646    8082.7195     4.333653     4.333653     4.333653    8082.7195    5372.4747    16429.916     2445.768   -4368.3329   -3271.9717    1072.4601    81.388382 
   13000    977.52758   -108.11334    0.8844875   -107.22886    8320.8027     4.326391     4.326391     4.326391    8320.8027    7477.0286    43434.534   -25949.154   -1240.9414    22112.777   -5095.0992    80.979909 
   13100    1053.6976   -108.17949    0.9534077   -107.22608   -1348.9581    4.3406643    4.3406643    4.3406643   -1348.9581   -1514.1288    4668.4698   -7201.2151    4902.6423    1406.1011    24754.525    81.784049 
   13200    1127.9188   -108.24013    1.0205646   -107.21957   -6619.5255    4.3372074    4.3372074    4.3372074   -6619.5255    15099.779   -5984.7387   -28973.617    -5688.224    11108.982   -3058.0245    81.588805 
   13300    747.51522   -107.89888   0.67636748   -107.22251    10793.899    4.3282812    4.3282812    4.3282812    10793.899    397.19254    42859.865   -10875.362    2019.8848     12827.23    10195.256    81.086097 
   13400    1027.4544   -108.14987   0.92966233   -107.22021   -107.51468    4.3387971    4.3387971    4.3387971   -107.51468    32046.733   -16845.153   -15524.124   -7955.5391   -6418.0931    19891.697    81.678549 
   13500    1177.4943   -108.28747    1.0654216   -107.22205   -11381.864    4.3352429    4.3352429    4.3352429   -11381.864   -6388.3253    2979.3972   -30736.665    3242.5622    21637.504   -5891.2512    81.477993 
   13600    797.98926    -107.9483   0.72203745   -107.22626    7527.7787     4.335006     4.335006     4.335006    7527.7787    13848.118    27863.872   -19128.654   -11025.256   -2419.2843    19410.812    81.464633 
   13700    1239.4199   -108.34084    1.1214532   -107.21938   -9711.8787    4.3402602    4.3402602    4.3402602   -9711.8787    15033.481    -15608.57   -28560.547    1390.5743     1202.515   -4275.9704    81.761208 
   13800    837.39324   -107.98337     0.757691   -107.22568   -6470.7003    4.3332353    4.3332353    4.3332353   -6470.7003   -7106.4706    14849.839   -27155.469    -9193.975    25352.713   -3234.0643    81.364848 
   13900    877.94581   -108.01932   0.79438382   -107.22494    16451.149    4.3280384    4.3280384    4.3280384    16451.149    21420.798     34351.97   -6419.3224    1252.0516    -19413.34    23257.205    81.072454 
   14000    1252.4174   -108.35759    1.1332136   -107.22438   -21048.915    4.3420364    4.3420364    4.3420364   -21048.915   -10220.112   -15120.899   -37805.733    -1099.627    25647.988   -18442.172     81.86163 
   14100    702.81087   -107.86193   0.63591805   -107.22601    11207.511    4.3357984    4.3357984    4.3357984    11207.511   -3547.0929    44978.985     -7809.36   -8731.8803    3305.9576    6539.4179    81.509317 
   14200    1352.5677   -108.44137    1.2238317   -107.21754   -17270.242    4.3352258    4.3352258    4.3352258   -17270.242   -2037.7384   -14152.074   -35620.913    10812.047   -10653.935    14648.402    81.477026 
   14300    800.31767   -107.94686   0.72414425   -107.22271    9524.8226    4.3305158    4.3305158    4.3305158    9524.8226     28803.72    11348.188   -11577.441   -7664.7199     24321.05   -21039.282    81.211755 
   14400    922.86684   -108.06288   0.83502931   -107.22785   -7974.8232    4.3378196    4.3378196    4.3378196   -7974.8232   -14189.155    15267.549   -25002.864    11122.269   -16234.461    10671.586    81.623359 
   14500    1088.9326     -108.206   0.98528908   -107.22072   -18622.326    4.3467523    4.3467523    4.3467523   -18622.326    8894.8829   -29454.306   -35307.554    525.88054    5137.3048    3080.8237    82.128647 
   14600    997.38644    -108.1221   0.90245621   -107.21964     16687.31    4.3176468    4.3176468    4.3176468     16687.31    4498.1795    42843.895    2719.8562    1532.5339    8561.5036   -21674.749    80.489893 
   14700    966.17681   -108.10833   0.87421708   -107.23411   -12251.657    4.3352592    4.3352592    4.3352592   -12251.657   -3038.3974    2933.2448    -36649.82    2809.1205   -24786.174    12267.972     81.47891 
   14800    1081.9335   -108.19881   0.97895612   -107.21985   -21633.207    4.3482867    4.3482867    4.3482867   -21633.207   -12078.872   -27999.587   -24821.163     -7721.55    10997.317   -13762.008    82.215652 
   14900    848.56164   -107.98341   0.76779641   -107.21562    7942.3515    4.3211975    4.3211975    4.3211975    7942.3515    27467.172    16885.644   -20525.761    628.38755   -12469.906   -6205.5872    80.688634 
   15000    867.66624    -108.0103   0.78508265   -107.22522   -7534.1203    4.3369845    4.3369845    4.3369845   -7534.1203    -14969.51    8751.7981   -16384.649   -3843.5901   -26135.745    7358.2857    81.576225 
   15100    1212.3578   -108.31665    1.0969668   -107.21969   -6123.7574    4.3401335    4.3401335    4.3401335   -6123.7574    16383.872   -12561.318   -22193.826    5535.6149    15050.898   -12357.434     81.75405 
   15200    799.27943   -107.94878   0.72320482   -107.22557   -5878.8798    4.3351852    4.3351852    4.3351852   -5878.8798    -6392.823    28086.091   -39329.908   -7876.3176   -38410.068    7502.4788    81.474736 
   15300    1203.2472   -108.31049    1.0887234   -107.22176   -8039.3908    4.3346316    4.3346316    4.3346316   -8039.3908     3060.454   -18936.135   -8242.4913    6123.9821    1219.8313    218.29938    81.443526 
   15400    910.53608   -108.05044   0.82387218   -107.22657   -4755.3468    4.3343431    4.3343431    4.3343431   -4755.3468    18454.515   -12445.901   -20274.654   -42.969405   -11648.097   -14191.828    81.427269 
   15500    899.97696   -108.04176   0.81431807   -107.22744   -13189.396    4.3408679    4.3408679    4.3408679   -13189.396   -19540.414    23142.755    -43170.53   -1930.1386   -28621.474      10877.4    81.795556 
   15600    1199.8944   -108.30624    1.0856896   -107.22055    10497.514    4.3286441    4.3286441    4.3286441    10497.514     28310.62   -7802.9067    10984.828   -6750.9518    11207.637   -13377.828    81.106498 
   15700     693.6271   -107.86046   0.62760838   -107.23285   -5866.4864    4.3393934    4.3393934    4.3393934   -5866.4864    6988.0661    17031.098   -41618.624    1116.2416   -30796.114   -1153.2932    81.712232 
   15800    1257.0557   -108.36116    1.1374104   -107.22375   -9673.3367    4.3376057    4.3376057    4.3376057   -9673.3367   -3324.3399    -3598.127   -22097.543    -3961.073   -10512.387    3126.4982    81.611282 
   15900    1053.5636    -108.1733   0.95328653   -107.22001    13732.883    4.3278311    4.3278311    4.3278311    13732.883    38569.666   -7042.3523    9671.3364    706.35017    689.95047    -8270.316    81.060806 
   16000    631.40348   -107.79811   0.57130714    -107.2268   -20731.086    4.3474741    4.3474741    4.3474741   -20731.086   -17443.393     7283.083    -52032.95    201.44361   -30716.558    9150.6222    82.169569 
   16100     1481.355   -108.55484    1.3403611   -107.21447    3309.2579    4.3275036    4.3275036    4.3275036    3309.2579    21201.328   -5709.7976    -5563.757    2210.0846    2746.2776    2122.8088    81.042406 
   16200    719.05084   -107.87762   0.65061231   -107.22701    19447.886    4.3314988    4.3314988    4.3314988    19447.886    31583.992    32688.305   -5928.6393   -7489.1593    -8802.702   -1840.9522    81.267066 
   16300     890.8791   -108.03037   0.80608613   -107.22428   -24231.003     4.347117     4.347117     4.347117   -24231.003   -18732.158   -11924.727   -42036.124   -2261.7785   -25006.765    13828.588    82.149322 
   16400    1446.4378   -108.51942    1.3087674   -107.21065    11362.417    4.3261497    4.3261497    4.3261497    11362.417     24830.18    -6815.186    16072.257    1374.8196    8047.5296    153.79228    80.966364 
   16500    535.55058   -107.71223   0.48457742   -107.22766   -4446.3223    4.3373214    4.3373214    4.3373214   -4446.3223   -13130.465    14001.003   -14209.505   -9433.6599   -20782.771   -5000.6211    81.595239 
   16600    1032.7927   -108.16007   0.93449254   -107.22558    -17336.47     4.338091     4.338091     4.338091    -17336.47   -11199.684   -14727.555   -26082.171    2627.9585   -10345.773    9333.9775    81.638677 
   16700    1386.8593   -108.47165    1.2548595   -107.21679    12072.895    4.3334478    4.3334478    4.3334478    12072.895    6736.6867    13811.579     15670.42   -5305.2279    9619.9051    3480.5806    81.376817 
   16800    705.14073   -107.86718   0.63802616   -107.22916    -9847.352    4.3390472    4.3390472    4.3390472    -9847.352   -9335.1406    10605.912   -30812.827   -158.88533   -24076.794   -7538.7098    81.692675 
   16900    1088.2587   -108.21204   0.98467931   -107.22736    4450.6231    4.3316328    4.3316328    4.3316328    4450.6231    18087.987   -15138.859    10402.742    2109.6595    5555.2837    15248.281    81.274611 
   17000    1208.4629   -108.31921    1.0934426   -107.22577    9081.2124    4.3347337    4.3347337    4.3347337    9081.2124    10374.189    4500.5083     12368.94    1086.0369   -11349.846    -4656.516    81.449285 
   17100    619.53775   -107.79501   0.56057077   -107.23444   -6340.7396    4.3401899    4.3401899    4.3401899   -6340.7396    2552.2809   -7936.6767   -13637.823    616.04148   -17488.261   -3027.7951    81.757232 
   17200    1298.9545   -108.39769    1.1753214   -107.22236    -1602.381     4.336179     4.336179     4.336179    -1602.381    5893.8619   -248.85482    -10452.15    5922.3551    4096.4404     22329.75    81.530781 
   17300    1126.7935    -108.2431    1.0195464   -107.22355    17938.532     4.331524     4.331524     4.331524    17938.532    26254.695    17790.184    9770.7172    8021.0406   -19124.221   -16245.766    81.268487 
   17400    844.07626   -107.99459   0.76373794   -107.23085   -13369.437      4.34142      4.34142      4.34142   -13369.437   -279.87539   -11969.972   -27858.463   -3648.1896   -5850.4619    9164.1215    81.826769 
   17500     996.4953   -108.12555   0.90164989    -107.2239    5347.9836    4.3342732    4.3342732    4.3342732    5347.9836    23930.209   -16893.164    9006.9061   -1306.4157    1115.7234    2719.1585    81.423327 
   17600    1000.7724   -108.13087   0.90551991   -107.22535    14718.522    4.3243672    4.3243672    4.3243672    14718.522    22555.788    21612.711   -12.933572    1367.2213   -13704.705   -9307.1366     80.86632 
   17700    922.34176   -108.06622   0.83455421   -107.23166   -22457.695     4.349414     4.349414     4.349414   -22457.695   -663.73034   -19378.475   -47330.879   -7544.0115   -3068.1059    16589.668    82.279615 
   17800      1175.98   -108.29013    1.0640515   -107.22607   -18666.611    4.3362727    4.3362727    4.3362727   -18666.611   -15312.963   -35216.292   -5470.5778    13737.706    5880.3568    5418.1501    81.536066 
   17900     908.9851   -108.04475   0.82246882   -107.22229    22311.718    4.3189521    4.3189521    4.3189521    22311.718    37218.979    35515.104   -5798.9281    1106.0952   -17938.969   -4791.0294    80.562912 
   18000    1100.7316    -108.2223   0.99596511   -107.22634   -21135.783     4.343544     4.343544     4.343544   -21135.783    12082.576   -46938.384    -28551.54    576.98396    7614.0285     21742.54    81.946927 
   18100    971.10004   -108.10355   0.87867173   -107.22487   -4331.6339    4.3389766    4.3389766    4.3389766   -4331.6339    15067.192   -20087.707   -7974.3871    17834.806    -12896.22   -6823.8857    81.688689 
   18200    688.86874   -107.85343   0.62330292   -107.23013    2871.1792    4.3339064    4.3339064    4.3339064    2871.1792    6586.9959    28518.609   -26492.068   -4565.6286   -10339.854    1806.1491    81.402655 
   18300    1360.4042   -108.45571    1.2309223   -107.22479   -4482.3027    4.3340623    4.3340623    4.3340623   -4482.3027    7166.3702    -13962.16    -6651.118    11131.378    4539.3597    10909.575    81.411443 
   18400    767.92279   -107.92462   0.69483268   -107.22978    505.16783    4.3446357    4.3446357    4.3446357    505.16783    19894.533    3159.8943   -21538.923    9152.2704   -8087.6481   -8745.3212     82.00873 
   18500    1002.0245   -108.13106   0.90665279   -107.22441   -18547.083    4.3378615    4.3378615    4.3378615   -18547.083    263.95742   -19926.301   -35978.905   -1126.3957   -1623.3627    17874.491    81.625722 
   18600     1110.625   -108.22419    1.0049168   -107.21927    26006.645    4.3248017    4.3248017    4.3248017    26006.645    64762.378    9267.9607    3989.5968   -1958.4886    5495.5276   -1769.8033    80.890702 
   18700     899.3379   -108.04314   0.81373983    -107.2294   -18408.978    4.3464365    4.3464365    4.3464365   -18408.978   -24202.919   -6379.8016   -24644.213   -184.88992   -12381.135   -15695.465     82.11075 
   18800    1029.1092   -108.15292   0.93115963   -107.22176     7531.526    4.3360865    4.3360865    4.3360865     7531.526    16618.363     21693.05   -15716.835   -4825.2809    5695.4226    8460.1352    81.525562 
   18900    1010.4518   -108.13691   0.91427801   -107.22263   -7204.5687    4.3414614    4.3414614    4.3414614   -7204.5687   -6602.1231    -1249.932   -13761.651   -210.94057   -2148.0349   -18928.185    81.829114 
   19000    821.00535   -107.96542   0.74286289   -107.22255   -5392.7572    4.3395725    4.3395725    4.3395725   -5392.7572   -4890.1281     9994.801   -21282.945    15754.805   -3913.7883   -16011.958    81.722352 
   19100    1250.5649   -108.35073    1.1315374   -107.21919    3376.2905     4.328312     4.328312     4.328312    3376.2905   -1719.9877      21408.1   -9559.2408   -4162.5996    13565.269    14149.403    81.087828 
   19200    900.74348   -108.04505   0.81501163   -107.23004   -12565.838     4.339688     4.339688     4.339688   -12565.838     5771.901   -19006.597   -24462.817    9071.8877   -7740.6197    -31516.84    81.728875 
   19300     1042.747   -108.17084   0.94349941   -107.22734    1196.4502    4.3371678    4.3371678    4.3371678    1196.4502   -12162.352    31352.263    -15600.56    14530.554    5036.5515   -4467.1897    81.586572 
   19400     1108.149   -108.22563    1.0026765   -107.22295    -5171.474    4.3424323    4.3424323    4.3424323    -5171.474     1831.826   -19511.058    2164.8104   -6937.4394    4092.8438   -7969.1346    81.884023 
   19500      714.921   -107.87685   0.64687554   -107.22997    2151.4991     4.330926     4.330926     4.330926    2151.4991    8861.0763    3195.7385   -5602.3176    7532.2091   -5719.4204   -31549.635    81.234832 
   19600    1082.9957   -108.20748   0.97991723   -107.22757    6082.6421    4.3304222    4.3304222    4.3304222    6082.6421    2112.2485    16898.009   -762.33101    11156.473    6033.2628    14078.653    81.206489 
   19700    1141.0868   -108.25817    1.0324793   -107.22569    -22232.56    4.3475525    4.3475525    4.3475525    -22232.56   -16850.867   -16213.017   -33633.796   -15995.998    6898.9516   -20259.556    82.174015 
   19800    902.20084   -108.04218   0.81633028   -107.22585    9476.5033    4.3274728    4.3274728    4.3274728    9476.5033    12098.159    12056.925    4274.4258    2398.4117   -3832.8256   -18818.913    81.040672 
   19900    1053.1067   -108.18106   0.95287308   -107.22819    731.54089    4.3369826    4.3369826    4.3369826    731.54089   -16587.454   -4492.5826    23274.659    -57.81687    2488.8958    3651.2803    81.576116 
   20000    958.46911   -108.09396   0.86724299   -107.22671    2800.7475    4.3421803    4.3421803    4.3421803    2800.7475   -4029.5958   -1983.2223    14415.061   -10949.374    1111.0634   -12362.528    81.869769 
   20100    958.00807   -108.08997   0.86682583   -107.22315    8139.5208    4.3341211    4.3341211    4.3341211    8139.5208   -3306.2716    9842.8029    17882.031    4946.0361   -14068.749   -5918.8114    81.414759 
   20200    1213.0968   -108.31775    1.0976355   -107.22011   -12127.123    4.3421938    4.3421938    4.3421938   -12127.123    907.34014   -6596.1879    -30692.52   -3052.6806     4617.358    14513.289    81.870534 
   20300    1002.9936   -108.12942   0.90752973   -107.22189    15062.582    4.3354811    4.3354811    4.3354811    15062.582   -1479.9906    8618.5574    38049.179   -3304.8127    5413.6158   -6774.4477    81.491421 
   20400    926.56151    -108.0628   0.83837232   -107.22443    16701.755    4.3341587    4.3341587    4.3341587    16701.755    26186.471    6192.5622    17726.233    7239.1317   -7436.9219   -2786.0045    81.416876 
   20500    968.43504   -108.10494   0.87626038   -107.22868    3402.6357    4.3376914    4.3376914    4.3376914    3402.6357   -9022.7718   -15020.649    34251.328   -3325.6755    7541.8935    9794.7711    81.616124 
   20600    1243.9488   -108.34959    1.1255511   -107.22403    8371.9598    4.3411965    4.3411965    4.3411965    8371.9598    8938.5938    12428.856    3748.4298   -6720.8873   -4284.9192   -8459.9314    81.814131 
   20700    1040.8717   -108.16624   0.94180259   -107.22443   -1234.7363    4.3397602    4.3397602    4.3397602   -1234.7363   -5265.9621    1038.8138    522.93934    1347.7559   -14270.437    4037.2175    81.732955 
   20800    756.90417   -107.91128    0.6848628   -107.22642    10516.084     4.334384     4.334384     4.334384    10516.084   -10913.025   -4402.2354    46863.511   -16099.236    12652.999    14131.477    81.429575 
   20900    1282.3804    -108.3762    1.1603248   -107.21588    14063.014     4.340561     4.340561     4.340561    14063.014    20095.191    8630.8707    13462.979   -5696.3159    -6791.123   -16406.183    81.778207 
   21000    870.06703   -108.01251   0.78725493   -107.22526   -13910.759    4.3438494    4.3438494    4.3438494   -13910.759   -6817.5416   -21618.192   -13296.544   -8125.1421   -5559.3669    17887.553    81.964212 
   21100    991.36748   -108.12718   0.89701013   -107.23017    2883.1957     4.327926     4.327926     4.327926    2883.1957   -4073.0839   -9985.0534    22707.724   -26300.236    11284.608    3265.6927    81.066137 
   21200    1224.6572   -108.33742    1.1080956   -107.22933    24209.613    4.3322479    4.3322479    4.3322479    24209.613    37194.677    5495.9485    29938.214    6996.6572   -13568.846      1728.67    81.309242 
   21300    573.55707   -107.75296   0.51896649     -107.234   -34629.632    4.3542143    4.3542143    4.3542143   -34629.632   -51519.642   -50986.639   -1382.6155   -17461.402    2537.7681    15167.106    82.552344 
   21400    1219.2721   -108.32524     1.103223   -107.22201    15017.654     4.322416     4.322416     4.322416    15017.654    26768.745    11504.431    6779.7859   -14296.638    17639.667    4332.4591    80.756908 
   21500     1221.795    -108.3348    1.1055058   -107.22929    10259.847    4.3307512    4.3307512    4.3307512    10259.847    12706.675   -6109.4541    24182.321    10779.083   -23831.382   -1150.7411    81.224997 
   21600    646.57569   -107.81409   0.58503527   -107.22905   -27625.375    4.3535337    4.3535337    4.3535337   -27625.375   -38737.276    -44553.74    414.89108   -22221.634   -150.30239    11243.826    82.513638 
   21700    1094.5678    -108.2051   0.99038791   -107.21471    24907.363    4.3338994    4.3338994    4.3338994    24907.363    16191.089    13855.347    44675.654    9572.9647   -3364.9414   -2623.4939    81.402266 
   21800    985.02792   -108.11069   0.89127396   -107.21942    7059.9803    4.3340043    4.3340043    4.3340043    7059.9803    3371.5422   -3955.6973    21764.096   -10474.338    -11384.23    4889.0874    81.408174 
   21900    937.14632   -108.07301   0.84794969   -107.22506   -21007.669    4.3407378    4.3407378    4.3407378   -21007.669   -13409.533   -22567.787   -27045.688   -9680.3884    8256.3912    6458.6773    81.788201 
   22000    1130.4434   -108.24335    1.0228489    -107.2205    6510.5031    4.3432832    4.3432832    4.3432832    6510.5031    5624.0797    8970.1579    4937.2716    13260.829    9956.4864   -3518.6189    81.932167 
   22100    1132.2055    -108.2477    1.0244433   -107.22326    5994.1886    4.3340209    4.3340209    4.3340209    5994.1886   -8794.9146   -15559.925    42337.405   -23863.579     3485.038    5007.8464     81.40911 
   22200    777.25424     -107.935   0.70327597   -107.23172     2066.027    4.3347115    4.3347115    4.3347115     2066.027    -11049.99   -2706.4118    19954.483    6664.4055    12057.452      20860.8    81.448033 
   22300    1194.2737   -108.30454    1.0806039   -107.22394    1232.5837    4.3413304    4.3413304    4.3413304    1232.5837   -20232.986   -3714.5336     27645.27     2992.532    3462.5163    -9544.689    81.821703 
   22400    1136.7248   -108.25643    1.0285325   -107.22789   -7080.6343    4.3322978    4.3322978    4.3322978   -7080.6343   -6843.3392   -3658.3536    -10740.21   -19849.248   -6153.5032    13236.015    81.312048 
   22500    655.57259   -107.83206   0.59317586   -107.23888    -8342.145    4.3367542    4.3367542    4.3367542    -8342.145   -29934.401    11849.378   -6941.4116    20062.313     10533.61    1041.0928    81.563229 
   22600    1184.8721   -108.30269    1.0720972   -107.23059    7347.9451    4.3372761    4.3372761    4.3372761    7347.9451   -23950.785    -7566.861    53561.482   -7344.5819   -1349.0835   -12450.383    81.592684 
   22700    1044.9809   -108.17846   0.94552067   -107.23294     3289.733     4.338051     4.338051     4.338051     3289.733   -22324.844    15530.047    16663.996   -6550.8083    1431.5477    5681.0107     81.63642 
   22800    880.97473   -108.03379   0.79712445   -107.23667    -18801.32     4.333786     4.333786     4.333786    -18801.32   -35002.828   -14271.786   -7129.3459    24289.842    15299.296    16573.895    81.395875 
   22900    1187.3392   -108.30529    1.0743295   -107.23096    12736.636    4.3289347    4.3289347    4.3289347    12736.636   -2400.5094    27121.701    13488.715   -19795.731    713.33896   -11176.017    81.122831 
   23000     813.3832   -107.96981   0.73596621   -107.23384   -15393.105    4.3464603    4.3464603    4.3464603   -15393.105   -32735.555   -2692.0015   -10751.757     10766.24    8199.8822    5029.9451    82.112096 
   23100    712.22034   -107.87952   0.64443193   -107.23509   -2287.9366    4.3309341    4.3309341    4.3309341   -2287.9366    -31925.16    2713.0635    22348.286    14226.024    18492.394    18941.948    81.235287 
   23200    1348.8507   -108.44539    1.2204684   -107.22492    23635.002    4.3270045    4.3270045    4.3270045    23635.002    11354.631    46415.251    13135.123   -10836.667   -9676.0617   -6074.7638    81.014368 
   23300    1010.2263   -108.14335   0.91407399   -107.22928   -25134.337    4.3505486    4.3505486    4.3505486   -25134.337   -35127.565   -25697.917   -14577.529      15903.5    16598.102   -6697.2454    82.344022 
   23400    937.21209   -108.07327   0.84800919   -107.22526   -5683.9007    4.3357331    4.3357331    4.3357331   -5683.9007     -22881.2    27302.763   -21473.265    2822.8932   -2847.9614    2717.3605    81.505634 
   23500    1030.7257    -108.1491   0.93262224   -107.21648    21262.782     4.321728     4.321728     4.321728    21262.782    31982.966    26082.952    5722.4276    5525.6061   -4769.9061   -22619.661    80.718352 
   23600    824.47098   -107.97672   0.74599867   -107.23072   -2771.9075    4.3378108    4.3378108    4.3378108   -2771.9075   -28067.023    -2569.391    22320.691    7656.5652    15382.923   -1716.4464    81.622859 
   23700    1027.1137   -108.15417   0.92935408   -107.22482   -2560.9907    4.3462284    4.3462284    4.3462284   -2560.9907   -20193.513    23456.427   -10945.887    2035.1314    3751.0339   -145.97468    82.098957 
   23800    1263.4552   -108.36316    1.1432008   -107.21996   -442.60218    4.3306547    4.3306547    4.3306547   -442.60218    5538.1854   -6341.3513   -524.64066    3003.1586     8379.093   -21171.895    81.219567 
   23900     949.3131    -108.0838   0.85895844   -107.22484    6352.1814    4.3286893    4.3286893    4.3286893    6352.1814    -21473.21    42128.858    -1599.104    3982.0745    11449.403    8719.2466    81.109035 
   24000    898.03103   -108.03779   0.81255735   -107.22523   -103.85532    4.3422803    4.3422803    4.3422803   -103.85532   -6642.4952    5361.8249    969.10437    938.95163   -6197.6155   -9013.4471    81.875422 
   24100    949.28643   -108.08196   0.85893431   -107.22303   -5091.0377    4.3414219    4.3414219    4.3414219   -5091.0377    -6114.528   -2642.5194   -6516.0656    7575.6291    2745.3225   -16573.193    81.826875 
   24200    995.40013   -108.12265   0.90065896   -107.22199    18744.078    4.3262841    4.3262841    4.3262841    18744.078     -12105.5    44322.158    24015.576    10422.146    3991.8193    11064.876    80.973911 
   24300    1198.4423    -108.3106    1.0843758   -107.22622    2957.8684    4.3304986    4.3304986    4.3304986    2957.8684    22371.735    14078.717   -27576.847   -752.75455   -11180.502    -28261.54    81.210782 
   24400     988.4316   -108.12033   0.89435368   -107.22597   -9918.6169     4.346513     4.346513     4.346513   -9918.6169   -26367.389    21221.368    -24609.83    9780.4431    10917.937   -10969.582    82.115087 
   24500    995.87886   -108.12582   0.90109212   -107.22473    13019.427    4.3299063    4.3299063    4.3299063    13019.427    3181.7808    29741.986    6134.5151    11235.598    4691.1102    7012.1593    81.177469 
   24600     849.0128   -107.99305   0.76820462   -107.22485    24180.603    4.3280031    4.3280031    4.3280031    24180.603    26629.811    46423.104   -511.10742   -4728.9958    93.310308   -29118.369    81.070468 
   24700    845.60313   -107.98866   0.76511948   -107.22354   -11146.462    4.3517187    4.3517187    4.3517187   -11146.462   -47484.277   -10403.538    24448.429    21252.126    8122.1876   -2377.2273    82.410478 
   24800    1080.7646     -108.194   0.97789854    -107.2161    21252.066     4.331872     4.331872     4.331872    21252.066    8603.8417    38507.521    16644.835    7237.4423    1211.4048   -6774.8416    81.288075 
   24900    1165.7478   -108.27327    1.0547931   -107.21847    1643.0095    4.3247555    4.3247555    4.3247555    1643.0095    5769.1416   -1607.4771    767.36408    4037.7212    4196.4724   -21325.058    80.888106 
   25000    707.69293   -107.86828   0.64033544   -107.22795   -21392.391    4.3399404    4.3399404    4.3399404   -21392.391   -28901.995     -13454.3   -21820.877    24421.307     4326.531     16972.64    81.743138 
   25100    1267.6087   -108.36828     1.146959   -107.22132   -7439.2516    4.3376025    4.3376025    4.3376025   -7439.2516    3500.9132    562.28923   -26380.957   -10786.577   -4202.2581   -6566.9876    81.611102 
   25200    1024.7482   -108.14965   0.92721372   -107.22243    -25702.15    4.3409275    4.3409275    4.3409275    -25702.15   -29857.501   -13293.437   -33955.513    17420.085    5002.5619   -5010.5482    81.798926 
   25300    843.27621   -107.98908   0.76301404   -107.22607    1861.4355    4.3221902    4.3221902    4.3221902    1861.4355   -1163.7532   -14222.512    20970.572    16675.342    1919.7598     6575.811    80.744256 
   25400    1354.1884   -108.45472    1.2252981   -107.22942     8778.337    4.3350732    4.3350732    4.3350732     8778.337   -9192.9168    27031.801     8496.127   -21300.213   -7402.6801    2905.2214    81.468422 
   25500    988.69867   -108.12607   0.89459534   -107.23148   -8999.2059    4.3427102    4.3427102    4.3427102   -8999.2059   -23505.993   -2876.9264   -614.69833    33163.562    1303.7487   -1526.3796    81.899744 
   25600    548.76205   -107.72321   0.49653144   -107.22668    25290.491    4.3240948    4.3240948    4.3240948    25290.491    16361.411    23743.858    35766.203   -16164.525     6468.009    15982.517    80.851044 
   25700    1274.0743   -108.36898    1.1528092   -107.21617   -6076.7485    4.3439044    4.3439044    4.3439044   -6076.7485   -26266.322   -318.68373    8354.7605   -8687.0334     160.8877   -5074.2601    81.967328 
   25800    837.17959    -107.9778   0.75749769    -107.2203     20817.63    4.3318923    4.3318923    4.3318923     20817.63    5643.7605    27446.087    29363.043    20677.983     6521.166   -65.855669     81.28922 
   25900    816.60161   -107.96749   0.73887829   -107.22861   -580.47987    4.3335991    4.3335991    4.3335991   -580.47987    -21695.93    -8665.983    28620.473   -26811.286    6123.6449    8910.0705    81.385344 
   26000    1305.9354   -108.40082    1.1816378   -107.21918    1866.0155    4.3384112    4.3384112    4.3384112    1866.0155   -15916.662    13889.495    7625.2133     1770.192    1769.5725   -15495.366     81.65676 
   26100    962.87148    -108.0944   0.87122635   -107.22318    7224.3753    4.3295847    4.3295847    4.3295847    7224.3753    1231.5535    1265.3214    19176.251    134.57762    6236.8926    5810.0103    81.159379 
   26200    813.66208   -107.96461   0.73621855   -107.22839    -32866.74    4.3405616    4.3405616    4.3405616    -32866.74   -28074.286    -41071.98   -29453.955   -29667.942   -4423.3334    6932.5323     81.77824 
   26300    1291.3222    -108.3903    1.1684155   -107.22189    4891.1356    4.3310619    4.3310619    4.3310619    4891.1356    22776.981    6717.7571   -14821.331    11643.932    4564.5039   -12759.827    81.242482 
   26400     967.8709   -108.10247   0.87574993   -107.22672   -12399.532    4.3434537    4.3434537    4.3434537   -12399.532   -34526.902   -26646.175    23974.481   -17942.852   -616.47397    4625.0953    81.941819 
   26500    928.25439   -108.06361   0.83990408   -107.22371    2138.4674    4.3332753    4.3332753    4.3332753    2138.4674       1648.1   -20868.413    25635.715   -14652.116    661.29697   -2003.0893    81.367104 
   26600    889.75013   -108.02631   0.80506462   -107.22124    33395.433    4.3241971    4.3241971    4.3241971    33395.433    37849.798     28351.89    33984.612    6692.8118    4817.2354   -22172.702    80.856779 
   26700    976.47259   -108.10926   0.88353292   -107.22572   -32466.528    4.3484583    4.3484583    4.3484583   -32466.528   -48829.762   -33618.517   -14951.305   -37152.557    3728.2179    5983.5831    82.225387 
   26800     938.7689   -108.07091   0.84941783   -107.22149    10280.623    4.3305456    4.3305456    4.3305456    10280.623    36148.391    11297.587    -16604.11    8051.0213    1988.0808    -7472.048    81.213429 
   26900    1193.4735   -108.30088    1.0798799     -107.221   -6647.6248    4.3299094    4.3299094    4.3299094   -6647.6248   -9612.5939   -13067.276    2736.9952   -23048.181   -247.35833   -512.13194    81.177639 
   27000    1082.8708   -108.20223   0.97980428   -107.22243   -20631.915    4.3421218    4.3421218    4.3421218   -20631.915   -37153.625   -11331.757   -13410.362   -30709.692    2084.7535   -3421.4358    81.866457 
   27100    1053.2404   -108.17122   0.95299406   -107.21823    3515.5066    4.3349703    4.3349703    4.3349703    3515.5066     13278.53   -2310.3045   -421.70618    12753.465   -2950.5898   -13819.389     81.46262 
   27200    927.18642   -108.06263   0.83893776    -107.2237   -13259.711     4.336754     4.336754     4.336754   -13259.711    -15475.65   -26693.761    2390.2793   -31732.021    4957.9827    3383.5425     81.56322 
   27300    861.22487   -107.99969   0.77925436   -107.22043    18398.939    4.3279708    4.3279708    4.3279708    18398.939    13719.371    26597.498    14879.948    8017.2867    13324.003   -7627.3972    81.068656 
   27400    795.23755   -107.94531   0.71954764   -107.22576   -13887.228    4.3505469    4.3505469    4.3505469   -13887.228    17543.075   -32477.645   -26727.114   -10167.896    2151.2973   -3238.8612    82.343924 
   27500    1120.7471   -108.23308    1.0140755     -107.219    -1448.182    4.3379461    4.3379461    4.3379461    -1448.182    4039.5494   -21711.862    13327.767   -24895.495    11614.024    2495.1368    81.630498 
   27600    1049.2614    -108.1609   0.94939373   -107.21151     23400.44    4.3147353    4.3147353    4.3147353     23400.44    38739.001    30924.843    537.47716    7196.9069    6388.0994    -2064.645    80.327173 
   27700     776.1355   -107.92754   0.70226371   -107.22527   -34428.219     4.347292     4.347292     4.347292   -34428.219   -21219.911   -47239.613   -34825.134   -21776.867   -7631.0059   -4582.0048    82.159243 
   27800    1230.4611   -108.32852    1.1133471   -107.21517    9163.0418    4.3325341    4.3325341    4.3325341    9163.0418   -20104.999    30618.862    16975.262   -8065.6389    -1341.235    -4965.481    81.325353 
   27900    833.17916   -107.97961   0.75387801   -107.22573   -8829.7077     4.328677     4.328677     4.328677   -8829.7077    22625.803   -22716.295   -26398.631    11804.621    3726.9439   -5790.0167    81.108343 
   28000    880.04946   -108.02602   0.79628725   -107.22974   -3101.3776    4.3358023    4.3358023    4.3358023   -3101.3776    8585.8698    -18350.81    460.80773   -14706.598   -5646.0887   -3528.8456    81.509533 
   28100    1341.1447   -108.43128    1.2134959   -107.21778    7645.8299    4.3366998    4.3366998    4.3366998    7645.8299    17064.445    14751.516   -8878.4719    6721.5212    -2473.311    1235.7062     81.56016 
   28200    586.35084   -107.75345   0.53054256    -107.2229   -26033.219    4.3475953    4.3475953    4.3475953   -26033.219    22564.217   -57643.563   -43020.312   -1842.2997    -2555.632   -2748.4863    82.176442 
   28300    1132.6935   -108.23466    1.0248849   -107.20978    25894.204    4.3196753    4.3196753    4.3196753    25894.204    40616.647    33787.083    3278.8822   -12966.434   -890.05491   -3520.9601    80.603391 
   28400    968.44182   -108.10354   0.87626651   -107.22728   -17134.763    4.3334456    4.3334456    4.3334456   -17134.763    1962.9836   -22600.623   -30766.648    15280.466   -2807.6285   -273.28099    81.376697 
   28500    710.61744   -107.86986   0.64298159   -107.22687   -28704.727    4.3452301    4.3452301    4.3452301   -28704.727    7335.0712   -56596.211    -36853.04    796.39072   -2251.1465   -8637.9092    82.042397 
   28600    1654.8593    -108.7081    1.4973515   -107.21075    18644.617    4.3175468    4.3175468    4.3175468    18644.617    18672.841    30315.781    6945.2295    3541.1419    8106.2701   -987.47662    80.484299 
   28700    517.89501    -107.7032   0.46860229    -107.2346   -25198.011    4.3377137    4.3377137    4.3377137   -25198.011    21485.236   -56205.917   -40873.352    17367.107    8388.7677   -5860.0179    81.617381 
   28800    890.04842    -108.0292   0.80533452   -107.22387    1124.8246    4.3380603    4.3380603    4.3380603    1124.8246    51995.862   -28288.168    -20333.22   -2886.0444    2227.1786   -6042.2382    81.636948 
   28900    1253.8838   -108.34964    1.1345404    -107.2151    853.79595    4.3334243    4.3334243    4.3334243    853.79595    26792.444    1862.8409   -26093.897     -3799.33    881.66838   -654.59991    81.375495 
   29000    395.44624   -107.59293   0.35780807   -107.23513   -14233.116    4.3331988    4.3331988    4.3331988   -14233.116    39571.788   -55577.915   -26693.221    10294.508    -2194.997   -8101.2682     81.36279 
   29100    1448.2654   -108.53228     1.310421   -107.22186    6379.1866    4.3314817    4.3314817    4.3314817    6379.1866    18244.905    5948.0966   -5055.4414   -9763.6308   -3206.5853    4797.3771    81.266105 
   29200    1040.3405   -108.16618   0.94132199   -107.22486   -29383.372     4.345233     4.345233     4.345233   -29383.372   -20087.975   -35691.965   -32370.175   -4841.6896   -393.89406   -7281.6059    82.042559 
   29300    801.69142   -107.94806   0.72538725   -107.22267    5337.9866    4.3274987    4.3274987    4.3274987    5337.9866    49867.667   -27910.444   -5943.2631    9879.1552    4561.6145   -6044.3245    81.042131 
   29400    1212.9237   -108.31386    1.0974789   -107.21638    8367.8927    4.3260187    4.3260187    4.3260187    8367.8927     21463.66    13655.346   -10015.328   -12749.207   -7286.6654     2719.416    80.959006 
   29500    589.07785   -107.76124   0.53301002   -107.22823    1542.0612    4.3390243    4.3390243    4.3390243    1542.0612    58112.077   -49173.875   -4312.0189   -1655.7748   -5368.4946   -10860.312    81.691385 
   29600    1344.6412   -108.43563    1.2166596   -107.21897   -6316.4369      4.33609      4.33609      4.33609   -6316.4369    4733.8286    -15232.95   -8450.1897    12276.617   -6128.7778    1071.0333    81.525759 
   29700    942.90429   -108.07644   0.85315962   -107.22328   -847.22931     4.328838     4.328838     4.328838   -847.22931   -3560.0532   -926.50876     1944.874   -30758.476    -9206.744   -7111.9662    81.117395 
   29800    946.64075   -108.08045   0.85654044   -107.22391     -7147.04    4.3311195    4.3311195    4.3311195     -7147.04    22855.269   -33365.962   -10930.427    14993.419    3607.7901   -1362.5832    81.245721 
   29900    1166.6887   -108.27383    1.0556444   -107.21819    2071.4035    4.3363418    4.3363418    4.3363418    2071.4035    9857.6537    339.10291    -3982.546   -11109.702   -5118.3047    3851.6891    81.539965 
   30000    671.44426   -107.83208   0.60753688   -107.22454    6232.3717     4.333224     4.333224     4.333224    6232.3717    19684.698   -24683.069    23695.487   -25244.833   -2384.7322   -5867.0816     81.36421 
   30100    1339.4768   -108.43018    1.2119867    -107.2182    1747.4293    4.3291926    4.3291926    4.3291926    1747.4293    19496.534   -5295.0074    -8959.239    18187.793     936.4613    13475.117    81.137333 
   30200    889.81524   -108.02822   0.80512352   -107.22309    625.28327    4.3358852    4.3358852    4.3358852    625.28327   -22696.868   -5437.0839    30009.802    -43152.95   -1231.9632    -4220.607    81.514213 
   30300    1143.8126   -108.25158    1.0349456   -107.21663   -7254.6205     4.334412     4.334412     4.334412   -7254.6205    5100.6948   -11264.988   -15599.569    356.73544   -550.55644   -2914.9254     81.43115 
   30400    923.92477   -108.05446   0.83598655   -107.21848    6071.6148    4.3296537    4.3296537    4.3296537    6071.6148    11257.517   -1353.7462    8311.0733   -4178.9526    3853.0806    6398.9885    81.163261 
   30500    726.97383   -107.88402    0.6577812   -107.22623    4320.9596    4.3353012    4.3353012    4.3353012    4320.9596   -10621.628    2520.2493    21064.257   -38131.745    2686.1087    35.136876    81.481276 
   30600    1513.4122   -108.58287    1.3693672    -107.2135    1754.2581    4.3341696    4.3341696    4.3341696    1754.2581    13904.978    6442.7842   -15084.988     20166.99   -10763.675   -3219.5124     81.41749 
   30700    615.60298   -107.78477   0.55701051   -107.22776   -2604.6245    4.3263416    4.3263416    4.3263416   -2604.6245   -32279.533   -15198.976    39664.636   -45128.732    10713.043    936.45902    80.977135 
   30800     1249.577   -108.35466    1.1306435   -107.22402   -3570.7078    4.3340437    4.3340437    4.3340437   -3570.7078   -11493.592    7348.6468   -6567.1778   -11794.239    1099.8124   -16.086279    81.410393 
   30900    1109.8658   -108.22589    1.0042299   -107.22166   -7329.4625    4.3397706    4.3397706    4.3397706   -7329.4625   -9181.9886    -2914.957   -9891.4418   -6174.9747   -7549.3796     -8066.06    81.733541 
   31000    431.41282   -107.62144   0.39035139   -107.23108    1491.1061    4.3293868    4.3293868    4.3293868    1491.1061    -30080.39   -5131.6522     39685.36   -47170.691    10891.536    6860.4616    81.148253 
   31100    1604.4194   -108.66822    1.4517123   -107.21651    11153.266    4.3271584    4.3271584    4.3271584    11153.266    24771.496    12057.583    -3369.282    16302.559   -12976.193   -4673.3294    81.023009 
   31200    731.78541   -107.89777   0.66213482   -107.23563   -8961.0777    4.3346666    4.3346666    4.3346666   -8961.0777   -41088.129   -17325.427    31530.323   -44838.488    109.10248    363.42907    81.445499 
   31300    1020.9601   -108.15734   0.92378613   -107.23355   -12101.367    4.3358814    4.3358814    4.3358814   -12101.367   -13810.222   -16663.321   -5830.5567   -15781.286    4396.4424    -3936.589    81.513998 
   31400     1188.383   -108.29931    1.0752739   -107.22403    10883.256    4.3292309    4.3292309    4.3292309    10883.256    22770.225     5589.034    4290.5087    7101.3854    3031.0848    1834.2855    81.139486 
   31500    585.64697   -107.76266   0.52990569   -107.23275    2260.6341    4.3287081    4.3287081    4.3287081    2260.6341   -23944.196   -3929.6181    34655.716   -46544.886   -9381.0193    1194.0683    81.110093 
   31600    1316.2617   -108.40916    1.1909812   -107.21818   -5889.6132    4.3399308    4.3399308    4.3399308   -5889.6132    18636.831   -16089.909   -20215.761    11546.031    14960.715    3342.3714    81.742592 
   31700    922.56886   -108.05443   0.83475969   -107.21968   -3126.2073    4.3331907    4.3331907    4.3331907   -3126.2073    -15637.48   -30813.993    37072.851   -33882.453    -1953.943   -6987.8325    81.362336 
   31800    1077.6521   -108.19696   0.97508229   -107.22188   -228.51011    4.3244315    4.3244315    4.3244315   -228.51011    3797.1924   -15012.761    10530.038   -27805.392    3698.3959    4410.4447    80.869929 
   31900    1066.7753   -108.19074   0.96524072    -107.2255   -2353.4973    4.3373536    4.3373536    4.3373536   -2353.4973    30210.997   -22150.089   -15121.401    7909.5917     635.9784   -8022.7433    81.597053 
   32000    805.66432   -107.95716   0.72898201   -107.22817    2569.1099    4.3324518    4.3324518    4.3324518    2569.1099   -6502.4901   -15505.145    29714.965   -42658.781   -627.12012     4117.738    81.320723 
   32100    1180.8817   -108.28896    1.0684865   -107.22048    7353.3282    4.3270538    4.3270538    4.3270538    7353.3282    11033.448    7877.7889    3148.7476    8485.0447    857.85854   -12253.162    81.017135 
   32200    719.04806   -107.88039    0.6506098   -107.22978   -11898.775    4.3319328    4.3319328    4.3319328   -11898.775   -12643.323   -28389.997     5336.996   -20217.859    9096.1351   -6700.3988      81.2915 
   32300    1106.8618   -108.22981    1.0015118    -107.2283    -3493.774     4.334249     4.334249     4.334249    -3493.774   -18091.984   -26559.244    34169.906   -32997.044   -6270.1815   -187.23248    81.421964 
   32400    1403.2469   -108.49181    1.2696873   -107.22212   -10321.891    4.3401067    4.3401067    4.3401067   -10321.891    4210.3864   -9115.9592     -26060.1    15420.909    6765.2787   -3594.9741    81.752533 
   32500    481.70958   -107.66985   0.43586095   -107.23399    1665.5107    4.3233378    4.3233378    4.3233378    1665.5107   -1578.5658   -15928.519    22503.616   -42058.853    11340.781     3687.766    80.808588 
   32600    1299.7253   -108.40059    1.1760188   -107.22457    7355.7876    4.3321994    4.3321994    4.3321994    7355.7876    18922.628    1116.1475    2028.5868    1015.5351    5249.3691    1216.6222    81.306509 
   32700    858.61892   -108.00034   0.77689644   -107.22345   -20432.721    4.3460323    4.3460323    4.3460323   -20432.721   -27973.739    -27041.58    -6282.845   -6503.3185    12624.497   -7342.7661    82.087845 
   32800    777.47797   -107.92616    0.7034784   -107.22268     7863.129    4.3210403    4.3210403    4.3210403     7863.129   -15147.588   -756.70645    39493.682   -32438.473     5776.717    1693.5948    80.679824 
   32900    1540.7559   -108.61112    1.3941083   -107.21701   -783.36035    4.3337422    4.3337422    4.3337422   -783.36035   -12193.086    519.43107    9323.5734    13000.581   -17805.541    3289.7352    81.393405 
   33000    625.44886   -107.78855   0.56591928   -107.22263   -22275.345      4.34447      4.34447      4.34447   -22275.345   -32331.497   -34425.445   -69.091792   -30943.988    10684.664    4864.3352    81.999352 
   33100    1108.9071   -108.21509    1.0033624   -107.21173    10803.756    4.3252318    4.3252318    4.3252318    10803.756    26285.724    5448.7604    676.78417   -607.64054   -5361.2008   -4507.1595    80.914838 
   33200     905.1418    -108.0388   0.81899132   -107.21981    -3731.126    4.3309072    4.3309072    4.3309072    -3731.126   -11339.869   -15692.552    15839.043    -3532.381   -8435.6049   -1797.1729    81.233776 
   33300    870.87545   -108.01403   0.78798641   -107.22604   -638.27449    4.3360302    4.3360302    4.3360302   -638.27449   -20217.519   -10284.338    28587.033   -29996.769    10988.654    1211.8034    81.522386 
   33400    1280.0692   -108.37534    1.1582335   -107.21711   -4786.8245    4.3430213    4.3430213    4.3430213   -4786.8245   -22303.122   -6487.2228    14429.871    12038.108   -16793.885   -4155.2562    81.917345 
   33500    822.44653    -107.9675    0.7441669   -107.22333   -9222.3999    4.3270362    4.3270362    4.3270362   -9222.3999   -26084.173   -24678.688    23095.661   -34215.555   -16068.956    -888.3489    81.016148 
   33600    1224.1994    -108.3258    1.1076813   -107.21812    19629.275      4.32544      4.32544      4.32544    19629.275    30195.194    5873.4477    22819.183   -6234.8301    7992.5591   -1677.9515    80.926523 
   33700    907.07718   -108.04319   0.82074249   -107.22244     -21029.2    4.3444317    4.3444317    4.3444317     -21029.2   -4339.1812   -29395.589   -29352.829   -11319.905   -7937.8396   -1133.0728    81.997182 
   33800    676.53346   -107.83877   0.61214169   -107.22663    2564.4849    4.3327292    4.3327292    4.3327292    2564.4849   -18849.764    -13012.13    39555.349   -33384.573   -951.14157    1202.2422    81.336341 
   33900    1555.6118   -108.61812    1.4075502   -107.21057    9517.4967    4.3333952    4.3333952    4.3333952    9517.4967    17107.104   -16646.535    28091.922    9696.2311    7032.5214    1043.0769    81.373856 
   34000    644.45931   -107.80972   0.58312032    -107.2266   -3302.6393    4.3306118    4.3306118    4.3306118   -3302.6393    -31319.53    -32160.96    53572.571   -40963.236   -14879.882    2956.1584    81.217154 
   34100    918.76116   -108.05692    0.8313144    -107.2256     12844.86    4.3377263    4.3377263    4.3377263     12844.86    32116.249   -17898.778    24317.108    1304.3468   -9301.3792    4777.3796    81.618092 
   34200    1222.1558   -108.32516    1.1058323   -107.21933   -12270.186    4.3396923    4.3396923    4.3396923   -12270.186    3373.1212   -36164.383   -4019.2954   -12615.499    46.965888   -4412.9225    81.729117 
   34300    739.25042   -107.88769   0.66888931   -107.21881    5877.0054    4.3271916    4.3271916    4.3271916    5877.0054   -1736.0279   -11665.675    31032.719   -36713.625   -4593.1387    -968.7982    81.024876 
   34400    1525.7462   -108.58903    1.3805272   -107.20851   -11476.134    4.3424003    4.3424003    4.3424003   -11476.134     -220.389   -17512.977   -16695.037    12844.145   -3300.8678   -1998.9944     81.88221 
   34500    835.16611    -107.9777   0.75567585   -107.22203   -3519.1854    4.3291882    4.3291882    4.3291882   -3519.1854   -10620.395   -29757.181     29820.02   -39935.841    12435.334   -2337.1169    81.137084 
   34600    895.15048   -108.03213   0.80995097   -107.22218    27356.481     4.329501     4.329501     4.329501    27356.481    31826.151    14215.095    36028.197   -3331.7341   -23965.542    6241.0411    81.154676 
   34700    1180.7837   -108.28626    1.0683979   -107.21787   -1661.4172    4.3395355    4.3395355    4.3395355   -1661.4172    3567.2096    3137.8286    -11689.29    -1561.094    6106.3343    3462.6561    81.720259 
   34800    731.16249   -107.88446   0.66157119   -107.22289    9802.6242    4.3274346    4.3274346    4.3274346    9802.6242   -16900.585    3944.1231    42364.334   -41484.123    2877.3327    -1215.137     81.03853 
   34900    1342.9444   -108.43103    1.2151243   -107.21591    5930.7615    4.3394758    4.3394758    4.3394758    5930.7615    7208.3865    7315.4002    3268.4978    11899.032   -7423.5203    2593.3351    81.716884 
   35000    799.99331   -107.94632   0.72385076   -107.22247     2862.648    4.3332764    4.3332764    4.3332764     2862.648    2059.8889   -12252.522    18780.577   -29544.606    21199.765   -5241.4157    81.367161 
   35100    883.34141   -108.02277   0.79926587    -107.2235    1373.3483    4.3343469    4.3343469    4.3343469    1373.3483     6350.547    3142.3885   -5372.8905   -13405.497    2700.1861    982.34865    81.427482 
   35200     1465.108   -108.53866    1.3256605     -107.213    4906.2888     4.334812     4.334812     4.334812    4906.2888    10350.078    16681.015   -12312.227    919.43963   -10301.268    5663.8006    81.453699 
   35300      716.883   -107.87425   0.64865081    -107.2256   -5867.4807    4.3308685    4.3308685    4.3308685   -5867.4807   -31636.044    1037.5518     12996.05   -41804.218    10113.237    3093.8753    81.231599 
   35400    1192.6811   -108.29842    1.0791629   -107.21926    3045.5679    4.3384096    4.3384096    4.3384096    3045.5679   -9002.3165    28546.371   -10407.351    11731.173     3613.331   -442.69174    81.656671 
   35500    1049.9465   -108.17302   0.95001367     -107.223   -1679.5062    4.3304503    4.3304503    4.3304503   -1679.5062    4412.3757   -23004.796    13553.902    -24573.66   -10169.434    1065.6236    81.208066 
   35600    601.77075   -107.77798   0.54449482   -107.23349   -5538.6823    4.3338532    4.3338532    4.3338532   -5538.6823   -16101.833   -10243.904    9729.6896   -26152.733    27136.682    3811.4554    81.399662 
   35700    1518.8601   -108.59457    1.3742965   -107.22027    8880.0725    4.3335894    4.3335894    4.3335894    8880.0725    9989.3582    27989.511   -11338.651    2204.2951   -2383.5127   -2415.9491    81.384794 
   35800     651.5714   -107.82005   0.58955549    -107.2305    14757.053     4.331587     4.331587     4.331587    14757.053   -5092.7253    15206.082    34157.803   -38384.119    4339.0746    9155.4264    81.272034 
   35900    907.33318   -108.03981   0.82097413   -107.21884   -11773.104    4.3470567    4.3470567    4.3470567   -11773.104   -33553.281    10181.438    -11947.47   -351.52621    14230.601   -6862.3885    82.145903 
   36000    1219.4146   -108.31406    1.1033519    -107.2107     2964.789     4.330257     4.330257     4.330257     2964.789    272.49465   -14582.641    23204.514    -8114.209    -9370.387   -1052.8046    81.197192 
   36100    848.97111   -107.98894    0.7681669   -107.22077   -12101.753     4.327075     4.327075     4.327075   -12101.753   -23821.919   -28227.236    15743.898   -29203.495    8944.7922   -1494.8049    81.018324 
   36200    1436.1585   -108.51261    1.2994664   -107.21314   -18363.215    4.3467804    4.3467804    4.3467804   -18363.215   -26109.348   -4090.5356   -24889.762    14079.708    7055.1703   -15495.775    82.130242 
   36300    1018.9434   -108.13186   0.92196139    -107.2099   -13349.978    4.3434936    4.3434936    4.3434936   -13349.978   -17361.448   -30603.901    7915.4158   -34499.432   -8743.8806    764.11079    81.944074 
   36400    921.14804    -108.0424   0.83347411   -107.20892    1269.0222    4.3323031    4.3323031    4.3323031    1269.0222   -12518.085    13348.211    2976.9411   -899.72568    22224.601    5288.7575    81.312345 
   36500    1007.9478   -108.11892   0.91201235   -107.20691    14371.406     4.332241     4.332241     4.332241    14371.406   -32.192956     9962.838    33183.574   -10864.897    2965.8703     3235.626    81.308849 
   36600    780.06326   -107.92204   0.70581763   -107.21622     738.5251    4.3478483    4.3478483    4.3478483     738.5251   -23343.269   -3867.7569    29426.602   -30719.923     6821.162    17472.676    82.190787 
   36700    909.23447   -108.03215   0.82269445   -107.20945    9680.0805    4.3417152    4.3417152    4.3417152    9680.0805   -19295.591    41153.244    7182.5893    8474.2609    22646.675    14763.863    81.843463 
   36800    953.49464   -108.07048   0.86274199   -107.20774    10484.297    4.3230458    4.3230458    4.3230458    10484.297    339.82576   -11283.403    42396.469   -41406.999   -3930.1242   -6567.8197    80.792213 
   36900    999.04323   -108.11941   0.90395531   -107.21546    -12106.56    4.3368334    4.3368334    4.3368334    -12106.56   -19210.697    2189.3154   -19298.298   -1240.7892    20299.839    4098.5819    81.567698 
   37000    1053.3168   -108.17048    0.9530632   -107.21741   -13504.541    4.3360463    4.3360463    4.3360463   -13504.541    -15834.46   -19927.585   -4751.5771    -4179.316    17404.612    4175.4876    81.523298 
   37100    967.66729   -108.09836    0.8755657   -107.22279    961.82649    4.3333941    4.3333941    4.3333941    961.82649   -29030.456   -8028.7377    39944.673    -31784.65    -12943.28   -10665.088    81.373793 
   37200    1197.6827   -108.30362    1.0836884   -107.21993    2233.5235    4.3326321    4.3326321    4.3326321    2233.5235   -6603.2627    19994.401   -6690.5682    16743.756    21282.083    7986.1436    81.330874 
   37300    584.78013    -107.7577   0.52912135   -107.22858     13393.89    4.3337096    4.3337096    4.3337096     13393.89   -17050.811   -5636.7198    62869.201   -36283.752    12141.456    11085.948    81.391571 
   37400    1293.2821    -108.3847    1.1701888   -107.21451   -5316.2153     4.345871     4.345871     4.345871   -5316.2153    3444.2693   -7778.6423   -11614.273   -8228.6652   -401.01228   -4133.7495    82.078706 
   37500    715.84071   -107.86701   0.64770772   -107.21931    13184.845    4.3311123    4.3311123    4.3311123    13184.845    15476.064   -2689.6084    26768.079   -14137.593    18584.363    4293.6396    81.245315 
   37600     950.6801   -108.08393   0.86019534   -107.22373   -3693.1908    4.3312478    4.3312478    4.3312478   -3693.1908   -18051.951   -6114.9247    13087.304   -40331.961    474.38552   -1379.8247    81.252945 
   37700    1416.6148   -108.49466    1.2817829   -107.21288    1570.5981    4.3430949    4.3430949    4.3430949    1570.5981   -9742.7318    6115.2532    8339.2731    12979.217   -9544.5567   -6444.5585    81.921511 
   37800    601.22899   -107.76583   0.54400462   -107.22183    -8889.258    4.3382084    4.3382084    4.3382084    -8889.258    -49637.12   -26192.024     49161.37    -33764.73    15708.283   -60.854211    81.645309 
   37900    1285.5512    -108.3756    1.1631937   -107.21241   -1068.1825    4.3334186    4.3334186    4.3334186   -1068.1825    72.443913   -19380.648    16103.657   -5064.7527   -1392.8505   -1164.9397    81.375173 
   38000    1162.3049    -108.2714    1.0516779   -107.21973   -4772.6194    4.3294435    4.3294435    4.3294435   -4772.6194   -13991.067   -13498.576    13171.785   -7128.7696    1195.9043   -4022.2927    81.151439 
   38100    631.10932   -107.80366   0.57104098   -107.23261   -21107.562    4.3381876    4.3381876    4.3381876   -21107.562   -41730.658   -20273.244   -1318.7844   -43916.857    16551.007    9835.4156    81.644137 
   38200    1285.4383   -108.38149    1.1630916    -107.2184     8409.318    4.3372558    4.3372558    4.3372558     8409.318   -11814.784     45444.18   -8401.4416    7483.4124   -20030.736    -8937.274    81.591535 
   38300     740.2116   -107.89587   0.66975901   -107.22611     4242.203    4.3314917    4.3314917    4.3314917     4242.203   -34423.519    11389.674    35760.455   -31970.976    5394.2608   -13653.854    81.266666 
   38400    844.18113   -107.98778   0.76383283   -107.22394    1665.4599    4.3420536    4.3420536    4.3420536    1665.4599   -30528.027   -4420.0375    39944.444   -8562.2157    8153.9638   -1778.0467    81.862603 
   38500    1090.9961   -108.19849    0.9871562   -107.21133   -1533.8481    4.3457899    4.3457899    4.3457899   -1533.8481   -27207.769   -11071.619    33677.844    8.5886406   -10898.176   -8101.1655     82.07411 
   38600    783.03832   -107.91948   0.70850953   -107.21097   -18646.694    4.3358875    4.3358875    4.3358875   -18646.694   -54319.411   -24779.543    23158.872   -38782.672    19497.128    2139.3337    81.514343 
   38700    1466.9921   -108.53117    1.3273653   -107.20381    1673.7439    4.3312982    4.3312982    4.3312982    1673.7439   -12903.984    6674.3311    11250.884     14496.06    3424.8254     12435.23    81.255778 
   38800    849.59064   -107.98325   0.76872747   -107.21452   -30518.785    4.3473626    4.3473626    4.3473626   -30518.785   -47858.497    -46164.03    2466.1719   -36095.705   -11586.779   -357.70631    82.163247 
   38900    1170.2658   -108.27532    1.0588811   -107.21643    3446.3179    4.3292878    4.3292878    4.3292878    3446.3179    -22839.32   -1598.0145    34776.288   -4238.2356    12981.217    2604.2456    81.142685 
   39000    948.76429   -108.08134   0.85846187   -107.22288    17413.613    4.3227308    4.3227308    4.3227308    17413.613   -22509.641    20376.743    54373.737   -8499.9087   -4056.1758   -3547.6475    80.774555 
   39100    644.39143    -107.8188    0.5830589   -107.23574    -4667.602    4.3394192    4.3394192    4.3394192    -4667.602   -46915.906   -7480.8403    40393.941    -34637.76   -19919.754    2218.7657    81.713687 
   39200    1586.5815   -108.65031    1.4355723   -107.21474    1255.0522    4.3415535    4.3415535    4.3415535    1255.0522   -22875.953    19074.287    7566.8229     11910.08    10338.242   -3324.3906     81.83432 
   39300    692.33048   -107.85375   0.62643516   -107.22731     -27802.7    4.3340423    4.3340423    4.3340423     -27802.7   -58917.548   -22541.323   -1949.2293    -42147.36   -12809.326    5698.5517    81.410317 
   39400    939.47667   -108.07401   0.85005823   -107.22395    15758.159    4.3250123    4.3250123    4.3250123    15758.159   -12375.767    29423.748    30226.495   -1160.4177   -15702.272   -1869.7513     80.90252 
   39500    1202.6011   -108.31035    1.0881388   -107.22221   -3705.8368    4.3418764    4.3418764    4.3418764   -3705.8368   -38915.074   -18155.681    45953.245   -14322.145    10591.513   -5902.8502    81.852577 
   39600    549.12636   -107.73062   0.49686107   -107.23375   -4578.7346    4.3355793    4.3355793    4.3355793   -4578.7346   -64913.044     22531.74    28645.101   -25061.499   -24879.437   -7669.1549     81.49696 
   39700    1318.5272    -108.4168    1.1930311   -107.22377    7689.0709    4.3306726    4.3306726    4.3306726    7689.0709   -14680.223    37485.768     261.6675     8768.533   -9996.5633     4205.505    81.220575 
   39800    1028.3509   -108.15388   0.93047352   -107.22341   -10711.533    4.3426569    4.3426569    4.3426569   -10711.533   -27766.043   -4277.2752   -91.280734   -32439.039   -442.92034   -7901.4645     81.89673 
   39900    904.08543   -108.03874    0.8180355   -107.22071    -12758.66    4.3370452    4.3370452    4.3370452    -12758.66   -21819.032    9487.4559   -25944.402   -12241.456   -22657.086    8053.0703     81.57965 
   40000    1270.5031   -108.36304    1.1495779   -107.21346   -10840.979    4.3400533    4.3400533    4.3400533   -10840.979    52.006943   -14222.587   -18352.356    11979.349    10574.232      9813.54    81.749514 
   40100    922.61983   -108.04817   0.83480581   -107.21336   -24523.362    4.3456675    4.3456675    4.3456675   -24523.362   -39952.023   -4308.2447   -29309.818   -18572.055   -15495.389   -3621.2832    82.067173 
   40200    1041.6903   -108.15798   0.94254328   -107.21543   -3646.4813    4.3333968    4.3333968    4.3333968   -3646.4813   -21719.484     39545.76    -28765.72    10265.875   -12888.197    9400.6285    81.373943 
   40300     1207.277   -108.30797    1.0923696    -107.2156     8589.219    4.3300554    4.3300554    4.3300554     8589.219    -3547.323    32111.162   -2796.1817    1968.5542    14128.022    2192.8298    81.185856 
   40400    709.90975    -107.8728   0.64234126   -107.23046   -20616.342    4.3426422    4.3426422    4.3426422   -20616.342   -31773.003    9020.9303   -39096.953   -27704.168   -39962.673   -5080.1639    81.895898 
   40500    1037.3904   -108.16172   0.93865259   -107.22307    1082.6166     4.339571     4.339571     4.339571    1082.6166    23118.208    5192.4452   -25062.804     10577.77   -1789.2263    8289.5773    81.722266 
   40600    1110.3245   -108.22922    1.0046449   -107.22458   -8875.7196    4.3290212    4.3290212    4.3290212   -8875.7196   -12019.584   -3091.8239   -11515.751   -12193.618   -12150.493   -8944.7069    81.127695 
   40700    527.99582   -107.71456   0.47774171   -107.23682   -142.96015    4.3336066    4.3336066    4.3336066   -142.96015   -20413.936    30669.404   -10684.348   -9419.5452   -41559.405    1844.8334    81.385763 
   40800    1641.3562   -108.70482    1.4851336   -107.21969   -4432.0479    4.3395682    4.3395682    4.3395682   -4432.0479     1263.777   -7916.5206   -6643.4002   -2331.9861    12444.291     1623.402    81.722106 
   40900    737.11158   -107.90161   0.66695405   -107.23466    -16940.44    4.3390721    4.3390721    4.3390721    -16940.44   -34085.461    19852.379   -36588.237   -3816.9418   -31486.458    3403.2001     81.69408 
   41000    735.57021   -107.90178   0.66555939   -107.23622    8268.3216     4.325989     4.325989     4.325989    8268.3216   -747.07578    43113.164   -17561.123   -18085.234   -16028.483   -4222.9296    80.957341 
   41100    1521.6844   -108.60814     1.376852   -107.23128   -4069.5489    4.3364292    4.3364292    4.3364292   -4069.5489     7132.123    3184.0589   -22524.829    19075.256    3590.4584    8725.4065    81.544894 
   41200    590.82047   -107.77036   0.53458678   -107.23577   -11537.182    4.3441856    4.3441856    4.3441856   -11537.182   -23379.983    19217.166   -30448.729   -13197.232   -39907.648   -5967.4993    81.983245 
   41300     1054.842   -108.18069    0.9544432   -107.22625    12155.798    4.3284736    4.3284736    4.3284736    12155.798    1614.7836     14887.86    19964.751   -5557.5998    7783.4619    11472.511    81.096915 
   41400    1218.3337   -108.32525     1.102374   -107.22287    5047.3989    4.3357118    4.3357118    4.3357118    5047.3989   -4030.4589    12591.407    6581.2489    4940.4178   -11720.544    1985.2037    81.504429 
   41500    649.87048    -107.8181   0.58801647   -107.23008    2306.9802      4.33801      4.33801      4.33801    2306.9802   -8107.8099    24714.103   -9685.3524   -19807.584   -17319.328    2632.0355    81.634108 
   41600    962.24165   -108.09306   0.87065646   -107.22241    5166.0936    4.3390732    4.3390732    4.3390732    5166.0936   -2067.7283    13511.664    4054.3448   -12846.569    17210.778    2506.9983    81.694145 
   41700    1098.7108   -108.21096   0.99413663   -107.21683    4967.6061    4.3389116    4.3389116    4.3389116    4967.6061    3923.4887    8930.9384    2048.3913     8641.023   -14109.653    4102.3307    81.685018 
   41800    905.07229    -108.0403   0.81892843   -107.22137    7648.4676    4.3323422    4.3323422    4.3323422    7648.4676   -5784.1783    30322.999   -1593.4181   -28954.815    -2908.584   -7143.7001    81.314552 
   41900    1185.8065   -108.29305    1.0729426   -107.22011    -9843.771    4.3439835    4.3439835    4.3439835    -9843.771   -5581.0239   -21305.447   -2644.8421    10461.232    9748.4689   -2093.6701    81.971803 
   42000    1300.5667   -108.39337      1.17678   -107.21659    970.87969    4.3367176    4.3367176    4.3367176    970.87969   -2520.3193    9536.3546   -4103.3962    12840.094   -11876.508   -3754.3501    81.561165 
   42100    1011.9898   -108.13759   0.91566962   -107.22192   -14006.556    4.3361445    4.3361445    4.3361445   -14006.556   -21552.627   -5229.8837   -15237.158   -29628.875    3151.9978   -7029.0526    81.528836 
   42200    941.63526   -108.07927   0.85201137   -107.22726   -5401.0813    4.3335093    4.3335093    4.3335093   -5401.0813   -21174.482    1762.7551    3208.4832    31211.728    10366.084   -1942.3525    81.380282 
   42300    1182.5214   -108.29609    1.0699702   -107.22612    9440.1991    4.3330329    4.3330329    4.3330329    9440.1991   -9398.6469    26378.163    11341.081   -11672.909   -6872.8739     6401.353    81.353449 
   42400     855.5416   -108.00335   0.77411201   -107.22923   -19000.837    4.3475402    4.3475402    4.3475402   -19000.837   -28932.335   -22496.988   -5573.1888   -18370.324    3987.9801   -6939.3037    82.173315 
   42500     985.3487   -108.11592   0.89156421   -107.22435    22230.733    4.3245382    4.3245382    4.3245382    22230.733   -10647.371    43416.743    33922.826    32994.354    11952.678   -834.88724    80.875918 
   42600    1219.7509   -108.33203    1.1036562   -107.22837     7143.873    4.3330467    4.3330467    4.3330467     7143.873    4810.1007   -6299.8838    22921.402   -28005.773   -3447.2643    6835.9317    81.354223 
   42700    758.30198     -107.918   0.68612756   -107.23187    16607.619    4.3360965    4.3360965    4.3360965    16607.619    6946.7135    12817.132    30059.012    3167.3496    5182.1209   -11299.825    81.526128 
   42800    931.58472    -108.0724   0.84291743   -107.22949   -3165.0926     4.341815     4.341815     4.341815   -3165.0926    4722.4238    2185.1508   -16402.852    20907.575    12755.838    1118.4047    81.849105 
   42900    1191.0243   -108.30025    1.0776638   -107.22259     21825.48    4.3301023    4.3301023    4.3301023     21825.48    34340.326    30959.012    177.10056     -18297.8   -4114.0613    742.08651    81.188489 
   43000    1142.9894   -108.26823    1.0342009   -107.23403   -12693.531    4.3257475    4.3257475    4.3257475   -12693.531   -11016.637   -4241.2074    -22822.75    26745.805    6945.1607    -11261.21    80.943781 
   43100    778.82132   -107.94527    0.7046939   -107.24057    -9027.398    4.3399361    4.3399361    4.3399361    -9027.398   -16388.121    20928.068   -31622.141    10171.606    18065.881    5091.2308    81.742892 
   43200    1446.2231   -108.53062    1.3085731   -107.22205   -8551.0993    4.3417943    4.3417943    4.3417943   -8551.0993    5660.8075   -11456.975    -19857.13   -6.3838986   -10117.786   -2940.4497    81.847934 
   43300    661.63654   -107.82119   0.59866265   -107.22252   -32531.188    4.3463167    4.3463167    4.3463167   -32531.188   -32954.561   -23217.662   -41421.341     17720.45    11642.842   -7843.0207    82.103959 
   43400    1033.8267   -108.15439   0.93542808   -107.21896    20626.028    4.3193263    4.3193263    4.3193263    20626.028    2501.3037    52900.291    6476.4907   -1983.7071   -876.07577   -1111.2837    80.583855 
   43500    1192.7523   -108.30874    1.0792273   -107.22951     8384.738    4.3361281    4.3361281    4.3361281     8384.738    14764.169    6431.4857    3958.5588   -9889.3779   -4667.2078    -14867.33    81.527913 
   43600    527.68251   -107.71027   0.47745822   -107.23282   -8245.8723    4.3482033    4.3482033    4.3482033   -8245.8723   -21465.784      9184.24   -12456.073    12657.191    8558.7432   -14621.678     82.21092 
   43700    1159.5893   -108.26385    1.0492208   -107.21463    19642.617    4.3320635    4.3320635    4.3320635    19642.617    28998.574    18817.631    11111.644   -1636.2427   -1651.0117   -4810.1653    81.298855 
   43800    953.58315   -108.08334   0.86282207   -107.22052   -3353.4799    4.3354599    4.3354599    4.3354599   -3353.4799    99.862035   -7556.2464   -2604.0552   -8020.3902    3500.0352   -17712.676    81.490224 
   43900    825.01036   -107.97462   0.74648671   -107.22813   -3932.3463    4.3313291    4.3313291    4.3313291   -3932.3463   -5703.2204    7571.0093   -13664.828    21745.495    15080.743   -327.70845    81.257519 
   44000    1349.7306   -108.44411    1.2212646   -107.22285   -19121.924    4.3468908    4.3468908    4.3468908   -19121.924   -26419.927   -11781.319   -19164.525   -10279.138    -2746.653    1429.2648    82.136502 
   44100    1007.0887   -108.13601   0.91123499   -107.22478    -6914.753    4.3334838    4.3334838    4.3334838    -6914.753   -10907.132   -16965.468    7128.3414   -3419.6804    10927.468   -4876.5953    81.378845 
   44200    973.12694   -108.10408    0.8805057   -107.22357    8815.4637    4.3255857    4.3255857    4.3255857    8815.4637    -518.6701     30725.18   -3760.1182    16727.158    14497.186    7476.2451    80.934701 
   44300    1136.4089   -108.24886    1.0282466   -107.22061   -17342.279    4.3479374    4.3479374    4.3479374   -17342.279    -25254.61   -32314.548    5542.3209   -23900.761   -13685.879    2039.1531    82.195844 
   44400    867.73925   -108.00632   0.78514871   -107.22117    17252.822    4.3302775    4.3302775    4.3302775    17252.822    13756.342    29350.488    8651.6345   -4218.6338    9773.3633   -13817.372    81.198346 
   44500    821.10505    -107.9695   0.74295311   -107.22655   -6569.5465    4.3356117    4.3356117    4.3356117   -6569.5465   -16191.507    1956.7362   -5473.8683    8920.1844    3653.7867    11529.301    81.498783 
   44600    1003.3856   -108.13077   0.90788439   -107.22288   -1442.4433    4.3351092    4.3351092    4.3351092   -1442.4433   -13035.499    5038.3783    3669.7907   -30711.008   -6809.1987    4381.7112    81.470453 
   44700    1282.4477   -108.38341    1.1603856   -107.22302   -2287.7892    4.3363619    4.3363619    4.3363619   -2287.7892    2066.2361   -1206.9521   -7722.6516    7425.7762    9473.8971   -2767.8213      81.5411 
   44800    837.35121   -107.98539   0.75765298   -107.22774   -23584.842    4.3435128    4.3435128    4.3435128   -23584.842   -24058.494   -32554.802   -14141.229   -228.04457    2277.7681    19569.294    81.945162 
   44900    1068.7072   -108.18747   0.96698876   -107.22048    7277.9944    4.3219237    4.3219237    4.3219237    7277.9944    4621.9635   -722.07573    17934.096   -25560.221   -7043.7117    4202.8564    80.729319 
   45000    1048.7335   -108.17612   0.94891611    -107.2272    3830.4907     4.337968     4.337968     4.337968    3830.4907    20736.001   -4999.2082   -4245.3207    9603.7213    10381.192   -10860.644    81.631738 
   45100    950.72571   -108.09034    0.8602366    -107.2301    968.28753    4.3376195    4.3376195    4.3376195    968.28753    3339.3801   -15511.666    15077.148   -11741.925    6703.4871    16106.424    81.612064 
   45200    877.54931    -108.0231   0.79402505   -107.22907    22779.026    4.3286084    4.3286084    4.3286084    22779.026    35296.138    12864.901    20176.038   -19427.986   -6937.2363   -7610.5757    81.104492 
   45300    1274.8485   -108.37797    1.1535097   -107.22446    5735.5113    4.3372921    4.3372921    4.3372921    5735.5113     5906.499    9363.5841    1936.4507    7874.9186    9296.2818   -7211.5341    81.593583 
   45400    939.02224   -108.07809   0.84964706   -107.22844    7691.2543    4.3376274    4.3376274    4.3376274    7691.2543    17173.982   -17037.393    22937.174    -20217.16   -136.64744    14064.266    81.612509 
   45500    1024.0983   -108.15574   0.92662571   -107.22911   -14804.056    4.3386246    4.3386246    4.3386246   -14804.056   -18461.501   -25507.416   -443.25069   -1229.2775   -17982.959   -16101.731     81.66881 
   45600    1160.4639   -108.27371    1.0500121    -107.2237    15320.644    4.3286271    4.3286271    4.3286271    15320.644     26040.03   -2154.0551    22075.956   -2587.0544    5790.3927   -13733.141    81.105542 
   45700    998.11418   -108.13484   0.90311469   -107.23172   -5819.5878    4.3389374    4.3389374    4.3389374   -5819.5878   -30271.706    574.59122    12238.352   -17872.899   -4630.7186   -1441.6831    81.686472 
   45800    694.59937   -107.85828   0.62848811   -107.22979   -10365.515     4.342671     4.342671     4.342671   -10365.515   -6770.2429   -4438.8532   -19887.448    622.79504   -15455.011     -20034.4    81.897527 
   45900    1332.0625   -108.42205    1.2052781   -107.21678    8940.0435    4.3266007    4.3266007    4.3266007    8940.0435     1513.258    24837.805    469.06764   -11190.276    15222.536   -5920.7198    80.991688 
   46000    872.98854   -108.01799   0.78989838    -107.2281   -3553.3859    4.3387727    4.3387727    4.3387727   -3553.3859   -27002.841   -3628.7752    19971.459    -17705.82   -8221.4325    10343.272    81.677172 
   46100    842.49074   -107.99318   0.76230332   -107.23088   -7526.4015    4.3358272    4.3358272    4.3358272   -7526.4015    -9623.709   -4953.2099   -8002.2857    -1804.282     -11212.6   -21915.746    81.510938 
   46200    1207.3206   -108.31926    1.0924091   -107.22685   -3083.4614    4.3346934    4.3346934    4.3346934   -3083.4614   -21737.471    2622.8073    9864.2795   -1193.4242    17308.244    1794.6571     81.44701 
   46300    856.18983   -108.00118   0.77469855   -107.22648   -12373.024    4.3439429    4.3439429    4.3439429   -12373.024   -33854.667     7988.034   -11252.441   -15287.154   -10633.442   -8307.1184    81.969506 
   46400    998.00054    -108.1311   0.90301186   -107.22809   -7181.0905    4.3297774    4.3297774    4.3297774   -7181.0905   -2839.0319    2271.5856   -20975.825    16287.107   -8891.6878   -27538.707     81.17022 
   46500    1083.1188   -108.20952   0.98002864   -107.22949   -4142.9464    4.3325596    4.3325596    4.3325596   -4142.9464   -28073.648     -7084.29    22729.099   -24085.179     10489.13    10961.913    81.326793 
   46600    1020.4748   -108.15053     0.923347   -107.22718   -11041.038    4.3378619    4.3378619    4.3378619   -11041.038   -20201.978   -18772.501    5851.3643   -9435.6061   -11195.713   -20068.368    81.625748 
   46700    814.93295   -107.96299   0.73736846   -107.22562   -16217.714    4.3391459    4.3391459    4.3391459   -16217.714   -20228.393   -18148.476   -10276.272    9315.1386    2919.2879   -23324.524    81.698251 
   46800     929.6178   -108.06415   0.84113772   -107.22301   -19696.491    4.3369906    4.3369906    4.3369906   -19696.491   -36592.045   -15351.431   -7145.9963   -28998.864    19478.917    10265.071    81.576572 
   46900    1109.7333   -108.22549      1.00411   -107.22138   -820.90087    4.3255813    4.3255813    4.3255813   -820.90087    9096.6123   -13743.528     2184.213     6011.514   -10583.585   -22302.577    80.934451 
   47000    964.81443    -108.1007   0.87298437   -107.22772    -18006.14    4.3427881    4.3427881    4.3427881    -18006.14    916.09867   -28842.172   -26092.347   -8862.3475    11574.965    -4158.671     81.90415 
   47100    956.78631   -108.09184   0.86572036   -107.22612   -22331.097    4.3379412    4.3379412    4.3379412   -22331.097   -27959.215   -33014.517   -6019.5592   -26158.076     6696.073    5097.7253    81.630225 
   47200    1019.3154   -108.14552   0.92229803   -107.22322    18226.112    4.3232387    4.3232387    4.3232387    18226.112    43302.485   -4025.8627    15401.713    5614.5873    2780.8036   -32536.368    80.803029 
   47300    985.10079    -108.1193    0.8913399   -107.22796   -10401.704    4.3414799    4.3414799    4.3414799   -10401.704   -1774.4757   -10266.254   -19164.383   -12829.701    2007.2444    6425.7012    81.830158 
   47400    884.58255   -108.02906   0.80038888   -107.22867   -214.99444    4.3309915    4.3309915    4.3309915   -214.99444   -5580.3344   -3547.2151    8482.5662   -10214.075    11825.374    -15231.48    81.238516 
   47500    1061.7451   -108.18717   0.96068924   -107.22648    15360.836     4.338356     4.338356     4.338356    15360.836    72480.849    933.53351   -27331.874    6028.8308    3062.6037   -25104.983    81.653642 
   47600    1262.4317   -108.36747    1.1422747    -107.2252   -6937.5952      4.33624      4.33624      4.33624   -6937.5952   -12316.828   -2884.5221   -5611.4352   -13731.498   -2158.7334    9129.8719    81.534221 
   47700    596.30632   -107.77098   0.53955049   -107.23143    13986.327    4.3254151    4.3254151    4.3254151    13986.327    48221.628   -744.07881   -5518.5666   -11661.696    12850.885   -30008.898    80.925123 
   47800    1489.7156   -108.57392     1.347926     -107.226    -20717.93    4.3444816    4.3444816    4.3444816    -20717.93   -15061.407   -19414.995   -27677.389    9859.5811   -9830.3062   -4662.5573    82.000006 
   47900    896.63403   -108.04724   0.81129331   -107.23594    21929.798    4.3227167    4.3227167    4.3227167    21929.798    42430.168    18190.083    5169.1425   -11662.923   -4904.0397   -4454.5688    80.773762 
   48000    754.95308   -107.92789   0.68309741   -107.24479    -5777.431    4.3316227    4.3316227    4.3316227    -5777.431     9860.336   -25723.927    -1468.702    -6363.446    8961.2575    -35778.58    81.274042 
   48100    1390.6381   -108.48046    1.2582785   -107.22218   -10582.174    4.3460577    4.3460577    4.3460577   -10582.174   -4674.7607   -7862.2456   -19209.514    15951.078   -5986.3012    14472.492    82.089283 
   48200    683.01438    -107.8433   0.61800576   -107.22529    21252.869    4.3178241    4.3178241    4.3178241    21252.869    34046.792    3302.8882    26408.927   -18512.233   -2170.2128    -27809.21    80.499807 
   48300    913.35034    -108.0659   0.82641858   -107.23948   -18382.463    4.3315124    4.3315124    4.3315124   -18382.463   -4883.2446   -27589.515   -22674.629    340.78491    25131.588    -14742.63    81.267835 
   48400    1202.8675   -108.31525    1.0883797   -107.22687    8758.9378    4.3372771    4.3372771    4.3372771    8758.9378     15438.73   -13295.817    24133.901    12937.811    -2820.393    4823.9129    81.592738 
   48500    765.47436   -107.92561   0.69261728   -107.23299   -25534.769    4.3415614    4.3415614    4.3415614   -25534.769   -2784.8639   -52766.253   -21053.189   -15669.086    2396.3955   -33345.316    81.834768 
   48600    930.03723   -108.06896   0.84151723   -107.22745    -5254.883    4.3355232    4.3355232    4.3355232    -5254.883    999.13201   -4341.6814     -12422.1   -3774.6549    22335.912    6649.2565    81.493798 
   48700     1482.747   -108.55736    1.3416207   -107.21574    24383.036     4.312505     4.312505     4.312505    24383.036    26526.537    5087.5177    41535.052     11969.52   -11596.388   -21186.985    80.202671 
   48800    649.27626   -107.82589    0.5874788   -107.23841   -25821.315    4.3455495    4.3455495    4.3455495   -25821.315   -3609.8087   -42115.731   -31738.406   -20579.184    14024.083   -18002.258    82.060492 
   48900    967.15023   -108.10425   0.87509785   -107.22915    -10369.87    4.3366025    4.3366025    4.3366025    -10369.87   -11390.637    -8578.984    -11139.99    -5702.133    16602.203    8824.8643    81.554674 
   49000    1129.8847   -108.24004    1.0223435   -107.21769    14375.501    4.3151209    4.3151209    4.3151209    14375.501    35851.563   -9259.5401     16534.48    9523.2219   -4573.3141   -26521.764    80.348709 
   49100    781.54693   -107.93686   0.70716008    -107.2297   -16201.618    4.3400596    4.3400596    4.3400596   -16201.618    2124.5762   -35010.672   -15718.757    -21950.35    14693.486   -2166.3038    81.749874 
   49200    1236.0508   -108.34022    1.1184048   -107.22181   -2742.0238    4.3320269    4.3320269    4.3320269   -2742.0238   -21680.318    9330.0682     4124.178   -6027.7291    13190.791    4777.1648    81.296794 
   49300    968.62496   -108.10406   0.87643222   -107.22763    -1625.111    4.3349906    4.3349906    4.3349906    -1625.111    22517.723   -21173.388   -6219.6678   -1290.5592   -8529.8099   -21497.788    81.463763 
   49400    826.73108   -107.97916   0.74804365   -107.23112   -2267.3612    4.3246646    4.3246646    4.3246646   -2267.3612     11076.14   -18686.825    808.60087   -16660.646    19011.763    12909.538    80.883008 
   49500    1022.1298   -108.15738   0.92484454   -107.23253    10452.881    4.3293555    4.3293555    4.3293555    10452.881     27373.95     4576.598   -591.90432   -6514.9878    374.01965   -6171.1179    81.146491 
   49600    1156.3788   -108.27039    1.0463159   -107.22407   -21531.228      4.34852      4.34852      4.34852   -21531.228    6750.7087   -40048.375   -31296.017    2728.2133   -9132.6657   -11872.766     82.22889 
   49700    765.82558   -107.92069   0.69293508   -107.22776     20826.37    4.3092847    4.3092847    4.3092847     20826.37    50073.878   -3682.4646    16087.697   -12045.585     21065.19    18787.308    80.023133 
   49800    1189.3457   -108.31101     1.076145   -107.23486    9936.1309    4.3288116    4.3288116    4.3288116    9936.1309    18222.561   -730.06677    12315.898    2044.1257    3596.8839   -12135.219    81.115909 
   49900    1066.8581   -108.18763   0.96531566   -107.22231   -11818.743    4.3461745    4.3461745    4.3461745   -11818.743    41689.387   -55756.884    -21388.73     1285.613   -3242.4644    5889.5378    82.095902 
   50000    589.96009   -107.76068   0.53380828   -107.22687    12471.965     4.318722     4.318722     4.318722    12471.965    19245.693   -8398.6465    26568.848   -14251.917    25057.143    15132.391    80.550035 
   50100    1497.4594   -108.57469    1.3549328   -107.21976    15739.281    4.3316873    4.3316873    4.3316873    15739.281    29922.051   -2634.9241    19930.715    12654.405   -3955.8052   -5307.7065    81.277677 
   50200    1065.3629   -108.19499   0.96396277   -107.23102   -3840.1298    4.3331424    4.3331424    4.3331424   -3840.1298    17901.247   -25102.524   -4319.1121   -6987.9007    4277.8882     20664.05    81.359612 
   50300    496.15778   -107.69005   0.44893399   -107.24111    5616.6159    4.3289144    4.3289144    4.3289144    5616.6159   -7272.7575   -13712.559    37835.165   -5578.5729    26153.575    8008.5377    81.121691 
   50400    1476.6507   -108.55764    1.3361046   -107.22153    5808.6582    4.3357093    4.3357093    4.3357093    5808.6582    42898.593    -22047.09   -3425.5279    3115.0022    1647.7654   -2889.4416    81.504289 
   50500    729.45402   -107.89605   0.66002533   -107.23603   -7786.2748    4.3317537    4.3317537    4.3317537   -7786.2748   -8784.1915   -26421.836    11847.203   -14458.228    6287.9902    17977.986    81.281419 
   50600    903.59511   -108.05124   0.81759185   -107.23365    8917.7339    4.3218868    4.3218868    4.3218868    8917.7339    6508.0674   -2867.6519    23112.786   -10077.516    27856.134   -7141.0108    80.727253 
   50700    1378.4968   -108.47491    1.2472929   -107.22762   -1135.4205    4.3363791    4.3363791    4.3363791   -1135.4205    36179.695   -23206.629   -16379.327    6524.0367    -17648.15   -12481.475    81.542068 
   50800    731.14373   -107.89432   0.66155421   -107.23276    961.18256    4.3325034    4.3325034    4.3325034    961.18256   -10850.366   -19326.058    33059.972   -14976.776    13494.338    15325.235    81.323624 
   50900    870.11955   -108.01985   0.78730245   -107.23255   -12.324763    4.3236949    4.3236949    4.3236949   -12.324763    38184.814   -21574.796   -16646.992     -607.209    8421.5315   -27649.074    80.828612 
   51000    1248.4144   -108.36103    1.1295915   -107.23144    8056.1626    4.3282137    4.3282137    4.3282137    8056.1626     17423.95   -16628.553     23373.09   -1345.9235   -10535.337   -8051.6827    81.082304 
   51100    1026.2613   -108.16358   0.92858281   -107.23499    -9082.423    4.3386568    4.3386568    4.3386568    -9082.423    3049.1558   -21526.084   -8770.3405   -11559.741    17573.251    10765.276    81.670628 
   51200    706.19464   -107.87293   0.63897975   -107.23395   -19179.709    4.3385599    4.3385599    4.3385599   -19179.709    19066.803   -46761.127   -29844.804   -5440.2109    1533.7602   -39369.123    81.665156 
   51300    1482.9641   -108.56142    1.3418171    -107.2196    23692.174    4.3128205    4.3128205    4.3128205    23692.174    36121.766   -4341.5242    39296.282    5927.3808    5774.0084    6060.6046    80.220273 
   51400    747.52126   -107.92035   0.67637294   -107.24397   -2471.6524    4.3298338    4.3298338    4.3298338   -2471.6524    20075.482   -29913.523    2423.0843   -8476.4914    13130.489   -14697.505     81.17339 
   51500    595.00966   -107.77497   0.53837725   -107.23659   -18490.251    4.3499537    4.3499537    4.3499537   -18490.251   -15797.734   -51963.248    12290.229    2000.5601    11878.793   -37316.335    82.310244 
   51600    1658.3358   -108.71634    1.5004971   -107.21584    15635.904    4.3260465    4.3260465    4.3260465    15635.904    2261.2317    3394.2905     41252.19    6175.0206   -9767.5675     7590.784    80.960568 
   51700    606.05572   -107.78232   0.54837195   -107.23394   -3201.9863    4.3248536    4.3248536    4.3248536   -3201.9863    5963.2676   -12252.033   -3317.1937   -3776.2403    14801.419    -40029.64    80.893611 
   51800    960.53635   -108.10419   0.86911347   -107.23508   -12897.565    4.3364247    4.3364247    4.3364247   -12897.565   -15716.263   -35021.315    12044.883    3949.6639   -2193.0383   -12557.603    81.544639 
   51900    1359.1543   -108.45787    1.2297914   -107.22808    1294.0807    4.3358842    4.3358842    4.3358842    1294.0807   -15188.336   -26924.981     45995.56     704.8525    875.43046    10285.615    81.514153 
   52000    721.02602   -107.89048   0.65239949   -107.23808   -17254.755    4.3286243    4.3286243    4.3286243   -17254.755   -8484.1079   -30463.641   -12816.515   -5971.4915    20932.125   -49815.668    81.105384 
   52100     1070.831   -108.20457    0.9689104   -107.23566    1434.5176    4.3264959    4.3264959    4.3264959    1434.5176   -11617.049   -12067.756    27988.357    239.50403     5761.666    6174.5493    80.985804 
   52200    1242.7373   -108.35463    1.1244549   -107.23017   -15295.099    4.3455864    4.3455864    4.3455864   -15295.099   -19147.228   -28753.235    2015.1665   -1332.3943   -1509.6469    9531.5174    82.062581 
   52300    708.53782   -107.87586   0.64109991   -107.23476   -8772.6546     4.332218     4.332218     4.332218   -8772.6546   -14074.479   -17450.575    5207.0905   -556.15983    15665.632   -26646.597    81.307555 
   52400    1050.5448   -108.17835     0.950555    -107.2278    9010.7128    4.3196243    4.3196243    4.3196243    9010.7128     12558.51   -557.45592    15031.084    8084.7122   -5940.4835    16985.679    80.600537 
   52500    1134.5511   -108.25445    1.0265657   -107.22789   -17788.019    4.3438327    4.3438327    4.3438327   -17788.019   -16375.021   -30678.034   -6311.0031    3636.3936   -1454.2136   -4869.1601    81.963269 
   52600    758.06815   -107.91979   0.68591599   -107.23388   -7697.7716    4.3352976    4.3352976    4.3352976   -7697.7716   -15649.659   -21790.874    14347.218   -488.52169    25406.736   -32243.452    81.481074 
   52700    936.27508   -108.07721   0.84716137   -107.23005    18770.179    4.3230447    4.3230447    4.3230447    18770.179    15890.846   -21274.794    61694.486    13125.939    219.55771    18774.051    80.792152 
   52800    1379.1975   -108.47587    1.2479269   -107.22794   -15875.474    4.3361207    4.3361207    4.3361207   -15875.474     14328.58   -36849.547   -25105.454    2017.0173    16804.892    1979.4429    81.527492 
   52900     703.0572   -107.87324   0.63614093    -107.2371    5444.2206    4.3312424    4.3312424    4.3312424    5444.2206    5624.1524   -13538.679    24247.189    2335.0232    9321.6097   -14900.417    81.252638 
   53000    891.01661   -108.04317   0.80621056   -107.23696   -13585.557    4.3328564    4.3328564    4.3328564   -13585.557   -10842.966   -49846.981    19933.277    11786.994   -1653.4028    22307.623    81.343507 
   53100    1270.1043    -108.3804     1.149217   -107.23118    17342.451    4.3238331    4.3238331    4.3238331    17342.451    25048.345   -12480.465    39459.473   -3679.5734   -7494.0816    1428.9598    80.836362 
   53200    964.69737   -108.11573   0.87287845   -107.24285   -254.33544    4.3318085    4.3318085    4.3318085   -254.33544   -1682.1024   -26071.325    26990.421    4359.2005    9366.3549   -6529.2893    81.284503 
   53300    642.65622   -107.83023   0.58148885   -107.24874   -29772.112    4.3385435    4.3385435    4.3385435   -29772.112   -25143.811   -69097.919    4925.3935    5928.6878   -5144.4113    29937.611    81.664229 
   53400    1417.0077   -108.51716    1.2821383   -107.23502      24343.9    4.3156232    4.3156232    4.3156232      24343.9    39478.733   -900.54008    34453.508   -5770.0156    4491.6226    3169.8109    80.376772 
   53500    861.63796   -108.02841   0.77962814   -107.24878    417.02275    4.3301048    4.3301048    4.3301048    417.02275   -10598.817   -32997.175    44847.061    8307.6519    10867.188    4639.7104    81.188633 
   53600    709.17784   -107.88977   0.64167901   -107.24809   -37659.271    4.3415777    4.3415777    4.3415777   -37659.271   -37355.978   -71722.469    -3899.366   -3431.7426    2061.1587    29046.194    81.835688 
   53700    1353.0229   -108.45676    1.2242436   -107.23252    15124.001    4.3232784    4.3232784    4.3232784    15124.001    30285.735   -9291.2769    24377.546   -4460.1604   -4656.2205   -10971.314    80.805254 
   53800    1048.7626   -108.18703   0.94894242   -107.23809   -7338.2305    4.3266332    4.3266332    4.3266332   -7338.2305    8911.5931   -37130.849    6204.5644     9117.195     1627.281    13032.956    80.993515 
   53900    629.84059   -107.81253   0.56989301   -107.24263   -15380.308     4.334536     4.334536     4.334536   -15380.308     21900.27   -48114.361   -19926.832   -2881.5588    -7530.428    14121.854    81.438141 
   54000    982.66816   -108.12534    0.8891388    -107.2362    6510.8558    4.3326906    4.3326906    4.3326906    6510.8558    46619.949   -18915.402   -8171.9798    1295.1483   -25603.823   -19390.049    81.334167 
   54100    1530.7637   -108.61521    1.3850671   -107.23014   -7187.7454    4.3305138    4.3305138    4.3305138   -7187.7454    11590.157   -30200.249   -2953.1441    12214.092    12557.852    21840.373    81.211642 
   54200    637.96802   -107.81806   0.57724687   -107.24081    1382.3511    4.3294144    4.3294144    4.3294144    1382.3511    40143.074   -29404.046   -6591.9752   -4626.6722   -14103.967   -7009.4026    81.149804 
   54300    1006.4404   -108.15024   0.91064838   -107.23959   -2599.3718    4.3328334    4.3328334    4.3328334   -2599.3718    18940.448   -16751.459   -9987.1049   -2198.7876   -4937.7747    -14146.49    81.342208 
   54400    1307.7805   -108.40519    1.1833072   -107.22189   -602.02904    4.3415418    4.3415418    4.3415418   -602.02904    35331.673   -29856.603   -7281.1573   -2520.1314   -2269.0669    15410.879    81.833655 
   54500    559.29126   -107.74253   0.50605848   -107.23647   -15109.871    4.3288676    4.3288676    4.3288676   -15109.871    9838.4766   -34107.009    -21061.08   -8333.7894   -18779.343   -24017.427    81.119058 
   54600    1149.3753   -108.27853    1.0399789   -107.23855    21132.834     4.318674     4.318674     4.318674    21132.834    40248.204   -1964.0257    25114.322   -670.56891   -13389.389   -9252.4044    80.547352 
   54700    1438.9347    -108.5412    1.3019784   -107.23922    -12151.92    4.3452363    4.3452363    4.3452363    -12151.92    7051.4412    -33537.68   -9969.5207    3054.1458    12713.822   -2238.3309    82.042749 
   54800    318.85171   -107.54276   0.28850373   -107.25426   -14556.361    4.3343019    4.3343019    4.3343019   -14556.361   -3320.5976   -33532.487   -6815.9988   -8263.1448   -23125.976   -28353.458    81.424943 
   54900    1237.3537   -108.35347    1.1195836   -107.23389    27638.515    4.3176333    4.3176333    4.3176333    27638.515     33087.73    6970.9156    42856.899    5096.6092   -997.19673    2307.2767    80.489138 
   55000    1400.4803   -108.49891     1.267184   -107.23172   -3551.6626    4.3381574    4.3381574    4.3381574   -3551.6626   -2762.4731   -21778.941    13886.426   -8912.5231    1318.6488   -3894.7651    81.642431 
   55100    365.88842   -107.57699   0.33106353   -107.24593    13192.232    4.3308493    4.3308493    4.3308493    13192.232    24205.084   -19377.184    34748.795   -8746.3198   -25049.887    -22076.84    81.230519 
   55200    1319.4574   -108.43154    1.1938728   -107.23766   -3208.4005    4.3332247    4.3332247    4.3332247   -3208.4005    12802.059   -17233.137   -5194.1238    4720.1137   -1074.3631    14950.367    81.364254 
   55300    1171.9781   -108.29646    1.0604305   -107.23603    21920.547    4.3293468    4.3293468    4.3293468    21920.547    29004.899   -6073.7135    42830.455   -1251.0366   -1728.9373   -12611.531    81.146003 
   55400    601.29707   -107.78757   0.54406622   -107.24351   -7666.6297    4.3373216    4.3373216    4.3373216   -7666.6297     26052.94   -30379.769    -18673.06   -2576.9863   -11604.041   -14423.784    81.595249 
   55500     1188.839    -108.3037    1.0756865   -107.22802   -4049.2113    4.3369343    4.3369343    4.3369343   -4049.2113     6135.577   -33952.284    15669.073    6517.0657    3866.3796    26422.754    81.573395 
   55600    1320.9438   -108.41834    1.1952177   -107.22312    18750.342    4.3219893    4.3219893    4.3219893    18750.342    49074.081     7522.515   -345.57093   -1305.6209   -4928.4719   -12134.395    80.732994 
   55700     556.2821    -107.7469   0.50333573   -107.24357   -12723.904     4.335114     4.335114     4.335114   -12723.904    5759.0665   -27726.032   -16204.746   -644.13709   -19921.428    2648.4433    81.470722 
   55800    1140.6185   -108.27004    1.0320556   -107.23798   -1143.2346    4.3387066    4.3387066    4.3387066   -1143.2346    20534.296   -34768.736    10804.736    393.81922   -1458.1425    24660.766    81.673437 
   55900    1328.4761   -108.43324    1.2020331   -107.23121    19496.814     4.332219     4.332219     4.332219    19496.814    29399.201    5589.3297    23501.912   -891.65934    1743.4101   -12266.929    81.307611 
   56000    826.76908    -107.9899   0.74807804   -107.24182     666.2642    4.3216003    4.3216003    4.3216003     666.2642    15454.879   -11822.853    -1633.234    3613.8602   -17308.722     13474.48    80.711199 
   56100    703.51374   -107.88794   0.63655402   -107.25139    1914.2695    4.3358704    4.3358704    4.3358704    1914.2695    4258.8192   -31363.271    32847.261   -4213.3887    11482.429    17136.664    81.513376 
   56200    1360.2385   -108.46316    1.2307724   -107.23239    918.86607    4.3400958    4.3400958    4.3400958    918.86607    10265.015   -844.84684   -6663.5696    -472.5502   -5471.5752   -6914.1029    81.751918 
   56300    994.23156   -108.13601   0.89960161   -107.23641   -7895.2186    4.3236539    4.3236539    4.3236539   -7895.2186    4701.0202   -19536.089   -8850.5864    212.86475   -20754.569    20042.538    80.826314 
   56400    659.63511   -107.84178   0.59685171   -107.24492   -1784.1501    4.3277235    4.3277235    4.3277235   -1784.1501    4010.5933   -35494.174     26131.13   -7829.0617     11415.19    1731.9976    81.054761 
   56500    1262.2156   -108.37539    1.1420792   -107.23331   -18098.449    4.3463988    4.3463988    4.3463988   -18098.449    2109.4522   -29253.012   -27151.786   -1079.8192   -19632.368   -7171.7882    82.108611 
   56600    1033.9226   -108.17273   0.93551493   -107.23721    -8382.794    4.3306285    4.3306285    4.3306285    -8382.794    3909.5341   -23336.187   -5721.7287   -1467.4409     648.6463    13377.356    81.218091 
   56700    638.42715   -107.81474    0.5776623   -107.23707    17972.567    4.3142905    4.3142905    4.3142905    17972.567    26766.252   -7225.9528    34377.403   -5205.5037   -567.33101   -3300.1781    80.302329 
   56800    1309.3033   -108.42598    1.1846851   -107.24129   -14028.881    4.3400508    4.3400508    4.3400508   -14028.881    8598.7982   -26272.592   -24412.849    5111.7729   -1403.3809   -12278.953    81.749377 
   56900    1283.1217   -108.39505    1.1609954   -107.23406    11087.033    4.3373316    4.3373316    4.3373316    11087.033    22349.354     6879.535      4032.21    -8915.071    304.02685    9210.2181    81.595815 
   57000    474.70189   -107.67117   0.42952025   -107.24165    3895.2662    4.3265623    4.3265623    4.3265623    3895.2662    26338.678       -41730     27077.12   -6654.4554    3067.3546   -9755.0979    80.989531 
   57100     1121.356   -108.25429    1.0146264   -107.23966   -8444.9424    4.3299003    4.3299003    4.3299003   -8444.9424    14375.202   -30720.422   -8989.6076    11738.933    -4242.998   -19648.621    81.177132 
   57200    1389.5732    -108.4902     1.257315   -107.23289    14248.403    4.3346397    4.3346397    4.3346397    14248.403    29963.547   -2650.2156    15431.879   -10149.372    -8989.447    10818.052    81.443987 
   57300    804.64809   -107.97108   0.72806251   -107.24301    -27311.65     4.337731     4.337731     4.337731    -27311.65   -19847.061   -59836.256   -2251.6329    207.48206    8475.6894   -26134.864    81.618359 
   57400    796.98822   -107.96082   0.72113169   -107.23968    14179.201    4.3228196    4.3228196    4.3228196    14179.201     49234.18   -16068.991    9372.4148    3082.8171    -1960.985    -661.3495    80.779535 
   57500    1194.1884   -108.31164    1.0805268   -107.23112   -5175.6817    4.3440516    4.3440516    4.3440516   -5175.6817    3502.6442   -28131.996    9102.3069   -5253.6031    9478.6172    15375.165    81.975658 
   57600    715.14723   -107.88239   0.64708024   -107.23531   -8933.3437    4.3359107    4.3359107    4.3359107   -8933.3437    13083.963   -48704.056    8820.0619    372.35064    10350.845   -22340.169    81.515646 
   57700    763.80684   -107.92216   0.69110848   -107.23105    13778.844     4.319568     4.319568     4.319568    13778.844    38078.567   -14316.824     17574.79    10261.789    2447.4137    21975.531    80.597381 
   57800    1410.5095    -108.5037    1.2762587   -107.22744   -6030.4136    4.3403288    4.3403288    4.3403288   -6030.4136    11624.735   -28150.989   -1564.9865   -13.242944    -13.58754    8712.2731    81.765082 
   57900    1011.1679   -108.14899   0.91492595   -107.23407   -7370.3073    4.3368698    4.3368698    4.3368698   -7370.3073   -5979.0884   -22850.342    6718.5083    13053.238   -4774.5321    -11752.13    81.569751 
   58000    650.49335   -107.82862   0.58858005   -107.24004   -18547.615    4.3353981    4.3353981    4.3353981   -18547.615    32055.572   -53020.902   -34677.517    4179.1255   -1800.2735    38863.825    81.486741 
   58100    1533.1474   -108.61492     1.387224   -107.22769    13207.768    4.3241068    4.3241068    4.3241068    13207.768    1119.7606    8261.3553    30242.188   -5152.2496   -16581.635   -976.96673    80.851713 
   58200    1018.4395   -108.16124    0.9215055   -107.23974    -2378.634    4.3348505    4.3348505    4.3348505    -2378.634    21680.549   -28609.539   -206.91163    8604.9188    1077.6641    19230.361    81.455867 
   58300    515.97458   -107.70821   0.46686464   -107.24135    -16754.93    4.3430825    4.3430825    4.3430825    -16754.93    33799.482   -64405.264   -19659.009   -5990.8572     2702.462    21489.734    81.920807 
   58400    1368.0525   -108.45842    1.2378426   -107.22058    21287.973    4.3229974    4.3229974    4.3229974    21287.973    8551.0643    16957.733     38355.12   -6638.1049   -8975.4904   -13909.209      80.7895 
   58500    1068.4815   -108.19673   0.96678449   -107.22995   -7408.6376    4.3334635    4.3334635    4.3334635   -7408.6376    36866.603   -49257.041   -9835.4749    11226.737    7371.8494    26433.508    81.377705 
   58600    517.02057   -107.70395   0.46781107   -107.23614   -11785.245     4.337823     4.337823     4.337823   -11785.245    22176.343   -43429.781   -14102.297   -11003.402   -4731.7933   -5667.4793    81.623553 
   58700    1201.7523   -108.31829    1.0873707   -107.23092    2906.8814    4.3281728    4.3281728    4.3281728    2906.8814   -5034.5384    -2379.777     16134.96   -6906.3453   -5876.5015   -5687.4829    81.080008 
   58800    1335.7286   -108.44324    1.2085953   -107.23464    7198.7662    4.3266609    4.3266609    4.3266609    7198.7662    32273.239   -28107.522    17430.582    4786.0499   -6943.3618    17540.342    80.995067 
   58900    519.44636   -107.72139   0.47000598   -107.25138    -2274.152    4.3323005    4.3323005    4.3323005    -2274.152   -7813.8373    -32540.54    33531.921   -22232.702    3574.9259   -12894.499    81.312202 
   59000    1085.6127   -108.22627   0.98228515   -107.24398   -5404.6437    4.3411321    4.3411321    4.3411321   -5404.6437   -328.16359   -30247.453    14361.685    8194.0751   -11253.606   -11449.658    81.810492 
   59100    1539.0986   -108.62729    1.3926088   -107.23468      22374.1     4.320494     4.320494     4.320494      22374.1    37015.737   -4045.5937    34152.155   -7999.4987     7423.328    8664.8756    80.649231 
   59200    364.24456   -107.58212   0.32957613   -107.25255    4627.8478    4.3252197    4.3252197    4.3252197    4627.8478    569.82176    -24242.19    37555.912   -11310.395   -1875.7283   -20031.219    80.914157 
   59300    1039.7973   -108.18194   0.94083048   -107.24111   -17689.365    4.3448696    4.3448696    4.3448696   -17689.365   -1252.8333   -48633.869   -3181.3919    19955.661   -3568.0486    1345.0844    82.021978 
   59400    1468.2327   -108.55523    1.3284878   -107.22674    10160.837    4.3289121    4.3289121    4.3289121    10160.837    516.58255   -10764.726    40730.654   -14984.662    578.02794    6595.6353    81.121564 
   59500    575.63152   -107.75979   0.52084349   -107.23895   -5811.2148    4.3247353    4.3247353    4.3247353   -5811.2148    -6994.943   -31598.973    21160.271    1763.4486   -1752.5055   -20105.627    80.886975 
   59600    946.24309   -108.09464   0.85618064   -107.23846   -4509.7121    4.3337684    4.3337684    4.3337684   -4509.7121    2954.3916    -38804.76    22321.233    13225.621   -6204.3094    9959.6433    81.394883 
   59700    1435.5948   -108.52565    1.2989563   -107.22669   -7441.4916     4.342265     4.342265     4.342265   -7441.4916    14778.545    -29395.05   -7707.9703   -11379.157   -1142.6674    7191.1713    81.874561 
   59800    663.76383    -107.8357   0.60058746   -107.23511    6428.0725    4.3264251    4.3264251    4.3264251    6428.0725    2845.0621   -27164.836    43603.991    10529.882   -3070.9789    -12294.18    80.981829 
   59900    870.72241   -108.02759   0.78784794   -107.23974   -10516.271    4.3226132    4.3226132    4.3226132   -10516.271    23057.891   -34851.465   -19755.238    12183.034   -8450.3061    26643.588    80.767961 
   60000    1278.3455   -108.39098    1.1566739   -107.23431    2470.7864    4.3404941    4.3404941    4.3404941    2470.7864    5140.4169   -12470.324    14742.267   -1754.6407     5245.065    1488.1293    81.774426 
   60100    892.95619   -108.05151   0.80796553   -107.24354   -8957.0442    4.3303371    4.3303371    4.3303371   -8957.0442   -18866.124    -25864.64    17859.632    18465.846   -7476.7859     5206.629      81.2017 
   60200    595.25392   -107.78619   0.53859825   -107.24759   -1744.5605    4.3253168    4.3253168    4.3253168   -1744.5605     52393.72   -30423.521   -27203.881   -190.80075   -182.56378    26305.414    80.919607 
   60300    1574.2041   -108.65594     1.424373   -107.23156   -274.88088    4.3362905    4.3362905    4.3362905   -274.88088    4080.9585   -9507.6334    4602.0323    6472.4643   -2099.1444   -6385.7333    81.537072 
   60400    876.65299   -108.03356   0.79321405   -107.24034     9240.329    4.3305736    4.3305736    4.3305736     9240.329    24992.362    -14427.56    17156.186    15483.509   -3843.8897     17946.14    81.215006 
   60500    517.35942   -107.71397   0.46811767   -107.24585   -16864.083    4.3337269    4.3337269    4.3337269   -16864.083   -1031.1007   -11758.723   -37802.426    5261.0112   -5360.4973    11132.133    81.392545 
   60600    1381.5684   -108.48564    1.2500722   -107.23557    6964.9069    4.3294554    4.3294554    4.3294554    6964.9069    6392.6246   -6183.2977    20685.394   -2806.6932    1465.4311    -19096.81    81.152111 
   60700    1131.5422   -108.26626    1.0238431   -107.24242    -2610.339    4.3321207    4.3321207    4.3321207    -2610.339   -1156.0303   -4094.9787   -2580.0079    4795.4804     2158.121    27271.186    81.302078 
   60800    693.81549   -107.87383   0.62777883   -107.24606    -15787.68    4.3330583    4.3330583    4.3330583    -15787.68    11794.954   -39154.871   -20003.123   -2892.1643   -10531.735   -686.96733    81.354877 
   60900     1123.666    -108.2529    1.0167166   -107.23618    11295.533    4.3309492    4.3309492    4.3309492    11295.533    10378.264    14792.468    8715.8661    -10979.22    14156.523   -24023.942    81.236136 
   61000    1213.6762   -108.32929    1.0981597   -107.23113    3568.5591    4.3354726    4.3354726    4.3354726    3568.5591    20357.156   -9270.3815   -381.09706    14453.677    566.41243    20879.466    81.490942 
   61100    619.21729   -107.80124   0.56028081   -107.24096   -6283.1461    4.3274408    4.3274408    4.3274408   -6283.1461    10429.603   -26988.468   -2290.5732   -3765.1715   -5521.9091   -15407.888    81.038874 
   61200    971.26913   -108.12354   0.87882472   -107.24471    151.15289    4.3306662    4.3306662    4.3306662    151.15289    17274.292   -12283.964   -4536.8695    -11705.57    9371.0117   -15191.552    81.220212 
   61300    1554.4425    -108.6399    1.4064922   -107.23341    8330.4616    4.3337856    4.3337856    4.3337856    8330.4616    2620.6105   -1336.0793    23706.853   -1727.6607   -7054.3004    9534.3852    81.395848 
   61400    457.94887   -107.65984   0.41436176   -107.24548    -9663.408    4.3390205    4.3390205    4.3390205    -9663.408    10132.619   -18183.329   -20939.514   -10294.177    1108.5683   -28431.601    81.691169 
   61500    972.84578   -108.11451    0.8802513   -107.23426   -8960.2255    4.3367666    4.3367666    4.3367666   -8960.2255   -8645.2721    -5572.292   -12663.112   -12404.647    7806.0251    -3348.446    81.563929 
   61600    1525.5457   -108.60368    1.3803458   -107.22334    17645.036    4.3215136    4.3215136    4.3215136    17645.036    14364.581    13706.012    24864.515    9463.6752   -1081.0259   -2970.0202    80.706341 
   61700    699.82013   -107.87996   0.63321196   -107.24675   -16535.308     4.331306     4.331306     4.331306   -16535.308    7174.6898   -48579.009   -8201.6043   -13655.933    5680.6912   -29247.634    81.256219 
   61800    824.47515   -107.99015   0.74600244   -107.24415   -10065.337    4.3404764    4.3404764    4.3404764   -10065.337    8567.8747    -26225.19   -12538.697   -4461.7953    17613.113    16446.592    81.773427 
   61900    1527.4068    -108.6066    1.3820297   -107.22457   -699.61394    4.3363984    4.3363984    4.3363984   -699.61394    1008.3735   -15640.474    12533.259     180.6999   -2817.2813    410.99842    81.543158 
   62000    729.22971   -107.89043   0.65982237    -107.2306    5708.7448    4.3264702    4.3264702    4.3264702    5708.7448    26403.133   -10993.495    1716.5965   -20933.988    10886.468   -15530.402    80.984359 
   62100    708.04655    -107.8787    0.6406554   -107.23804    4789.0442    4.3315815    4.3315815    4.3315815    4789.0442    10398.282    1526.1647    2442.6855   -1019.0619    7299.7648    26937.681    81.271724 
   62200    1401.1889   -108.49538    1.2678252   -107.22755   -3444.0007    4.3418875    4.3418875    4.3418875   -3444.0007   -1620.0757    -8121.787   -590.13943   -6225.3965   -3742.1465    -156.4172    81.853209 
   62300    954.01219   -108.09999   0.86321028   -107.23678    10481.917      4.32385      4.32385      4.32385    10481.917    3459.7756     -929.109    28915.086   -14081.321    10743.928   -7402.1254    80.837308 
   62400    741.04576   -107.91526   0.67051378   -107.24474   -10739.144    4.3309841    4.3309841    4.3309841   -10739.144   -2185.8785   -28759.825   -1271.7276    7472.5739    9226.9596    35439.712    81.238099 
   62500    1470.8632   -108.56211    1.3308679   -107.23125   -13138.306    4.3403786    4.3403786    4.3403786   -13138.306   -13016.399   -26029.032   -369.48509    2483.0246   -5831.4379   -4362.6908    81.767898 
   62600    979.63972   -108.11832   0.88639861   -107.23192    1150.4079    4.3321292    4.3321292    4.3321292    1150.4079   -19112.983   -7968.4557    30532.663   -9578.2389    4909.8377    9972.8854    81.302556 
   62700    596.85645   -107.77887   0.54004826   -107.23882   -17511.665    4.3320704    4.3320704    4.3320704   -17511.665    481.26708   -8326.2355   -44690.026    11688.577    8168.4918    29353.091    81.299246 
   62800    1177.4047   -108.29953    1.0653405   -107.23419    10978.006    4.3282403    4.3282403    4.3282403    10978.006   -9026.3913    15642.149    26318.259   -3738.4532   -18260.592    -8905.381    81.083803 
   62900    1050.4728   -108.18716   0.95048985   -107.23667   -6680.2231    4.3395677    4.3395677    4.3395677   -6680.2231    -9427.525   -14831.197    4218.0531   -8555.9265    12342.494    28279.652     81.72208 
   63000    790.18991   -107.95092   0.71498043   -107.23594   -15345.614     4.335089     4.335089     4.335089   -15345.614   -23366.041   -20356.776   -2314.0236    8628.8059    1123.7213    15088.641    81.469314 
   63100    1037.8165   -108.16904   0.93903821      -107.23    4349.3381    4.3274363    4.3274363    4.3274363    4349.3381   -6884.4584    14642.032    5290.4404   -6242.3753   -14403.342   -21480.167    81.038622 
   63200    1228.0721   -108.34245    1.1111854   -107.23127    -9375.458    4.3374438    4.3374438    4.3374438    -9375.458   -13616.548   -27786.974    13277.147   -2501.3554    11434.466    16652.517    81.602146 
   63300     864.1069   -108.01784   0.78186208   -107.23598    12604.022    4.3282928    4.3282928    4.3282928    12604.022   -2186.1766     28729.05    11269.194    3355.2786   -9821.8788    10826.138    81.086748 
   63400    808.44627   -107.97345   0.73149918   -107.24195   -5244.6528    4.3336348    4.3336348    4.3336348   -5244.6528   -25749.783     15607.13   -5591.3048    -5131.667   -10380.794   -26056.873    81.387352 
   63500    1286.4838   -108.39518    1.1640376   -107.23114    7952.0812    4.3313896    4.3313896    4.3313896    7952.0812   -3421.5625     10535.89    16741.916   -9388.5261     5182.072    11791.535    81.260921 
   63600    1173.8474   -108.29989    1.0621218   -107.23777   -10872.687    4.3279016    4.3279016    4.3279016   -10872.687   -24860.614     6315.876   -14073.322    254.15644   -13586.444   -4545.0918    81.064767 
   63700    485.07491    -107.6874   0.43890597   -107.24849   -21927.929    4.3406645    4.3406645    4.3406645   -21927.929   -33406.355    4255.7699   -36633.203   -16353.266   -571.32352    -27132.83    81.784059 
   63800    1401.7809   -108.49933    1.2683608   -107.23097    10467.454    4.3257285    4.3257285    4.3257285    10467.454   -14241.675    19986.405    25657.632    -11704.07   -1233.8661    14295.094    80.942717 
   63900    876.49563   -108.03302   0.79307167   -107.23995    8215.0755    4.3281159    4.3281159    4.3281159    8215.0755   -17562.478    43154.958   -947.25418    4874.2918    -11246.68   -5809.8884    81.076807 
   64000    681.47311   -107.86136   0.61661119   -107.24475    -26276.54    4.3412052    4.3412052    4.3412052    -26276.54   -39627.814   -25637.859   -13563.947   -13965.903    8781.5713   -27535.577    81.814622 
   64100    1511.7113   -108.59558    1.3678281   -107.22775    8735.9212    4.3330788    4.3330788    4.3330788    8735.9212   -16370.215    16289.999    26287.979   -761.93777   -5986.7867    2827.4322    81.356032 
   64200    957.88128   -108.10039   0.86671112   -107.23368   -3322.6608    4.3340613    4.3340613    4.3340613   -3322.6608   -15707.629   -2206.8276    7946.4742    1957.4708   -788.86176   -11697.249    81.411387 
   64300    573.20347   -107.76051   0.51864655   -107.24186   -3942.3837    4.3280944    4.3280944    4.3280944   -3942.3837   -21340.595    10350.901   -837.45688   -18774.908     14651.48   -21006.717    81.075603 
   64400    1278.2818   -108.39283    1.1566162   -107.23621    19661.328    4.3335838    4.3335838    4.3335838    19661.328   -12840.776        16809     55015.76    2277.9837    603.82731    11500.923     81.38448 
   64500    1169.7723   -108.29785    1.0584346   -107.23942    3039.8245    4.3330099    4.3330099    4.3330099    3039.8245   -11287.372    8963.3809    11443.464   -5391.9391    3523.6703   -23327.782     81.35215 
   64600    498.54716   -107.69659   0.45109595   -107.24549    7174.7474    4.3314866    4.3314866    4.3314866    7174.7474   -17516.356   -13277.211     52317.81   -12104.125    15972.003   -14448.225    81.266383 
   64700    1553.4464   -108.63323    1.4055909   -107.22764   -11605.862    4.3386643    4.3386643    4.3386643   -11605.862   -17477.636    -20818.41    3478.4595    8308.8504    1175.9425    16592.207    81.671052 
   64800     881.4097   -108.03043   0.79751802   -107.23291    15523.498    4.3262354    4.3262354    4.3262354    15523.498    2896.0303   -11696.011    55370.474   -8659.7728    6880.5142   -20701.724    80.971177 
   64900    854.65436   -108.01227   0.77330922   -107.23896   -22437.594    4.3339762    4.3339762    4.3339762   -22437.594   -31445.317   -23321.475   -12545.991   -104.70622    19719.191    446.63981    81.406589 
   65000    1138.7157   -108.26202    1.0303339   -107.23169    12910.848    4.3357855    4.3357855    4.3357855    12910.848   -13970.879    516.95627    52186.468    6767.8686   -11394.419    11456.187    81.508587 
   65100    1170.2266   -108.29236    1.0588456   -107.23351   -10391.359    4.3326063    4.3326063    4.3326063   -10391.359   -24382.651   -6724.2562   -67.168873   -10746.912    2292.9127   -29571.918    81.329423 
   65200    687.58446   -107.85712   0.62214087   -107.23498    1480.8279    4.3323873    4.3323873    4.3323873    1480.8279   -11814.613   -3155.4526     19412.55   -4842.3542    12874.269     15505.17    81.317091 
   65300    1200.9784   -108.31653    1.0866705   -107.22986   -9621.6207    4.3315316    4.3315316    4.3315316   -9621.6207   -15431.427   -4243.6937   -9189.7413    1458.9273   -27711.885    415.91204    81.268918 
   65400    893.95532   -108.03951   0.80886956   -107.23064    3670.5658    4.3343824    4.3343824    4.3343824    3670.5658    5962.7677   -15488.953    20537.883   -15348.237    7331.7537   -14525.414    81.429481 
   65500    849.35632   -108.00086   0.76851545   -107.23234   -15963.589    4.3361238    4.3361238    4.3361238   -15963.589   -3122.4975   -11991.873   -32776.398     1764.072   -1089.1618    21534.663    81.527669 
   65600    989.47946     -108.124   0.89530181    -107.2287   -5533.4987    4.3328806    4.3328806    4.3328806   -5533.4987   -14245.876     2968.578   -5323.1982   -288.77677   -30891.704   -11014.964    81.344869 
   65700     1409.949   -108.49737    1.2757515   -107.22162   -2590.0594    4.3309856    4.3309856    4.3309856   -2590.0594   -5288.2801   -18853.558     16371.66   -3194.4438    12727.348    4593.0899    81.238187 
   65800    627.60222   -107.80082   0.56786768   -107.23295   -32885.539    4.3416554    4.3416554    4.3416554   -32885.539   -46313.609   -12118.462   -40224.546    8132.5245   -11783.662    17420.259     81.84008 
   65900    1127.1132   -108.24865    1.0198357   -107.22881    2147.0481    4.3290882    4.3290882    4.3290882    2147.0481   -14408.705    35.152076    20814.697   -1185.9307   -17617.551   -8225.0666     81.13146 
   66000    1291.5291   -108.40001    1.1686027   -107.23141    10749.101    4.3295095    4.3295095    4.3295095    10749.101     7405.988   -22553.354     47394.67    4460.9946   -2041.9361    17875.983     81.15515 
   66100    486.52441   -107.68741   0.44021751   -107.24719    -5377.392    4.3359187    4.3359187    4.3359187    -5377.392   -19206.629    12216.166   -9141.7126    2073.1183   -41217.704     4683.772      81.5161 
   66200    1257.1067   -108.37037    1.1374566   -107.23291    7411.7492    4.3370861    4.3370861    4.3370861    7411.7492   -2298.2363   -9162.7777    33696.262    6922.0923    1080.7888   -3256.2763    81.581957 
   66300    1280.9736   -108.39092    1.1590518   -107.23186    3730.1767    4.3280325    4.3280325    4.3280325    3730.1767   -8133.7134   -5705.2239    25029.467    688.23031   -9409.6925    8251.3927     81.07212 
   66400    508.25229   -107.70177   0.45987735    -107.2419    6218.9435    4.3227123    4.3227123    4.3227123    6218.9435   -9509.1666    20006.717    8159.2799     3704.408   -39243.558    1099.2041    80.773517 
   66500    1319.5235   -108.42868    1.1939326   -107.23475   -20377.704    4.3425324    4.3425324    4.3425324   -20377.704   -3927.3106   -35471.425   -21734.376     1232.349    23968.437   -7347.8979    81.889684 
   66600    914.02817   -108.05873   0.82703189   -107.23169    1143.8109    4.3350755    4.3350755    4.3350755    1143.8109   -7938.7716   -13069.431    24439.636    1279.1249   -20197.247     7736.377     81.46855 
   66700    895.10476   -108.04129   0.80990959   -107.23138   -11318.163     4.325347     4.325347     4.325347   -11318.163   -16779.425    6097.3698   -23272.433    251.17549   -29893.145    303.08383      80.9213 
   66800     1136.533   -108.25657     1.028359   -107.22821    1415.1217    4.3329433    4.3329433    4.3329433    1415.1217   -3283.4266   -19673.897    27202.689    1412.8686    32808.198   -9644.9044    81.348398 
   66900    1054.9782   -108.18511   0.95456648   -107.23055    -20820.84    4.3386424    4.3386424    4.3386424    -20820.84   -18475.746   -10723.484    -33263.29   -496.91107   -52760.202   -3373.3179    81.669815 
   67000    738.27705   -107.90014   0.66800859   -107.23213    1364.6773    4.3305391    4.3305391    4.3305391    1364.6773     20648.92    -7697.905   -8856.9833     8537.783    689.98021   -445.15404    81.213066 
   67100    1202.5609   -108.31915    1.0881024   -107.23105    7463.5224    4.3217242    4.3217242    4.3217242    7463.5224    21114.663   -6014.5387    7290.4423    -7875.667    14436.063   -15656.994    80.718139 
   67200    916.34407   -108.06621   0.82912737   -107.23708   -11057.274    4.3400349    4.3400349    4.3400349   -11057.274    -7225.517   -12965.279   -12981.025    4483.9946   -36127.232   -2870.5629    81.748479 
   67300    1014.2478   -108.14918   0.91771274   -107.23147   -9905.5512    4.3341843    4.3341843    4.3341843   -9905.5512   -10475.377   -8209.8299   -11031.447     6615.364    11109.967   -1431.0169    81.418316 
   67400    1056.4309   -108.18222   0.95588086   -107.22634    10425.281    4.3222067    4.3222067    4.3222067    10425.281    32937.081   -12025.761    10364.524   -9770.9078    12850.195   -15440.184     80.74518 
   67500    1027.0873   -108.15881   0.92933013   -107.22948    654.70376    4.3329505    4.3329505    4.3329505    654.70376   -5887.3673   -2943.5357    10795.014    9882.2292   -30591.991    287.10541    81.348805 
   67600    819.13328   -107.97116   0.74116901   -107.22999   -5468.7522    4.3388707    4.3388707    4.3388707   -5468.7522    12559.448   -28050.583   -915.12192    485.08208    19170.393   -11015.881    81.682708 
   67700      1013.72   -108.13841   0.91723516   -107.22118    4468.1786      4.33707      4.33707      4.33707    4468.1786    14446.707   -14463.146    13420.975   -9728.8374    404.11203   -4910.2795    81.581052 
   67800    1258.1555   -108.35863    1.1384056   -107.22022    7658.5661    4.3253213    4.3253213    4.3253213    7658.5661   -3984.0865     3945.748    23014.037    16485.614   -19472.849    2454.7137    80.919859 
   67900    773.98399   -107.93524   0.70031698   -107.23493    362.29573    4.3295842    4.3295842    4.3295842    362.29573    26972.571   -18848.605   -7037.0781   -2437.6316     18511.55   -5365.5041     81.15935 
   68000    1151.6945   -108.27454    1.0420774   -107.23246    2734.9115    4.3351197    4.3351197    4.3351197    2734.9115      4872.97     -22302.1    25633.865   -7309.5156    731.31227    3203.8021    81.471044 
   68100    1035.9327   -108.16705    0.9373337   -107.22972    23881.863     4.328019     4.328019     4.328019    23881.863    30333.955   -15366.617     56678.25     18731.14    2159.7087     2386.864    81.071365 
   68200    881.32609   -108.03301   0.79744237   -107.23557    1059.1907    4.3323094    4.3323094    4.3323094    1059.1907    23614.574   -21342.339    905.33683   -8617.9883    19237.507   -7298.9864    81.312705 
   68300    1070.4243   -108.19968   0.96854241   -107.23114    592.72463    4.3329567    4.3329567    4.3329567    592.72463    8345.5211   -27810.948    21243.601    9413.7324    6116.1232    6070.6107    81.349153 
   68400    1163.9032   -108.28307     1.053124   -107.22995     14279.97    4.3271568    4.3271568    4.3271568     14279.97    20771.401   -13444.387    35512.896    16782.914   -313.88916   -6646.3069    81.022922 
   68500    1024.1037   -108.16041   0.92663052   -107.23378   -3486.2663    4.3340951    4.3340951    4.3340951   -3486.2663      23629.1   -25631.093   -8456.8063    -3813.009    17791.732   -3431.7066     81.41329 
   68600    658.86076   -107.83206   0.59615106    -107.2359    1527.9465    4.3356477    4.3356477    4.3356477    1527.9465    17163.957    -30642.63    18062.513    19143.815    3235.4327    13028.891    81.500813 
   68700    1237.2386   -108.34862    1.1194795   -107.22914    2569.0916    4.3234197    4.3234197    4.3234197    2569.0916    3525.5243   -18739.069     22920.82    1772.9728    -151.7705   -7926.0431    80.813182 
   68800    1024.7991   -108.16346   0.92725975    -107.2362   -5816.6397    4.3280651    4.3280651    4.3280651   -5816.6397    8825.5376   -3560.7725   -22714.684    2371.4669    24872.757    3003.0437    81.073956 
   68900    794.02128   -107.95715   0.71844714    -107.2387   -20727.999    4.3380957    4.3380957    4.3380957   -20727.999   -16473.846   -48080.698    2370.5478    20308.678   -7811.1686    5239.7625    81.638945 
   69000     1222.732   -108.33325    1.1063536   -107.22689   -13768.081    4.3367126    4.3367126    4.3367126   -13768.081   -20751.032   -24197.467    3644.2548   -13330.536    13922.927   -3812.3828    81.560885 
   69100     921.6243   -108.06323   0.83390503   -107.22933   -6193.5901    4.3288457    4.3288457    4.3288457   -6193.5901   -1816.7137   -17351.487    587.43033    11855.261    24986.243     2310.811    81.117827 
   69200    839.95643     -107.992   0.76001023   -107.23199    11534.491    4.3226493    4.3226493    4.3226493    11534.491   -1415.4634    -19524.21    55543.146    3763.7699   -5311.4345    9183.4476    80.769988 
   69300    1030.5177   -108.16454   0.93243404    -107.2321   -19925.253    4.3466919    4.3466919    4.3466919   -19925.253   -18673.936   -29514.033   -11587.791   -19678.926    19403.264    2470.5383    82.125227 
   69400    1292.1835   -108.39525    1.1691948   -107.22606    4895.9701     4.327173     4.327173     4.327173    4895.9701    7597.8079    5722.8763    1367.2259    13888.251    13309.988    5202.3564    81.023829 
   69500     918.9439   -108.05999   0.83147975   -107.22851    8034.5213    4.3216947    4.3216947    4.3216947    8034.5213    514.14868   -16286.077    39875.492   -17872.763   -7956.9684    7485.4524    80.716484 
   69600    771.28513   -107.92954     0.697875   -107.23166   -33689.433    4.3442453    4.3442453    4.3442453   -33689.433   -50084.236    -26057.87   -24926.192   -11972.873    35617.936   -8496.8588    81.986625 
   69700    1227.8623   -108.33155    1.1109956   -107.22055    11561.213    4.3303607    4.3303607    4.3303607    11561.213    12588.976    859.97462    21234.688    5972.0135    3411.9025    3132.8323    81.203026 
   69800    885.48884   -108.03007   0.80120891   -107.22886    -8684.883    4.3329888    4.3329888    4.3329888    -8684.883   -2138.6269   -28555.028    4639.0057   -14833.156    13130.478    2422.8218    81.350964 
   69900    811.32681    -107.9674   0.73410555   -107.23329   -8005.9063    4.3294803    4.3294803    4.3294803   -8005.9063    2914.7409   -3963.0299    -22969.43   -1373.5271    32519.709   -8020.2341    81.153508 
   70000    1252.0426   -108.36319    1.1328744   -107.23032    6190.2741    4.3345058    4.3345058    4.3345058    6190.2741    27050.758   -10825.023    2345.0882    -6583.182   -13624.882    10311.626    81.436438 
   70100    835.20088   -107.99097   0.75570731   -107.23526   -27869.401    4.3411206    4.3411206    4.3411206   -27869.401    -11238.66   -33880.789   -38488.753   -17468.189    18742.337    7132.8122     81.80984 
   70200    983.58268   -108.11866   0.88996628    -107.2287    5467.5294     4.320213     4.320213     4.320213    5467.5294    7282.6716    5412.8437    3707.0729   -6187.4027    21819.005   -12716.291    80.633491 
   70300    1408.1522   -108.49967    1.2741257   -107.22554    4409.5109    4.3344167    4.3344167    4.3344167    4409.5109    31854.441   -11102.582   -7523.3263    3891.6995   -16764.764    6773.1009    81.431418 
   70400    698.63454   -107.86882   0.63213921   -107.23668    1977.3263    4.3326079    4.3326079    4.3326079    1977.3263    17468.618   -14423.359    2886.7202   -4158.8594    28930.219   -191.51755     81.32951 
   70500    883.32102    -108.0382   0.79924742   -107.23895    7712.7432    4.3320007    4.3320007    4.3320007    7712.7432    30868.356   -6514.5607   -1215.5658   -1808.7743    13292.518   -18193.606    81.295321 
   70600     1412.916   -108.50625    1.2784361   -107.22781    7468.2014     4.335578     4.335578     4.335578    7468.2014    9738.2242   -4367.0331    17033.413    10711.368   -12368.548   -815.20452    81.496887 
   70700    574.22699   -107.75856   0.51957264   -107.23899    12667.557    4.3264302    4.3264302    4.3264302    12667.557    15207.573    20945.082    1850.0168   -16378.289    27011.003   -5097.8387    80.982115 
   70800    1088.3374   -108.21621   0.98475055   -107.23146   -9464.2636    4.3410408    4.3410408    4.3410408   -9464.2636    8938.8673   -18375.074   -18956.584    5116.2212     226.6598   -19229.524    81.805332 
   70900    1313.7445    -108.4135    1.1887036    -107.2248    6940.4292    4.3306204    4.3306204    4.3306204    6940.4292    12581.293    12308.675   -4068.6807    1404.1028    1166.5426    8942.2236    81.217636 
   71000    671.88238   -107.84759   0.60793329   -107.23966   -10226.442      4.32671      4.32671      4.32671   -10226.442    8523.2636   -16460.504   -22742.085   -9639.4383    32636.116   -15237.475    80.997826 
   71100     1291.801   -108.40379    1.1688487   -107.23494   -3657.9312    4.3382332    4.3382332    4.3382332   -3657.9312    29871.479   -30482.782    -10362.49    6454.3312    -9924.054   -11041.438    81.646709 
   71200    1101.9357   -108.22673    0.9970546   -107.22967    4315.7423    4.3362012    4.3362012    4.3362012    4315.7423    28180.074   -8215.6462   -7017.2008    1997.7432    15922.352    5864.9111    81.532033 
   71300    650.47216    -107.8231   0.58856088   -107.23454   -11133.163      4.33279      4.33279      4.33279   -11133.163    12928.566   -14333.606    -31994.45   -10049.179     21384.56   -25515.732    81.339766 
   71400    1349.7534   -108.45135    1.2212853   -107.23006    9914.4423    4.3255332    4.3255332    4.3255332    9914.4423    16697.127    9795.7567    3250.4429    3367.1762    -7315.246   -1803.0681    80.931755 
   71500    824.15353   -107.98686   0.74571143   -107.24115    3509.3113      4.33262      4.33262      4.33262    3509.3113   -11597.522    26186.103   -4060.6463    8986.2108    19082.863   -9357.7796    81.330191 
   71600     827.2506   -107.98239   0.74851372   -107.23387   -8488.9491    4.3403362    4.3403362    4.3403362   -8488.9491    17362.168    3424.7202   -46253.735   -1639.7961    13896.989   -24640.679    81.765505 
   71700    1155.8699   -108.26755    1.0458553   -107.22169   -3796.9171    4.3317914    4.3317914    4.3317914   -3796.9171    -5378.835   -444.29925   -5567.6171    17635.104   -18168.831    7890.2596    81.283541 
   71800    711.85555   -107.87411   0.64410186   -107.23001   -11854.769    4.3219479    4.3219479    4.3219479   -11854.769   -1400.7948    2782.2864   -36945.799     6352.146    32217.399   -22122.458    80.730677 
   71900    1193.6629   -108.31262    1.0800513   -107.23257   -11225.061    4.3366124    4.3366124    4.3366124   -11225.061     31415.53   -26700.016   -38390.697    -2619.215   -5280.5038   -16958.057    81.555233 
   72000    1206.5814   -108.32053    1.0917402   -107.22879   -22527.455    4.3401691    4.3401691    4.3401691   -22527.455    -40916.09    -6415.549   -20250.726    13749.331   -5252.2068    8302.3957     81.75606 
   72100    577.66509   -107.75618   0.52268351   -107.23349   -5729.9989    4.3238207    4.3238207    4.3238207   -5729.9989    32369.604    184.73308   -49744.333    3952.4858    27124.262   -31666.565    80.835668 
   72200    1329.1662   -108.43371    1.2026575   -107.23105    8937.4125    4.3280364    4.3280364    4.3280364    8937.4125    16598.133     26806.18   -16592.076   -1466.3038   -6860.7935   -8101.5715    81.072341 
   72300    979.07454   -108.12354   0.88588722   -107.23766    8155.3055    4.3319382    4.3319382    4.3319382    8155.3055    23076.739    23939.387    -22550.21    8570.8994    9934.0451   -535.77573      81.2918 
   72400    584.83425   -107.77336   0.52917032   -107.24419   -22724.111    4.3443011    4.3443011    4.3443011   -22724.111    2776.1233    -13264.72   -57683.738    4324.5787    23274.909   -34806.562    81.989787 
   72500    1567.3493   -108.64223    1.4181706   -107.22406    7556.4847     4.326039     4.326039     4.326039    7556.4847     3325.676    17638.341    1705.4373   -9655.3573   -3959.7261    5161.4005    80.960145 
   72600    757.17907   -107.91978   0.68511153   -107.23467    3392.0021    4.3194924    4.3194924    4.3194924    3392.0021    12299.218     26588.73   -28711.942    11544.056     16509.43   -23273.795    80.593151 
   72700    926.27598   -108.07115   0.83811397   -107.23304   -26811.428    4.3440881    4.3440881    4.3440881   -26811.428   -18955.888   -5527.5003   -55950.896    1258.3211    10462.701   -25808.566    81.977729 
   72800    1443.4351   -108.52072    1.3060504   -107.21467   -613.49412    4.3404267    4.3404267    4.3404267   -613.49412   -14976.989    24280.899   -11144.392   -228.49979   -5681.8604    10441.322    81.770616 
   72900     644.9735   -107.81068   0.58358558   -107.22709   -18127.122    4.3314925    4.3314925    4.3314925   -18127.122    -11103.91   -1719.5646   -41557.893    19850.938    18965.646   -36735.408    81.266714 
   73000    1239.7881    -108.3442    1.1217864   -107.22241    27181.926    4.3186426    4.3186426    4.3186426    27181.926    17971.275    59333.929    4240.5734   -6265.0386    3636.1784     3198.974    80.545593 
   73100    1063.1425   -108.19496   0.96195371   -107.23301   -8547.6476    4.3434059    4.3434059    4.3434059   -8547.6476   -1260.4175   -5269.3692   -19113.156   -639.25717    982.52497    3193.0884    81.939113 
   73200    607.01786   -107.78831   0.54924251   -107.23907   -13924.845    4.3363835    4.3363835    4.3363835   -13924.845   -12990.841    2701.1804   -31484.876     22561.93     29342.31   -21406.431    81.542317 
   73300    1325.0621   -108.41816    1.1989441   -107.21922    35803.688    4.3207507    4.3207507    4.3207507    35803.688    16457.736    43256.262    47697.065   -10488.104   -9482.4182    6800.6646    80.663605 
   73400    1047.5354   -108.17919   0.94783202   -107.23135   -17020.918    4.3383256    4.3383256    4.3383256   -17020.918   -22088.303   -20191.162    -8783.288    14246.905    14352.481   -8025.7668    81.651928 
   73500    621.49721   -107.79752   0.56234374   -107.23518    12018.874    4.3327932    4.3327932    4.3327932    12018.874   -28302.822    21947.898    42411.544    9687.5303    13691.153   -19536.948    81.339944 
   73600    1569.5006   -108.63742    1.4201171    -107.2173    2882.1715    4.3355012    4.3355012    4.3355012    2882.1715      6696.16   -3834.3934     5784.748   -10256.238   -10043.844    2800.4905    81.492557 
   73700    669.11652    -107.8352   0.60543069   -107.22977     4815.803    4.3288065    4.3288065    4.3288065     4815.803   -20469.809    1737.4074     33179.81    22914.707    24341.356    -10209.97    81.115626 
   73800    922.52625   -108.06906   0.83472114   -107.23434    8391.9612    4.3326202    4.3326202    4.3326202    8391.9612   -5152.5121    30872.632   -544.23645    4774.4968    5022.7223   -14137.854    81.330203 
   73900    1356.2678    -108.4529    1.2271796   -107.22572    18051.068    4.3330437    4.3330437    4.3330437    18051.068    2158.8394    22651.853    29342.512    574.90575   -5601.8615    12139.454    81.354055 
   74000    501.08285   -107.68969   0.45339029    -107.2363    6481.4588     4.331118     4.331118     4.331118    6481.4588   -19649.909    38871.735    222.55033    29046.136     27457.35   -20963.275    81.245636 
   74100    1227.0837   -108.33291    1.1102911   -107.22262   -11581.431     4.344184     4.344184     4.344184   -11581.431   -1125.6326    1556.6316   -35175.293   -9934.2524   -13022.813    2462.6027    81.983158 
   74200    1190.5786   -108.29775    1.0772606   -107.22049      12593.7     4.325591     4.325591     4.325591      12593.7   -5908.1993    23262.125    20427.174    13100.732    7039.1192    7080.9924    80.934997 
   74300    730.77444   -107.89744   0.66122007   -107.23622   -13702.693    4.3272086    4.3272086    4.3272086   -13702.693   -16678.182    10842.057   -35271.954    14733.234    19136.334   -19278.781    81.025834 
   74400    1360.9713   -108.45102    1.2314354   -107.21958    -2807.708    4.3432996    4.3432996    4.3432996    -2807.708    17388.548    4343.1282     -30154.8   -5754.9546   -10030.709   -2509.1668    81.933096 
   74500    776.17896   -107.92441   0.70230303   -107.22211   -17894.756    4.3425041    4.3425041    4.3425041   -17894.756   -37267.269    5420.4615    -21837.46    13888.973     13781.73    2612.5168    81.888085 
   74600    858.87715   -108.00215   0.77713009   -107.22502   -14556.198    4.3315974    4.3315974    4.3315974   -14556.198    20859.102   -27344.149   -37183.546    15082.136    14639.795    -26957.87    81.272617 
   74700    1508.7918   -108.57977    1.3651865   -107.21458    25861.364    4.3173997    4.3173997    4.3173997    25861.364    28597.908    27524.408    21461.775   -11392.487   -2250.6672     1792.835    80.476073 
   74800    421.48109   -107.62455   0.38136495   -107.24319   -22705.381    4.3463119    4.3463119    4.3463119   -22705.381    -22077.19   -37457.539   -8581.4153    16695.572    24048.055   -6632.6227    82.103685 
   74900    1188.6243    -108.3026    1.0754922   -107.22711   -18187.389    4.3417964    4.3417964    4.3417964   -18187.389   -5362.5762   -30348.262   -18851.329   -4209.6772    13198.473    -14991.91    81.848056 
   75000    1165.0452   -108.26905    1.0541573   -107.21489    28681.068    4.3140795    4.3140795    4.3140795    28681.068    31790.423    19845.359    34407.421    7948.0782   -12136.331    7860.9619    80.290548 
   75100    719.17703   -107.88566   0.65072649   -107.23494   -20300.292    4.3347657    4.3347657    4.3347657   -20300.292    -3526.976   -23458.221   -33915.679     16716.52    31931.437   -15066.126    81.451087 
   75200     1227.963   -108.33202    1.1110867   -107.22093   -2525.6652     4.340464     4.340464     4.340464   -2525.6652    14397.025   -6676.8586   -15297.162    5037.3961   -8379.1245   -2268.1853    81.772728 
   75300    893.22495    -108.0301    0.8082087   -107.22189    4624.5156    4.3348431    4.3348431    4.3348431    4624.5156   -2417.8589    822.34066    15469.065      11945.3    2292.6549    -1893.423    81.455453 
   75400    855.19705   -107.99919   0.77380026   -107.22539    865.80668    4.3275439    4.3275439    4.3275439    865.80668   -6435.5447   -7160.8136    16193.778    11816.776    18014.161   -17352.943    81.044667 
   75500    1166.3866   -108.28118    1.0553711   -107.22581   -1363.1578    4.3388087    4.3388087    4.3388087   -1363.1578    2603.7648   -2796.5056   -3896.7328   -5960.8332   -32527.671    7829.1147    81.679207 
   75600    987.28674   -108.11079   0.89331779   -107.21747   -33417.691    4.3491023    4.3491023    4.3491023   -33417.691   -36790.686   -34828.918    -28633.47    15811.185    5614.1995   -7317.3589    82.261928 
   75700    964.66545   -108.08561   0.87284957   -107.21276    17464.073    4.3168524    4.3168524    4.3168524    17464.073    30240.046    7720.8978    14431.277    5277.6225    3842.0144   -11347.892    80.445471 
   75800    1127.2724   -108.24018    1.0199797    -107.2202    3750.4682    4.3262685    4.3262685    4.3262685    3750.4682    3510.6391   -1508.3759    9249.1414   -4680.6216   -29707.567    3116.0869    80.973031 
   75900    709.78065   -107.86419   0.64222445   -107.22196   -6806.1545    4.3478013    4.3478013    4.3478013   -6806.1545   -19256.927   -39418.543    38257.006    24629.237    24915.765   -14688.684    82.188122 
   76000    1161.2762   -108.26884    1.0507471    -107.2181    2628.1253    4.3305605    4.3305605    4.3305605    2628.1253    15337.574    3973.9081   -11427.106   -8368.4672   -8320.3587   -9410.0072    81.214268 
   76100    1064.4443   -108.18479   0.96313161   -107.22165   -3694.3614    4.3254129    4.3254129    4.3254129   -3694.3614   -8497.7291   -14893.651    12308.296    19380.523    -20174.69    3351.4612    80.925003 
   76200    1048.6939   -108.17307   0.94888032   -107.22419   -1569.9998    4.3364294    4.3364294    4.3364294   -1569.9998    3006.5017   -25027.451     17310.95     16339.45    22857.344   -11050.835    81.544909 
   76300    981.84683   -108.10682   0.88839565   -107.21843    6833.6618     4.337943     4.337943     4.337943    6833.6618    9365.9985    11529.479   -394.49163   -3384.9904   -24364.453    6603.2097    81.630324 
   76400    731.99968   -107.88507   0.66232869   -107.22274   -5917.1147      4.33427      4.33427      4.33427   -5917.1147   -38723.498   -36227.604    57199.758    29576.247   -1666.4023    5738.4352    81.423149 
   76500    1116.1134   -108.22894    1.0098829   -107.21906    11938.845     4.324035     4.324035     4.324035    11938.845    22832.881   -1497.9721    14481.625   -3270.6837    6628.1512   -11447.244    80.847685 
   76600    918.55224   -108.06221   0.83112537   -107.23109   -15848.504    4.3354362    4.3354362    4.3354362   -15848.504   -26219.796   -10456.952   -10868.765    14075.916   -19963.052    1262.5699     81.48889 
   76700    1123.3966   -108.24558    1.0164729   -107.22911   -25418.365    4.3400909    4.3400909    4.3400909   -25418.365   -31144.945   -41089.859   -4020.2904    22892.519   -5627.8349   -740.81263     81.75164 
   76800    1257.6992   -108.36031    1.1379927   -107.22232    16783.605    4.3278727    4.3278727    4.3278727    16783.605    42354.826    8650.9295   -654.94217   -14384.623    8728.5178   -8394.5808    81.063141 
   76900    683.28873   -107.85202     0.618254   -107.23377    2066.5398    4.3269419    4.3269419    4.3269419    2066.5398   -21897.355   -21499.014    49595.988    31953.317   -20814.271    5823.5687    81.010849 
   77000    1016.1309      -108.15   0.91941656   -107.23058    7259.4498    4.3412956    4.3412956    4.3412956    7259.4498    18136.171   -13015.426    16657.605   -7421.0723    14994.828   -2286.9525    81.819739 
   77100    1124.1551   -108.24011    1.0171592   -107.22295    10244.892    4.3368154    4.3368154    4.3368154    10244.892    17865.813   -5870.2369    18739.101    5000.0075   -6674.1196    4205.9397    81.566683 
   77200     642.3157   -107.81304   0.58118075   -107.23186   -9876.7472    4.3264646    4.3264646    4.3264646   -9876.7472   -20180.988    -26834.75    17385.496    27199.652   -8723.1949    2504.3614    80.984042 
   77300    1339.8499   -108.43576    1.2123243   -107.22343    14922.954    4.3292164    4.3292164    4.3292164    14922.954    20616.388    5104.9516    19047.523   -16506.577   -4154.7727    950.46115     81.13867 
   77400    1055.6303   -108.18722   0.95515649   -107.23207   -10796.483    4.3376381    4.3376381    4.3376381   -10796.483   -13118.212   -23477.677    4206.4416    28351.822   -6450.9729    881.88959    81.613112 
   77500    601.33319   -107.77993    0.5440989   -107.23583   -20762.407    4.3385014    4.3385014    4.3385014   -20762.407   -26773.252   -28951.126   -6562.8438    9977.5267   -14722.601    2345.2703    81.661849 
   77600    1401.1318   -108.48732    1.2677735   -107.21954    19677.334    4.3211579    4.3211579    4.3211579    19677.334    16725.171    8775.8091    33531.023   -9280.8453    780.94983   -6386.4722    80.686416 
   77700    855.69768   -108.01105   0.77425324    -107.2368   -23372.923    4.3335634    4.3335634    4.3335634   -23372.923   -50064.511    -28162.98    8108.7223    31666.815    2101.7026    4749.7216    81.383333 
   77800    805.67381   -107.95909   0.72899059    -107.2301   -3780.6823    4.3404075    4.3404075    4.3404075   -3780.6823   -11420.817   -4598.8504    4677.6201   -3715.8883   -19691.135    869.95131    81.769534 
   77900     1253.373   -108.35401    1.1340782   -107.21993   -5004.8717    4.3354269    4.3354269    4.3354269   -5004.8717   -1316.8199   -17825.248    4127.4527    11681.531    19164.719   -15716.976    81.488367 
   78000    720.06558   -107.87555   0.65153047   -107.22402   -4292.9438    4.3308075    4.3308075    4.3308075   -4292.9438   -31948.775   -2165.7276    21235.671    25077.545   -12065.917     3022.737    81.228164 
   78100    1125.8015   -108.23722    1.0186489   -107.21857    1832.2494     4.336237     4.336237     4.336237    1832.2494    -8276.039   -3870.7351    17643.522   -9327.4615   -3139.9861   -18348.727    81.534053 
   78200    776.59148   -107.92809   0.70267629   -107.22542   -13451.464    4.3392972    4.3392972    4.3392972   -13451.464   -26445.581   -37268.581    23359.771    25752.229    4793.6937   -13505.484    81.706795 
   78300    997.70116   -108.12357   0.90274098   -107.22083    4063.1555    4.3226634    4.3226634    4.3226634    4063.1555   -27667.159    6704.2228    33152.403     2860.706   -26102.591   -556.60445    80.770776 
   78400    1270.5354    -108.3704    1.1496071   -107.22079    -11144.44    4.3438518    4.3438518    4.3438518    -11144.44     3491.231   -28062.006   -8862.5445     6687.333   -7100.9417   -4702.2884    81.964348 
   78500    828.52349   -107.97417   0.74966546    -107.2245   -28524.285    4.3417931    4.3417931    4.3417931   -28524.285   -47081.871   -29524.528    -8966.454    25945.215   -2859.5663   -2695.7894    81.847868 
   78600    1014.1302   -108.13399   0.91760636   -107.21639    22430.306    4.3201282    4.3201282    4.3201282    22430.306    26523.902    13530.105    27236.913   -13739.336   -33771.219    8627.6964    80.628744 
   78700    1303.1342   -108.39807    1.1791032   -107.21897    -4183.098    4.3368849    4.3368849    4.3368849    -4183.098   -18623.793   -31845.861     37920.36    21283.593     15211.83    295.43734    81.570603 
   78800    533.18684   -107.71098   0.48243866   -107.22854   -155.48631    4.3380905    4.3380905    4.3380905   -155.48631   -4742.6502   -19874.264    24150.455    11469.338    -19387.49   -1836.0495    81.638651 
   78900    1339.8332   -108.43259    1.2123093   -107.22028   -16663.221    4.3384826    4.3384826    4.3384826   -16663.221    -18798.77   -12513.507   -18677.386   -4949.7608   -13374.015    2636.9867    81.660792 
   79000       1004.4   -108.12955   0.90880226   -107.22075     18318.66    4.3219602    4.3219602    4.3219602     18318.66    21668.034   -13804.289    47092.236    24624.274    8201.5869    909.91203    80.731362 
   79100    943.83527   -108.08663   0.85400199   -107.23263    -10980.79    4.3359794    4.3359794    4.3359794    -10980.79   -23865.108    2612.2739   -11689.537   -2289.9989   -26435.204   -5816.2988    81.519525 
   79200    930.90261   -108.06496   0.84230025   -107.22266   -12979.974    4.3460617    4.3460617    4.3460617   -12979.974    4166.0696   -43701.913    595.92188    6742.8029    1010.6781     12077.41    82.089509 
   79300     1077.679   -108.18851    0.9751066    -107.2134    16894.815    4.3166251    4.3166251    4.3166251    16894.815    3589.0711    442.33862    46653.037    23945.472   -12189.696    62.389523    80.432766 
   79400    867.16638   -108.01173   0.78463036    -107.2271   -10678.134    4.3372711    4.3372711    4.3372711   -10678.134   -6017.8434    -6689.905   -19326.654   -15475.446   -29493.667    -2373.836    81.592399 
   79500    984.19658    -108.1078   0.89052175   -107.21727   -24646.688    4.3429435    4.3429435    4.3429435   -24646.688    -7948.817   -55734.289   -10256.957    26716.349   -3812.1534    10090.465    81.912945 
   79600    1045.0148   -108.15858   0.94555139   -107.21303    16021.081    4.3233782    4.3233782    4.3233782    16021.081    5050.6533    13771.996    29240.593     7251.029   -5760.8152   -1995.8183    80.810853 
   79700    984.91801   -108.11263   0.89117451   -107.22146   -20693.054    4.3331355    4.3331355    4.3331355   -20693.054   -14465.149   -19658.901   -27955.111   -17503.981    -23557.94    8766.5477    81.359226 
   79800    1089.3031   -108.20784   0.98562437   -107.22222    17.133918    4.3332879    4.3332879    4.3332879    17.133918    8933.7782   -27925.724    19043.347     32048.71    12382.678    8204.2818    81.367809 
   79900    924.55588   -108.05929   0.83655759   -107.22274   -12654.668    4.3392737    4.3392737    4.3392737   -12654.668   -16761.887    1273.9246   -22476.042   -13556.585   -15593.879   -1297.8929    81.705471 
   80000     749.1116   -107.90608   0.67781192   -107.22827   -8640.8106    4.3281805    4.3281805    4.3281805   -8640.8106    10789.691   -23959.343    -12752.78   -3567.5587   -12957.066    10537.657    81.080442 
   80100    1267.6142   -108.36633    1.1469639   -107.21937    14283.712    4.3308136    4.3308136    4.3308136    14283.712    24908.134   -1451.3061    19394.309    14837.498    4597.3398    10827.245    81.228508 
   80200    816.75221    -107.9679   0.73901457   -107.22889   -23774.347    4.3396539    4.3396539    4.3396539   -23774.347   -35409.369   -9924.8735   -25988.799   -14102.356   -18207.202   -3697.0341    81.726946 
   80300    865.96889   -108.00971   0.78354685   -107.22617    13767.916    4.3312302    4.3312302    4.3312302    13767.916    45818.997   -12968.235    8452.9858   -4749.8775   -581.90436    14000.732    81.251949 
   80400    1486.7123   -108.56177    1.3452085   -107.21656   -830.91713      4.33421      4.33421      4.33421   -830.91713    1434.9982    5480.4588   -9408.2084   -1851.6357   -6729.9669   -4182.3867    81.419765 
   80500    590.56144   -107.76894    0.5343524   -107.23459   -18634.213    4.3346962    4.3346962    4.3346962   -18634.213   -17502.523   -9324.8477   -29075.268   -14185.542   -11820.324     907.9028    81.447171 
   80600    1204.6988   -108.31693    1.0900368   -107.22689    6552.1121    4.3294127    4.3294127    4.3294127    6552.1121    15835.983   -17287.494    21107.847   -10401.095   -52.517258    8676.3852    81.149707 
   80700    1099.8173   -108.22341   0.99513779   -107.22827    -11440.65    4.3341554    4.3341554    4.3341554    -11440.65   -20626.253   -9176.2708   -4519.4256    16129.697    1338.7238   -4782.5466    81.416688 
   80800    770.53271   -107.92477   0.69719419   -107.22758   -18255.845    4.3408047    4.3408047    4.3408047   -18255.845   -20005.756   -16640.342   -18121.435    -22238.01   -2324.1559    7930.4828    81.791981 
   80900    1200.8973   -108.30296    1.0865971   -107.21636    6574.3681    4.3255408    4.3255408    4.3255408    6574.3681    4005.3961    -10664.06    26381.768      17600.9    8192.7455    4406.2498    80.932181 
   81000    807.37854   -107.95856   0.73053307   -107.22803    -2977.443     4.332029     4.332029     4.332029    -2977.443    13491.775    3602.7879   -26026.892    8817.6535   -6318.3258   -1814.0976    81.296914 
   81100    1133.4316   -108.24632    1.0255527   -107.22076   -13219.831    4.3420912    4.3420912    4.3420912   -13219.831   -13399.576   -9180.8749   -17079.041   -14977.041   -165.10177    3383.2598    81.864727 
   81200    908.16409   -108.04322   0.82172595    -107.2215   -1327.9449    4.3345537    4.3345537    4.3345537   -1327.9449    6256.5276   -23505.055    13264.692    48901.613    -4762.197   -984.15231    81.439135 
   81300    1113.2927   -108.22935    1.0073306   -107.22202    13816.751    4.3230223    4.3230223    4.3230223    13816.751    45514.168    9739.6572   -13803.573   -4064.6879   -2098.1598   -6209.5372    80.790896 
   81400    910.66934   -108.05643   0.82399276   -107.23243    4914.1458    4.3339409    4.3339409    4.3339409    4914.1458    13555.435   -13369.798    14556.801    22567.125   -3356.1717    5780.4431    81.404602 
   81500    974.82006   -108.10607   0.88203767   -107.22403   -16340.195     4.350298     4.350298     4.350298   -16340.195    -2818.811   -36850.726   -9351.0496     31215.97    2650.4555   -4986.6141     82.32979 
   81600    1242.8834   -108.34274     1.124587   -107.21815    15635.662    4.3226382    4.3226382    4.3226382    15635.662    36971.121    18023.112   -8087.2462   -18403.269   -11366.392   -96.678644    80.769365 
   81700    604.34074   -107.77683    0.5468202   -107.23001    3560.4343    4.3210176    4.3210176    4.3210176    3560.4343   -9478.5182   -17188.734    37348.555    52895.383    4235.5048    8598.9616    80.678553 
   81800    1366.9609   -108.46093    1.2368549   -107.22407   -15312.998    4.3442017    4.3442017    4.3442017   -15312.998    2362.4585   -30320.864   -17980.589   -6229.3614    1344.6355    -5175.322    81.984161 
   81900    1096.8849   -108.21695   0.99248453   -107.22446   -6334.8057    4.3369335    4.3369335    4.3369335   -6334.8057   -6020.1185   -1899.6293   -11084.669    18706.491   -4244.3405    3843.6157    81.573349 
   82000    464.79675   -107.65084   0.42055786   -107.23028   -1348.1402     4.324247     4.324247     4.324247   -1348.1402    2088.7665   -26650.194    20517.007    36603.075    8464.0282     3645.547     80.85958 
   82100    1471.3878   -108.54948    1.3313426   -107.21814    5225.5429    4.3299302    4.3299302    4.3299302    5225.5429    13026.682    6623.9915   -3974.0448   -22861.331   -7850.4644   -5724.6434    81.178811 
   82200    784.03328   -107.93669   0.70940979   -107.22728   -15313.183    4.3437351    4.3437351    4.3437351   -15313.183   -3429.8365   -36502.851     -6006.86    46380.102    3732.9852    7807.1231    81.957744 
   82300    1035.0445   -108.15854   0.93652998   -107.22201   -11017.984    4.3318905    4.3318905    4.3318905   -11017.984   -12956.035   -26606.106    6508.1873    2075.6782    1822.8785    358.04439     81.28912 
   82400    1250.8789   -108.34795    1.1318215   -107.21612    20951.986    4.3216105    4.3216105    4.3216105    20951.986    35152.058    13387.406    14316.496   -15749.071     4384.871   -2504.5066    80.711771 
   82500    793.36789   -107.94639   0.71785594   -107.22853    648.87961    4.3360408    4.3360408    4.3360408    648.87961    21189.473   -25440.571    6197.7376    44523.855   -874.64326    10826.957    81.522986 
   82600    1128.9636   -108.24047      1.02151   -107.21896   -14119.962    4.3424144    4.3424144    4.3424144   -14119.962   -16853.255   -7735.9248   -17770.705   -28675.313    6063.5408   -7364.8595    81.883012 
   82700    830.57626   -107.96942   0.75152285    -107.2179    19046.762    4.3222653    4.3222653    4.3222653    19046.762    29615.521    10385.489    17139.276    15506.693    6632.7697    5846.1366    80.748463 
   82800    1240.7049    -108.3438    1.1226158   -107.22118   -8261.2772    4.3279412    4.3279412    4.3279412   -8261.2772    1150.2842   -26929.877    995.76135    18191.362    -2907.055    6119.9909    81.066993 
   82900    824.52004   -107.96772   0.74604306   -107.22168   -1329.7957    4.3402874    4.3402874    4.3402874   -1329.7957   -4328.1608    5967.3057   -5628.5321    -25602.96    6824.5264   -6494.4884    81.762745 
   83000    1058.3961   -108.17583   0.95765905   -107.21817    2683.3784    4.3322715    4.3322715    4.3322715    2683.3784   -3180.1385      3535.31    7694.9637    24475.865    2224.1096     7152.218    81.310567 
   83100    1161.6103   -108.26764    1.0510494   -107.21659    1104.6379     4.329082     4.329082     4.329082    1104.6379    11390.279    763.05677   -8839.4224   -4974.0382     4779.316   -6141.4822    81.131113 
   83200    685.32492   -107.84768   0.62009639   -107.22759    7583.5355    4.3250031    4.3250031    4.3250031    7583.5355   -676.69666    24285.477   -858.17341   -10533.632    5142.8719    -2538.358    80.902004 
   83300    1248.5176   -108.35247     1.129685   -107.22279   -10021.296    4.3439996    4.3439996    4.3439996   -10021.296   -23186.151   -6209.8123   -667.92426    21743.424   -386.96565    2730.0633    81.972718 
   83400    1021.8065   -108.14985   0.92455201    -107.2253    1158.4425    4.3282204    4.3282204    4.3282204    1158.4425    5976.1917    7596.4206   -10097.285   -16235.988    3236.3827   -7287.7439     81.08268 
   83500    772.77506   -107.92972   0.69922312    -107.2305    1881.1825    4.3239066    4.3239066    4.3239066    1881.1825   -24629.773    23066.041    7207.2797   -11.014835    8243.0851    -252.8155    80.840485 
   83600    1430.5997   -108.50978    1.2944367   -107.21535   -6337.4167    4.3413197    4.3413197    4.3413197   -6337.4167   -653.74165   -8135.5956   -10222.913    21885.867   -369.70375    4745.0784    81.821097 
   83700    570.07636   -107.74239   0.51581707   -107.22658   -12810.835    4.3366297    4.3366297    4.3366297   -12810.835   -41706.096     20987.05   -17713.459    -28922.52    17525.217   -11838.517    81.556205 
   83800    1054.3976    -108.1752   0.95404114   -107.22116    5952.7298    4.3293605    4.3293605    4.3293605    5952.7298      2551.19    10071.146    5235.8533    13441.127   -2654.2214   -998.23396    81.146771 
   83900    1280.9924   -108.37754    1.1590688   -107.21847    7474.2441    4.3244266    4.3244266    4.3244266    7474.2441   -1967.8196    12073.388    12317.164   -10090.166    7491.1328    2645.3313    80.869656 
   84000    495.34975   -107.68491   0.44820286    -107.2367   -8807.8801    4.3407955    4.3407955    4.3407955   -8807.8801   -28450.197    9870.7083   -7844.1518   -19953.766     22140.04   -11513.086    81.791462 
   84100     1468.203   -108.54035    1.3284609   -107.21189   -664.00852    4.3401022    4.3401022    4.3401022   -664.00852    13889.574   -10648.584    -5233.016    9076.4498   -11295.426   -796.51497    81.752281 
   84200    722.29968   -107.87403   0.65355193   -107.22048   -5240.9451     4.324655     4.324655     4.324655   -5240.9451   -13074.936    159.87395   -2807.7734   -28580.828    20589.052    11889.428    80.882467 
   84300    965.93886   -108.09793   0.87400178   -107.22393    1795.0054    4.3307798    4.3307798    4.3307798    1795.0054    5685.1621    9700.6342    -10000.78   -6348.6202    5921.3385    -18034.07    81.226609 
   84400    1398.9667   -108.48223    1.2658145   -107.21642   -4040.6976    4.3378361    4.3378361    4.3378361   -4040.6976    5217.9409   -17953.642    613.60876   -4290.6061   -11075.634    16427.343    81.624289 
   84500    496.44818    -107.6795   0.44919674    -107.2303   -10025.425    4.3368685    4.3368685    4.3368685   -10025.425   -17321.035   -979.49675   -11775.743   -29741.927    26645.187    3595.0677    81.569681 
   84600     1491.257   -108.56402    1.3493207    -107.2147    13629.978    4.3269654    4.3269654    4.3269654    13629.978    22108.326    12664.767    6116.8419    2553.2355    112.21636   -747.03852    81.012171 
   84700    755.94093   -107.91379   0.68399124   -107.22979   -5903.2774    4.3345641    4.3345641    4.3345641   -5903.2774   -5553.9332   -10219.085    -1936.814   -7449.5106    8262.4561     20896.18    81.439725 
   84800    673.00669   -107.84136    0.6089506   -107.23241   -9670.2622    4.3379868    4.3379868    4.3379868   -9670.2622    -16619.09   -1005.8354   -11385.861   -14658.357    18973.848   -340.83607    81.632797 
   84900     1600.067   -108.66435    1.4477742   -107.21657    13492.903    4.3273652    4.3273652    4.3273652    13492.903    14086.189    12561.227    13831.294    10170.499    768.64441    5739.1675    81.034629 
   85000    522.18868   -107.70513   0.47248729   -107.23264   -7909.8427    4.3375407    4.3375407    4.3375407   -7909.8427   -14973.435   -12431.243    3675.1505   -20383.923    16230.262    11705.344    81.607614 
   85100    1253.9291   -108.35389    1.1345814   -107.21931    -7898.898    4.3374003    4.3374003    4.3374003    -7898.898   -10155.248    4199.9211   -17741.368   -6489.5923    20520.245    -4479.833    81.599689 
   85200    1148.5652   -108.25797     1.039246   -107.21872    25455.824    4.3226958    4.3226958    4.3226958    25455.824    19977.999    12530.908    43858.566    4348.4771   -9228.5906    7043.9825    80.772592 
   85300    586.52756   -107.76699   0.53070246   -107.23628   -1747.8083    4.3332026    4.3332026    4.3332026   -1747.8083   -7665.8072    9716.9262   -7294.5439   -27052.549    18351.427    13581.715    81.363004 
   85400     1449.686    -108.5315    1.3117064   -107.21979   -431.22157    4.3425052    4.3425052    4.3425052   -431.22157   -17966.289    9840.9671    6831.6572    6286.2366    4858.1294   -8070.2203    81.888147 
   85500    844.51954   -107.98915   0.76413902   -107.22502    8412.2871    4.3283856    4.3283856    4.3283856    8412.2871    2193.2101     14240.83    8802.8208   -13818.076   -4629.4121    10249.941    81.091965 
   85600    925.44212   -108.06404   0.83735948   -107.22668   -5536.5628      4.32832      4.32832      4.32832   -5536.5628   -7851.9112   -896.52784   -7861.2492   -20232.842    21124.179    4100.3888    81.088279 
   85700    1233.8222   -108.33847    1.1163883   -107.22208    17105.564    4.3332206    4.3332206    4.3332206    17105.564    20732.972    16573.238    14010.481     7087.724   -8782.0122   -10683.269    81.364021 
   85800     615.1157   -107.78978   0.55656961   -107.23321   -1780.1405    4.3383072    4.3383072    4.3383072   -1780.1405    4481.8802    -2422.567   -7399.7346   -18729.929   -6069.4891    12456.946    81.650886 
   85900    1305.3679   -108.40143    1.1811243   -107.22031   -10598.281    4.3369231    4.3369231    4.3369231   -10598.281   -18413.651   -23342.675    9961.4835    -14606.91     3262.172    3611.1645    81.572764 
   86000    930.79954   -108.06102   0.84220699   -107.21881    18914.385    4.3230323    4.3230323    4.3230323    18914.385     16313.35    25872.726    14557.081    7200.0523   -3159.1196    -14478.73    80.791457 
   86100    825.67625   -107.97917   0.74708923   -107.23208   -24818.067    4.3365452    4.3365452    4.3365452   -24818.067   -27186.308   -42020.229   -5247.6637   -30188.191    -7108.446    18820.099     81.55144 
   86200    1344.9563   -108.43603    1.2169447   -107.21908   -4872.9947    4.3413189    4.3413189    4.3413189   -4872.9947   -9962.8679    -11996.03    7339.9139    7609.4833    9282.3579   -7294.5838    81.821056 
   86300     756.9651   -107.91132   0.68491793    -107.2264   -10031.746    4.3277191    4.3277191    4.3277191   -10031.746    14415.258   -29080.576    -15429.92    335.16408   -6354.9015    -7760.945    81.054512 
   86400    988.29758   -108.12122   0.89423242   -107.22699   -1576.2374    4.3275982    4.3275982    4.3275982   -1576.2374    14929.339   -20099.175    441.12374   -25177.489   -5148.5621    28103.124    81.047721 
   86500    1110.2344   -108.22174    1.0045634   -107.21717    -11705.88    4.3460176    4.3460176    4.3460176    -11705.88   -1452.4578   -23836.601   -9828.5806    11306.838    -191.1507   -32676.024    82.087013 
   86600     596.8419   -107.76308   0.54003509   -107.22305   -23960.828    4.3371374    4.3371374    4.3371374   -23960.828   -4140.6583   -43381.287    -24360.54   -18288.854   -13592.488    15813.785    81.584852 
   86700    1187.8835   -108.28717     1.074822   -107.21235    10560.878    4.3193096    4.3193096    4.3193096    10560.878    3236.7628    8790.9594    19654.912   -3125.3601   -1882.2681    2312.1439    80.582918 
   86800    979.21771   -108.10763   0.88601676   -107.22161   -19020.585    4.3362828    4.3362828    4.3362828   -19020.585   -574.84591   -44176.194   -12310.714     20734.31   -3003.2869   -13337.917    81.536637 
   86900    825.78712   -107.96706   0.74718954   -107.21987   -28898.016    4.3425042    4.3425042    4.3425042   -28898.016   -17818.103   -32765.677   -36110.268    -21215.02   -2910.0604    33435.809    81.888089 
   87000    1251.0326   -108.34433    1.1319606   -107.21237    -4332.902    4.3282474    4.3282474    4.3282474    -4332.902   -22208.332   -4612.2247    13821.851    19818.964    7032.2349   -18594.427    81.084197 
   87100     793.0665   -107.93862   0.71758324   -107.22103    -1562.075    4.3263505    4.3263505    4.3263505    -1562.075    5808.9648   -14016.816    3521.6261   -998.01127   -3936.3957    16991.135    80.977639 
   87200    1058.3731   -108.17792   0.95763822   -107.22028   -13308.386    4.3384818    4.3384818    4.3384818   -13308.386   -16491.577   -11883.921   -11549.659   -14036.152   -5140.7271    12975.781    81.660744 
   87300     1018.923   -108.13663   0.92194291   -107.21469   -17807.733    4.3433049    4.3433049    4.3433049   -17807.733   -21494.625   -31217.003   -711.57192    24107.202    12958.018   -5968.8261    81.933398 
   87400    833.00072   -107.97134   0.75371656   -107.21762    563.72216    4.3248242    4.3248242    4.3248242    563.72216    20265.897     -1934.18   -16640.551   -12592.086   -9513.2571    32606.972    80.891964 
   87500    1187.6598    -108.2925    1.0746195   -107.21788    -4099.508    4.3251839    4.3251839    4.3251839    -4099.508   -13089.028    1716.3709   -925.86713    13792.351    9487.9139   -445.54664    80.912149 
   87600     769.9608   -107.92149   0.69667672   -107.22481   -16446.281    4.3440986    4.3440986    4.3440986   -16446.281   -26623.268   -6365.4056   -16350.169     19171.94    17079.786    6786.7456    81.978324 
   87700    1086.8356   -108.20179   0.98339169    -107.2184   -11710.786    4.3286901    4.3286901    4.3286901   -11710.786   -4521.3652   -10755.039   -19855.954   -16566.893   -10595.454    25755.692    81.109082 
   87800     1003.439   -108.12691   0.90793273   -107.21898   -729.45121    4.3269118    4.3269118    4.3269118   -729.45121   -33424.139     33765.08   -2529.2947    23160.105    24539.539   -6506.4335    81.009158 
   87900    993.72067   -108.11775   0.89913934   -107.21861   -21679.345    4.3389877    4.3389877    4.3389877   -21679.345    -18369.87   -23827.262   -22840.903     7787.722   -1627.9849    17724.575    81.689313 
   88000    924.76286   -108.05636   0.83674487   -107.21962    -980.0938    4.3298303    4.3298303    4.3298303    -980.0938   -8431.4255    23864.365   -18373.221   -10255.342    4905.1722    22995.089    81.173194 
   88100    971.37304   -108.10107   0.87891874   -107.22215   -4957.1089    4.3302281    4.3302281    4.3302281   -4957.1089   -11092.852    9276.5407   -13055.015    25465.091    22319.236   -13493.775    81.195566 
   88200    969.13692   -108.09991   0.87689545   -107.22301   -2885.7733    4.3337143    4.3337143    4.3337143   -2885.7733    3486.9052    3434.9547    -15579.18   -8326.5844   -7552.5851    32916.959    81.391833 
   88300     988.4847   -108.11677   0.89440173   -107.22237   -12896.065    4.3372743    4.3372743    4.3372743   -12896.065   -18309.395    2421.3333   -22800.132   -3997.8247    21338.548    6179.8125     81.59258 
   88400    1049.1502    -108.1665   0.94929317   -107.21721   -1786.4995     4.329616     4.329616     4.329616   -1786.4995   -21774.819    12678.558    3736.7618    10273.957     16253.99    5533.5768     81.16114 
   88500    926.73097   -108.05879   0.83852566   -107.22027   -5641.6496    4.3319902    4.3319902    4.3319902   -5641.6496    5868.5537   -5468.3597   -17325.143   -5084.8039   -10957.817    37340.933    81.294732 
   88600    905.14799   -108.04071   0.81899692   -107.22171    -13202.25    4.3373578    4.3373578    4.3373578    -13202.25   -17872.183   -1745.0374    -19989.53    1673.3873    28549.859   -8963.8958    81.597293 
   88700    1115.0145   -108.22769    1.0088885    -107.2188    2031.1299    4.3258731    4.3258731    4.3258731    2031.1299     4697.156    9025.9763   -7629.7425    6347.1042    4379.2596    19326.862    80.950835 
   88800    873.53072   -108.01472   0.79038895   -107.22433     -4995.36    4.3327974    4.3327974    4.3327974     -4995.36    25440.873    -22611.42   -17815.533   -732.12282   -1102.9765     18052.61    81.340184 
   88900    1054.1461   -108.17506   0.95381352   -107.22125   -9558.2751    4.3376609    4.3376609    4.3376609   -9558.2751    -36052.74    12183.171   -4805.2558   -4350.7332    36083.815   -9841.3265    81.614399 
   89000    1144.6357   -108.25591    1.0356905   -107.22022    576.23449    4.3280323    4.3280323    4.3280323    576.23449    32378.503   -23731.074   -6918.7259    6463.0865   -11087.356    29813.568     81.07211 
   89100    746.33295   -107.90185   0.67529773   -107.22655   -5545.1327    4.3328307    4.3328307    4.3328307   -5545.1327   -3225.4512    556.88401   -13966.831   -3910.0098    10402.549    4424.7125    81.342061 
   89200    1244.1087    -108.3462    1.1256957    -107.2205   -2225.3137    4.3293358    4.3293358    4.3293358   -2225.3137   -11325.106    19377.977   -14728.812   -264.89538    25025.635   -2665.6596    81.145384 
   89300    815.40453   -107.96196   0.73779515   -107.22416    4742.5844    4.3395185    4.3395185    4.3395185    4742.5844    41176.825   -37088.652    10139.581    1808.5521   -7516.2778    32475.776      81.7193 
   89400    1043.0618   -108.16512   0.94378426   -107.22134   -9019.9413    4.3332859    4.3332859    4.3332859   -9019.9413   -39300.294    26878.117   -14637.647   -4630.4478    21848.155    -12613.36      81.3677 
   89500    967.16218   -108.09206   0.87510866   -107.21695    21311.559    4.3194862    4.3194862    4.3194862    21311.559    30820.999    11911.594    21202.083   -1325.2896    2686.0795    23460.221    80.592803 
   89600    1094.1278   -108.20942   0.98998985   -107.21943   -21107.265    4.3441081    4.3441081    4.3441081   -21107.265   -1689.0152   -32099.629   -29533.152   -2340.1592    880.93518    29041.772    81.978859 
   89700    997.61325   -108.12095   0.90266144   -107.21829   -524.75408    4.3306759    4.3306759    4.3306759   -524.75408   -23947.546    34675.022   -12301.738    1914.2617    24489.192    -7248.131    81.220762 
   89800     985.0219   -108.10985   0.89126851   -107.21858    15752.482    4.3243883    4.3243883    4.3243883    15752.482    39076.544   -18740.511    26921.412   -714.55737   -328.78124    37555.557    80.867508 
   89900     1208.658   -108.31024    1.0936192   -107.21662   -11231.046    4.3400535    4.3400535    4.3400535   -11231.046   -24041.832   -205.01471   -9446.2906    918.32478    19672.958    246.68086    81.749529 
   90000     771.8797   -107.92242   0.69841297     -107.224    11081.927    4.3259448    4.3259448    4.3259448    11081.927    2389.8915    23056.494    7799.3961   -3139.4178    21678.711    7308.8592    80.954861 
   90100    1242.0154   -108.34777    1.1238017   -107.22397   -11488.962     4.334121     4.334121     4.334121   -11488.962    2288.6308   -30221.651   -6533.8665   -3461.5261   -11754.079    29804.665     81.41475 
   90200    994.38819   -108.12302   0.89974334   -107.22328    5422.1856     4.333442     4.333442     4.333442    5422.1856   -2740.1686    16036.989    2969.7364   -3949.5542    34640.196   -11027.882    81.376491 
   90300    641.55053     -107.806    0.5804884   -107.22551    1893.7734    4.3364475    4.3364475    4.3364475    1893.7734    9422.6065    9140.9128   -12882.199    1925.3347   -1938.9939    27817.678    81.545931 
   90400    1248.6652   -108.34348    1.1298185   -107.21366   -9601.1616    4.3361768    4.3361768    4.3361768   -9601.1616   -22553.588   -14623.498    8373.6019   -6587.2352   -1640.1924    2827.7943    81.530658 
   90500    954.57712   -108.08033   0.86372144   -107.21661    8987.6696    4.3240567    4.3240567    4.3240567    8987.6696    13211.888    32360.758   -18609.638    769.73178    16495.921   -4140.6678    80.848905 
   90600    915.12448   -108.04913   0.82802386    -107.2211   -15654.235    4.3364906    4.3364906    4.3364906   -15654.235   -13587.824   -10075.275   -23299.607    -376.8387   -9713.8126    24298.774    81.548358 
   90700     1158.832   -108.26796    1.0485355   -107.21943   -5591.2668    4.3357711    4.3357711    4.3357711   -5591.2668   -757.79757   -15420.515   -595.48739    1322.0345    4634.7321    -20460.37    81.507772 
   90800    850.22748   -107.99575   0.76930369   -107.22644    14827.457    4.3250477    4.3250477    4.3250477    14827.457    13782.055    33765.586   -3065.2682    439.97596    11531.353     10579.71    80.904502 
   90900    1075.7018   -108.20312    0.9733176    -107.2298   -1570.9467    4.3315397    4.3315397    4.3315397   -1570.9467   -12455.628   -11416.812    19159.599   -1656.0577   -7016.8524    16889.907    81.269371 
   91000    1088.8943   -108.20949   0.98525441   -107.22424    3364.4908    4.3393652    4.3393652    4.3393652    3364.4908    2598.8152    13383.491   -5888.8333    1941.7731    4162.9594   -22257.055    81.710637 
   91100    1036.2911    -108.1595   0.93765794   -107.22184    4128.2349    4.3295637    4.3295637    4.3295637    4128.2349    2172.5165    12451.799   -2239.6111    4614.4362    2637.4778    28382.761    81.158197 
   91200    913.23373   -108.04971   0.82631307    -107.2234    13179.279    4.3273649    4.3273649    4.3273649    13179.279    13597.165    130.91134    25809.762    1465.7787    796.09526    -5497.345    81.034612 
   91300    1057.6128    -108.1781   0.95695033   -107.22115    11936.019    4.3367613    4.3367613    4.3367613    11936.019     24217.75   -2990.4462    14580.753    1074.1422     10533.24    -9668.339     81.56363 
   91400    1030.1612   -108.15327   0.93211147   -107.22116    -1753.225    4.3374421    4.3374421    4.3374421    -1753.225    6304.6706   -10714.923   -849.42289   -6768.8799   -6770.2423    40370.955    81.602051 
   91500    1042.6589   -108.16458    0.9434197   -107.22116    7807.9957    4.3280142    4.3280142    4.3280142    7807.9957    15262.562   -6080.3102    14241.735    2404.5875   -7522.5088    -31472.26    81.071092 
   91600    918.08829   -108.05497   0.83070558   -107.22427    16602.428    4.3306406    4.3306406    4.3306406    16602.428    26782.462    7771.6532     15253.17   -1767.1288   -8913.0189    15739.224    81.218776 
   91700    1074.4528   -108.18998   0.97218747    -107.2178   -12752.472     4.343236     4.343236     4.343236   -12752.472   -7604.0671   -23096.992   -7556.3584   -3938.2226   -2624.5192    19540.697    81.929495 
   91800    964.11013   -108.08795   0.87234711   -107.21561    8157.1958    4.3291399    4.3291399    4.3291399    8157.1958    14600.077    4367.7352    5503.7752    6937.6238   -3131.5177   -32942.369     81.13437 
   91900    1128.2557   -108.24073    1.0208695   -107.21986   -2178.7391    4.3262668    4.3262668    4.3262668   -2178.7391    23291.406   -11795.671   -18031.953   -3039.4626    8817.7651    44780.095     80.97294 
   92000    1142.9285   -108.25561    1.0341457   -107.22146   -3556.8494    4.3387145    4.3387145    4.3387145   -3556.8494   -6340.7083    2003.7937   -6333.6336    5415.3706    -1255.654   -11131.053    81.673886 
   92100    700.80231   -107.86032   0.63410065   -107.22622    7872.0517    4.3343009    4.3343009    4.3343009    7872.0517    38481.843   -18393.239    3527.5518    1208.7535   -12884.845   -14785.921    81.424891 
   92200     1107.351   -108.21958    1.0019544   -107.21762    10495.415    4.3328809    4.3328809    4.3328809    10495.415    21981.596    2098.5334    7406.1168    -7228.295   -347.96346    35591.347    81.344887 
   92300    1163.9123   -108.27045    1.0531323   -107.21731    849.73263    4.3305688    4.3305688    4.3305688    849.73263    18794.239    280.19421   -16525.235    5952.0243   -8816.5045   -27714.981    81.214733 
   92400    690.44743   -107.85153   0.62473135    -107.2268   -34.103782    4.3406038    4.3406038    4.3406038   -34.103782    17645.239   -24233.887    6486.3373    449.39837    4396.7983    20562.766    81.780627 
   92500     1337.773   -108.42779    1.2104452   -107.21734   -3967.3988    4.3356043    4.3356043    4.3356043   -3967.3988   -7123.0749   -13135.757    8356.6355   -670.42265    1679.4921    18664.601     81.49837 
   92600    671.31143   -107.83116   0.60741669   -107.22374    14379.126      4.31921      4.31921      4.31921    14379.126    31560.009   -1214.7783    12792.148    251.03861   -971.31903    -40575.31    80.577346 
   92700    1133.1738   -108.25278    1.0253195   -107.22746   -5669.6124    4.3350105    4.3350105    4.3350105   -5669.6124    715.29443   -7070.5028   -10653.629    2054.1719   -6533.6824    23095.583    81.464885 
   92800    1204.6683   -108.31108    1.0900092   -107.22107   -12642.194    4.3416657    4.3416657    4.3416657   -12642.194    -16852.46   -18100.362   -2973.7606   -5855.9141   -2463.1818   -14287.864    81.840662 
   92900    675.06486   -107.83494   0.61081287   -107.22412   -4490.3557    4.3360345    4.3360345    4.3360345   -4490.3557    2463.3964    -2338.725   -13595.738   -1943.6158   -9202.8313   -20335.964    81.522633 
   93000    1456.0704   -108.52658    1.3174831    -107.2091    2123.2265    4.3286853    4.3286853    4.3286853    2123.2265   -21303.087    -3356.789    31029.556   -12723.469   -39.432308    15578.964    81.108812 
   93100    670.72145   -107.83164   0.60688286   -107.22476   -2959.3778    4.3289511    4.3289511    4.3289511   -2959.3778    24676.833    -20121.39   -13433.576    -8743.796    8479.0425   -33968.693    81.123752 
   93200    906.86661   -108.04571   0.82055196   -107.22516   -12369.414    4.3424161    4.3424161    4.3424161   -12369.414   -2738.9446    8230.7238   -42600.022    1188.5239   -7647.7811   -5005.6009    81.883106 
   93300    1340.7577   -108.42914    1.2131458     -107.216    2854.3745    4.3294538    4.3294538    4.3294538    2854.3745    13853.068   -15315.018    10025.073    -12028.94   -2299.7765    599.90411    81.152019 
   93400    609.28829   -107.78133   0.55129685   -107.23003   -6179.0316    4.3265188    4.3265188    4.3265188   -6179.0316    2992.8945    1643.7549   -23173.744   -7294.9153   -3854.3214   -24902.614    80.987088 
   93500    1320.8688   -108.41765    1.1951499    -107.2225   -6434.3853    4.3393122    4.3393122    4.3393122   -6434.3853   -29119.211    7073.2491    2742.8057    748.76026   -1654.3846    5003.2524    81.707646 
   93600    975.35485   -108.10453   0.88252157   -107.22201   -5501.1478    4.3398642    4.3398642    4.3398642   -5501.1478    17186.525   -31255.083   -2434.8859   -15769.592    5665.2825   -19120.986    81.738832 
   93700    831.72296     -107.975   0.75256041   -107.22244   -9952.4003    4.3336704    4.3336704    4.3336704   -9952.4003   -11299.734     25695.28   -44252.748    2902.2706    8191.0238   -15326.749     81.38936 
   93800    1287.4175   -108.37926    1.1648824   -107.21438    18909.409    4.3255498    4.3255498    4.3255498    18909.409    38969.704    5499.8493    12258.674    7676.3015   -6100.4614    4414.7258    80.932686 
   93900    853.04464   -107.99909   0.77185272   -107.22724    -6130.384     4.337357     4.337357     4.337357    -6130.384    20481.929   -19530.365   -19342.715   -10095.394     165.9985   -22884.613    81.597247 
   94000     876.0752   -108.01284   0.79269125   -107.22015    10799.438    4.3357008    4.3357008    4.3357008    10799.438    2308.2784    25113.178    4976.8593    14496.138    -1503.536    5598.9119    81.503813 
   94100    1038.4893   -108.15652   0.93964692   -107.21687    6146.9407    4.3331775    4.3331775    4.3331775    6146.9407    17780.151   -19831.149    20491.821    3487.6083   -4121.8521   -5057.0357    81.361589 
   94200    1111.9254   -108.22518    1.0060935   -107.21909   -13280.911    4.3340606    4.3340606    4.3340606   -13280.911   -1568.0082     -13541.5   -24733.226   -8016.6169    14272.996   -11087.572    81.411347 
   94300    889.43888   -108.02646   0.80478299   -107.22168    14106.759     4.327732     4.327732     4.327732    14106.759     17429.97    17817.899     7072.407    17641.197    12977.046    4362.1299    81.055235 
   94400    1164.9573   -108.27389    1.0540778   -107.21981   -17145.982    4.3432056    4.3432056    4.3432056   -17145.982    8669.5537   -33283.204   -26824.295    306.88075   -9896.2468   -6982.6677    81.927774 
   94500    985.44123   -108.10953   0.89164793   -107.21788    11452.079    4.3301819    4.3301819    4.3301819    11452.079    16212.205    2959.7916    15184.241   -1551.9202    4348.4987   -4865.1804    81.192971 
   94600    909.87744   -108.04548   0.82327623    -107.2222    9383.9378    4.3202381    4.3202381    4.3202381    9383.9378   -7093.2472    20193.315    15051.746    23584.823    2580.6056    4937.4761    80.634899 
   94700    1069.5989   -108.19196    0.9677956   -107.22417   -8878.6891    4.3408827    4.3408827    4.3408827   -8878.6891    8789.2428   -22957.999   -12467.311   -3383.7837    1469.1719    6275.6329    81.796392 
   94800    1058.6353   -108.17889    0.9578755   -107.22101   -3453.3202    4.3366235    4.3366235    4.3366235   -3453.3202   -7206.5283    22485.635   -25639.068    5059.5257    12345.676   -604.10954    81.555859 
   94900      1036.55   -108.15825   0.93789219   -107.22036      913.181    4.3265512    4.3265512    4.3265512      913.181    4338.0298   -2835.4602    1236.9733    9062.0805    4958.0393    1410.1093    80.988908 
   95000    868.54308   -108.00906   0.78587603   -107.22318    3969.3851    4.3275455    4.3275455    4.3275455    3969.3851    32557.218   -17966.104    -2682.959   -7236.6847   -5214.9073    5021.9925    81.044759 
   95100    1060.2138   -108.18181   0.95930377    -107.2225    -4002.221     4.339884     4.339884     4.339884    -4002.221   -25587.431    13160.952    419.81596    254.92173    10121.277    1272.1189     81.73995 
   95200    972.61317   -108.10082   0.88004083   -107.22078   -7239.7007    4.3380395    4.3380395    4.3380395   -7239.7007    6381.4452   -11876.939   -16223.609    3652.2323   -2116.9292    22968.462    81.635771 
   95300    732.42933    -107.8828   0.66271745   -107.22009    17031.553    4.3174203    4.3174203    4.3174203    17031.553    27354.115    36354.601   -12614.057   -2962.2521   -1760.3915   -7638.1985    80.477226 
   95400    1235.6597   -108.33992    1.1180508   -107.22187    2850.0213     4.337963     4.337963     4.337963    2850.0213   -14007.699    22895.838   -338.07511   -4517.7529    9408.7215    8486.1502    81.631454 
   95500    875.95175   -108.01793   0.79257955   -107.22535   -21739.197    4.3417932    4.3417932    4.3417932   -21739.197     6764.017    -25547.61   -46433.998    2971.0129   -4599.8259    4615.7056    81.847873 
   95600    953.91261   -108.08015   0.86312018   -107.21703    20417.891    4.3229222    4.3229222    4.3229222    20417.891    16142.143    42677.584    2433.9443   -15351.752    182.25634   -4072.2582    80.785287 
   95700    1257.8697   -108.35203     1.138147   -107.21388   -513.95634    4.3361476    4.3361476    4.3361476   -513.95634   -5478.1151    21392.512   -17456.265   -2349.5755    565.97925    19237.057    81.529012 
   95800    579.86814   -107.75228   0.52467688    -107.2276    1789.3075     4.327718     4.327718     4.327718    1789.3075    15860.209    37625.061   -48117.348    2253.4892   -11600.407   -3068.7312    81.054447 
   95900    1436.9276   -108.52108    1.3001623   -107.22092    5364.6148    4.3332213    4.3332213    4.3332213    5364.6148    8342.9961    10750.327   -2999.4787   -11614.773   -2449.2319   -12353.738     81.36406 
   96000    896.40753   -108.04195   0.81108837   -107.23087   -15226.089    4.3360925    4.3360925    4.3360925   -15226.089   -11597.302   -1788.8026   -32292.162    19912.182    1128.1879    16688.058    81.525901 
   96100      700.057   -107.86891   0.63342629   -107.23548    1374.4204     4.325037     4.325037     4.325037    1374.4204    13633.335    21270.097   -30780.171   -4833.8705   -9154.3299   -4294.0143    80.903904 
   96200    1361.0987   -108.44683    1.2315507   -107.21528    10386.715    4.3385591    4.3385591    4.3385591    10386.715    9291.3955    19362.332    2506.4186    4003.7098      245.608    2733.5075     81.66511 
   96300    619.27661   -107.79219   0.56033449   -107.23185   -24631.508    4.3306647    4.3306647    4.3306647   -24631.508   -4645.0381   -30991.874   -38257.612    20391.524    3361.3973    8527.4643    81.220131 
   96400      1236.05   -108.34329     1.118404   -107.22488    8016.8403    4.3243921    4.3243921    4.3243921    8016.8403    27518.129   -5276.3165    1808.7082   -7550.4272    -4968.688   -13182.135    80.867719 
   96500    1036.1585   -108.15659   0.93753798   -107.21905   -14024.115    4.3433133    4.3433133    4.3433133   -14024.115   -32948.586    7613.0583   -16736.818    14487.933    6258.2691    8049.3734    81.933869 
   96600    587.27964   -107.75767   0.53138296   -107.22629   -15027.604    4.3316218    4.3316218    4.3316218   -15027.604     1813.638   -24386.975   -22509.474    9123.2431   -3031.1844    6963.8468    81.273992 
   96700    1371.5126   -108.45407    1.2409734   -107.21309    20870.052    4.3199751    4.3199751    4.3199751    20870.052    1869.1362    41464.791    19276.229    -6500.228    6429.6932   -8701.6121    80.620176 
   96800    846.43661   -107.99228   0.76587364    -107.2264   -30573.639     4.342004     4.342004     4.342004   -30573.639   -39960.021    -41885.29   -9875.6067   -1819.1537    6157.2738    6455.3878    81.859797 
   96900    996.16704   -108.12367   0.90135287   -107.22232    2609.0381     4.329054     4.329054     4.329054    2609.0381     21229.92   -10423.365   -2979.4404    4613.0816   -1440.0122    82.919231    81.129538 
   97000    1084.7057   -108.20158   0.98146448   -107.22011    187.86557    4.3270657    4.3270657    4.3270657    187.86557   -36181.994    29297.816    7447.7743   -21624.659    3740.6692    1898.9305    81.017802 
   97100    816.72221   -107.96028   0.73898742   -107.22129   -6750.9864    4.3374072    4.3374072    4.3374072   -6750.9864   -18767.545    4540.1782   -6025.5923    -3856.825    5738.5023    8601.1393    81.600083 
   97200    1159.1587    -108.2658    1.0488311   -107.21697    13244.353    4.3239349    4.3239349    4.3239349    13244.353    23022.202    10410.401    6300.4556   -3324.9389     -6483.07   -2188.0825    80.842074 
   97300     906.9909   -108.04628   0.82066443   -107.22562   -23670.677    4.3401701    4.3401701    4.3401701   -23670.677   -58473.297   -18547.927    6009.1948   -41063.837    8108.7837   -5863.5262    81.756116 
   97400    1262.9298   -108.35723    1.1427255   -107.21451    13043.075    4.3295004    4.3295004    4.3295004    13043.075    28785.401    15868.864   -5525.0393    8295.9227   -3000.5205    10906.123    81.154642 
   97500    844.05419   -107.98507   0.76371797   -107.22135    2463.4445     4.326949     4.326949     4.326949    2463.4445   -363.32768    4169.0921     3584.569    -28117.01    114.69224   -2699.8863    81.011248 
   97600    1084.3395   -108.20059   0.98113316   -107.21946   -2914.3996    4.3365485    4.3365485    4.3365485   -2914.3996   -32471.408    7136.5122    16591.697   -21236.031     6516.846    8689.3229    81.551628 
   97700    1106.1972    -108.2166    1.0009104   -107.21569    19198.841     4.330221     4.330221     4.330221    19198.841    40571.167    9890.3809    7134.9767    7314.0743   -2040.1415    10822.162    81.195169 
   97800    829.40341   -107.97242   0.75046164   -107.22196    4027.5685    4.3314538    4.3314538    4.3314538    4027.5685    -24472.88   -20508.348    57063.933   -40716.443     4455.022   -11993.352    81.264535 
   97900    1281.1341   -108.37403    1.1591971   -107.21483    12303.182    4.3315357    4.3315357    4.3315357    12303.182    8190.8011    18245.966    10472.779    11343.337    8551.9446    4798.6347    81.269147 
   98000    831.70327    -107.9727    0.7525426   -107.22016    6661.6273    4.3327579    4.3327579    4.3327579    6661.6273    24786.788   -15151.443    10349.537   -12632.292   -357.96091     9321.345    81.337958 
   98100    1084.7325   -108.19684   0.98148877   -107.21535    1268.0588    4.3342889    4.3342889    4.3342889    1268.0588   -24378.766   -4858.5603    33041.502   -18615.911   -6009.0984   -3033.4201    81.424214 
   98200    925.99643   -108.05545   0.83786103   -107.21758    15040.993     4.324654     4.324654     4.324654    15040.993    31942.492   -795.85046    13976.337    18112.426    -5.941848    18440.169    80.882411 
   98300    1021.2774   -108.14599   0.92407328   -107.22192     3346.635    4.3360436    4.3360436    4.3360436     3346.635   -3591.9905   -33555.112    47187.007   -22884.744     3368.612    500.09284    81.523144 
   98400    1218.2732   -108.32197    1.1023192   -107.21965   -14977.186    4.3365332    4.3365332    4.3365332   -14977.186   -27836.532    1133.9752   -18229.001    8720.1144   -5020.2074    733.56493    81.550764 
   98500    688.95055   -107.84702   0.62337694   -107.22364    12305.488    4.3208852    4.3208852    4.3208852    12305.488     23928.14    86.067375    12902.257    9992.4053    6188.2093    18073.429    80.671138 
   98600    1529.5797   -108.59778    1.3839958   -107.21378    -6494.333    4.3404994    4.3404994    4.3404994    -6494.333   -16051.092   -11446.472    8014.5655   -12869.529   -2679.0004   -1174.6429    81.774726 
   98700    518.51554   -107.69662   0.46916375   -107.22745    1049.7423    4.3334291    4.3334291    4.3334291    1049.7423   -24497.307    10897.458    16749.077    22760.759   -2857.9837    12704.728    81.375767 
   98800    1019.6369   -108.14095   0.92258893   -107.21836    24385.748    4.3289899    4.3289899    4.3289899    24385.748    31450.551    8488.1603    33218.532    5506.3109    -287.4986    19505.233    81.125935 
   98900    1286.9674   -108.37786    1.1644751   -107.21338   -20351.106    4.3426071    4.3426071    4.3426071   -20351.106   -43493.867   -3659.4479   -13900.004    6227.5703    -14917.58   -3749.2171    81.893912 
   99000    459.62106   -107.63948   0.41587479    -107.2236    17295.713    4.3148586    4.3148586    4.3148586    17295.713    9668.8677    24384.926    17833.346    28553.162   -2109.2078    15692.222    80.334056 
   99100    1495.0826   -108.57409    1.3527821   -107.22131    762.80666     4.335146     4.335146     4.335146    762.80666    3597.8741   -5091.1613    3781.7072   -13017.371    1545.9016    4823.0096    81.472526 
   99200    812.91856   -107.96407   0.73554579   -107.22852     -6974.38    4.3347691    4.3347691    4.3347691     -6974.38   -31208.153    7063.5177    3221.4954    11203.992   -5644.3908   -1831.4538    81.451281 
   99300    918.39738   -108.05293   0.83098525   -107.22194    11261.448    4.3235388    4.3235388    4.3235388    11261.448    13595.303   -9020.0689    29209.109    13003.527   -423.70143    14588.206    80.819857 
   99400    1200.0417   -108.30275     1.085823   -107.21693   -15505.062    4.3369439    4.3369439    4.3369439   -15505.062   -28944.737   -19755.343    2184.8939    -30253.05   -324.38895   -584.46796    81.573933 
   99500    813.87303   -107.95879   0.73640942   -107.22238    16280.034    4.3196742    4.3196742    4.3196742    16280.034   -6872.1712    18599.123     37113.15     21772.05   -11254.671    5749.6977    80.603327 
   99600    1180.7087   -108.28872    1.0683301   -107.22039   -11589.366    4.3410195    4.3410195    4.3410195   -11589.366    14807.976   -34214.267   -15361.807   -4946.8374    6967.9131    7980.1457    81.804124 
   99700     910.7801   -108.04949   0.82409297    -107.2254    2321.2309    4.3243004    4.3243004    4.3243004    2321.2309   -16169.182   -8914.1467    32047.021   -28515.143   -4639.7207    2037.2919    80.862575 
   99800    1033.7297   -108.15949   0.93534032   -107.22415    19810.919    4.3170429    4.3170429    4.3170429    19810.919    24098.415    17932.234    17402.107    21047.813   -9418.3584    11679.599    80.456122 
   99900    1054.1383      -108.17    0.9538065   -107.21619   -33463.574    4.3477039    4.3477039    4.3477039   -33463.574    -37483.61   -49820.685   -13086.429     -27806.1    108.36316    19076.472    82.182602 
  100000    814.02745   -107.95228   0.73654914   -107.21573    20803.219     4.321073     4.321073     4.321073    20803.219   -3879.3431    17389.956    48899.045   -15324.493   -1283.7471    1710.2619    80.681654 
Loop time of 22.8169 on 1 procs for 100000 steps with 8 atoms

Pair  time (%) = 7.33258 (32.1367)
Kspce time (%) = 5.47795 (24.0083)
Neigh time (%) = 0 (0)
Comm  time (%) = 1.12205 (4.91763)
Outpt time (%) = 0.0271001 (0.118772)
Other time (%) = 8.8572 (38.8186)

Nlocal:    8 ave 8 max 8 min
Histogram: 1 0 0 0 0 0 0 0 0 0
Nghost:    2189 ave 2189 max 2189 min
Histogram: 1 0 0 0 0 0 0 0 0 0
Neighs:    2344 ave 2344 max 2344 min
Histogram: 1 0 0 0 0 0 0 0 0 0

Total # of neighbors = 2344
Ave neighs/atom = 293
Neighbor list builds = 0
Dangerous builds = 0
unfix 20
unfix 21
print "seeds:892121"
seeds:892121
