LAMMPS (10 Feb 2015)
# ---- initialize simulations
clear
units metal
dimension 3
boundary p p p
atom_style charge
atom_modify map array
# ---- create atoms
read_data lammps.structure
  triclinic box = (0 0 0) to (12.6321 12.6321 12.6321) with tilt (0 0 0)
  1 by 1 by 1 MPI processor grid
  reading atoms ...
  214 atoms
# ---- define interatomic potential
include potential.mod
mass 1 24.305
mass 2 15.999

group magnesium type 1
107 atoms in group magnesium
group oxygen type 2
107 atoms in group oxygen

set group magnesium charge 2.0
  107 settings made for charge
set group oxygen charge -2.0
  107 settings made for charge

variable R_cut equal 10.0

pair_style buck/coul/long ${R_cut}
pair_style buck/coul/long 10
pair_coeff 1 1 0.0 0.5 0.0 ${R_cut}
pair_coeff 1 1 0.0 0.5 0.0 10
pair_coeff 1 2 821.6 0.3242 0.0 ${R_cut}
pair_coeff 1 2 821.6 0.3242 0.0 10
pair_coeff 2 2 2274.0 0.149 27.88 ${R_cut}
pair_coeff 2 2 2274.0 0.149 27.88 10

kspace_style pppm 1.0e-5

neighbor 1.0 bin
neigh_modify every 1 delay 0 check yes

# ---- define settings
compute eng all pe/atom
compute eatoms all reduce sum c_eng

# ---- run minimization
reset_timestep 0
thermo 1
thermo_style custom step pe lx ly lz xy xz yz press pxx pyy pzz pxy pxz pyz c_eatoms
min_style cg
minimize 1e-20 1e-20 1000 100000
PPPM initialization ...
  G vector (1/distance) = 0.345832
  grid = 20 20 20
  stencil order = 5
  estimated absolute RMS force accuracy = 0.000107369
  estimated relative force accuracy = 7.4564e-06
  using double precision FFTs
  3d grid and FFT values/proc = 19683 8000
Neighbor list info ...
  1 neighbor list requests
  update every 1 steps, delay 0 steps, check yes
  master list distance cutoff = 11
Memory usage per processor = 6.45862 Mbytes
Step PotEng Lx Ly Lz Xy Xz Yz Press Pxx Pyy Pzz Pxy Pxz Pyz eatoms 
       0   -4307.5718      12.6321      12.6321      12.6321            0            0            0   -2637.1154   -2151.5868   -2151.5868   -3608.1726    -442.1339  -0.01812055  -0.01812055   -4307.5718 
       1   -4328.6461      12.6321      12.6321      12.6321            0            0            0   -842.94355   -977.95168   -977.95168   -572.92729    9.1997918 0.0045316328 0.0045316322   -4328.6461 
       2   -4331.5255      12.6321      12.6321      12.6321            0            0            0     3603.869     3360.887     3360.887    4089.8328    44.600008 -0.0097255224 -0.0097255224   -4331.5255 
       3   -4332.0397      12.6321      12.6321      12.6321            0            0            0    3437.8695    3295.9967    3295.9967    3721.6153    9.0672744 -0.0063156236 -0.0063156232   -4332.0397 
       4   -4332.3343      12.6321      12.6321      12.6321            0            0            0    4325.6513    4125.3541    4125.3541    4726.2458    65.460422 -0.0086159337 -0.008615934   -4332.3343 
       5   -4332.4403      12.6321      12.6321      12.6321            0            0            0    4789.6417    4617.3585    4617.3585    5134.2081    51.609253 -0.00049626098 -0.0004962609   -4332.4403 
       6   -4332.4753      12.6321      12.6321      12.6321            0            0            0    4915.2058    4699.5402    4699.5402     5346.537    11.688979  0.010121588  0.010121589   -4332.4753 
       7    -4332.484      12.6321      12.6321      12.6321            0            0            0    5032.0407    4829.5909    4829.5909    5436.9404    29.158869 0.0013228602 0.0013228602    -4332.484 
       8   -4332.4896      12.6321      12.6321      12.6321            0            0            0    5072.8909    4841.2859    4841.2859    5536.1011     11.72881 0.0045660385 0.0045660389   -4332.4896 
       9   -4332.4905      12.6321      12.6321      12.6321            0            0            0    5085.0125    4869.7996    4869.7996    5515.4382    3.1772502 0.0020046009 0.0020046008   -4332.4905 
      10    -4332.491      12.6321      12.6321      12.6321            0            0            0    5099.8826    4876.9732    4876.9732    5545.7013   0.77558021 -0.004068362 -0.0040683618    -4332.491 
      11    -4332.491      12.6321      12.6321      12.6321            0            0            0    5114.5333    4899.8296    4899.8296    5543.9409    6.7487474 -0.00093822525 -0.00093822576    -4332.491 
      12    -4332.491      12.6321      12.6321      12.6321            0            0            0    5113.2967    4896.4846    4896.4846     5546.921    16.036124 0.0061735903 0.0061735906    -4332.491 
      13   -4332.4911      12.6321      12.6321      12.6321            0            0            0    5111.6951    4896.5772    4896.5772    5541.9308    17.334634 0.0059837101 0.0059837096   -4332.4911 
      14   -4332.4911      12.6321      12.6321      12.6321            0            0            0     5108.427    4893.9121    4893.9121    5537.4568    19.809295 0.0045627936 0.0045627929   -4332.4911 
      15   -4332.4911      12.6321      12.6321      12.6321            0            0            0     5108.427    4893.9121    4893.9121    5537.4568    19.809295  0.004562793 0.0045627926   -4332.4911 
Loop time of 0.951765 on 1 procs for 15 steps with 214 atoms

Minimization stats:
  Stopping criterion = linesearch alpha is zero
  Energy initial, next-to-last, final = 
        -4307.57183235      -4332.4910551      -4332.4910551
  Force two-norm initial, final = 54.9585 0.01413
  Force max component initial, final = 9.24664 0.0020851
  Final line search alpha, max atom move = 6.10352e-05 1.27264e-07
  Iterations, force evaluations = 15 88

Pair  time (%) = 0.615807 (64.7016)
Kspce time (%) = 0.328799 (34.5463)
Neigh time (%) = 0 (0)
Comm  time (%) = 0.00461841 (0.485246)
Outpt time (%) = 0.00105762 (0.111122)
Other time (%) = 0.00148296 (0.155812)

Nlocal:    214 ave 214 max 214 min
Histogram: 1 0 0 0 0 0 0 0 0 0
Nghost:    4645 ave 4645 max 4645 min
Histogram: 1 0 0 0 0 0 0 0 0 0
Neighs:    65510 ave 65510 max 65510 min
Histogram: 1 0 0 0 0 0 0 0 0 0

Total # of neighbors = 65510
Ave neighs/atom = 306.121
Neighbor list builds = 0
Dangerous builds = 0


variable natoms equal "count(all)"
variable tot_energy equal "c_eatoms"
variable length_x equal "lx"
variable length_y equal "ly"
variable length_z equal "lz"
variable tilt_xy equal "xy"
variable tilt_xz equal "xz"
variable tilt_yz equal "yz"
variable ecoh equal "pe/atoms"
variable press_t equal "press"
variable press_xx equal "pxx"
variable press_yy equal "pyy"
variable press_zz equal "pzz"
variable press_xy equal "pxy"
variable press_xz equal "pxz"
variable press_yz equal "pyz"
#variable ecoh equal "v_etotal/v_atoms"
# --- output
print "pyPosMat output section"
pyPosMat output section
print "tot_energy = ${tot_energy}"
tot_energy = -4332.49105509677
print "num_atoms = ${natoms}"
num_atoms = 214
print "xx = ${length_x}"
xx = 12.6321
print "yy = ${length_y}"
yy = 12.6321
print "zz = ${length_z}"
zz = 12.6321
print "xy = ${tilt_xy}"
xy = 0
print "xz = ${tilt_xz}"
xz = 0
print "yz = ${tilt_yz}"
yz = 0
print "pressure_total = ${press_t}"
pressure_total = 5108.42702360582
print "press_xx = ${press_xx}"
press_xx = 4893.91214862268
print "press_yy = ${press_yy}"
press_yy = 4893.9121485745
print "press_zz = ${press_zz}"
press_zz = 5537.45677362027
print "press_xy = ${press_xy}"
press_xy = 19.8092954252214
print "press_xz = ${press_xz}"
press_xz = 0.00456279297739955
print "press_yz = ${press_yz}"
press_yz = 0.00456279256887619

print "ecoh = ${ecoh}"
ecoh = -20.2452853041906
print "lammps_sim_done"
lammps_sim_done
