LAMMPS (10 Feb 2015)
# ---- initialize simulations
clear
units metal
dimension 3
boundary p p p
atom_style charge
atom_modify map array
# ---- create atoms
read_data /Users/eugeneragasa/pyflamestk_git/pypospack/tests/tests_integration/workflow/WorkflowLammpsThermalExpansion/param_3101/MgO_NaCl_unit.npt.T100/lammps.structure
  triclinic box = (0 0 0) to (4.2565 4.2565 4.2565) with tilt (0 0 0)
  1 by 1 by 1 MPI processor grid
  reading atoms ...
  8 atoms
# ---- define interatomic potential
include potential.mod
mass 1 24.305
mass 2 15.999

group Mg type 1
4 atoms in group Mg
group O type 2
4 atoms in group O

set group Mg charge 1.61886676565
  4 settings made for charge
set group O charge -1.61886676565
  4 settings made for charge

variable R_cut equal 10.0

pair_style buck/coul/long ${R_cut}
pair_style buck/coul/long 10
pair_coeff 1 1 0.0 0.5 0.0 ${R_cut}
pair_coeff 1 1 0.0 0.5 0.0 10
pair_coeff 1 2 1642.32869573 0.278339228763 0.0 ${R_cut}
pair_coeff 1 2 1642.32869573 0.278339228763 0.0 10
pair_coeff 2 2 10249.6145692 0.172187509684 14.0611166933 ${R_cut}
pair_coeff 2 2 10249.6145692 0.172187509684 14.0611166933 10

kspace_style pppm 1.0e-5

neighbor 1.0 bin
neigh_modify every 1 delay 0 check yes
# ---- define settings
compute eng all pe/atom
compute eatoms all reduce sum c_eng
# ---- run minimization
reset_timestep 0
fix 1 all box/relax iso 0.0 vmax 0.001
thermo 10
thermo_style custom step pe lx ly lz xy xz yz press pxx pyy pzz pxy pxz pyz c_eatoms
min_style cg
minimize 1e-25 1e-25 5000 10000
PPPM initialization ...
  G vector (1/distance) = 0.352512
  grid = 8 8 8
  stencil order = 5
  estimated absolute RMS force accuracy = 3.81673e-05
  estimated relative force accuracy = 2.65057e-06
  using double precision FFTs
  3d grid and FFT values/proc = 3375 512
Neighbor list info ...
  1 neighbor list requests
  update every 1 steps, delay 0 steps, check yes
  master list distance cutoff = 11
Memory usage per processor = 4.06549 Mbytes
Step PotEng Lx Ly Lz Xy Xz Yz Press Pxx Pyy Pzz Pxy Pxz Pyz eatoms 
       0   -105.55076       4.2565       4.2565       4.2565            0            0            0    126453.59    126453.59    126453.59    126453.59 4.0363335e-11 4.044677e-11 1.0723156e-10   -105.55076 
      10   -105.69165     4.299065     4.299065     4.299065            0            0            0    68786.015    68786.015    68786.015    68786.015 -1.0242962e-10 -4.708445e-11 -3.569371e-11   -105.69165 
      20   -105.75532      4.34163      4.34163      4.34163            0            0            0    18126.479    18126.479    18126.479    18126.479 7.5197513e-11 1.703257e-11 -3.0007315e-11   -105.75532 
      27   -105.76066    4.3583247    4.3583247    4.3583247            0            0            0    1.3863117    1.3863117    1.3863117    1.3863117 -6.2572681e-11 -1.3142723e-10 -3.2118437e-11   -105.76066 
Loop time of 0.0137742 on 1 procs for 27 steps with 8 atoms

Minimization stats:
  Stopping criterion = linesearch alpha is zero
  Energy initial, next-to-last, final = 
        -105.550764672     -105.760658065     -105.760658065
  Force two-norm initial, final = 18.26 0.000217628
  Force max component initial, final = 18.26 0.000209876
  Final line search alpha, max atom move = 0.25 5.24691e-05
  Iterations, force evaluations = 27 40

Pair  time (%) = 0.00367999 (26.7166)
Kspce time (%) = 0.0023241 (16.8729)
Neigh time (%) = 0 (0)
Comm  time (%) = 0.00041151 (2.98755)
Outpt time (%) = 2.59876e-05 (0.188669)
Other time (%) = 0.00733256 (53.2342)

Nlocal:    8 ave 8 max 8 min
Histogram: 1 0 0 0 0 0 0 0 0 0
Nghost:    2189 ave 2189 max 2189 min
Histogram: 1 0 0 0 0 0 0 0 0 0
Neighs:    2344 ave 2344 max 2344 min
Histogram: 1 0 0 0 0 0 0 0 0 0

Total # of neighbors = 2344
Ave neighs/atom = 293
Neighbor list builds = 0
Dangerous builds = 0
unfix 1
# ---- define output variables ----
variable natoms equal "count(all)"
variable tot_energy equal "c_eatoms"
variable length_x equal "lx"
variable length_y equal "ly"
variable length_z equal "lz"
variable tilt_xy equal "xy"
variable tilt_xz equal "xz"
variable tilt_yz equal "yz"
variable tot_press equal "press"
variable press_xx equal "pxx"
variable press_yy equal "pyy"
variable press_zz equal "pzz"
variable press_xy equal "pxy"
variable press_xz equal "pxz"
variable press_yz equal "pyz"

# ---- output ----
print "pypospack:output_section:begin"
pypospack:output_section:begin
print "tot_energy = ${tot_energy}"
tot_energy = -105.760658064539
print "num_atoms = ${natoms}"
num_atoms = 8
print "xx = ${length_x}"
xx = 4.35832471527479
print "yy = ${length_y}"
yy = 4.35832471527479
print "zz = ${length_z}"
zz = 4.35832471527479
print "xy = ${tilt_xy}"
xy = 0
print "xz = ${tilt_xz}"
xz = 0
print "yz = ${tilt_yz}"
yz = 0
print "tot_press = ${tot_press}"
tot_press = 1.38631174704167
print "pxx = ${press_xx}"
pxx = 1.38631174709188
print "pyy = ${press_yy}"
pyy = 1.38631174731354
print "pzz = ${press_zz}"
pzz = 1.3863117467196
print "pxy = ${press_xy}"
pxy = -6.25726806975275e-11
print "pxz = ${press_xz}"
pxz = -1.31427228854923e-10
print "pyz = ${press_yz}"
pyz = -3.21184365171528e-11
print "pypospack:output_section:done"
pypospack:output_section:done
print "pypospack:lammps_sim:done"
pypospack:lammps_sim:done
#------------------------------------------------------------------------------
# RUN THERMOSTAT
# running using an NPT Nose-Hoover style thermostat
#------------------------------------------------------------------------------
variable tempdamp equal 0.1
variable pressdamp equal 1.0
# set initial velocities
velocity all create 100 1997350 mom yes dist gaussian loop all
# fix for Nose-Hoover style thermostat
fix 20 all npt temp 100 100 0.1 aniso 0.0 0.0 1.0 drag 1.0 couple xyz
variable boxx equal lx
variable boxy equal ly
variable boxz equal lz
variable boxp equal press
variable boxt equal temp
# calculate averages every 10000 steps
reset_timestep 0
fix 21 all ave/time 10 10 100 v_boxx v_boxy v_boxz v_boxp v_boxt file lattice.out
thermo_style custom step temp pe ke etotal press lx ly lz press pxx pyy pzz pxy pxz pyz vol
thermo_modify flush yes
thermo 100
run 100000
PPPM initialization ...
  G vector (1/distance) = 0.351503
  grid = 8 8 8
  stencil order = 5
  estimated absolute RMS force accuracy = 3.99806e-05
  estimated relative force accuracy = 2.7765e-06
  using double precision FFTs
  3d grid and FFT values/proc = 3375 512
Memory usage per processor = 3.06549 Mbytes
Step Temp PotEng KinEng TotEng Press Lx Ly Lz Press Pxx Pyy Pzz Pxy Pxz Pyz Volume 
       0          100   -105.76067  0.090482102   -105.67019    1166.6525    4.3583247    4.3583247    4.3583247    1166.6525    1096.2943    754.62979    1649.0335    299.37105   -77.669835   -176.61458    82.786353 
     100    27.602949   -105.68196  0.024975728   -105.65698    2401.1364    4.3592454    4.3592454    4.3592454    2401.1364    2160.5044     762.4975    4280.4073    -360.3968    237.01921    144.85697     82.83883 
     200    60.414903   -105.68681  0.054664674   -105.63215    192.17922    4.3599523    4.3599523    4.3599523    192.17922    2309.6179    66.412499   -1799.4927    268.61885   -576.10296   -20.314447    82.879137 
     300    83.973638    -105.6875  0.075981113   -105.61152    1887.6559     4.361033     4.361033     4.361033    1887.6559    3141.0047    252.11991     2269.843   -498.58679    292.66377   -14.715164    82.940778 
     400    123.17623   -105.70619   0.11145244   -105.59474    -1873.688    4.3625005    4.3625005    4.3625005    -1873.688   -1047.1746   -2928.5076   -1645.3819    122.17092    385.34447    588.08492     83.02454 
     500    94.882496    -105.6697  0.085851676   -105.58385   -133.95202    4.3623256    4.3623256    4.3623256   -133.95202    745.11029    -233.1342   -913.83216   -508.60675    317.78782   -21.264368    83.014551 
     600    45.171538   -105.62042  0.040872156   -105.57955   -879.11184     4.363369     4.363369     4.363369   -879.11184   -290.04503   -2567.2349    219.94444   -263.68959   -333.91936    578.61354    83.074134 
     700    137.52393    -105.7027   0.12443454   -105.57827   -1520.7796    4.3629078    4.3629078    4.3629078   -1520.7796   -906.58186   -3129.8641   -525.89282   -557.89894    365.61347    491.19163    83.047792 
     800    128.55343    -105.6946   0.11631785   -105.57828   -414.27876     4.363319     4.363319     4.363319   -414.27876   -1466.0754   -1332.9287    1556.1677   -75.948694    99.576997   -172.58011     83.07128 
     900    63.845439   -105.63701  0.057768695   -105.57924   -3250.7321    4.3628954    4.3628954    4.3628954   -3250.7321   -1713.0745   -2858.9182   -5180.2036    -564.8863    561.99922    1058.3187    83.047088 
    1000    84.769961   -105.65594  0.076701642   -105.57923    1204.4907    4.3623417    4.3623417    4.3623417    1204.4907    3565.0286    1159.3946   -1110.9512    198.57851   -734.06611   -564.55807    83.015469 
    1100    133.91597   -105.70066   0.12116998   -105.57949   -737.22023     4.362245     4.362245     4.362245   -737.22023    746.28998   -2939.8859   -18.064745   -463.32591    64.964532    586.95813    83.009951 
    1200    101.03806   -105.67096  0.091421364   -105.57954   -798.12717    4.3620917    4.3620917    4.3620917   -798.12717   -752.75266    485.71408   -2127.3429   -197.63402     475.2093    58.763581    83.001198 
    1300    81.631154   -105.65308  0.073861583   -105.57922    26.451825    4.3618443    4.3618443    4.3618443    26.451825   -1481.3998   -338.83807    1899.5933    427.84457   -177.13767   -175.74772    82.987081 
    1400    82.859257   -105.65482  0.074972797   -105.57984    39.248124    4.3614278    4.3614278    4.3614278    39.248124    1303.5372   -880.50397   -305.28885   -895.74554    126.41643    706.99854     82.96331 
    1500    141.22973   -105.70699   0.12778762   -105.57921    1488.9592    4.3620288    4.3620288    4.3620288    1488.9592    2408.4398    -601.1904    2659.6282    384.43792   -371.35872    -223.6928    82.997611 
    1600    90.637357   -105.66136  0.082010586   -105.57935   -918.40036    4.3615361    4.3615361    4.3615361   -918.40036   -353.64629   -480.26032   -1921.2945   -767.10053    796.39875    444.45464    82.969491 
    1700    65.808101     -105.639  0.059544553   -105.57945   -1165.9115    4.3625881    4.3625881    4.3625881   -1165.9115    506.11099    568.24282   -4572.0883   -171.21827    291.61141    745.69212    83.029539 
    1800    128.00687   -105.69495    0.1158233   -105.57912    2190.5629     4.361486     4.361486     4.361486    2190.5629    2614.0974   -966.13287    4923.7243   -276.98078   -341.26833   -178.66092    82.966629 
    1900    112.70099   -105.68172   0.10197423   -105.57974   -912.79278    4.3626238    4.3626238    4.3626238   -912.79278    854.16341   -1081.8979   -2510.6439   -581.98531    63.751933    870.19021    83.031576 
    2000    70.743818   -105.64335  0.064010493   -105.57934    601.61226    4.3624109    4.3624109    4.3624109    601.61226   -1225.8106    -1123.796    4154.4433   -511.27018    724.81449    81.434396    83.019424 
    2100    110.64878   -105.67935   0.10011734   -105.57924    -1747.062    4.3621691    4.3621691    4.3621691    -1747.062   -2243.9965   -447.79969   -2549.3899    339.07951   -338.34015      38.9608    83.005616 
    2200    92.213409   -105.66332   0.08343663   -105.57988    1665.8004    4.3628861    4.3628861    4.3628861    1665.8004    3550.1641   -2947.9704    4395.2075   -679.53261    326.73898    750.02508    83.046558 
    2300    142.75158   -105.70821   0.12916463   -105.57905    5.4012209    4.3616599    4.3616599    4.3616599    5.4012209    2087.0068   -580.95844   -1489.8447     618.4027   -774.64618   -726.23635    82.976555 
    2400    35.183752   -105.61151  0.031834998   -105.57968    -381.9957    4.3630431    4.3630431    4.3630431    -381.9957    1575.7161   -932.40706   -1789.2961   -449.54069    782.23221    564.98134    83.055523 
    2500    128.02582   -105.69514   0.11584045    -105.5793   -615.47828    4.3619895    4.3619895    4.3619895   -615.47828   -1536.6671   -1233.0007    923.23296    253.88582   -54.511116   -144.65983    82.995366 
    2600    127.19587    -105.6944    0.1150895   -105.57931    1990.8937    4.3619399    4.3619399    4.3619399    1990.8937    2742.5389   -980.59324    4210.7355     72.24238   -399.28364    52.058493    82.992537 
    2700    68.426282   -105.64162  0.061913538    -105.5797    -356.9859    4.3625448    4.3625448    4.3625448    -356.9859    951.12131   -2781.1201    759.04111   -366.76761   -72.208581    333.79104    83.027069 
    2800    96.342574   -105.66613  0.087172785   -105.57895   -109.94031    4.3615028    4.3615028    4.3615028   -109.94031   -777.97172    244.28218    203.86862    -389.6995    760.29766    286.12051    82.967588 
    2900    104.14473   -105.67372  0.094232345   -105.57948    -394.8403     4.362688     4.362688     4.362688    -394.8403     1554.358   -2698.1889   -40.690035   -177.28158   -15.474792    235.15003    83.035244 
    3000    135.00776   -105.70143   0.12215785   -105.57927    155.68584    4.3614789    4.3614789    4.3614789    155.68584    1372.4022   -1777.1515    871.80675   -559.83022    540.35993    1192.2445    82.966227 
    3100    67.012302   -105.63997  0.060634139   -105.57934    691.01146    4.3623154    4.3623154    4.3623154    691.01146    5039.5758   -335.39207   -2631.1494   -171.39619   -498.41922   -286.95713    83.013971 
    3200    73.551715   -105.64629  0.066551138   -105.57974   -1980.5803    4.3622219    4.3622219    4.3622219   -1980.5803   -2676.7334   -2305.9486   -959.05897   -514.00621    1102.8847     1418.052    83.008633 
    3300    152.41804   -105.71708   0.13791105   -105.57917     485.4959    4.3620537    4.3620537    4.3620537     485.4959   -317.32228   -719.87168    2493.6817    3.1640544      153.417   -105.10202    82.999032 
    3400    97.614719   -105.66793  0.088323849   -105.57961   -877.26529    4.3627259    4.3627259    4.3627259   -877.26529   -182.36228   -3561.1306     1111.697    206.06991   -410.14189    810.85204     83.03741 
    3500    57.853772   -105.63179  0.052347309   -105.57944   -997.91913    4.3620827    4.3620827    4.3620827   -997.91913    431.71159   -1168.6733   -2256.7956     45.64326   -54.685448    203.29825    83.000685 
    3600    111.99268   -105.68035   0.10133333   -105.57901   -999.20926    4.3628855    4.3628855    4.3628855   -999.20926    1809.1694   -2068.0008   -2738.7964     105.5413    118.42352   -56.314693    83.046519 
    3700    124.58372   -105.69223   0.11272597    -105.5795    -1555.099    4.3622986    4.3622986    4.3622986    -1555.099   -1920.4431   -3012.0007    267.14678   -79.608847    255.07058    756.12364    83.013012 
    3800    108.22263   -105.67699  0.097922112   -105.57907   -117.69348    4.3626477    4.3626477    4.3626477   -117.69348    2609.7779    -743.1924   -2219.6659    56.459045    -293.1022   -257.80066    83.032942 
    3900     45.83012   -105.62098  0.041468056   -105.57951   -226.31929     4.362106     4.362106     4.362106   -226.31929    375.44002   -1611.5136    557.11573   -390.39811    123.44019    918.40044    83.002018 
    4000    123.37977   -105.69106   0.11163661   -105.57942   -1125.6164    4.3625682    4.3625682    4.3625682   -1125.6164   -1479.1615   -1384.8091   -512.87852   -555.93191    738.88306    47.526796    83.028402 
    4100    138.16253   -105.70412   0.12501236   -105.57911    1291.9134    4.3619183    4.3619183    4.3619183    1291.9134    363.66472   -1853.6996     5365.775   -433.80805    741.24596     883.5217      82.9913 
    4200    72.814007   -105.64544  0.065883643   -105.57956   -1847.4937    4.3623414    4.3623414    4.3623414   -1847.4937   -1351.0542   -1456.0975   -2735.3294   -650.01422   -56.318951    653.24317    83.015453 
    4300    64.203434    -105.6374  0.058092617   -105.57931    1759.3983     4.362011     4.362011     4.362011    1759.3983    5345.6142   -875.71211    808.29276    99.890381    177.99156    593.69016    82.996597 
    4400    146.10497   -105.71148   0.13219885   -105.57928   -723.14695    4.3619263    4.3619263    4.3619263   -723.14695   -132.28042   -1270.4342   -766.72626    -492.5356    159.42438    183.16252    82.991758 
    4500    100.53699   -105.67061  0.090967978   -105.57965    893.84714    4.3623429    4.3623429    4.3623429    893.84714    1303.8041   -1746.5521    3124.2895   -48.041832    311.98198    776.68334    83.015538 
    4600    90.129476   -105.66068  0.081551044   -105.57913    313.43182    4.3619042    4.3619042    4.3619042    313.43182   -545.59109    564.44679    921.43977    607.12622   -1106.3812   -630.76505      82.9905 
    4700    62.646107   -105.63639  0.056683514    -105.5797    684.54535     4.362362     4.362362     4.362362    684.54535    746.16073   -1578.6192    2886.0945   -166.05765    42.808982    871.17811    83.016629 
    4800    149.65215   -105.71455   0.13540841   -105.57914     883.7715     4.362006     4.362006     4.362006     883.7715     2503.248   -1397.5952    1545.6616    575.84461   -139.04757   -873.57157    82.996308 
    4900    108.06191   -105.67698  0.097776686    -105.5792   -260.06622     4.362329     4.362329     4.362329   -260.06622   -1767.6893   -1214.3492    2201.8399   -256.25928    672.81732    447.07815    83.014747 
    5000    50.279722   -105.62504  0.045494149   -105.57954   -592.42767     4.362384     4.362384     4.362384   -592.42767    3455.7141    -1628.823   -3604.1741   -222.60141   -30.738648    403.23753    83.017884 
    5100    121.69467   -105.68927   0.11011189   -105.57915    1420.3615    4.3617449    4.3617449    4.3617449    1420.3615    1569.9514    262.80112     2428.332    8.7775672    454.44526   -71.776638    82.981403 
    5200    119.30759   -105.68763   0.10795202   -105.57968    163.46973    4.3624499    4.3624499    4.3624499    163.46973    3010.0803    -3045.531    525.85985   -616.37194    1019.4641    998.66481     83.02165 
    5300    91.900272   -105.66246  0.083153297   -105.57931    27.613891    4.3618909    4.3618909    4.3618909    27.613891   -2310.0577    604.00213    1788.8972   -727.15205    922.48749    453.09458    82.989736 
    5400    79.570174   -105.65124  0.071996765   -105.57924   -447.08693    4.3625309    4.3625309    4.3625309   -447.08693   -1147.9769   -1543.9589     1350.675    175.83331   -658.07996     506.3947    83.026275 
    5500    100.59381   -105.67073  0.091019391   -105.57971    210.14154    4.3620083    4.3620083    4.3620083    210.14154    2855.7253   -1627.4264   -597.87429   -675.28592    455.61063    1138.4904    82.996438 
    5600     145.3428   -105.71054   0.13150922   -105.57903   -59.851572    4.3624183    4.3624183    4.3624183   -59.851572    1127.1833   -2021.3974    714.65936    713.91009   -580.17108   -166.82197    83.019842 
    5700    56.255652   -105.63047  0.050901296   -105.57956   -1534.5097    4.3623489    4.3623489    4.3623489   -1534.5097    1310.6454   -1874.9151   -4039.2594   -308.08319    379.03279    429.04135    83.015881 
    5800    91.509646   -105.66225  0.082799851   -105.57945    -1067.254    4.3626001    4.3626001    4.3626001    -1067.254   -1566.5286   -1210.9422    -424.2912    383.81004   -401.89069    782.38565    83.030226 
    5900    139.54082   -105.70546   0.12625947   -105.57921    572.96275    4.3622411    4.3622411    4.3622411    572.96275     2739.037    -2307.686    1287.5372     485.4289   -416.54819   -720.69858    83.009729 
    6000    80.999612   -105.65289  0.073290151    -105.5796   -235.48227    4.3621144    4.3621144    4.3621144   -235.48227    198.58496   -1329.3371    424.30533    157.31081    1579.8227    1510.7071    83.002497 
    6100    98.066958   -105.66759  0.088733044   -105.57885   -1702.7534    4.3628773    4.3628773    4.3628773   -1702.7534   -3375.7776   -1765.5337     33.05115   -274.14224    494.13538   -796.76683    83.046052 
    6200    76.717263   -105.64893  0.069415392   -105.57952    152.48737    4.3617043    4.3617043    4.3617043    152.48737    977.82686   -1239.5499    719.18512   -84.809749    463.51064    1353.4431    82.979088 
    6300    153.68056   -105.71834    0.1390534   -105.57928   -1661.5249    4.3629982    4.3629982    4.3629982   -1661.5249    682.98597   -3995.1029   -1672.4577    -689.3991     830.5348    401.72153     83.05296 
    6400    71.565686   -105.64421  0.064754137   -105.57946    1730.7729    4.3614051    4.3614051    4.3614051    1730.7729    4763.0036   -320.64455    749.95971   -3.0723382    99.837471    318.89531    82.962012 
    6500    76.979482   -105.64922  0.069652653   -105.57957   -3049.0312    4.3631026    4.3631026    4.3631026   -3049.0312   -3084.5013   -3223.8271   -2838.7651    -756.3126    679.37282    667.60636     83.05892 
    6600    118.45479   -105.68649   0.10718038   -105.57931    1891.6571    4.3619293    4.3619293    4.3619293    1891.6571   -234.50924   -726.62104    6636.1016    -213.4244   -574.11022    249.11871    82.991933 
    6700    131.41074   -105.69829    0.1189032   -105.57939   -562.95899     4.362094     4.362094     4.362094   -562.95899     1421.975   -2506.4778   -604.37419    119.62626    -1050.975    216.86164    83.001334 
    6800    58.746968   -105.63263  0.053155492   -105.57947     13.39213    4.3629236    4.3629236    4.3629236     13.39213   -890.69806   -1894.5623    2825.4368    191.18418    1008.4801    252.25748    83.048699 
    6900    94.712082   -105.66474  0.085697482   -105.57904    108.23945     4.361344     4.361344     4.361344    108.23945    1488.8907    176.24577   -1340.4181    485.42425   -460.24883   -243.48621    82.958529 
    7000    127.23773   -105.69457   0.11512737   -105.57945   -1331.4068     4.363342     4.363342     4.363342   -1331.4068   -1650.3166   -4894.5268    2550.6231   -140.38182    429.36877    134.23765     83.07259 
    7100    110.90017   -105.67953   0.10034481   -105.57919    1865.7705    4.3611888    4.3611888    4.3611888    1865.7705     5270.352    608.32482   -281.36524    601.80301    453.67352    343.77185    82.949672 
    7200    70.069311   -105.64272  0.063400185   -105.57932   -805.65866    4.3625244    4.3625244    4.3625244   -805.65866    332.14202   -2869.5808    120.46276   -175.79965    630.33709   -338.77679      83.0259 
    7300    78.275566   -105.65036  0.070825377   -105.57953     875.4609    4.3623361    4.3623361    4.3623361     875.4609   -990.85736    117.78422    3499.4559    71.596544     1269.091    704.43524    83.015153 
    7400    163.34074   -105.72681   0.14779413   -105.57901     596.1975    4.3614569    4.3614569    4.3614569     596.1975   -385.37079   -1757.3329    3931.2962   -636.71532   -146.47538   -515.25135     82.96497 
    7500     77.99743   -105.65021  0.070573714   -105.57964   -737.51718    4.3632299    4.3632299    4.3632299   -737.51718     560.6954   -2012.8943    -760.3527   -442.02178   -528.03972    952.34953    83.066188 
    7600     64.61732   -105.63793  0.058467109   -105.57947    627.27453    4.3611039    4.3611039    4.3611039    627.27453    2633.8134    708.97022     -1460.96   -154.79985    1058.9949   -501.31521    82.944827 
    7700    124.66026   -105.69217   0.11279522   -105.57937   -1208.0509    4.3634336    4.3634336    4.3634336   -1208.0509    79.610826   -3514.7486    -189.0148   -175.52144   -716.12687    235.14643    83.077823 
    7800    112.60684   -105.68151   0.10188903   -105.57962    590.36322    4.3615972    4.3615972    4.3615972    590.36322    884.93184   -241.05448    1127.2123   -481.93735     200.1105    46.681503    82.972978 
    7900    108.71105   -105.67735  0.098364039   -105.57898   -956.71587    4.3626667    4.3626667    4.3626667   -956.71587     662.0977   -2332.6965   -1199.5488    592.50899   -32.279917    52.847337    83.034028 
    8000    41.149698   -105.61684  0.037233112   -105.57961    413.89996     4.362491     4.362491     4.362491    413.89996   -97.890864    471.19266    868.39808   -183.93947    458.26406    371.27426    83.023998 
    8100    144.60674      -105.71   0.13084322   -105.57916   -108.38219    4.3616659    4.3616659    4.3616659   -108.38219    -703.9329   -1814.7405    2193.5268    792.36664    1570.3993    48.094517    82.976894 
    8200    121.64378   -105.68931   0.11006585   -105.57924   -408.04196    4.3631475    4.3631475    4.3631475   -408.04196   -646.53233   -869.27062    291.67707   -14.899886   -128.11729     162.2233    83.061483 
    8300    56.781718   -105.63094  0.051377292   -105.57956   -1025.8577    4.3613969    4.3613969    4.3613969   -1025.8577    1091.1157   -804.88938   -3363.7994   -325.47682    516.62745    868.40281    82.961547 
    8400    105.72646   -105.67477  0.095663525   -105.57911   -245.54073    4.3630334    4.3630334    4.3630334   -245.54073    2321.3726    -1328.462   -1729.5328    268.50002    813.01561   -176.87183    83.054969 
    8500    106.95215   -105.67634  0.096772555   -105.57957    1151.1463    4.3615859    4.3615859    4.3615859    1151.1463     679.6933   -1214.0041    3987.7496   -387.17421    338.51676      491.477    82.972332 
    8600    128.65259    -105.6955   0.11640756   -105.57909   -1647.3133    4.3626585    4.3626585    4.3626585   -1647.3133   -1405.3218   -2080.8147   -1455.8032   -569.77343   -69.082722    142.96685    83.033561 
    8700    53.356281   -105.62751  0.048277884   -105.57923    843.53664    4.3623636    4.3623636    4.3623636    843.53664   -1523.8305    681.12933    3373.3111   -132.08006   -258.54994   -378.77958    83.016724 
    8800    109.54995   -105.67864  0.099123093   -105.57952   -1246.3802    4.3618877    4.3618877    4.3618877   -1246.3802     348.3949    -2497.382   -1590.1534   -706.00995    423.01049    974.69524    82.989556 
    8900    127.83259   -105.69496   0.11566562    -105.5793    1639.8534    4.3628923    4.3628923    4.3628923    1639.8534    783.87684   -652.03124    4787.7146    469.90326    975.70704    -1162.801    83.046911 
    9000    91.142444   -105.66194  0.082467599   -105.57947   -1408.5666    4.3614633    4.3614633    4.3614633   -1408.5666    175.16028   -1490.2263   -2910.6338   -131.60164    -2.047617    713.15123    82.965334 
    9100    68.561186   -105.64147  0.062035602   -105.57943   -515.94348    4.3631185    4.3631185    4.3631185   -515.94348    118.27218   -1086.1453   -579.95733    -90.71557    278.13142   -154.49293     83.05983 
    9200    128.65986   -105.69557   0.11641415   -105.57915    1364.8402    4.3615594    4.3615594    4.3615594    1364.8402    2241.4297   -1556.6318    3409.7228    441.07611    814.69668    301.88916    82.970821 
    9300    105.43581   -105.67492  0.095400534   -105.57952    486.55559    4.3622292    4.3622292    4.3622292    486.55559    282.47697   -2639.5664    3816.7562    81.253426    682.37418    270.23027    83.009047 
    9400    87.822237    -105.6585  0.079463406   -105.57903   -277.36748    4.3625299    4.3625299    4.3625299   -277.36748   -1983.0932   -61.454683    1212.4454    176.11268   -319.01395    149.92663    83.026215 
    9500    84.725209   -105.65598  0.076661149   -105.57932   -706.73175    4.3616877    4.3616877    4.3616877   -706.73175   -1518.8222   -1421.8177    820.44462   -263.03803   -185.32325   -63.681005    82.978141 
    9600    123.08696   -105.69083   0.11137167   -105.57946    85.351835    4.3631446    4.3631446    4.3631446    85.351835    3003.8621   -2432.7454   -315.06117    -508.1583    303.61013    766.23491    83.061317 
    9700    113.77161   -105.68214   0.10294295    -105.5792    863.23006    4.3613019    4.3613019    4.3613019    863.23006    1711.6591   -1403.1119    2281.1429    71.129405     282.6165   -930.51308    82.956124 
    9800    57.822644   -105.63177  0.052319143   -105.57945   -1806.4318    4.3633113    4.3633113    4.3633113   -1806.4318    502.94203   -2100.0967   -3822.1407   -406.11465    440.35412     283.4365    83.070839 
    9900    113.30873   -105.68178   0.10252412   -105.57925    112.88341    4.3619548    4.3619548    4.3619548    112.88341   -1594.1003   -1185.9522    3118.7027     -263.847   -190.73868   -364.39817    82.993383 
   10000    131.85833   -105.69864   0.11930819   -105.57933    135.13575    4.3622377    4.3622377    4.3622377    135.13575    2230.0825   -2800.3206     975.6453   -192.07255    1125.4712   -261.38758    83.009532 
   10100    72.169402   -105.64481  0.065300391   -105.57951   -313.04061    4.3627882    4.3627882    4.3627882   -313.04061   -476.06468   -2185.3031     1722.246    122.46801    1035.3872     478.9574    83.040963 
   10200    91.741222   -105.66207  0.083009386   -105.57906     -1093.95    4.3616063    4.3616063    4.3616063     -1093.95    -1910.301    422.71208   -1794.2611    469.23218   -140.82702   -800.20214    82.973493 
   10300    105.41251   -105.67492  0.095379451   -105.57954   -1329.0442    4.3632391    4.3632391    4.3632391   -1329.0442    1433.7415   -2930.0052   -2490.8689    -355.5629   -50.811314    1110.5618    83.066713 
   10400     132.8237   -105.69941   0.12018168   -105.57923    428.60878    4.3616403    4.3616403    4.3616403    428.60878     1443.468   -886.53801    728.89639    251.47038    320.81238     5.629862    82.975435 
   10500    67.957324   -105.64081  0.061489215   -105.57932   -105.31049    4.3625246    4.3625246    4.3625246   -105.31049    4038.5433   -1916.1967   -2438.2781   -288.88103   -127.32041    761.25083    83.025913 
   10600    76.054405   -105.64817  0.068815624   -105.57936   -1277.4499    4.3625791    4.3625791    4.3625791   -1277.4499   -4269.7538   -1385.3455    1822.7496    162.19442    639.92731    173.55217    83.029024 
   10700     149.2564   -105.71412   0.13505033   -105.57907    276.16727    4.3618497    4.3618497    4.3618497    276.16727    877.94742    -537.5713    488.12571   -436.67103   -995.78809    342.27533    82.987387 
   10800    96.277276   -105.66673  0.087113703   -105.57962   -453.65557    4.3629157    4.3629157    4.3629157   -453.65557   -22.696925   -2898.7164    1560.4466   -569.46199    1645.2568     312.2048    83.048248 
   10900     66.65991   -105.63969  0.060315288   -105.57937   -45.998644    4.3616668    4.3616668    4.3616668   -45.998644     255.3792    1255.3167   -1648.6919   -237.50954    1085.3107    182.75006    82.976946 
   11000    100.40146   -105.67009   0.09084535   -105.57925   -454.07764    4.3627862    4.3627862    4.3627862   -454.07764    788.24804   -1807.9915   -342.48941     283.4444    77.820407   -646.91318    83.040851 
   11100    135.48099   -105.70197   0.12258605   -105.57938   -467.59167    4.3622381    4.3622381    4.3622381   -467.59167   -556.91888   -540.49881   -305.35732   -777.96348    1188.8009    555.81383    83.009557 
   11200    97.198873   -105.66706  0.087947583   -105.57911    1649.3222    4.3619314    4.3619314    4.3619314    1649.3222    3712.0069   -579.10562    1815.0653    597.71008   -79.799505   -597.74628     82.99205 
   11300    56.787755   -105.63073  0.051382754   -105.57935   -352.19278    4.3625481    4.3625481    4.3625481   -352.19278   -1039.0404   -1099.1745    1081.6365   -731.60394    635.84449     802.1428    83.027255 
   11400    116.00912   -105.68421   0.10496749   -105.57925    514.91338      4.36176      4.36176      4.36176    514.91338   -1984.9427   -24.445658    3554.1285    709.26029   -32.790376   -348.93397     82.98227 
   11500    145.21433   -105.71055   0.13139297   -105.57916    -123.6694    4.3626316    4.3626316    4.3626316    -123.6694    1081.5027   -1892.2344    439.72353   -167.92414   -1242.4829    397.64707    83.032026 
   11600    63.096276   -105.63668  0.057090836   -105.57959      119.697    4.3620624    4.3620624    4.3620624      119.697   -607.66642    575.64965    391.10777   -602.69533    632.85755     875.8441    82.999529 
   11700    79.926495   -105.65148  0.072319173   -105.57916    750.62823    4.3621538    4.3621538    4.3621538    750.62823    4433.6672   -441.28995   -1740.4925    4.9740784    644.18271   0.24715137    83.004746 
   11800    121.12469   -105.68891   0.10959616   -105.57931    265.36423    4.3624788    4.3624788    4.3624788    265.36423    -1338.225    -1210.991    3345.3087   -165.78577   -298.09454    532.94726    83.023301 
   11900    132.26447    -105.6989   0.11967567   -105.57923   -288.21657    4.3621012    4.3621012    4.3621012   -288.21657    2262.4547   -1373.6115   -1753.4929   -483.81682    1438.0915    68.605597    83.001742 
   12000     62.89598   -105.63621  0.056909604    -105.5793    864.90428     4.362509     4.362509     4.362509    864.90428   -333.58995   -605.94835    3534.2511    9.0153235   -5.8171868   -79.988402    83.025021 
   12100    80.153317   -105.65209  0.072524406   -105.57957   -541.51824    4.3619324    4.3619324    4.3619324   -541.51824   -309.99807   -1011.3691    -303.1876   -626.04141    1783.1155    514.09946    82.992108 
   12200    138.37126    -105.7044   0.12520122    -105.5792    438.57582    4.3624845    4.3624845    4.3624845    438.57582    1741.9585   -2118.7456    1692.5146    297.17649    -153.4439   -587.39892    83.023625 
   12300    114.75426   -105.68306   0.10383206   -105.57923   -1490.2825    4.3623923    4.3623923    4.3623923   -1490.2825   -942.65588   -934.32368    -2593.868    258.17545    -716.5536   -232.70842    83.018359 
   12400    51.352768   -105.62586  0.046465064   -105.57939    178.25401    4.3620324    4.3620324    4.3620324    178.25401    4638.4984   -608.18745   -3495.5489   -608.21914    265.33069    776.97869    82.997813 
   12500     110.8439   -105.67938   0.10029389   -105.57908    455.43486    4.3625792    4.3625792    4.3625792    455.43486   -145.62577   -1064.0317     2575.962    464.70628    3.0242543   -597.15544     83.02903 
   12600    124.52053   -105.69208   0.11266879   -105.57941   -275.56241    4.3618942    4.3618942    4.3618942   -275.56241    3275.6031   -2888.2291   -1214.0612   -396.16059   -931.76571    1301.1428    82.989928 
   12700    102.61841   -105.67196  0.092851291   -105.57911   -1388.0659    4.3629508    4.3629508    4.3629508   -1388.0659   -3093.5959   -1512.7354     442.1334    410.17225    709.64529   -283.33919    83.050248 
   12800    66.882483   -105.63992  0.060516676    -105.5794   -832.98278    4.3620739    4.3620739    4.3620739   -832.98278    631.88166   -1356.9135   -1773.9165   -604.27361   -293.81729    932.17437    83.000183 
   12900    102.81115   -105.67255  0.093025692   -105.57953   -97.889281    4.3624269    4.3624269    4.3624269   -97.889281    1085.1173   -2275.7539    896.96872   -142.17314    1970.5483    936.62826    83.020334 
   13000    140.86015   -105.70651   0.12745323   -105.57905   -678.19032     4.362637     4.362637     4.362637   -678.19032    1466.2156   -1650.1058   -1850.6807   -423.23674    509.79172   -33.498043    83.032332 
   13100     69.80005   -105.64247  0.063156552   -105.57932   -1427.6092    4.3621684    4.3621684    4.3621684   -1427.6092    1254.7858   -1784.5959   -3753.0175     271.3438    11.239538    578.73456    83.005576 
   13200    85.002929   -105.65626  0.076912437   -105.57934   -195.08847    4.3628838    4.3628838    4.3628838   -195.08847    124.24584   -457.64866    -251.8626   -690.10433    1335.1285    154.11083    83.046424 
   13300    126.47256   -105.69381   0.11443503   -105.57937    812.24119    4.3615622    4.3615622    4.3615622    812.24119    2141.4047   -2696.1124    2991.4312    102.20958   -47.065612   -99.968544    82.970978 
   13400    99.370465   -105.66943  0.089912485   -105.57951   -737.12095    4.3629678    4.3629678    4.3629678   -737.12095   -453.59572   -1753.0441   -4.7230711   -484.98032    265.45952    477.08763    83.051222 
   13500    93.349966   -105.66352  0.084465011   -105.57906    -1653.392    4.3622784    4.3622784    4.3622784    -1653.392   -3138.7251   -1407.9094   -413.54151    609.06928   -744.35036   -770.89774    83.011859 
   13600    80.940268   -105.65271  0.073236455   -105.57948   -48.923736    4.3621698    4.3621698    4.3621698   -48.923736    2542.8358   -1237.5344   -1452.0727   -695.45211    220.67687    534.17795    83.005659 
   13700    130.68915   -105.69749   0.11825029   -105.57924    508.99966    4.3628024    4.3628024    4.3628024    508.99966    1058.1444   -1840.6895     2309.544    248.20386    552.49776    218.54452    83.041774 
   13800    98.432479   -105.66828  0.089063776   -105.57921    252.08696    4.3615554    4.3615554    4.3615554    252.08696    3752.2839   -361.78912   -2634.2339   -556.39894    605.44494    311.63289    82.970593 
   13900    67.841182   -105.64077  0.061384127   -105.57938   -993.83372    4.3632683    4.3632683    4.3632683   -993.83372   -2900.8088   -819.20449    738.51213    166.13162   -245.89328    500.83478    83.068385 
   14000    127.21213   -105.69428   0.11510421   -105.57918    772.18017    4.3614545    4.3614545    4.3614545    772.18017    1700.9015   -1095.4751    1711.1141   -88.857861    1479.9596    283.29483    82.964834 
   14100     101.4397   -105.67133  0.091784774   -105.57955    1273.3673    4.3625801    4.3625801    4.3625801    1273.3673    2169.2456   -1627.5151    3278.3713   -808.16861    314.90138    662.55875    83.029085 
   14200     95.39317   -105.66554  0.086313745   -105.57923   -1217.9912    4.3622691    4.3622691    4.3622691   -1217.9912   -1754.2903   -956.28015   -943.40325    88.480453    841.58099    422.58496    83.011329 
   14300    76.110235   -105.64809   0.06886614   -105.57922     658.4618    4.3617958    4.3617958    4.3617958     658.4618    2259.0872     850.3105   -1134.0123   -124.70966   -899.64508   -221.70369    82.984312 
   14400    133.84814   -105.70039   0.12110861   -105.57928   -674.37015    4.3630132    4.3630132    4.3630132   -674.37015    926.41511   -2903.3686   -46.156911   -348.31627    708.97734    123.89108    83.053817 
   14500    96.615353   -105.66676  0.087419602   -105.57934    3010.1115    4.3609384    4.3609384    4.3609384    3010.1115     7023.123    1520.2707    486.94079    179.83632   -114.06948   -306.77568    82.935384 
   14600    82.820817   -105.65425  0.074938015   -105.57931   -1386.1074    4.3632119    4.3632119    4.3632119   -1386.1074   -2287.9483   -1360.4436   -509.93048   -452.94908    285.09382    97.910656    83.065162 
   14700     90.82131    -105.6616   0.08217703   -105.57942    289.42559    4.3616889    4.3616889    4.3616889    289.42559    307.46972    480.34907     80.45797    334.22232   -419.88206   -234.47579    82.978206 
   14800    137.70319   -105.70383   0.12459674   -105.57923    487.78086     4.362376     4.362376     4.362376    487.78086    1356.6119   -1696.9591    1803.6897    621.08042     634.7997   -316.46806     83.01743 
   14900    85.922359   -105.65718  0.077744356   -105.57944   -114.02761    4.3625305    4.3625305    4.3625305   -114.02761    3564.8216    -2185.499   -1721.4054   -1004.9116    819.59607    813.92294     83.02625 
   15000    69.619095   -105.64212  0.062992821   -105.57912    189.59109     4.361717     4.361717     4.361717    189.59109   -196.30511    2087.0265   -1321.9482    703.30959     476.9478    71.100212    82.979812 
   15100     125.3241   -105.69254   0.11339588   -105.57915   -1392.1837    4.3632439    4.3632439    4.3632439   -1392.1837    2133.1406   -3181.9063   -3127.7853   -536.54632   -270.95389    886.08008    83.066987 
   15200    112.07405    -105.6809   0.10140696   -105.57949    1299.9563    4.3613642    4.3613642    4.3613642    1299.9563    2632.2083    1046.3623    221.29847    42.451044    664.67309     234.9532    82.959677 
   15300    93.087761   -105.66345  0.084227763   -105.57923   -518.64973    4.3630818    4.3630818    4.3630818   -518.64973    2576.8077   -2431.9288   -1700.8281   -195.79078    376.61009    462.30213    83.057733 
   15400    63.511415   -105.63687  0.057466463    -105.5794   -461.52281    4.3618557    4.3618557    4.3618557   -461.52281   -3435.5072    476.57192    1574.3669   -581.37299     124.2996    760.79191    82.987731 
   15500     135.2342    -105.7016   0.12236275   -105.57923   -1022.3017    4.3626195    4.3626195    4.3626195   -1022.3017    205.70199   -1581.7172   -1690.8898    17.165128    259.69958   -90.333613    83.031333 
   15600    118.78965    -105.6867   0.10748337   -105.57922   -555.93946     4.362687     4.362687     4.362687   -555.93946    2174.7418   -3285.3516    -557.2086    575.31085   -390.57204   -268.57812    83.035187 
   15700    55.222705   -105.62935  0.049966664   -105.57939    41.829011    4.3617658    4.3617658    4.3617658    41.829011    2780.5753     814.3893   -3469.4776   -842.65923    2157.3705    447.49667    82.982599 
   15800    110.76244   -105.67929   0.10022018   -105.57907   -1686.5534    4.3632776    4.3632776    4.3632776   -1686.5534   -1346.5646    -2957.647   -755.44865     796.8747   -637.10814   -687.07051    83.068914 
   15900    111.19668    -105.6801    0.1006131   -105.57948    669.66678    4.3616041    4.3616041    4.3616041    669.66678    1699.4759     580.4455   -270.92101   -282.23847    919.34232    990.26064     82.97337 
   16000    122.89536   -105.69044    0.1111983   -105.57924   -1674.1156     4.363207     4.363207     4.363207   -1674.1156    187.70438   -3180.9299   -2029.1212    612.34156    145.85807   -801.42555    83.064881 
   16100    49.680563   -105.62435  0.044952017    -105.5794    805.12192    4.3617409    4.3617409    4.3617409    805.12192    8.9137585    51.301362    2355.1506   -47.048663    779.23171      819.973    82.981175 
   16200    111.04952    -105.6798   0.10047994   -105.57932   -1449.4507    4.3626349    4.3626349    4.3626349   -1449.4507   -1615.2083   -2340.5797   -392.56408   -518.95937    266.86352    526.48233     83.03221 
   16300    136.81274    -105.7029   0.12379105    -105.5791    41.783026    4.3624823    4.3624823    4.3624823    41.783026    1825.4242   -2077.2962    377.22101    232.59433    -194.0551    407.00418      83.0235 
   16400    79.236019   -105.65109  0.071694415   -105.57939    213.49105    4.3617033    4.3617033    4.3617033    213.49105    4466.8161   -473.70652   -3352.6364   -53.471234   -143.35811    395.83767    82.979029 
   16500    81.588032   -105.65312  0.073822566    -105.5793   -1067.8253    4.3630281    4.3630281    4.3630281   -1067.8253    -349.5562   -1792.3287   -1061.5909    -289.9538    1597.0748    122.38115    83.054665 
   16600    104.70948   -105.67404  0.094743342   -105.57929    1607.3787    4.3613745    4.3613745    4.3613745    1607.3787    1888.5524     215.8123    2717.7713   -28.804959   -491.29598     63.34665    82.960269 
   16700    141.30804     -105.707   0.12785849   -105.57914   -1591.5665    4.3631126    4.3631126    4.3631126   -1591.5665   -853.36014   -2648.5479   -1272.7915   -29.261928      1020.64    362.47062    83.059491 
   16800     58.37357    -105.6321  0.052817633   -105.57928    1672.3027    4.3617035    4.3617035    4.3617035    1672.3027    3382.1383    1005.9355    628.83423    525.00357    155.91652   -652.17272     82.97904 
   16900    98.261126   -105.66809  0.088908732   -105.57918   -1065.3536    4.3624318    4.3624318    4.3624318   -1065.3536    -856.7502   -2361.1899    21.879398    103.05159    871.22479   -236.70797    83.020615 
   17000     112.7174   -105.68136   0.10198907   -105.57937    1075.1453    4.3624148    4.3624148    4.3624148    1075.1453     4100.504   -998.82886    123.76061   -2.9351107    738.33274    125.00967    83.019644 
   17100    125.13747   -105.69247   0.11322701   -105.57924   -95.595364    4.3618116    4.3618116    4.3618116   -95.595364    2169.6254   -1074.8334   -1381.5781    220.05999   -898.10554   -470.18427    82.985212 
   17200    63.330596   -105.63679  0.057302854   -105.57949   -294.07141    4.3628636    4.3628636    4.3628636   -294.07141    3753.2916    118.23464   -4753.7404    334.28319    366.51565    695.72347    83.045272 
   17300    92.749675   -105.66335  0.083921855   -105.57942    872.20105     4.361424     4.361424     4.361424    872.20105   -1154.5498    356.55542    3414.5976      153.552    438.45961   -793.27456    82.963092 
   17400    139.49177    -105.7054   0.12621508   -105.57918   -351.63131    4.3629442    4.3629442    4.3629442   -351.63131    2066.8524    -1954.955   -1166.7913   -510.08286   -2.9163343    1035.3979    83.049872 
   17500    85.317536   -105.65647    0.0771971   -105.57927    440.62257    4.3618611    4.3618611    4.3618611    440.62257   -271.76806    489.50633    1104.1294    209.02628    141.73355     -54.7682    82.988036 
   17600    81.181359   -105.65257  0.073454599   -105.57911   -232.44313    4.3623997    4.3623997    4.3623997   -232.44313     3217.995   -503.98153   -3411.3428     77.75689    503.51462    557.59213    83.018781 
   17700      104.718   -105.67411  0.094751046   -105.57936   -53.294195     4.362496     4.362496     4.362496   -53.294195     1411.388   -1202.5151   -368.75552   -157.00926    1018.9164   -286.83556     83.02428 
   17800    123.50223   -105.69113   0.11174741   -105.57938    15.452985    4.3621279    4.3621279    4.3621279    15.452985    2554.4348   -1383.2342   -1124.8416    158.70029    1389.7009     343.3511     83.00327 
   17900    94.555488    -105.6648  0.085555793   -105.57925   -1581.0782    4.3629491    4.3629491    4.3629491   -1581.0782    102.54012   -444.60618   -4401.1686    -163.1815   -837.24142   -111.62052    83.050152 
   18000    60.558539   -105.63428  0.054794639   -105.57949     286.3794    4.3617862    4.3617862    4.3617862     286.3794   -622.42077    559.01102    922.54795     410.8863    1688.6449    374.90668    82.983761 
   18100    140.91676   -105.70657   0.12750444   -105.57907   -888.64074      4.36294      4.36294      4.36294   -888.64074    45.124841   -1212.6998   -1498.3473    472.53939    -378.8292   -850.61971    83.049631 
   18200    96.853262   -105.66698  0.087634867   -105.57935    871.34769    4.3618227    4.3618227    4.3618227    871.34769    1483.7132   -1431.9274    2562.2572   -616.06717    834.33317    660.02981    82.985844 
   18300     89.93179   -105.66058  0.081372174    -105.5792   -1627.7546    4.3627031    4.3627031    4.3627031   -1627.7546   -679.04839   -539.84037    -3664.375    583.11721   -504.66644   -402.02694    83.036108 
   18400    81.572645   -105.65312  0.073808644   -105.57931    487.12724    4.3621585    4.3621585    4.3621585    487.12724    3381.6876   -1374.0079   -546.29798    77.987755   -24.734901    625.10785    83.005015 
   18500    129.38744   -105.69637   0.11707248   -105.57929   -843.38628    4.3622179    4.3622179    4.3622179   -843.38628    784.89821   -1417.1616   -1897.8955    148.03815    1221.0917   -69.001861    83.008402 
   18600    104.40372   -105.67363  0.094466679   -105.57916   -768.63111    4.3628344    4.3628344    4.3628344   -768.63111     373.0184   -1366.0863   -1312.8254    232.83447    415.60471   -148.66809    83.043604 
   18700    66.375403   -105.63928  0.060057859   -105.57922   -339.97289    4.3617696    4.3617696    4.3617696   -339.97289   -1526.4539   -590.90094    1097.4362   -381.40995    194.06909    931.15818    82.982816 
   18800      113.289   -105.68168   0.10250626   -105.57917   -727.10505    4.3630283    4.3630283    4.3630283   -727.10505    -815.8907   -1107.2615   -258.16292    439.40796    1094.6486   -282.62578    83.054676 
   18900     117.3078   -105.68537   0.10614256   -105.57923    1535.7526     4.361678     4.361678     4.361678    1535.7526    5131.6445   -1864.7073    1340.3205    375.38583    435.35959    431.97396    82.977587 
   19000    98.238624   -105.66822  0.088888372   -105.57933   -1181.9456    4.3628598    4.3628598    4.3628598   -1181.9456   -651.97245   -1695.2923   -1198.5719   -655.64347    1161.7195   -388.53211    83.045051 
   19100    67.261088   -105.64029  0.060859246   -105.57943    586.85357    4.3619803    4.3619803    4.3619803    586.85357    3397.6664    -1188.761   -448.34471    596.54099   -735.04019    260.64139    82.994839 
   19200    126.68245   -105.69394   0.11462495   -105.57932   -638.56405     4.362182     4.362182     4.362182   -638.56405    1133.0099   -2790.2332   -258.46883   -276.26502   -48.152534   -47.307025    83.006354 
   19300    108.50384   -105.67751  0.098176554   -105.57934    23.673341    4.3626855    4.3626855    4.3626855    23.673341    3038.9644   -552.79729   -2415.1471    653.16862    1112.6881    29.272127      83.0351 
   19400    88.130202   -105.65883  0.079742059   -105.57909   -168.96719    4.3616227    4.3616227    4.3616227   -168.96719   -1528.2801   -1355.8007    2377.1791   -84.889515   -700.93942   -881.32308    82.974429 
   19500    79.169684   -105.65093  0.071634394    -105.5793    609.01605    4.3627596    4.3627596    4.3627596    609.01605    1334.0212   -617.33707     1110.364    28.591485    483.79313    690.70789     83.03933 
   19600    127.73893   -105.69484   0.11558087   -105.57926     910.9591    4.3617294    4.3617294    4.3617294     910.9591    4073.4491   -2347.2275    1006.6557    461.07361     161.8342   -824.29304    82.980521 
   19700    108.82764   -105.67772  0.098469537   -105.57925    133.37791    4.3626934    4.3626934    4.3626934    133.37791    4360.3007   -1795.9183   -2164.2487    424.03244    678.30491    641.33238    83.035554 
   19800    72.425634   -105.64482  0.065532235   -105.57929   -992.67626    4.3623428    4.3623428    4.3623428   -992.67626   -444.73151   -515.59863   -2017.6986   -200.82271    1093.1522   -789.16563    83.015534 
   19900    96.874762   -105.66687  0.087654321   -105.57922    136.45499    4.3621286    4.3621286    4.3621286    136.45499    1653.8578    -2891.412    1646.9192    137.17355   -362.57503    253.41385    83.003309 
   20000    130.38153   -105.69713   0.11797194   -105.57915   -910.68294      4.36279      4.36279      4.36279   -910.68294    1311.5556   -941.20012   -3102.4043   -301.15252    260.34011    312.17201    83.041068 
   20100    86.437097   -105.65744  0.078210102   -105.57923    239.95407    4.3618104    4.3618104    4.3618104    239.95407    1652.2813   -1221.5598    289.14071    150.74726    1290.5808    -186.6191    82.985141 
   20200    92.028488   -105.66238   0.08326931   -105.57911   -762.82929    4.3628435    4.3628435    4.3628435   -762.82929   -2726.1108    322.25964    115.36334   -589.88222   -740.38233    32.318313    83.044124 
   20300    90.930086   -105.66177  0.082275453    -105.5795    1647.6801    4.3616404    4.3616404    4.3616404    1647.6801     4482.343   -1784.1728      2244.87    -437.7671    827.20666   -165.19504     82.97544 
   20400    134.82127   -105.70124   0.12198912   -105.57925   -727.19457    4.3626687    4.3626687    4.3626687   -727.19457    2433.4956   -1916.0538   -2699.0255    48.602872   -619.40492    29.579448    83.034143 
   20500    77.083419   -105.64907  0.069746697   -105.57933   -997.13734    4.3624211    4.3624211    4.3624211   -997.13734    1567.6756   -978.04547   -3581.0422    41.790904    1146.3965    67.618469    83.020006 
   20600    89.790819   -105.66051   0.08124462   -105.57927   -1795.1908    4.3622884    4.3622884    4.3622884   -1795.1908   -4309.8281   -780.07954   -295.66472    461.64197     794.6024   -633.05073     83.01243 
   20700    114.30431   -105.68267   0.10342494   -105.57925    259.09989    4.3626514    4.3626514    4.3626514    259.09989    1228.4556     -1615.86    1164.7041   -290.19303   -546.26153   -274.58579    83.033155 
   20800     108.2729    -105.6773  0.097967592   -105.57933   -163.69653      4.36206      4.36206      4.36206   -163.69653    1678.6878   -826.31847   -1343.4589    627.42871    939.80746    91.180847    82.999391 
   20900    83.521664   -105.65483  0.075572157   -105.57926   -273.86914      4.36284      4.36284      4.36284   -273.86914   -957.65815   -57.929658    193.98038    414.10896    663.49275   -301.27405    83.043925 
   21000    97.389083    -105.6674  0.088119689   -105.57928    383.60831    4.3618884    4.3618884    4.3618884    383.60831    1366.6512   -943.97517    728.14889   -363.56264    86.217496    423.25443    82.989596 
   21100    114.72984   -105.68321   0.10380997    -105.5794     394.0487    4.3625346    4.3625346    4.3625346     394.0487    1688.0882   -1303.7602    797.81805    42.856069    275.47824   -602.48642    83.026485 
   21200     98.75697   -105.66856  0.089357382   -105.57921   -433.66852    4.3621973    4.3621973    4.3621973   -433.66852    3694.8384   -2044.9267   -2950.9172   -603.51888    -371.8457    907.21905     83.00723 
   21300    84.989931   -105.65611  0.076900675   -105.57921   -1727.4773    4.3623367    4.3623367    4.3623367   -1727.4773   -3824.1197    -86.65364   -1271.6586   -320.90618    1012.3202   -15.895406    83.015186 
   21400    105.73032   -105.67492  0.095667016   -105.57926     277.2785     4.362371     4.362371     4.362371     277.2785    95.546769   -1967.0281    2703.3168    200.50064    262.31422    79.871284    83.017145 
   21500    119.60104   -105.68745   0.10821754   -105.57923     1531.825    4.3618255    4.3618255    4.3618255     1531.825    3492.6621   -214.80749    1317.6204   -1018.7844   -290.60345   -40.728809    82.986005 
   21600    76.808482   -105.64892  0.069497928   -105.57943    1126.0572     4.362424     4.362424     4.362424    1126.0572    2311.8796   -671.98347    1738.2753    643.33855    573.33397   -365.87424     83.02017 
   21700    101.11844   -105.67061  0.091494088   -105.57912   -492.40963    4.3622701    4.3622701    4.3622701   -492.40963    1540.5316   -1381.5802   -1636.1802    358.12148    503.63712   -18.502276    83.011386 
   21800    108.16117   -105.67716  0.097866502   -105.57929    646.48838     4.362291     4.362291     4.362291    646.48838     1466.775   -1784.4196    2257.1098    223.47563     478.5553   -202.46898    83.012579 
   21900    115.79944   -105.68398   0.10477776    -105.5792   -750.72239    4.3624084    4.3624084    4.3624084   -750.72239    2604.4651   -2788.8621   -2067.7702    756.28876   -308.37066   -988.84954    83.019278 
   22000    65.060846   -105.63812  0.058868421   -105.57925    481.53697    4.3620958    4.3620958    4.3620958    481.53697     1878.623   -440.35872    6.3466741   -344.18365   -90.831131    250.54544    83.001434 
   22100    115.55177   -105.68376   0.10455367   -105.57921   -2183.2983    4.3627094    4.3627094    4.3627094   -2183.2983   -4329.1121   -2745.2223    524.43958    281.62993    654.27761   -308.88514    83.036467 
   22200     107.8887   -105.67708  0.097619962   -105.57946     2319.532    4.3618379    4.3618379    4.3618379     2319.532    6495.4541   -918.36904    1381.5109   -50.999498    37.809453     95.73794    82.986711 
   22300    112.41756   -105.68102   0.10171777   -105.57931    219.50554    4.3623506    4.3623506    4.3623506    219.50554    655.56821   -1787.4813    1790.4297   -1218.4195   -114.97328    192.04833    83.015983 
   22400     53.93398   -105.62824  0.048800599   -105.57944     1033.487    4.3621646    4.3621646    4.3621646     1033.487     4966.622   -580.58927   -1285.5717   -177.36294    178.94904   -478.51083    83.005361 
   22500     132.6349   -105.69904   0.12001085   -105.57903   -2348.7012    4.3624658    4.3624658    4.3624658   -2348.7012   -2981.5854   -3175.8823   -888.63598   -517.24191    742.31342    704.94671    83.022555 
   22600    108.35347   -105.67746  0.098040496   -105.57942   -717.54282    4.3624537    4.3624537    4.3624537   -717.54282     2364.299   -2859.6307   -1657.2968     -204.859    941.02488   -253.41536    83.021868 
   22700    93.588408   -105.66396  0.084680758   -105.57928   -1214.6161    4.3624765    4.3624765    4.3624765   -1214.6161    225.70177    -1962.438   -1907.1119    243.00293   -583.75536   -514.90321    83.023165 
   22800    73.195826   -105.64553  0.066229121    -105.5793   -85.451603    4.3623135    4.3623135    4.3623135   -85.451603   -986.41938    -1755.004    2485.0686   -212.67725    849.24329    -25.72552     83.01386 
   22900     117.5828   -105.68565   0.10639138   -105.57926   -526.71732    4.3626395    4.3626395    4.3626395   -526.71732    1460.5116   -1170.0572   -1870.6064    453.71454    284.87527   -822.06992    83.032475 
   23000    129.41529   -105.69619   0.11709768   -105.57909   -18.362179    4.3623119    4.3623119    4.3623119   -18.362179    1663.0261   -2884.0502    1165.9376    836.80428     212.1173    296.33559    83.013773 
   23100    62.468094   -105.63592  0.056522444   -105.57939    293.70175    4.3624254    4.3624254    4.3624254    293.70175    2891.9274    43.827157   -2054.6493   -602.93875    86.485918   -550.63558    83.020248 
   23200    95.586431   -105.66573  0.086488611   -105.57924   -1865.7607    4.3624662    4.3624662    4.3624662   -1865.7607     -2168.97   -3216.9506   -211.36161    381.19862   -604.89601   -375.97005    83.022581 
   23300    119.12194   -105.68697   0.10778404   -105.57919   -842.56117    4.3623142    4.3623142    4.3623142   -842.56117   -13.845717   -1450.8611   -1062.9767   -902.93421    1104.0733    401.90852    83.013904 
   23400    117.92801   -105.68605   0.10670374   -105.57934   -1843.9311      4.36257      4.36257      4.36257   -1843.9311    12.706532   -2191.1132   -3353.3866    267.19013    350.05041    15.073504    83.028505 
   23500    64.806608   -105.63807  0.058638381   -105.57943    1396.5719    4.3619239    4.3619239    4.3619239    1396.5719    705.17695   -706.31791    4190.8567   -861.33848   -524.46755    356.01852    82.991625 
   23600    101.77939    -105.6714  0.092092135   -105.57931    344.43381     4.362543     4.362543     4.362543    344.43381    1950.3624   -428.25844   -488.80257   -105.49889    1036.0241    -208.5052    83.026963 
   23700    119.26015   -105.68715   0.10790909   -105.57924    1139.4278    4.3619493    4.3619493    4.3619493    1139.4278    2035.7107    -1000.553    2383.1257   -335.61248   -74.646631    18.744138    82.993074 
   23800    113.65755   -105.68189   0.10283974   -105.57905    -793.6303    4.3626513    4.3626513    4.3626513    -793.6303    1810.1814   -333.11357   -3857.9587    766.07087    826.95943    250.98491    83.033149 
   23900    57.556073   -105.63155  0.052077944   -105.57947    42.527402    4.3621247    4.3621247    4.3621247    42.527402    47.505558   -1437.9946    1518.0712    177.50021   -259.41037   -305.01029    83.003085 
   24000    117.09351   -105.68521   0.10594867   -105.57926   -756.86131    4.3623467    4.3623467    4.3623467   -756.86131   -1293.0761   -1721.6027    744.09485    218.76475   -698.18384   -418.63989    83.015758 
   24100    117.97939   -105.68606   0.10675023   -105.57931    463.90242    4.3622741    4.3622741    4.3622741    463.90242    3681.0323   -907.53313   -1381.7919    388.71642     1062.993   -194.03286    83.011614 
   24200    94.895112   -105.66512  0.085863092   -105.57926    132.77001    4.3620938    4.3620938    4.3620938    132.77001   -1385.6848    360.76798    1423.2268    309.69416   -307.26831   -128.73919    83.001323 
   24300    74.519727   -105.64665  0.067427015   -105.57922    2444.8197    4.3621767    4.3621767    4.3621767    2444.8197    6369.3962   -1091.7436    2056.8066   -111.94293   -449.56092    366.48673    83.006051 
   24400    118.42956   -105.68639   0.10715755   -105.57923     665.5245     4.361919     4.361919     4.361919     665.5245   -787.63456    260.99379    2523.2143   -252.25897    714.34468   -721.38123    82.991345 
   24500    111.49254   -105.68009   0.10088079   -105.57921    353.74806    4.3624311    4.3624311    4.3624311    353.74806    5255.7629   -1561.1789   -2633.3398   -457.39747   -97.732324    406.37681    83.020576 
   24600    94.043594   -105.66424   0.08509262   -105.57914   -1569.1896    4.3622637    4.3622637    4.3622637   -1569.1896   -3107.3698     312.7105   -1912.9095   -123.78266    1078.7117   -82.422338    83.011021 
   24700    72.932257   -105.64554  0.065990639   -105.57955   -99.662897      4.36228      4.36228      4.36228   -99.662897    1212.6726   -2952.9031    1441.2418    448.65554   -74.534445    158.48958    83.011951 
   24800    131.23685   -105.69792   0.11874586   -105.57918    39.638026    4.3624635    4.3624635    4.3624635    39.638026    2613.1397   -2402.6013   -91.624237   -1037.2721   -428.43752   -39.109578    83.022429 
   24900     100.0213   -105.66976  0.090501376   -105.57925    425.82009    4.3619856    4.3619856    4.3619856    425.82009    610.76316    573.70486    92.992254    1022.1047    1557.8461   -635.92899    82.995146 
   25000    84.002567   -105.65515  0.076007288   -105.57915    64.428128    4.3627784    4.3627784    4.3627784    64.428128    3309.9018   -2119.1216   -997.49578   -207.87792   -467.13981     205.0596    83.040405 
   25100     97.54131   -105.66746  0.088257427   -105.57921    940.87954    4.3618114    4.3618114    4.3618114    940.87954    775.13877    6.5971181    2040.9027     874.9343   -25.255891    174.99472    82.985203 
   25200    115.34098   -105.68376   0.10436295    -105.5794   -1207.8994    4.3628053    4.3628053    4.3628053   -1207.8994    2241.1918    -3915.748   -1949.1421   -256.07734    245.80253   -846.27801     83.04194 
   25300    102.98673   -105.67242  0.093184557   -105.57923   -1678.3362    4.3621503    4.3621503    4.3621503   -1678.3362   -990.67413   -661.60027   -3382.7343     241.9057    37.621302    346.05187    83.004547 
   25400     79.50857   -105.65134  0.071941025    -105.5794   -1840.7463    4.3626648    4.3626648    4.3626648   -1840.7463   -2458.6287   -2351.7205   -711.88967   -150.08211    1035.2753   -519.46446    83.033917 
   25500    107.47544   -105.67659  0.097246037   -105.57934   -139.97173    4.3624537    4.3624537    4.3624537   -139.97173    3990.3019    -3941.243   -468.97406    754.37167   -416.90077    337.61493    83.021864 
   25600    112.45474    -105.6809   0.10175142   -105.57915    1291.4336    4.3618535    4.3618535    4.3618535    1291.4336    2134.7196   -505.70005    2245.2813   -1290.9428   -27.473002     282.6949    82.987604 
   25700    94.173689   -105.66439  0.085210333   -105.57918   -1578.4621    4.3630802    4.3630802    4.3630802   -1578.4621    868.04962    -2852.498    -2750.938    875.74932    1138.2847   -1042.2387     83.05764 
   25800    79.951212   -105.65159  0.072341537   -105.57925    700.19247    4.3617804    4.3617804    4.3617804    700.19247    545.20595    239.84642     1315.525   -621.82774   -192.47251      1020.65    82.983432 
   25900    125.95824   -105.69321   0.11396967   -105.57924   -1765.9256    4.3629462    4.3629462    4.3629462   -1765.9256    296.38317   -3261.6682   -2332.4918    739.48572    92.027845   -472.32211    83.049988 
   26000    87.762918   -105.65883  0.079409733   -105.57942   -200.97476    4.3620932    4.3620932    4.3620932   -200.97476     2534.599   -2359.4149   -778.10836    37.136002   -41.008404    267.89249    83.001286 
   26100    107.84785   -105.67658     0.097583     -105.579    -2264.845    4.3625412    4.3625412    4.3625412    -2264.845   -4376.7646   -1333.9103     -1083.86   -190.28926    134.45084   -52.556625    83.026864 
   26200    77.584431   -105.64958  0.070200024   -105.57938    590.79345    4.3625123    4.3625123    4.3625123    590.79345    4513.3818   -3481.5426    740.54118    1026.8876    652.08863   -344.95849    83.025213 
   26300    130.73241   -105.69739   0.11828943    -105.5791    1191.0372    4.3617667    4.3617667    4.3617667    1191.0372     2241.452    217.85592    1113.8035    285.43524   -515.71416    593.56543    82.982648 
   26400    88.446837   -105.65931  0.080028557   -105.57928    1197.5105    4.3625747    4.3625747    4.3625747    1197.5105    4735.7236   -2075.6565    932.46425     250.9688   -63.170062    145.00822    83.028775 
   26500    85.246028   -105.65646  0.077132397   -105.57933   -873.61523    4.3619441    4.3619441    4.3619441   -873.61523   -3286.9412     389.7804    276.31511    97.185405    823.66644    -619.6869    82.992775 
   26600    116.09754    -105.6843   0.10504749   -105.57925   -443.59416    4.3626416    4.3626416    4.3626416   -443.59416    2058.9678   -2193.0931   -1196.6572    139.43721   -40.231695     567.8471    83.032596 
   26700    100.63541   -105.67058  0.091057032   -105.57953    122.77894    4.3620644    4.3620644    4.3620644    122.77894     2099.323   -850.90537   -880.08084     239.5318   -74.885516   -299.18223    82.999642 
   26800    97.167352   -105.66712  0.087919062    -105.5792   -195.63311    4.3621951    4.3621951    4.3621951   -195.63311    812.48425   -1084.5311   -314.85251    25.965482   -152.55343    346.53509    83.007101 
   26900    86.815909   -105.65771  0.078552859   -105.57916    541.34578    4.3624859    4.3624859    4.3624859    541.34578    930.86836   -2432.4764    3125.6454   -606.82633    487.44547   -143.09535    83.023705 
   27000    111.92782    -105.6807   0.10127464   -105.57943    1072.4613     4.361867     4.361867     4.361867    1072.4613     4177.291   -35.667546   -924.23941    717.78416    377.22249   -523.57526    82.988373 
   27100    118.75944   -105.68667   0.10745603   -105.57922    1136.7435    4.3625646    4.3625646    4.3625646    1136.7435    3714.3917   -1243.1507    938.98947    -132.4037   -250.99668    648.90304      83.0282 
   27200    65.370538   -105.63867  0.059148637   -105.57952     272.2094    4.3616832    4.3616832    4.3616832     272.2094   -278.01387    1689.2751   -594.63304    740.91996     186.6318   -206.08468    82.977886 
   27300    109.73223   -105.67845  0.099288025   -105.57917   -1904.6762    4.3629392    4.3629392    4.3629392   -1904.6762   -2496.5255    -3297.889    80.385844   -252.55469    760.26907    24.698245    83.049591 
   27400    114.42093   -105.68275   0.10353046   -105.57922    427.49625    4.3619424    4.3619424    4.3619424    427.49625    4030.1399   -462.53542   -2285.1158    688.06157    657.47951   -201.82063    82.992681 
   27500    101.96413   -105.67157  0.092259288   -105.57931   -723.53276    4.3624166    4.3624166    4.3624166   -723.53276    1596.1106   -1740.4191   -2026.2898    510.00609   -115.59978      53.6363    83.019745 
   27600    76.659311   -105.64848  0.069362956   -105.57911    1188.7771    4.3623345    4.3623345    4.3623345    1188.7771    2047.1492   -1411.4067    2930.5889    149.56547    182.58359    292.77185    83.015064 
   27700    106.15974   -105.67528   0.09605556   -105.57922   -153.10037    4.3620024    4.3620024    4.3620024   -153.10037    351.23076   -1167.7164    357.18459   -216.61675    837.38199   -135.97192    82.996105 
   27800    119.00235   -105.68695   0.10767583   -105.57928   -63.767217     4.362942     4.362942     4.362942   -63.767217    3939.9452   -2483.3956   -1647.8512    114.42285   -56.435407   -383.08549     83.04975 
   27900    93.839894   -105.66412  0.084908308   -105.57921   -92.148394    4.3617432    4.3617432    4.3617432   -92.148394    923.26081    867.71052   -2067.4165   -435.60174    471.79429    248.11604    82.981306 
   28000    78.558824   -105.65049  0.071081675   -105.57941   -2255.8269    4.3628481    4.3628481    4.3628481   -2255.8269   -3860.4505   -2287.1797   -619.85054    536.79422   -675.46448   -137.85412    83.044386 
   28100    107.37905   -105.67634  0.097158822   -105.57919    291.15811    4.3622772    4.3622772    4.3622772    291.15811    2941.7825   -2437.8453    369.53713   -736.89661    910.65681     469.0216    83.011791 
   28200    133.54174   -105.69998   0.12083137   -105.57915    -1459.114     4.362258     4.362258     4.362258    -1459.114    1746.6934   -2284.1996    -3839.836    489.38727    492.96766   -666.25915    83.010695 
   28300    58.928585   -105.63283  0.053319822   -105.57951    1362.3542    4.3625959    4.3625959    4.3625959    1362.3542    4986.2248   -2559.7344    1660.5722    914.44291   -565.58415    283.30357    83.029983 
   28400    115.11737   -105.68334   0.10416062   -105.57918   -690.53593    4.3618129    4.3618129    4.3618129   -690.53593   -2110.5518   -1111.3196    1150.2637    317.16011    480.26073    306.47404    82.985284 
   28500    90.662333   -105.66171  0.082033184   -105.57968    280.25317    4.3629386    4.3629386    4.3629386    280.25317    2398.8139   -2082.4696    524.41527    703.31944    439.25479   -153.10422    83.049553 
   28600    127.76339   -105.69477     0.115603   -105.57917   -1169.3969    4.3620041    4.3620041    4.3620041   -1169.3969     1301.763   -1727.3048   -3082.6488    198.44925    150.09816    391.27298    82.996199 
   28700    75.075238   -105.64727  0.067929653   -105.57934   -1052.3351    4.3625264    4.3625264    4.3625264   -1052.3351   -401.58472   -915.36106   -1840.0595    245.06332    282.56484   -592.58842    83.026015 
   28800    87.994296   -105.65904  0.079619089   -105.57942    -483.3429    4.3625465    4.3625465    4.3625465    -483.3429    95.621825   -3782.5969    2236.9464    416.63083   -725.12939    872.90746    83.027163 
   28900    135.70715   -105.70187   0.12279068   -105.57908    633.20125     4.361855     4.361855     4.361855    633.20125    4397.9906   -1068.9166   -1429.4703   -884.39572    821.02965    88.828949    82.987691 
   29000    78.736496   -105.65068  0.071242437   -105.57944    433.78991     4.362862     4.362862     4.362862    433.78991    2228.6449   -2840.9592     1913.684   -110.36616    404.66093   -53.762525    83.045178 
   29100    99.668673   -105.66929   0.09018231    -105.5791   -428.02902     4.361782     4.361782     4.361782   -428.02902    2116.7576   -2268.6123   -1132.2324   -54.534425    -977.8175    245.38437     82.98352 
   29200    94.946165   -105.66514  0.085909286   -105.57923    402.86705    4.3626184    4.3626184    4.3626184    402.86705   -2402.3046   -101.49707    3712.4028    169.89313    890.35617    116.12963    83.031272 
   29300    117.60629   -105.68572   0.10641265   -105.57931   -944.02564    4.3623456    4.3623456    4.3623456   -944.02564    2988.0431   -2520.8542   -3299.2659    237.78309   -283.25786    239.29485    83.015694 
   29400    95.751315   -105.66565  0.086637802   -105.57901    119.50695    4.3619873    4.3619873    4.3619873    119.50695   -534.66231    920.60226   -27.419112    390.79001    751.09442    219.87931    82.995238 
   29500     74.62617   -105.64686  0.067523327   -105.57934   -764.55323    4.3628099    4.3628099    4.3628099   -764.55323    1995.3258    -3957.525   -331.46045    622.57526     230.8853   -811.54439    83.042203 
   29600    130.94923   -105.69763   0.11848562   -105.57915    265.45296    4.3617529    4.3617529    4.3617529    265.45296    1761.0897   -1307.8766    343.14573    918.13883   -357.86449    497.38117    82.981863 
   29700    93.657311   -105.66418  0.084743103   -105.57944    1859.4505    4.3626617    4.3626617    4.3626617    1859.4505     3710.536   -575.49443    2443.3099   -233.93592    1063.5851    27.320927     83.03374 
   29800    92.608297   -105.66326  0.083793933   -105.57947    -1481.125    4.3621192    4.3621192    4.3621192    -1481.125   -224.94282   -2271.2181    -1947.214    -325.4037    881.03578   -369.68778    83.002772 
   29900    86.716321   -105.65771  0.078462749   -105.57924    783.20908    4.3621756    4.3621756    4.3621756    783.20908   -580.72226     640.4027    2289.9468   -255.79331    -822.7069     366.8967    83.005992 
   30000    129.19283    -105.6962   0.11689639    -105.5793   -1919.1927    4.3628807    4.3628807    4.3628807   -1919.1927    119.39873   -2617.8922   -3259.0846   -421.58127     1231.503   -526.69667    83.046248 
   30100     93.20765   -105.66371   0.08433624   -105.57937    908.76631    4.3616248    4.3616248    4.3616248    908.76631    1357.0441    1491.8935   -122.63866   -628.82215   -527.35061    910.82278    82.974549 
   30200    81.536802     -105.653  0.073776212   -105.57922    37.924773     4.362796     4.362796     4.362796    37.924773    2132.9144   -1981.4484   -37.691624   -305.64871    1120.3231   -47.161677    83.041408 
   30300    101.89153   -105.67163  0.092193597   -105.57944   -500.61082    4.3619289    4.3619289    4.3619289   -500.61082    1689.3402   -1905.9193   -1285.2533     74.42519   -429.48178   -385.14981    82.991906 
   30400    122.55867   -105.69006   0.11089366   -105.57916    1095.8501    4.3625412    4.3625412    4.3625412    1095.8501     3111.187   -1322.3764    1498.7398    755.10295   -267.76375    199.39514    83.026864 
   30500    98.195949   -105.66814  0.088849758   -105.57929    -1072.152     4.362392     4.362392     4.362392    -1072.152   -1244.4446   -923.29137   -1048.7199    823.97692    848.49072   -89.768573    83.018341 
   30600    60.452301   -105.63405  0.054698512   -105.57935    548.56381    4.3619269    4.3619269    4.3619269    548.56381    760.15081    93.136871    792.40374   -169.24077    386.77089   -243.98508    82.991794 
   30700     136.7085   -105.70265   0.12369673   -105.57895   -1581.8456    4.3629419    4.3629419    4.3629419   -1581.8456   -720.79949   -1451.4896   -2573.2476    948.34935   -264.77844   -25.258615     83.04974 
   30800    98.944148   -105.66897  0.089526745   -105.57944    270.62173    4.3617825    4.3617825    4.3617825    270.62173    3786.4052   -371.34218   -2603.1978    93.283042    580.97823   -894.77015    82.983551 
   30900       98.467   -105.66822  0.089095011   -105.57912   -155.70508    4.3628473    4.3628473    4.3628473   -155.70508   -322.01904   -2125.2866    1980.1904   -398.85415    257.80407    868.54216    83.044343 
   31000    74.477845   -105.64677  0.067389119   -105.57938    789.70144    4.3618144    4.3618144    4.3618144    789.70144    3977.8579   -1010.7418   -598.01179   -527.54061    553.92025   -93.785339    82.985374 
   31100    115.82519   -105.68419   0.10480106   -105.57939   -244.76391    4.3624376    4.3624376    4.3624376   -244.76391    794.64119   -2708.4482    1179.5153   -631.63773    228.65149    219.87627    83.020949 
   31200    129.69388   -105.69636   0.11734975   -105.57902   -809.00094    4.3627448    4.3627448    4.3627448   -809.00094    1165.8874   -1121.5093   -2471.3809   -370.42277   -1123.7647    409.76015    83.038489 
   31300    59.043958   -105.63289  0.053424214   -105.57946   -412.37894    4.3617065    4.3617065    4.3617065   -412.37894   -3068.2585   -1320.6871    3151.8088    754.16321    1050.8391    247.67858    82.979213 
   31400    101.56844   -105.67113   0.09190126   -105.57923   -369.58183    4.3630448    4.3630448    4.3630448   -369.58183    2469.2761   -1336.8799   -2241.1417   -1024.6923    -570.3189    729.70976    83.055617 
   31500    123.18689   -105.69078   0.11146208   -105.57932    357.43153     4.361578     4.361578     4.361578    357.43153    2415.0685   -242.63925   -1100.1347    1308.8434     127.1896   -289.52451    82.971882 
   31600    94.033336   -105.66456  0.085083339   -105.57948   -379.69386    4.3629338    4.3629338    4.3629338   -379.69386    2592.7859   -3085.9038   -645.96363     370.8917   -465.36734   -328.46841    83.049277 
   31700    96.633357   -105.66653  0.087435892   -105.57909    20.606811     4.362124     4.362124     4.362124    20.606811   -554.33851   -2227.3534    2843.5124    421.99426    778.11893   -116.27598    83.003044 
   31800    75.741814   -105.64806  0.068532785   -105.57952    748.49438    4.3618815    4.3618815    4.3618815    748.49438    2405.0875   -2159.4649    1999.8605    185.09978     312.3351    19.141654    82.989202 
   31900     143.1409    -105.7086    0.1295169   -105.57908   -1558.5425    4.3632615    4.3632615    4.3632615   -1558.5425    437.78081   -1783.4736   -3329.9348   -541.78426     761.6121    -526.4814    83.067996 
   32000    83.134132   -105.65448   0.07522151   -105.57926     334.8125    4.3613179    4.3613179    4.3613179     334.8125    -1258.566   -144.76036    2407.7639   -265.72332   -648.59246   -12.788182    82.957037 
   32100      83.1532   -105.65462  0.075238763   -105.57938   -1857.1317    4.3634342    4.3634342    4.3634342   -1857.1317   -791.50912   -3036.7521   -1743.1339    296.37316    1428.8017   -259.30202    83.077857 
   32200    111.49038      -105.68   0.10087884   -105.57912     2048.634    4.3614841    4.3614841    4.3614841     2048.634    4488.0695    65.749915    1592.0825   -1528.8147   -230.94788     871.4338    82.966522 
   32300    111.76364   -105.68049   0.10112609   -105.57937   -555.28706    4.3625324    4.3625324    4.3625324   -555.28706    2840.4265   -1327.7425   -3178.5452    471.01878    165.73429   -78.510057    83.026361 
   32400    89.935497   -105.66055  0.081375528   -105.57917   -601.59433    4.3629702    4.3629702    4.3629702   -601.59433   -1172.0741   -2747.2757    2114.5668   -5.2458968   -643.58148    146.30701    83.051361 
   32500    88.077519   -105.65882   0.07969439   -105.57913    443.79028    4.3612007    4.3612007    4.3612007    443.79028    307.77668   -1223.2414    2246.8355    159.13879    485.99193   -147.25052    82.950348 
   32600    113.85233   -105.68237   0.10301598   -105.57935   -1517.7911    4.3636914    4.3636914    4.3636914   -1517.7911   -283.94926   -2342.8431   -1926.5808    804.37118    123.85619    190.41726    83.092552 
   32700    107.45368   -105.67632  0.097226348   -105.57909     1139.119    4.3610437    4.3610437    4.3610437     1139.119    2845.2495     1594.356   -1022.2484   -615.41218    150.42463    -354.9055     82.94139 
   32800    87.461211   -105.65847  0.079136742   -105.57933   -2087.0006    4.3633206    4.3633206    4.3633206   -2087.0006   -4047.8845    -902.9433   -1310.1739    651.70375   -10.781256   -816.26456    83.071371 
   32900    86.309307   -105.65761  0.078094475   -105.57951    1295.0495    4.3620151    4.3620151    4.3620151    1295.0495    4988.6629   -1382.2885    278.77423    348.28729    530.06884   -414.62451    82.996829 
   33000    133.46717   -105.69991    0.1207639   -105.57915    669.58349    4.3616555    4.3616555    4.3616555    669.58349    2095.3071     77.64103   -164.19765   -756.32722    1159.5648     -116.276    82.976302 
   33100    80.674114    -105.6525  0.072995634    -105.5795   -873.00305    4.3636042    4.3636042    4.3636042   -873.00305    1426.0765   -2186.8525   -1858.2331   -163.34952   -545.80647    -63.17421    83.087569 
   33200    95.328821   -105.66537   0.08625552   -105.57911   -207.19373    4.3608563    4.3608563    4.3608563   -207.19373   -3415.6848   -365.56412    3159.6678    156.92233    398.84266   -27.353484    82.930699 
   33300    103.56241    -105.6731  0.093705445    -105.5794   -1018.2186    4.3637119    4.3637119    4.3637119   -1018.2186    232.36665   -1288.0111   -1999.0114   -376.85409   -416.05816   -118.67696    83.093723 
   33400    110.83104   -105.67968   0.10028226   -105.57939    580.97723    4.3614102    4.3614102    4.3614102    580.97723    2732.5998   -772.46354   -217.20462    837.66539    592.68492     702.8732    82.962302 
   33500    96.959028   -105.66683  0.087730566    -105.5791    102.67087    4.3624717    4.3624717    4.3624717    102.67087    213.02074    1741.9715   -1646.9796   -812.78006   -963.47772    258.45379    83.022896 
   33600    77.882638   -105.64982  0.070469847   -105.57935   -707.01955    4.3630352    4.3630352    4.3630352   -707.01955    209.51316   -2248.0132   -82.558573    813.91579     50.26031   -366.86912    83.055073 
   33700    120.72445   -105.68836   0.10923402   -105.57913    1694.8966    4.3608972    4.3608972    4.3608972    1694.8966    3376.4096    316.93283    1391.3474    285.44618    -675.0421    87.502329     82.93303 
   33800    113.14867   -105.68158   0.10237929    -105.5792   -905.89666    4.3638998    4.3638998    4.3638998   -905.89666    645.73733   -3022.3697   -341.05766    55.328774    1366.6877    -476.8904    83.104457 
   33900    65.366947   -105.63854  0.059145387   -105.57939     50.61606    4.3608407    4.3608407    4.3608407     50.61606   -698.58424   -1454.5699    2305.0023   -489.83744   -1146.9475    301.48006    82.929811 
   34000    120.80173   -105.68825   0.10930395   -105.57895   -1638.5687    4.3635592    4.3635592    4.3635592   -1638.5687   -3250.5088   -409.65945   -1255.5378     432.7263     655.4202   -612.36055    83.084996 
   34100    95.487921   -105.66595  0.086399478   -105.57955    1082.9146    4.3617973    4.3617973    4.3617973    1082.9146    3470.7571   -1172.3821    950.36885   -239.53752   -48.178717    -392.0714    82.984396 
   34200      116.282   -105.68437    0.1052144   -105.57916    137.65761    4.3619241    4.3619241    4.3619241    137.65761    1747.2835   -9.4102284   -1324.9004    661.30888    470.28663    344.63323    82.991635 
   34300    71.603277   -105.64402  0.064788149   -105.57924    179.97409    4.3635048    4.3635048    4.3635048    179.97409    712.40782   -2397.2743    2224.7888   -586.89086   -61.318975     156.6629     83.08189 
   34400    104.55373   -105.67398  0.094602415   -105.57938   -105.15258    4.3607694    4.3607694    4.3607694   -105.15258    1391.0626   -524.41189   -1182.1085     374.8285   -469.48245    -205.9959    82.925739 
   34500    131.23558   -105.69782   0.11874471   -105.57907   -178.62507    4.3639372    4.3639372    4.3639372   -178.62507   -617.59815   -2667.8839    2749.6068    452.09217   -5.2739787    24.366617     83.10659 
   34600    69.355579   -105.64234  0.062754386   -105.57958    6.3815909    4.3609164    4.3609164    4.3609164    6.3815909    1478.1965   -1924.2526    465.20087     103.7012    854.54494   -517.31194    82.934126 
   34700    99.556027   -105.66929  0.090080386   -105.57921    -1941.458    4.3633574    4.3633574    4.3633574    -1941.458   -3959.6172   -2765.4539     900.6972   -446.98283   -764.57757    442.25121    83.073469 
   34800    108.52422   -105.67745  0.098194997   -105.57926    988.08363    4.3621808    4.3621808    4.3621808    988.08363    3911.2996     1216.154   -2163.2027    114.48542    138.75713   -604.84855    83.006285 
   34900    115.99305   -105.68432   0.10495295   -105.57937   -205.54982    4.3615596    4.3615596    4.3615596   -205.54982    120.69251    -878.8651    141.52314   -144.07455    476.10925   -795.32782    82.970831 
   35000    77.088074   -105.64886  0.069750909   -105.57911    906.70822    4.3636534    4.3636534    4.3636534    906.70822    3063.1957   -1545.8815    1202.8105    118.04823   -185.16955    188.23318    83.090381 
   35100    93.714824   -105.66406  0.084795142   -105.57926   -898.92978    4.3607416    4.3607416    4.3607416   -898.92978   -1286.5419   -1857.7025    447.45508    45.892089    1007.1525   -416.28981    82.924155 
   35200    122.62066   -105.69019   0.11094975   -105.57924   -1027.1819    4.3640573    4.3640573    4.3640573   -1027.1819    531.76597   -2525.4847   -1087.8269    -354.7078   -1336.7324   -31.530704    83.113452 
   35300    107.30594   -105.67622  0.097092674   -105.57913    168.79112    4.3611972    4.3611972    4.3611972    168.79112   -1032.8632    473.30004    1065.9365    1222.9268    884.77802   -378.92639    82.950148 
   35400    64.664149   -105.63793  0.058509481   -105.57942   -1309.3907    4.3627806    4.3627806    4.3627806   -1309.3907    -1482.309   -3376.6524    930.78919    215.66949    146.43279   -580.98254    83.040529 
   35500    108.83615   -105.67754  0.098477234   -105.57906    163.23463    4.3630092    4.3630092    4.3630092    163.23463    2223.0471    641.52858   -2374.8718    146.05746   -210.24549    525.21699    83.053583 
   35600    130.69397   -105.69744   0.11825465   -105.57918    104.74585    4.3609955    4.3609955    4.3609955    104.74585    1365.8652    184.90731    -1236.535    191.81117   -381.27023   -684.58473    82.938643 
   35700    81.246449   -105.65288  0.073513495   -105.57936    150.93709    4.3640364    4.3640364    4.3640364    150.93709    1047.2164   -853.72724    259.32208    28.281438    559.17493   -530.13142     83.11226 
   35800    83.703144   -105.65492  0.075736364   -105.57918    589.55317    4.3604668    4.3604668    4.3604668    589.55317   -395.30019   -747.97354    2911.9332   -133.64244   -519.58045   -138.36559    82.908479 
   35900    107.70837   -105.67692  0.097456795   -105.57946   -2007.0403    4.3639321    4.3639321    4.3639321   -2007.0403   -668.54037   -3750.3652   -1602.2154     24.48105    898.08655   -147.78404      83.1063 
   36000    126.08803   -105.69336    0.1140871   -105.57928    215.72508    4.3616254    4.3616254    4.3616254    215.72508    406.19699    598.21275    -357.2345    -1091.547   -1767.4004    379.03888    82.974588 
   36100    89.052911   -105.65995  0.080576945   -105.57937   -937.21162     4.362159     4.362159     4.362159   -937.21162   -2449.3719    -1164.607    802.34405    1071.6767      641.702   -364.76235    83.005043 
   36200    56.556272   -105.63068  0.051173303   -105.57951     1095.147    4.3633553    4.3633553    4.3633553     1095.147    2623.8462    -215.8168    877.41158    36.205914    48.735589   -51.386109    83.073351 
   36300    153.35084   -105.71769   0.13875507   -105.57894    333.11262    4.3607157    4.3607157    4.3607157    333.11262    2604.5896    380.11693   -1985.3687    425.78802   -805.87236    553.27142    82.922676 
   36400    89.621578    -105.6606  0.081091487    -105.5795    90.487011    4.3640433    4.3640433    4.3640433    90.487011    381.35304   -1607.8034    1497.9114    498.61477    175.88815    -212.8508    83.112653 
   36500    91.788469   -105.66226  0.083052136   -105.57921   -234.69167    4.3609751    4.3609751    4.3609751   -234.69167   -1041.8508   -892.52409    1230.2999    399.05055   -236.67352   -484.58308    82.937477 
   36600    80.413603    -105.6521  0.072759918   -105.57934    96.787769    4.3630326    4.3630326    4.3630326    96.787769   -1641.4167   -2345.4505    4277.2305    503.95784    342.67472   -420.78902     83.05492 
   36700    123.18874   -105.69078   0.11146376   -105.57932   -784.73061    4.3625099    4.3625099    4.3625099   -784.73061    3232.5328   -1686.2586    -3900.466    286.90077    496.22643   -568.35473    83.025073 
   36800     121.8279   -105.68913   0.11023245   -105.57889   -58.405306    4.3614642    4.3614642    4.3614642   -58.405306    -2492.911   -846.81531    3164.5104   -1085.4217    -866.3993    21.259034    82.965387 
   36900     51.78673   -105.62624  0.046857722   -105.57938    430.20151    4.3635891    4.3635891    4.3635891    430.20151    2288.5053     -459.798   -538.10279    336.79794    228.33548    -792.1473    83.086707 
   37000    120.05134   -105.68775   0.10862497   -105.57912    1159.5105    4.3607329    4.3607329    4.3607329    1159.5105    1475.0026   -79.879544    2083.4085   -412.29912    566.13164   -311.69071    82.923661 
   37100    109.53575   -105.67838  0.099110248   -105.57927    1130.1983    4.3633854    4.3633854    4.3633854    1130.1983     3916.597   -652.14254    126.14044   -32.725739   -1044.5184    241.29111    83.075071 
   37200    104.81424   -105.67414  0.094838131    -105.5793   -2297.5948     4.361901     4.361901     4.361901   -2297.5948   -3380.2673    -3667.418     154.9009    119.87404    240.32425    158.36713    82.990317 
   37300    73.062222   -105.64537  0.066108234   -105.57926    519.20308    4.3622344    4.3622344    4.3622344    519.20308   -1438.3477   -1464.3627    4460.3197     260.4739   -761.31606   -105.05159    83.009345 
   37400    111.12162   -105.67997   0.10054517   -105.57942   -955.04381    4.3630953    4.3630953    4.3630953   -955.04381    1376.9917   -1793.3682   -2448.7549    1184.5437    689.23092   -375.39812    83.058501 
   37500    117.35153   -105.68541   0.10618213   -105.57922    742.96506     4.361207     4.361207     4.361207    742.96506    2189.5506   -927.79484    967.13938    755.00215    175.99677   -355.66371    82.950711 
   37600    85.292185   -105.65641  0.077174161   -105.57923   -508.00495    4.3635504    4.3635504    4.3635504   -508.00495       193.02   -559.68152   -1157.3533   -12.692145   -376.35321   -71.144194    83.084498 
   37700    91.030184   -105.66191  0.082366024   -105.57955   -286.76395    4.3614724    4.3614724    4.3614724   -286.76395    240.56164   -1977.7136    876.86007    556.26303     457.1815   -1210.1916    82.965854 
   37800    113.02913   -105.68162   0.10227113   -105.57935     1512.006    4.3627497    4.3627497    4.3627497     1512.006    2862.0932    708.06052    965.86426   -13.111254    751.39112   -547.42387    83.038764 
   37900    108.59509   -105.67766   0.09825912    -105.5794   -1807.5981    4.3623934    4.3623934    4.3623934   -1807.5981   -1379.1203   -3295.0793   -748.59478   -82.840417   -686.40642   -813.00273    83.018425 
   38000    75.061825    -105.6471  0.067917517   -105.57918   -1384.9438    4.3621591    4.3621591    4.3621591   -1384.9438   -2389.6879   -2793.8241    1028.6807   -307.12509   -24.802122    375.06871    83.005047 
   38100    111.69566   -105.68017   0.10106458   -105.57911    -1221.136    4.3631958    4.3631958    4.3631958    -1221.136   -937.35304   -1982.5224    -743.5325    -630.1158   -869.00182   -339.50461    83.064244 
   38200    111.47455   -105.68025   0.10086451   -105.57939    565.42824    4.3615248    4.3615248    4.3615248    565.42824    3389.4517    -567.7324   -1125.4346    633.15942    18.954873   -1.6086751    82.968842 
   38300    88.635004   -105.65938  0.080198814   -105.57918     778.1767    4.3629343    4.3629343    4.3629343     778.1767    1056.9665    161.75944    1115.8042    196.42812   -334.60996    340.07913    83.049309 
   38400    95.616799    -105.6657   0.08651609   -105.57918    -1576.246    4.3621854    4.3621854    4.3621854    -1576.246   -933.89971   -1813.9852   -1980.8531    557.16746   -807.09899    268.82888    83.006551 
   38500    96.694478   -105.66704  0.087491195   -105.57955    790.90966    4.3623558    4.3623558    4.3623558    790.90966    336.94116   -1133.9455    3169.7333    193.39103   -80.183121    301.67441    83.016277 
   38600    136.93009   -105.70299   0.12389723   -105.57909   -1374.8758    4.3628872    4.3628872    4.3628872   -1374.8758   -275.12189    -1905.511   -1943.9946    1153.2596    463.48801   -703.81181    83.046617 
   38700    51.328674    -105.6259  0.046443263   -105.57946     213.5603    4.3616198    4.3616198    4.3616198     213.5603   -1637.5106   -1761.8646    4040.0561     376.6022    173.99598   -286.61451    82.974264 
   38800    114.08367   -105.68221   0.10322531   -105.57899   -2120.0467    4.3633013    4.3633013    4.3633013   -2120.0467   -332.11236   -2567.5895   -3460.4382    438.87421   -567.71481   -140.29281    83.070265 
   38900    116.19679   -105.68447    0.1051373   -105.57933    1203.5712    4.3616714    4.3616714    4.3616714    1203.5712     1294.636    218.02128    2098.0563   -594.70846     241.4849   -303.88654     82.97721 
   39000    96.920566   -105.66721  0.087695765   -105.57951    1252.7555    4.3624058    4.3624058    4.3624058    1252.7555    4477.2433   -1105.8419    386.86522    367.85117   -176.94169   -656.77627    83.019131 
   39100    87.369056   -105.65834  0.079053358   -105.57929    217.32733    4.3623253    4.3623253    4.3623253    217.32733    -1755.313    763.07187    1644.2232    -356.5799   -104.71421    62.082105    83.014535 
   39200    82.692444   -105.65431  0.074821861   -105.57949    515.59285    4.3618223    4.3618223    4.3618223    515.59285    1533.2288   -1437.1604    1450.7101    151.57653   -738.28553   -158.05231    82.985821 
   39300    151.92608   -105.71654   0.13746591   -105.57907   -1606.9412    4.3631535    4.3631535    4.3631535   -1606.9412   -1770.0971   -2547.1026   -503.62393   -672.96172   -744.35813    792.72181    83.061827 
   39400    70.810911   -105.64347    0.0640712    -105.5794     1455.172    4.3613881    4.3613881    4.3613881     1455.172    1452.1023   -972.31444    3885.7282    651.88608    687.16503   -796.42472    82.961044 
   39500     83.93173   -105.65529  0.075943193   -105.57934   -1450.1599    4.3629165    4.3629165    4.3629165   -1450.1599    219.06313   -3157.1206   -1412.4223    407.33623   -191.51415    77.613419    83.048294 
   39600    111.77652   -105.68036   0.10113774   -105.57923    1575.6478    4.3620992    4.3620992    4.3620992    1575.6478    2857.9215     1788.031    80.990825    615.07911   -449.74429    -58.36946     83.00163 
   39700    125.38963   -105.69277   0.11345517   -105.57931    298.42211    4.3620619    4.3620619    4.3620619    298.42211    2886.8692   -2252.3552     260.7524    126.55599    917.04974   -345.26362    82.999499 
   39800    79.411321   -105.65111  0.071853032   -105.57926    564.44888    4.3629252    4.3629252    4.3629252    564.44888   -365.88978   -502.59358      2561.83    541.00785   -355.36336   -510.54161    83.048789 
   39900      77.9327   -105.64969  0.070515145   -105.57917    324.62898    4.3613942    4.3613942    4.3613942    324.62898    602.44886   -690.69761    1062.1357    631.52235    615.74329   -593.46543    82.961394 
   40000     126.7012   -105.69381   0.11464191   -105.57917   -1739.9538    4.3633176    4.3633176    4.3633176   -1739.9538   -1036.7554   -2794.1487   -1388.9573    233.47711   -353.60547   -619.38739    83.071201 
   40100     113.0987   -105.68145   0.10233408   -105.57911    189.90755    4.3618331    4.3618331    4.3618331    189.90755     1110.071   -978.49252    438.14416    -224.6578   -1207.3541     605.8898    82.986441 
   40200     74.47391    -105.6467  0.067385559   -105.57932   -1166.2402     4.362507     4.362507     4.362507   -1166.2402   -708.55236   -4567.3764    1777.2083   -115.16086    1088.3774   -1106.9108    83.024911 
   40300    88.848558   -105.65973  0.080392043   -105.57933    591.90402    4.3626245    4.3626245    4.3626245    591.90402    4038.7948    525.72478   -2788.8075    324.67182   -960.27282    23.449824    83.031621 
   40400    131.74143   -105.69847   0.11920241   -105.57927    622.95679    4.3615857    4.3615857    4.3615857    622.95679    1309.7519   -365.28014    924.39858   -85.385359   -767.78889    37.633489    82.972317 
   40500     100.0373   -105.66985  0.090515847   -105.57933   -1400.3911    4.3636346    4.3636346    4.3636346   -1400.3911   -725.98236   -2065.1158   -1410.0751    78.479865    479.26182   -259.78612    83.089308 
   40600    67.260222   -105.64012  0.060858462   -105.57926     191.8364    4.3613181    4.3613181    4.3613181     191.8364   -2755.0095   -1689.1922    5019.7109    -363.3735   -763.03213    503.95001    82.957049 
   40700    114.32209    -105.6827   0.10344103   -105.57926   -2338.1289    4.3632984    4.3632984    4.3632984   -2338.1289    76.519769   -3416.2222   -3674.6842    1269.6182    861.75057    -1084.855    83.070102 
   40800    114.99252   -105.68344   0.10404765    -105.5794    23.223242    4.3622632    4.3622632    4.3622632    23.223242    674.07915   -1107.1005    502.69108    43.066619   -651.37581    654.14658    83.010993 
   40900    99.843358   -105.66959  0.090340369   -105.57925   -1037.0496    4.3621085    4.3621085    4.3621085   -1037.0496   -548.05906   -2619.6534    56.563607      718.955   -1016.3656    168.68346    83.002161 
   41000    63.286764   -105.63671  0.057263194   -105.57945    197.27059    4.3631552    4.3631552    4.3631552    197.27059    1250.5356   -2248.2983    1589.5745    56.118782     1322.708   -44.929569    83.061925 
   41100    127.84999   -105.69481   0.11568136   -105.57913    899.77896    4.3612279    4.3612279    4.3612279    899.77896     2841.519    38.689099   -180.87126    702.59013   -1488.4587   -130.10529    82.951903 
   41200     115.4984   -105.68369   0.10450538   -105.57919   -673.07181    4.3635081    4.3635081    4.3635081   -673.07181   -1039.4123   -1246.2474    266.44422    438.90766   -210.75625    178.79264    83.082082 
   41300    72.327726   -105.64465  0.065443646    -105.5792    -303.4197     4.361599     4.361599     4.361599    -303.4197   -2322.4365   -1344.7739    2756.9513   -115.51291    3.1050885   -87.415508    82.973077 
   41400    97.459898   -105.66731  0.088183764   -105.57913   -1075.7458    4.3626296    4.3626296    4.3626296   -1075.7458   -2148.7869   -2554.4685    1476.0181   -511.02565   -851.63913    577.97755    83.031908 
   41500    112.85103   -105.68146   0.10210999   -105.57935    246.74357    4.3625759    4.3625759    4.3625759    246.74357    4516.8472    -2950.256   -826.36048    263.27812    1059.9248   -1103.4189    83.028844 
   41600    121.95655   -105.68943   0.11034885   -105.57908   -157.99082    4.3616767    4.3616767    4.3616767   -157.99082    93.745375    -886.2211    318.50325   -420.23641    -855.3161    203.69523    82.977511 
   41700    60.164699   -105.63376  0.054438284   -105.57932    719.92608    4.3632907    4.3632907    4.3632907    719.92608    1388.7229   -1621.4296    2392.4849    109.45303   -477.21301    181.10674    83.069663 
   41800    106.17871   -105.67533  0.096072733   -105.57926    959.41949    4.3611243    4.3611243    4.3611243    959.41949     1462.844    165.89647     1249.518    -448.1406    1136.7689   -188.43323    82.945991 
   41900    127.38924   -105.69444   0.11526446   -105.57917     432.3157    4.3631482    4.3631482    4.3631482     432.3157    1443.2669   -1596.3202    1450.0004    345.84043    -963.7123    111.71677    83.061525 
   42000    89.201663   -105.66006  0.080711539   -105.57935   -821.20931    4.3620083    4.3620083    4.3620083   -821.20931   -775.97952   -1520.1648   -167.48359    1043.2899   -200.69317   -375.25243    82.996441 
   42100    82.239266   -105.65369  0.074411816   -105.57928   -701.52613    4.3623385    4.3623385    4.3623385   -701.52613   -3384.2091   -1528.7362     2808.367    77.779242   -128.64645    412.56455    83.015292 
   42200    106.57391   -105.67581  0.096430312   -105.57938    460.79063    4.3625886    4.3625886    4.3625886    460.79063    5311.6634   -1944.9632   -1984.3283    502.44979   -540.46406    270.80468     83.02957 
   42300    120.05765    -105.6879   0.10863069   -105.57927      683.113    4.3615653    4.3615653    4.3615653      683.113    2037.2915   -1831.1806     1843.228    439.76491    873.15876   -753.48071    82.971153 
   42400    89.867631   -105.66041  0.081314121    -105.5791   -377.43075     4.363286     4.363286     4.363286   -377.43075    2781.4918   -2143.3263   -1770.4577     116.1567   -1018.9196   -204.39645    83.069394 
   42500    74.804559   -105.64707  0.067684737   -105.57939    813.40418    4.3613939    4.3613939    4.3613939    813.40418   -2368.6538    1093.4831    3715.3832    177.99437   -69.310328   -254.96225    82.961375 
   42600    130.67561   -105.69746   0.11823804   -105.57922   -220.98532    4.3629314    4.3629314    4.3629314   -220.98532    2301.7242   -1552.0293   -1412.6508    -795.4096    667.42746   -225.45863    83.049141 
   42700    96.127934   -105.66633  0.086978575   -105.57935   -61.250363    4.3621638    4.3621638    4.3621638   -61.250363   -788.78999   -1067.8496    1672.8885    -559.1377   -677.26787   -269.55707    83.005315 
   42800    90.367402   -105.66093  0.081766325   -105.57916   -2490.7743    4.3625168    4.3625168    4.3625168   -2490.7743   -2159.5672   -3773.9859     -1538.77    338.55517   -426.92954   -705.71825    83.025468 
   42900    90.287449   -105.66097  0.081693982   -105.57927    313.84265    4.3627816    4.3627816    4.3627816    313.84265    1922.2072   -1363.7886    383.10933    -524.5378   -591.53956    496.09545    83.040589 
   43000    125.88626   -105.69313   0.11390453   -105.57922    304.54997    4.3616692    4.3616692    4.3616692    304.54997    1998.1354   -712.69263   -371.79289    193.38203   -563.61312    124.84285    82.977087 
   43100    87.879904   -105.65867  0.079515584   -105.57916     398.7525    4.3630899    4.3630899    4.3630899     398.7525    3075.5744   -3278.4385    1399.1216    342.24357    80.549622    254.87922    83.058195 
   43200    85.566367   -105.65654  0.077422247   -105.57912   -970.47876    4.3619672    4.3619672    4.3619672   -970.47876   -3492.3285    626.30728     -45.4151    678.96295    -983.3298   -303.69296    82.994092 
   43300    113.60862   -105.68208   0.10279547   -105.57928   -783.42295    4.3627471    4.3627471    4.3627471   -783.42295   -1040.0283   -2730.0834    1419.8429    1066.3203   -76.484495    219.73241    83.038617 
   43400    109.76012   -105.67866  0.099313262   -105.57935    575.19998     4.362166     4.362166     4.362166    575.19998    531.79963    693.52878    500.27153   -56.907026    299.63999    267.85615     83.00544 
   43500     89.01523   -105.65987   0.08054285   -105.57933   -1728.2723    4.3624488    4.3624488    4.3624488   -1728.2723   -2625.2983   -3657.1946     1097.676    119.69698     347.2707   -287.87541    83.021587 
   43600    78.311863   -105.65012   0.07085822   -105.57926   -164.56385    4.3627316    4.3627316    4.3627316   -164.56385    3295.5717   -3066.6999   -722.56336     132.5391   -712.96658   -319.01869    83.037735 
   43700     137.9397   -105.70402   0.12481074   -105.57921   -169.15061    4.3619178    4.3619178    4.3619178   -169.15061   -616.48691   -381.24975    490.28484   -307.59266   -67.615263   -129.71877    82.991271 
   43800    92.387531   -105.66311   0.08359418   -105.57952    1358.3544    4.3625804    4.3625804    4.3625804    1358.3544      4088.77   -3089.2843    3075.5776    -623.8752   -116.80422    312.13965    83.029101 
   43900    78.319243   -105.65016  0.070864897    -105.5793    20.796385    4.3620882    4.3620882    4.3620882    20.796385   -2604.6418    1440.4536    1226.5773    -723.5693   -502.07807    103.90246    83.000999 
   44000     101.4841   -105.67111  0.091824946   -105.57929    -1086.729    4.3625805    4.3625805    4.3625805    -1086.729    -1715.957   -3094.0779    1549.8478   -40.650032   -575.77759   -356.48467    83.029104 
   44100    125.31471   -105.69266   0.11338738   -105.57927    13.963619    4.3623001    4.3623001    4.3623001    13.963619    2086.8462   -779.21674   -1265.7386    247.54419   -860.99026    133.25692    83.013097 
   44200    99.606285   -105.66932   0.09012586    -105.5792   -185.66506    4.3622284    4.3622284    4.3622284   -185.66506   -2463.3328   -2107.1277    4013.4653    297.01026    204.59914    288.78659    83.009004 
   44300    59.427476   -105.63307  0.053771229    -105.5793    458.49483    4.3624394    4.3624394    4.3624394    458.49483     5620.725   -2811.9466    -1433.294    1.6407988    536.09492   -287.64668    83.021049 
   44400    126.20287   -105.69328   0.11419101   -105.57909   -17.497948    4.3622052    4.3622052    4.3622052   -17.497948   -709.21995   -752.95186     1409.678    864.58041   -761.57356   -266.92082    83.007679 
   44500    120.15152   -105.68797   0.10871562   -105.57926    549.23249    4.3624035    4.3624035    4.3624035    549.23249    4721.1775   -2828.8561   -244.62397    507.31073    639.85713    -683.0641    83.018997 
   44600    81.073158   -105.65262  0.073356698   -105.57926    267.68022    4.3622546    4.3622546    4.3622546    267.68022   -2681.9171   -312.46762    3797.4254    156.26672    367.19316   -80.072425    83.010502 
   44700    82.634764   -105.65402  0.074769671   -105.57925   -628.52811    4.3623777    4.3623777    4.3623777   -628.52811   -738.88809   -357.20603   -789.49022   -545.11613   -502.85588     220.0972    83.017528 
   44800    109.83066   -105.67878  0.099377088    -105.5794   -64.979983    4.3623715    4.3623715    4.3623715   -64.979983    2106.7381   -1504.7038    -796.9742   -99.576219    306.87737   -1151.7521    83.017173 
   44900    139.47813   -105.70532   0.12620274   -105.57912    -1363.943    4.3624695    4.3624695    4.3624695    -1363.943   -697.55188   -2442.1343   -952.14274   -472.26075   -1835.5042    336.01973    83.022767 
   45000    47.809609   -105.62273  0.043259139   -105.57947    1237.3483    4.3621791    4.3621791    4.3621791    1237.3483    3144.2553   -2447.0453    3014.8347    67.050706    308.74931   -303.77761    83.006191 
   45100    110.55629   -105.67931   0.10003366   -105.57927   -1000.9208    4.3625977    4.3625977    4.3625977   -1000.9208    701.51668   -1467.9552    -2236.324   -1037.9206   -343.77346   -21.787832    83.030089 
   45200    112.14983   -105.68089   0.10147552   -105.57941    1361.6841    4.3620342    4.3620342    4.3620342    1361.6841    2725.6715    201.51646    1157.8644    304.09381    -1477.764   -221.03397    82.997919 
   45300    115.20599   -105.68354    0.1042408    -105.5793   -1838.1099    4.3627529    4.3627529    4.3627529   -1838.1099   -2520.6946   -2651.5361    -342.0991     446.8349    575.77418   -1203.8282    83.038951 
   45400    67.982334    -105.6408  0.061511845   -105.57928   -341.54905    4.3623931    4.3623931    4.3623931   -341.54905   -3435.0389   -277.12899    2687.5207     289.1457   -104.45455    306.16259    83.018407 
   45500    99.309808   -105.66916  0.089857601    -105.5793   -648.23312    4.3623766    4.3623766    4.3623766   -648.23312    1687.0652   -1061.1483   -2570.6163    245.62973   -191.98109   -371.17636    83.017463 
   45600    132.66396   -105.69924   0.12003714    -105.5792    -625.3725    4.3626735    4.3626735    4.3626735    -625.3725    722.93528   -1782.4622   -816.59059    244.79415    802.21767    -689.2972    83.034415 
   45700     83.78494   -105.65507  0.075810374   -105.57926    372.17136    4.3620041    4.3620041    4.3620041    372.17136    834.58659   -1825.2781    2107.2056    148.79479   -2034.2599    96.367404    82.996201 
   45800    85.705591   -105.65681   0.07754822   -105.57926   -1016.5767     4.362889     4.362889     4.362889   -1016.5767   -1110.3977   -3357.0587    1417.7262    573.07903    1287.5799   -301.98746    83.046719 
   45900    103.68779   -105.67306   0.09381889   -105.57924    1568.7199    4.3618056    4.3618056    4.3618056    1568.7199     2100.093    977.03068    1629.0359     -817.909   -1147.5674    586.32726    82.984868 
   46000     130.6246   -105.69734   0.11819188   -105.57914   -1353.0863    4.3627274    4.3627274    4.3627274   -1353.0863   -1362.8443   -1574.4769   -1121.9377   -231.39931   -1295.0486    195.37684    83.037495 
   46100    67.713375   -105.64054  0.061268484   -105.57927    11.865093    4.3621401    4.3621401    4.3621401    11.865093    -4311.721    -5.373035    4352.6893    260.07473     65.43519   -886.00707    83.003962 
   46200    98.818159   -105.66866  0.089412747   -105.57925   -752.61341    4.3623007    4.3623007    4.3623007   -752.61341    246.83672    -1979.945   -524.73195   -474.24723   -943.00383    597.19585    83.013129 
   46300    117.26435   -105.68551   0.10610325   -105.57941    552.09218    4.3625379    4.3625379    4.3625379    552.09218    2299.0166   -1787.3897    1144.6496    275.98555    433.74224    -608.3904    83.026673 
   46400    105.61405   -105.67486  0.095561815    -105.5793    971.50388    4.3617958    4.3617958    4.3617958    971.50388    3701.8852   -1192.5432    405.16966   -609.39597    98.825355   -520.26276    82.984313 
   46500    81.937186   -105.65345  0.074138487   -105.57931     -548.761     4.362805     4.362805     4.362805     -548.761   -3048.1783   -2463.3182    3865.2134    590.00132   -1000.8646   -643.63028    83.041923 
   46600    89.849477   -105.66073  0.081297695   -105.57943    989.31249    4.3618876    4.3618876    4.3618876    989.31249    1957.0755   -369.28947    1380.1515    310.44535     1498.456   -923.99179    82.989551 
   46700     135.2368   -105.70154    0.1223651   -105.57918   -232.95457    4.3625548    4.3625548    4.3625548   -232.95457    125.08029    -2114.615     1290.671     57.70052   -346.75202     314.7829    83.027637 
   46800    85.292328   -105.65653  0.077174291   -105.57935   -360.48884    4.3622485    4.3622485    4.3622485   -360.48884   -778.21178     384.4462   -687.70094    -227.3395   -856.13303   -238.75511     83.01015 
   46900    77.926375   -105.64979  0.070509421   -105.57929    53.583167    4.3621529    4.3621529    4.3621529    53.583167   -1110.0325   -1991.8662    3262.6483    562.30474    383.83582   -737.35606    83.004695 
   47000    120.93764   -105.68876   0.10942691   -105.57934   -104.97338    4.3626788    4.3626788    4.3626788   -104.97338    3258.6749   -1647.9429   -1925.6521   -163.69596    -1314.548    544.91437    83.034717 
   47100    103.74361   -105.67329  0.093869395   -105.57943    1565.7816    4.3616804    4.3616804    4.3616804    1565.7816    4407.6577   -2828.1056    3117.7928    459.48826    782.70627   -512.79235    82.977723 
   47200    104.66781   -105.67376  0.094705637   -105.57905   -1424.0161     4.363013     4.363013     4.363013   -1424.0161   -92.987909   -2734.4301   -1444.6304   -884.76499    -1045.157    58.095234      83.0538 
   47300    60.082461    -105.6338  0.054363874   -105.57943    781.12331    4.3618606    4.3618606    4.3618606    781.12331   -1774.9475    671.65919    3446.6582    468.64121   -456.70449   -916.09581     82.98801 
   47400    145.12784   -105.71038   0.13131472   -105.57907   -1719.0718    4.3629084    4.3629084    4.3629084   -1719.0718    364.81465   -3224.3573   -2297.6728   -56.715951    606.37687   -1223.8105     83.04783 
   47500    86.586344   -105.65766  0.078345144   -105.57932    695.98681    4.3621871    4.3621871    4.3621871    695.98681    877.23878    155.22805    1055.4936    102.75316   -128.23015    14.837745    83.006646 
   47600    93.201861    -105.6635  0.084331003   -105.57917   -2149.2468    4.3625107    4.3625107    4.3625107   -2149.2468   -1731.5472   -3523.8013    -1192.392   -336.73256   -809.73787   -1197.1321    83.025122 
   47700    91.212594   -105.66176  0.082531072   -105.57922    887.28426    4.3625921    4.3625921    4.3625921    887.28426    2920.3925   -510.06642    251.52669    182.32076    143.73973    -393.3569    83.029766 
   47800    120.32592   -105.68817   0.10887342    -105.5793     130.8076    4.3620192    4.3620192    4.3620192     130.8076     1104.909   -2260.6712     1548.185    367.03056   -1086.9595   -787.95542    82.997063 
   47900    100.87801   -105.67044  0.091276543   -105.57916   -723.49628    4.3629669    4.3629669    4.3629669   -723.49628    2113.2535   -4224.8307   -58.911573    435.33073    790.82194    193.19941    83.051168 
   48000    72.152201   -105.64453  0.065284827   -105.57924     -574.635    4.3618289    4.3618289    4.3618289     -574.635    -4125.935    552.69907    1849.3309   -185.52364   -1633.7309     179.4342    82.986199 
   48100    119.38896   -105.68736   0.10802564   -105.57933   -1809.3231    4.3629827    4.3629827    4.3629827   -1809.3231   -1366.9549   -2705.2679   -1355.7466     277.6274   -77.786132   -269.98209     83.05207 
   48200    109.24845   -105.67824  0.098850292   -105.57939    986.73772     4.361981     4.361981     4.361981    986.73772    319.96815    980.61167    1659.6333    304.90474   -43.472837   -437.83257    82.994881 
   48300    89.694597    -105.6606  0.081157556   -105.57944   -1094.3585    4.3623754    4.3623754    4.3623754   -1094.3585   -982.21274   -2981.7088    680.84601    291.70768    106.22934    130.83626    83.017398 
   48400    82.435578    -105.6539  0.074589443   -105.57931    435.96603    4.3625651    4.3625651    4.3625651    435.96603    2474.9469   -1981.9187    814.86983   -121.03731   -728.62732   -437.46976    83.028224 
   48500    129.61385   -105.69647   0.11727733    -105.5792    176.32172    4.3619255    4.3619255    4.3619255    176.32172   -89.508337   -920.22219    1538.6957   -405.16149   -292.17088   -455.13374    82.991714 
   48600    93.660394   -105.66413  0.084745893   -105.57939    380.49509    4.3628707    4.3628707    4.3628707    380.49509    654.89275   -2914.6766    3401.2691    650.72997   -173.82217   -1014.6188    83.045674 
   48700    87.100853    -105.6579  0.078810682   -105.57909   -658.05354    4.3617957    4.3617957    4.3617957   -658.05354   -2346.6955    -171.8606    544.39551    -325.7836   -265.02492   -147.01899    82.984304 
   48800    93.218541   -105.66363  0.084346095   -105.57929   -898.49876    4.3628321    4.3628321    4.3628321   -898.49876   -2658.9387   -1540.9097    1504.3521    327.61367   -634.83433   -78.136148     83.04347 
   48900    128.45881   -105.69552   0.11623223   -105.57928    138.56928    4.3621822    4.3621822    4.3621822    138.56928    2693.0106   -555.00589   -1722.2969   -435.18774   -742.38944   -467.00444    83.006366 
   49000    93.788386   -105.66413  0.084861702   -105.57927     1093.737    4.3620171    4.3620171    4.3620171     1093.737   -2148.4166   -301.65735     5731.285    553.98576    471.98477    -70.65371    82.996942 
   49100    71.888134   -105.64437  0.065045894   -105.57932    161.86144    4.3626572    4.3626572    4.3626572    161.86144    4530.2269   -2066.3223   -1978.3202    379.16073    183.94399   -528.32757    83.033485 
   49200    116.04303   -105.68415   0.10499817   -105.57915    997.18064    4.3616363    4.3616363    4.3616363    997.18064    630.30034   -1315.0562    3676.2978    344.80105    4.2170054    520.10758    82.975206 
   49300    123.72305   -105.69115   0.11194722    -105.5792    -734.8751     4.363131     4.363131     4.363131    -734.8751    1357.4029    -2256.604   -1305.4241    -471.4156   -373.00321   -653.60773    83.060539 
   49400     72.66507   -105.64505  0.065748882    -105.5793    359.16471    4.3617112    4.3617112    4.3617112    359.16471   -1961.4836   -1419.4329    4458.4107    823.00536    949.40557   -753.44633    82.979479 
   49500    97.354768   -105.66723   0.08808864   -105.57914   -1261.8578    4.3627243    4.3627243    4.3627243   -1261.8578   -2352.4495    636.08714    -2069.211   -271.62134   -894.91223   -214.29534    83.037315 
   49600    103.05402   -105.67274  0.093245445    -105.5795     473.4305    4.3623194    4.3623194    4.3623194     473.4305    5024.8973    -2032.896   -1571.7098    516.76154   -68.333246   -435.38923    83.014197 
   49700    132.91454   -105.69938   0.12026387   -105.57912   -155.82989     4.362323     4.362323     4.362323   -155.82989   -1105.5824   -1222.9008    1860.9936   -646.62044   -1677.3439   -360.46009    83.014402 
   49800     59.68353   -105.63341  0.054002912   -105.57941    1079.0286    4.3625726    4.3625726    4.3625726    1079.0286    3774.8407      -1889.8    1352.0452    393.54604    237.74344   -402.80489    83.028656 
   49900    101.60838   -105.67123  0.091937399   -105.57929   -485.93893    4.3619255    4.3619255    4.3619255   -485.93893   -368.48022   -1810.4248    721.08825    241.41866   -306.70122   -1052.3609    82.991716 
   50000    119.73327   -105.68758   0.10833718   -105.57924    175.78129    4.3628246    4.3628246    4.3628246    175.78129    3506.6927   -1436.7978    -1542.551    357.67579    -658.9702    960.79631    83.043047 
   50100    105.00414   -105.67439  0.095009956   -105.57938     -1998.32    4.3622213    4.3622213    4.3622213     -1998.32   -3351.6236   -3677.4516    1034.1153   -170.56928   -10.940668   -1114.5058    83.008601 
   50200    74.648671   -105.64683  0.067543686   -105.57929   -259.64521    4.3624962    4.3624962    4.3624962   -259.64521   -2175.4497    30.131799    1366.3822    377.89364    929.34321   -23.104709    83.024293 
   50300    104.75746   -105.67404  0.094786756   -105.57925    -140.1467    4.3623687    4.3623687    4.3623687    -140.1467    2980.7929   -1082.4195   -2318.8136    496.62584   -518.29293   -383.07329    83.017011 
   50400    120.07353   -105.68783   0.10864505   -105.57919    408.95515    4.3621737    4.3621737    4.3621737    408.95515    2003.3226   -1379.3252    602.86794    412.88218    854.53721   -460.50188    83.005882 
   50500    91.946387   -105.66226  0.083195023   -105.57907    334.75716    4.3627037    4.3627037    4.3627037    334.75716    1824.8158   -3053.3801    2232.8357   -115.78201   -1691.5685    528.92302    83.036141 
   50600    82.541609   -105.65396  0.074685382   -105.57927   -1174.6362    4.3620954    4.3620954    4.3620954   -1174.6362   -2809.0928    -2588.598    1873.7824     70.97165    107.92034   -890.59912    83.001414 
   50700    109.01467   -105.67787  0.098638761   -105.57924    122.39682    4.3626668    4.3626668    4.3626668    122.39682    2022.4915   -1455.0203   -200.28081    452.19242   -343.60105   -66.217935    83.034034 
   50800     122.6418   -105.69016   0.11096887    -105.5792   -1585.4789    4.3623376    4.3623376    4.3623376   -1585.4789   -879.40556   -2396.2033   -1480.8278    17.062323   -2158.6969     434.4955    83.015241 
   50900    70.149259   -105.64286  0.063472523   -105.57939   -735.43794    4.3625426    4.3625426    4.3625426   -735.43794   -4506.8855   -1665.6691    3966.2408    170.81032    243.46051   -187.86443    83.026943 
   51000    107.49315   -105.67646  0.097262064   -105.57919   -235.78532    4.3623525    4.3623525    4.3623525   -235.78532    2331.7941   -1317.4734   -1721.6766   -469.47676   -595.89574   -92.667239     83.01609 
   51100    103.93613   -105.67351  0.094043599   -105.57947    1380.1533    4.3620497    4.3620497    4.3620497    1380.1533    1437.7407   -551.27233    3253.9913    1037.2658    488.47722   -152.77094    82.998804 
   51200    114.01048    -105.6823   0.10315908   -105.57914   -118.26274    4.3627719    4.3627719    4.3627719   -118.26274    4363.4169   -2967.4588   -1750.7463   -237.38781    522.27593   -822.24805    83.040037 
   51300    70.800553   -105.64335  0.064061829   -105.57928    141.37887    4.3619672    4.3619672    4.3619672    141.37887   -3970.3719   -1692.5177    6087.0262    507.11455   -565.20689    934.39294    82.994091 
   51400    108.55677   -105.67765  0.098224449   -105.57942   -1924.5244    4.3627631    4.3627631    4.3627631   -1924.5244   -514.67806   -2875.4698   -2383.4252   -315.81523    1015.8552   -1719.7862    83.039531 
   51500     117.2498   -105.68535   0.10609009   -105.57926     458.5869    4.3622583    4.3622583    4.3622583     458.5869    2056.2177   -1380.0111    699.55406    461.51416    351.97178    278.84709    83.010711 
   51600    94.544634   -105.66488  0.085545971   -105.57934   -1215.4147    4.3624717    4.3624717    4.3624717   -1215.4147   -2333.7422   -968.89795   -343.60386      258.052   -1960.2009   -392.59873    83.022897 
   51700    73.347861   -105.64565  0.066366686   -105.57928    1128.1637    4.3624035    4.3624035    4.3624035    1128.1637    2762.2351   -1038.3051    1660.5611    206.46044    539.37468    -76.50193    83.018999 
   51800    129.26209   -105.69598   0.11695906   -105.57902    533.17021    4.3620871    4.3620871    4.3620871    533.17021    693.16135   -500.41516    1406.7644   -696.19942   -1691.3059    285.03536    83.000939 
   51900    95.459345   -105.66582  0.086373621   -105.57944    1049.9363    4.3624793    4.3624793    4.3624793    1049.9363    6312.2966   -2892.1778   -270.30988    1091.4171    254.88345   -707.81635    83.023325 
   52000    101.10064   -105.67051  0.091477985   -105.57903   -730.28406    4.3623081    4.3623081    4.3623081   -730.28406    -1809.746   -1649.9129    1268.8067   -459.70873   -366.27555    124.71071    83.013552 
   52100     75.52627   -105.64771  0.068337757   -105.57938   -574.27124    4.3622682    4.3622682    4.3622682   -574.27124   -736.04488    -1449.047     462.2782    698.81829   -773.03174    226.12935    83.011277 
   52200     126.5605   -105.69371    0.1145146    -105.5792   -863.07803    4.3626608    4.3626608    4.3626608   -863.07803    626.76585   -1923.9002   -1292.0997   -232.68298    1196.9177     -819.848    83.033689 
   52300    109.36751   -105.67814  0.098958023   -105.57918    460.42232    4.3618927    4.3618927    4.3618927    460.42232    1802.9451   -1285.7143    864.03615    31.248261    638.28137   -295.97496    82.989842 
   52400    67.130085   -105.64017  0.060740712   -105.57943    165.17656     4.362732     4.362732     4.362732    165.17656    1739.7911   -466.09902   -778.16239      721.461   -863.55806   -660.03069    83.037757 
   52500    112.35035   -105.68085   0.10165696   -105.57919    1245.5289    4.3619755    4.3619755    4.3619755    1245.5289    2196.9122   -760.82761    2300.5023   -67.170013    674.11942   -269.78793    82.994566 
   52600    110.05269   -105.67903  0.099577989   -105.57945     728.5977    4.3622266    4.3622266    4.3622266     728.5977    2573.3886    -1182.521    794.92551   -366.73353    -1095.988    357.68976    83.008898 
   52700    99.896909   -105.66971  0.090388823   -105.57932   -1313.2429    4.3628319    4.3628319    4.3628319   -1313.2429    239.47678   -4316.7288    137.52317    543.88943     88.36311   -1198.6733    83.043462 
   52800    83.412907   -105.65465  0.075473751   -105.57917   -647.26789    4.3618548    4.3618548    4.3618548   -647.26789    -2221.781   -814.77738    1094.7547   -83.997555   -1065.6414    935.17329    82.987677 
   52900    104.54157   -105.67401   0.09459141   -105.57942   -1482.8735    4.3630028    4.3630028    4.3630028   -1482.8735   -585.45877   -1330.1281   -2533.0338     404.6383     -1427.87   -386.52939     83.05322 
   53000    118.08452   -105.68599   0.10684536   -105.57915    1096.2592    4.3617901    4.3617901    4.3617901    1096.2592    1210.4641   -2146.0256     4224.339    235.84985    716.42373    729.72203    82.983983 
   53100    88.517963   -105.65936  0.080092914   -105.57927   -300.48731    4.3627031    4.3627031    4.3627031   -300.48731    839.38776   -305.58822   -1435.2615   -393.99401   -199.22402   -506.41443    83.036105 
   53200    79.214824   -105.65108  0.071675238    -105.5794    689.37042    4.3624589    4.3624589    4.3624589    689.37042     1725.064   -3179.0085    3522.0557    1151.7667   -140.42609   -83.280899    83.022166 
   53300    131.31531   -105.69791   0.11881685   -105.57909    123.66038    4.3618986    4.3618986    4.3618986    123.66038    953.26254    478.76331   -1061.0447    -297.8847    279.01477   -131.53268    82.990181 
   53400    89.666983   -105.66057  0.081132571   -105.57944   -1095.1337    4.3632427    4.3632427    4.3632427   -1095.1337   -1684.6557   -4951.9323    3351.1868    163.23772    221.33817    33.113133    83.066922 
   53500    95.803218   -105.66576  0.086684765   -105.57907   -1596.6446    4.3617482    4.3617482    4.3617482   -1596.6446   -1674.1878   -2272.6087   -843.13738   -260.59071    102.27205    -891.1386    82.981595 
   53600    89.350244   -105.66012  0.080845978   -105.57927   -771.97746    4.3631628    4.3631628    4.3631628   -771.97746   -844.65972   -1494.9764    23.703723    364.30287   -264.73765   -48.788823    83.062358 
   53700    124.01211   -105.69142   0.11220876   -105.57921   -229.06818    4.3620354    4.3620354    4.3620354   -229.06818    2048.2683   -2738.8228    3.3500252   -98.310309   -1327.5133    -408.1411    82.997989 
   53800    93.207058   -105.66346  0.084335705   -105.57912     1959.306    4.3620676    4.3620676    4.3620676     1959.306    1269.2288    609.07636    3999.6128    380.91777    321.83013    281.49946    82.999823 
   53900    83.820661   -105.65515  0.075842696    -105.5793     -1090.38    4.3630409    4.3630409    4.3630409     -1090.38     773.9871   -3699.7775   -345.34963   -581.99161   -359.72118   -278.52004    83.055394 
   54000    102.09429   -105.67166  0.092377057   -105.57928    1086.8962    4.3614029    4.3614029    4.3614029    1086.8962    3469.0131   -554.38727    346.06271    925.91162    -485.1072   -772.15255    82.961888 
   54100    130.76085   -105.69748   0.11831516   -105.57916   -2035.0057    4.3634625    4.3634625    4.3634625   -2035.0057   -1836.7806    -3612.987   -655.24953    48.706002   -366.77309    660.08183    83.079478 
   54200    67.915863   -105.64098    0.0614517   -105.57953   -425.39951    4.3615132    4.3615132    4.3615132   -425.39951   -351.48109   -2752.4016    1827.6841    198.44961    657.45314   -1062.5665    82.968182 
   54300    105.08526   -105.67418  0.095083352   -105.57909   -1025.5954    4.3629954    4.3629954    4.3629954   -1025.5954   -993.31643   -610.22262   -1473.2471   -358.47113   -93.053816    469.04063    83.052799 
   54400    101.46677   -105.67131  0.091809261    -105.5795    688.91798    4.3621689    4.3621689    4.3621689    688.91798    6019.7464   -2602.3556   -1350.6369    383.53302     124.3705   -1461.8619    83.005605 
   54500    117.55041   -105.68563   0.10636208   -105.57926    1152.4101    4.3619375    4.3619375    4.3619375    1152.4101    1276.2746   -121.26305    2302.2186   -350.63488   -865.87821    63.495935    82.992396 
   54600    84.232395   -105.65545  0.076215242   -105.57923    225.44393    4.3630967    4.3630967    4.3630967    225.44393    1638.9168   -1847.1885    884.60349    278.35912    22.535475   -245.71674    83.058581 
   54700    78.105124   -105.65009  0.070671158   -105.57942    150.38791     4.361348     4.361348     4.361348    150.38791    751.63177   -507.38504    206.91701   -566.48155    116.65227   -671.78812    82.958752 
   54800    143.55962   -105.70882   0.12989576   -105.57892   -1606.7558    4.3634743    4.3634743    4.3634743   -1606.7558      2022.64   -2819.1908   -4023.7167     190.2988   -967.37971   -304.87249     83.08015 
   54900    78.743215   -105.65068  0.071248516   -105.57943   -165.18689    4.3614668    4.3614668    4.3614668   -165.18689   -946.57856   -2640.5228    3091.5407    791.60374   -468.88306   -337.34116    82.965536 
   55000    97.305439   -105.66722  0.088044006   -105.57918   -1344.3962    4.3629082    4.3629082    4.3629082   -1344.3962   -2373.8967   -505.38176   -1153.9102   -82.208811    617.46252   -268.75289    83.047819 
   55100    92.073814   -105.66256  0.083310322   -105.57925    2111.6854    4.3621966    4.3621966    4.3621966    2111.6854    5633.6612    -595.0245    1296.4195    170.16606   -285.17628    168.79938     83.00719 
   55200     121.2721   -105.68907   0.10972954   -105.57934    219.01312    4.3618812    4.3618812    4.3618812    219.01312    2372.6607   -237.43837    -1478.183    527.70858    374.88867   -1150.3207    82.989187 
   55300    97.382933   -105.66718  0.088114124   -105.57907     830.9232    4.3631281    4.3631281    4.3631281     830.9232    1269.2117   -2472.8087    3696.3666   -110.42622   -566.11945    167.14272    83.060376 
   55400     78.95561   -105.65083  0.071440695   -105.57939   -787.57788    4.3614163    4.3614163    4.3614163   -787.57788   -3292.8786    595.02059    335.12433    254.30868   -242.46976   -65.019322    82.962654 
   55500    110.42806   -105.67927  0.099917633   -105.57935   -1196.3125    4.3636169    4.3636169    4.3636169   -1196.3125    562.15509   -3089.6013   -1061.4914   -418.52537    832.20438   -625.89769    83.088297 
   55600    118.73485   -105.68657   0.10743378   -105.57914   -152.11498    4.3615186    4.3615186    4.3615186   -152.11498    1526.4296   -1304.5549   -678.21963    -715.6629   -1706.2364    371.27904    82.968489 
   55700    76.776717    -105.6489  0.069469187   -105.57943   -922.52319    4.3627528    4.3627528    4.3627528   -922.52319   -3496.2563   -2429.7142    3158.4009    1107.3471    -143.7556   -1010.8799    83.038946 
   55800    102.36317   -105.67176  0.092620348   -105.57914    1104.5463    4.3625523    4.3625523    4.3625523    1104.5463    3016.1448   -215.07462    512.56882   -715.01801    164.26351    640.99902    83.027498 
   55900    106.39593   -105.67563   0.09626927   -105.57936    1795.4799    4.3613638    4.3613638    4.3613638    1795.4799    2548.3915    587.21286    2250.8353    505.94073   -359.98743   -323.68693    82.959658 
   56000    107.83784   -105.67679  0.097573941   -105.57922   -571.11646     4.363445     4.363445     4.363445   -571.11646    2322.6935   -3268.7405   -767.30238    348.65534    528.52824   -758.89568    83.078475 
   56100    84.577908   -105.65567  0.076527869   -105.57915     206.2552    4.3611483    4.3611483    4.3611483     206.2552   -2809.8184    21.629116    3406.9549    300.01342   -503.51296   -68.817013     82.94736 
   56200    101.06755   -105.67084  0.091448045   -105.57939   -2718.2476    4.3635312    4.3635312    4.3635312   -2718.2476   -3022.9949   -3684.2409    -1447.507    673.74263    91.061222   -511.94134      83.0834 
   56300     110.4863   -105.67925  0.099970323   -105.57928    1182.2779    4.3617438    4.3617438    4.3617438    1182.2779    5228.7766   -1201.9863   -479.95659   -160.20573    1406.7326    -513.7729    82.981344 
   56400    104.79722   -105.67414   0.09482273   -105.57932   -925.33932    4.3623739    4.3623739    4.3623739   -925.33932   -1837.9743   -2919.9159    1981.8722   -757.34695   -1788.2463   -113.30608    83.017308 
   56500    68.558031   -105.64145  0.062032747   -105.57942    685.03069    4.3629916    4.3629916    4.3629916    685.03069    4090.3267    -1267.217   -768.01768     700.9321    157.68053    -1336.043    83.052578 
   56600    131.09173    -105.6976   0.11861455   -105.57898    948.30583    4.3614053    4.3614053    4.3614053    948.30583    81.010504   -788.45638    3552.3634   -1047.9156    -307.1161    490.84989    82.962023 
   56700    95.102417   -105.66554  0.086050665   -105.57949   -519.96332     4.363497     4.363497     4.363497   -519.96332    4571.7976   -2482.9789   -3648.7086    28.816132   -655.15048   -506.66447    83.081445 
   56800    89.885774   -105.66055  0.081330538   -105.57922   -181.62955    4.3614067    4.3614067    4.3614067   -181.62955   -1184.2969    -2062.783    2702.1912   -219.62195    307.70882   -838.94997    82.962103 
   56900    102.19688   -105.67164  0.092469887   -105.57917   -2549.0096    4.3630997    4.3630997    4.3630997   -2549.0096   -2374.0211   -2309.8453   -2963.1626    220.49869   -987.55954    154.29406    83.058757 
   57000    94.767926   -105.66527  0.085748011   -105.57952   -25.888005    4.3624451    4.3624451    4.3624451   -25.888005    3133.6878   -3380.3938    169.04194    946.63777    524.31554   -1448.2429    83.021375 
   57100    133.84238   -105.70002    0.1211034   -105.57891    38.438071    4.3619084    4.3619084    4.3619084    38.438071     2207.225   -2437.4266    345.51585    232.08257    1255.5637    409.74916    82.990736 
   57200    49.452936   -105.62429  0.044746056   -105.57955    892.09578    4.3629563    4.3629563    4.3629563    892.09578    3878.5642   -973.50015   -228.77674    182.22335   -1026.0666   -1347.0865    83.050566 
   57300    127.29304   -105.69431   0.11517742   -105.57913    -700.8732    4.3618737    4.3618737    4.3618737    -700.8732   -441.09476   -2013.9661    352.44123    826.94068    427.49534   -793.15132    82.988757 
   57400    103.09723   -105.67262  0.093284544   -105.57933    460.83272    4.3630138    4.3630138    4.3630138    460.83272    2183.5189   -1001.6956    200.67482   -270.49588   -70.387025   -290.25975    83.053849 
   57500    99.096384    -105.6691  0.089664491   -105.57943   -2386.5229    4.3623439    4.3623439    4.3623439   -2386.5229   -1321.0726   -4435.7376   -1402.7585   -90.417272   -653.42387   -784.62291    83.015598 
   57600    84.069695   -105.65522  0.076068027   -105.57916   -62.324151    4.3622625    4.3622625    4.3622625   -62.324151   -813.56553   -339.35826    965.95134   -646.91336    33.013132   -102.63436    83.010952 
   57700    105.18283   -105.67456  0.095171639   -105.57939   -1809.2969    4.3630501    4.3630501    4.3630501   -1809.2969    979.94785   -3438.4648   -2969.3737   -360.02051   -1785.3913   -623.27304    83.055919 
   57800    119.82918   -105.68762   0.10842396    -105.5792    1110.3241    4.3617319    4.3617319    4.3617319    1110.3241    1354.7732   -2531.5887    4507.7879    231.93032    422.26115   -320.15881    82.980665 
   57900    85.796465   -105.65682  0.077630444   -105.57919    1098.6921    4.3626313    4.3626313    4.3626313    1098.6921    4084.6493   -695.48395   -93.088997   -147.58723    334.56479    98.624405    83.032008 
   58000    81.990413   -105.65367  0.074186649   -105.57948   -410.69482    4.3621138    4.3621138    4.3621138   -410.69482   -1147.0502   -1576.7841    1491.7499    319.78794   -545.09548    -510.9336    83.002461 
   58100    123.18342    -105.6905   0.11145895   -105.57904    641.24265    4.3622643    4.3622643    4.3622643    641.24265    1412.2642    518.53889   -7.0751031    509.22422    323.12389   -629.17381    83.011053 
   58200    107.05022    -105.6762  0.096861291   -105.57934   -1807.5902    4.3627566    4.3627566    4.3627566   -1807.5902   -2370.5492    -3995.049    942.82765     1038.538     674.4811   -243.70325     83.03916 
   58300    75.485821   -105.64754  0.068301157   -105.57924    133.23368     4.361913     4.361913     4.361913    133.23368    -1216.526   -1000.9166    2617.1437    413.30804    222.88079    -780.7612       82.991 
   58400    106.23434   -105.67519  0.096123067   -105.57906   -72.814068    4.3627394    4.3627394    4.3627394   -72.814068    4148.9875    -1844.739   -2522.6907    44.473348    268.94226    146.85355     83.03818 
   58500    106.52429   -105.67586  0.096385417   -105.57947    650.62016    4.3621968    4.3621968    4.3621968    650.62016    231.35356   -2091.6954    3812.2023    190.24287    -1092.582   -1117.4274    83.007202 
   58600    113.04981   -105.68143   0.10228985   -105.57914    1550.4108    4.3622073    4.3622073    4.3622073    1550.4108     4930.003   -1224.6851    945.91447   -352.29669    158.62345    109.48507    83.007801 
   58700    73.037782    -105.6456   0.06608612   -105.57952    236.62784    4.3624702    4.3624702    4.3624702    236.62784   -1974.0295   -849.83945    3533.7525   -296.69091    26.376453   -362.87448    83.022806 
   58800    100.63678   -105.67051  0.091058277   -105.57945    40.978664    4.3619534    4.3619534    4.3619534    40.978664    3739.1168    -362.2375   -3253.9433   -450.27284   -871.03563   -136.27703    82.993306 
   58900    133.05827   -105.69946   0.12039392   -105.57907   -638.26633    4.3628796    4.3628796    4.3628796   -638.26633   -1051.5202   -2290.8979    1427.6192   -588.58626   -120.65814   -277.87792    83.046183 
   59000    74.182229   -105.64661   0.06712164   -105.57949   -455.79379    4.3619385    4.3619385    4.3619385   -455.79379   -431.71158   -1832.8485    897.17866    739.91713    260.03744   -761.20139    82.992453 
   59100    94.518756   -105.66458  0.085522557   -105.57905    897.14558     4.362408     4.362408     4.362408    897.14558    4190.9428   -2162.2012    662.69506    167.43357    694.49991   -125.76169    83.019256 
   59200    111.89348   -105.68049   0.10124358   -105.57924    619.91185    4.3623561    4.3623561    4.3623561    619.91185    4078.8573   -1335.5055    -883.6162    442.33473    55.655327   -513.46762    83.016297 
   59300    102.19326   -105.67187  0.092466606    -105.5794    630.66397    4.3621487    4.3621487    4.3621487    630.66397    3607.6513   -3057.5311    1341.8718    844.16996   -102.87479   -916.16585    83.004453 
   59400    107.62669   -105.67639   0.09738289   -105.57901   -682.64115    4.3630251    4.3630251    4.3630251   -682.64115   -2353.1252   -299.02193    604.22371    462.80759     72.70286   -340.36489    83.054492 
   59500    62.185584   -105.63589  0.056266823   -105.57962   -218.96469    4.3616641    4.3616641    4.3616641   -218.96469    1487.5257   -1505.1231   -639.29665    674.51777    518.71727   -854.97453    82.976795 
   59600    137.61966   -105.70352   0.12452116     -105.579   -1581.6599    4.3633841    4.3633841    4.3633841   -1581.6599    2282.9822   -2922.4315   -4105.5302    35.653894   -965.90144   -225.63862    83.074999 
   59700    100.32158   -105.67003  0.090773075   -105.57925   -490.99129    4.3618659    4.3618659    4.3618659   -490.99129   -1430.1161   -2316.7733    2273.9155   -712.94318    -714.0495   -148.96643    82.988313 
   59800     76.23591   -105.64846  0.068979853   -105.57948   -1011.8232    4.3627372    4.3627372    4.3627372   -1011.8232    1675.9002   -3412.1089    -1299.261     470.8554   -162.40284   -1360.2296    83.038054 
   59900    111.16851   -105.67972   0.10058761   -105.57913    1180.7768    4.3623774    4.3623774    4.3623774    1180.7768    2963.9423   -1089.3382    1667.7263   -672.27606    29.966521    723.93533    83.017509 
   60000     100.6911   -105.67067   0.09110742   -105.57956   -440.33892    4.3618274    4.3618274    4.3618274   -440.33892    4296.9378   -3853.5137   -1764.4408   -15.763284   -535.96113   -1431.8576    82.986113 
   60100    108.79746   -105.67759  0.098442232   -105.57915   -1532.6171    4.3635941    4.3635941    4.3635941   -1532.6171   -3877.5829   -1614.3063    894.03803     -108.992   -21.915706    117.56692    83.086994 
   60200    85.190822    -105.6563  0.077082446   -105.57922   -739.33411    4.3613078    4.3613078    4.3613078   -739.33411   -2639.8048   -592.57613    1014.3786    420.90842   -124.58326   -906.61275    82.956458 
   60300    93.175672   -105.66379  0.084307306   -105.57948   -1539.4196    4.3635791    4.3635791    4.3635791   -1539.4196    2170.4465   -3159.2182    -3629.487    835.30245     993.1331   -932.31142    83.086137 
   60400    127.80865   -105.69457   0.11564396   -105.57893    420.59341    4.3619391    4.3619391    4.3619391    420.59341    1482.2241   -2833.1021    2612.6582    690.28605   -381.01507    263.71997    82.992489 
   60500    81.648322   -105.65333  0.073877118   -105.57945    -1244.063    4.3625597    4.3625597    4.3625597    -1244.063    437.35859   -3069.2785   -1100.2691    202.57248   -594.01825    -852.1901    83.027916 
   60600    93.293904   -105.66378  0.084414285   -105.57936    366.32612     4.363124     4.363124     4.363124    366.32612   -711.54678   -2027.6349    3838.1601    886.61282    535.24584   -303.37419     83.06014 
   60700    115.99353   -105.68425   0.10495338    -105.5793    1252.1993    4.3610179    4.3610179    4.3610179    1252.1993    5992.5057   -1343.1757   -892.73223     72.65693   -416.15985    280.27547    82.939917 
   60800    87.761512   -105.65897   0.07940846   -105.57956   -1301.3062    4.3640347    4.3640347    4.3640347   -1301.3062   -1975.6311   -3255.1183     1326.831    229.26364    109.11952   -690.48942    83.112162 
   60900    111.82171   -105.68004   0.10117863   -105.57886    -370.7282      4.36107      4.36107      4.36107    -370.7282   -1891.1992    704.30614     74.70844   -667.16587   -650.20622    511.08131    82.942891 
   61000    82.831789   -105.65432  0.074947944   -105.57937    -441.9017    4.3632167    4.3632167    4.3632167    -441.9017   -545.79215   -1718.1808     938.2678    39.193803   -19.811313   -523.61854    83.065439 
   61100    118.45416   -105.68649   0.10717982   -105.57931     815.4629    4.3620364    4.3620364    4.3620364     815.4629    5158.9149   -2465.9668   -246.55938   -212.67239    729.57745   -915.79471    82.998044 
   61200    94.764017   -105.66495  0.085744474   -105.57921    2065.6321    4.3616666    4.3616666    4.3616666    2065.6321    3983.4894   -1416.1833    3629.5902    116.59208   -251.37094    612.93274    82.976937 
   61300    88.142249   -105.65922  0.079752959   -105.57947   -1712.2774    4.3637988    4.3637988    4.3637988   -1712.2774   -1326.0893   -2647.1334   -1163.6097    70.630612   -632.75456   -1508.6445    83.098688 
   61400     112.9727    -105.6814   0.10222007   -105.57918     2064.565    4.3606797    4.3606797    4.3606797     2064.565    2943.2039     399.1817    2851.3095    264.86205    1034.9017    284.29406    82.920622 
   61500    104.03607   -105.67348  0.094134018   -105.57935   -820.44818    4.3638582    4.3638582    4.3638582   -820.44818    1860.8461   -2591.8014   -1730.3893    1136.0527   -535.65193   -718.04966    83.102082 
   61600    83.393571   -105.65481  0.075456256   -105.57936   -33.059778    4.3613832    4.3613832    4.3613832   -33.059778    -1273.301    392.88389     781.2378    408.20689     527.0485   -323.79953    82.960761 
   61700    111.10813   -105.67949   0.10053297   -105.57895   -243.91153    4.3627141    4.3627141    4.3627141   -243.91153    625.79928    -250.4023   -1107.1316    280.41901   -749.09883    465.41735    83.036735 
   61800    99.425967   -105.66953  0.089962705   -105.57957   -258.76098    4.3626325    4.3626325    4.3626325   -258.76098    1710.5921   -2378.7556   -108.11939    594.11697   -185.02419   -531.42762    83.032076 
   61900    106.77649    -105.6758  0.096613608   -105.57918    2307.6423    4.3611616    4.3611616    4.3611616    2307.6423     5857.355   -1573.7046    2639.2765   -30.424991    770.47848   -172.46269    82.948116 
   62000    85.759245   -105.65697  0.077596767   -105.57937   -940.62775    4.3636988    4.3636988    4.3636988   -940.62775   -256.39466   -1869.1782   -696.31039    39.585853    -710.9576    181.75645    83.092974 
   62100    92.208387   -105.66287  0.083432087   -105.57944   -554.81116    4.3611864    4.3611864    4.3611864   -554.81116   -819.91004   -759.02394   -85.499506    115.53289    -713.3536   -1011.6652    82.949534 
   62200    138.23293   -105.70402   0.12507606   -105.57894   -1067.6258     4.363499     4.363499     4.363499   -1067.6258    355.75918   -2015.6748   -1542.9618   -1084.0413    549.21827    94.138013    83.081558 
   62300    66.693822   -105.63998  0.060345971   -105.57964   -314.08109    4.3619481    4.3619481    4.3619481   -314.08109   -993.01201   -910.54822    961.31696    1199.8325   -751.33792   -1160.4856    82.993004 
   62400    102.01263   -105.67146  0.092303171   -105.57915    -612.2891    4.3625922    4.3625922    4.3625922    -612.2891    891.48133   -816.91397   -1911.4346   -485.43571    319.21857   -529.79755    83.029773 
   62500    107.48813   -105.67651   0.09725752   -105.57925   -283.42379    4.3629681    4.3629681    4.3629681   -283.42379    396.34581   -1978.1848     731.5676      554.644   -919.20534    139.43827    83.051236 
   62600    105.77776   -105.67527  0.095709943   -105.57956   -268.65573    4.3617549    4.3617549    4.3617549   -268.65573    2403.6688    -3786.482    576.84599    684.98184   -441.53967   -978.06404    82.981977 
   62700    98.723601   -105.66837  0.089327189   -105.57904    423.27634    4.3633626    4.3633626    4.3633626    423.27634    381.84637   -2195.5613    3083.5439    433.71669     1253.127    612.30896    83.073768 
   62800    73.631427   -105.64605  0.066623262   -105.57943   -1137.8263    4.3616451    4.3616451    4.3616451   -1137.8263   -773.31796   -927.14196   -1713.0189    870.94635   -1066.1946   -556.42848    82.975707 
   62900    124.14358   -105.69143   0.11232772    -105.5791   -1128.2172    4.3632179    4.3632179    4.3632179   -1128.2172   -814.99054   -3025.8886    456.22766    621.34165    192.11622    583.89908    83.065502 
   63000    116.95229     -105.685   0.10582089   -105.57918   -312.57964    4.3620166    4.3620166    4.3620166   -312.57964   -629.47139   -521.20913    212.94161   -721.72717    108.14147   -191.41934    82.996911 
   63100    60.603234   -105.63454   0.05483508    -105.5797    500.13457    4.3623269    4.3623269    4.3623269    500.13457     731.8203    -2205.196    2973.7795    1174.6239    9.7712871   -263.62531    83.014624 
   63200    117.40771   -105.68526   0.10623297   -105.57903    617.79223     4.362813     4.362813     4.362813    617.79223    4130.7743   -1173.6794   -1103.7182   -891.77319    56.816268   -383.20316    83.042384 
   63300    100.53214   -105.67045  0.090963593   -105.57949    374.91378    4.3617167    4.3617167    4.3617167    374.91378    1430.8805   -3412.7118    3106.5727    78.329466   -728.21575   -192.08836    82.979794 
   63400     113.3882   -105.68178   0.10259603   -105.57918   -1037.8439    4.3633655    4.3633655    4.3633655   -1037.8439    511.67082   -4341.9701    716.76748   -57.357792   -807.40843   -854.81421    83.073935 
   63500    79.678894   -105.65124  0.072095138   -105.57915    920.69015    4.3615991    4.3615991    4.3615991    920.69015   -1104.0703    961.58224    2904.5585   -352.17615    1266.0105   -102.58403    82.973083 
   63600    94.261606   -105.66477  0.085289882   -105.57948   -1633.1644    4.3629673    4.3629673    4.3629673   -1633.1644    2148.2008   -4232.2703   -2815.4239    862.66839   -1273.1952   -922.79147     83.05119 
   63700    127.56307   -105.69449   0.11542174   -105.57907    934.37193    4.3621766    4.3621766    4.3621766    934.37193    843.10084    828.46427    1131.5507    237.32486    212.95162    444.18718    83.006045 
   63800    94.061899   -105.66454  0.085109183   -105.57943   -95.679047    4.3620029    4.3620029    4.3620029   -95.679047   -62.412832   -2580.8275    2356.2032     181.4217    229.25408   -260.66543    82.996132 
   63900    75.869053   -105.64817  0.068647913   -105.57953    976.07111    4.3628756    4.3628756    4.3628756    976.07111    3678.9089   -880.15415    129.45858    971.94289    361.47173   -249.39517    83.045959 
   64000    116.14703   -105.68415   0.10509227   -105.57906     1458.105    4.3614538    4.3614538    4.3614538     1458.105    4404.6443   -1848.6287    1818.2995    359.82426    509.02874    512.62813     82.96479 
   64100    107.71358   -105.67688  0.097461515   -105.57942   -2354.8072    4.3632168    4.3632168    4.3632168   -2354.8072   -21.878455   -5175.4758   -1867.0674    163.89767   -455.24592    -1003.753    83.065439 
   64200    92.099099   -105.66251  0.083333201   -105.57918    216.23043    4.3621401    4.3621401    4.3621401    216.23043    -3459.325    1428.5348    2679.4815      278.946   -489.69643    732.01174    83.003966 
   64300    100.58137   -105.67033  0.091008141   -105.57932    -1832.894    4.3626175    4.3626175    4.3626175    -1832.894    635.78058    -3561.243   -2573.2196   -645.99003    759.61437   -1412.2914    83.031217 
   64400    83.045101   -105.65474  0.075140952    -105.5796    995.70203    4.3627067    4.3627067    4.3627067    995.70203    3177.3178    568.95184   -759.16352     576.9963   -1398.4609   -111.05151    83.036313 
   64500    143.46761   -105.70875   0.12981251   -105.57894   -524.66843    4.3620877    4.3620877    4.3620877   -524.66843   -3.1196949   -2372.5469    801.66128   -492.51145   -670.97028   -560.98319    83.000971 
   64600    56.771573   -105.63098  0.051368113   -105.57961    102.73393    4.3629777    4.3629777    4.3629777    102.73393   -569.52602   -242.95365    1120.6815    281.27448   -313.67959   -505.91648    83.051788 
   64700    117.52938   -105.68545   0.10634305    -105.5791   -179.42486    4.3622735    4.3622735    4.3622735   -179.42486    1706.8601   -2691.4368    446.30214   -42.310881   -184.40928    -356.7845    83.011581 
   64800    100.34924   -105.67013  0.090798101   -105.57933   -80.078449    4.3623123    4.3623123    4.3623123   -80.078449    2717.1981   -3360.9931    403.55966     972.0704    464.53376   -32.734845    83.013791 
   64900    98.361702   -105.66839  0.088999735   -105.57939   -2455.9996    4.3630582    4.3630582    4.3630582   -2455.9996   -4607.5555   -1093.7725   -1666.6708    181.69893   -579.50401   -702.43693    83.056384 
   65000    104.86563   -105.67392  0.094884625   -105.57904    75.004966    4.3618164    4.3618164    4.3618164    75.004966    -2313.437   -630.67455    3169.1264    755.61327    439.30655    925.68219    82.985486 
   65100    82.553903   -105.65434  0.074696507   -105.57964    5.5256862    4.3630276    4.3630276    4.3630276    5.5256862    3255.8409   -637.43104   -2601.8328     208.0854    821.29994   -1101.7395    83.054637 
   65200    119.72187   -105.68755   0.10832686   -105.57923    1352.4564    4.3619006    4.3619006    4.3619006    1352.4564       2221.1   -2429.0611    4265.3303    484.58568   -150.09225    350.67865    82.990291 
   65300      94.1896   -105.66444  0.085224729   -105.57921    617.98158    4.3624287    4.3624287    4.3624287    617.98158    1301.6872     731.1669   -178.90938    50.692985   -1103.5443   -243.51803    83.020439 
   65400    88.760604   -105.65977   0.08031246   -105.57946   -1431.2945    4.3629785    4.3629785    4.3629785   -1431.2945   -3850.2839   -3865.2487    3421.6492    159.04925    108.31873   -741.68153    83.051834 
   65500    116.20786   -105.68423   0.10514732   -105.57908    959.15103    4.3616555    4.3616555    4.3616555    959.15103    4537.0787   -1863.4438    203.81821   -697.18333    -796.2657    524.04813    82.976301 
   65600     92.87508   -105.66353  0.084035325    -105.5795   -1277.0314    4.3632276    4.3632276    4.3632276   -1277.0314   -1334.1465   -3571.5856     1074.638     714.6257   -58.128402   -1247.7417    83.066059 
   65700    96.997183   -105.66698  0.087765089   -105.57922   -21.534649    4.3617413    4.3617413    4.3617413   -21.534649   -1477.7077    452.46939    960.63442   -315.80816   -957.08251    418.00602    82.981199 
   65800    106.06189    -105.6751   0.09596703   -105.57914    793.72355    4.3626685    4.3626685    4.3626685    793.72355    1976.9638   -879.53962    1283.7465    219.19772    13.272476   -325.42233    83.034129 
   65900    93.540118   -105.66417  0.084637064   -105.57953    1102.7246    4.3622863    4.3622863    4.3622863    1102.7246    3298.4437   -2829.3341    2839.0643    545.67788     755.3579   -324.91982    83.012308 
   66000    112.13387   -105.68044   0.10146108   -105.57897    1768.5481    4.3616617    4.3616617    4.3616617    1768.5481    4697.6381   -505.48445    1113.4906   -15.459491    682.96798   -257.91702    82.976654 
   66100    84.324017   -105.65565  0.076298142   -105.57935   -1352.1891    4.3632465    4.3632465    4.3632465   -1352.1891   -2947.2969   -3186.2183    2076.9479    940.03144   -664.44328      15.5677    83.067137 
   66200    104.39306   -105.67382  0.094457031   -105.57936   -971.05133    4.3617968    4.3617968    4.3617968   -971.05133    828.65839   -2915.4726   -826.33978    8.3444004    886.88565   -1070.0485    82.984369 
   66300     118.1429     -105.686   0.10689817   -105.57911   -446.15129    4.3631449    4.3631449    4.3631449   -446.15129    1105.0212    -4163.449    1719.9739   -67.975614   -232.74254    883.00422    83.061336 
   66400    75.512369   -105.64792  0.068325178   -105.57959    -630.3988    4.3621166    4.3621166    4.3621166    -630.3988    112.94378    -495.4492    -1508.691    537.08805   -250.63791   -1923.4185     83.00262 
   66500    106.35751   -105.67531  0.096234509   -105.57908    477.63184    4.3626494    4.3626494    4.3626494    477.63184    2283.3507   -1527.4685    677.01334   -135.91714   -940.67795    856.44883    83.033038 
   66600    109.35121    -105.6782  0.098943273   -105.57926   -272.94913    4.3628437    4.3628437    4.3628437   -272.94913    660.36802    -1845.762    366.54654   -46.225435   -1008.3845   -926.67049    83.044137 
   66700    91.184016   -105.66194  0.082505214   -105.57943    759.36819    4.3619026    4.3619026    4.3619026    759.36819    3424.3657   -3217.5071     2071.246    485.35336    190.05317   -442.48108    82.990407 
   66800    112.12595   -105.68041   0.10145392   -105.57896   -1451.7515    4.3632579    4.3632579    4.3632579   -1451.7515   -1425.5672   -1555.6513   -1374.0359   -638.14329    25.726231    69.956898    83.067789 
   66900    68.076596   -105.64122  0.061597134   -105.57962   -1513.5196    4.3618645    4.3618645    4.3618645   -1513.5196   -997.70677   -3644.5311    101.67898    1194.2156   -1033.7665   -1424.9311    82.988232 
   67000    139.91183   -105.70564   0.12659516   -105.57904    -2203.422    4.3634066    4.3634066    4.3634066    -2203.422   -401.33972   -4017.2761   -2191.6503   -396.32995    970.29028    268.74651     83.07628 
   67100    84.320421    -105.6557  0.076294889    -105.5794    914.28591    4.3618061    4.3618061    4.3618061    914.28591   -798.71079   0.27976657    3541.2888     232.9375    393.79086   -1104.2991    82.984901 
   67200    87.392779   -105.65844  0.079074823   -105.57937   -527.42374    4.3627509    4.3627509    4.3627509   -527.42374    3344.1407   -1799.1276   -3127.2843    413.93294   -51.893208   -713.44633    83.038834 
   67300    108.29781   -105.67703  0.097990135   -105.57904    1414.1338    4.3624575    4.3624575    4.3624575    1414.1338    520.70596    112.14603    3609.5495    55.104632     260.5705   -395.70472    83.022084 
   67400    107.40816   -105.67662  0.097185162   -105.57944   -1087.2404    4.3621733    4.3621733    4.3621733   -1087.2404    1394.3811   -3809.3508   -846.75156    165.75862   -1371.5774   -510.75014     83.00586 
   67500    98.831342   -105.66865  0.089424675   -105.57922   -373.94997    4.3632148    4.3632148    4.3632148   -373.94997    -3351.379   -1074.4576    3303.9867    263.03298    689.34287   -399.00878    83.065326 
   67600    87.867958   -105.65875  0.079504775   -105.57925   -700.74465     4.361587     4.361587     4.361587   -700.74465    710.58593   -1812.6326   -1000.1872   -214.69814   -644.81861     377.7475    82.972394 
   67700    98.357873   -105.66842   0.08899627   -105.57943   -1440.5886    4.3633746    4.3633746    4.3633746   -1440.5886    671.91572   -4407.1832   -586.49826    925.89075   -1292.8031   -1036.5421    83.074454 
   67800    124.41203   -105.69153   0.11257061   -105.57896    1463.9994    4.3617691    4.3617691    4.3617691    1463.9994   -424.49387    786.68808     4029.804   -110.98281    217.53881    963.00745    82.982787 
   67900     84.53217   -105.65588  0.076486484   -105.57939    622.53442    4.3623501    4.3623501    4.3623501    622.53442    1703.8828   -811.29727    975.01775    375.21307    236.12018   -982.75027    83.015952 
   68000    84.995232   -105.65619  0.076905472   -105.57929    2086.7128    4.3624346    4.3624346    4.3624346    2086.7128     2524.636    389.18893    3346.3135    134.75801   -121.82584   -109.38778    83.020777 
   68100    124.73508   -105.69197   0.11286292   -105.57911    423.61864     4.361714     4.361714     4.361714    423.61864    3381.9488   -2333.1881    222.09522    134.72822    698.25692   -553.49015    82.979639 
   68200    91.475096   -105.66232  0.082768589   -105.57955   -1013.6657    4.3633625    4.3633625    4.3633625   -1013.6657   -3425.2046   -2853.5309    3237.7383    263.14809   -1057.8006   -834.22943    83.073764 
   68300    107.35677   -105.67629  0.097138662   -105.57915   -265.91147    4.3615098    4.3615098    4.3615098   -265.91147   -1419.2592    44.968646    576.55614   -432.70826    1332.8197   -196.20463     82.96799 
   68400    76.865521   -105.64903  0.069549539   -105.57948   -158.11242     4.363161     4.363161     4.363161   -158.11242    3808.6948    -4852.277    569.24494    218.53143   -416.34352   -659.40646    83.062253 
   68500    121.77599   -105.68945   0.11018548   -105.57926    314.45865    4.3621029    4.3621029    4.3621029    314.45865    1472.9744      -802.57    272.97155    30.319017   -1257.5628   -345.57745    83.001842 
   68600    104.49216    -105.6737  0.094546704   -105.57916    1838.6802    4.3623499    4.3623499    4.3623499    1838.6802    1520.5926   -359.50807    4354.9561    278.66039    49.390981     228.5008    83.015941 
   68700    82.939623   -105.65447  0.075045514   -105.57943   -672.38517    4.3628583    4.3628583    4.3628583   -672.38517   -758.13626   -982.55864   -276.46063    378.52403   -332.78931   -248.72675    83.044971 
   68800    101.55072   -105.67103  0.091885223   -105.57914    1329.9977    4.3617616    4.3617616    4.3617616    1329.9977    4245.3429   -1951.3991    1696.0494    141.75949   -530.55101   -126.74911    82.982358 
   68900    114.33444   -105.68272   0.10345221   -105.57927   -2171.3897    4.3633367    4.3633367    4.3633367   -2171.3897   -88.147132   -4589.7185   -1836.3036    682.98914    201.47406   -132.19565    83.072288 
   69000     88.79035   -105.65965  0.080339375   -105.57931    -1202.723    4.3619309    4.3619309    4.3619309    -1202.723   -4902.2303   -1117.5502    2411.6115    500.01533   -1246.7789   -953.09832     82.99202 
   69100    105.91974   -105.67479  0.095838403   -105.57896   -1036.4975    4.3630179    4.3630179    4.3630179   -1036.4975    2268.4766   -3690.2302   -1687.7388    -339.4803    1238.9841   -77.174532    83.054084 
   69200    84.431549   -105.65593   0.07639544   -105.57954    197.53401    4.3621142    4.3621142    4.3621142    197.53401    2693.0033   -3254.0819    1153.6806    568.03692   -205.37372   -1713.0546    83.002487 
   69300    124.70738   -105.69187   0.11283786   -105.57903    541.22931    4.3625981    4.3625981    4.3625981    541.22931    2912.0012    -573.6703   -714.64302    -569.9034    -1048.754   -382.09692    83.030109 
   69400    85.517889   -105.65673  0.077378383   -105.57935   -313.68125    4.3626611    4.3626611    4.3626611   -313.68125   -3138.8163   -1406.6616    3604.4341     149.6201    323.52535   -1097.3889    83.033707 
   69500    90.990267   -105.66183  0.082329906    -105.5795   -1516.2719    4.3624203    4.3624203    4.3624203   -1516.2719   -244.72651   -2419.6893   -1884.3998   -15.383743    -494.2489   -402.37825    83.019961 
   69600    118.44445   -105.68632   0.10717103   -105.57915   -898.06998    4.3630187    4.3630187    4.3630187   -898.06998    1721.8383    -4493.557    77.508794   -467.29204     107.9931    -207.7071    83.054131 
   69700    89.592723   -105.66056  0.081065379   -105.57949   -1852.3267    4.3622343    4.3622343    4.3622343   -1852.3267   -2291.7566   -2883.1694   -382.05409    917.35515   -621.71626   -707.44144    83.009342 
   69800     99.42209   -105.66908  0.089959197   -105.57913   -849.73551    4.3630961    4.3630961    4.3630961   -849.73551   -1634.1105   -2189.1779    1274.0819    272.72378   -664.21251    534.57239    83.058549 
   69900    100.20135   -105.66989  0.090664289   -105.57923    456.89026    4.3618379    4.3618379    4.3618379    456.89026    2517.5123   -3621.6251    2474.7836    405.61532    690.96894   -826.04211    82.986712 
   70000    101.28781   -105.67115  0.091647342    -105.5795    793.03667    4.3628249    4.3628249    4.3628249    793.03667    3027.8397   -703.69687    54.967185    922.28854    105.65014   -32.967686    83.043059 
   70100    108.78162   -105.67754  0.098427895   -105.57911    1061.8427    4.3620835    4.3620835    4.3620835    1061.8427    454.60507   -708.84554    3439.7686   -29.001258   -1096.5259   -887.30835    83.000734 
   70200    79.790281   -105.65162  0.072195923   -105.57943   -1234.7985    4.3624632    4.3624632    4.3624632   -1234.7985   -3212.5974    -1221.871    730.07287    616.48916     512.9472   -736.99996    83.022411 
   70300     110.1686   -105.67887  0.099682861   -105.57919   -621.82955    4.3628934    4.3628934    4.3628934   -621.82955    707.36086   -4089.0981    1516.2486    -119.1968   -562.92969      -384.46    83.046975 
   70400    117.87454   -105.68581   0.10665536   -105.57916    -217.3013    4.3617342    4.3617342    4.3617342    -217.3013    996.06771   -2280.7011    632.72952   -731.83165    312.50684   -845.91541    82.980794 
   70500    70.313978   -105.64311  0.063621565   -105.57949    425.64907    4.3633177    4.3633177    4.3633177    425.64907    456.13957   -1465.5878    2286.3955    224.58954   -984.23542   -467.92466    83.071205 
   70600    116.57801   -105.68438   0.10548224    -105.5789    784.86024     4.361524     4.361524     4.361524    784.86024    2198.4909   -2572.3542     2728.444   -427.86625   -339.40674    404.22248    82.968797 
   70700    93.476988   -105.66397  0.084579943   -105.57939    1382.9948    4.3629008    4.3629008    4.3629008    1382.9948    1659.6848   -360.77789    2850.0775   -86.822732    253.42778   -651.69303    83.047394 
   70800      117.298   -105.68532    0.1061337   -105.57919    314.00952    4.3622642    4.3622642    4.3622642    314.00952    1992.0238   -1002.7864   -47.208832    427.18222    226.98678    685.59274    83.011046 
   70900    79.388939   -105.65102   0.07183278   -105.57919    904.55414    4.3620356    4.3620356    4.3620356    904.55414   -1090.1479    881.44982    2922.3606     250.0074   -952.62248   -308.91985    82.997997 
   71000    98.024219     -105.668  0.088694373   -105.57931   -2089.9242    4.3631836    4.3631836    4.3631836   -2089.9242    61.082138   -4649.4113   -1681.4436    902.85592     60.10677   -502.18188    83.063548 
   71100    118.42179   -105.68623   0.10715052   -105.57908    835.48264    4.3614647    4.3614647    4.3614647    835.48264    360.32928   -1844.2218    3990.3404    438.69104    -135.2773    589.93154    82.965413 
   71200    102.60127   -105.67212  0.092835787   -105.57929   -710.12448    4.3633144    4.3633144    4.3633144   -710.12448    1350.4674   -1280.7572   -2200.0836    397.62281   -81.124325   -1484.4769    83.071018 
   71300    72.546487   -105.64512  0.065641586   -105.57948    1556.0159    4.3615804    4.3615804    4.3615804    1556.0159    3028.8625   -2546.2806    4185.4658    99.934235   -1303.8045     147.4369    82.972019 
   71400    116.96534   -105.68501    0.1058327   -105.57918    346.41147    4.3627659    4.3627659    4.3627659    346.41147    1491.4504   -83.874833   -368.34113    231.78705   -580.10384   -549.28642    83.039691 
   71500    106.64747   -105.67593  0.096496868   -105.57943   -854.72199    4.3626735    4.3626735    4.3626735   -854.72199   -1139.3906   -2618.5501    1193.7748   -447.57034   -163.45452   -589.22445    83.034413 
   71600    97.094535   -105.66704  0.087853175   -105.57919   -194.04428    4.3621902    4.3621902    4.3621902   -194.04428   -992.31202    1560.3886   -1150.2094   -240.72775   -64.718354    399.14979    83.006823 
   71700     86.87954   -105.65791  0.078610434    -105.5793   -1896.5237    4.3632986    4.3632986    4.3632986   -1896.5237    -250.3405   -4928.3779    -510.8528   -103.85468   -759.51699   -589.72697    83.070114 
   71800     98.40131   -105.66843  0.089035573   -105.57939   -250.37429    4.3618084    4.3618084    4.3618084   -250.37429    1217.4307   -3354.2213    1385.6677    145.33829   -514.75059   -268.18838    82.985032 
   71900    131.58551   -105.69808   0.11906134   -105.57902   -813.52779    4.3633216    4.3633216    4.3633216   -813.52779   -2102.1611   -1562.8707    1224.4485    251.47073    922.66266    576.09188    83.071424 
   72000    71.181287   -105.64381  0.064406325    -105.5794    209.45664    4.3619826    4.3619826    4.3619826    209.45664    2762.5086   -2865.7734    731.63471    741.28682   -711.54726    -1652.183    82.994974 
   72100    97.509949    -105.6674  0.088229051   -105.57917    496.89276    4.3626718    4.3626718    4.3626718    496.89276    1226.1667   -858.26622    1122.7778    18.938685   -108.77891    529.99119    83.034318 
   72200    113.30738   -105.68172    0.1025229   -105.57919   -426.27575    4.3625017    4.3625017    4.3625017   -426.27575    315.38858   -2842.8183    1248.6025    1246.6211   -1066.5256   -1121.5529    83.024608 
   72300    100.00134   -105.66978  0.090483314    -105.5793   -1133.7576    4.3623453    4.3623453    4.3623453   -1133.7576   -4478.4593    289.66306    787.52342     18.55629    44.489198   -586.78402     83.01568 
   72400    102.00668   -105.67128  0.092297783   -105.57898   -1388.1352    4.3631522    4.3631522    4.3631522   -1388.1352   -695.46694   -3309.1906   -159.74809   -17.353433   -262.22252    316.29637    83.061753 
   72500    74.775392   -105.64713  0.067658346   -105.57947    509.97333    4.3618391    4.3618391    4.3618391    509.97333    4490.3194   -4504.5279    1544.1285    577.05195   -942.30759   -1012.9556     82.98678 
   72600    132.58229   -105.69915   0.11996325   -105.57918   -372.42021    4.3629726    4.3629726    4.3629726   -372.42021   -1627.3268   -2531.9523    3042.0184   -852.83764   -723.62114    521.21077    83.051495 
   72700    91.477419   -105.66207  0.082770691    -105.5793    850.73041    4.3621896    4.3621896    4.3621896    850.73041    1736.4006   -1293.4734     2109.264    498.01849    1025.9031     89.82883    83.006789 
   72800    87.368587   -105.65842  0.079052934   -105.57937    -600.8357     4.362603     4.362603     4.362603    -600.8357   -465.45861   -2579.0052    1241.9567   -210.25351   -597.41208    -413.8994    83.030388 
   72900    108.95086   -105.67773  0.098581031   -105.57915    788.86458    4.3624097    4.3624097    4.3624097    788.86458    4226.4707   -1003.9358   -855.94109   -283.77274    286.27057    221.30186    83.019355 
   73000    98.175203   -105.66823  0.088830987    -105.5794    84.261626     4.362142     4.362142     4.362142    84.261626   -2508.5216   -1658.8604    4420.1668    833.77188   -780.55385   -545.23465    83.004072 
   73100    112.67672   -105.68109   0.10195226   -105.57914   -1868.6503    4.3629871    4.3629871    4.3629871   -1868.6503   -2568.7238   -1090.6208   -1946.6063    124.14756    205.34313   -492.89074    83.052322 
   73200    74.794534     -105.647  0.067675666   -105.57933    1526.7277    4.3618949    4.3618949    4.3618949    1526.7277    4998.8433   -4209.3913     3790.731    -10.91001     130.9421    114.28387    82.989968 
   73300    120.52793   -105.68838   0.10905621   -105.57932   -647.85811    4.3626653    4.3626653    4.3626653   -647.85811     2989.015   -3711.3465   -1221.2429    1126.7596   -1707.9303   -1070.2528    83.033948 
   73400    92.713758   -105.66311  0.083889356   -105.57922    2185.9895    4.3621425    4.3621425    4.3621425    2185.9895    1406.0341    602.91124    4549.0232   -854.83162     -516.207    516.82646    83.004102 
   73500    105.27894   -105.67441  0.095258602   -105.57915   -1975.1488     4.362682     4.362682     4.362682   -1975.1488   -1277.5658   -3537.7964   -1110.0842    1117.1982   -106.06045    -210.7826    83.034902 
   73600    83.753468   -105.65514  0.075781898   -105.57936    234.30549    4.3626387    4.3626387    4.3626387    234.30549    1195.1957    351.62594    -843.9052   -482.81966   -890.68104    387.42677    83.032431 
   73700    124.73118   -105.69197   0.11285939   -105.57911   -264.21789    4.3623268    4.3623268    4.3623268   -264.21789    2468.9104   -2885.4569   -376.10718   -228.21537   -200.90869    161.21497    83.014623 
   73800    84.420788   -105.65582  0.076385703   -105.57944   -553.68188     4.362696     4.362696     4.362696   -553.68188   -3515.0837    222.32073    1631.7173    522.48852   -909.34903    48.963652    83.035698 
   73900    96.628045   -105.66654  0.087431086   -105.57911   -524.61292    4.3626296    4.3626296    4.3626296   -524.61292    2510.9033    -4136.059    51.316973   -86.712833   -123.40926    -8.541151    83.031911 
   74000     111.3116   -105.67994   0.10071707   -105.57922    -513.6855    4.3623925    4.3623925    4.3623925    -513.6855    2168.0096   -3890.9385    181.87242   -103.17029    833.04298   -311.09124     83.01837 
   74100    93.024252   -105.66355  0.084170298   -105.57938    998.12259    4.3625914    4.3625914    4.3625914    998.12259    3026.1053    136.48755   -168.22512    730.18834   -2250.1498    -468.1743    83.029726 
   74200     109.6274   -105.67819  0.099193177     -105.579   -876.92686    4.3622941    4.3622941    4.3622941   -876.92686   -2323.4084   -2177.9784    1870.6062    -581.7979    497.58518   -672.36924    83.012754 
   74300    73.758714   -105.64608  0.066738435   -105.57934    -965.6933    4.3627506    4.3627506    4.3627506    -965.6933   -1586.5499   -94.651816   -1215.8782    893.28464   -1020.1425   -208.48102    83.038816 
   74400    129.65348   -105.69654   0.11731319   -105.57923   -951.03108    4.3627387    4.3627387    4.3627387   -951.03108     1108.798   -2998.3553   -963.53596    6.5738347   -119.18181   -194.46752    83.038138 
   74500    96.108297   -105.66646  0.086960807    -105.5795    832.61726    4.3618912    4.3618912    4.3618912    832.61726   -630.93087    957.26401    2171.5186    -224.7219   -712.79161    -168.4884    82.989755 
   74600    78.855222   -105.65073  0.071349862   -105.57938   -388.49582    4.3631606    4.3631606    4.3631606   -388.49582    1661.0244   -4088.7134    1262.2016    661.69396   -1200.4895    227.09133    83.062233 
   74700    111.27861   -105.67975   0.10068723   -105.57907      149.754    4.3617987    4.3617987    4.3617987      149.754    566.87858   -3178.7595    3061.1429   -92.325298    389.41252    170.70073    82.984478 
   74800    107.82884   -105.67697  0.097565801   -105.57941   -274.18384    4.3629352    4.3629352    4.3629352   -274.18384    2978.2625   -1921.2099    -1879.604     451.2591    202.89431    68.017324    83.049361 
   74900    101.28929   -105.67087  0.091648675   -105.57922    387.85746    4.3622579    4.3622579    4.3622579    387.85746   -1485.2936    -545.3974    3194.2634    37.756674   -1463.5288    278.50453     83.01069 
   75000    79.590281   -105.65123  0.072014959   -105.57922    44.512557    4.3621132    4.3621132    4.3621132    44.512557    385.14184   -662.01104    410.40687    263.30538    505.18699   -936.59257    83.002425 
   75100     107.7782   -105.67678  0.097519984   -105.57926   -897.10509    4.3632541    4.3632541    4.3632541   -897.10509   -637.02711   -3390.8375    1336.5493    40.450898   -636.73859    197.63909    83.067574 
   75200     123.4993   -105.69082   0.11174476   -105.57908    1299.1811    4.3613603    4.3613603    4.3613603    1299.1811    2437.3003    613.06183    847.18102    484.94573    72.203954   -629.36342    82.959458 
   75300    80.018022    -105.6517  0.072401988    -105.5793    398.61229     4.363178     4.363178     4.363178    398.61229    2414.0704    -3615.584    2397.3504    -588.3583   -288.71262   -622.06478    83.063227 
   75400    87.497611   -105.65834  0.079169677   -105.57917    736.44405    4.3617545    4.3617545    4.3617545    736.44405     3206.554    -3246.746    2249.5242    473.23925   -1638.3299    127.32571    82.981953 
   75500    116.66674   -105.68467   0.10556252   -105.57911    37.254868    4.3625861    4.3625861    4.3625861    37.254868    1597.8291   -2989.7747    1503.7103   -61.138707    897.07077   -600.76552    83.029426 
   75600    114.04857   -105.68243   0.10319355   -105.57924   -1104.0997     4.362988     4.362988     4.362988   -1104.0997    22.027718   -1059.3936   -2274.9333    318.31311    -641.2682    390.94618    83.052375 
   75700    78.933363   -105.65069  0.071420566   -105.57927    890.25256    4.3615249    4.3615249    4.3615249    890.25256    471.62291   -322.98404    2522.1188   -47.614965   -802.20016    130.96635    82.968847 
   75800    91.594606   -105.66223  0.082876724   -105.57936   -784.05096    4.3636766    4.3636766    4.3636766   -784.05096    2848.5928   -3861.2314   -1339.5143    560.19715   -382.30456   -536.83303    83.091705 
   75900    121.06323    -105.6888   0.10954056   -105.57925    604.28714    4.3613464    4.3613464    4.3613464    604.28714   -189.20207   -790.26546     2792.329   -241.54704   -428.38134    355.28595    82.958662 
   76000    106.35117    -105.6754  0.096228774   -105.57917    -70.87302    4.3633659    4.3633659    4.3633659    -70.87302    4015.2672   -2597.0669   -1630.8193    820.19328   -88.475044   -387.42011    83.073956 
   76100    76.198614   -105.64836  0.068946107   -105.57941   -614.52833    4.3620134    4.3620134    4.3620134   -614.52833     1392.783   -4356.4042    1120.0363   -581.02544   -701.75316   -688.76762    82.996729 
   76200    99.578912   -105.66934  0.090101093   -105.57923    -168.1785    4.3624144    4.3624144    4.3624144    -168.1785     2698.435   -3045.3545   -157.61601    124.33879   -1673.3331    215.36283     83.01962 
   76300    125.06911   -105.69234   0.11316516   -105.57917   -1949.5079    4.3634391    4.3634391    4.3634391   -1949.5079   -2478.4286   -1990.5936   -1379.5014    139.50466    865.51376   -1477.8951    83.078136 
   76400    88.554963   -105.65936  0.080126392   -105.57924   -545.93345    4.3614915    4.3614915    4.3614915   -545.93345   -1584.4049    11.140045    -64.53547   -188.30378   -1186.3997    763.91959    82.966943 
   76500    88.082553   -105.65875  0.079698945   -105.57905   -743.02849     4.363823     4.363823     4.363823   -743.02849    3479.2257   -3233.1019   -2475.2093    184.73156   -302.69703   -757.22598    83.100069 
   76600    101.75364   -105.67136  0.092068834   -105.57929    444.87232    4.3614379    4.3614379    4.3614379    444.87232    287.08035   -2265.8436    3313.3802    212.72998   -1035.6298   -213.00353    82.963883 
   76700    119.01315   -105.68676    0.1076856   -105.57907   -489.16598    4.3632518    4.3632518    4.3632518   -489.16598    1029.6923   -1214.8246   -1282.3656    67.485269   -240.42438    256.80915     83.06744 
   76800    90.508792   -105.66102  0.081894257   -105.57912   -1331.9343    4.3625431    4.3625431    4.3625431   -1331.9343    -795.1413   -4400.9796    1200.3181    854.64949    59.986015   -578.58041     83.02697 
   76900    79.865404   -105.65158  0.072263896   -105.57932    -629.2504    4.3619987    4.3619987    4.3619987    -629.2504    3101.6899    -3147.066   -1842.3751   -59.189846    -1271.525    194.80039    82.995893 
   77000    127.96588   -105.69491   0.11578621   -105.57912   -1248.1491    4.3636457    4.3636457    4.3636457   -1248.1491   -2305.1692   -2040.1657     600.8878   -11.015977   -755.09165    -626.1897    83.089938 
   77100    93.748743   -105.66417  0.084825833   -105.57934    249.04742    4.3612257    4.3612257    4.3612257    249.04742   -1837.9931    521.30285    2063.8325    524.61093   -419.94664   -607.12521    82.951774 
   77200    90.300023   -105.66089  0.081705359   -105.57918   -640.01775    4.3636535    4.3636535    4.3636535   -640.01775    721.17972   -1707.7216   -933.51139    -666.1823   -123.12051   -88.047863    83.090384 
   77300    101.23584   -105.67083  0.091600314   -105.57923     1354.849    4.3615124    4.3615124    4.3615124     1354.849    4745.6553   -2651.3955    1970.2874    432.60484    -937.4705   -250.62155    82.968136 
   77400    105.79172   -105.67514  0.095722575   -105.57942     987.3129    4.3626452    4.3626452    4.3626452     987.3129    1270.7201   -945.14962    2636.3682   -526.16539   -851.22521    -529.3649      83.0328 
   77500    111.10963   -105.67967   0.10053433   -105.57914   -858.53042    4.3628061    4.3628061    4.3628061   -858.53042   -841.54995   -2604.6006    870.55926     324.4822    232.79417    511.16116     83.04199 
   77600    70.821112   -105.64344   0.06408043   -105.57936    98.570448    4.3615622    4.3615622    4.3615622    98.570448    1882.9961   -3585.0412    1997.7564    552.30873    96.088648    -797.9968    82.970978 
   77700    119.12775   -105.68701   0.10778929   -105.57922   -1015.0099    4.3637079    4.3637079    4.3637079   -1015.0099    2135.5261   -1795.9054   -3384.6503    296.58181   -800.34738    1017.6729    83.093496 
   77800    110.34357   -105.67904  0.099841179    -105.5792     1861.438    4.3610728    4.3610728    4.3610728     1861.438   -792.79979     427.8229    5949.2909    404.06899    -75.36307   -816.32187    82.943054 
   77900    81.682727    -105.6532  0.073908248    -105.5793    374.73035    4.3632738    4.3632738    4.3632738    374.73035    2090.1899   -729.35254   -236.64634    509.43192   -685.74495    13.519135    83.068698 
   78000    100.77026   -105.67035  0.091179048   -105.57918    1139.0589    4.3618609    4.3618609    4.3618609    1139.0589    3318.7699   -2290.1299    2388.5366   -138.22884    571.58085   -509.74088    82.988029 
   78100    107.93286   -105.67694   0.09765992   -105.57928    1416.5905    4.3621128    4.3621128    4.3621128    1416.5905    6255.2689    -2054.737    49.239759    441.61159   -1450.3039   -172.87885    83.002406 
   78200    110.92784   -105.67954   0.10036984   -105.57917   -1050.3234    4.3632608    4.3632608    4.3632608   -1050.3234   -2222.9747   -1988.5007    1060.5053    -984.8161   -902.11413   -568.04057    83.067955 
   78300    75.961676   -105.64788  0.068731721   -105.57915     233.6406    4.3613902    4.3613902    4.3613902     233.6406    1546.5652   -3613.4982    2767.8548   -18.324665    189.69849   -300.67181    82.961162 
   78400    106.62351   -105.67565  0.096475192   -105.57918   -1983.6382    4.3636676    4.3636676    4.3636676   -1983.6382    1283.7431   -2982.3532   -4252.3045   -144.74666   -773.86808   -474.76331    83.091191 
   78500    112.90262   -105.68134   0.10215667   -105.57918    1508.1276    4.3616614    4.3616614    4.3616614    1508.1276    1832.9025    593.71767    2097.7625    -95.08014   -401.90787    247.73038    82.976641 
   78600    100.52507   -105.67014  0.090957198   -105.57918    70.833635    4.3627388    4.3627388    4.3627388    70.833635    1158.5746   -1343.1785    397.10475    476.28427   -559.89782   -144.47499    83.038144 
   78700    74.938911   -105.64719  0.067806302   -105.57938     128.1732    4.3627887    4.3627887    4.3627887     128.1732    115.51439   -2312.5148      2581.52    340.26689   -633.22107   -240.78271    83.040993 
   78800    115.96699   -105.68415   0.10492937   -105.57922    256.95808    4.3617087    4.3617087    4.3617087    256.95808    5322.3176   -2902.8367   -1648.6066    788.91386    1103.1372   -1.7873676     82.97934 
   78900    116.03937   -105.68434   0.10499486   -105.57934   -2119.8907    4.3636975    4.3636975    4.3636975   -2119.8907   -2017.2519   -2711.6697   -1630.7503    989.69045   -1750.3318   -679.67825      83.0929 
   79000    77.429756   -105.64933  0.070060071   -105.57927    -803.7193    4.3617082    4.3617082    4.3617082    -803.7193   -1077.1261   -2649.8647    1315.8329   -223.86863   -742.34302    256.45167    82.979313 
   79100    98.570731   -105.66835  0.089188869   -105.57916   -2062.9905    4.3631672    4.3631672    4.3631672   -2062.9905   -882.44801   -5051.2885   -255.23495    343.48731     310.6125   -1448.2021     83.06261 
   79200    107.61357    -105.6768  0.097371018   -105.57943    118.88333     4.362569     4.362569     4.362569    118.88333    962.46715    807.89138   -1413.7085    -411.8205   -1720.3582    114.37106    83.028447 
   79300    114.56408    -105.6829   0.10365999   -105.57924    679.93883    4.3621283    4.3621283    4.3621283    679.93883    1951.1954   -1133.5436    1222.1647   -399.67944    171.47171   -1168.1607     83.00329 
   79400    77.004617   -105.64903  0.069675396   -105.57935   -656.17191    4.3632809    4.3632809    4.3632809   -656.17191   -785.25474   -1961.4582    778.19721   -84.618274   -1837.1367    538.51049      83.0691 
   79500    93.125931    -105.6636  0.084262299   -105.57934   -25.098805    4.3617805    4.3617805    4.3617805   -25.098805     1333.593   -3657.3566    2248.4672   -749.48923    -165.3162   -985.51286    82.983439 
   79600    132.75409   -105.69917   0.12011869   -105.57906   -1823.7331    4.3633635    4.3633635    4.3633635   -1823.7331    448.65148   -2969.0769   -2950.7739    728.23133    724.57198    186.62995     83.07382 
   79700    81.688605   -105.65326  0.073913566   -105.57934   -852.64506    4.3622917    4.3622917    4.3622917   -852.64506   -2473.8662   -1327.8038    1243.7349    657.97636   -1589.8035   -59.699996    83.012616 
   79800    92.819489   -105.66305  0.083985024   -105.57907   -970.10678    4.3624346    4.3624346    4.3624346   -970.10678    1540.8711    -4800.396    349.20459    479.87451    151.65754     144.9862    83.020776 
   79900    99.183428   -105.66898   0.08974325   -105.57923    991.50595     4.362887     4.362887     4.362887    991.50595   -30.565529    209.63228    2795.4511    877.24595    251.02815   -189.32729    83.046606 
   80000    123.31737   -105.69079   0.11158015   -105.57921    1208.2104    4.3615563    4.3615563    4.3615563    1208.2104    3878.8044   -119.71076   -134.46245     547.7033   -983.09546   -250.15525     82.97064 
   80100    88.622128   -105.65933  0.080187164   -105.57914    751.00236    4.3632379    4.3632379    4.3632379    751.00236    1085.8737   -521.28449    1688.4179    226.52786     485.6034    -316.3067    83.066644 
   80200    76.927208   -105.64894  0.069605355   -105.57933     163.4012    4.3617441    4.3617441    4.3617441     163.4012    2452.4361   -3396.0057    1433.7731    159.41793   -2151.9296     165.2601    82.981358 
   80300    130.24822   -105.69698   0.11785133   -105.57913    -944.5446     4.362776     4.362776     4.362776    -944.5446   -1.9904891   -2938.2952    106.65186   -1033.9545    41.493636   -388.40432    83.040268 
   80400    96.083521   -105.66623  0.086938389    -105.5793    304.24939    4.3625987    4.3625987    4.3625987    304.24939    669.04169   -754.18283    997.88932   -128.17568    144.67839   -608.15897    83.030144 
   80500    94.192071    -105.6645  0.085226966   -105.57927   -1301.1431     4.361977     4.361977     4.361977   -1301.1431    872.28253   -3504.4687   -1271.2431   -258.59146    -1962.455    473.40182    82.994653 
   80600    82.043584   -105.65356  0.074234759   -105.57933    2360.7253    4.3631116    4.3631116    4.3631116    2360.7253    3378.5582    10.814472    3692.8033   -216.45656    255.83655   -524.77028    83.059435 
   80700    134.51586   -105.70099   0.12171277   -105.57928    526.87904    4.3614568    4.3614568    4.3614568    526.87904    1832.7695   -425.47799    173.34558    189.00379   -345.90344    794.80774    82.964964 
   80800    85.283295   -105.65646  0.077166118   -105.57929    1413.4622    4.3631038    4.3631038    4.3631038    1413.4622    1967.6934    653.93802    1618.7552    632.89028   -176.44298   -805.76282    83.058986 
   80900    94.019524   -105.66419  0.085070841   -105.57912   -1259.2125    4.3622156    4.3622156    4.3622156   -1259.2125     1672.071   -3812.8139   -1636.8947    747.53696    277.59827    313.59614    83.008275 
   81000    92.299135   -105.66292  0.083514197   -105.57941   -660.47432    4.3622724    4.3622724    4.3622724   -660.47432   -55.823387   -2528.3769    602.77736    914.05128   -1704.5017    229.87762    83.011515 
   81100    128.37798   -105.69524    0.1161591   -105.57908   -913.27713    4.3632803    4.3632803    4.3632803   -913.27713   -861.41579   -1431.3606   -447.05502    26.342593    441.97236   -102.96812    83.069068 
   81200    84.524382   -105.65576  0.076479437   -105.57928   -569.28374    4.3615609    4.3615609    4.3615609   -569.28374    21.360853   -3102.4008    1373.1887    117.08326   -439.72877   -349.95681    82.970904 
   81300    79.220339   -105.65092  0.071680228   -105.57924    200.38577    4.3636299    4.3636299    4.3636299    200.38577    3134.2266   -695.95633   -1837.1129    302.41506   -1710.5885     144.3482    83.089036 
   81400    131.77399   -105.69834   0.11923188   -105.57911    663.65571    4.3615531    4.3615531    4.3615531    663.65571    767.53388   -1184.4547    2407.8879    -569.5738   -265.93683   -283.30819    82.970457 
   81500    88.461322   -105.65948  0.080041663   -105.57944    390.41226    4.3630122    4.3630122    4.3630122    390.41226    31.376812    1239.6126   -99.752692   -406.95228   -1317.6155    508.57971    83.053756 
   81600    100.91384   -105.67034  0.091308959   -105.57903   -2082.0425    4.3628177    4.3628177    4.3628177   -2082.0425   -1616.6869   -4760.6666    131.22592   -117.19623     317.1277   -802.54215    83.042651 
   81700    81.653849   -105.65319  0.073882119   -105.57931    -1152.287    4.3620048    4.3620048    4.3620048    -1152.287    1899.7174   -3264.3173    -2092.261    74.843634   -982.81421   -219.53352    82.996238 
   81800    126.00614    -105.6933   0.11401301   -105.57928   -1783.7631    4.3637228    4.3637228    4.3637228   -1783.7631   -2965.2006   -2154.1357   -231.95314    425.56262   -794.64528    249.92949    83.094345 
   81900    101.53798   -105.67111  0.091873696   -105.57923    786.39877    4.3611506    4.3611506    4.3611506    786.39877    454.28276   -1531.5171    3436.4307    411.53514    405.29606   -626.49012     82.94749 
   82000    69.463084   -105.64226  0.062851658   -105.57941   -454.43016    4.3637512    4.3637512    4.3637512   -454.43016    1145.2862   -2514.3591     5.782367   -46.802761   -248.33612    213.29807    83.095968 
   82100    117.25692   -105.68518   0.10609653   -105.57908    1036.2957    4.3616358    4.3616358    4.3616358    1036.2957    3832.1375   -1070.5533    347.30301    1263.5247   -631.85101   -739.75756    82.975179 
   82200    116.83451   -105.68496   0.10571432   -105.57924    272.47022    4.3626407    4.3626407    4.3626407    272.47022   -555.59385    337.20534    1035.7992   -18.548252    -856.1618    426.04665    83.032545 
   82300    79.115562   -105.65095  0.071585423   -105.57937   -863.26229    4.3629805    4.3629805    4.3629805   -863.26229   -1785.2383   -2567.9869    1763.4383    83.474899   -566.52459    337.25626    83.051947 
   82400    95.686574   -105.66568  0.086579223    -105.5791   -845.19171    4.3615928    4.3615928    4.3615928   -845.19171    1343.6854   -4354.3025    475.04195    206.31159    94.594136    -70.39876    82.972726 
   82500    105.99682   -105.67531  0.095908149    -105.5794   -856.65393    4.3637339    4.3637339    4.3637339   -856.65393    2034.4111   -3572.4855   -1031.8873   -400.96608   -1585.8709    59.887319    83.094977 
   82600    125.02454   -105.69223   0.11312483    -105.5791    781.88867    4.3613046    4.3613046    4.3613046    781.88867   -373.57892    231.15787    2488.0871    565.97932   -237.14804     367.5066    82.956276 
   82700    68.164534   -105.64094  0.061676703   -105.57926    1532.7187    4.3629883    4.3629883    4.3629883    1532.7187    3171.6985   -3151.9352    4578.3927   -294.33086    -478.1161    51.302027    83.052393 
   82800    96.488515   -105.66661  0.087304836   -105.57931    137.52515    4.3622876    4.3622876    4.3622876    137.52515    1850.5261   -150.34525   -1287.6054    -377.0176    24.575147   -24.945302    83.012385 
   82900     125.0303   -105.69221   0.11313004   -105.57908    1439.3307    4.3619788    4.3619788    4.3619788    1439.3307     4174.187   -1663.4591    1807.2641    575.66807   -131.75039   -471.99308    82.994754 
   83000    102.50094   -105.67205  0.092745002   -105.57931   -1750.1882    4.3633145    4.3633145    4.3633145   -1750.1882   -3019.0539   -874.01386   -1357.4969    22.346609   -1387.6958   -87.300594    83.071023 
   83100    67.872538    -105.6407  0.061412498   -105.57928    246.34579    4.3615148    4.3615148    4.3615148    246.34579    47.253174   -4104.2475    4796.0317   -217.51769    533.64229    354.78322    82.968271 
   83200     114.2429   -105.68253   0.10336938   -105.57916   -875.32411    4.3634185    4.3634185    4.3634185   -875.32411    3815.9303   -4098.6101   -2343.2925     467.5082    -411.9682   -185.34853    83.076964 
   83300    114.30814   -105.68286   0.10342841   -105.57944    390.64769    4.3618491    4.3618491    4.3618491    390.64769    -386.6653    225.52181    1333.0866    -589.4506    -1452.412    443.53556    82.987352 
   83400    98.266485   -105.66797  0.088913581   -105.57906    923.52461    4.3626649    4.3626649    4.3626649    923.52461    3922.0601   -3270.9293     2119.443     871.4826   -62.734797    164.85639    83.033922 
   83500    73.884938   -105.64624  0.066852644   -105.57938   -48.545174    4.3625835    4.3625835    4.3625835   -48.545174   -1944.2142      3.68431    1794.8943   -158.06145   -1398.2536    1045.4732    83.029279 
   83600    112.31276   -105.68096   0.10162294   -105.57934    292.01831    4.3621801    4.3621801    4.3621801    292.01831    4238.1981   -1996.2114   -1365.9318   -121.15223    301.79533    286.83102    83.006244 
   83700    125.22748   -105.69247   0.11330845   -105.57916   -1330.6115    4.3629649    4.3629649    4.3629649   -1330.6115   -2460.0554   -423.46685   -1108.3124    353.87883   -663.14723    40.691117    83.051055 
   83800     69.66896   -105.64252  0.063037939   -105.57948   -1546.0012    4.3622314    4.3622314    4.3622314   -1546.0012   -2015.1598   -4209.9331    1587.0893    154.60924   -1827.3698   0.95891638    83.009173 
   83900     101.7843   -105.67126   0.09209657   -105.57916   -501.63072     4.362943     4.362943     4.362943   -501.63072    1524.4647   -4439.6664    1410.3096   -142.16825    1405.4097    33.720313    83.049803 
   84000    110.37771   -105.67917  0.099872068    -105.5793    661.95105    4.3621537    4.3621537    4.3621537    661.95105    1244.5381    81.057048    660.25798     -4.80264   -1428.4132   -94.862391    83.004741 
   84100    109.22475   -105.67799  0.098828846   -105.57917   -375.15251    4.3627675    4.3627675    4.3627675   -375.15251     1378.886   -2170.1934   -334.15017   -586.46622   -391.88001   -714.85727    83.039781 
   84200    78.292389   -105.64995  0.070840598   -105.57911    388.74622    4.3624945    4.3624945    4.3624945    388.74622   -589.09017   -1210.6383    2965.9671    339.46384    -396.8109   -70.499092    83.024194 
   84300    101.05968   -105.67083  0.091440921   -105.57939    -1159.252    4.3625537    4.3625537    4.3625537    -1159.252   -977.32309   -2009.6126   -490.82035   -3.5940006    -1446.052    90.544517    83.027573 
   84400    118.40156   -105.68634   0.10713222   -105.57921    337.07704    4.3625965    4.3625965    4.3625965    337.07704    1191.1121   -210.58837     30.70743   -465.06129    852.29153    546.20181     83.03002 
   84500    98.998219   -105.66884  0.089575669   -105.57926   -1698.1229    4.3624932    4.3624932    4.3624932   -1698.1229   -2946.8175   -2802.9916    655.44025    536.72407   -1284.5379    69.104148    83.024122 
   84600    69.744588   -105.64259  0.063106369   -105.57949    6.6746155    4.3625491    4.3625491    4.3625491    6.6746155    2497.8653   -4785.5246    2307.6831    128.92784   -1379.8971    254.65889    83.027315 
   84700    135.17249   -105.70133   0.12230691   -105.57902    337.97196    4.3624253    4.3624253    4.3624253    337.97196   -82.985807   -1681.3948    2778.2965     749.4785    1293.8822    399.54359    83.020243 
   84800    87.878995   -105.65902  0.079514762    -105.5795    1551.5889     4.362309     4.362309     4.362309    1551.5889    3583.4915   -66.544953      1137.82   -193.01298   -1633.9062    629.97519    83.013605 
   84900    101.39988   -105.67085  0.091748741   -105.57911   -640.49621    4.3624739    4.3624739    4.3624739   -640.49621   -913.38162   -996.45906   -11.647951    279.39063    255.29255   -612.25965    83.023019 
   85000    82.398247    -105.6539  0.074555665   -105.57934    390.01596    4.3625047    4.3625047    4.3625047    390.01596    311.60465   -1892.3582    2750.8014   -249.30043   -858.84622   -109.05479    83.024778 
   85100    122.27799   -105.69004    0.1106397    -105.5794   -921.95829    4.3625232    4.3625232    4.3625232   -921.95829    15.504496   -1148.8071   -1632.5723    505.24365   -1178.5028   -400.86001    83.025834 
   85200     108.0243   -105.67687  0.097742657   -105.57913     344.0412    4.3625358    4.3625358    4.3625358     344.0412   -1083.7345    -1890.812      4006.67   -968.26073    972.47376    209.00142    83.026551 
   85300    65.736069   -105.63882  0.059479376   -105.57934   -336.23585    4.3624362    4.3624362    4.3624362   -336.23585    4019.0092   -3698.6683   -1329.0485    -118.1197     -2005.68   -120.78851    83.020866 
   85400    116.96531   -105.68501   0.10583267   -105.57918   -4.5673231     4.362607     4.362607     4.362607   -4.5673231   -799.68007   -2919.4289     3705.407   -284.29453   -770.18078   -465.63924     83.03062 
   85500    113.10212   -105.68159   0.10233718   -105.57925    1426.7817    4.3624468    4.3624468    4.3624468    1426.7817    4294.9253   -342.16438    327.58432    404.72696    581.92639    679.97568    83.021473 
   85600    92.025668   -105.66264  0.083266758   -105.57937   -1242.1015    4.3623533    4.3623533    4.3623533   -1242.1015   -2872.8287   -1213.1149    359.63916   -169.23132   -1671.5057    340.59403    83.016133 
   85700     79.93578   -105.65149  0.072327573   -105.57917    482.92182    4.3627117    4.3627117    4.3627117    482.92182    2512.9805   -1058.9146   -5.3005097    164.52909    459.36779    234.92099    83.036597 
   85800    120.57773   -105.68843   0.10910127   -105.57933   -1504.2932    4.3622476    4.3622476    4.3622476   -1504.2932   -1522.8853   -1690.0001   -1299.9943    186.00838   -1427.3759   -30.924992    83.010102 
   85900    103.63479   -105.67307  0.093770934    -105.5793    260.84263    4.3628582    4.3628582    4.3628582    260.84263   -446.72455   -1779.7338    3008.9862     694.1854   -534.88234    46.910217    83.044961 
   86000    95.253331   -105.66522  0.086187216   -105.57904   -777.69105    4.3622803    4.3622803    4.3622803   -777.69105    1924.1921   -4230.7702   -26.495061    -48.25834     643.4072    208.74879    83.011966 
   86100    76.800125    -105.6489  0.069490367   -105.57941   -328.29494    4.3626749    4.3626749    4.3626749   -328.29494    1408.1747   -3203.2975    810.23805    -359.6222   -2314.5655    323.15081    83.034494 
   86200     130.3472   -105.69706   0.11794089   -105.57911    557.19457     4.362613     4.362613     4.362613    557.19457    1328.3891    322.59241    20.602168     184.0643   -77.257648   -1031.6665    83.030962 
   86300    100.87109   -105.67068  0.091270283   -105.57941   -945.69064    4.3623085    4.3623085    4.3623085   -945.69064   -2088.7828   -1839.1724    1090.8833   -248.94936   -744.73163    680.98841    83.013578 
   86400    70.366133   -105.64308  0.063668755   -105.57942   -819.04268    4.3630856    4.3630856    4.3630856   -819.04268   -1377.4749   -1044.8356   -34.817509    102.24526   -518.36746   -293.56283    83.057949 
   86500    119.74659   -105.68751   0.10834923   -105.57916   -518.83367     4.361981     4.361981     4.361981   -518.83367    2206.7507   -2708.9782   -1054.2735   -721.42338   -318.06962    252.72569    82.994882 
   86600    104.73805   -105.67428  0.094769186   -105.57951   -279.64702    4.3630863    4.3630863    4.3630863   -279.64702   -2614.9366    -236.5942    2012.5898    122.99716    -1139.734   -257.54836     83.05799 
   86700    95.356392   -105.66548  0.086280468    -105.5792    594.08329    4.3620778    4.3620778    4.3620778    594.08329    2122.6587   -3462.6399     3122.231    76.994733    215.92697    -588.9473    83.000406 
   86800    88.647639   -105.65951  0.080210246    -105.5793   -844.18706    4.3625117    4.3625117    4.3625117   -844.18706    665.82902   -4474.1131    1275.7228    490.20343    182.38167    668.63353     83.02518 
   86900    100.41775    -105.6704  0.090860086   -105.57954    651.87767    4.3628135    4.3628135    4.3628135    651.87767    2236.0159    331.96529   -612.34817   -539.36255   -1332.2907   -461.53682    83.042411 
   87000    134.53924   -105.70077   0.12173393   -105.57903   -92.460389    4.3618688    4.3618688    4.3618688   -92.460389   -779.04727    -599.4228    1101.0889    589.50742   -59.334944   -447.87582     82.98848 
   87100    54.571276   -105.62882  0.049377237   -105.57944   -42.937985    4.3631898    4.3631898    4.3631898   -42.937985   -3566.0775      84.6363    3352.6273   -83.889922   -961.90977    7.3623271    83.063901 
   87200    114.28551   -105.68238   0.10340794   -105.57898   -583.71138    4.3619802    4.3619802    4.3619802   -583.71138    3384.0641   -3598.3287   -1536.8696    753.24119    72.256356    118.88634    82.994836 
   87300    114.24978   -105.68256    0.1033756   -105.57918    862.64452    4.3628146    4.3628146    4.3628146    862.64452    134.43877   -928.57678    3382.0716   -674.62482   -1297.5929    81.097545    83.042476 
   87400    97.043823   -105.66714   0.08780729   -105.57933    41.322262    4.3625344    4.3625344    4.3625344    41.322262    1780.6439   -1651.9909   -4.6861631    416.84374   -857.25093    238.13143    83.026474 
   87500    86.427141   -105.65726  0.078201093   -105.57906    657.12421    4.3620938    4.3620938    4.3620938    657.12421   -306.31665   -4074.6476    6352.3368   -31.667523    60.527777   -884.36942    83.001322 
   87600    90.003848   -105.66097  0.081437373   -105.57953   -178.13486    4.3628927    4.3628927    4.3628927   -178.13486    3184.2388   -387.18377   -3331.4596     290.4056   -593.61839    806.98787     83.04693 
   87700    141.83039   -105.70751   0.12833111   -105.57918   -558.43697    4.3620825    4.3620825    4.3620825   -558.43697   -616.48705   -1054.0345   -4.7894047    -216.6735   -379.82248   -568.55394    83.000675 
   87800    71.873307   -105.64442  0.065032479   -105.57938    1066.3468    4.3626899    4.3626899    4.3626899    1066.3468   -455.14711    850.01804    2804.1694   -270.62953   -886.68995   -450.07148    83.035355 
   87900    89.080834   -105.65997  0.080602211   -105.57937   -1360.0931    4.3623389    4.3623389    4.3623389   -1360.0931   -1670.2424   -2449.7048    39.668104    163.50249    -356.6648   -527.49324    83.015313 
   88000    111.98097   -105.68045   0.10132274   -105.57912    1820.2402    4.3623078    4.3623078    4.3623078    1820.2402    4739.7124   -1924.5103    2645.5187    253.64698     286.1258   -227.23798    83.013535 
   88100    120.18159   -105.68815   0.10874283   -105.57941   -1350.3615    4.3627676    4.3627676    4.3627676   -1350.3615   -63.381512   -1744.4692   -2243.2338   -231.21162   -1995.7132    295.56079    83.039788 
   88200     75.34862   -105.64762  0.068177015   -105.57944  -0.17708033    4.3624165    4.3624165    4.3624165  -0.17708033    580.52142   -4349.6954    3768.6428     34.94508   -526.18922    -36.41743    83.019744 
   88300    92.971545   -105.66339  0.084122608   -105.57927   -375.49701     4.362548     4.362548     4.362548   -375.49701   -372.90229   -725.00631   -28.582418    421.25043   -532.25279   -297.03615    83.027249 
   88400    118.31975   -105.68649   0.10705819   -105.57943   -1337.7581    4.3627294    4.3627294    4.3627294   -1337.7581   -72.951479   -820.84045   -3119.4823    285.46686   -1306.6551    758.04254    83.037608 
   88500    108.42058   -105.67718  0.098101223   -105.57908    250.64851    4.3625522    4.3625522    4.3625522    250.64851   -436.23359   -520.89318    1709.0723    644.69284    299.59218    382.66369    83.027487 
   88600    78.512264   -105.65035  0.071039546   -105.57931   -1257.9394    4.3625874    4.3625874    4.3625874   -1257.9394   -1820.3578   -2574.4748    621.01442   -608.98979   -2414.0467   -283.09706    83.029501 
   88700    90.859059    -105.6616  0.082211186   -105.57939    831.73316    4.3625305    4.3625305    4.3625305    831.73316    2066.7982   -2582.4894    3010.8907    760.59607    1031.7432   -100.06672    83.026251 
   88800    138.23696   -105.70417   0.12507971   -105.57909   -367.82668     4.362411     4.362411     4.362411   -367.82668    1212.7041    -1200.009   -1116.1752   -149.50697   -629.53658   -985.74162    83.019429 
   88900    73.832288   -105.64627  0.066805005   -105.57946   -957.59928    4.3628232    4.3628232    4.3628232   -957.59928    388.57277   -3759.8055    498.43491   -138.16077   -1238.9767     271.9173    83.042962 
   89000    95.663998   -105.66569  0.086558795   -105.57913   -738.32939    4.3623713    4.3623713    4.3623713   -738.32939   -1344.1781   -3351.6772    2480.8672   -496.07357    139.76233   -933.71238    83.017164 
   89100    109.49491   -105.67837  0.099073297    -105.5793   -431.37903    4.3626557    4.3626557    4.3626557   -431.37903   -104.49044    370.69153   -1560.3382    -117.9533   -969.38081   -427.42498    83.033398 
   89200    104.59061   -105.67396  0.094635778   -105.57932    512.48513    4.3624554    4.3624554    4.3624554    512.48513   -653.21211   -44.511281    2235.1788   -140.39452   -340.04682   -496.98895    83.021964 
   89300    103.45208   -105.67262  0.093605619   -105.57902   -418.93302    4.3625077    4.3625077    4.3625077   -418.93302    770.26817   -1745.8709   -281.19629       835.85   -135.12479    897.52528     83.02495 
   89400    65.388345   -105.63873  0.059164749   -105.57957    751.11753    4.3627366    4.3627366    4.3627366    751.11753    1027.8177   -4191.9011     5417.436   -544.12104   -2280.7638   -200.32406     83.03802 
   89500     142.3809   -105.70802   0.12882923   -105.57919    127.12393    4.3620192    4.3620192    4.3620192    127.12393    2469.5223   -1475.6152    -612.5353    1042.5616    1215.7657    474.55623    82.997063 
   89600    90.879356   -105.66167  0.082229551   -105.57944    113.43094    4.3630301    4.3630301    4.3630301    113.43094    160.67622   -1717.1643    1896.7809    597.53424   -985.44783   -334.98405    83.054779 
   89700     76.02919   -105.64817  0.068792809   -105.57938   -1007.9784    4.3620913    4.3620913    4.3620913   -1007.9784    1037.4347    -3464.694   -596.67593    545.07944   -1094.8437    325.40689    83.001178 
   89800    117.08776   -105.68501   0.10594346   -105.57906    105.41146    4.3628032    4.3628032    4.3628032    105.41146   -1359.3286   -416.05138    2091.6143    137.27288    426.39143   -31.713405    83.041824 
   89900    104.00296   -105.67363  0.094104066   -105.57952    804.83746    4.3622259    4.3622259    4.3622259    804.83746    1987.8901   -700.09479    1126.7171   -339.99868   -1387.2115   -1035.1089     83.00886 
   90000    105.92411   -105.67504  0.095842357   -105.57919    318.75824    4.3623581    4.3623581    4.3623581    318.75824   -1043.6558    628.31542    1371.6152   -159.75396    670.66312   -503.80022     83.01641 
   90100    71.000487   -105.64354  0.064242733    -105.5793    922.84036    4.3627989    4.3627989    4.3627989    922.84036    4993.3788   -4136.2147     1911.357   -20.166304   -1087.9532    50.298093    83.041577 
   90200    117.03237   -105.68523   0.10589335   -105.57934   -742.57348    4.3619083    4.3619083    4.3619083   -742.57348   -554.07363   -1776.7514    103.10463   -789.88679   -1542.9804   -169.19806    82.990729 
   90300    118.71979   -105.68643   0.10742016   -105.57901    178.78063    4.3632408    4.3632408    4.3632408    178.78063    1871.2076   -2231.9898    897.12409   -241.68359    660.19134   -12.681866     83.06681 
   90400    78.376021   -105.65016  0.070916271   -105.57924   -1766.0973    4.3620316    4.3620316    4.3620316   -1766.0973   -1620.1789   -2796.0798   -882.03335     648.1897   -1334.5513     214.9199     82.99777 
   90500    89.183854   -105.65987  0.080695426   -105.57917   -217.98832    4.3629502    4.3629502    4.3629502   -217.98832    -33.09152    242.46195    -863.3354    222.63337   -1224.6768    22.769806    83.050219 
   90600    123.53514    -105.6909   0.11177719   -105.57912    662.46144    4.3623707    4.3623707    4.3623707    662.46144    1582.5293   -1252.1998    1657.0548    936.90598     45.89395    1354.8557    83.017125 
   90700    98.938266   -105.66896  0.089521422   -105.57944   -351.41347    4.3622674    4.3622674    4.3622674   -351.41347   -2727.7995    819.80829    853.75085    213.51444   -2220.3735   -903.88851    83.011231 
   90800    83.801322   -105.65495  0.075825197   -105.57912    260.72429    4.3632353    4.3632353    4.3632353    260.72429    4142.0271   -4680.4185    1320.5643    562.26791    1390.5759    163.60171    83.066497 
   90900    99.945779   -105.66981  0.090433041   -105.57938   -1158.4877    4.3617536    4.3617536    4.3617536   -1158.4877   -637.70574   -1141.4319   -1696.3253    532.55181   -2466.9974   -157.09118    82.981904 
   91000    115.34402   -105.68367   0.10436569    -105.5793    -692.1552    4.3635593    4.3635593    4.3635593    -692.1552    870.84912   -1951.1976   -996.11716   -278.13663   -311.19748   -15.187166    83.085007 
   91100    100.10503   -105.66974  0.090577134   -105.57917   -907.01646    4.3617885    4.3617885    4.3617885   -907.01646   -2619.6226   -2840.9933    2739.5665   -919.53201   -106.86723   -208.91249    82.983893 
   91200    76.116161   -105.64837  0.068871502    -105.5795   -1877.1011    4.3632364    4.3632364    4.3632364   -1877.1011   -1412.8025   -1502.0488    -2716.452    207.45855    -1040.334   -267.52451    83.066559 
   91300    116.75686   -105.68492   0.10564406   -105.57928    1502.9676    4.3624217    4.3624217    4.3624217    1502.9676    2389.8312   -485.60077    2604.6724   -640.04217   -344.72666   -230.05683    83.020042 
   91400    113.07911   -105.68174   0.10231635   -105.57942    478.64121    4.3618046    4.3618046    4.3618046    478.64121   -694.17293    1788.1014    341.99518    354.84886   -1035.8233    1432.9257     82.98481 
   91500    75.086674   -105.64722      0.06794   -105.57928   -75.718538    4.3636726    4.3636726    4.3636726   -75.718538    473.88992   -4612.0974    3911.0518   -50.966933   -533.57011   -790.64192    83.091475 
   91600    105.77411   -105.67468  0.095706638   -105.57897   -349.61914    4.3612834    4.3612834    4.3612834   -349.61914    2820.3711   -2987.9187   -881.30984    316.65172      270.486     288.9956    82.955067 
   91700    107.69801   -105.67686  0.097447422   -105.57941    -1390.094    4.3638133    4.3638133    4.3638133    -1390.094    -1232.624    -1808.711   -1128.9471    1205.2772   -1594.2858    11.832338    83.099512 
   91800    106.99006   -105.67591  0.096806852    -105.5791    885.18804     4.361639     4.361639     4.361639    885.18804    1521.0443   -902.97664    2037.4965    298.64058   -284.72977   -232.93178    82.975363 
   91900    80.327328   -105.65197  0.072681855   -105.57928   -727.94106    4.3626902    4.3626902    4.3626902   -727.94106   -3654.3585   -2186.2827     3656.818   -276.67841   -79.238815    360.56376     83.03537 
   92000    92.268435   -105.66292  0.083486419   -105.57943    948.79514    4.3630401    4.3630401    4.3630401    948.79514    5087.2206    -1573.101   -667.73412    520.66461   -880.21018   -864.16246    83.055349 
   92100    145.69557   -105.71083   0.13182842     -105.579    1381.8605    4.3612721    4.3612721    4.3612721    1381.8605    451.09245    1054.1114    2640.3776   -676.35255    283.55074   -73.243275    82.954426 
   92200    61.366236   -105.63505   0.05552546   -105.57953    748.38336    4.3636722    4.3636722    4.3636722    748.38336    2846.6192   -1836.6592    1235.1901    2.9182416   -1738.2604    826.19548    83.091454 
   92300    100.28385   -105.66975  0.090738933   -105.57901   -362.02454    4.3613413    4.3613413    4.3613413   -362.02454   -276.45151   -3900.8302    3091.2081   -295.83188    835.98807    22.056632    82.958373 
   92400    107.77929   -105.67676  0.097520962   -105.57924   -825.82014    4.3632686    4.3632686    4.3632686   -825.82014    2739.7287   -2833.7225   -2383.4666   -737.09445   -886.88053   -11.665327    83.068402 
   92500    114.23148   -105.68282   0.10335904   -105.57946   -699.57781    4.3624244    4.3624244    4.3624244   -699.57781   -345.97176   -828.76304   -923.99862     1053.258   -654.24388    450.91688    83.020192 
   92600    94.997906   -105.66512  0.085956102   -105.57916     845.9237     4.361788     4.361788     4.361788     845.9237   -726.04229   -1448.8326     4712.646    123.54538   -798.46768   -136.69576    82.983864 
   92700     61.69577   -105.63539   0.05582363   -105.57956    599.51505    4.3634932    4.3634932    4.3634932    599.51505    2354.5027    -671.2973    115.33976    57.954006   -322.11949    843.99819     83.08123 
   92800    146.65968   -105.71174   0.13270076   -105.57904    432.33818    4.3613707    4.3613707    4.3613707    432.33818    1378.7318   -772.19902    690.48173    722.21421   -716.19739   -1029.9406    82.960049 
   92900    97.154924   -105.66718  0.087907817   -105.57927    74.295074    4.3635869    4.3635869    4.3635869    74.295074    3659.3208   -1269.1394   -2167.2962   -115.85518   -574.65953   -142.09245    83.086583 
   93000    74.170786   -105.64661  0.067111286    -105.5795    -1797.851    4.3621001    4.3621001    4.3621001    -1797.851   -3362.6249   -4039.6769    2008.7488    240.08096   -1869.3478    241.19923     83.00168 
   93100    103.56122   -105.67287  0.093704366   -105.57916    -501.5836    4.3627872    4.3627872    4.3627872    -501.5836    2142.8986   -2902.6393   -745.01008   -242.39503    818.49577    296.96093    83.040908 
   93200    113.96527   -105.68257   0.10311817   -105.57945   -1797.3179    4.3631444    4.3631444    4.3631444   -1797.3179   -2305.5927   -553.24406   -2533.1171    -1039.719   -1826.4048   -25.760991    83.061308 
   93300    108.99587   -105.67774  0.098621751   -105.57912   -287.51247    4.3618609    4.3618609    4.3618609   -287.51247    722.85465   -2454.8605    869.46842    578.26097   -106.54129    494.30625    82.988027 
   93400    72.193294   -105.64453   0.06532201   -105.57921     555.7034    4.3633604    4.3633604    4.3633604     555.7034   -329.09432   -526.37223    2522.5768   -139.18908   -1207.2253    278.79101    83.073645 
   93500    104.16576   -105.67364   0.09425137   -105.57938    64.049233    4.3617804    4.3617804    4.3617804    64.049233    1165.9378   -750.04993    -223.7402   -83.904164   -784.16962    1105.4792     82.98343 
   93600     123.3068   -105.69049   0.11157059   -105.57892    423.85465    4.3630039    4.3630039    4.3630039    423.85465    1497.8663    57.002866    -283.3052    545.41504    591.65694   -115.31489    83.053281 
   93700    88.317317   -105.65916  0.079911364   -105.57925   -2824.4723    4.3627374    4.3627374    4.3627374   -2824.4723   -1342.5602   -4574.0282   -2556.8285   -42.720284   -2283.7848   -470.23741    83.038062 
   93800    80.679186   -105.65235  0.073000223   -105.57935   -647.41037    4.3622223    4.3622223    4.3622223   -647.41037   -1625.1757   -3926.5845    3609.5291    548.12003     175.5167    57.775577    83.008653 
   93900    121.69046   -105.68935   0.11010809   -105.57924   -369.92257    4.3632923    4.3632923    4.3632923   -369.92257    614.43558   -116.01326     -1608.19    138.98955   -874.63151   -49.798956    83.069754 
   94000    102.22774   -105.67201  0.092497809   -105.57951   -150.52089    4.3618429    4.3618429    4.3618429   -150.52089   -2056.5008   -780.51526    2385.4534   -933.35128   -445.01677   -410.53355       82.987 
   94100    85.192948   -105.65623   0.07708437   -105.57915    1204.1274    4.3630701    4.3630701    4.3630701    1204.1274    4082.0427   -1041.9031     572.2425     124.4387   -474.76064   -179.34313    83.057065 
   94200    105.48551   -105.67477  0.095445508   -105.57932   -554.95513    4.3622952    4.3622952    4.3622952   -554.95513   -1759.5306   -2416.1904    2510.8556    -196.5619   -1212.0308   -69.678475    83.012817 
   94300    96.783681   -105.66714  0.087571909   -105.57956    1886.5247    4.3622988    4.3622988    4.3622988    1886.5247    4411.1473    893.59343    354.83351   -395.86798    -116.5286    837.71627    83.013023 
   94400    124.56654   -105.69186   0.11271043   -105.57915   -1766.5189    4.3629398    4.3629398    4.3629398   -1766.5189   -2098.3868   -2916.3379   -284.83184    230.61705    462.80464    708.00208     83.04962 
   94500    54.985986   -105.62936  0.049752476   -105.57961   -306.80237    4.3618741    4.3618741    4.3618741   -306.80237    1219.7382    -3877.817    1737.6717     31.00837   -2096.7266   -506.99346     82.98878 
   94600    131.53599   -105.69808   0.11901653   -105.57906   -256.97522    4.3632015    4.3632015    4.3632015   -256.97522    716.33767    -1965.968    478.70472    671.37625    1165.3211    718.43863    83.064566 
   94700    105.08299   -105.67443  0.095081302   -105.57935    1831.0587    4.3616751    4.3616751    4.3616751    1831.0587    744.24966     310.6278    4438.2987    677.96053   -1486.2278    45.737889    82.977423 
   94800    78.995022   -105.65078  0.071476356    -105.5793    1150.3755    4.3626599    4.3626599    4.3626599    1150.3755    3890.7467    214.36804   -653.98835   -380.92714    416.02378   -150.47005    83.033637 
   94900    110.36508   -105.67883  0.099860646   -105.57897    194.93635    4.3625897    4.3625897    4.3625897    194.93635    598.64453   -2263.3976    2249.5621    202.34741   -559.45026   -395.59104    83.029633 
   95000    88.304544   -105.65945  0.079899807   -105.57955    844.96418    4.3619901    4.3619901    4.3619901    844.96418    4159.9499   -373.78551   -1251.2719    22.250963   -1534.4396   -687.75508    82.995403 
   95100    136.76982   -105.70275   0.12375221     -105.579   -1693.4343    4.3634673    4.3634673    4.3634673   -1693.4343   -2753.6523   -3094.8755    768.22504   -726.74593    552.50112    220.97161     83.07975 
   95200    55.970675   -105.63013  0.050643443   -105.57948    507.16932    4.3616256    4.3616256    4.3616256    507.16932     3219.024   -2714.3408    1016.8247   -212.18093   -749.47394    620.68355    82.974596 
   95300    110.96443   -105.67975   0.10040295   -105.57935      -2104.8    4.3634579    4.3634579    4.3634579      -2104.8   -1554.4127   -2602.2121   -2157.7753   -552.58793   -1512.5657   -655.58824     83.07921 
   95400    121.94719   -105.68949   0.11034038   -105.57915    2137.1753    4.3620716    4.3620716    4.3620716    2137.1753    3510.8928    62.025076    2838.6081    36.146601    307.96302    568.66607     83.00005 
   95500    83.996528   -105.65554  0.076001823   -105.57953    172.18059    4.3623479    4.3623479    4.3623479    172.18059    72.985897   -698.25638    1141.8122    738.28807   -1597.7873    412.83264    83.015824 
   95600    94.922921   -105.66509  0.085888253    -105.5792   -453.97174    4.3632166    4.3632166    4.3632166   -453.97174    1602.2214   -1944.8444   -1019.2922   -290.60475    498.54189    338.47476    83.065428 
   95700    96.744165   -105.66698  0.087536154   -105.57944    257.78224    4.3614458    4.3614458    4.3614458    257.78224    1637.1071   -135.14203   -728.61836    459.95902    -848.5704    134.90591    82.964333 
   95800     124.3826   -105.69194   0.11254399   -105.57939   -3011.5779    4.3640508    4.3640508    4.3640508   -3011.5779   -2513.3673    -2899.526   -3621.8405     604.1142   -1916.1218    -894.5527     83.11308 
   95900    84.602784   -105.65563  0.076550377   -105.57908    491.41459    4.3615859    4.3615859    4.3615859    491.41459   -744.00624   -3401.3527    5619.6027   -131.24534    1568.0587    295.81263     82.97233 
   96000    83.868257   -105.65523  0.075885762   -105.57934    -2172.652    4.3631767    4.3631767    4.3631767    -2172.652     663.7714   -3738.9238   -3442.8037    -17.94017   -2281.5404    271.32241    83.063149 
   96100    120.98079   -105.68865   0.10946596   -105.57918    653.87495    4.3628968    4.3628968    4.3628968    653.87495   -259.16371    906.10849    1314.6801   -559.24387     86.46164   -670.79405    83.047166 
   96200    107.67901   -105.67675   0.09743023   -105.57932    1084.7556    4.3616428    4.3616428    4.3616428    1084.7556    3107.2519   -244.41403    391.42881   -325.00876   -1069.2692    103.71085    82.975575 
   96300    76.669269   -105.64885  0.069371966   -105.57948   -1707.7224    4.3639787    4.3639787    4.3639787   -1707.7224   -3662.8881   -2699.2655    1238.9864    425.03458   -952.25601     40.25461    83.108965 
   96400    98.191836     -105.668  0.088846037   -105.57915     873.5111    4.3611818    4.3611818    4.3611818     873.5111    3987.0302   -1929.6926    563.19567   -638.99774    246.85742     392.7419    82.949269 
   96500    127.69045   -105.69484     0.115537    -105.5793    -2969.911    4.3638032    4.3638032    4.3638032    -2969.911   -3015.5895    -1387.252   -4506.8914    254.57877    -1259.368    306.73907    83.098936 
   96600    81.613727   -105.65317  0.073845815   -105.57932    1010.3438     4.362082     4.362082     4.362082    1010.3438    2.3333691   -2182.4027    5211.1008    624.82367   -975.30546   -883.41217    83.000647 
   96700    99.605752   -105.66916  0.090125377   -105.57904   -750.17744     4.362195     4.362195     4.362195   -750.17744    793.62119   -4781.5419    1737.3884    165.78405    919.61155    108.45248    83.007098 
   96800    85.401901   -105.65674  0.077273435   -105.57947    631.10645    4.3634585    4.3634585    4.3634585    631.10645    946.47791   -427.66937    1374.5108     652.9385   -1423.8251    128.84413    83.079248 
   96900    141.67786   -105.70719   0.12819311     -105.579    1455.0028    4.3610863    4.3610863    4.3610863    1455.0028    4445.1826    538.81227   -618.98645   -165.53936    422.14161   -409.65655     82.94382 
   97000    76.196185   -105.64843   0.06894391   -105.57948    -616.5587    4.3639743    4.3639743    4.3639743    -616.5587   -2533.8497   -875.30189    1559.4755   -58.142728   -1053.5431   -388.11947    83.108714 
   97100    74.244083   -105.64661  0.067177606   -105.57943    750.49666     4.361347     4.361347     4.361347    750.49666    2803.5283   -3010.5771    2458.5388    686.01878   -295.84031   -116.49865      82.9587 
   97200    141.38435   -105.70691   0.12792753   -105.57898   -1466.6111    4.3631353    4.3631353    4.3631353   -1466.6111   -484.55366   -2420.9791   -1494.3006    -682.7152     341.7823    366.37311    83.060788 
   97300    86.586542   -105.65787  0.078345323   -105.57953   -71.654254    4.3628449    4.3628449    4.3628449   -71.654254    1258.6943   -1684.1251    210.46805    83.046669   -1704.7164    547.79428    83.044203 
   97400    103.30821   -105.67257  0.093475437   -105.57909    472.63099    4.3616032    4.3616032    4.3616032    472.63099    422.32936   -3416.1304     4411.694    113.31127   -281.10476   -512.46492     82.97332 
   97500    72.933987   -105.64552  0.065992204   -105.57953    1014.4876    4.3635315    4.3635315    4.3635315    1014.4876    2903.1615    -1316.244    1456.5452    283.55945   -145.67678    18.011888    83.083415 
   97600    127.89528   -105.69512   0.11572234    -105.5794    565.46177    4.3612843    4.3612843    4.3612843    565.46177    2331.0581   -178.35216    -456.3206     488.2489   -838.54783    236.85236     82.95512 
   97700    112.21847   -105.68059   0.10153763   -105.57905   -296.54297    4.3635657    4.3635657    4.3635657   -296.54297    1658.8211   -831.62451   -1716.8255    -212.0629   -299.85947   -327.04793     83.08537 
   97800    63.019274   -105.63649  0.057021163   -105.57947   -991.08631    4.3621468    4.3621468    4.3621468   -991.08631   -2537.4033   -2470.6039    2034.7483    125.92163   -935.72671   -532.36708    83.004346 
   97900    112.13963   -105.68049    0.1014663   -105.57903    131.12315    4.3623752    4.3623752    4.3623752    131.12315    2665.2055   -2048.2951   -223.54099    510.14764   -72.678264   -709.11277    83.017382 
   98000     116.2928   -105.68443   0.10522417    -105.5792    -998.6229    4.3633742    4.3633742    4.3633742    -998.6229   -940.76941   -2558.2539    503.15457   -262.35728   -107.80875    19.582731    83.074433 
   98100    92.128899   -105.66263  0.083360164   -105.57927   -564.43591    4.3617003    4.3617003    4.3617003   -564.43591    2263.7509     -3443.73   -513.32864   -108.04192   -1530.7733    293.70506     82.97886 
   98200    93.234787   -105.66345  0.084360794   -105.57909    301.62122    4.3635822    4.3635822    4.3635822    301.62122   -1.8264762   -2555.2597    3461.9499    168.75905    51.324997   -8.0032563     83.08631 
   98300    91.054649   -105.66199   0.08238816    -105.5796    805.54054    4.3615875    4.3615875    4.3615875    805.54054    2554.8997    981.05569   -1119.3338   -62.996074   -1271.7926   -159.03982    82.972424 
   98400    127.99242   -105.69485   0.11581023   -105.57904   -765.69781    4.3631792    4.3631792    4.3631792   -765.69781    43.938276   -1079.8868   -1261.1449    899.89838    222.93345    674.94106    83.063293 
   98500    80.181465   -105.65176  0.072549875   -105.57921   -1159.5095    4.3626851    4.3626851    4.3626851   -1159.5095   -497.51015   -3050.7636    69.745323    -335.5281   -1693.8943    238.71332    83.035077 
   98600    95.797995   -105.66607  0.086680039   -105.57939    -1482.442     4.362309     4.362309     4.362309    -1482.442   -1437.6024   -3007.7914   -1.9321452    502.70217   -609.95381   -65.559989    83.013604 
   98700    114.11352   -105.68244   0.10325231   -105.57919    1364.4954    4.3630257    4.3630257    4.3630257    1364.4954     2095.619   -1556.8307    3554.6978    106.85159    153.86294    -875.1559    83.054527 
   98800    95.626725   -105.66611  0.086525071   -105.57958   -642.03343    4.3618896    4.3618896    4.3618896   -642.03343    692.72232   -2247.5746   -371.24806    355.04224   -829.99603   -413.58306    82.989663 
   98900    92.124679   -105.66258  0.083356346   -105.57922   -437.50072    4.3634554    4.3634554    4.3634554   -437.50072    1331.4306   -4635.9881    1992.0554   -528.03334   -186.79265   -236.80987    83.079071 
   99000    105.52809   -105.67472   0.09548403   -105.57924    713.03408    4.3618849    4.3618849    4.3618849    713.03408      1267.45    725.72081    145.93141    47.112278   -738.99662   -537.57273    82.989395 
   99100    105.77463   -105.67513  0.095707104   -105.57943   -263.40035     4.362825     4.362825     4.362825   -263.40035   -548.53241   -786.22099    544.55237   -411.13639   -236.11058   -782.86331    83.043065 
   99200    92.945744   -105.66312  0.084099263   -105.57903    567.81562    4.3626376    4.3626376    4.3626376    567.81562    1252.3726   -994.62186    1445.6961     854.3909    495.66152    311.99088    83.032365 
   99300    94.116209   -105.66448  0.085158324   -105.57932   -1818.1293    4.3622578    4.3622578    4.3622578   -1818.1293   -1611.5977   -4350.8424    508.05225   -344.00317   -1967.0193    263.07523    83.010681 
   99400    107.09949   -105.67626  0.096905865   -105.57936     947.0693    4.3630342    4.3630342    4.3630342     947.0693    3171.4102   -2595.5919    2265.3896    738.87415     227.9651    688.60234    83.055012 
   99500    118.96927   -105.68685   0.10764589    -105.5792    886.26558    4.3617034    4.3617034    4.3617034    886.26558    551.62628   -1094.6663    3201.8367    569.65366   -386.36169   -144.65433    82.979036 
   99600    60.146063   -105.63397  0.054421422   -105.57955    60.399296    4.3630009    4.3630009    4.3630009    60.399296    3539.7937   -4058.0032    699.40737    786.96386   -1084.7031   -59.835433    83.053111 
   99700    120.64757   -105.68819   0.10916445   -105.57903   -306.37844    4.3624638    4.3624638    4.3624638   -306.37844   -1154.5734    496.08062    -260.6425    323.74942    401.20803    535.72459    83.022441 
   99800    110.80809   -105.67961   0.10026149   -105.57935   -151.52618    4.3623626    4.3623626    4.3623626   -151.52618     2638.713   -1855.3638   -1237.9278    -32.70035   -1686.3792   -398.02543    83.016664 
   99900    89.651002   -105.66041  0.081118111    -105.5793    151.69522    4.3630676    4.3630676    4.3630676    151.69522   -2654.1214   -96.143786    3205.3509   -66.642202    504.67388   -671.11355    83.056921 
  100000     96.11708   -105.66604  0.086968754   -105.57907    -323.7451    4.3619643    4.3619643    4.3619643    -323.7451    2626.6467   -4045.4087     447.5267   -168.63274     161.8013   -756.51599    82.993926 
Loop time of 21.4934 on 1 procs for 100000 steps with 8 atoms

Pair  time (%) = 6.56096 (30.5254)
Kspce time (%) = 5.26784 (24.5091)
Neigh time (%) = 0 (0)
Comm  time (%) = 1.05235 (4.89612)
Outpt time (%) = 0.0231009 (0.107479)
Other time (%) = 8.5892 (39.9619)

Nlocal:    8 ave 8 max 8 min
Histogram: 1 0 0 0 0 0 0 0 0 0
Nghost:    2189 ave 2189 max 2189 min
Histogram: 1 0 0 0 0 0 0 0 0 0
Neighs:    2056 ave 2056 max 2056 min
Histogram: 1 0 0 0 0 0 0 0 0 0

Total # of neighbors = 2056
Ave neighs/atom = 257
Neighbor list builds = 0
Dangerous builds = 0
unfix 20
unfix 21
print "seeds:1997350"
seeds:1997350
