LAMMPS (10 Feb 2015)
# ---- initialize simulations
clear
units metal
dimension 3
boundary p p p
atom_style charge
atom_modify map array
# ---- create atoms
read_data /Users/eugeneragasa/pyflamestk_git/pypospack/tests/tests_integration/workflow/WorkflowLammpsThermalExpansion/param_7495/MgO_NaCl_unit.npt.T600/lammps.structure
  triclinic box = (0 0 0) to (4.2565 4.2565 4.2565) with tilt (0 0 0)
  1 by 1 by 1 MPI processor grid
  reading atoms ...
  8 atoms
# ---- define interatomic potential
include potential.mod
mass 1 24.305
mass 2 15.999

group Mg type 1
4 atoms in group Mg
group O type 2
4 atoms in group O

set group Mg charge 1.61805343549
  4 settings made for charge
set group O charge -1.61805343549
  4 settings made for charge

variable R_cut equal 10.0

pair_style buck/coul/long ${R_cut}
pair_style buck/coul/long 10
pair_coeff 1 1 0.0 0.5 0.0 ${R_cut}
pair_coeff 1 1 0.0 0.5 0.0 10
pair_coeff 1 2 1411.7842896 0.281421547192 0.0 ${R_cut}
pair_coeff 1 2 1411.7842896 0.281421547192 0.0 10
pair_coeff 2 2 12275.1016291 0.0833185517679 22.1397903537 ${R_cut}
pair_coeff 2 2 12275.1016291 0.0833185517679 22.1397903537 10

kspace_style pppm 1.0e-5

neighbor 1.0 bin
neigh_modify every 1 delay 0 check yes
# ---- define settings
compute eng all pe/atom
compute eatoms all reduce sum c_eng
# ---- run minimization
reset_timestep 0
fix 1 all box/relax iso 0.0 vmax 0.001
thermo 10
thermo_style custom step pe lx ly lz xy xz yz press pxx pyy pzz pxy pxz pyz c_eatoms
min_style cg
minimize 1e-25 1e-25 5000 10000
PPPM initialization ...
  G vector (1/distance) = 0.352505
  grid = 8 8 8
  stencil order = 5
  estimated absolute RMS force accuracy = 3.81397e-05
  estimated relative force accuracy = 2.64865e-06
  using double precision FFTs
  3d grid and FFT values/proc = 3375 512
Neighbor list info ...
  1 neighbor list requests
  update every 1 steps, delay 0 steps, check yes
  master list distance cutoff = 11
Memory usage per processor = 4.06549 Mbytes
Step PotEng Lx Ly Lz Xy Xz Yz Press Pxx Pyy Pzz Pxy Pxz Pyz eatoms 
       0   -106.97328       4.2565       4.2565       4.2565            0            0            0    38192.574    38192.574    38192.574    38192.574 8.7875882e-11 -6.3416216e-11 -7.5192229e-11   -106.97328 
       9   -106.99342    4.2893301    4.2893301    4.2893301            0            0            0     -3.54441     -3.54441     -3.54441     -3.54441 -1.7895043e-11 -1.1181496e-10 -2.9549514e-11   -106.99342 
Loop time of 0.00917315 on 1 procs for 9 steps with 8 atoms

Minimization stats:
  Stopping criterion = linesearch alpha is zero
  Energy initial, next-to-last, final = 
        -106.973281584     -106.993416645     -106.993416645
  Force two-norm initial, final = 5.51503 0.00172663
  Force max component initial, final = 5.51503 0.00051974
  Final line search alpha, max atom move = 0.00390625 2.03024e-06
  Iterations, force evaluations = 9 26

Pair  time (%) = 0.00245357 (26.7472)
Kspce time (%) = 0.00148273 (16.1637)
Neigh time (%) = 0 (0)
Comm  time (%) = 0.000293255 (3.19688)
Outpt time (%) = 0 (0)
Other time (%) = 0.00494361 (53.8921)

Nlocal:    8 ave 8 max 8 min
Histogram: 1 0 0 0 0 0 0 0 0 0
Nghost:    2189 ave 2189 max 2189 min
Histogram: 1 0 0 0 0 0 0 0 0 0
Neighs:    2344 ave 2344 max 2344 min
Histogram: 1 0 0 0 0 0 0 0 0 0

Total # of neighbors = 2344
Ave neighs/atom = 293
Neighbor list builds = 0
Dangerous builds = 0
unfix 1
# ---- define output variables ----
variable natoms equal "count(all)"
variable tot_energy equal "c_eatoms"
variable length_x equal "lx"
variable length_y equal "ly"
variable length_z equal "lz"
variable tilt_xy equal "xy"
variable tilt_xz equal "xz"
variable tilt_yz equal "yz"
variable tot_press equal "press"
variable press_xx equal "pxx"
variable press_yy equal "pyy"
variable press_zz equal "pzz"
variable press_xy equal "pxy"
variable press_xz equal "pxz"
variable press_yz equal "pyz"

# ---- output ----
print "pypospack:output_section:begin"
pypospack:output_section:begin
print "tot_energy = ${tot_energy}"
tot_energy = -106.993416644887
print "num_atoms = ${natoms}"
num_atoms = 8
print "xx = ${length_x}"
xx = 4.28933011317114
print "yy = ${length_y}"
yy = 4.28933011317114
print "zz = ${length_z}"
zz = 4.28933011317114
print "xy = ${tilt_xy}"
xy = 0
print "xz = ${tilt_xz}"
xz = 0
print "yz = ${tilt_yz}"
yz = 0
print "tot_press = ${tot_press}"
tot_press = -3.54441004469774
print "pxx = ${press_xx}"
pxx = -3.5444100447524
print "pyy = ${press_yy}"
pyy = -3.54441004470836
print "pzz = ${press_zz}"
pzz = -3.54441004463246
print "pxy = ${press_xy}"
pxy = -1.78950429729069e-11
print "pxz = ${press_xz}"
pxz = -1.1181495634962e-10
print "pyz = ${press_yz}"
pyz = -2.95495135207349e-11
print "pypospack:output_section:done"
pypospack:output_section:done
print "pypospack:lammps_sim:done"
pypospack:lammps_sim:done
#------------------------------------------------------------------------------
# RUN THERMOSTAT
# running using an NPT Nose-Hoover style thermostat
#------------------------------------------------------------------------------
variable tempdamp equal 0.1
variable pressdamp equal 1.0
# set initial velocities
velocity all create 600 2406304 mom yes dist gaussian loop all
# fix for Nose-Hoover style thermostat
fix 20 all npt temp 600 600 0.1 aniso 0.0 0.0 1.0 drag 1.0 couple xyz
variable boxx equal lx
variable boxy equal ly
variable boxz equal lz
variable boxp equal press
variable boxt equal temp
# calculate averages every 10000 steps
reset_timestep 0
fix 21 all ave/time 10 10 100 v_boxx v_boxy v_boxz v_boxp v_boxt file lattice.out
thermo_style custom step temp pe ke etotal press lx ly lz press pxx pyy pzz pxy pxz pyz vol
thermo_modify flush yes
thermo 100
run 100000
PPPM initialization ...
  G vector (1/distance) = 0.352181
  grid = 8 8 8
  stencil order = 5
  estimated absolute RMS force accuracy = 3.87093e-05
  estimated relative force accuracy = 2.68821e-06
  using double precision FFTs
  3d grid and FFT values/proc = 3375 512
Memory usage per processor = 3.06549 Mbytes
Step Temp PotEng KinEng TotEng Press Lx Ly Lz Press Pxx Pyy Pzz Pxy Pxz Pyz Volume 
       0          600   -106.99342   0.54289261   -106.45053    7343.3418    4.2893301    4.2893301    4.2893301    7343.3418    10854.494    6103.3178    5072.2137   -907.94133   -6168.4077     1698.708    78.916609 
     100    119.95955   -106.48532   0.10854192   -106.37678   -2307.3894     4.310702     4.310702     4.310702   -2307.3894   -1852.1511    6549.5131    -11619.53    115.31264    5895.4701    110.54283    80.102116 
     200    465.01551   -106.64608    0.4207558   -106.22532   -8055.5659    4.3083741    4.3083741    4.3083741   -8055.5659    -2353.059   -10583.579    -11230.06   -277.13427   -3954.8672    1570.2535    79.972415 
     300    557.95217   -106.60882   0.50484685   -106.10398    14994.344    4.3034036    4.3034036    4.3034036    14994.344    26718.421    16595.297    1669.3143    3118.9024    4441.8292    675.95583    79.695947 
     400    400.84812   -106.36637    0.3626958   -106.00367   -13165.267    4.3210242    4.3210242    4.3210242   -13165.267    -9564.994   -14580.701   -15350.105   -1909.5007    4557.6942    1179.7339    80.678923 
     500    824.38944   -106.67877   0.74592489   -105.93285    355.34097     4.309888     4.309888     4.309888    355.34097    11176.259   -1391.9299   -8718.3062    1775.6325    4260.3671   -6677.5223    80.056747 
     600    450.87327   -106.31448   0.40795961   -105.90652    8111.6437    4.3158967    4.3158967    4.3158967    8111.6437     5219.534    28515.822   -9400.4253    4851.2722    7197.1612    1852.6372    80.392056 
     700    503.17347   -106.35563   0.45528193   -105.90035   -15711.708    4.3184177    4.3184177    4.3184177   -15711.708   -12077.786   -17177.607   -17879.729    1202.5435    374.13216   -1899.1763    80.533011 
     800    801.57622   -106.62222   0.72528301   -105.89694    6849.8111    4.3125716    4.3125716    4.3125716    6849.8111    30531.865   -1164.9401   -8817.4912   -1839.6889    1587.8012    43.234662    80.206389 
     900    642.61232   -106.48628   0.58144913   -105.90483   -1481.7901    4.3147343    4.3147343    4.3147343   -1481.7901   -802.62148    9517.7219   -13160.471    -163.4094   -5052.7932    626.59414    80.327115 
    1000     360.8622   -106.23892    0.3265157    -105.9124    3461.4299    4.3147833    4.3147833    4.3147833    3461.4299     30733.24   -13247.679   -7101.2714     698.7134    178.89769   -1250.0524     80.32985 
    1100    678.63092   -106.52005   0.61403951   -105.90601    984.82552    4.3181697    4.3181697    4.3181697    984.82552    2535.6712    21161.888   -20743.082    872.06276   -5096.7311   -3534.3186    80.519137 
    1200    697.85993   -106.53725   0.63143833   -105.90581   -2151.2695    4.3080969    4.3080969    4.3080969   -2151.2695    3223.7511   -8477.2017   -1200.3578   -1002.8562    5071.0723    868.52756    79.956981 
    1300    499.89529   -106.36048   0.45231576   -105.90816   -5397.3786    4.3190384    4.3190384    4.3190384   -5397.3786    4931.6387   -7862.4862   -13261.288    858.29025   -1528.6718    -3791.466    80.567741 
    1400    802.03678   -106.62928   0.72569974   -105.90358   -7536.8946    4.3169561    4.3169561    4.3169561   -7536.8946   -9715.3131    2969.1317   -15864.502    663.39963     6710.861    1780.6833    80.451269 
    1500    324.33562    -106.2039   0.29346568   -105.91044     17449.12    4.3065959    4.3065959    4.3065959     17449.12    43624.807    1928.6989    6793.8547    5761.3768    3512.1579   -3589.6489    79.873436 
    1600    664.86736   -106.51093   0.60158596   -105.90934   -16338.093    4.3242231    4.3242231    4.3242231   -16338.093   -17441.667   -7980.8042   -23591.806   -89.216058    3064.4139    1305.3826     80.85824 
    1700    764.50907   -106.59305   0.69174387    -105.9013    13062.784    4.3095446    4.3095446    4.3095446    13062.784    31803.897    9790.6679   -2406.2113   -2515.7452    1778.5618    1689.7172    80.037618 
    1800    489.28395   -106.34812    0.4427144    -105.9054   -10484.591    4.3146896    4.3146896    4.3146896   -10484.591   -11516.419   -14674.969   -5262.3856    279.31731     2455.761   -2251.2961     80.32462 
    1900    498.30269   -106.35527   0.45087474   -105.90439   -5212.1877    4.3187219    4.3187219    4.3187219   -5212.1877   -2640.7073    4775.8181   -17771.674   -958.23969   -5509.0527    3842.0065    80.550031 
    2000    705.78271   -106.54138   0.63860703   -105.90277    10938.633    4.3084625    4.3084625    4.3084625    10938.633    29170.956    6170.4167   -2525.4737    3937.1778    1514.7706      518.821     79.97734 
    2100    542.61342   -106.40073   0.49096802   -105.90977    -15275.54    4.3190284    4.3190284    4.3190284    -15275.54   -15584.643   -16835.815   -13406.161    3097.2697   -2086.3327    1518.9615    80.567181 
    2200    680.82081   -106.52066   0.61602098   -105.90464    5978.0265    4.3143734    4.3143734    4.3143734    5978.0265    25719.913   -3076.7872    -4709.046    -3586.746   -1077.4778    3210.0884    80.306961 
    2300    642.91011   -106.48443   0.58171858   -105.90271   -1836.1563    4.3131045    4.3131045    4.3131045   -1836.1563   -231.97411    7107.6057     -12384.1    9037.4977    6443.0985   -3309.2579    80.236124 
    2400    283.92175   -106.16571   0.25689837   -105.90882   -4359.2911    4.3162056    4.3162056    4.3162056   -4359.2911    11520.742   -13687.053   -10911.563   -2566.7153    197.70976    750.82008    80.409318 
    2500     880.5171   -106.70035   0.79671038   -105.90364    3636.7622    4.3122187    4.3122187    4.3122187    3636.7622    10555.839    7383.8331   -7029.3861    -344.5433    10101.036   -4993.8435    80.186701 
    2600     661.5408   -106.50593   0.59857602   -105.90735   -9919.4872    4.3175907    4.3175907    4.3175907   -9919.4872   -26.060933    -23498.16   -6234.2403   -4597.8681    -4868.899   -2699.4515    80.486753 
    2700    295.35224   -106.17879   0.26724091   -105.91155    9612.1668    4.3138057    4.3138057    4.3138057    9612.1668    35800.762   -4785.7245   -2178.5366   -4092.5693    2433.7339    725.86218    80.275266 
    2800    847.06597   -106.67192   0.76644309   -105.90548    1386.8501     4.312504     4.312504     4.312504    1386.8501    8303.9831    7854.9184   -11998.351    4307.8279   -7589.2084    909.23945    80.202617 
    2900      376.028   -106.25194   0.34023804    -105.9117    7367.5902    4.3140261    4.3140261    4.3140261    7367.5902    13222.648    9952.7457    -1072.623   -1226.7198    1047.5094    131.54252    80.287567 
    3000    743.81192   -106.57954   0.67301666   -105.90652    -13603.29    4.3187173    4.3187173    4.3187173    -13603.29   -6006.5461   -19268.557   -15534.765   -4950.4856   -2771.3588    4939.5582    80.549774 
    3100    706.81725   -106.54283    0.6395431   -105.90328    11411.575    4.3049852    4.3049852    4.3049852    11411.575    23502.392    10951.253   -218.92004    444.20662     1956.721    644.62949     79.78385 
    3200    317.03937   -106.20033   0.28686388   -105.91347    312.19445    4.3189286    4.3189286    4.3189286    312.19445    25868.862   -11464.523   -13467.756   -2426.9873    2495.7277    709.89749    80.561599 
    3300    726.69251   -106.56412   0.65752666    -105.9066   -10924.165    4.3202016    4.3202016    4.3202016   -10924.165   -7249.5094   -4577.4317   -20945.553   -501.03211    1611.7231    4861.6157    80.632858 
    3400    625.67073   -106.46725   0.56612003   -105.90113    27678.065    4.2964519    4.2964519    4.2964519    27678.065    31993.264    34319.736    16721.194   -2286.2211   -391.51907   -2706.4336    79.310351 
    3500    539.36089   -106.39394   0.48802506   -105.90592    -31954.52    4.3301891    4.3301891    4.3301891    -31954.52   -26822.919   -38634.176   -30406.466   -3905.9622    5177.5315   -626.74304    81.193372 
    3600     519.1997   -106.37207    0.4697828   -105.90229    9956.2881    4.3055308    4.3055308    4.3055308    9956.2881    12753.509    21443.738   -4328.3826    7945.5557   -3223.5667    1026.3309     79.81419 
    3700    728.50427   -106.56427   0.65916597    -105.9051    3297.3479    4.3055496    4.3055496    4.3055496    3297.3479    12485.144    4800.3799   -7393.4801   -4719.1772   -3289.7585   -2310.5257    79.815236 
    3800    483.24748   -106.34044   0.43725248   -105.90319   -25111.342    4.3329424    4.3329424    4.3329424   -25111.342    -17607.05   -27082.656   -30644.321    4406.4503    1325.8983    938.88437    81.348348 
    3900    612.26868   -106.44875   0.55399357   -105.89476    31535.914    4.2951186    4.2951186    4.2951186    31535.914    55777.411    35254.949    3575.3828    -2704.507   -5667.5004     1270.757    79.236534 
    4000    713.56921    -106.5512   0.64565242   -105.90555   -10412.295    4.3141602    4.3141602    4.3141602   -10412.295    455.96498    -12258.31   -19434.541   -2637.4464    4253.8673    2132.1433    80.295057 
    4100    272.43421   -106.15566    0.2465042   -105.90916   -4848.0957    4.3265201    4.3265201    4.3265201   -4848.0957    2563.4575    8045.4476   -25153.192   -2978.9198    687.98175     1805.907    80.987159 
    4200    928.45741   -106.74155   0.84008777   -105.90147    12729.611    4.2933919    4.2933919    4.2933919    12729.611    22952.621    9405.3039    5830.9074    6755.1765    511.02865    3239.3949    79.141013 
    4300     556.5854   -106.41809   0.50361017   -105.91448   -3093.3455    4.3176118    4.3176118    4.3176118   -3093.3455    1902.7122    5753.6147   -16936.363   -5308.0912    469.58138   -2461.5398    80.487935 
    4400    492.92509   -106.35607   0.44600898   -105.91006   -10013.707    4.3196239    4.3196239    4.3196239   -10013.707    6079.3257   -12246.657   -23873.788    6619.3079   -6784.5052    540.78029    80.600514 
    4500    722.16871   -106.55283   0.65343343   -105.89939    25296.765    4.2907641    4.2907641    4.2907641    25296.765    18227.537    47697.364    9965.3944   -3489.9069   -7998.1329    444.81835    78.995784 
    4600    438.55792   -106.30588   0.39681643   -105.90906   -28897.341    4.3322495    4.3322495    4.3322495   -28897.341   -22107.903    -28733.59    -35850.53    4073.2952     1173.124    1725.5433    81.309329 
    4700    697.94771   -106.53774   0.63151775   -105.90622     5366.392    4.2976446    4.2976446    4.2976446     5366.392    5606.9945     10984.64   -492.45855    1504.0899   -12688.209   -1845.6892    79.376418 
    4800    772.06259   -106.60412   0.69857845   -105.90554    1763.1018    4.3096027    4.3096027    4.3096027    1763.1018    10875.198     6625.644   -12211.537    1511.8273    8985.2641     3706.411    80.040854 
    4900    389.66561   -106.25738   0.35257763    -105.9048   -18958.749    4.3231001    4.3231001    4.3231001   -18958.749   -11741.118   -18024.271   -27110.859   -642.74429   -5583.4988    379.02912    80.795257 
    5000    592.82353   -106.43368   0.53639919   -105.89728    31334.879    4.2898068    4.2898068    4.2898068    31334.879    35837.362    49026.378    9140.8963    12675.469    40.914224   -1290.2433    78.942924 
    5100    815.39565   -106.64087   0.73778712   -105.90309   -17245.687    4.3261605    4.3261605    4.3261605   -17245.687      6075.26   -31336.427   -26475.893   -7703.7543    268.80078    2166.8992     80.96697 
    5200    420.51615   -106.28833   0.38049185   -105.90784    8131.4849    4.3035117    4.3035117    4.3035117    8131.4849    9882.9046    15327.973    -816.4233    4868.8748   -6347.2007   -22.169151    79.701955 
    5300    691.78626   -106.53138   0.62594275   -105.90544   -2168.8063    4.3119686    4.3119686    4.3119686   -2168.8063    10006.657   -5089.8705   -11423.205   -493.30556   -1314.3908   -2772.0643    80.172747 
    5400    618.25864   -106.46389   0.55941341   -105.90448    8702.5889    4.3110692    4.3110692    4.3110692    8702.5889     24734.94    6923.7891    -5550.962    1075.2125   -3926.7875    1974.7401    80.122592 
    5500    494.52297   -106.35669   0.44745477   -105.90923    3386.9981    4.3065142    4.3065142    4.3065142    3386.9981    9328.0871    2410.3765   -1577.4693    3983.0411   -6270.1491   -2365.0255    79.868891 
    5600    774.03718     -106.604   0.70036511   -105.90364    3472.5925    4.3127485    4.3127485    4.3127485    3472.5925    21798.286    419.46583   -11799.974   -1416.7818   -3.0081465    1438.8037    80.216259 
    5700    565.22149   -106.41779   0.51142428   -105.90636    5826.1013    4.3042264    4.3042264    4.3042264    5826.1013    3910.8265    7965.5027    5601.9748    7258.5532   -3519.9272   -709.80656    79.741666 
    5800    459.94413   -106.32446   0.41616711    -105.9083   -23009.024    4.3203458    4.3203458    4.3203458   -23009.024   -32336.379   -13583.139   -23107.554    338.49869    -3618.363    3331.3512    80.640928 
    5900    775.40733   -106.60212   0.70160485   -105.90051    23613.836    4.2963153    4.2963153    4.2963153    23613.836    41578.651    22254.072    7008.7837    3757.2314    6539.2366    1181.6036    79.302783 
    6000    567.75282   -106.42375   0.51371468   -105.91004   -25545.802    4.3241875    4.3241875    4.3241875   -25545.802   -28255.436   -24006.991    -24374.98    4762.0422    -9269.338   -248.84801    80.856244 
    6100    466.86277   -106.33057   0.42242725   -105.90814    9426.7595    4.3025667    4.3025667    4.3025667    9426.7595     16305.65    11163.395    811.23317    4011.5913    1138.5664    3969.0041    79.649461 
    6200    789.08803    -106.6182   0.71398344   -105.90422    5275.0302    4.3037472    4.3037472    4.3037472    5275.0302    6427.0101    13455.201   -4057.1202   -2700.7452    4595.0063   -1238.3003     79.71504 
    6300    407.81333   -106.27421   0.36899807   -105.90521   -16508.745    4.3237909    4.3237909    4.3237909   -16508.745   -21071.427   -7945.2985    -20509.51    11426.395   -8924.1501    1496.8405    80.833999 
    6400    635.47269   -106.47335   0.57498905   -105.89836    23001.699     4.288009     4.288009     4.288009    23001.699    39390.886    18110.896    11503.316   -5725.3848     8920.543   -1272.9588    78.843715 
    6500    772.81859   -106.60541    0.6992625   -105.90615   -21408.274    4.3232163    4.3232163    4.3232163   -21408.274   -21298.633   -18851.375   -24074.813    8665.8817    515.43041   -957.03663    80.801773 
    6600    372.20628   -106.24523   0.33678006   -105.90845    10212.514    4.3081233    4.3081233    4.3081233    10212.514    38973.902    224.71118   -8561.0706    6172.9344    -2116.517   -1382.0261    79.958453 
    6700     697.5132   -106.53866    0.6311246   -105.90753    1323.8899    4.3024415    4.3024415    4.3024415    1323.8899    122.11525    17615.731   -13766.176   -7089.2618    12765.349    -776.7115    79.642509 
    6800    698.67697   -106.53793   0.63217761   -105.90576   -3185.6941    4.3182772    4.3182772    4.3182772   -3185.6941     12002.77   -412.98876   -21146.863     8530.798   -3538.2665      2422.63    80.525151 
    6900    369.95948   -106.24581   0.33474711   -105.91106    -12097.95    4.3094433    4.3094433    4.3094433    -12097.95   -20940.184   -3790.2321   -11563.433    207.13825    8909.7129    1389.7872     80.03197 
    7000    749.77879   -106.58657   0.67841561   -105.90816    1228.4405    4.2992187    4.2992187    4.2992187    1228.4405    2919.8243     9845.083   -9079.5858   -8080.8782    4349.9075    1535.3992    79.463669 
    7100    634.99737   -106.47998   0.57455896   -105.90542   -9649.8037    4.3220345    4.3220345    4.3220345   -9649.8037     2959.624   -10708.283   -21200.752    13815.025   -1261.6464     1101.044    80.735529 
    7200    485.29139   -106.34595   0.43910184   -105.90684   -2973.7684    4.3016721    4.3016721    4.3016721   -2973.7684   -1143.4335    5998.7562   -13776.628   -9498.3608    11921.425    258.58326    79.599787 
    7300     687.4077   -106.52743   0.62198093   -105.90545     11541.96    4.3040003    4.3040003    4.3040003     11541.96    22125.273    15953.097   -3452.4894    2421.6197    319.31458   -396.52288    79.729102 
    7400    588.07617   -106.43583   0.53210368   -105.90373   -23090.778    4.3246042    4.3246042    4.3246042   -23090.778   -25048.325   -14912.706   -29311.303    3349.3099    6063.5396   -1390.6858    80.879618 
    7500    528.28782   -106.37931   0.47800592    -105.9013    10701.995    4.2932378    4.2932378    4.2932378    10701.995    14519.337    23206.308   -5619.6589   -12737.229    12181.566   -774.13135    79.132488 
    7600    832.76994   -106.65617   0.75350775   -105.90266   -2950.1305    4.3139998    4.3139998    4.3139998   -2950.1305    14155.184   -3714.4841   -19291.091    2314.8583   -3050.7893     1664.754      80.2861 
    7700    518.96823   -106.37548   0.46957336   -105.90591    1963.4016     4.311205     4.311205     4.311205    1963.4016    15520.076    3362.9606   -12992.832    1295.2047    12237.779   -1839.6673    80.130165 
    7800    485.50363   -106.34551   0.43929388   -105.90621    1844.2297    4.3018566    4.3018566    4.3018566    1844.2297    2466.3346     14123.98   -11057.626   -9832.1225   -868.15878     2042.237    79.610028 
    7900    790.18546   -106.61893   0.71497641   -105.90396    3918.1219    4.3095956    4.3095956    4.3095956    3918.1219    21598.683    3025.2466   -12869.564    3725.3211   -1367.0757    1895.3184    80.040457 
    8000    573.29753   -106.42567   0.51873165   -105.90694   -8358.3608    4.3132449    4.3132449    4.3132449   -8358.3608   -14866.505    12172.654   -22381.231   -7386.4899     7961.731   -1339.9878     80.24396 
    8100    490.22446   -106.35194   0.44356539   -105.90837   -1817.7597    4.3008012    4.3008012    4.3008012   -1817.7597    4531.5876   -865.31903   -9119.5478   -6167.6892   -8399.7093    6496.1699    79.551453 
    8200    569.45481    -106.4276   0.51525468   -105.91234    7308.1524    4.3137153    4.3137153    4.3137153    7308.1524    23838.576    13773.133   -15687.252   -4232.6346     2779.891    -305.8317    80.270219 
    8300    624.71878   -106.48317   0.56525868   -105.91791   -18986.861    4.3109944    4.3109944    4.3109944   -18986.861   -20563.866   -10520.232   -25876.485   -10969.988    4693.0473    2432.1168    80.118421 
    8400    571.50888   -106.43196   0.51711325   -105.91485    21987.437    4.2972454    4.2972454    4.2972454    21987.437    52579.303    16739.084    -3356.077   -5885.9245   -12569.222    1948.6789    79.354298 
    8500    720.24804   -106.55555   0.65169557   -105.90386   -17008.288    4.3270627    4.3270627    4.3270627   -17008.288   -20766.634   -1415.3031   -28842.928    5140.3096    6999.4164   -1332.4932    81.017636 
    8600    478.75854   -106.33498   0.43319078   -105.90179    8032.5181    4.2886417    4.2886417    4.2886417    8032.5181    8862.6158    12937.535    2297.4037    -13434.02   -7506.0068   -1771.6844    78.878618 
    8700    497.59107   -106.35972   0.45023085   -105.90949    840.29179    4.3159562    4.3159562    4.3159562    840.29179    15664.895    5786.9944   -18931.014    6076.3127   -7457.9381    1276.9166    80.395381 
    8800    945.03625   -106.75855   0.85508866   -105.90346   -9325.8372    4.3117735    4.3117735    4.3117735   -9325.8372    3206.1512   -13463.005   -17720.658    507.34768    4392.3973   -2434.8839    80.161868 
    8900    286.85709   -106.16658   0.25955432   -105.90702    13036.594    4.2932657    4.2932657    4.2932657    13036.594    18797.878    21198.428   -886.52435   -9762.7633   -13872.768    761.49981    79.134035 
    9000    660.02017   -106.49913   0.59720012   -105.90193    -16867.02     4.321979     4.321979     4.321979    -16867.02   -20251.636   -7960.8424   -22388.581    9639.4883    1362.2366    835.88009    80.732416 
    9100    693.91327    -106.5303   0.62786731   -105.90243   -4764.0154    4.3030985    4.3030985    4.3030985   -4764.0154    -4963.012     6003.141   -15332.175   -12177.624   -3831.4575    1059.5053    79.678996 
    9200    379.26707    -106.2517   0.34316882   -105.90853    4691.8281    4.3038384    4.3038384    4.3038384    4691.8281    12086.224    12174.975   -10185.715    2092.5358     -9569.34    2646.6245    79.720107 
    9300    1001.4153   -106.80678   0.90610164   -105.90068   -13384.245    4.3153473    4.3153473    4.3153473   -13384.245   -4775.3673   -18322.053   -17055.313    3194.4709    5396.6012    3173.6357    80.361359 
    9400    251.84865   -106.13556   0.22787795   -105.90768     14146.53     4.300645     4.300645     4.300645     14146.53    26119.373    21769.289   -5449.0738   -1944.7731   -12978.608    1604.5995    79.542786 
    9500    571.29737   -106.42736   0.51692187   -105.91044   -7229.8301    4.3108401    4.3108401    4.3108401   -7229.8301    -2448.602   -6658.3544   -12582.534   -1363.9343   -1227.8162    4526.0654    80.109816 
    9600    931.80051   -106.74723   0.84311269   -105.90412    4435.3554    4.3078027    4.3078027    4.3078027    4435.3554    13112.386    7208.8289   -7015.1488    6332.2048   -2116.2763   -690.53522    79.940599 
    9700     330.5989   -106.20975   0.29913283   -105.91061    112.42712    4.3056435    4.3056435    4.3056435    112.42712   -485.67138    11765.108   -10942.156   -12989.648   -12386.246    2666.6344    79.820458 
    9800    712.22873    -106.5506   0.64443953   -105.90616    -525.8312    4.3093552    4.3093552    4.3093552    -525.8312    8171.5175   -5839.2241    -3909.787    10793.386    1099.9993    -2289.293    80.027063 
    9900    536.18107   -106.39128    0.4851479   -105.90613    12592.154    4.3066953    4.3066953    4.3066953    12592.154    27095.237    19954.597   -9273.3721   -8169.4555   -5983.4934   -376.86725     79.87897 
   10000    559.65738   -106.41508   0.50638976   -105.90869   -2827.5673    4.3079048    4.3079048    4.3079048   -2827.5673    17433.909   -11514.248   -14402.363   -4679.9064    -6878.625   -423.69624    79.946288 
   10100    796.15475   -106.62234   0.72037755   -105.90197    8667.4163    4.3068989    4.3068989    4.3068989    8667.4163    13523.667    11639.512    839.07022    1109.1343    4401.4018   -2487.2603    79.890298 
   10200    418.40363   -106.28384    0.3785804   -105.90526   -180.02023    4.3074135    4.3074135    4.3074135   -180.02023    6588.5072    1300.5724   -8429.1403   -9497.9232   -7010.5827    2013.4529    79.918934 
   10300    606.55046    -106.4555   0.54881961   -105.90668   -10471.252     4.309169     4.309169     4.309169   -10471.252   -16851.464   -6961.0372   -7601.2552   -3336.9856   -2415.7844    1390.9312    80.016687 
   10400    669.17931    -106.5109    0.6054875   -105.90541    20181.137    4.3012253    4.3012253    4.3012253    20181.137    37014.201    17931.187    5598.0237    2744.5528    5199.2177    366.64524    79.574989 
   10500    525.51329   -106.38547   0.47549547   -105.90997   -17585.583    4.3223449    4.3223449    4.3223449   -17585.583   -5515.5202   -19072.901   -28168.328   -12420.618   -9517.5988    4377.5666    80.752922 
   10600    671.05837   -106.51365   0.60718771   -105.90646    10780.487    4.2949233    4.2949233    4.2949233    10780.487    6708.6807    14531.207    11101.574    435.55831    3440.1693    4651.3517     79.22573 
   10700    518.04283   -106.38183   0.46873604   -105.91309   -4560.3738    4.3136619    4.3136619    4.3136619   -4560.3738    7646.1139   -5567.2459    -15759.99   -1547.9971     2952.054   -1663.4933    80.267237 
   10800    687.93845   -106.53016   0.62246117    -105.9077   -16665.235    4.3149298    4.3149298    4.3149298   -16665.235   -13371.815   -15197.541    -21426.35   -14170.397   -8534.3524    5952.9512    80.338034 
   10900    663.57441   -106.50053   0.60041608   -105.90012    27157.911    4.2881368    4.2881368    4.2881368    27157.911    33629.456    34397.865    13446.411    5732.1993    14192.255   -3107.5362    78.850764 
   11000    553.76768   -106.40533   0.50106063   -105.90427   -7140.9576    4.3221763    4.3221763    4.3221763   -7140.9576     9314.761   -7265.9773   -23471.657   -4722.7568   -4279.8988   -282.17772    80.743476 
   11100    586.13514   -106.43365   0.53034739    -105.9033    5779.2907    4.3013544    4.3013544    4.3013544    5779.2907    15474.237    5316.2267   -3452.5921   -8939.6027     -262.909   -2094.9369    79.582155 
   11200    553.36377   -106.40584   0.50069517   -105.90514    3851.8503    4.3017594    4.3017594    4.3017594    3851.8503    15261.214   -799.29696   -2906.3659    12005.851    10017.776   -700.50404    79.604635 
   11300    755.61466   -106.58405   0.68369602   -105.90036   -16643.016     4.317541     4.317541     4.317541   -16643.016   -6113.4719   -21240.327    -22575.25   -8750.5281   -7733.3515    -654.3911    80.483971 
   11400    485.53817   -106.34366   0.43932514   -105.90433    4684.9019    4.2991643    4.2991643    4.2991643    4684.9019   -3208.7762    19529.719   -2266.2366   -5863.0453    6292.3654     370.1328    79.460652 
   11500     569.1162   -106.42433    0.5149483   -105.90938    5154.8278    4.3065092    4.3065092    4.3065092    5154.8278    19104.385    6677.7753   -10317.677    11752.107     6922.352    833.13464    79.868614 
   11600    669.27553    -106.5109   0.60557456   -105.90533   -13225.709    4.3165045    4.3165045    4.3165045   -13225.709   -7469.8556   -10997.101   -21210.172   -16979.023   -5947.5985    2932.6915    80.426021 
   11700    460.28788   -106.31967   0.41647815   -105.90319    14874.372    4.2933128    4.2933128    4.2933128    14874.372    30962.646    14509.936   -849.46595    9657.6655    12951.676   -1474.4312    79.136638 
   11800    760.02238   -106.59086   0.68768422   -105.90318   -16775.101    4.3154587    4.3154587    4.3154587   -16775.101   -11164.335   -20381.796   -18779.172    -4966.008    2266.5968    2824.9558     80.36758 
   11900     547.0508   -106.39986   0.49498306   -105.90487   -5548.8896    4.3069623    4.3069623    4.3069623   -5548.8896   -9494.3114    6787.1282   -13939.486   -9031.9765    263.14264    557.90132    79.893824 
   12000    453.77968   -106.31701   0.41058939   -105.90642    9884.3891    4.2995185    4.2995185    4.2995185    9884.3891    32524.859    2192.8329   -5064.5244    8888.9314    13350.481   -307.93804    79.480294 
   12100    780.95279   -106.61071    0.7066225   -105.90409   -11696.772    4.3159605    4.3159605    4.3159605   -11696.772   -71.512851   -13783.686   -21235.116   -269.35901   -3201.8899    2167.6283    80.395618 
   12200     538.8053   -106.39278   0.48752236   -105.90526    16982.972    4.2988416    4.2988416    4.2988416    16982.972    43385.779    16725.402   -9162.2628   -1441.6063    8773.1944   -1559.2492    79.442758 
   12300    536.92298   -106.39394    0.4858192   -105.90812   -18286.665    4.3140473    4.3140473    4.3140473   -18286.665    -23168.87   -10906.601   -20784.525     18905.64    6049.4919    1434.2459     80.28875 
   12400    791.20677   -106.61788   0.71590051   -105.90198    4666.3999    4.2987321    4.2987321    4.2987321    4666.3999    15461.335    3778.8969   -5241.0318   -3834.8963    -1599.812    180.75174    79.436692 
   12500    336.40058   -106.21478   0.30438231    -105.9104   -13036.856    4.3126993    4.3126993    4.3126993   -13036.856    782.95371   -10505.289   -29388.233    6867.5626     11941.24    488.08238    80.213513 
   12600    720.82059   -106.55922   0.65221362   -105.90701   -3121.0689    4.3020278    4.3020278    4.3020278   -3121.0689   -440.31195   -4130.0726   -4792.8221    12496.306   -1614.2489    1630.8838    79.619533 
   12700    721.87145   -106.55832   0.65316446   -105.90516    3623.3269    4.3053447    4.3053447    4.3053447    3623.3269    21689.748    8820.5064   -19640.273   -8580.0444    5970.0543    2585.9206    79.803842 
   12800    395.55027   -106.26764    0.3579022   -105.90974   -8832.5899    4.3083411    4.3083411    4.3083411   -8832.5899    -6469.298   -6190.6585   -13837.813    16322.213    9497.1181   -724.61282     79.97058 
   12900    755.83297   -106.58917   0.68389355   -105.90528    1458.9666    4.3049144    4.3049144    4.3049144    1458.9666    22641.984   -6326.2687   -11938.816    6874.5425   -4191.8523    4938.0989    79.779914 
   13000    550.88159   -106.40522   0.49844924   -105.90677    6656.6415    4.3052598    4.3052598    4.3052598    6656.6415    23134.115    12019.974   -15184.165   -461.02668    9138.0302   -1617.9384    79.799116 
   13100    524.93604   -106.38801   0.47497316   -105.91303   -11031.946    4.3077079    4.3077079    4.3077079   -11031.946   -9947.7014   -10195.593   -12952.544    21821.708   -84.830538     1844.041    79.935323 
   13200     690.3204   -106.53134    0.6246164   -105.90672    6524.6868     4.308066     4.308066     4.308066    6524.6868    32396.717   -2491.1807   -10331.476   -5689.3328   -3438.0495    550.15614    79.955263 
   13300    575.50209   -106.42881   0.52072639   -105.90809    -255.3887    4.3036901    4.3036901    4.3036901    -255.3887    12427.391   -929.12823   -12264.429    13781.593    8684.4848    306.17815    79.711864 
   13400    517.92566   -106.37728   0.46863002   -105.90865   -8875.1327    4.3090029    4.3090029    4.3090029   -8875.1327   -13455.835   -3361.1226   -9808.4411     13393.29   -4344.6152    1027.1772    80.007435 
   13500    723.40551   -106.55653   0.65455251   -105.90198    6957.6344     4.304194     4.304194     4.304194    6957.6344    8258.9205    22604.608   -9990.6252   -4526.3403    4747.2266   -767.63983    79.739868 
   13600    499.75484   -106.36035   0.45218869   -105.90816   -10238.987    4.3073117    4.3073117    4.3073117   -10238.987   -17282.096   -4725.2336   -8709.6324    13512.965    4748.1988    286.07706     79.91327 
   13700    544.94447   -106.39933   0.49307721   -105.90625    2122.9709    4.3067324    4.3067324    4.3067324    2122.9709    19998.513   -2438.6712   -11190.929    5747.0992   -4797.6186    -349.0801    79.881034 
   13800    734.33121   -106.56973   0.66443831   -105.90529    4960.1377    4.3063859    4.3063859    4.3063859    4960.1377    31671.284   -3730.6825   -13060.189   -5547.9525    5891.7518   -453.19623    79.861754 
   13900    466.23083   -106.33268   0.42185545   -105.91082    7141.0302    4.3030516    4.3030516    4.3030516    7141.0302    5965.3947     20432.46   -4974.7641    21455.928   -3621.1301    159.07294     79.67639 
   14000    610.25653   -106.46111   0.55217294   -105.90893   -4848.7022    4.3155439    4.3155439    4.3155439   -4848.7022    13655.039   -9870.1825   -18330.963   -9244.1993   -1884.0001    668.09838    80.372341 
   14100    700.63052   -106.53972   0.63394522   -105.90577    18380.568     4.294356     4.294356     4.294356    18380.568    30771.711    21768.777    2601.2165    13043.713    535.99855    335.65475    79.194337 
   14200    584.46557   -106.44225   0.52883673   -105.91341   -14376.309    4.3120309    4.3120309    4.3120309   -14376.309   -6981.2053   -20870.939   -15276.784    11915.568   -2727.3574    2050.8751    80.176224 
   14300    560.28313   -106.41643   0.50695595   -105.90948    6934.7818    4.3054009    4.3054009    4.3054009    6934.7818    27026.462    7348.4192   -13570.536   -12803.736   -6109.9725    2601.9391    79.806966 
   14400    604.35124   -106.45448    0.5468297   -105.90765    4294.6263    4.2960742    4.2960742    4.2960742    4294.6263   -7206.1936    11076.799    9013.2735     14396.87    1198.6678    298.24177    79.289432 
   14500    562.35277   -106.41583   0.50882861   -105.90701   -20562.346    4.3136986    4.3136986    4.3136986   -20562.346   -18964.728   -17863.534   -24858.774    3150.1884   -4399.9628    5737.4599    80.269284 
   14600     658.9779   -106.49823   0.59625705   -105.90197    18553.768    4.2940711    4.2940711    4.2940711    18553.768    24370.578    29653.193    1637.5338   -8990.0283   -2420.1788    -331.2813    79.178574 
   14700    625.06085   -106.46925   0.56556819   -105.90368   -23271.933    4.3168525    4.3168525    4.3168525   -23271.933   -22547.477   -24384.996   -22883.327    21364.729    987.69307    3799.0902    80.445479 
   14800    414.88818   -106.27943   0.37539955   -105.90403    27896.158    4.2921695    4.2921695    4.2921695    27896.158    50399.011    29886.173    3403.2905   -13073.091   -7874.9668     2627.861     79.07343 
   14900    725.13734    -106.5638    0.6561195   -105.90768   -14528.484    4.3150802    4.3150802    4.3150802   -14528.484   -10592.078   -15487.127   -17506.247    2935.1506    1577.1295   -3830.8851    80.346434 
   15000    657.22158   -106.50087    0.5946679    -105.9062    5970.7284    4.3015497    4.3015497    4.3015497    5970.7284    26094.686   -677.33535   -7505.1652    8604.8186   -5677.5946    4466.7498     79.59299 
   15100     423.7548   -106.29168   0.38342225   -105.90826    2202.1315    4.2991463    4.2991463    4.2991463    2202.1315   -3556.2472     13772.87   -3610.2284   -15980.946   -2458.8776   -3845.9505    79.459653 
   15200    765.82052   -106.59533    0.6929305    -105.9024   -15222.581    4.3145694    4.3145694    4.3145694   -15222.581   -12109.422   -20545.731    -13012.59    5045.4914    4163.6862    557.50247    80.317906 
   15300    522.44274   -106.37604   0.47271717   -105.90332     16425.42    4.2955957    4.2955957    4.2955957     16425.42    30429.289    19618.246   -771.27476    560.25701   -6559.5609    -287.1238    79.262945 
   15400    510.14907   -106.36822    0.4615936   -105.90663   -8480.8418    4.3088725    4.3088725    4.3088725   -8480.8418     476.1872   -5616.3402   -20302.372   -13102.215     4063.471    188.80092    80.000174 
   15500      810.009   -106.63251   0.73291317   -105.89959   -1311.7906    4.3073712    4.3073712    4.3073712   -1311.7906    12720.102   -908.62915   -15746.844    14585.478   -389.03722   -1179.7358    79.916584 
   15600     405.7822   -106.27596   0.36716026    -105.9088   -2345.2015    4.2969735    4.2969735    4.2969735   -2345.2015    -14756.12    10921.706   -3201.1903   -14111.645   -5340.7811     234.7236    79.339236 
   15700    576.22897   -106.43537   0.52138408   -105.91399   -6842.8577    4.3123553    4.3123553    4.3123553   -6842.8577    17377.598   -20387.145   -17519.027    -5385.207    2458.1978    239.80607    80.194318 
   15800    891.05213   -106.71668    0.8062427   -105.91043    483.70431    4.3048672    4.3048672    4.3048672    483.70431    12629.825    1725.7232   -12904.435    2201.4844   -4089.1005   -1486.6655    79.777288 
   15900    225.61702    -106.1193   0.20414302   -105.91516    21971.302    4.2931776    4.2931776    4.2931776    21971.302     51955.97    15469.557   -1511.6208   -15678.627    -1967.312    1173.0514     79.12916 
   16000    724.38402   -106.56218   0.65543789   -105.90674   -24384.165    4.3211939    4.3211939    4.3211939   -24384.165   -29269.299   -18310.939   -25572.258   -8064.2903     5523.221   -1498.0514    80.688432 
   16100    680.95879    -106.5183   0.61614583   -105.90216    31107.765    4.2828616    4.2828616    4.2828616    31107.765    45625.758    32562.213    15135.324   -97.837198   -5120.7987    488.58604    78.560117 
   16200    388.92317   -106.26217   0.35190585   -105.91027   -29659.402    4.3167076    4.3167076    4.3167076   -29659.402   -26878.751   -30373.268   -31726.187   -23110.897    5201.5476   -2644.9623    80.437376 
   16300    850.16399   -106.67045   0.76924624   -105.90121    9567.1274     4.294017     4.294017     4.294017    9567.1274    21439.994    10818.157   -3556.7694    6148.0137    2317.8386      1179.96    79.175583 
   16400    438.29558   -106.30626   0.39657905   -105.90968   -1411.3108     4.301408     4.301408     4.301408   -1411.3108    2232.5258   -959.02901   -5507.4292   -10567.566   -3009.8929   -1818.0494    79.585128 
   16500    418.31478   -106.28863   0.37850001   -105.91013    -23513.55    4.3122532    4.3122532    4.3122532    -23513.55    -33224.78   -15640.501    -21675.37   -18199.086    9940.5947   -14.521156    80.188624 
   16600    905.77392   -106.71972   0.81956328   -105.90015    25705.565    4.2881381    4.2881381    4.2881381    25705.565    42195.941    24180.522    10740.231    12874.304    -1597.853    1756.3053    78.850835 
   16700     470.9726   -106.33238   0.42614591   -105.90623   -27870.328    4.3194406    4.3194406    4.3194406   -27870.328   -33351.526   -23020.052   -27239.406   -20964.399    165.77269    1272.4679    80.590251 
   16800    494.66327   -106.34959   0.44758172   -105.90201    18139.683    4.2868545    4.2868545    4.2868545    18139.683    24850.062    20084.231    9484.7547   -335.33965    6441.8991    420.49475    78.780046 
   16900    712.63165   -106.54722   0.64480409   -105.90241   -3838.2728    4.3093704    4.3093704    4.3093704   -3838.2728    6727.6217   -10401.246   -7841.1938    3996.9207    -5701.706    381.18244     80.02791 
   17000    560.96925   -106.41491   0.50757676   -105.90733    3590.9601    4.2999438    4.2999438    4.2999438    3590.9601    18891.974   -323.75784   -7795.3356   -19306.599    2808.5212   -290.63663    79.503882 
   17100      725.391   -106.56275   0.65634902    -105.9064    2852.4391    4.2997044    4.2997044    4.2997044    2852.4391    13908.013     2552.215   -7902.9103    11202.534    3921.8647   -2398.6693    79.490602 
   17200    465.52938   -106.32666   0.42122077   -105.90544   -3905.4606    4.3076713    4.3076713    4.3076713   -3905.4606    4862.9829   -10337.696   -6241.6692    6082.3682   -2100.0347    953.80014    79.933287 
   17300    561.88532   -106.41605   0.50840565   -105.90765   -3424.1866      4.29677      4.29677      4.29677   -3424.1866   -10088.091    1753.0854   -1937.5545   -17239.176    8789.9095   -3244.3205    79.327965 
   17400    679.63313   -106.52334   0.61494634   -105.90839   -8937.8382    4.3096166    4.3096166    4.3096166   -8937.8382    3975.8938   -18727.392   -12062.017    25208.074     -2914.68   -675.09555    80.041624 
   17500    641.13319   -106.48868   0.58011078   -105.90857     6857.051    4.3007676    4.3007676    4.3007676     6857.051    28121.742    -3491.271   -4059.3182   -13966.588    4910.7262   -385.93849    79.549588 
   17600     508.3705   -106.37016   0.45998431   -105.91017   -9740.7322    4.3026958    4.3026958    4.3026958   -9740.7322   -20769.395    1742.6607   -10195.462    1677.4134    4304.1071   -3438.2067    79.656628 
   17700    521.88786   -106.38252    0.4722151    -105.9103   -6695.1119    4.3083739    4.3083739    4.3083739   -6695.1119   -493.31052   -14518.704   -5073.3208    18982.819    93.688929    748.15676    79.972406 
   17800    730.18885    -106.5691   0.66069022   -105.90841    12910.743    4.2964064    4.2964064    4.2964064    12910.743    32802.563    4297.0646    1632.6026   -18591.967    6842.9999   -1304.2412    79.307832 
   17900    618.52257   -106.47009   0.55965222   -105.91043   -7581.7303    4.3077511    4.3077511    4.3077511   -7581.7303    7512.3787   -18537.724   -11719.846    16623.977    1471.2422    870.68489    79.937731 
   18000    600.55205   -106.44778   0.54339212   -105.90439    7938.9514    4.3010654    4.3010654    4.3010654    7938.9514    24998.784   -1141.9651   -39.964559    4671.9148   -3800.9167    1288.0074    79.566115 
   18100    485.70626   -106.34271   0.43947723   -105.90323    5878.6897    4.2972199    4.2972199    4.2972199    5878.6897    647.68728    13533.042    3455.3401   -11232.721    3947.6493    1815.3504    79.352889 
   18200    562.85596   -106.41487    0.5092839   -105.90559   -20977.666    4.3129893    4.3129893    4.3129893   -20977.666   -24732.213   -22689.997   -15510.788     20264.38    296.81891    1331.7788    80.229694 
   18300    744.44261   -106.57508   0.67358732   -105.90149    22211.107    4.2915903    4.2915903    4.2915903    22211.107     44737.31    16234.151    5661.8591   -9515.0867   -7397.6761   -164.83154    79.041427 
   18400    603.75849   -106.45308   0.54629337   -105.90679   -20692.241    4.3130098    4.3130098    4.3130098   -20692.241   -16551.707   -23730.381   -21794.634    8904.4675    7447.6305    2262.4854    80.230837 
   18500    411.28238   -106.28164   0.37213694    -105.9095    4758.0457    4.2946681    4.2946681    4.2946681    4758.0457    8167.2723    5762.8992    343.96544    15778.536   -7184.7093   -1261.3086    79.211606 
   18600    642.00334    -106.4898   0.58089812    -105.9089    1561.5634    4.3061165    4.3061165    4.3061165    1561.5634    13141.587    3453.7267   -11910.624   -5646.5057   -3579.8521    2347.6116    79.846765 
   18700    689.62984   -106.53543   0.62399157   -105.91143   -5907.6755    4.3007477    4.3007477    4.3007477   -5907.6755   -3345.5847   -8377.5366   -5999.9053    13202.203    4505.7897   -1304.5468    79.548485 
   18800    491.98642   -106.35527   0.44515965   -105.91011     12557.28    4.2954504    4.2954504    4.2954504     12557.28    27039.484    15261.654   -4629.2986    8141.5535   -13958.695    1072.5172    79.254899 
   18900     733.2283   -106.56636   0.66344037   -105.90292   -7837.2538    4.3106188    4.3106188    4.3106188   -7837.2538    1862.8755   -10911.611   -14463.026   -5498.6158    3005.8333   -1716.9511     80.09748 
   19000    409.17236   -106.27783   0.37022775    -105.9076    11468.683    4.2882972    4.2882972    4.2882972    11468.683    19012.602    9599.3104    5794.1378    15507.027   -4142.5643   -818.30877     78.85961 
   19100    673.18045   -106.52045   0.60910781   -105.91135   -10056.408    4.3117065    4.3117065    4.3117065   -10056.408    2320.6195   -3229.9472   -29259.896   -2857.3582   -10987.857   -152.85229    80.158131 
   19200    848.74463    -106.6732   0.76796198   -105.90524    997.10728    4.2991611    4.2991611    4.2991611    997.10728    8606.1949   -2288.1592   -3326.7139    6321.8671    5801.5338   -1937.6013    79.460476 
   19300    215.48627   -106.10747    0.1949765   -105.91249   -15840.299    4.3027393    4.3027393    4.3027393   -15840.299   -33440.133     5370.901   -19451.666    15687.833   -14902.294    647.41237    79.659047 
   19400    682.38557   -106.52361   0.61743681   -105.90617    10902.992    4.3045295    4.3045295    4.3045295    10902.992    39285.191    5184.9675   -11761.183    -1847.598   -4630.5356    175.89886    79.758518 
   19500    779.59307   -106.61556   0.70539219   -105.91016   -8078.7501     4.305435     4.305435     4.305435   -8078.7501    454.55595   -13759.307   -10931.499    13400.947   -726.12033    789.23459    79.808858 
   19600    467.96846     -106.339    0.4234277   -105.91557     8998.881       4.2971       4.2971       4.2971     8998.881    29961.943    9775.1884   -12740.488    4865.5402   -18237.705     163.1726    79.346246 
   19700    714.61394   -106.55465   0.64659771   -105.90805   -9111.0378     4.310565     4.310565     4.310565   -9111.0378   -3610.7874   -11005.277   -12717.049   -3537.3038    1845.2843    2494.4838     80.09448 
   19800    464.59207   -106.32902   0.42037267   -105.90865   -2829.3934    4.2968186    4.2968186    4.2968186   -2829.3934   -8949.5186    6973.4464    -6512.108    7796.3189    -11626.41   -1821.5091    79.330659 
   19900    553.51401   -106.40857   0.50083111   -105.90774    5283.0935    4.3051815    4.3051815    4.3051815    5283.0935    32142.777    2789.8244   -19083.321    742.11761   -13328.378    3199.2333    79.794762 
   20000    867.88335   -106.68839    0.7852791   -105.90311    3551.4647    4.3033562    4.3033562    4.3033562    3551.4647    16663.202   -2468.1179   -3540.6906   -9278.7122    4200.5657   -1627.0369    79.693312 
   20100    416.73477   -106.28582   0.37707038   -105.90874    595.46293    4.2996415    4.2996415    4.2996415    595.46293    7996.5045    8916.9436   -15127.059    15089.335   -17518.409    1207.7992    79.487117 
   20200     542.7605   -106.39675    0.4911011   -105.90565   -8104.4756    4.3078904    4.3078904    4.3078904   -8104.4756   -12347.295   -3175.8813     -8790.25   -5839.4017    -957.1075   -424.54547    79.945485 
   20300    699.88819   -106.53897   0.63327354    -105.9057   -2384.9688    4.2989639    4.2989639    4.2989639   -2384.9688    -2839.943    -1028.653   -3286.3103   -3673.1042     -3264.77   -1443.4719    79.449541 
   20400    563.97276   -106.41874    0.5102944   -105.90845   -6697.6815    4.3073433    4.3073433    4.3073433   -6697.6815    5097.8266   -6662.8439   -18528.027    14308.652   -15957.791   -81.527158    79.915027 
   20500    753.84869   -106.58556   0.68209814   -105.90346    11791.386    4.2990059    4.2990059    4.2990059    11791.386    29820.399    3840.4133     1713.345   -15678.386     6091.009   -2538.1848    79.451868 
   20600    390.46908   -106.26108   0.35330463   -105.90778   -4945.1528    4.3051985    4.3051985    4.3051985   -4945.1528   -518.70782   -821.52081    -13495.23     6811.351   -15233.831    494.54133    79.795709 
   20700    510.56377    -106.3691   0.46196883   -105.90713    4699.1555    4.3014932    4.3014932    4.3014932    4699.1555    13551.758    7686.4694   -7140.7608    6226.3601   -5874.3958   -2016.0261    79.589858 
   20800    896.22259    -106.7161   0.81092103   -105.90517    1309.3368    4.2986414    4.2986414    4.2986414    1309.3368    8026.8438   -5470.1307    1371.2973   -14738.606    2242.4088    1912.5268    79.431665 
   20900    443.77303   -106.31236   0.40153516   -105.91083   -7314.7798    4.3070233    4.3070233    4.3070233   -7314.7798    2353.4447   -7015.4786   -17282.305    12024.258   -19983.544   -692.61166     79.89722 
   21000     602.6446   -106.45151    0.5452855   -105.90622    6318.3367    4.2988413    4.2988413    4.2988413    6318.3367    14441.737   -834.83876    5348.1124   -261.63656     2786.808    1700.5628    79.442745 
   21100    589.33112   -106.44042   0.53323918   -105.90718   -2526.3257    4.3008986    4.3008986    4.3008986   -2526.3257    4632.2217   -5865.8088   -6345.3899    -10046.22   -8194.0855    307.56618    79.556856 
   21200    534.21361   -106.39265    0.4833677   -105.90928   -10194.788    4.3103258    4.3103258    4.3103258   -10194.788   -2557.9859   -12580.761   -15445.617    17495.785   -13507.272     557.7008    80.081148 
   21300    854.29176   -106.67601   0.77298114   -105.90303    10356.972    4.2933331    4.2933331    4.2933331    10356.972    14640.556    7476.0777    8954.2829   -13625.157    5383.7327   -95.493144    79.137762 
   21400    432.90666    -106.3033   0.39170304    -105.9116   -21082.529    4.3118276    4.3118276    4.3118276   -21082.529   -30377.489   -13060.694   -19809.404    1684.4433   -12506.781    219.18144    80.164882 
   21500     451.2214   -106.31689    0.4082746   -105.90861    19001.614    4.2985357    4.2985357    4.2985357    19001.614    44460.508    4552.6949    7991.6375    12729.821    -4226.561    -504.0174    79.425805 
   21600    880.88157   -106.70249   0.79704016   -105.90545     -9361.65    4.3059762    4.3059762    4.3059762     -9361.65   -2869.9909   -15700.878   -9514.0812   -11950.964    877.08287   -1132.7028     79.83896 
   21700    463.99147   -106.32935   0.41982923   -105.90952    7048.2381    4.2999602    4.2999602    4.2999602    7048.2381    27320.827   -3701.0626     -2475.05    11824.866   -12649.219    1510.5423     79.50479 
   21800    697.93552   -106.53647   0.63150673   -105.90497   -6384.5031    4.3054426    4.3054426    4.3054426   -6384.5031   -16448.262   -6975.5845    4270.3374    4416.9142    3397.8454     -2197.79    79.809283 
   21900    550.37096   -106.40336   0.49798721   -105.90538   -9086.7296    4.3023811    4.3023811    4.3023811   -9086.7296   -20618.966   -443.64018   -6197.5831   -8514.6485   -7549.8996    2622.9954    79.639152 
   22000    347.44001   -106.22496   0.31437102   -105.91059    14254.852     4.296524     4.296524     4.296524    14254.852    27203.344    6061.9039    9499.3076    22162.011   -7057.1034    -1280.001    79.314344 
   22100    1006.2118   -106.81299    0.9104416   -105.90254   -13595.136    4.3146801    4.3146801    4.3146801   -13595.136   -9304.7017   -18160.827   -13319.879   -4725.8189    2987.9922    3547.2748     80.32409 
   22200    406.07973    -106.2752   0.36742947   -105.90777    18945.185    4.2909709    4.2909709    4.2909709    18945.185    36240.282    13066.292    7528.9802     2989.165    -12020.49    111.03745    79.007208 
   22300    474.10534   -106.33873   0.42898047   -105.90975   -14335.893    4.3068019    4.3068019    4.3068019   -14335.893   -33184.294   -11383.637    1560.2531    18158.752    327.92949    2150.2586    79.884901 
   22400    816.63909   -106.64071   0.73891221    -105.9018   -6522.9179    4.3092249    4.3092249    4.3092249   -6522.9179   -2510.3725   -4653.8983   -12404.483   -6224.5981   -1530.6691    1545.5652    80.019803 
   22500    403.62749   -106.27336   0.36521064   -105.90815    13994.827    4.2877522    4.2877522    4.2877522    13994.827    17169.117    11253.207    13562.157    18658.505   -10884.471   -620.24299    78.829549 
   22600    772.32542    -106.6053   0.69881627   -105.90648   -18376.354    4.3180124    4.3180124    4.3180124   -18376.354   -23281.477    -16725.41   -15122.173    9882.6218    4976.0393   -672.86865     80.51034 
   22700    553.13062    -106.4053   0.50048421   -105.90481    23807.549    4.2956781    4.2956781    4.2956781    23807.549    47733.818    15957.052     7731.777   -1956.8274   -7343.1835   -1376.9924    79.267507 
   22800    382.87642   -106.25576   0.34643463   -105.90932   -9968.3078    4.2976685    4.2976685    4.2976685   -9968.3078     -28202.6   -4616.7904    2914.4673    26576.356   -7077.9143   -357.37019     79.37774 
   22900    850.54515   -106.67152   0.76959113   -105.90193   -5422.0071    4.3133626    4.3133626    4.3133626   -5422.0071    12622.354   -14541.142   -14347.233   -4900.4801    7142.8053   -1181.9072     80.25053 
   23000    638.53526   -106.48366   0.57776013    -105.9059    7077.9692    4.2918488    4.2918488    4.2918488    7077.9692    9023.9452    4784.9344     7425.028    11657.996   -11044.001    3478.9089     79.05571 
   23100    434.95061   -106.30452   0.39355245   -105.91097    -20165.26    4.3094202    4.3094202    4.3094202    -20165.26   -39354.524   -13733.012   -7408.2453    13524.463    2900.5498   -1189.6839    80.030684 
   23200     687.5855   -106.52404   0.62214181    -105.9019    18279.533    4.3019581    4.3019581    4.3019581    18279.533    47264.124    8519.5761   -945.10035   -6374.0318    1065.9812    5730.4653    79.615666 
   23300    557.41613   -106.41202   0.50436183   -105.90766   -7545.9384    4.3007429    4.3007429    4.3007429   -7545.9384   -12916.507    -10422.91    701.60143    21868.237   -7233.7778   -288.14107    79.548218 
   23400    652.36566   -106.49749   0.59027416   -105.90722     1534.149    4.3039352    4.3039352    4.3039352     1534.149    20716.632   -8770.3406   -7343.8441    3967.5398    1898.1872    3014.6117    79.725485 
   23500    667.16149   -106.51055   0.60366174   -105.90689   -4684.3937    4.3016922    4.3016922    4.3016922   -4684.3937   -13000.868   -5005.0638    3952.7503   -1566.1037    -1325.525    1122.5337    79.600904 
   23600    413.65686   -106.28565   0.37428542   -105.91136   -14684.047    4.3011589    4.3011589    4.3011589   -14684.047   -29058.447   -12890.052   -2103.6432    24947.608   -9377.4452   -1160.2462      79.5713 
   23700    689.21515   -106.53052   0.62361635    -105.9069    7653.3741    4.3031224    4.3031224    4.3031224    7653.3741    31067.666   -4403.9822   -3703.5617   -10221.043    6715.4178    624.85804    79.680323 
   23800    735.64718   -106.57259   0.66562902   -105.90696   -1895.2375    4.2997204    4.2997204    4.2997204   -1895.2375    1459.5475   -9429.8789    2284.6189    14401.104   -6293.9649   -2553.6799     79.49149 
   23900     431.0245   -106.29927   0.39000003   -105.90927    3076.9806    4.3032728    4.3032728    4.3032728    3076.9806    16021.208   -3587.3463     -3202.92    10819.816   -1785.0715    349.13629    79.688683 
   24000     624.5939   -106.47085   0.56514568   -105.90571    2910.9271    4.3022235    4.3022235    4.3022235    2910.9271    3836.6796   -84.186506     4980.288   -12532.308    6123.0157   -3095.2016    79.630399 
   24100    622.89531   -106.47452   0.56360876   -105.91091   -12505.777    4.3031612    4.3031612    4.3031612   -12505.777    -18882.82   -17592.693   -1041.8184    20339.894   -8268.4348    2794.5682    79.682479 
   24200    658.46169   -106.50759   0.59578997    -105.9118    4438.1127    4.3006771    4.3006771    4.3006771    4438.1127    25595.468   -7530.8283   -4750.3019   -353.68154   -100.61231   -1576.2006    79.544567 
   24300    572.53823   -106.43066   0.51804462   -105.91261   -116.97997    4.3091264    4.3091264    4.3091264   -116.97997    21070.154   -18856.621   -2564.4733   -2169.9244   -120.43984    3422.7759    80.014316 
   24400    512.81442   -106.37855   0.46400526   -105.91455   -10097.821    4.3001111    4.3001111    4.3001111   -10097.821   -20638.371   -7268.0958   -2386.9954    23356.023   -11376.591    1050.7691    79.513161 
   24500    727.97985   -106.57237   0.65869147   -105.91367   -907.77926    4.3037275    4.3037275    4.3037275   -907.77926    3860.9119   -1713.1777    -4871.072   -10469.014   -3006.0111    3313.4754    79.713944 
   24600    499.25553   -106.36572   0.45173689   -105.91398    9298.9393    4.3096961    4.3096961    4.3096961    9298.9393    45742.507   -14800.832   -3044.8568    9160.5209   -212.29631    1755.9962    80.046056 
   24700    569.82596    -106.4325   0.51559051   -105.91691   -2436.3034    4.3000572    4.3000572    4.3000572   -2436.3034    4056.9963   -2576.2225   -8789.6842    11645.827   -18939.664      459.052    79.510173 
   24800    859.36289   -106.68996    0.7775696   -105.91239    2729.6917    4.3043273    4.3043273    4.3043273    2729.6917      15930.5   -5948.7371   -1792.6872   -9275.3672    1875.1078    1525.8263    79.747279 
   24900     322.6991   -106.21152   0.29198493   -105.91953   -20145.127    4.3149799    4.3149799    4.3149799   -20145.127   -18757.262   -26079.267   -15598.851    14459.252   -9421.0282   -2634.0231    80.340836 
   25000    473.47212   -106.34571   0.42840752    -105.9173    26970.827    4.2895085    4.2895085    4.2895085    26970.827    68557.692    10792.615    1562.1741    3808.4441   -15793.192    992.60344    78.926455 
   25100    932.87099   -106.75928   0.84408128    -105.9152   -14150.093    4.3195858    4.3195858    4.3195858   -14150.093    4797.7778   -26527.783   -20720.273   -2631.2552     6760.465   -2914.9776    80.598381 
   25200    508.82298   -106.37932   0.46039373   -105.91893   -895.53233    4.3022451    4.3022451    4.3022451   -895.53233    12131.305   -2723.9677   -12093.934    16614.368   -18355.429    285.45842    79.631601 
   25300    552.79642   -106.41975   0.50018182   -105.91957    6359.1462    4.3035973    4.3035973    4.3035973    6359.1462     26232.62    4458.1091    -11613.29   -4187.8826   -2593.0761   -1802.4284     79.70671 
   25400    490.32857   -106.36542   0.44365959   -105.92176    5195.9012    4.3126304    4.3126304    4.3126304    5195.9012    39656.792   -10842.373   -13226.715    1389.6104    1691.6194     555.1001     80.20967 
   25500    461.62648   -106.34521   0.41768934   -105.92752    227.88376    4.3035541    4.3035541    4.3035541    227.88376    16008.979   -244.20651   -15081.121    11598.212   -19053.103    181.55043     79.70431 
   25600    969.52997   -106.79518   0.87725109   -105.91793   -8737.4092    4.3124764    4.3124764    4.3124764   -8737.4092      7839.97   -14394.922   -19657.275   -1333.5909    6925.0164   -651.39786    80.201076 
   25700    500.41444   -106.37494    0.4527855   -105.92216    2860.3759    4.3045396    4.3045396    4.3045396    2860.3759    23895.712   -4508.9015   -10805.683    10321.773   -11595.746    1611.7244    79.759078 
   25800    317.35096   -106.21379   0.28714582   -105.92664    3759.7503    4.3053144    4.3053144    4.3053144    3759.7503    36787.905   -6080.2937    -19428.36    4112.6172   -10933.115   -740.80336    79.802154 
   25900    812.09077   -106.65598    0.7347968   -105.92118   -2220.7559    4.3154769    4.3154769    4.3154769   -2220.7559    32003.036     -18146.8   -20518.504   -1499.0132    6504.4202    1238.5123    80.368595 
   26000    578.23912   -106.44842   0.52320291   -105.92522   -7016.5982    4.2993872    4.2993872    4.2993872   -7016.5982   -9627.7625    436.80955   -11858.842    14125.985   -20626.593    630.36541    79.473013 
   26100    663.23172   -106.52528     0.600106   -105.92518   -4737.5192    4.3092225    4.3092225    4.3092225   -4737.5192    6685.0166   -2351.4852   -18546.089    497.77658    2271.5107    1348.5431    80.019668 
   26200    546.64503   -106.41518   0.49461591   -105.92056    17294.294    4.3060386    4.3060386    4.3060386    17294.294    58992.249    4593.6031   -11702.971    345.68422   -526.11212    235.53828    79.842431 
   26300    358.84156   -106.24853   0.32468738   -105.92384   -6811.2297    4.3049292    4.3049292    4.3049292   -6811.2297   -4630.3531   -1353.2131   -14450.123    10745.349   -19438.115    1679.2612    79.780739 
   26400    867.26321   -106.69679   0.78471798   -105.91207   -6672.1952    4.3050466    4.3050466    4.3050466   -6672.1952    1688.1219   -3527.5411   -18177.166   -2890.5309     10844.34   -1897.1757    79.787264 
   26500    454.46295   -106.32438   0.41120763   -105.91317    -3212.273    4.3082385    4.3082385    4.3082385    -3212.273    1922.2224    973.62122   -12532.663    2742.5036   -9656.4175    192.87344    79.964867 
   26600    521.19867   -106.38375   0.47159151   -105.91216   -772.46009    4.3028072    4.3028072    4.3028072   -772.46009    16268.478   -5654.7893   -12931.068    8951.9896   -6866.8773   -2190.5493    79.662817 
   26700    856.86868   -106.68377   0.77531279   -105.90846    1550.0107    4.3031173    4.3031173    4.3031173    1550.0107     11827.64    3387.6015   -10565.209   -1100.3788    10900.516    -2241.331    79.680043 
   26800    434.66404   -106.30603   0.39329316   -105.91273    5007.6743    4.3058244    4.3058244    4.3058244    5007.6743    27905.237    -2816.795   -10065.419    6400.0467   -15576.302   -1039.5767    79.830519 
   26900    652.53313   -106.49962   0.59042569    -105.9092   -9610.7098     4.305167     4.305167     4.305167   -9610.7098   -16347.245    2775.4166   -15260.301    7292.4028    3162.9709   -2239.9715    79.793961 
   27000    646.45274   -106.49002   0.58492402    -105.9051    4724.4459    4.2983219    4.2983219    4.2983219    4724.4459    2080.0397    13118.288   -1024.9904   -8125.5407    3215.7797    801.38788    79.413954 
   27100    383.95424   -106.25655   0.34740986   -105.90914   -7546.3343    4.3109106    4.3109106    4.3109106   -7546.3343     5625.109   -14700.194   -13563.918    9279.7358   -13206.366   -1013.2643    80.113749 
   27200    873.01586   -106.69382    0.7899231    -105.9039    -4368.855    4.3013388    4.3013388    4.3013388    -4368.855     2943.334   -4068.3176   -11981.581    3287.8959    7438.4212   -940.01715    79.581289 
   27300    478.70843   -106.34361   0.43314544   -105.91047    15954.892    4.2985239    4.2985239    4.2985239    15954.892    43270.803    8432.3112   -3838.4379   -2996.8584   -8211.8395    598.08966    79.425151 
   27400    524.17827   -106.38599   0.47428751    -105.9117   -14440.656    4.3146724    4.3146724    4.3146724   -14440.656   -8038.5826   -14359.659   -20923.727    13704.027   -7417.9253   -1110.7172    80.323658 
   27500    862.83853   -106.68584   0.78071443   -105.90513    3634.8282    4.2998729    4.2998729    4.2998729    3634.8282    2607.6594     13935.04   -5638.2145   -5799.6193    8864.9413   -1161.3974    79.499948 
   27600    338.39713   -106.21841   0.30618883   -105.91222    10437.727    4.3025055    4.3025055    4.3025055    10437.727     42329.01   -2856.8603   -8158.9685   -1521.4625   -11385.786    1165.1596    79.646064 
   27700    566.41385   -106.42672   0.51250315   -105.91422   -11481.551    4.3140349    4.3140349    4.3140349   -11481.551    3649.5956   -15078.222   -23016.026     13860.75    836.17476   -3271.3155    80.288057 
   27800    880.21798   -106.70699   0.79643972   -105.91055    7271.7751    4.2947331    4.2947331    4.2947331    7271.7751    13431.013    10583.681   -2199.3684   -13485.373    -2219.116    1903.5877    79.215201 
   27900     432.1307   -106.31101   0.39100094   -105.92001   -19065.532     4.314175     4.314175     4.314175   -19065.532   -16105.311   -24402.983   -16688.302    14835.714   -7649.0175   -2307.2246    80.295883 
   28000    613.22564   -106.46841   0.55485945   -105.91355    16110.338    4.3020974    4.3020974    4.3020974    16110.338    48822.671     3245.725   -3737.3818    4087.9769    3727.3264   -655.67921    79.623402 
   28100    734.62429    -106.5756   0.66470349    -105.9109    -7575.124     4.307109     4.307109     4.307109    -7575.124   -3837.6112   -1777.2691   -17110.492   -2611.3313   -3007.0126    1550.2162     79.90199 
   28200    395.72669   -106.27248   0.35806182   -105.91442    4262.4412    4.3050827    4.3050827    4.3050827    4262.4412    23558.279   -179.05759   -10591.898    16290.918   -3894.9516   -3862.8211    79.789271 
   28300    736.31862   -106.57589   0.66623656   -105.90965    3499.3712    4.3061004    4.3061004    4.3061004    3499.3712    13028.766    7701.4823   -10232.135   -1356.0336    1804.5088    4052.4941    79.845871 
   28400    673.98792   -106.52107   0.60983843   -105.91123   -12814.763    4.3056039    4.3056039    4.3056039   -12814.763   -15288.227   -14485.818   -8670.2428   -6383.8711   -3713.2782   -1901.8519    79.818254 
   28500    339.53242   -106.22048   0.30721607   -105.91327    3407.3254    4.3044277    4.3044277    4.3044277    3407.3254    26870.183    -8470.936   -8177.2704    18637.177   -2738.0924    761.94212    79.752858 
   28600    871.04282   -106.69489   0.78813785   -105.90675    1039.7574    4.3060277    4.3060277    4.3060277    1039.7574    12256.048    5372.9768   -14509.752     -13501.7    1124.8663    1628.0431    79.841824 
   28700    511.33707   -106.37413   0.46266853   -105.91146   -3298.6174    4.3047031    4.3047031    4.3047031   -3298.6174   -2590.8071      1249.94   -8554.9851    17789.248    -4718.803   -2315.0768    79.768164 
   28800    433.36692   -106.30349   0.39211949   -105.91137    358.19439     4.305367     4.305367     4.305367    358.19439    16511.411   -7726.1646   -7710.6636    9225.8644   -2025.9897   -504.72283    79.805081 
   28900    887.55854   -106.70799   0.80308162   -105.90491   -4438.9105    4.3049064    4.3049064    4.3049064   -4438.9105    1140.8719    1810.1697   -16267.773    2159.4537   -2014.1985   -238.65132     79.77947 
   29000     389.8354   -106.26704   0.35273126   -105.91431   -10187.675    4.3069175    4.3069175    4.3069175   -10187.675    5095.6944    -17610.27   -18048.451    16369.455   -6319.2169   -947.04405    79.891333 
   29100    582.27962   -106.44195   0.52685883   -105.91509    9563.3025    4.3024216    4.3024216    4.3024216    9563.3025    45446.645   -5149.4749   -11607.263      -2093.6    1950.7961    2053.1702    79.641403 
   29200    819.98445   -106.65285   0.74193917   -105.91091   -6283.8472    4.3090832    4.3090832    4.3090832   -6283.8472   -11968.797    6464.0184   -13346.763   -3493.6825   -1148.9709     2173.035     80.01191 
   29300    274.58626    -106.1644   0.24845142   -105.91595   -2451.8091    4.3050882    4.3050882    4.3050882   -2451.8091    13765.232    -5870.029    -15250.63    14828.212   -2975.0566    1686.6002    79.789577 
   29400    636.95832   -106.48733   0.57633327   -105.91099    6098.4005    4.3054697    4.3054697    4.3054697    6098.4005      34758.8    1922.3344   -18385.933   -6804.6088   -129.63326    4394.8752    79.810792 
   29500    845.11198   -106.67385   0.76467508   -105.90917   -9257.9228    4.3078914    4.3078914    4.3078914   -9257.9228   -5155.7008   -2768.9581    -19849.11    14716.176   -5408.1321     33.36615    79.945537 
   29600     373.4579   -106.25156   0.33791256   -105.91365    5094.7997    4.3039553    4.3039553    4.3039553    5094.7997    46566.629   -17321.393   -13960.836    6594.8647   -2133.1723    3233.4923    79.726601 
   29700    766.24371   -106.60117   0.69331341   -105.90786   -6062.2039    4.3096243    4.3096243    4.3096243   -6062.2039    3840.8486    1095.8869   -23123.347    975.75225   -3276.1482    996.48441    80.042056 
   29800    572.28275    -106.4264   0.51781346   -105.90859   -5107.9293    4.3059911    4.3059911    4.3059911   -5107.9293     7849.213    2401.3505   -25574.351    302.00531   -2438.3602    1445.2288    79.839792 
   29900    350.86304   -106.23043   0.31746825   -105.91296    9623.3633    4.3002912    4.3002912    4.3002912    9623.3633    42542.042   -2826.1169   -10845.835    4370.8474   -706.61384    4348.3332    79.523154 
   30000    965.06866   -106.78057    0.8732144   -105.90735   -12768.878    4.3131245    4.3131245    4.3131245   -12768.878   -15871.064   -4209.6613   -18225.907   -15467.664    3679.5991   -2877.5539    80.237239 
   30100    441.69955    -106.3092   0.39965904   -105.90954    11875.466    4.3009894    4.3009894    4.3009894    11875.466     45418.25   -1808.8531   -7982.9994    10821.284   -3637.2274    4275.1611    79.561895 
   30200    480.81973   -106.34539    0.4350558   -105.91034    -7536.442    4.3039804    4.3039804    4.3039804    -7536.442    841.60431   -5086.9236   -18364.007    -12351.26    5159.9356   -758.16607       79.728 
   30300    710.89786    -106.5475   0.64323533   -105.90427   -8097.9327    4.3140437    4.3140437    4.3140437   -8097.9327   -2943.1138    1235.8608   -22586.545   -408.45165   -2789.9986   -2399.6564    80.288554 
   30400    586.02976    -106.4349   0.53025204   -105.90465    12635.035    4.2953306    4.2953306    4.2953306    12635.035    31477.601    13319.694   -6892.1908    8605.4285   -1180.5803    7491.0256    79.248267 
   30500    549.41305    -106.4054   0.49712048   -105.90828   -21991.797    4.3145196    4.3145196    4.3145196   -21991.797    -17688.77   -23653.664   -24632.957   -10144.194   -118.36468   -3411.2222    80.315122 
   30600    613.44639   -106.45852   0.55505919   -105.90346    12266.031    4.3011265    4.3011265    4.3011265    12266.031    37410.141    13409.926   -14021.973   -427.42377   -2242.9711    4946.3269    79.569501 
   30700    631.49527   -106.47814   0.57139019   -105.90674   -6792.8089    4.3048128    4.3048128    4.3048128   -6792.8089    9866.4176   -13171.874   -17072.971   -1389.3462    -1818.097    5196.1947    79.774264 
   30800    559.56269    -106.4152   0.50630408    -105.9089   -10201.763    4.3100834    4.3100834    4.3100834   -10201.763   -9404.3915   -10713.966   -10486.931   -21239.861    4595.9781   -5524.7695    80.067637 
   30900    631.76494   -106.47791    0.5716342   -105.90627    22090.716    4.2964426    4.2964426    4.2964426    22090.716    52634.378    16027.322   -2389.5515    3769.9749    664.81145    7366.3834    79.309834 
   31000    516.71039   -106.38393   0.46753042    -105.9164   -16344.039    4.3121158    4.3121158    4.3121158   -16344.039   -6252.5991   -19919.919   -22859.597   -12012.839    4198.1513   -5125.2838    80.180962 
   31100    605.22333   -106.46592   0.54761879    -105.9183   -1361.7558    4.3014947    4.3014947    4.3014947   -1361.7558    6521.3876   -2072.2582   -8534.3967   -4560.4601    441.96807    116.73472     79.58994 
   31200    719.14609   -106.56549   0.65069849   -105.91479    5753.8161    4.3081475    4.3081475    4.3081475    5753.8161    34084.674   -1540.5688   -15282.657    4271.1606   -3509.7104    894.61724    79.959801 
   31300     511.8262   -106.37979   0.46311111   -105.91668   -9041.1072    4.3070233    4.3070233    4.3070233   -9041.1072   -5485.5258   -10025.558   -11612.238   -11473.233    3100.9637    -4952.572    79.897218 
   31400    624.72867   -106.47777   0.56526763   -105.91251   -2868.1731    4.3066055    4.3066055    4.3066055   -2868.1731    -667.6778    11193.997   -19130.839   -3825.2628   -3784.1421    705.81662    79.873971 
   31500    578.94717   -106.43328   0.52384356   -105.90944    15567.991    4.3075909    4.3075909    4.3075909    15567.991    46123.586    10794.415   -10214.028   -4816.3114   -2231.5324   -1554.0285    79.928813 
   31600    589.60419    -106.4452   0.53348627   -105.91171   -11042.695    4.3063943    4.3063943    4.3063943   -11042.695   -14952.268   -11677.411   -6498.4081   -17295.986    1494.0424   -2995.0693    79.862218 
   31700    632.67636   -106.48142   0.57245887   -105.90896    1974.0405    4.3106769    4.3106769    4.3106769    1974.0405    22940.805   -3348.7534    -13669.93    9242.8266    -2009.299    1137.9068    80.100719 
   31800    686.95298   -106.52901   0.62156949   -105.90744    6404.7149    4.3031452    4.3031452    4.3031452    6404.7149    23717.611    334.10469   -4837.5712   -7966.5244    2093.0801   -381.39113     79.68159 
   31900    552.90387   -106.41282   0.50027904   -105.91254   -14497.404      4.31116      4.31116      4.31116   -14497.404   -23587.104   -5165.8878   -14739.221   -3187.5611    3480.4211   -1628.8294    80.127653 
   32000    533.37921   -106.39171   0.48261272    -105.9091    18168.955    4.3072777    4.3072777    4.3072777    18168.955    51254.807    12022.079   -8770.0213    7849.9557   -5559.6207    2800.0848    79.911377 
   32100    611.46981    -106.4643   0.55327073   -105.91102    1724.6305    4.3054859    4.3054859    4.3054859    1724.6305    12355.298    -526.5727   -6654.8336   -16078.475    1349.7257   -3078.8438    79.811694 
   32200    656.00691   -106.51033   0.59356884   -105.91676   -14358.265    4.3084144    4.3084144    4.3084144   -14358.265   -18603.085   -6289.4679   -18182.241   -1278.4708   -4300.4956    427.67581    79.974661 
   32300    770.96712   -106.61616   0.69758725   -105.91857    -2912.551    4.3068892    4.3068892    4.3068892    -2912.551     10408.43   -1851.7523   -17294.331    5198.0433   -4771.5611   -2702.3994    79.889755 
   32400     400.6975   -106.28411   0.36255952   -105.92155    10568.183     4.306859     4.306859     4.306859    10568.183    49163.718   -14775.987   -2683.1811   -10152.743    3221.8933   -1933.3929    79.888076 
   32500    567.05233   -106.43331   0.51308087   -105.92023   -15162.258    4.3122564    4.3122564    4.3122564   -15162.258   -14390.768   -9753.6015   -21342.405     11110.58   -4498.2746   -132.13776    80.188803 
   32600    908.74875   -106.73467   0.82225497   -105.91242    9183.9703    4.2992392    4.2992392    4.2992392    9183.9703    14588.427    15825.458   -2861.9745   -4593.6464   -2303.9678   -2258.6877    79.464806 
   32700    402.83333   -106.28227   0.36449206   -105.91777   -2229.2125     4.315814     4.315814     4.315814   -2229.2125    16001.795   -9477.6396   -13211.793   -2589.3554    2330.5009     3340.869    80.387434 
   32800    444.71885   -106.31762   0.40239096   -105.91523     1654.389    4.3052703    4.3052703    4.3052703     1654.389    9486.6311    9211.1146   -13734.579    9392.5614   -9532.3438    328.11072    79.799704 
   32900    891.82484   -106.71457   0.80694186   -105.90763    -1184.504    4.3047916    4.3047916    4.3047916    -1184.504    7546.3094   -10196.125   -903.69665   -6720.5664    668.18761    2133.3051    79.773085 
   33000    371.82584   -106.24958   0.33643583   -105.91315    -4090.168    4.3151451    4.3151451    4.3151451    -4090.168    12514.324    -7899.755   -16885.073    870.46897   -2152.8373     637.3727    80.350059 
   33100     729.0459    -106.5703   0.65965605   -105.91064   -6654.0027    4.3027831    4.3027831    4.3027831   -6654.0027   -6670.6535   -2876.8996   -10414.455    2727.0621   -3623.8382   -1995.7601    79.661477 
   33200    745.64128   -106.58254    0.6746719   -105.90786    1707.6139    4.3082393    4.3082393    4.3082393    1707.6139    18467.809   -9524.7855   -3820.1821   -2481.2643    4147.3012   -2883.8951    79.964908 
   33300    231.25862   -106.12369   0.20924766   -105.91444    2450.9119    4.3108441    4.3108441    4.3108441    2450.9119     17986.13    2305.4677   -12938.861    8789.3116    -468.5898   -2113.1135    80.110039 
   33400    802.19383   -106.63623   0.72584184   -105.91039   -187.84211    4.3037156    4.3037156    4.3037156   -187.84211    866.38189    7781.5556   -9211.4638    6869.5752   -4881.3986   -6230.4092    79.713283 
   33500    761.71211   -106.60047   0.68921312   -105.91125    2800.7844    4.3096232    4.3096232    4.3096232    2800.7844    14049.567    2660.0956   -8307.3093   -5873.9363   -1218.9934    2110.9803    80.041994 
   33600    235.04225   -106.13068   0.21267117   -105.91801    1530.3886    4.3075447    4.3075447    4.3075447    1530.3886    23186.138   -7829.3365   -10765.636    8226.9218   -9690.7896   -2945.8506    79.926239 
   33700     896.6128   -106.72391   0.81127411   -105.91264   -10435.182    4.3076261    4.3076261    4.3076261   -10435.182    -3547.956    -17660.42    -10097.17   -3001.7129    2514.2999   -180.11869    79.930771 
   33800    666.09708   -106.51682   0.60269863   -105.91412    6438.1182    4.3055518    4.3055518    4.3055518    6438.1182    29610.801   -6140.7573   -4155.6886    3321.9961   -330.42534    5381.7364    79.815358 
   33900    241.98672   -106.13967   0.21895467   -105.92071   -3048.6408    4.3105741    4.3105741    4.3105741   -3048.6408    19122.709   -10895.124   -17373.507    5984.0052   -2782.3383   -4545.4038    80.094987 
   34000    882.27272   -106.71393    0.7982989   -105.91563   -20.187526    4.3043014    4.3043014    4.3043014   -20.187526    11836.715   -5356.9253    -6540.352   -1189.5096    2801.3125    7076.5291    79.745839 
   34100    650.35531   -106.50746   0.58845515   -105.91901    454.41398    4.3058754    4.3058754    4.3058754    454.41398    1165.9548    3996.2299   -3798.9427    5011.3856   -8188.3506   -2099.2688    79.833356 
   34200    246.71932   -106.14247   0.22323682   -105.91923    1260.9394     4.311137     4.311137     4.311137    1260.9394    31109.507   -5544.5009   -21782.188    3463.1872   -4338.8617    828.66329    80.126373 
   34300    908.19618   -106.73001   0.82175499   -105.90825    1203.1142    4.3037865    4.3037865    4.3037865    1203.1142    12401.943    394.18758   -9186.7883   -141.10901   -1706.9685    3153.7251    79.717222 
   34400     627.9452    -106.4827   0.56817802   -105.91452   -6273.2749    4.3067519    4.3067519    4.3067519   -6273.2749    310.19851   -16528.786    -2601.237    5834.4549   -5665.6929   -3627.0584    79.882118 
   34500    373.64883   -106.25562   0.33808531   -105.91753   -3976.4291    4.3088263    4.3088263    4.3088263   -3976.4291    21594.275   -18193.019   -15330.543   -890.33747    2559.2247    1608.4893      79.9976 
   34600    941.43286   -106.75998   0.85182824   -105.90815    1193.9189    4.3034528    4.3034528    4.3034528    1193.9189    4828.8169   -1057.8899   -189.17026    390.91953    8693.2967   -982.22231    79.698683 
   34700    332.62804   -106.21504   0.30096884   -105.91408    910.85191    4.3088381    4.3088381    4.3088381    910.85191    21151.155   -10910.041    -7508.558    9203.7708    -4315.219   -2013.0054    79.998259 
   34800    511.14436   -106.37655   0.46249416   -105.91406    1902.4117    4.3047817    4.3047817    4.3047817    1902.4117    20005.464   -1001.6664   -13296.563     1947.696    10668.122    1820.4867    79.772533 
   34900    988.06543   -106.80268   0.89402237   -105.90866    784.44954     4.302822     4.302822     4.302822    784.44954   -4601.7382    914.32933    6040.7575    5080.1468   -8891.6952    2234.1032    79.663639 
   35000    265.09449   -106.15847   0.23986307   -105.91861    -8544.961    4.3089887    4.3089887    4.3089887    -8544.961    12896.583   -11389.182   -27142.284    420.39763   -138.35317    849.64779    80.006645 
   35100    587.82334   -106.44679   0.53187491   -105.91492    3579.1444    4.3024741    4.3024741    4.3024741    3579.1444    23327.401   -279.75233   -12310.215   -2514.7178    4222.6121    5983.3239    79.644315 
   35200    940.47275   -106.75959   0.85095951   -105.90863   -658.40395    4.3054985    4.3054985    4.3054985   -658.40395    1117.6408   -13402.058    10309.205    3978.3218    6140.4054   -1069.1933    79.812389 
   35300    291.47255   -106.17836   0.26373048   -105.91463   -4139.3537    4.3078024    4.3078024    4.3078024   -4139.3537    17888.251   -11407.765   -18898.547    2689.7541    6862.8635     2747.538    79.940586 
   35400    634.15745   -106.48574   0.57379899   -105.91194     4773.652    4.3012479    4.3012479    4.3012479     4773.652      4594.58    10296.759   -570.38282    -1035.238    9277.8032   -78.192299    79.576243 
   35500    811.09169    -106.6449   0.73389281   -105.91101   -5308.8422    4.3085232    4.3085232    4.3085232   -5308.8422   -6244.2124   -8250.3488   -1431.9653    3530.9598   -9258.9854   -2323.5448    79.980718 
   35600    267.62733   -106.15828   0.24215483   -105.91613    9020.3089    4.3059126    4.3059126    4.3059126    9020.3089     32386.59    4119.3447   -9445.0078   -3115.7856    8541.3016     2549.677    79.835426 
   35700    826.98708   -106.65783   0.74827529   -105.90956   -1514.9322    4.3038557    4.3038557    4.3038557   -1514.9322   -2483.4688    3421.1472   -5482.4751    2132.3185   -3193.7021   -3593.8607    79.721065 
   35800    678.18174   -106.52514   0.61363309   -105.91151   -6302.9124    4.3081337    4.3081337    4.3081337   -6302.9124    2276.5792   -6746.9651   -14438.351    2076.2096    6071.9091    4184.7216    79.959033 
   35900    284.16383   -106.17573   0.25711741   -105.91861    12.975182    4.3066475    4.3066475    4.3066475    12.975182    18926.297   -671.56637   -18215.805   -158.13541    7512.2668   -801.77303    79.876305 
   36000    870.59574   -106.70217   0.78773332   -105.91443     7351.968    4.3040024    4.3040024    4.3040024     7351.968     18623.92   -5015.4093     8447.393   -1278.5524   -4820.7937     1421.617    79.729223 
   36100    668.88402    -106.5226   0.60522032   -105.91738   -13120.447    4.3095395    4.3095395    4.3095395   -13120.447   -14207.539   -7863.4304   -17290.372    1297.4593    11791.216    1919.5972    80.037333 
   36200    307.86192   -106.19831   0.27855994   -105.91976       2070.7    4.3057403    4.3057403    4.3057403       2070.7    18941.191    2943.7739   -15672.865    -6353.082    356.70357    17.902156    79.825839 
   36300    750.14653   -106.59414   0.67874834   -105.91539    14509.493    4.3053365    4.3053365    4.3053365    14509.493    37964.699    1099.7167    4464.0627    4643.2873   -1533.9143    1248.8277    79.803382 
   36400    574.15234    -106.4416   0.51950511   -105.92209   -11777.969     4.310004     4.310004     4.310004   -11777.969   -19033.978    1054.3453   -17354.273   -630.98869    11787.763    756.07584    80.063216 
   36500    522.84702   -106.39146   0.47308297   -105.91837    4731.8761    4.3043764    4.3043764    4.3043764    4731.8761    18656.818    11471.361   -15932.551    725.80914   -6350.5924    690.14386    79.750006 
   36600    600.36219   -106.45597   0.54322032   -105.91275    7093.8873    4.3100395    4.3100395    4.3100395    7093.8873    29505.056   -142.19383      -8081.2    2650.2822    6011.0786   -3277.5637    80.065192 
   36700    545.50678   -106.40993     0.493586   -105.91634   -8800.1934    4.3064135    4.3064135    4.3064135   -8800.1934   -14767.388     4225.881   -15859.073   -6662.7799    3455.2862    1708.2872    79.863289 
   36800    792.46684   -106.63138   0.71704065   -105.91434   -5799.7698    4.3078931    4.3078931    4.3078931   -5799.7698    5955.4717   -13440.841   -9913.9404   -351.53273   -12889.015   -7278.0776    79.945632 
   36900    532.75729   -106.39657   0.48204999   -105.91452    9875.4994     4.309672     4.309672     4.309672    9875.4994    43067.895   -7642.7874     -5798.61    946.02294    9488.8862    317.39419    80.044716 
   37000    503.50897   -106.37298    0.4555855   -105.91739   -7779.0439    4.3060777    4.3060777    4.3060777   -7779.0439    1393.0405   -5960.4598   -18769.712    3450.4208   -4778.1596   -2599.9347    79.844605 
   37100    921.11891   -106.74822   0.83344775   -105.91477   -9962.1357    4.3097691    4.3097691    4.3097691   -9962.1357   -3411.4176   -19102.944   -7372.0457    924.00224     1195.222   -2274.0335    80.050125 
   37200     618.3493   -106.47974   0.55949544   -105.92025   -552.47345    4.3086053    4.3086053    4.3086053   -552.47345    15842.162   -6673.1998   -10826.383   -2683.4928    3831.0583    3660.1782     79.98529 
   37300    186.47636   -106.09416   0.16872773   -105.92544    5592.5696    4.3081391    4.3081391    4.3081391    5592.5696    35640.214    3095.8349    -21958.34   -2238.4003   -12862.235   -2853.7168    79.959333 
   37400    910.38258   -106.73834   0.82373329   -105.91461   -4179.0046    4.3109987    4.3109987    4.3109987   -4179.0046    2839.0747   -4983.2113   -10392.877    397.72373   -2965.9086    4867.8297    80.118661 
   37500    642.87486   -106.49805   0.58168668   -105.91637   -4162.8496    4.3087219    4.3087219    4.3087219   -4162.8496    -5666.802     8052.353     -14874.1   -1949.6712    3858.2603     -2879.95    79.991786 
   37600    238.28192   -106.13482   0.21560249   -105.91922    3015.3513    4.3107608    4.3107608    4.3107608    3015.3513    47839.206   -17635.459   -21157.692     4573.602   -6368.5627   -1267.9578    80.105399 
   37700    836.92017   -106.67114   0.75726296   -105.91387    4687.4976    4.3081161    4.3081161    4.3081161    4687.4976    25354.498   -10519.048   -772.95731   -1831.3622    12388.824   -321.25076    79.958048 
   37800     694.1335   -106.54638   0.62806658   -105.91831    -15483.76    4.3101432    4.3101432    4.3101432    -15483.76   -8500.7064   -17257.666   -20692.909    5045.7347   -14852.518   -4896.4369    80.070972 
   37900    443.10603   -106.32019   0.40093165   -105.91926   -3520.7495    4.3110775    4.3110775    4.3110775   -3520.7495    32487.253   -24331.438   -18718.063   -6378.2969   -3648.6433    1526.3355    80.123051 
   38000    624.21782   -106.48228    0.5648054   -105.91748     18876.45    4.3049971    4.3049971    4.3049971     18876.45    50623.799    3086.9207    2918.6293    969.14276   -2728.3817   -1289.4013    79.784512 
   38100    482.84441   -106.36187   0.43688777   -105.92499   -15066.118    4.3118427    4.3118427    4.3118427   -15066.118   -2346.9482   -13982.172   -28869.234   -459.86409   -3693.8035   -1334.3754    80.165725 
   38200    680.14068    -106.5332   0.61540558   -105.91779    3394.8488    4.3087029    4.3087029    4.3087029    3394.8488    22075.275   -1444.3528   -10446.376    690.39188    5087.2621    1585.2187    79.990729 
   38300    578.67971   -106.43542   0.52360157   -105.91181    10748.485    4.3077051    4.3077051    4.3077051    10748.485    39887.437   -4157.9724   -3484.0095    5066.3956    1388.2042   -1408.4528    79.935169 
   38400    476.95448    -106.3469   0.43155843   -105.91534   -18571.802    4.3099907    4.3099907    4.3099907   -18571.802   -5481.0515   -27250.789   -22983.566   -1602.3267   -6382.8918    254.73726    80.062475 
   38500    780.40151   -106.61518   0.70612369   -105.90906    6800.7736    4.3078304    4.3078304    4.3078304    6800.7736    24560.688   -8975.2739    4816.9064    380.40409   -419.23516    4391.7891    79.942144 
   38600    608.57652   -106.45991   0.55065282   -105.90925     828.7872    4.3094411    4.3094411    4.3094411     828.7872    18707.833   -9507.5752   -6713.8959    1071.0946   -8406.9907   -599.72829    80.031849 
   38700    483.55102   -106.34729   0.43752713   -105.90976    -9761.166    4.3083319    4.3083319    4.3083319    -9761.166     29.52225   -3687.2264   -25625.794    2814.6342   -4178.6991    4786.2975    79.970065 
   38800    547.95417   -106.40126   0.49580045   -105.90546    12506.722    4.3106185    4.3106185    4.3106185    12506.722    29351.931    12422.552    -4254.317    3803.7516    7554.2714   -1037.7746    80.097461 
   38900     779.1781   -106.61101   0.70501672   -105.90599   -7267.5337    4.3069586    4.3069586    4.3069586   -7267.5337   -2935.6572   -7902.7508   -10964.193   -218.28456   -2540.0319   -2332.6665     79.89362 
   39000    480.76736   -106.34644   0.43500841   -105.91143   -5465.7064    4.3102858    4.3102858    4.3102858   -5465.7064    9819.4711   -1142.5091   -25074.081   -2869.8385     10328.95    1498.3633     80.07892 
   39100    632.33612   -106.48008   0.57215101   -105.90793    4866.6156    4.3100126    4.3100126    4.3100126    4866.6156    30458.403    -13783.45    -2075.107    2551.6989    8089.1177   -4597.8935    80.063692 
   39200    727.64836   -106.56732   0.65839153   -105.90893   -13436.975    4.3094282    4.3094282    4.3094282   -13436.975   -6568.9894   -19993.497   -13748.439    -2408.907   -1339.5484    5214.9037     80.03113 
   39300    529.72245   -106.39248     0.479304   -105.91318    -2946.713    4.3099134    4.3099134    4.3099134    -2946.713    5449.0393    786.84829   -15076.027    6319.5603    7544.9738   -321.41408    80.058167 
   39400    583.01922   -106.44122   0.52752804   -105.91369    14695.731    4.3086264    4.3086264    4.3086264    14695.731     46241.56   -64.606564     -2089.76   -4719.1485    -3086.059    5059.1742    79.986468 
   39500    422.00974   -106.30394   0.38184328    -105.9221   -3153.4854    4.3108074    4.3108074    4.3108074   -3153.4854    4274.7164     11040.54   -24775.713   -3392.3165    6539.4588    2489.2255    80.107994 
   39600    742.26389   -106.59018   0.67161597   -105.91856   -5725.8844    4.3088241    4.3088241    4.3088241   -5725.8844   -13463.146    9398.0322   -13112.539    994.47608    14070.668    1696.8541     79.99748 
   39700    609.08069   -106.46631   0.55110901    -105.9152     9880.259    4.3112813    4.3112813    4.3112813     9880.259    35443.293   -1604.6412   -4197.8748   -4350.7269   -4570.1901    862.98673    80.134415 
   39800    296.23453   -106.18713   0.26803923   -105.91909   -2012.1991    4.3108155    4.3108155    4.3108155   -2012.1991     20023.07    1084.5909   -27144.258    2213.0657    14012.477   -2205.5333    80.108444 
   39900    925.16943   -106.75126   0.83711274   -105.91415   -5424.7549    4.3081951    4.3081951    4.3081951   -5424.7549   -3382.9532   -7927.0379   -4964.2737   -790.69331   -7060.9368    531.85579     79.96245 
   40000    705.14342   -106.55441   0.63802858   -105.91638   -10269.626    4.3144727    4.3144727    4.3144727   -10269.626    155.99712   -17658.381   -13306.493   -609.67172    11292.035    -3085.303    80.312504 
   40100    228.82331   -106.12698   0.20704414   -105.91993    9435.0386    4.3065766    4.3065766    4.3065766    9435.0386    40015.674    10354.249   -22064.806   -1122.0491    11698.583     284.2124    79.872362 
   40200    728.03373   -106.57803   0.65874022   -105.91929     6122.814    4.3110373    4.3110373    4.3110373     6122.814    30464.415    -4161.214   -7934.7591    3168.4796   -3750.6118   -3366.3777    80.120811 
   40300    612.70926   -106.47981   0.55439221   -105.92542   -8399.6098    4.3112098    4.3112098    4.3112098   -8399.6098   -16073.454    9792.6002   -18917.975   -3030.5653    8948.5602    502.86801    80.130428 
   40400    628.90204   -106.49265   0.56904378   -105.92361   -4078.4429    4.3084923    4.3084923    4.3084923   -4078.4429    2720.5164     2145.891   -17101.736    813.44299   -1718.7605   -5887.7143    79.979001 
   40500    475.27792   -106.34738   0.43004145   -105.91734    13746.813     4.312208     4.312208     4.312208    13746.813    45860.141    -3788.549   -831.15255    900.80839    4721.0637    1708.4884    80.186101 
   40600    564.64294   -106.42791    0.5109008     -105.917   -8333.5103     4.308393     4.308393     4.308393   -8333.5103   -3732.8581    272.89561   -21540.568   -1101.4972    13462.198   -2668.3237    79.973467 
   40700    827.69587   -106.66228   0.74891662   -105.91336   -10391.797    4.3114432    4.3114432    4.3114432   -10391.797   -1743.5099   -15883.243   -13548.638   -774.24257   -8275.5338   -1168.3768    80.143445 
   40800    561.15239   -106.42079   0.50774248   -105.91305    4885.7084    4.3103235    4.3103235    4.3103235    4885.7084    29397.746   -7074.4268   -7666.1938   -2466.7987    10311.468    4291.2297     80.08102 
   40900    388.62709   -106.26805   0.35163796   -105.91641   -1567.3439    4.3072393    4.3072393    4.3072393   -1567.3439    23712.257   -517.48706   -27896.802    -29.73632    -5363.329   -3905.2185    79.909239 
   41000    820.15084   -106.65623   0.74208972   -105.91414   -12226.941    4.3126908    4.3126908    4.3126908   -12226.941   -9928.9076   -10641.982   -16109.935   -259.50528    -5414.425    4815.2748    80.213041 
   41100    701.42878   -106.55016    0.6346675   -105.91549     8541.375    4.3041237    4.3041237    4.3041237     8541.375    17229.419    9493.8155   -1099.1095   -8057.1864    8919.1189   -2223.6258    79.735959 
   41200    255.44552   -106.15131   0.23113247   -105.92017     275.3669    4.3106803    4.3106803    4.3106803     275.3669    31891.795   -4959.7678   -26105.926    3568.9797   -8354.8624   -4196.7177     80.10091 
   41300    779.64902     -106.617   0.70544282   -105.91156   -7964.2856    4.3088137    4.3088137    4.3088137   -7964.2856   -2733.9707   -14948.899   -6209.9872   -3304.7769      6678.79     1499.579      79.9969 
   41400     616.7086   -106.46803    0.5580109   -105.91002    8525.5809    4.3041354    4.3041354    4.3041354    8525.5809    29087.089   -1633.1085   -1877.2383    1911.9182   -3916.8098   -6590.8069    79.736614 
   41500    478.61282   -106.34512   0.43305894   -105.91206   -13104.445    4.3125361    4.3125361    4.3125361   -13104.445    9099.2257   -23803.613   -24608.949    2933.8343   -4567.6798    227.43488    80.204408 
   41600    847.93308   -106.67046   0.76722767   -105.90323    1940.0691    4.3046147    4.3046147    4.3046147    1940.0691    6750.1566    825.30135   -1755.2506    -6060.519   -6100.6472    4055.4824    79.763251 
   41700    358.89952   -106.23414   0.32473983    -105.9094    3044.1592    4.3085235    4.3085235    4.3085235    3044.1592    33102.422   -1369.2642    -22600.68    441.34775   -3865.2531   -5190.7804    79.980734 
   41800    592.86429   -106.44719   0.53643607   -105.91075   -11135.823    4.3098611    4.3098611    4.3098611   -11135.823   -1253.1484   -13343.554   -18810.766   -2732.6911   -10150.189    5771.3153    80.055251 
   41900    854.70063   -106.67836   0.77335109   -105.90501    9154.9992    4.3066804    4.3066804    4.3066804    9154.9992    24869.126   -3511.6702    6107.5416    47.743886    4530.2503   -1139.5085    79.878138 
   42000    361.94612   -106.23954   0.32749646   -105.91205   -3038.2348    4.3058561    4.3058561    4.3058561   -3038.2348     30376.43   -19359.004    -20132.13    -1393.399   -4511.8208   -938.79777    79.832281 
   42100    655.78493   -106.50571   0.59336799   -105.91234   -13844.819    4.3094443    4.3094443    4.3094443   -13844.819   -7092.3468   -19904.598   -14537.512   -1152.7368   -896.65154    10086.785    80.032025 
   42200    753.35794   -106.58939    0.6816541   -105.90774    9877.1855    4.3068262    4.3068262    4.3068262    9877.1855    30481.619   -7672.5366    6822.4737   -4834.5239    1823.5251   -3294.8989    79.886252 
   42300     437.8994    -106.3101   0.39622058   -105.91388   -3123.3377    4.3018923    4.3018923    4.3018923   -3123.3377    12403.964   -951.86224   -20822.115    2289.2367   -5249.6847    8473.8279    79.612012 
   42400    610.34569    -106.4636   0.55225361   -105.91134   -8944.3736    4.3115925    4.3115925    4.3115925   -8944.3736   -4401.2629   -2489.9299   -19941.928   -1674.9303   -2523.9146   -452.79855     80.15177 
   42500    582.02479   -106.43591   0.52662826   -105.90928    9970.8459    4.3041816    4.3041816    4.3041816    9970.8459    34219.223   -1546.1215   -2760.5634   -552.32084    421.06115   -507.89664     79.73918 
   42600    578.47571   -106.43542   0.52341698   -105.91201   -10212.741    4.3049184    4.3049184    4.3049184   -10212.741   -2768.4655   -15982.657   -11887.101   -1431.8022   -10573.966     7711.099    79.780136 
   42700    679.43607   -106.52143   0.61476804   -105.90666   -6075.0168    4.3136887    4.3136887    4.3136887   -6075.0168    4404.1558   -9837.4113   -12791.795     -2278.21    14721.812   -3673.9697    80.268731 
   42800    611.41011   -106.45769   0.55321671   -105.90448    7056.6209    4.3021142    4.3021142    4.3021142    7056.6209    31544.268   -6394.5778   -3979.8275   -1268.0449   -3974.5122    9976.3391     79.62433 
   42900    492.37501   -106.35415   0.44551126   -105.90864   -10319.312    4.3095349    4.3095349    4.3095349   -10319.312   -7822.8974   -120.94909   -23014.088    -3572.253    4814.7397    2215.1666    80.037077 
   43000    710.64667   -106.54574   0.64300805   -105.90273    8245.8892     4.310778     4.310778     4.310778    8245.8892    21496.076    3282.3428   -40.751255   -2553.5178      10763.8    71.537956    80.106358 
   43100     634.9602   -106.47752   0.57452533     -105.903    255.74665    4.3025286    4.3025286    4.3025286    255.74665    5197.0748    8021.7686   -12451.603    1201.5842   -6530.0601    5048.3398    79.647343 
   43200    308.11495   -106.18817   0.27878889   -105.90938   -6760.7191    4.3089845    4.3089845    4.3089845   -6760.7191    3790.1166    1204.2095   -25276.484   -623.07377    11040.539   -2246.3203    80.006411 
   43300    848.50663   -106.67174   0.76774663   -105.90399    6179.3508    4.3086419    4.3086419    4.3086419    6179.3508    23227.727   -8580.9366     3891.262   -343.33382   -1806.9157   -942.01046    79.987329 
   43400    714.51371   -106.55651   0.64650702      -105.91   -11454.337    4.3060866    4.3060866    4.3060866   -11454.337    -10752.69   -8908.3358   -14701.985    4122.8636   -1869.8333    2118.9407    79.845099 
   43500    409.26701   -106.28613   0.37031339   -105.91581   -1306.6112    4.3091574    4.3091574    4.3091574   -1306.6112    20461.281   -3428.5935   -20952.521   -4899.5486    11629.387   -2235.6711    80.016042 
   43600    701.34926   -106.54871   0.63459555   -105.91411    8104.7603    4.3094311    4.3094311    4.3094311    8104.7603    32633.791   -4076.4606   -4243.0495     479.5182   -3643.4883    -650.5572    80.031294 
   43700    525.75697   -106.39717   0.47571596   -105.92145   -3357.3166    4.3042113    4.3042113    4.3042113   -3357.3166   -7792.0061    9061.8559     -11341.8   -3274.2947    12544.606    715.48561    79.740831 
   43800    693.34427    -106.5446   0.62735247   -105.91724   -4438.2835    4.3160948    4.3160948    4.3160948   -4438.2835    -2326.528    1589.7667   -12578.089   -4704.8797   -3493.3335   -4842.2599    80.403123 
   43900    458.01676   -106.32721   0.41442319   -105.91278     18758.24    4.3075969    4.3075969    4.3075969     18758.24     49167.26     10718.83   -3611.3695    4865.0535    1692.5318    2035.9058    79.929144 
   44000    485.08243   -106.35552   0.43891278   -105.91661    -12550.69    4.3076245    4.3076245    4.3076245    -12550.69   -17852.489    4407.9262   -24207.506   -4144.2685    5211.9519   -4090.3245    79.930682 
   44100    909.16382   -106.73212   0.82263053   -105.90949   -3987.1018    4.3158516    4.3158516    4.3158516   -3987.1018    5105.6272   -12338.627   -4728.3061    2429.0225    3303.2402     3536.003    80.389534 
   44200    363.84323   -106.24269     0.329213   -105.91348    6814.8707    4.3097197    4.3097197    4.3097197    6814.8707    39810.171   -2901.5529   -16464.006    1228.8875    8975.1278   -639.29626    80.047369 
   44300    505.80114   -106.37631    0.4576595   -105.91865   -4785.1336    4.3101883    4.3101883    4.3101883   -4785.1336    17901.807   -8082.7084     -24174.5   -5187.7577    4253.2216    201.94146    80.073483 
   44400    1042.3325   -106.85864   0.94312435   -105.91552   -7875.8876    4.3129391    4.3129391    4.3129391   -7875.8876    -7535.994   -10484.824   -5606.8446    4930.4796   -5931.2112    1534.1122    80.226894 
   44500    518.39361   -106.39515   0.46905344   -105.92609   -7065.8526    4.3098675    4.3098675    4.3098675   -7065.8526    1184.2688   -3242.9255   -19138.901   -6292.7548    11999.142   -5916.6642    80.055608 
   44600    397.96821   -106.28283      0.36009   -105.92274    13736.657    4.3109185    4.3109185    4.3109185    13736.657    43352.768    5242.0907   -7384.8866    5325.8383   -1802.2262    788.62336    80.114186 
   44700    697.09107   -106.54623   0.63074265   -105.91549    212.82448    4.3140618    4.3140618    4.3140618    212.82448    7284.0229     3746.445   -10391.994    1546.9941    11234.472   -5480.3049    80.289562 
   44800    593.39124   -106.45156   0.53691286   -105.91465   -7942.4177    4.3094587    4.3094587    4.3094587   -7942.4177   -9117.8658    6073.6762   -20783.063   -935.28021   -1019.1292   -4542.2089    80.032832 
   44900    527.04657   -106.38758   0.47688281    -105.9107    16032.888    4.3094295    4.3094295    4.3094295    16032.888    42928.453    4787.4723    382.73953    3952.1506   -2674.3104   -1158.9004    80.031202 
   45000    569.47149   -106.42731   0.51526977   -105.91204   -8639.8498    4.3146288    4.3146288    4.3146288   -8639.8498    4170.2089   -4222.1381    -25867.62   -688.36408    5085.5327   -2545.1661    80.321224 
   45100    741.69463   -106.58217   0.67110089   -105.91107   -9993.7654    4.3077732    4.3077732    4.3077732   -9993.7654   -6511.7409   -6835.9263   -16633.629   -1640.2057   -1695.2137   -1181.1664    79.938962 
   45200    720.22203   -106.56389   0.65167202   -105.91222     9745.904    4.3076443    4.3076443    4.3076443     9745.904    36122.954   -7114.4977    229.25541    1959.3038    2504.0917    3496.9574    79.931786 
   45300    383.43835   -106.26585   0.34694308   -105.91891     -8029.43    4.3141361    4.3141361    4.3141361     -8029.43     17117.02   -9208.4415   -31996.868    40.293947    691.15729   -2913.4522    80.293709 
   45400    629.71657   -106.48537   0.56978079   -105.91559    4167.9744    4.3014025    4.3014025    4.3014025    4167.9744    6589.9298    14638.123     -8724.13    3847.0294   -4550.3419    4599.6317    79.584823 
   45500    697.71958   -106.54355   0.63131134   -105.91224   -140.93196    4.3137131    4.3137131    4.3137131   -140.93196    12761.232    -3830.087   -9353.9407      3304.26   -471.43473    166.84659    80.270093 
   45600     444.3455   -106.31354   0.40205315   -105.91149    3396.1423    4.3065042    4.3065042    4.3065042    3396.1423    16683.532    12121.159   -18616.264    1180.6916   -1648.0148   -2428.0095    79.868335 
   45700    736.16836   -106.57169    0.6661006   -105.90559   -161.86813    4.3034194    4.3034194    4.3034194   -161.86813    6278.4212   -384.03158    -6379.994    1133.8166   -9175.6124    9525.7973    79.696826 
   45800    527.25682   -106.38128   0.47707305   -105.90421   -6423.7452    4.3172651    4.3172651    4.3172651   -6423.7452     13558.63   -12485.446   -20344.419    476.73068    5564.0051   -6615.2662    80.468547 
   45900    675.92596   -106.51483   0.61159202   -105.90324   -2977.0002     4.301891     4.301891     4.301891   -2977.0002    2689.9896    2342.7711   -13963.761   -4444.0342   -9501.3385    5272.3831    79.611942 
   46000    667.36088   -106.50624   0.60384215    -105.9024    1187.5934    4.3120779    4.3120779    4.3120779    1187.5934    17956.579   -9802.8688   -4590.9302    4832.9564    4604.8777    705.21495    80.178842 
   46100    484.92347   -106.34248   0.43876895   -105.90371    326.47596    4.3086873    4.3086873    4.3086873    326.47596    11651.952    14868.639   -25541.163   -4041.5347    3910.4519   -7762.3938    79.989858 
   46200    549.86392   -106.40407   0.49752843   -105.90654   -6182.5949    4.3072674    4.3072674    4.3072674   -6182.5949     4948.535    -3236.782   -20259.538    3042.6722   -5218.6394    6395.2117    79.910807 
   46300    663.69208   -106.50492   0.60052254    -105.9044    6783.6337    4.3110771    4.3110771    4.3110771    6783.6337    25512.996   -5174.1356     12.04082    6240.8845    5118.0356   -2068.4512    80.123028 
   46400    708.82203   -106.54889   0.64135707   -105.90753   -11010.635    4.3060551    4.3060551    4.3060551   -11010.635   -1351.8037   -10232.252    -21447.85    1397.0432   -9069.7466    1758.3702    79.843349 
   46500    460.56498   -106.32815   0.41672887   -105.91142   -9097.1925     4.311551     4.311551     4.311551   -9097.1925    8748.6256   -10720.249   -25319.954    6269.3912    -4367.755    14869.759    80.149457 
   46600    647.94539   -106.49443    0.5862746   -105.90815    16012.038    4.3034081    4.3034081    4.3034081    16012.038    36943.427    8985.0447    2107.6421   -2080.9891   -2751.8524    -3105.489    79.696195 
   46700    605.07814   -106.46139   0.54748742    -105.9139   -17231.761    4.3121193    4.3121193    4.3121193   -17231.761   -12328.203     -8978.51    -30388.57   -3028.4189   -329.70662    9556.4338    80.181152 
   46800    491.95206   -106.35594   0.44512856   -105.91081    10799.953    4.3035184    4.3035184    4.3035184    10799.953    30080.747    2085.6404    233.47231    287.73791    3201.6386     4949.311    79.702324 
   46900    751.97972   -106.58634   0.68040705   -105.90594   -7784.8348    4.3083848    4.3083848    4.3083848   -7784.8348    2754.2341   -8375.9167   -17732.822   -294.79879    2241.1717   -5176.3584    79.973015 
   47000    409.02313   -106.27919   0.37009272    -105.9091   -11517.324    4.3101091    4.3101091    4.3101091   -11517.324    7226.8662   -14750.515   -27028.323   -173.08936   -1171.9364    15081.961    80.069069 
   47100    733.38336   -106.56826   0.66358067   -105.90468    15699.307    4.3009363    4.3009363    4.3009363    15699.307    27295.854    6047.8148    13754.252    991.87293    3904.3929   -4835.0565     79.55895 
   47200    676.09787   -106.51768   0.61174756   -105.90593   -12719.062    4.3156613    4.3156613    4.3156613   -12719.062     -2938.48   -6729.5643   -28489.143   -1324.1663   -7628.3985    5602.1171    80.378902 
   47300    257.17101   -106.14126   0.23269373   -105.90857    3592.4332    4.3044214    4.3044214    4.3044214    3592.4332    23882.874    5500.1321   -18605.706   -1656.5283   -542.08632    6921.6647    79.752507 
   47400    914.19766   -106.72973   0.82718525   -105.90254   -2364.9824    4.3049828    4.3049828    4.3049828   -2364.9824   -6960.2052   -5990.2442    5855.5021    10644.563   -6473.4178   -3467.7925    79.783717 
   47500    584.93821   -106.43605   0.52926439   -105.90678   -7037.9772    4.3127073    4.3127073    4.3127073   -7037.9772    10166.525   -13364.768   -17915.689   -4065.1802    2095.7663    10653.089    80.213959 
   47600    444.13885   -106.30922   0.40186616   -105.90736    4883.9672    4.3012398    4.3012398    4.3012398    4883.9672    8123.9664    9993.6665   -3465.7313    9029.3849   -1402.5118    1682.7121    79.575793 
   47700    720.83394    -106.5554    0.6522257   -105.90317   -2772.8446    4.3117499    4.3117499    4.3117499   -2772.8446   -1482.3088    5065.6981   -11901.923   -2673.5155    6689.6789    4660.8733    80.160548 
   47800    449.63024   -106.31395   0.40683489   -105.90711      5684.79     4.307364     4.307364     4.307364      5684.79    27346.404    4394.9158    -14686.95    1061.7981   -56.518913    8137.8601    79.916182 
   47900    699.98628   -106.54141    0.6333623   -105.90805   -2586.3541    4.3036082    4.3036082    4.3036082   -2586.3541   -12305.226   -751.82469    5297.9885    3813.5649    5566.3796   -2181.7992    79.707317 
   48000    781.06775   -106.61656   0.70672652   -105.90984    -9839.209    4.3142384    4.3142384    4.3142384    -9839.209    5980.4951   -15469.887   -20028.235    1816.5904   -3068.8878    3896.4277     80.29942 
   48100    373.14322   -106.25203   0.33762783    -105.9144    13386.621    4.3028359    4.3028359    4.3028359    13386.621    37203.719    11903.422   -8947.2788   -1173.3225    1544.1169    1626.1549    79.664411 
   48200    727.17668   -106.57118   0.65796474   -105.91322    -6981.548     4.311034     4.311034     4.311034    -6981.548   -18537.794    -947.8418    -1459.008    3651.1509    1495.2008   -1992.1581    80.120627 
   48300    676.78271   -106.52191   0.61236722   -105.90954    6315.9765    4.3096036    4.3096036    4.3096036    6315.9765    18639.499    8542.4319   -8234.0018   -1647.6202    -1642.941    10248.604    80.040903 
   48400    316.33276   -106.20035   0.28622453   -105.91413    14031.856    4.3018689    4.3018689    4.3018689    14031.856    22507.819    20061.556   -473.80611    6005.6842    1934.9929   -2689.7473    79.610714 
   48500      746.908   -106.58788   0.67581806   -105.91207   -14732.987    4.3173528    4.3173528    4.3173528   -14732.987   -14102.661   -13684.095   -16412.204    2822.2658    3229.1148    5907.2485    80.473448 
   48600    682.83378   -106.52766   0.61784235   -105.90982     7957.393    4.3042047    4.3042047    4.3042047     7957.393    23008.366     799.9924     63.82106   -5944.7829    1507.1021    4403.0514    79.740465 
   48700    442.97981   -106.31298   0.40081744   -105.91216     5871.602    4.3064699    4.3064699    4.3064699     5871.602    20683.868     2745.175    -5814.237    570.79443    8340.2592   -3708.6823    79.866424 
   48800     734.8196   -106.57287   0.66488022   -105.90799   -14728.636    4.3175412    4.3175412    4.3175412   -14728.636   -20048.609   -4509.6691   -19627.631   -2553.6489   -3763.3529    5038.5379    80.483985 
   48900    606.37507    -106.4577   0.54866091   -105.90904    16013.724     4.296859     4.296859     4.296859    16013.724     20209.29    27772.606    59.274534    7475.8601      2947.97   -1120.7975    79.332897 
   49000    404.89787   -106.28289    0.3663601   -105.91653    3242.3641    4.3148253    4.3148253    4.3148253    3242.3641    17286.629    4430.3062   -11989.843    6225.0775    1309.5899    383.00961    80.332197 
   49100    797.93043   -106.63215   0.72198422   -105.91017   -9575.9743     4.310744     4.310744     4.310744   -9575.9743   -12358.693   -14234.386   -2134.8445    794.35917    3404.6456    1978.8824    80.104461 
   49200    589.82177   -106.44335   0.53368313   -105.90967    8356.6038    4.2999242    4.2999242    4.2999242    8356.6038    15673.703    13048.609   -3652.5006   -5104.2807    5876.5084     418.8063    79.502797 
   49300    461.85327   -106.33176   0.41789454   -105.91387     -7423.06    4.3183884    4.3183884    4.3183884     -7423.06    12067.507   -17384.377   -16952.309     2930.339     518.1684    -3959.027    80.531375 
   49400    715.28122   -106.56066   0.64720148   -105.91346    4346.0869    4.3011919    4.3011919    4.3011919    4346.0869    5121.9005    3437.1755    4479.1846   -4717.9143    236.61625    3786.4051    79.573133 
   49500    606.15565   -106.46313   0.54846237   -105.91467    621.13106    4.3095649    4.3095649    4.3095649    621.13106    1476.2459    20329.967    -19942.82    6218.9818    2903.7294   -3455.1057    80.038746 
   49600    453.47331   -106.32013   0.41031218   -105.90982    2587.3266    4.3140353    4.3140353    4.3140353    2587.3266    23791.086   -4834.9777   -11194.128    2219.6325   -1993.0823    3768.5352    80.288082 
   49700    709.42912   -106.54914   0.64190638   -105.90723    273.51411    4.2995247    4.2995247    4.2995247    273.51411   -10460.792    15041.003   -3759.6693   -6436.9103     6358.842    2922.6171    79.480637 
   49800    763.85907    -106.6015   0.69115574   -105.91035   -11250.133    4.3147873    4.3147873    4.3147873   -11250.133   -7248.9071   -8764.2484   -17737.242    2700.6259    376.27335    522.09525    80.330078 
   49900    449.90974   -106.32063   0.40708779   -105.91354    4198.1436    4.3070339    4.3070339    4.3070339    4198.1436    23581.709   -15947.955    4960.6765   -6781.4534    798.58142    2441.1068    79.897808 
   50000     641.0558   -106.49171   0.58004076   -105.91167   -3179.8523    4.3036161    4.3036161    4.3036161   -3179.8523   -11268.446     19167.68   -17438.791   -2943.3163    7368.8852   -2056.5306    79.707755 
   50100    658.93762   -106.50443    0.5962206   -105.90821   -2127.0023    4.3158756    4.3158756    4.3158756   -2127.0023    7290.1933    2491.2578   -16162.458    1671.3428   -3274.5884   -1800.7514    80.390876 
   50200    381.15861   -106.25722   0.34488032   -105.91234    13532.328    4.3006087    4.3006087    4.3006087    13532.328    28318.186    7462.0121    4816.7851   -11911.506    4638.3762   -2443.3535    79.540767 
   50300    668.39151   -106.52031   0.60477468   -105.91554   -5585.2193    4.3083635    4.3083635    4.3083635   -5585.2193   -7337.0368    12653.996   -22072.617    4768.0928    1709.4605   -902.83313    79.971827 
   50400    729.18367   -106.57049   0.65978071   -105.91071   -4987.2865    4.3103389    4.3103389    4.3103389   -4987.2865    11109.809   -15116.695   -10954.973   -3451.9464    795.00619   -3727.6753     80.08188 
   50500    337.97634    -106.2187    0.3058081   -105.91289    4394.8235    4.3043674    4.3043674    4.3043674    4394.8235     18695.63    3064.9969   -8576.1566   -2458.0021    8146.7393    3847.0507    79.749508 
   50600    878.37691   -106.70314   0.79477389   -105.90837   -11753.583    4.3107802    4.3107802    4.3107802   -11753.583   -15620.096   -426.79447   -19213.857   -2092.3111    417.31457   -2698.4864    80.106476 
   50700    636.31918   -106.48605   0.57575497    -105.9103    5747.7661     4.305341     4.305341     4.305341    5747.7661    16934.309   -2149.6106    2458.5999   -9767.1682   -1275.6509    1181.2414    79.803636 
   50800     250.1729   -106.14172    0.2263617   -105.91536   -236.19949    4.3098215    4.3098215    4.3098215   -236.19949    6330.9643    11106.551   -18146.113   -1381.8883      3152.53     934.8877    80.053041 
   50900     864.1649   -106.68901   0.78191456   -105.90709   -6936.1947    4.3083363    4.3083363    4.3083363   -6936.1947   -12506.102    4799.6466   -13102.129    4565.0138   -8508.3194   -1298.1947    79.970309 
   51000    532.18417   -106.39139   0.48153142   -105.90986    13629.184    4.3049196    4.3049196    4.3049196    13629.184    37710.794    631.70468    2545.0547   -1942.0996    8688.1126     910.4167    79.780204 
   51100    499.92357   -106.36426   0.45234135   -105.91192   -16465.963    4.3138702    4.3138702    4.3138702   -16465.963   -9644.7864   -9311.9315   -30441.172    3815.2188    2675.3942     1589.651    80.278865 
   51200    890.17707   -106.71215   0.80545092    -105.9067   -3152.6384    4.3019769    4.3019769    4.3019769   -3152.6384    7324.6865   -8091.0652   -8691.5364    -416.1097   -4138.8359   -4287.0144    79.616711 
   51300     426.4679   -106.30125   0.38587712   -105.91538   -4576.4797    4.3112724    4.3112724    4.3112724   -4576.4797    3373.6048   -7013.1385   -10089.905   -7733.2081    7597.6797    602.84397    80.133922 
   51400    537.18179   -106.40226   0.48605337   -105.91621   -6380.0677    4.3104277    4.3104277    4.3104277   -6380.0677     2513.534   -3777.7291   -17876.008    3627.7488   -12254.207   -4462.6786     80.08683 
   51500      871.947   -106.69691   0.78895597   -105.90795    4778.9678     4.303984     4.303984     4.303984    4778.9678    3271.4593    5157.2573    5908.1869   -2479.6584    3315.3389   -9223.8049    79.728195 
   51600    304.72216    -106.1921   0.27571901   -105.91638    1135.6392    4.3110693    4.3110693    4.3110693    1135.6392    16465.578    6012.0782   -19070.739    2609.0839    5440.2642    455.54793    80.122594 
   51700    454.79327   -106.32926   0.41150651   -105.91775    735.45506    4.3070871    4.3070871    4.3070871    735.45506    19713.587    -5912.826   -11594.396    1209.4142   -5455.3185   -11268.791     79.90077 
   51800    976.41736   -106.79589   0.88348294    -105.9124   -4727.3441     4.306709     4.306709     4.306709   -4727.3441   -8520.8677   -2607.7481   -3053.4166     2691.502    5595.2238    1371.6464     79.87973 
   51900    363.81957   -106.24523    0.3291916   -105.91604   -2058.4005      4.30992      4.30992      4.30992   -2058.4005    20309.356    -9584.784   -16899.774   -5386.7638   -215.98287   -1960.8203    80.058534 
   52000    573.57613    -106.4315   0.51898374   -105.91252   -3456.8496    4.3061962    4.3061962    4.3061962   -3456.8496    15716.329   -12556.926   -13529.952     6430.944   -3274.7275   -2926.7546    79.851197 
   52100    875.46181   -106.70032   0.79213624   -105.90818   -4946.7911    4.3081836    4.3081836    4.3081836   -4946.7911   -9177.1178   -2435.1291   -3228.1264   -2437.3456    1641.4072    4106.1353     79.96181 
   52200    346.79429   -106.23114   0.31378676   -105.91735   -1344.8621    4.3064498    4.3064498    4.3064498   -1344.8621    9701.9813   -3493.4556   -10243.112   -189.49597   -5193.4176   -6457.8181     79.86531 
   52300    670.83422   -106.52035    0.6069849   -105.91337    11511.251    4.3054606    4.3054606    4.3054606    11511.251    20522.047    7433.0047    6578.7012    5964.8438   -6361.0594   -1853.5956    79.810282 
   52400    714.32613   -106.55553   0.64633729    -105.9092   -1432.2485    4.3102647    4.3102647    4.3102647   -1432.2485    6972.8646   -851.14859   -10418.462   -6630.8885    6853.4138   -5593.8647    80.077746 
   52500    206.06253   -106.09869   0.18644971   -105.91224    2583.0226     4.304083     4.304083     4.304083    2583.0226    26176.424   -7041.3314   -11386.024    4941.3871   -5943.5055   -5889.8418    79.733698 
   52600    974.50657    -106.7893   0.88175402   -105.90755   -6468.4109     4.307085     4.307085     4.307085   -6468.4109   -7308.8888   -12354.768    258.42448    6853.0907     8632.352   -423.62744    79.900652 
   52700    607.10451   -106.46164   0.54932092   -105.91232   -1021.0197    4.3065047    4.3065047    4.3065047   -1021.0197    7905.6051   -7796.7345   -3171.9296   -4380.0837   -5268.4843   -3027.9974    79.868363 
   52800    360.47414   -106.24076   0.32616458    -105.9146   -2643.1723    4.3093241    4.3093241    4.3093241   -2643.1723    9528.0665   -3242.0582   -14215.525    12290.845   -4167.4594   -2953.2755    80.025328 
   52900    860.99241   -106.68324   0.77904403   -105.90419    4192.6868    4.3047016    4.3047016    4.3047016    4192.6868    4662.9368    160.46634    7754.6571   -5333.0535   -6695.8731    3042.5937    79.768085 
   53000    314.32118   -106.19528   0.28440441   -105.91088    4010.1748      4.30736      4.30736      4.30736    4010.1748    24708.835   -12450.051   -228.25967   -3629.3586   -6563.8667   -9855.3264    79.915956 
   53100    643.64442   -106.49207     0.582383   -105.90969   -10890.417    4.3097047    4.3097047    4.3097047   -10890.417   -17289.072   -9405.0953   -5977.0839    9637.7681   -3191.3817    3936.4706    80.046536 
   53200    854.46248   -106.67868    0.7731356   -105.90555    5456.3783    4.3028347    4.3028347    4.3028347    5456.3783    14487.321    -1790.834    3672.6484   -3720.3784     5297.992   -2021.7143    79.664346 
   53300    329.16427   -106.20984   0.29783475   -105.91201   -361.35566    4.3098375    4.3098375    4.3098375   -361.35566    24700.088   -10542.542   -15241.613    6183.3393   -534.74297   -3780.7891    80.053937 
   53400    692.97657   -106.53434   0.62701976   -105.90732   -10584.933    4.3087967    4.3087967    4.3087967   -10584.933   -10548.475   -10955.464    -10250.86    6902.6744    3382.8789    6038.8139     79.99595 
   53500    686.51213   -106.52555    0.6211706   -105.90438        15723    4.3012551    4.3012551    4.3012551        15723    40400.715    1468.1283    5300.1575   -5150.6067   -586.18949   -7091.3231    79.576642 
   53600    449.37576   -106.31928   0.40660463   -105.91268   -9816.1271    4.3102722    4.3102722    4.3102722   -9816.1271   -12896.803   -1172.6796   -15378.899    13676.617   -1964.5057    1199.4697    80.078161 
   53700    723.70436   -106.56453   0.65482292   -105.90971   -3421.6258    4.3072736    4.3072736    4.3072736   -3421.6258   -517.44819    -6488.413   -3259.0163    2053.0717    1372.0283    -1910.323    79.911151 
   53800    498.49058   -106.36142   0.45104475   -105.91038    10994.534    4.3053501    4.3053501    4.3053501    10994.534    35720.095   -13767.038    11030.545    1887.5194   -3692.3238   -2405.2288    79.804137 
   53900    480.16542   -106.34783   0.43446376   -105.91336   -11058.827    4.3081359    4.3081359    4.3081359   -11058.827    -10787.17   -8533.7844   -13855.527    9963.6364   -4320.6289    3673.4074    79.959153 
   54000    930.59603   -106.74784   0.84202285   -105.90582   -1223.8175    4.3095224    4.3095224    4.3095224   -1223.8175    10970.705   -8693.2058   -5948.9519   -7466.3845    4207.7178    2148.4458    80.036378 
   54100    475.35559   -106.34085   0.43011173   -105.91074    6653.2407    4.3049574    4.3049574    4.3049574    6653.2407    31544.599   -7935.1639    -3649.713    9695.4748   -600.68304    3164.3605    79.782306 
   54200     417.6517   -106.29534   0.37790003   -105.91744   -9644.5983    4.3084096    4.3084096    4.3084096   -9644.5983   -2901.8892   -8635.0036   -17396.902    4733.4006   -532.73377    4107.7388    79.974395 
   54300    913.83596   -106.73596   0.82685798    -105.9091   -362.62931    4.3094435    4.3094435    4.3094435   -362.62931    8447.5116   -15127.821    5592.4219    3318.5278   -2662.3969    357.98249    80.031984 
   54400    335.02598   -106.21851   0.30313854   -105.91537    9321.5607    4.3061491    4.3061491    4.3061491    9321.5607    26365.517     1988.122   -388.95663    11720.634   -5920.9029    -699.5483     79.84858 
   54500    651.83391    -106.5025   0.58979302   -105.91271   -9215.0236     4.308617     4.308617     4.308617   -9215.0236   -14066.157    -3529.102   -10049.812   -3098.9514   -2288.2223    2548.3897    79.985946 
   54600    693.87566   -106.53511   0.62783328   -105.90728    2644.3148    4.3095337    4.3095337    4.3095337    2644.3148    20082.324   -16657.852    4508.4727   -365.93066    2011.4891   -5977.7773    80.037007 
   54700    323.00932   -106.20363   0.29226562   -105.91136     91.27497     4.307137     4.307137     4.307137     91.27497    10569.105    1571.4039   -11866.684    7381.1228   -1794.2205    4464.8111    79.903549 
   54800    895.02849   -106.71569   0.80984059   -105.90585   -8165.8134    4.3089863    4.3089863    4.3089863   -8165.8134   -3572.3314   -8558.3768   -12366.732   -6348.4032    4519.3038   -1874.6467     80.00651 
   54900    594.17857   -106.44306   0.53762526   -105.90544    15376.528     4.307601     4.307601     4.307601    15376.528    35176.985    1975.0093    8977.5899    6789.8568   -2751.1201   -330.03902    79.929371 
   55000     476.6665   -106.33923   0.43129786   -105.90793   -15153.823    4.3097815    4.3097815    4.3097815   -15153.823   -14874.958   -14625.162   -15961.349   -130.69401    750.02667    2998.3267    80.050812 
   55100     623.9196   -106.46863   0.56453556   -105.90409    3490.0073    4.3060503    4.3060503    4.3060503    3490.0073    17906.293   -16214.459    8778.1874   -482.13313    999.05759   -4335.7635    79.843082 
   55200    588.79877    -106.4399    0.5327575   -105.90714    4140.0899    4.3084616    4.3084616    4.3084616    4140.0899    17863.003   -1223.7829   -4218.9506    2910.6344   -3347.4684    2162.1228    79.977287 
   55300    654.03798   -106.50133   0.59178731   -105.90954   -12647.025    4.3109208    4.3109208    4.3109208   -12647.025   -13563.425    -5453.781   -18923.868   -3239.0587    320.91227    13.351666    80.114315 
   55400    710.19955   -106.55088   0.64260347   -105.90828     5564.526    4.3048439    4.3048439    4.3048439     5564.526    22747.615   -8118.1281    2064.0907   -3033.0294    763.23337   -104.53738    79.775992 
   55500    340.30906   -106.22484   0.30791879   -105.91692    8570.5334    4.3097486    4.3097486    4.3097486    8570.5334    40885.357    -8878.353   -6295.4037    4445.0648   -558.85454    2547.2789    80.048983 
   55600    620.63688   -106.48177   0.56156529    -105.9202    -4915.329     4.308484     4.308484     4.308484    -4915.329    1384.4394   -14692.038   -1438.3885   -3938.5533    3340.5458   -781.67033    79.978536 
   55700     863.8093    -106.6956    0.7815928   -105.91401    4435.0028    4.3083239    4.3083239    4.3083239    4435.0028    16150.885   -8777.8854    5932.0085   -3735.0759   -7335.0156   -3806.5957    79.969621 
   55800    351.65284   -106.23179   0.31818288   -105.91361    3596.2217    4.3125919    4.3125919    4.3125919    3596.2217    28890.652    -10673.96   -7428.0274    3452.1893    4398.4962   -486.98309    80.207522 
   55900    592.98034   -106.44568   0.53654107   -105.90914    -5653.393    4.3057614    4.3057614    4.3057614    -5653.393    3638.3807   -17838.116   -2760.4437   -10764.312   -717.87801   -7905.4234    79.827011 
   56000     770.3305   -106.60265   0.69701123   -105.90564   -1534.0631    4.3123929    4.3123929    4.3123929   -1534.0631    7720.1564   -5484.9439   -6837.4018    4003.3213    4909.1964   -500.48195    80.196417 
   56100     446.1418    -106.3122   0.40367847   -105.90852    68.458231    4.3097547    4.3097547    4.3097547    68.458231    13457.879    3806.9904   -17059.494     222.2374    5400.0272   -1524.2791    80.049322 
   56200    770.39938   -106.60114   0.69707355   -105.90406   -9394.4132    4.3098513    4.3098513    4.3098513   -9394.4132   -8485.8373   -15341.325   -4356.0771    -7874.054    1559.0137   -4356.7981    80.054703 
   56300     488.8784   -106.34548   0.44234745   -105.90314    18689.727    4.3089637    4.3089637    4.3089637    18689.727    50271.788    261.45233    5535.9408    6001.8673    1382.8398     5816.352    80.005253 
   56400    574.60378   -106.42687   0.51991357   -105.90696   -18248.812    4.3111209    4.3111209    4.3111209   -18248.812   -20428.604   -20124.333     -14193.5   -10993.697    759.79053   -6863.0989    80.125474 
   56500    637.11003   -106.48087   0.57647055    -105.9044    12037.361    4.3087111    4.3087111    4.3087111    12037.361    37189.369   -5488.1244    4410.8377   -4715.0763   -1121.2378    1103.5194    79.991185 
   56600    716.67044   -106.55269   0.64845848   -105.90424    -6760.263    4.3106079    4.3106079    4.3106079    -6760.263   -3019.0903    -8262.372   -8999.3269    786.83592   -3749.5303   -2673.1355    80.096875 
   56700    372.12571   -106.24588   0.33670716   -105.90918   -11170.031    4.3098452    4.3098452    4.3098452   -11170.031   -249.39482   -19174.738   -14085.961   -14991.041    2070.2542   -5875.5732    80.054365 
   56800    705.83987   -106.54235   0.63865874   -105.90369    17289.389    4.3075498    4.3075498    4.3075498    17289.389    45498.488     6405.088    -35.40803   -62.223244   -3633.7578    1656.1599    79.926525 
   56900    698.04518   -106.53954   0.63160595   -105.90793   -15025.585    4.3127801    4.3127801    4.3127801   -15025.585   -9691.0306   -13066.874    -22318.85    -2037.259    8207.2667   -3998.1324    80.218023 
   57000    387.45144   -106.26106   0.35057421   -105.91049    8680.8989    4.3075314    4.3075314    4.3075314    8680.8989    38138.033   -8645.7159   -3449.6204   -12080.873    -2392.395   -2559.6287    79.925498 
   57100    845.94386   -106.67137   0.76542778   -105.90594    2907.7488    4.3083792    4.3083792    4.3083792    2907.7488    21107.336   -14034.675    1650.5854    6501.4868    5665.3537   -591.33008    79.972703 
   57200    439.08196   -106.31355   0.39729059   -105.91626    -16532.99    4.3115707    4.3115707    4.3115707    -16532.99   -17768.704   -18120.063   -13710.204   -12753.188   -538.61317    -6814.091    80.150557 
   57300    546.34892   -106.40931   0.49434798   -105.91496    7023.0551    4.3078031    4.3078031    4.3078031    7023.0551    31812.886   -5113.4414   -5630.2789   -7417.0851   -6467.5389   -3150.5816    79.940625 
   57400    669.84256   -106.52049   0.60608763   -105.91441    13328.946    4.3062386    4.3062386    4.3062386    13328.946    43434.602   -892.19083    -2555.573    6726.0777    3746.4951   -1239.5587    79.853556 
   57500    398.61667   -106.28312   0.36067674   -105.92245   -17581.506     4.312819     4.312819     4.312819   -17581.506    -14019.56   -16739.387   -21985.572   -16896.522   -3142.3267   -5781.1058    80.220194 
   57600    810.17428   -106.64764   0.73306271   -105.91458    2382.0259    4.3048656    4.3048656    4.3048656    2382.0259    15402.498   -176.82314   -8079.5968    3778.7911    4283.9263    5052.9282    79.777198 
   57700    530.13551    -106.3934   0.47967775   -105.91372    9275.7086    4.3099162    4.3099162    4.3099162    9275.7086     42429.77   -5690.9613   -8911.6825   -5681.8918    2260.5847    -2414.219    80.058321 
   57800    618.18489   -106.47115   0.55934668    -105.9118   -18880.239    4.3139989    4.3139989    4.3139989   -18880.239   -16487.086   -21216.733   -18936.899   -8589.9476    4681.5952   -310.45298     80.28605 
   57900    736.82028   -106.56889   0.66669047    -105.9022    18252.983    4.3036386    4.3036386    4.3036386    18252.983    47116.555     395.5227    7246.8705    1577.0801   -6531.8215    2583.3638    79.709002 
   58000    433.71961   -106.29957   0.39243862   -105.90713   -9898.4415    4.3135557    4.3135557    4.3135557   -9898.4415   -5854.9416   -13730.635   -10109.748   -10439.327    3007.3789   -7669.0197    80.261309 
   58100    580.98751   -106.43172   0.52568971   -105.90603   -6494.9254    4.3109928    4.3109928    4.3109928   -6494.9254     -14229.9    2057.0277   -7311.9044   -4811.5199   -4338.5959   -846.42075    80.118333 
   58200    657.52743   -106.49724   0.59494464   -105.90229    20097.423    4.3060392    4.3060392    4.3060392    20097.423    46646.754    7555.6682    6089.8478   -1072.1206    -3450.562   -4863.6938    79.842464 
   58300    577.15104   -106.43121   0.52221839   -105.90899   -15555.606    4.3125692    4.3125692    4.3125692   -15555.606   -16701.958    -16405.88   -13558.979   -17119.207    875.29035   -4243.0253    80.206253 
   58400    505.84409   -106.36492   0.45769836   -105.90722    8379.8056    4.3082414    4.3082414    4.3082414    8379.8056    36200.035    4748.8338   -15809.452     2372.483   -5406.7279    1833.6595    79.965025 
   58500    688.03748   -106.52891   0.62255077   -105.90636   -463.49857    4.3083308    4.3083308    4.3083308   -463.49857    16122.703   -10746.954   -6766.2445   -9079.9834    4233.4195    -2939.191    79.970005 
   58600     646.6092   -106.49621   0.58506559   -105.91114   -16833.517    4.3112378    4.3112378    4.3112378   -16833.517   -19254.409   -16943.815   -14302.328   -3017.5626   -2001.0797    1938.4536    80.131992 
   58700    650.28669    -106.4965   0.58839306   -105.90811     8569.521    4.3070379    4.3070379    4.3070379     8569.521    31273.525   -1493.4063    -4071.556    3164.8547    22.077511    1014.9142    79.898033 
   58800     491.5756   -106.35561   0.44478794   -105.91082    1029.2235     4.308928     4.308928     4.308928    1029.2235    16350.635   -19470.006    6207.0419   -10292.068    101.50761   -1347.7527    80.003263 
   58900     558.1514   -106.41719   0.50502712   -105.91216   -7799.1136    4.3078686    4.3078686    4.3078686   -7799.1136   -14696.362    3002.2318   -11703.211   -3337.2254    2165.6635     1915.396    79.944271 
   59000    631.49468   -106.48111   0.57138966   -105.90972    5254.7012     4.311677     4.311677     4.311677    5254.7012    24056.926   -11662.046    3369.2239     1343.145   -438.43553   -715.17492    80.156485 
   59100    667.91873   -106.51453   0.60434691   -105.91018    817.82779    4.3018935    4.3018935    4.3018935    817.82779    3244.2884   -2485.7169    1694.9119   -12141.292    19.828362    513.24584    79.612078 
   59200    528.59682   -106.39099   0.47828551    -105.9127   -20318.291    4.3171971    4.3171971    4.3171971   -20318.291   -12799.852   -14884.042    -33270.98    4266.5043    1903.0099    4283.1141    80.464744 
   59300    608.57615   -106.45709   0.55065249   -105.90644    20327.008    4.3020591    4.3020591    4.3020591    20327.008    55526.377   -4406.3515    9861.0003    -2826.207    580.92002    -1892.596    79.621275 
   59400    608.07354    -106.4608   0.55019771    -105.9106   -11405.032    4.3113147    4.3113147    4.3113147   -11405.032   -14532.515   -15698.605   -3983.9769   -7507.9395    5743.7563    4265.2479    80.136279 
   59500    679.62167   -106.52176   0.61493597   -105.90682   -5978.2976    4.3134391    4.3134391    4.3134391   -5978.2976    6709.1974    -13075.59     -11568.5    8935.2336   -4440.8455   -1590.9476    80.254797 
   59600    559.55979   -106.41164   0.50630146   -105.90533    13708.974    4.3020682    4.3020682    4.3020682    13708.974    30507.091   -5729.6992     16349.53   -1973.7466    -290.8934   -1360.6893    79.621778 
   59700    569.98649   -106.42617   0.51573576   -105.91043   -21936.737    4.3142109    4.3142109    4.3142109   -21936.737   -23053.433   -10061.047   -32695.732   -3335.9677    238.23077    1996.0438    80.297888 
   59800    569.07288   -106.42117    0.5149091   -105.90626    15050.706    4.3084092    4.3084092    4.3084092    15050.706    42776.828   -828.26318    3203.5537    6365.5764   -3126.6457   -2144.0022     79.97437 
   59900    726.49828   -106.56241   0.65735091   -105.90506   -7438.4058    4.3095115    4.3095115    4.3095115   -7438.4058   -2263.7796   -8324.1531   -11727.285   -8343.3382    3653.9332    4613.7016    80.035771 
   60000    435.24023    -106.3014   0.39381451   -105.90759   -5940.1856    4.3096053    4.3096053    4.3096053   -5940.1856    5159.6063    311.54249   -23291.706    2243.3378   -94.230236    3034.5036    80.040996 
   60100    582.52126   -106.43129   0.52707748   -105.90422    4782.3296    4.3091431    4.3091431    4.3091431    4782.3296    16178.714   -14187.477    12355.752    7678.3924    389.62512    1659.9751    80.015249 
   60200    735.62775   -106.57086   0.66561145   -105.90525   -14006.938    4.3110125    4.3110125    4.3110125   -14006.938   -14845.309   -14411.457   -12764.046   -7164.7426    3069.4169    3195.7345    80.119431 
   60300    421.90144   -106.29008   0.38174529   -105.90833    4626.2965    4.3084353    4.3084353    4.3084353    4626.2965    27762.474   -9282.6058   -4600.9792    9610.9872   -1461.6632   -1196.4552    79.975824 
   60400    834.26714    -106.6587   0.75486244   -105.90383    2247.2831    4.3082583    4.3082583    4.3082583    2247.2831    22282.739   -16164.184    623.29414    2449.2696   -2069.0601   -973.08369    79.965967 
   60500     545.5811   -106.40189   0.49365325   -105.90824   -14686.249    4.3136079    4.3136079    4.3136079   -14686.249   -1757.5681   -14110.026   -28191.153    588.69588    2477.1957   -271.87619    80.264223 
   60600    432.60522   -106.30078   0.39143029   -105.90935    12005.917    4.3020736    4.3020736    4.3020736    12005.917    29821.218   -3711.0549    9907.5866    11770.942   -3837.9353   -1824.4638    79.622078 
   60700    875.07876   -106.69778   0.79178965   -105.90599   -7866.1543    4.3150951    4.3150951    4.3150951   -7866.1543   -1218.3537   -11427.541   -10952.568    -4613.783    10520.194     1869.911    80.347267 
   60800    447.54546   -106.31693   0.40494854   -105.91198    347.89145    4.3038689    4.3038689    4.3038689    347.89145    3665.7431     5816.531   -8438.5997    8021.3662   -1600.2293    2007.5027    79.721799 
   60900    368.14653   -106.24891   0.33310672    -105.9158    13521.352    4.3087012    4.3087012    4.3087012    13521.352    40919.013   -6290.2822    5935.3257    7795.8149    1256.9574   -967.56356    79.990636 
   61000     830.8298   -106.66355   0.75175226    -105.9118   -11291.574    4.3137993    4.3137993    4.3137993   -11291.574    -10677.51   -12478.759   -10718.452   -3425.0234   -2178.4114    4518.5181    80.274908 
   61100    487.45189   -106.35802   0.44105671   -105.91697   -822.72486    4.2980661    4.2980661    4.2980661   -822.72486   -1205.4132   -2669.3845    1406.6231    14706.852   -1315.0059   -3323.8968    79.399775 
   61200     694.5704   -106.54168    0.6284619   -105.91322    2913.8066    4.3157439    4.3157439    4.3157439    2913.8066    34204.058   -16258.324   -9204.3147    2920.6038   -764.48498    180.89522    80.383513 
   61300    729.63927   -106.57282   0.66019295   -105.91263   -6922.2369    4.3079798    4.3079798    4.3079798   -6922.2369    2663.8105    -10421.21   -13009.311    2708.6683    3877.4494   -1499.6681     79.95046 
   61400     348.6207   -106.23019   0.31543933   -105.91475    6736.2153    4.2980888    4.2980888    4.2980888    6736.2153    17653.842   -1866.0578    4420.8617    16118.208   -1134.0513   -2792.9312    79.401034 
   61500    760.72579   -106.59354   0.68832068   -105.90522   -3167.7812    4.3219717    4.3219717    4.3219717   -3167.7812    10675.721   -8849.4268   -11329.637   -2231.1175   -248.67629    -104.9343     80.73201 
   61600    667.17936   -106.50992   0.60367791   -105.90625     2140.088    4.2990024    4.2990024    4.2990024     2140.088   -1952.8963    6662.8397    1710.3205    9104.1747   -411.43723   -993.00776    79.451678 
   61700    325.44157   -106.20522   0.29446637   -105.91075    866.37784    4.3087597    4.3087597    4.3087597    866.37784    13170.276    -12713.17    2142.0268    11954.285   -3418.1633   -3777.3351    79.993892 
   61800    906.70252   -106.72086   0.82040349   -105.90046   -9103.4651    4.3151792    4.3151792    4.3151792   -9103.4651    1344.6554   -21246.691   -7408.3596   -7809.1019   -1463.0474   -479.39115    80.351968 
   61900    348.19867   -106.22313   0.31505747   -105.90807    3944.9745    4.3014108    4.3014108    4.3014108    3944.9745    19236.102   -7031.6137   -369.56504    20694.239    928.00213   -3638.3859    79.585281 
   62000    709.80704   -106.54965   0.64224832    -105.9074   -1975.4622    4.3108962    4.3108962    4.3108962   -1975.4622    8281.5431   -2217.3199    -11990.61   -2492.8332   -4502.2716   -3467.5132    80.112946 
   62100    831.98653   -106.65486   0.75279889   -105.90207   -5933.3562    4.3125732    4.3125732    4.3125732   -5933.3562   -928.34774   -8019.5047   -8852.2162    5386.0876    4273.3204    2298.8312    80.206476 
   62200    144.14703   -106.03909   0.13042726   -105.90866    3790.4661    4.3027711    4.3027711    4.3027711    3790.4661    12081.775   -1825.9855    1115.6089    16640.238   -1974.7075   -2246.9877    79.660811 
   62300    885.28217   -106.70641   0.80102191   -105.90539   -9770.1778    4.3130306    4.3130306    4.3130306   -9770.1778   -9829.8177   -12658.254   -6822.4622   -7499.1421     3348.499    3358.7524    80.232001 
   62400    560.19458   -106.41598   0.50687583    -105.9091    4542.1289    4.3087935    4.3087935    4.3087935    4542.1289    16183.357   -9208.3495     6651.379    13576.965    636.16076    1981.8408    79.995774 
   62500    437.99226   -106.30774    0.3963046   -105.91144    54.745131    4.3036224    4.3036224    4.3036224    54.745131    15567.146   -16475.392    1072.4815    4271.2386   -2062.0942   -3730.7737    79.708105 
   62600    791.70966   -106.62151   0.71635554   -105.90515   -9969.1785    4.3134888    4.3134888    4.3134888   -9969.1785   -5465.9599   -20837.769   -3603.8063   -9092.9307   -5479.0311    799.86762    80.257575 
   62700     404.1396   -106.27376   0.36567401   -105.90809     6553.875    4.3033112    4.3033112    4.3033112     6553.875     21080.14    -2864.148    1445.6333     14906.17   -898.87269   -4915.6707    79.690812 
   62800     639.3411   -106.48733   0.57848926   -105.90884     -10637.8    4.3109695    4.3109695    4.3109695     -10637.8   -6390.2821   -1749.5769    -23773.54   -8508.5126   -5644.4255   -1448.2051    80.117033 
   62900    779.62772   -106.60926   0.70542354   -105.90384    7268.5327    4.3056166    4.3056166    4.3056166    7268.5327    17933.087   -848.34658    4720.8573    3672.6966    3619.6002   -1229.4182    79.818961 
   63000    372.77775   -106.24703   0.33729715   -105.90974    459.67944    4.3099916    4.3099916    4.3099916    459.67944    24766.595   -11880.262   -11507.295    12583.526    2016.5703   -1050.0326    80.062525 
   63100    703.00593   -106.54395   0.63609454   -105.90785    -11824.92    4.3082225    4.3082225    4.3082225    -11824.92   -15147.255   -8886.2242   -11441.282   -6204.4477    7.1568701   -749.28656    79.963976 
   63200    618.83523   -106.46774   0.55993512    -105.9078    10982.226     4.304194     4.304194     4.304194    10982.226    27890.497    -1701.005     6757.185     7756.619   -147.78979   -259.22213    79.739866 
   63300     519.5867   -106.38113   0.47013297   -105.91099    -11944.29     4.313086     4.313086     4.313086    -11944.29   -10213.312   -7726.9486    -17892.61    12.181826   -3737.4568   -3483.0791    80.235092 
   63400    644.50657    -106.4899   0.58316309   -105.90674   -595.76248    4.3062289    4.3062289    4.3062289   -595.76248      1870.78   -933.43003   -2724.6374   -8285.3245    -3569.298    1571.3158    79.853018 
   63500     546.3587   -106.40004   0.49435683   -105.90568     13062.69    4.3069916    4.3069916    4.3069916     13062.69    38989.438    2138.7224   -1940.0911    10837.215   -1567.9711   -2068.5978    79.895457 
   63600    589.20829   -106.44224   0.53312804   -105.90911     -18675.6    4.3105776    4.3105776    4.3105776     -18675.6    -20828.64   -4187.9497   -31010.209   -6357.2234   -3407.2118    166.19922    80.095181 
   63700    634.21488    -106.4807   0.57385095   -105.90684    9670.9502    4.3064394    4.3064394    4.3064394    9670.9502    22805.619    2271.0699    3936.1614   -2956.1259    743.87209    951.03569    79.864727 
   63800    777.85842   -106.60867   0.70382265   -105.90484   -7481.6903    4.3098441    4.3098441    4.3098441   -7481.6903   -3589.2932   -13684.829   -5170.9489    9368.9505   -1445.6267   -4486.7659    80.054302 
   63900    360.43076   -106.23495   0.32612533   -105.90883   -4276.3953    4.3062183    4.3062183    4.3062183   -4276.3953   -10657.329    2919.8648   -5091.7218   -11902.128    3851.9366   -930.73698    79.852427 
   64000    626.13292   -106.47156   0.56653823   -105.90502    7219.3254     4.310666     4.310666     4.310666    7219.3254     21581.97   -4671.0278    4747.0345    4280.3892    3505.8267   -3996.8238    80.100113 
   64100    712.52898   -106.55148    0.6447112   -105.90676   -2676.3488    4.3046822    4.3046822    4.3046822   -2676.3488   -11198.204    10572.044   -7402.8865   -481.36648   -652.62953   -2740.9614    79.767007 
   64200    422.12753   -106.29534   0.38194986   -105.91339   -4523.5086    4.3110908    4.3110908    4.3110908   -4523.5086    5392.9806   -13142.001   -5821.5053   -15040.135    1611.5552   -575.87704    80.123797 
   64300    860.93623   -106.68413    0.7789932   -105.90514    2811.9928    4.3072464    4.3072464    4.3072464    2811.9928    9294.2781    3262.1454   -4120.4451      3954.14   -3293.7361    3715.1396    79.909636 
   64400    500.31152   -106.36448   0.45269237   -105.91179   -19356.715    4.3095767    4.3095767    4.3095767   -19356.715   -24467.859    -7828.023   -25774.263   -11276.824   -925.58355    508.47474    80.039403 
   64500    451.85244   -106.32218   0.40884558   -105.91334    10031.623    4.3080408    4.3080408    4.3080408    10031.623    30892.759   -1343.0798    545.19001   -6992.1113    7900.2329    3167.4835    79.953857 
   64600     942.1503   -106.76119   0.85247739   -105.90872    6418.8633    4.3066637    4.3066637    4.3066637    6418.8633    10784.976    1159.8028    7311.8112    3029.8184   -1360.4898    1151.6509     79.87721 
   64700    362.25021   -106.24582    0.3277716   -105.91805   -8624.8877    4.3094867    4.3094867    4.3094867   -8624.8877   -17729.588   -3145.3085   -4999.7666   -12694.794    473.34521   -3266.3051    80.034387 
   64800    481.13719   -106.34881   0.43534304   -105.91347    9555.0844    4.3077402    4.3077402    4.3077402    9555.0844    20738.442    2462.4425    5464.3688   -1645.3626    145.04263    1671.3173     79.93712 
   64900    810.55722   -106.64389   0.73340921   -105.91048    272.20936      4.30576      4.30576      4.30576    272.20936    523.91345    2608.3767    -2315.662   -990.57233   -6892.4288   -3465.2072    79.826933 
   65000    481.63278   -106.35167   0.43579146   -105.91588   -13232.024    4.3109903    4.3109903    4.3109903   -13232.024   -17130.609   -15677.261   -6888.2007   -13243.741    5854.2615     2282.147    80.118192 
   65100    661.10387    -106.5072   0.59818068   -105.90902    11867.677    4.3066218    4.3066218    4.3066218    11867.677    36636.659   -798.44283   -235.18596     5540.793    132.24906   -1528.5634    79.874877 
   65200    678.51123    -106.5241   0.61393122   -105.91017   -9942.8925    4.3069682    4.3069682    4.3069682   -9942.8925   -16199.913   -6918.6525    -6710.112   -9193.3584    5851.1236    1287.8734    79.894155 
   65300    288.61896    -106.1759    0.2611485   -105.91475    1082.7939    4.3116928    4.3116928    4.3116928    1082.7939    4417.2147   -10206.377     9037.544   -5352.4901     4148.148    203.07757    80.157367 
   65400    930.34048   -106.74803   0.84179162   -105.90623    4637.8276    4.3074638    4.3074638    4.3074638    4637.8276    12528.214    -1452.019    2837.2879    2971.8921    2599.3653    47.826929    79.921736 
   65500    572.94212   -106.43134   0.51841007   -105.91293   -2314.3301    4.3043979    4.3043979    4.3043979   -2314.3301   -14694.416   -18.656783    7770.0819   -10728.274    835.65836    1443.3869      79.7512 
   65600    331.60956   -106.21354    0.3000473   -105.91349   -3961.3361    4.3143188    4.3143188    4.3143188   -3961.3361    25056.856   -11975.206   -24965.658    2081.4949   -1329.7308    2555.6871    80.303912 
   65700    904.84529   -106.72395   0.81872303   -105.90523   -718.20944    4.3051212    4.3051212    4.3051212   -718.20944   -4435.9556   -8845.4532     11126.78    1179.5671   -2467.5236   -1882.3923    79.791411 
   65800    503.47818   -106.36793   0.45555764   -105.91237   -4710.1468    4.3079371    4.3079371    4.3079371   -4710.1468    275.88543   -13462.044   -944.28204   -11135.759    -1154.606    1841.5251    79.948083 
   65900    524.15763   -106.38535   0.47426884   -105.91108   -7573.9766    4.3142561    4.3142561    4.3142561   -7573.9766    9735.0321   -14357.516   -18099.445    8323.1995   -4854.2822   -4697.0347     80.30041 
   66000    823.29699   -106.65122   0.74493641   -105.90629    5464.8134    4.3002706    4.3002706    4.3002706    5464.8134     2643.072   -3097.3678    16848.736   -7867.6112    6690.3803   -874.60009    79.522012 
   66100    367.08237   -106.24681   0.33214385   -105.91466   -9168.6669    4.3150236    4.3150236    4.3150236   -9168.6669    6510.0688   -15180.897   -18835.172   -2703.6513   -1732.1868    1564.3135    80.343273 
   66200    640.75198    -106.4907   0.57976586   -105.91093    8446.6826    4.3032605    4.3032605    4.3032605    8446.6826    23259.906    -1117.213    3197.3554    7825.0111    245.08952   -1981.0322    79.687997 
   66300    834.24469   -106.66431   0.75484213   -105.90947    1503.5104    4.3052651    4.3052651    4.3052651    1503.5104   -7210.0216   -1356.4794    13077.032   -13110.844   -4072.1463    3463.3032    79.799414 
   66400    331.72524   -106.21367   0.30015197   -105.91352   -14625.951    4.3166261    4.3166261    4.3166261   -14625.951    726.65236   -12353.972   -32250.534    7203.8445   -8851.1841   -803.60925    80.432818 
   66500    628.56845   -106.47695   0.56874194   -105.90821    13352.969     4.296808     4.296808     4.296808    13352.969    23941.732   -954.54215    17071.716    1623.2069   -2633.5196    980.79405     79.33007 
   66600    778.80247    -106.6124   0.70467684   -105.90772   -13366.296    4.3156769    4.3156769    4.3156769   -13366.296    -14323.83   -17827.428    -7947.631   -6678.7418     3420.583   -1222.7877     80.37977 
   66700    353.14588   -106.22977   0.31953381   -105.91024   -896.55893    4.3092304    4.3092304    4.3092304   -896.55893    18443.499   -5538.0153   -15595.161    8679.5229   -2212.7012   -2190.8536    80.020113 
   66800     825.9734   -106.65188   0.74735809   -105.90453    10964.315     4.297695     4.297695     4.297695    10964.315    6654.2702    7438.0256     18800.65   -5616.1135    4798.4486   -654.92319     79.37921 
   66900    550.78283   -106.40769   0.49835988   -105.90933   -13884.377    4.3199391    4.3199391    4.3199391   -13884.377   -10069.971   -11657.483   -19925.678    145.31365   -6633.1053    1186.8373    80.618156 
   67000    353.78853    -106.2301    0.3201153   -105.90998    14373.313    4.2999809    4.2999809    4.2999809    14373.313    35369.074   -1810.9618    9561.8253    7914.1645   -2499.5625   -1382.6643    79.505942 
   67100    956.23664   -106.76986   0.86522301   -105.90463   -1685.5526    4.3100238    4.3100238    4.3100238   -1685.5526   -5707.2157   -3818.9896    4469.5475   -6092.0295    -2404.611   -1191.9885    80.064315 
   67200    473.82991   -106.33944   0.42873126   -105.91071   -789.51286    4.3104645    4.3104645    4.3104645   -789.51286    13921.011   -574.75558   -15714.794    4589.1393   -5930.8061   -1447.3797     80.08888 
   67300    414.20395   -106.28831   0.37478044   -105.91353    6882.4062    4.3011276    4.3011276    4.3011276    6882.4062    20261.905    759.53488   -374.22078    3622.4092    2298.9796   -3504.5624    79.569567 
   67400    843.29347   -106.67284   0.76302966   -105.90981   -6402.1689    4.3124665    4.3124665    4.3124665   -6402.1689    -6761.589   -10114.843   -2330.0744   -3046.0541    49.674474    1829.0319    80.200524 
   67500     419.7424   -106.29769   0.37979175    -105.9179   -1280.2761    4.3053035    4.3053035    4.3053035   -1280.2761    6632.7404   -1691.5093   -8782.0593    9646.2196    -5457.147   -3194.8701    79.801549 
   67600    587.23292   -106.44673   0.53134068   -105.91539    18344.816    4.3028965    4.3028965    4.3028965    18344.816    37295.537    5676.9261    12061.985    1573.7451    6021.7417    2213.0868    79.667776 
   67700    810.26022   -106.64353   0.73314048   -105.91039   -12737.082    4.3138506    4.3138506    4.3138506   -12737.082   -17438.716   -15122.799   -5649.7314   -2676.5291    -12388.13    1183.7304    80.277771 
   67800    251.91799   -106.14009   0.22794069   -105.91215    8630.6753    4.2985377    4.2985377    4.2985377    8630.6753    15538.509    3137.2783    7216.2386    7133.4197    3788.8563   -3322.3992    79.425916 
   67900    742.86759   -106.58071   0.67216221   -105.90855   -2546.8397    4.3107511    4.3107511    4.3107511   -2546.8397    12275.278    -10145.65   -9770.1477   -5218.6641   -1163.2181   -611.86999    80.104857 
   68000    776.26759    -106.6084   0.70238323   -105.90602    711.73911    4.3057778    4.3057778    4.3057778    711.73911   -178.39673     3737.187    -1423.573    6002.0532   -1057.6705   -695.51344    79.827925 
   68100    354.08748   -106.23024    0.3203858   -105.90985    6369.9678    4.3057084    4.3057084    4.3057084    6369.9678    26191.023     1847.132   -8928.2513    1835.3402    5936.2216   -3360.0738    79.824065 
   68200    713.73076   -106.54902   0.64579859   -105.90322   -8510.8896    4.3094125    4.3094125    4.3094125   -8510.8896    17.836696    -22014.75   -3535.7552    205.19303     5033.593    4741.9971    80.030252 
   68300    503.82169   -106.36131   0.45586845   -105.90544    7117.1512     4.303586     4.303586     4.303586    7117.1512    13948.601    766.20327    6636.6488    1862.6957   -2688.8528   -780.22289    79.706083 
   68400     588.7283   -106.44023   0.53269374   -105.90754   -13475.945     4.311511     4.311511     4.311511   -13475.945   -4011.7844   -13898.963   -22517.088    5376.9591    7151.7504    1357.2566    80.147224 
   68500    841.65361   -106.66452   0.76154587   -105.90297    4018.7056    4.3007088    4.3007088    4.3007088    4018.7056    11533.454   -3593.7456    4116.4082   -702.49591   -7890.7632     4927.638    79.546322 
   68600    366.93652   -106.24116   0.33201187   -105.90915    738.09441    4.3116919    4.3116919    4.3116919    738.09441    20502.675   -7448.8599   -10839.531    8597.3229   -1344.9543   -2173.7576    80.157313 
   68700    558.40156    -106.4173   0.50525346   -105.91205   -14273.538     4.304165     4.304165     4.304165   -14273.538    899.37723    -23655.94    -20064.05   -989.29706    4311.7825    8344.3422    79.738257 
   68800    826.52878    -106.6589   0.74786061   -105.91104    8381.4229    4.3051587    4.3051587    4.3051587    8381.4229    18400.726   -1369.4919    8113.0344    796.06681    918.89396    626.29464    79.793498 
   68900    505.33642   -106.37256   0.45723901   -105.91533   -9870.1816    4.3126301    4.3126301    4.3126301   -9870.1816    5593.5906   -18434.216    -16769.92   -2646.4082    10768.588    1975.0335    80.209654 
   69000    562.32532   -106.42029   0.50880376   -105.91149   -3569.6558    4.2982502    4.2982502    4.2982502   -3569.6558    10520.843   -23634.961     2405.151   -245.72428    6857.9582    5121.0539    79.409976 
   69100    635.52111   -106.48196   0.57503285   -105.90693    7478.4023    4.3130386    4.3130386    4.3130386    7478.4023    26972.137   -7826.5339    3289.6039   -569.91645   -5466.4685   -4380.6299    80.232447 
   69200    538.51641    -106.3987   0.48726096   -105.91144   -11633.915     4.305067     4.305067     4.305067   -11633.915    1066.2642   -15358.905   -20609.105    3393.1829    4990.5992    9126.5396    79.788399 
   69300    679.23158   -106.52467   0.61458301   -105.91009    5172.8354    4.3029379    4.3029379    4.3029379    5172.8354    16435.198     1585.305    -2501.997   -2843.8039   -6008.1923    1738.7772    79.670076 
   69400    715.13454   -106.55097   0.64706876    -105.9039   -7687.7659    4.3138992    4.3138992    4.3138992   -7687.7659    -681.8237   -20393.401   -1988.0726    3572.4221   -5577.8276    5044.2306    80.280484 
   69500    333.55727   -106.20873   0.30180962   -105.90692   -7779.9673    4.3005423    4.3005423    4.3005423   -7779.9673    7688.5327   -26936.749   -4091.6852   -699.27162     6442.069    7757.2738    79.537084 
   69600    632.38763   -106.47793   0.57219762   -105.90573    7456.7581    4.3094607    4.3094607    4.3094607    7456.7581     28502.49   -8033.4216    1901.2065   -2511.0899   -8348.1582   -3027.3491    80.032939 
   69700    864.24397   -106.68734   0.78198611   -105.90536   -5335.6255     4.306338     4.306338     4.306338   -5335.6255    1650.2795   -11454.308   -6202.8484   -1047.6132    8706.4458    5856.3929    79.859089 
   69800    334.73173    -106.2144    0.3028723   -105.91152   -769.63693    4.3062947    4.3062947    4.3062947   -769.63693    28950.708   -14257.153   -17002.465   -4676.9797   -257.59576    96.977285     79.85668 
   69900    731.02335   -106.56795   0.66144529    -105.9065    -2724.403    4.3071784    4.3071784    4.3071784    -2724.403   -2216.2931   -8258.0663    2301.1504    -6020.837    3480.8909   -1554.0833    79.905852 
   70000    626.89017   -106.47605    0.5672234   -105.90883   -3273.4214    4.3058418    4.3058418    4.3058418   -3273.4214    8441.9274   -8952.3948   -9309.7968    2070.1034   -2358.4769    5668.5399    79.831485 
   70100    462.02493   -106.32934   0.41804987   -105.91129   -1375.3014    4.3075914    4.3075914    4.3075914   -1375.3014    13164.218    -12474.42   -4815.7023   -7602.4782    1526.3011   -5382.4829    79.928838 
   70200    819.90068   -106.64641   0.74186336   -105.90454    1000.2529    4.3017136    4.3017136    4.3017136    1000.2529    2225.4478   -6617.0467    7392.3575   -769.43353   -13241.697    1246.6203     79.60209 
   70300    378.37401   -106.25073   0.34236075   -105.90837   -7578.4325    4.3139487    4.3139487    4.3139487   -7578.4325    22470.099   -29758.235   -15447.162    -3006.462    5115.9818    4770.9941    80.283249 
   70400    614.09807   -106.46303   0.55564884   -105.90738   -1272.6484    4.2995209    4.2995209    4.2995209   -1272.6484   -9185.3175    4341.3011    1026.0711   -5165.5295   -13843.925   -5962.9372    79.480427 
   70500    853.49727   -106.67765   0.77226226   -105.90539   -400.44498    4.3099063    4.3099063    4.3099063   -400.44498    6157.3558   -757.34283   -6601.3479    1987.2361    6002.5014    10008.904    80.057771 
   70600    430.19466   -106.29674   0.38924917   -105.90749   -2945.9093    4.3093887    4.3093887    4.3093887   -2945.9093    6121.1533   -13994.368   -964.51347   -224.14898    -954.7577   -2274.4941    80.028928 
   70700    552.23271   -106.40364   0.49967176   -105.90397    861.98243    4.3002281    4.3002281    4.3002281    861.98243    182.35137   -5287.8885    7691.4844   -4176.0186   -4543.0157    -2418.944    79.519654 
   70800    719.79954    -106.5519   0.65128975   -105.90061    5995.6724    4.3124721    4.3124721    4.3124721    5995.6724    23189.331   -9502.8076    4300.4937    2903.2013    1419.7741    2882.1848    80.200836 
   70900    561.42039    -106.4149   0.50798496   -105.90691   -3452.4007    4.3030662    4.3030662    4.3030662   -3452.4007   -6419.7474   -7068.3831    3130.9283   -6598.0187   -4179.3144   -7939.6609    79.677205 
   71000    600.52164   -106.44907    0.5433646    -105.9057    2152.6134    4.3081099    4.3081099    4.3081099    2152.6134    11659.188   -781.59018    -4419.758    -2932.528   -8657.7022   -315.20869    79.957706 
   71100    704.51151   -106.54125   0.63745682   -105.90379    6820.3323    4.3045561    4.3045561    4.3045561    6820.3323    9189.1889   -11213.189    22484.997   -2168.6493   -4.4878806    -1837.458    79.759995 
   71200    351.56489   -106.23087    0.3181033   -105.91277   -10947.823    4.3095204    4.3095204    4.3095204   -10947.823   -16997.951    3207.3744   -19052.892    -7868.492   -11109.388   -4823.7622    80.036269 
   71300    823.25561   -106.65098   0.74489898   -105.90608    12889.771    4.3037518    4.3037518    4.3037518    12889.771    24154.243    7555.5504    6959.5203   -1092.4404   -707.28857   -1954.8404    79.715291 
   71400    709.88276   -106.55262   0.64231684    -105.9103   -6538.3864    4.3060578    4.3060578    4.3060578   -6538.3864   -14488.246   -3869.8964   -1257.0171    -709.7612    1001.0785   -2567.1678    79.843498 
   71500    195.60112   -106.09097     0.176984   -105.91398   -10585.457    4.3102136    4.3102136    4.3102136   -10585.457    3817.1199   -14041.399   -21532.092   -2089.9673   -2651.2277   -2873.6079    80.074895 
   71600    918.38562   -106.73492   0.83097461   -105.90395    5233.7369    4.2981711    4.2981711    4.2981711    5233.7369    4832.0136   -7049.7284    17918.925    5706.1415    4910.2895    5536.6571    79.405595 
   71700    497.49024   -106.36065   0.45013962   -105.91051   -10975.597    4.3146473    4.3146473    4.3146473   -10975.597   -20061.394   -407.42033   -12457.977   -2500.3703   -4969.8013   -5887.9377    80.322255 
   71800    590.00132   -106.44131    0.5338456   -105.90746   -1587.4261    4.3003927    4.3003927    4.3003927   -1587.4261    6293.0064   -7016.9025   -4038.3823   -2142.1227   -3623.3922    4236.5566    79.528788 
   71900    708.31733   -106.54503   0.64090041   -105.90413    2605.9453    4.3052387    4.3052387    4.3052387    2605.9453    1436.8946    -4370.432    10751.373    2985.0646   -3098.4409    1792.9487    79.797943 
   72000    375.54594     -106.247   0.33980186    -105.9072    -9263.871    4.3136683    4.3136683    4.3136683    -9263.871   -2327.6904   -12809.215   -12654.707   -6518.5611   -7846.7836   -4545.5764    80.267594 
   72100    777.05216   -106.60513   0.70309312   -105.90204    4235.1394    4.2964348    4.2964348    4.2964348    4235.1394    9041.5645    1275.4956     2388.358    763.79394   -3382.7982    9237.4685    79.309402 
   72200    638.21385   -106.48049   0.57746931   -105.90302     2778.537    4.3123271    4.3123271    4.3123271     2778.537    4223.5799    -7646.634    11758.665   -161.74085    61.474651   -1110.1171    80.192746 
   72300    534.59698   -106.38788   0.48371458   -105.90416   -9066.8618    4.3044105    4.3044105    4.3044105   -9066.8618   -2467.7681   -24648.857   -83.960506   -6712.4337   -7769.0758   -689.32125    79.751902 
   72400    498.62495   -106.35611   0.45116633   -105.90494     4314.258    4.3039334    4.3039334    4.3039334     4314.258    11067.625   -11528.729    13403.878    3951.9983    5848.8852    9254.6657    79.725387 
   72500    799.92568   -106.62535   0.72378957   -105.90156    394.42378    4.3109876    4.3109876    4.3109876    394.42378   -152.98996     -1810.43    3146.6913   -8526.4482   -611.20851   -4865.2221    80.118043 
   72600    625.09509   -106.47141   0.56559917   -105.90581    421.06014    4.3026633    4.3026633    4.3026633    421.06014    8437.3123   -7870.9735    696.84161     682.4826   -3862.0108    6667.3461    79.654824 
   72700    408.14261   -106.27685   0.36929601   -105.90755    7975.2749    4.3079583    4.3079583    4.3079583    7975.2749    26968.478   -11449.363    8406.7095   -4022.2929    4771.1536    7536.2269    79.949262 
   72800    760.45223   -106.59154   0.68807316   -105.90347   -4933.9425    4.3058046    4.3058046    4.3058046   -4933.9425   -3284.7517   -22201.656     10684.58   -3517.6672   -9905.9805   -662.93234    79.829415 
   72900     418.7949   -106.28744   0.37893443   -105.90851    2302.1801    4.3052714    4.3052714    4.3052714    2302.1801    20607.123   -8392.0878   -5308.4946    801.69568    1605.0166     9345.156    79.799766 
   73000     820.1058   -106.64583   0.74204897   -105.90378   -6323.4764    4.3071857    4.3071857    4.3071857   -6323.4764   -5884.4738   -12324.749   -761.20589     -1889.81   -2973.9042   -1772.1566    79.906255 
   73100    567.10608   -106.41722    0.5131295   -105.90409    3752.1827    4.3059195    4.3059195    4.3059195    3752.1827    17360.285   -18901.434    12797.696   -1093.7485   -261.54675    3535.9889    79.835809 
   73200    364.26542   -106.23716   0.32959501   -105.90757    -5393.075    4.3073073    4.3073073    4.3073073    -5393.075    11003.564    -11573.34   -15609.448    2157.1652   -1876.4597    5646.7971    79.913025 
   73300      761.123   -106.59209   0.68868009   -105.90341    4632.3593    4.3044426    4.3044426    4.3044426    4632.3593    8193.6184   -7434.2688    13137.728   -5958.7331    7196.6031    -4185.619    79.753685 
   73400    689.89237     -106.529   0.62422911   -105.90478   -684.46342    4.3081292    4.3081292    4.3081292   -684.46342     8081.326    1048.5427   -11183.259   -172.22141   -1524.1657    7427.8337     79.95878 
   73500    475.46629   -106.33749   0.43021189   -105.90728   -11129.262    4.3049117    4.3049117    4.3049117   -11129.262    1700.8377   -27182.234   -7906.3888   -8562.3029    7045.5388    212.50213    79.779764 
   73600    567.90379   -106.41863   0.51385128   -105.90478    5855.0712    4.3067039    4.3067039    4.3067039    5855.0712    12211.331   -11895.333    17249.217   -5304.2858    867.01296   -2002.5852    79.879448 
   73700    695.46684   -106.53506   0.62927301   -105.90578   -8341.3122    4.3085421    4.3085421    4.3085421   -8341.3122   -6248.5491   -8656.0099   -10119.378   -1579.8472   -1935.9918    11717.176    79.981771 
   73800    423.63926    -106.2927    0.3833177   -105.90938    9042.4789    4.3004014    4.3004014    4.3004014    9042.4789    17139.235    355.95373    9632.2485   -8269.3369    4467.9095   -7028.0412     79.52927 
   73900    858.99082   -106.68115   0.77723295   -105.90392   -4896.0163    4.3122708    4.3122708    4.3122708   -4896.0163   -8973.2734   -4700.1404   -1014.6352    1746.2904   -2401.6806    5837.1033    80.189607 
   74000    426.04277   -106.29386   0.38549245   -105.90837    3286.9324    4.3032836    4.3032836    4.3032836    3286.9324    19114.713   -14640.167    5386.2513    151.41952    3927.7069    232.71636    79.689278 
   74100    489.97134   -106.35423   0.44333636    -105.9109   -3075.7403     4.304129     4.304129     4.304129   -3075.7403   -12425.161   -1933.9558    5131.8964   -4801.9786    1604.1757   -7589.3393    79.736254 
   74200     921.1351   -106.73556   0.83346239    -105.9021   -428.51752     4.311182     4.311182     4.311182   -428.51752   -3732.0075   -7325.9721     9772.427    5550.1527    2473.8388    4070.1725    80.128881 
   74300    345.95225   -106.22244   0.31302486   -105.90941    3646.4507    4.3002818    4.3002818    4.3002818    3646.4507    8668.9888   -7619.2047     9889.568   -4364.0186    2192.5203   -5674.1136    79.522635 
   74400    603.26649   -106.45402    0.5458482   -105.90818   -12301.314    4.3123925    4.3123925    4.3123925   -12301.314   -14452.258   -21207.455   -1244.2302   -2700.3658    7673.7034   -6699.1016    80.196394 
   74500    795.84947   -106.62279   0.72010133   -105.90269    17433.961    4.3029188    4.3029188    4.3029188    17433.961    15406.027    13581.348    23314.508   -484.57732   -3431.2521    3015.4215    79.669017 
   74600    405.12121   -106.27701   0.36656218   -105.91045   -9264.3733    4.3072852    4.3072852    4.3072852   -9264.3733   -17848.957   -7261.9194   -2682.2439   -8962.8023      6641.23   -8154.9267    79.911794 
   74700    686.26669   -106.52629   0.62094852   -105.90535    2121.5685    4.3080625    4.3080625    4.3080625    2121.5685    367.63333    5165.7617    831.31039    345.86306   -58.161905   -315.78275    79.955065 
   74800    715.19006   -106.55077   0.64711899   -105.90365    3497.0452    4.3018256    4.3018256    4.3018256    3497.0452    2042.4294   -12221.695    20670.401   -3844.1831   -816.49554       982.21    79.608307 
   74900    304.83284   -106.18621   0.27581916   -105.91039   -20430.538     4.314248     4.314248     4.314248   -20430.538   -18946.334   -20875.343   -21469.938   -5028.8882    10255.616   -9374.4694    80.299958 
   75000    864.36667   -106.68532   0.78209712   -105.90322    12216.525    4.2989703    4.2989703    4.2989703    12216.525   -3022.0964    18460.706    21210.967    1034.2471   -2888.5407    5365.3421    79.449896 
   75100     600.9691    -106.4522   0.54376947   -105.90843   -3000.5769    4.3097028    4.3097028    4.3097028   -3000.5769   -1850.0311   -15878.258    8726.5581   -1263.7025    5126.6627    -7100.833    80.046428 
   75200    413.12871   -106.28347   0.37380754   -105.90966   -4871.4821    4.3078131    4.3078131    4.3078131   -4871.4821   -9420.6992    8718.7456   -13912.493   -2839.9734    7566.5362   -2871.0632    79.941178 
   75300    768.56413   -106.59867   0.69541297   -105.90326    13038.049    4.3001284    4.3001284    4.3001284    13038.049    16034.937   -3295.6138    26374.823    3602.4776   -3212.7761    447.78175    79.514124 
   75400    521.09179   -106.37887    0.4714948   -105.90738   -7337.4881    4.3130803    4.3130803    4.3130803   -7337.4881   -24713.009    1784.5227    916.02168   -4078.6553    11561.644   -4867.4763    80.234775 
   75500    576.62355   -106.42767   0.52174111   -105.90593    -803.1197    4.3031208    4.3031208    4.3031208    -803.1197   -3845.7488   -1770.8443     3207.234    1273.6887   -1920.4367   -1497.0927    79.680239 
   75600    707.41454   -106.54303   0.64008354   -105.90295   -889.58398    4.3063503    4.3063503    4.3063503   -889.58398   -3907.3705   -15006.537    16245.155   -1363.1843   -467.89861    5623.5921     79.85977 
   75700    527.30269   -106.38244   0.47711456   -105.90532   -4824.5199     4.308818     4.308818     4.308818   -4824.5199   -10163.507     1115.079   -5425.1319   -1814.7486    4815.4487   -3473.9758    79.997137 
   75800    554.93014   -106.40694   0.50211246   -105.90483    3347.7732    4.3043477    4.3043477    4.3043477    3347.7732   -2798.5518    6580.5835    6261.2879   -123.92941    1221.2251    7154.9534     79.74841 
   75900    663.65772    -106.5042   0.60049145   -105.90371     7728.156    4.3072313    4.3072313    4.3072313     7728.156   -3361.8711    9014.0675    17532.272   -627.94268    -3261.268     4155.344    79.908797 
   76000    672.44458   -106.51325   0.60844198   -105.90481   -3509.8721    4.3062117    4.3062117    4.3062117   -3509.8721   -5399.8279   -3051.7642   -2078.0243   -1366.0851    8857.4188   -70.172521    79.852062 
   76100    418.13986   -106.28505   0.37834173   -105.90671   -4263.9701    4.3077867    4.3077867    4.3077867   -4263.9701   -2338.9643   -11387.917    934.97113    1889.8303   -6976.2444    12226.797    79.939708 
   76200    804.52451   -106.63068   0.72795068   -105.90273   -8118.4688    4.3052202    4.3052202    4.3052202   -8118.4688   -19501.286    -9356.964    4502.8436    599.61304    1092.6982    -6252.039    79.796916 
   76300    458.40227   -106.32141   0.41477201   -105.90664    674.50935    4.3083487    4.3083487    4.3083487    674.50935   -11289.949     11877.18     1436.297    1320.5442    8156.2667    7702.3216    79.971003 
   76400    632.97301   -106.47897   0.57272728   -105.90624   -4392.1129    4.3053514    4.3053514    4.3053514   -4392.1129   -2411.1122   -17053.402    6288.1753    5700.0145   -11265.083   -450.91212    79.804209 
   76500    648.45762    -106.4898   0.58673808   -105.90306    7063.5455    4.3062112    4.3062112    4.3062112    7063.5455   -10857.991    20131.506    11917.121   -4749.6156    10856.961    163.83919    79.852031 
   76600    504.90454   -106.36237   0.45684824   -105.90553   -9386.3852    4.3090161    4.3090161    4.3090161   -9386.3852   -1999.4529   -14534.365   -11625.337     4960.218   -6304.5202    7954.1696    80.008175 
   76700      612.247   -106.45842   0.55397395   -105.90444   -2154.2636    4.3054101    4.3054101    4.3054101   -2154.2636   -11202.027      2805.61    1933.6262   -1179.5396   -1052.3594    2749.7841    79.807479 
   76800    717.15871   -106.55188   0.64890028   -105.90298    1272.8951    4.3067539    4.3067539    4.3067539    1272.8951   -2905.4229   -1462.3952    8186.5034   -2318.8909    5013.9838    3771.1152    79.882229 
   76900    519.27308   -106.37644   0.46984919   -105.90659   -8237.0466     4.305845     4.305845     4.305845   -8237.0466   -2912.0236   -20830.271   -968.84517    1558.6417   -2785.6461    12406.569    79.831664 
   77000     485.1947    -106.3448   0.43901436   -105.90579    4587.3194     4.307542     4.307542     4.307542    4587.3194   -13542.454    18893.932    8410.4806    327.45136    1279.8517   -4017.7928    79.926087 
   77100    808.75219   -106.63521   0.73177598   -105.90343   -1192.4374    4.3051771    4.3051771    4.3051771   -1192.4374   -5618.0202    3641.7764   -1601.0684   -5325.4817    2288.3244    5795.7391    79.794521 
   77200    477.03199   -106.34192   0.43162857   -105.91029    443.31901    4.3071734    4.3071734    4.3071734    443.31901   -2606.7613     6732.351   -2795.6327    4588.6938   -3852.6086    1297.7293    79.905571 
   77300      675.362   -106.51937   0.61108173   -105.90829   -1307.7241    4.3065393    4.3065393    4.3065393   -1307.7241    -8108.725   -2857.6402    7043.1931    1234.0809     585.4099   -8940.5482    79.870289 
   77400    662.08866   -106.50663   0.59907173   -105.90756   -65.056174    4.3058746    4.3058746    4.3058746   -65.056174    7710.6048   -6541.7522   -1364.0212     2277.303    3812.9407    10356.064    79.833309 
   77500    399.68981   -106.27285   0.36164774    -105.9112   -115.74368    4.3061762    4.3061762    4.3061762   -115.74368   -5545.6469    15472.629   -10274.213    10942.748   -5220.2925    1040.3611    79.850088 
   77600    715.71185   -106.55607   0.64759112   -105.90848    5517.1194    4.3059967    4.3059967    4.3059967    5517.1194    7521.1206    3834.0287    5196.2089   -797.31305    4866.3042   -1831.1243      79.8401 
   77700    699.03415   -106.53914   0.63250079   -105.90664   -3215.0857    4.3084891    4.3084891    4.3084891   -3215.0857   -4085.9283     3516.739   -9076.0677    1758.2757   -2719.0291    9109.2996    79.978823 
   77800     369.7239   -106.24224   0.33453396    -105.9077    2198.6717    4.3017586    4.3017586    4.3017586    2198.6717    4616.2359   -11361.171     13340.95    3345.8904   -1613.9177   -7179.9204    79.604589 
   77900    778.00835   -106.60778   0.70395831   -105.90382   -8774.8432    4.3097767    4.3097767    4.3097767   -8774.8432   -10503.087   -9331.3477   -6490.0951   -8005.4538    5552.0854   -102.29864    80.050545 
   78000    497.34168   -106.35513   0.45000521   -105.90512    8032.1423    4.3054343    4.3054343    4.3054343    8032.1423    12351.162    13424.933    -1679.668    5522.3608   -2446.8936    3726.2825    79.808824 
   78100    612.10793   -106.46005   0.55384812    -105.9062   -7693.4032    4.3050908    4.3050908    4.3050908   -7693.4032   -1493.8094   -14676.861   -6909.5391   -3644.8908    4727.8218   -11224.023    79.789719 
   78200    663.86177   -106.50226   0.60067608   -105.90158    12153.731    4.3080347    4.3080347    4.3080347    12153.731    5679.2123     23676.93     7105.052   -894.40288    2201.1132    3962.3414     79.95352 
   78300    566.99127   -106.41718   0.51302562   -105.90416   -7786.8838    4.3076397    4.3076397    4.3076397   -7786.8838     898.0668   -10771.115   -13487.603     7078.357   -1305.0047   -8389.4801    79.931526 
   78400    507.49817   -106.36618   0.45919501   -105.90699    172.08924    4.3028662    4.3028662    4.3028662    172.08924   -7875.1723   -1943.2701     10334.71   -6518.4222    5216.6883    -2985.951    79.666095 
   78500    770.78827   -106.60097   0.69742543   -105.90354    1141.0745    4.3095704    4.3095704    4.3095704    1141.0745    -2195.215    7707.2107   -2088.7721    1772.4884    2520.8108    2449.7916    80.039055 
   78600    525.33262   -106.38321   0.47533199   -105.90788   -5191.2261    4.3047181    4.3047181    4.3047181   -5191.2261    5274.9011   -24204.388    3355.8088   -2556.1696    1652.4237   -7682.4548       79.769 
   78700     490.5494   -106.35207    0.4438594   -105.90821    6178.5465     4.302867     4.302867     4.302867    6178.5465   -6441.8874    25540.577   -563.04985   -11196.712    10047.287    1074.8249    79.666137 
   78800    771.12014   -106.60041   0.69772571   -105.90268   -4996.1693    4.3123002    4.3123002    4.3123002   -4996.1693    9170.2739   -4438.1507   -19720.631    855.66249   -2095.6258   -1781.0468    80.191243 
   78900    440.19078   -106.30493   0.39829387   -105.90663   -2399.1234    4.3029979    4.3029979    4.3029979   -2399.1234   -8153.9961    5391.1991   -4434.5734    -7017.663    3407.2139   -10192.989     79.67341 
   79000    645.19011   -106.48833   0.58378157   -105.90455    1990.1139    4.3061038    4.3061038    4.3061038    1990.1139   -5916.4362    269.45595    11617.322   -5550.7692    4979.9744    2713.6369    79.846056 
   79100    798.79575   -106.62557   0.72276718    -105.9028   -6183.6633    4.3083624    4.3083624    4.3083624   -6183.6633    -1116.254   -17967.673    532.93663    7243.1673   -5294.7663   -8730.1092    79.971763 
   79200      233.199   -106.12101   0.21100336   -105.91001    5169.0147    4.3039173    4.3039173    4.3039173    5169.0147   -15566.764    21096.647    9977.1611   -9256.6642    10285.214    197.64746    79.724488 
   79300    844.45009    -106.6704   0.76407619   -105.90632    -6996.566    4.3084754    4.3084754    4.3084754    -6996.566   -1563.0989   -4904.6086    -14521.99    4564.0791     321.7064   -1030.5721    79.978059 
   79400    601.71591   -106.45326    0.5444452   -105.90881    7509.4802    4.3040341    4.3040341    4.3040341    7509.4802    6045.0374    18039.505   -1556.1016   -2601.8829    2085.2444    -4040.112    79.730983 
   79500    438.24077   -106.30893   0.39652945    -105.9124     -12517.8    4.3086996    4.3086996    4.3086996     -12517.8   -19905.484   -16946.131   -701.78505   -11103.879    10150.244   -2960.2309    79.990544 
   79600    828.11621   -106.65343   0.74929695   -105.90414    4348.2893    4.3029976    4.3029976    4.3029976    4348.2893    9625.3279    8792.1315   -5372.5914   -177.01491   -1389.2729    6203.9505    79.673394 
   79700    393.45754   -106.26595   0.35600865   -105.90995    242.01426    4.3092586    4.3092586    4.3092586    242.01426   -7624.1124    1295.0624    7055.0928   -8787.7195    7682.1104   -6677.8239    80.021682 
   79800    636.84713   -106.48378   0.57623266   -105.90755    -4868.141    4.3049413    4.3049413    4.3049413    -4868.141   -9146.0584   -3802.6998   -1655.6648   -9269.9027    7861.1942    8375.2338    79.781408 
   79900     732.5381   -106.56591   0.66281587   -105.90309    15536.869    4.3049808    4.3049808    4.3049808    15536.869    13209.277    22591.532    10809.799    4438.1531   -8248.5596   -3562.2668    79.783607 
   80000    493.08211   -106.35229   0.44615106   -105.90614   -15144.597    4.3108725    4.3108725    4.3108725   -15144.597   -17638.799    -15153.63   -12641.361    -9429.344    8745.8923   -2015.5653    80.111624 
   80100    536.53608   -106.38966   0.48546912   -105.90419    3383.0302    4.3033396    4.3033396    4.3033396    3383.0302    5257.4637    14615.606   -9723.9792     521.2876   -1275.1804    -655.5339     79.69239 
   80200    740.54628   -106.57258   0.67006183   -105.90252    238.15811    4.3076512    4.3076512    4.3076512    238.15811   -543.46756    3660.5041   -2402.5622    2259.5476   -3932.0322    -4919.774    79.932168 
   80300    550.54538   -106.40529   0.49814503   -105.90715   -4717.2006    4.3061785    4.3061785    4.3061785   -4717.2006   -5446.7276   -12843.733    4138.8594   -14306.862     13589.49   -4405.0005    79.850214 
   80400    587.17933   -106.43728    0.5312922   -105.90599    6150.5315    4.3047382    4.3047382    4.3047382    6150.5315   -1987.6074    26641.765   -6202.5633    8893.5139   -6843.4325   -1698.0703    79.770115 
   80500    634.90479   -106.48061    0.5744752   -105.90614    4004.9485    4.3030315    4.3030315    4.3030315    4004.9485    5789.7184    4392.0016    1833.1254   -9703.0709    4878.9339   -3104.9333    79.675279 
   80600    509.09801   -106.37007   0.46064257   -105.90942   -8108.7972    4.3126335    4.3126335    4.3126335   -8108.7972   -20311.703    12069.318   -16084.007   -54.274761    6336.8635    2357.6585    80.209838 
   80700    731.11625   -106.56666   0.66152934   -105.90513    12720.462    4.3006716    4.3006716    4.3006716    12720.462    10056.208     13601.04    14504.138    3276.8958   -8297.6991    4298.3721    79.544262 
   80800    657.21966   -106.50375   0.59466616   -105.90908    -6711.237     4.307168     4.307168     4.307168    -6711.237   -1135.1942   -5321.6485   -13676.868   -3971.9852    11693.052   -3105.7337    79.905273 
   80900    328.31617   -106.20627   0.29706737   -105.90921   -152.96174    4.3104635    4.3104635    4.3104635   -152.96174     -4047.32    21929.685   -18341.251   -2238.7887   -3643.1837    1195.8372    80.088823 
   81000    776.31514   -106.60597   0.70242626   -105.90355    4826.8946     4.299562     4.299562     4.299562    4826.8946    4098.0133    7199.7114    3182.9591    11552.367   -3261.1994   -6174.3498    79.482709 
   81100    629.11155   -106.47396   0.56923335   -105.90472   -5301.8016    4.3129022    4.3129022    4.3129022   -5301.8016    -11454.13    4895.3991   -9346.6737   -15548.662    2854.3239   -3829.8392    80.224837 
   81200    593.59277   -106.43948   0.53709521   -105.90238     1405.745    4.3030714    4.3030714    4.3030714     1405.745   -5264.3692    3374.5747    6107.0297    9012.2559   -6443.6947    815.92961    79.677494 
   81300    606.08009   -106.45035   0.54839401   -105.90196    -5902.175     4.306684     4.306684     4.306684    -5902.175    480.16072   -6655.5383   -11531.147   -3312.2703     1499.904   -6688.3041    79.878337 
   81400    441.75065   -106.30366   0.39970528   -105.90395    1848.1158    4.3080034    4.3080034    4.3080034    1848.1158    1249.5079    13420.596   -9125.7568   -9554.2963    2765.6057   -316.11903    79.951773 
   81500     770.7405   -106.60165    0.6973822   -105.90427   -8657.7332    4.3049127    4.3049127    4.3049127   -8657.7332   -14641.667   -9303.8034   -2027.7291    12915.742   -4672.0108    2113.3961    79.779821 
   81600    618.24262   -106.46377   0.55939891   -105.90437    3700.7761     4.306142     4.306142     4.306142    3700.7761    9145.7945    9530.8765   -7574.3426    -7952.251    2550.5396   -6903.9916    79.848184 
   81700    538.42831   -106.39177   0.48718125   -105.90459   -10866.489    4.3069031    4.3069031    4.3069031   -10866.489   -15650.762    2026.0258    -18974.73    2645.8619    549.93426    2395.3509    79.890529 
   81800    509.47434   -106.36698   0.46098309   -105.90599   -4005.6628    4.3058135    4.3058135    4.3058135   -4005.6628   -1911.5309   -4927.4968   -5177.9608    11333.664    -6048.896    -5325.606    79.829914 
   81900    703.04664   -106.54146   0.63613137   -105.90533    14080.433    4.3036218    4.3036218    4.3036218    14080.433    8026.5347    31551.006    2663.7571   -2387.6697    7947.4947   -6812.7577    79.708068 
   82000    624.46032   -106.47529   0.56502482   -105.91027   -12773.329    4.3113109    4.3113109    4.3113109   -12773.329   -21583.784   -13371.823   -3364.3797    6475.9063   -7738.7608    1576.5071    80.136067 
   82100     503.6693   -106.36516   0.45573056   -105.90943    13475.847    4.3003212    4.3003212    4.3003212    13475.847    10912.228    34818.405   -5303.0916    4987.1749    558.74586   -7593.0732    79.524816 
   82200    610.79622   -106.46044   0.55266125   -105.90777   -7036.9418    4.3134734    4.3134734    4.3134734   -7036.9418   -6485.9933    729.69867   -15354.531   -10087.756   -1845.5557    -195.8435    80.256713 
   82300    624.81277   -106.47333   0.56534372   -105.90799   -3279.1685    4.3024399    4.3024399    4.3024399   -3279.1685   -7719.8631    2994.6917    -5112.334    9053.8372   -8714.7393   -1329.8714    79.642417 
   82400    647.06588   -106.49151    0.5854788   -105.90603    5270.6273    4.3086275    4.3086275    4.3086275    5270.6273    8724.8053    11943.902   -4856.8257    1151.3251    700.85727   -9371.0639     79.98653 
   82500    653.23683   -106.49532   0.59106241   -105.90426    -6546.332    4.3080241    4.3080241    4.3080241    -6546.332   -9382.4606   -1183.5597   -9072.9757   -615.01698   -2827.7439    6201.4299    79.952926 
   82600    332.62847   -106.20949   0.30096923   -105.90852    1720.8887    4.3041496    4.3041496    4.3041496    1720.8887   -2587.3818    13419.347   -5669.2995    14197.239   -3890.4794   -6689.9975    79.737399 
   82700    838.46285   -106.66216    0.7586588    -105.9035    44.158757    4.3094226    4.3094226    4.3094226    44.158757    8744.5481   -3059.0631   -5553.0087    964.58271    -685.3839     -438.917    80.030817 
   82800    662.72248   -106.50658   0.59964523   -105.90693   -1543.3595    4.3050013    4.3050013    4.3050013   -1543.3595   -5635.2559    1456.1008   -450.92345    6972.2021   -92.877643    1317.7273    79.784743 
   82900    301.95623   -106.18219   0.27321635   -105.90898   -2891.0023    4.3102162    4.3102162    4.3102162   -2891.0023    14752.623    952.45128   -24378.082    12925.332   -4989.1036   -9491.0808    80.075041 
   83000    916.48463   -106.72984   0.82925455   -105.90059   -215.98668    4.3033659    4.3033659    4.3033659   -215.98668    10483.294    336.34072   -11467.595   -6941.5043     6923.356   -1286.9841    79.693855 
   83100    356.82229   -106.23343    0.3228603   -105.91057     1427.746    4.3089952    4.3089952    4.3089952     1427.746   -1012.6285    15753.347   -10457.481    11545.103   -5722.2313   -6224.8737     80.00701 
   83200    754.05425   -106.59056   0.68228413   -105.90827    -9049.238    4.3075519    4.3075519    4.3075519    -9049.238   -8456.4204   -10330.713   -8360.5802    -971.7195   -47.112435   -8736.7968     79.92664 
   83300    707.80904   -106.54502   0.64044049   -105.90458    9964.8426    4.3033198    4.3033198    4.3033198    9964.8426    7611.1512    22779.358   -495.98086    311.23038   -2550.5682    2991.7605     79.69129 
   83400    283.18123   -106.16734   0.25622833   -105.91111   -8765.2149    4.3106801    4.3106801    4.3106801   -8765.2149   -4703.6367   -533.13634   -21058.872    11642.337   -5449.7461   -9150.5204      80.1009 
   83500    875.21845   -106.69618   0.79191605   -105.90427   -1681.2491    4.3053781    4.3053781    4.3053781   -1681.2491    4416.4349   -7521.0649   -1939.1174    722.13688   -1317.1867    1214.9422    79.805698 
   83600    560.84777   -106.41586   0.50746685    -105.9084    16463.192    4.3040902    4.3040902    4.3040902    16463.192    4836.3683    43940.217    612.99154    5496.9964    -6021.875   -372.19196    79.734102 
   83700    404.29049   -106.27926   0.36581053   -105.91345   -21597.451    4.3144357    4.3144357    4.3144357   -21597.451   -15436.982   -22470.144   -26885.228    12331.389    192.76487   -13356.284    80.310442 
   83800    870.42511   -106.69252   0.78757893   -105.90495    13418.455    4.2976284    4.2976284    4.2976284    13418.455    16644.222     23189.47    421.67202   -11131.523   -1530.3776    1581.1273    79.375517 
   83900    462.81251   -106.33096   0.41876249    -105.9122   -9413.2122    4.3139784    4.3139784    4.3139784   -9413.2122   -9277.5804   -1820.6226   -17141.433    12099.032   -45.199366   -7155.1027    80.284903 
   84000    530.99953   -106.39317   0.48045953   -105.91271   -6402.6055    4.3049834    4.3049834    4.3049834   -6402.6055   -1772.8568   -12869.165    -4565.795   -754.27697   -834.39677   -8807.0372    79.783752 
   84100    826.84731   -106.65517   0.74814882   -105.90702    5831.2442    4.3050402    4.3050402    4.3050402    5831.2442    1355.2419    23236.878   -7098.3871    1764.0004    3069.0446    2440.4776    79.786907 
   84200    325.95675   -106.20874   0.29493252   -105.91381    670.96461    4.3116033    4.3116033    4.3116033    670.96461    2982.4081      17808.3   -18777.814      13054.2   -2499.4282   -8632.5227    80.152374 
   84300    793.76654   -106.62665   0.71821665   -105.90843   -6040.0809    4.3049034    4.3049034    4.3049034   -6040.0809   -2930.4285   -8267.4628   -6922.3514   -982.28851    4904.7938   -7240.7328    79.779302 
   84400    613.18815   -106.46186   0.55482553   -105.90704    13752.275    4.3054628    4.3054628    4.3054628    13752.275    13584.719    28030.124   -358.01684    1748.5017   -1018.6227    3300.3168    79.810407 
   84500    433.35076    -106.3026   0.39210487   -105.91049   -15206.333    4.3130421    4.3130421    4.3130421   -15206.333   -8303.9963    -15568.46   -21746.541     8432.261   -1818.3864   -13845.949     80.23264 
   84600    777.56624   -106.60634   0.70355827   -105.90278    9649.9126    4.3016603    4.3016603    4.3016603    9649.9126    14089.408    15644.839   -784.50899   -12188.182   -1098.3405    584.69679     79.59913 
   84700    517.35907   -106.37478   0.46811736   -105.90666    4873.2543    4.3086814    4.3086814    4.3086814    4873.2543    -845.7468    19347.611   -3882.1015    6016.1129    -2908.876   -5830.4001     79.98953 
   84800    479.78344   -106.34253   0.43411814   -105.90841   -14321.551    4.3098406    4.3098406    4.3098406   -14321.551   -19060.766   -14400.221   -9503.6648   -41.635008    -2169.927   -11932.536    80.054108 
   84900    695.71418   -106.53216   0.62949681   -105.90267    12332.156    4.3052146    4.3052146    4.3052146    12332.156    7250.6369    30454.496   -708.66415   -7830.1757   -313.82291    1638.1364    79.796606 
   85000    651.23213   -106.49552   0.58924852   -105.90627   -9402.4164    4.3080667    4.3080667    4.3080667   -9402.4164    649.38425   -12414.951   -16441.682     9495.113    3154.5164    -11017.42      79.9553 
   85100     485.3423    -106.3467   0.43914791   -105.90755   -3878.6364    4.3100313    4.3100313    4.3100313   -3878.6364   -2147.5675     1198.462   -10686.804   -4265.2492   -3460.6923   -4812.4317    80.064737 
   85200    713.12997    -106.5485   0.64525498   -105.90325    13407.638    4.3033775    4.3033775    4.3033775    13407.638    2384.5442     34594.18     3244.191    2551.5436    3505.1065    2194.4748    79.694498 
   85300    527.57361   -106.38717   0.47735969   -105.90981   -13592.063    4.3116203    4.3116203    4.3116203   -13592.063   -9156.2592   -10472.417   -21147.511    5799.5695   -3329.3339    -16078.59    80.153324 
   85400    650.46961   -106.49523   0.58855858   -105.90667    8428.3439    4.3047983    4.3047983    4.3047983    8428.3439   -3555.3001    35366.302   -6525.9703   -6644.9363   -81.497095    6162.9287     79.77346 
   85500    639.00052   -106.48505    0.5781811   -105.90687   -621.05463    4.3056717    4.3056717    4.3056717   -621.05463   -2710.4617    5254.1626   -4406.8649   -260.43926   -1595.5178   -8525.0151    79.822027 
   85600    491.50976   -106.35545   0.44472836   -105.91072   -18877.197    4.3108515    4.3108515    4.3108515   -18877.197   -18502.174   -19663.783   -18465.633    3267.4591   -293.15655   -12295.638    80.110456 
   85700    620.70404   -106.46958   0.56162606   -105.90796    19398.878    4.3019132    4.3019132    4.3019132    19398.878    3705.6849     53931.05    559.90028   -5600.3373   -971.53792    5296.4525    79.613175 
   85800    663.53547   -106.51225   0.60038084   -105.91187    -3261.144    4.3103885    4.3103885    4.3103885    -3261.144    3135.2716    6359.6932   -19278.397    12443.288   -722.61413   -12960.152    80.084642 
   85900    613.03128     -106.467   0.55468359   -105.91231   -3154.6263    4.3043234    4.3043234    4.3043234   -3154.6263   -2693.5312    3603.9772   -10374.325    -4877.782    40.400793   -2210.2221     79.74706 
   86000    525.04514   -106.38548   0.47507187   -105.91041    6613.4251    4.3054606    4.3054606    4.3054606    6613.4251   -3777.9338    21862.774    1755.4355    -7280.557   -3029.4891    2483.5035    79.810283 
   86100    575.73171   -106.43074   0.52093415    -105.9098    -9110.603    4.3100601    4.3100601    4.3100601    -9110.603   -2906.8084   -4294.8777   -20130.123    1547.8563    753.46827   -17022.729     80.06634 
   86200    723.54401   -106.55945   0.65467783   -105.90477    4297.8068    4.3009074    4.3009074    4.3009074    4297.8068   -2686.7046    18475.696   -2895.5714   -10467.838   -2588.2845    3587.0641    79.557346 
   86300    539.10437   -106.39221   0.48779297   -105.90441    2385.2802    4.3101412    4.3101412    4.3101412    2385.2802   -958.02331    18448.599   -10334.735    319.34005    3415.1312   -7901.6941    80.070859 
   86400    514.64067   -106.36961   0.46565769   -105.90395   -8464.2197    4.3073462    4.3073462    4.3073462   -8464.2197    -6458.133   -4027.1485   -14907.378    2698.0548   -1695.2263   -8007.5042     79.91519 
   86500    579.47814   -106.42707     0.524324   -105.90274    8625.9036    4.3039734    4.3039734    4.3039734    8625.9036    6005.3444    23508.209   -3635.8427    -5775.432   -680.20411    2495.2027    79.727607 
   86600    781.23082    -106.6094   0.70687406   -105.90252   -8318.2815    4.3099107    4.3099107    4.3099107   -8318.2815    13073.888   -15964.487   -22064.246    9251.2893    93.805234   -10623.715    80.058015 
   86700    496.46601   -106.35266   0.44921288   -105.90345    2427.0924    4.3039494    4.3039494    4.3039494    2427.0924   -247.93086     11934.21   -4405.0018   -2742.2847   -4039.1803   -1073.5939    79.726276 
   86800    518.80635   -106.37294   0.46942689   -105.90351   -3560.2473    4.3089402    4.3089402    4.3089402   -3560.2473   -14161.281    11119.904   -7639.3649    1267.7739   -7.2438523   -1474.1672    80.003947 
   86900     679.4476   -106.51889   0.61477846   -105.90411    1292.9768    4.3034884    4.3034884    4.3034884    1292.9768    10227.578    6577.0298   -12925.677    52.127339   -821.70497   -10756.744    79.700661 
   87000    526.98704    -106.3843   0.47682895   -105.90747    6120.8395    4.3102554    4.3102554    4.3102554    6120.8395   -6090.3917    34740.077   -10287.167   -2016.0701    -1376.088    4486.7932    80.077225 
   87100    733.24416    -106.5701   0.66345472   -105.90665   -4703.6377    4.3042277    4.3042277    4.3042277   -4703.6377    4487.0887   -1721.9061   -16876.096   -4733.8109   -1640.2017   -10708.547    79.741743 
   87200    548.19814   -106.40739    0.4960212   -105.91137   -624.96135    4.3076825    4.3076825    4.3076825   -624.96135     2321.503    7284.6929    -11481.08    6562.7424   -1273.3381   -3979.0859    79.933912 
   87300    511.93432    -106.3741   0.46320893   -105.91089     4502.423    4.3100276    4.3100276    4.3100276     4502.423   -14135.259    37327.216   -9684.6883   -8775.4861   -2304.0513    1826.5515    80.064531 
   87400     745.7053   -106.58423   0.67472983    -105.9095    3536.3665    4.3011575    4.3011575    4.3011575    3536.3665    22555.137   -271.65947   -11674.378    4270.6189    4421.9413   -12839.185    79.571225 
   87500    639.94089    -106.4874   0.57903197   -105.90836   -2285.3837     4.312214     4.312214     4.312214   -2285.3837   -15582.205    17511.868   -8785.8141   -9162.1245   -2494.9437    4137.4032    80.186435 
   87600    399.42648   -106.27032   0.36140947   -105.90891   -3608.3681    4.3050075    4.3050075    4.3050075   -3608.3681   -4474.0287    2405.2922   -8756.3678    1128.4147    3835.2521   -7177.2387    79.785087 
   87700    663.51297   -106.50888   0.60036048   -105.90852   -4265.8637    4.3015502    4.3015502    4.3015502   -4265.8637    10845.727   -8855.4695   -14787.849   -3581.2997    707.84615   -8220.0671    79.593021 
   87800    654.24189    -106.4962   0.59197181   -105.90423    589.74423    4.3156382    4.3156382    4.3156382    589.74423   -10933.237    26817.047   -14114.576    516.68982    246.87146    1952.7396    80.377609 
   87900    676.34102   -106.51492   0.61196757   -105.90295    1059.1539    4.2985985    4.2985985    4.2985985    1059.1539     18132.21    3214.8194   -18169.568    -2733.324    3522.7221    -11465.01    79.429287 
   88000    548.72879   -106.40256   0.49650134   -105.90606    8406.4279    4.3053202    4.3053202    4.3053202    8406.4279    3967.8302    25650.683    -4399.229    7342.4498   -1369.6859   -641.30821    79.802479 
   88100    561.17499    -106.4111   0.50776293   -105.90333   -14697.584    4.3170028    4.3170028    4.3170028   -14697.584   -23273.836   -7988.5734   -12830.342    285.30212    2957.4583   -4100.2785    80.453878 
   88200    590.17834    -106.4357   0.53400577   -105.90169    5656.5358    4.2921315    4.2921315    4.2921315    5656.5358    26011.555    1441.6112   -10483.559    2424.3082    1594.7804   -10958.613    79.071332 
   88300    683.34417   -106.51955   0.61830417   -105.90124    456.48699    4.3149952    4.3149952    4.3149952    456.48699   -9055.4341    19621.067   -9196.1724    7135.5243   -79.285058     4832.302    80.341688 
   88400    709.81187   -106.54474    0.6422527   -105.90249   -9802.8364     4.306348     4.306348     4.306348   -9802.8364   -3625.1515   -4687.1786   -21096.179   -7135.6449    758.05831   -11793.186    79.859641 
   88500    283.34617   -106.16377   0.25637757   -105.90739    17120.413    4.2965711    4.2965711    4.2965711    17120.413    22206.427    32325.882   -3171.0705    4165.3923    425.53884   -1562.5178     79.31695 
   88600    817.94154   -106.64217    0.7400907   -105.90208   -14680.602    4.3183136    4.3183136    4.3183136   -14680.602   -22355.804   -4888.0854   -16797.916   -5903.8503   -2409.9428    4257.1214     80.52719 
   88700      628.226   -106.47261   0.56843209   -105.90417    4440.0356    4.2989631    4.2989631    4.2989631    4440.0356    18635.154    4467.2695   -9782.3172   -2866.1709    3438.5482   -14534.233    79.449499 
   88800    500.08183   -106.35941   0.45248455   -105.90692   -578.69384    4.3060588    4.3060588    4.3060588   -578.69384   -4604.8475    13243.115   -10374.349    1145.6537   -2587.5782    9761.2958    79.843554 
   88900    745.46451    -106.5776   0.67451195   -105.90309   -10049.659    4.3131033    4.3131033    4.3131033   -10049.659   -16853.985    179.07886    -13474.07    2281.8766     1525.037   -6524.2516    80.236055 
   89000    371.26319   -106.24574   0.33592674   -105.90981    5425.4623    4.2979753    4.2979753    4.2979753    5425.4623     8415.753    20642.056   -12781.422    2872.3287    896.87516   -7750.3963    79.394742 
   89100    638.15374   -106.48804   0.57741492   -105.91063    2353.5691    4.3111279    4.3111279    4.3111279    2353.5691   -2879.5139    23981.153   -14040.932    6019.6547    -3902.591     9813.625    80.125865 
   89200    885.93816   -106.70875   0.80161546   -105.90713   -2665.8618    4.3033187    4.3033187    4.3033187   -2665.8618    651.10371    2872.5316   -11521.221   -2503.1582     1302.507   -12212.818    79.691228 
   89300    221.53442   -106.11105     0.200449    -105.9106    6950.4441    4.3015821    4.3015821    4.3015821    6950.4441    7645.3147    18513.362    -5307.344     4715.655   -489.02875    4241.2968    79.594791 
   89400    768.27427   -106.59719   0.69515071   -105.90204   -6117.3664    4.3102241    4.3102241    4.3102241   -6117.3664   -17520.017    7882.4851   -8714.5669    2495.9868   -882.20152    3838.0368    80.075482 
   89500    588.22534   -106.43735   0.53223865   -105.90511    12057.325    4.2976277    4.2976277    4.2976277    12057.325    10142.775    31267.406   -5238.2059    2555.1225    2177.4259   -10989.798    79.375479 
   89600    562.50644   -106.41784   0.50896765   -105.90888   -5856.7565    4.3133556    4.3133556    4.3133556   -5856.7565   -9447.3904    17737.907   -25860.786    7765.7997    1503.0006    13470.225     80.25014 
   89700    841.12229   -106.66331   0.76106513   -105.90225    1735.2467    4.3006922    4.3006922    4.3006922    1735.2467   -4428.0815    9619.0541    14.767559    -1781.529   -3536.7055   -7982.3326    79.545403 
   89800    266.76074    -106.1513   0.24137072   -105.90993   -9576.0918    4.3083309    4.3083309    4.3083309   -9576.0918   -1028.0884   -10603.692   -17096.495    1446.8358    2487.8878    -1092.267    79.970008 
   89900    651.56808    -106.4949   0.58955249   -105.90535    2655.3303    4.3071702    4.3071702    4.3071702    2655.3303    950.06789    17288.215   -10272.292     845.3749   -5800.1938    7910.2383    79.905393 
   90000    821.87407   -106.64744   0.74364893   -105.90379    2288.0826    4.3032106    4.3032106    4.3032106    2288.0826   -890.96818    11378.053   -3622.8367    -9609.025   -1866.7201   -11323.317    79.685222 
   90100    375.88985   -106.24974   0.34011304   -105.90962    4808.0303    4.3079454    4.3079454    4.3079454    4808.0303     5648.223    30562.529   -21786.661    4751.1778   -738.59795    9130.4247    79.948547 
   90200    723.48657   -106.55969   0.65462585   -105.90507   -6838.2166    4.3043369    4.3043369    4.3043369   -6838.2166   -17700.187    808.34793   -3622.8105     -7371.88   -6027.5718    2209.3872    79.747809 
   90300    501.67734   -106.36026    0.4539282   -105.90634   -4920.5657    4.3064505    4.3064505    4.3064505   -4920.5657   -1463.9736    1062.1299   -14359.853    3956.7292   -106.43597   -4956.0494    79.865345 
   90400    603.10037   -106.45227   0.54569789   -105.90657   -2267.6671    4.3056759    4.3056759    4.3056759   -2267.6671    2433.8959    5017.5089   -14254.406    2890.5662   -4803.2731    14916.115    79.822256 
   90500    790.83838    -106.6163   0.71556718   -105.90074     5396.906    4.3031587    4.3031587    4.3031587     5396.906   -665.57272    19723.491   -2867.2003    5928.2117   -6756.9107   -5235.4384     79.68234 
   90600    433.86698   -106.29604   0.39257196   -105.90346    2343.3434    4.3102692    4.3102692    4.3102692    2343.3434    12168.745     8914.725    -14053.44    5195.1211    2780.5267    3897.4879    80.077992 
   90700    541.30048    -106.3932   0.48978005   -105.90342    1873.5094    4.2981433    4.2981433    4.2981433    1873.5094   -4136.7592    15369.453   -5612.1659    3382.1684   -8720.7999    5322.4419    79.404055 
   90800    616.52491   -106.46273    0.5578447   -105.90488     -1769.84    4.3134301    4.3134301    4.3134301     -1769.84    4984.3607    6228.3677   -16522.248   -1368.7303   -360.80557   -4139.0441    80.254298 
   90900    809.96958   -106.63735   0.73287749   -105.90447   -6013.7611    4.3023124    4.3023124    4.3023124   -6013.7611     2619.947   -5230.0612   -15431.169   -4265.9309    1501.1378    5829.5691    79.635335 
   91000    416.61888   -106.28266   0.37696552    -105.9057     7138.156    4.3007767    4.3007767    4.3007767     7138.156     5268.791    24217.987   -8072.3099    -2606.734   -14372.605    1970.7454    79.550092 
   91100    716.54677   -106.54854   0.64834657   -105.90019    -5449.575    4.3131014    4.3131014    4.3131014    -5449.575    6330.3723   -14092.451   -8586.6463    -9469.387    3377.8344   -1560.6027    80.235951 
   91200    382.16202   -106.25067   0.34578823   -105.90488    18707.221    4.2955719    4.2955719    4.2955719    18707.221    20269.245    36720.081   -867.66294    5712.5913   -11496.395    7794.8673    79.261626 
   91300    673.47998   -106.51728   0.60937884    -105.9079   -5732.8227    4.3126017    4.3126017    4.3126017   -5732.8227    2547.4668    3189.8885   -22935.823   -7306.7661   -6031.6938   -1835.6231    80.208065 
   91400    878.68808   -106.69709   0.79505544   -105.90203    6585.0148    4.3026676    4.3026676    4.3026676    6585.0148      11310.1     9380.754   -935.80939    11769.485    963.85567    4156.0402    79.655065 
   91500    264.29364   -106.14719   0.23913844   -105.90805   -6267.1766     4.303818     4.303818     4.303818   -6267.1766   -748.35199    1868.7912   -19921.969    -157.3128   -15069.739    3447.4195    79.718975 
   91600    727.85371   -106.56076   0.65857733   -105.90219   -8020.2902    4.3085725    4.3085725    4.3085725   -8020.2902   -2768.7417   -14347.802   -6944.3272     5211.093    476.51599    1447.9166    79.983465 
   91700    540.65025   -106.39345    0.4891917   -105.90426    17052.952    4.3007806    4.3007806    4.3007806    17052.952    27295.865    20904.075    2958.9162    4727.0593    -5825.045    1970.6676     79.55031 
   91800    627.93873   -106.47492   0.56817216   -105.90675   -12718.697    4.3098003    4.3098003    4.3098003   -12718.697   -8299.9101   -2288.4638   -27567.716    36.005105   -8809.7938    5036.5106    80.051864 
   91900    706.68805   -106.54103    0.6394262   -105.90161     17451.04     4.301043     4.301043     4.301043     17451.04    19011.866    25034.624    8306.6311   -208.01937    8282.8774   -3169.9026    79.564869 
   92000    420.32986   -106.28474   0.38032329   -105.90442   -17794.109    4.3104482    4.3104482    4.3104482   -17794.109    -12900.29   -18480.951   -22001.087    1853.9284   -14649.806    6033.1481    80.087973 
   92100    600.74206   -106.44624   0.54356404   -105.90267   -5021.2749     4.301977     4.301977     4.301977   -5021.2749   -4377.2086   -1801.9515   -8884.6644   -1722.0334    4304.1877   -1009.2698    79.616713 
   92200    730.72799   -106.56312   0.66117805   -105.90194    6384.5058    4.3045491    4.3045491    4.3045491    6384.5058    17588.449    1319.6142    245.45452    2668.3471   -1152.1705   -2965.6464    79.759607 
   92300    564.20237   -106.41602   0.51050216   -105.90552    -12400.67    4.3104994    4.3104994    4.3104994    -12400.67   -17477.038   -3014.9895   -16709.984    6346.6799   -10215.596    5542.5686    80.090824 
   92400    552.65856   -106.40231   0.50005708   -105.90226    18015.355    4.2973917    4.2973917    4.2973917    18015.355     32834.26    16716.346    4495.4579   -3247.3758    6990.1487   -4956.3302    79.362407 
   92500     537.0934   -106.38914   0.48597339   -105.90316   -13272.791    4.3129489    4.3129489    4.3129489   -13272.791   -13452.514   -10806.592   -15559.266    14703.247   -7690.4484   -830.91629    80.227443 
   92600    653.49306   -106.49352   0.59129425   -105.90223    85.659732     4.300608     4.300608     4.300608    85.659732    7485.6788    6843.5154   -14072.215   -6050.2677   -10111.649    3657.4607     79.54073 
   92700    695.58279   -106.53219   0.62937793   -105.90281    3853.4463    4.3051465    4.3051465    4.3051465    3853.4463    8667.7406     5269.798   -2377.1997    10662.642    8785.8346   -6318.2354    79.792816 
   92800    600.22888   -106.44694   0.54309971   -105.90384   -12452.401    4.3093104    4.3093104    4.3093104   -12452.401   -9809.2499   -16694.131   -10853.822    2355.5144   -13699.043    3834.3002    80.024567 
   92900    417.13578   -106.28072   0.37743322   -105.90328     13096.93    4.2993904    4.2993904    4.2993904     13096.93    32487.735    1156.1254    5646.9297   -598.80541    2431.3716    664.56409    79.473189 
   93000    670.56634   -106.50985   0.60674252   -105.90311   -9374.3965    4.3100417    4.3100417    4.3100417   -9374.3965   -3235.3347    -7972.266   -16915.589    5969.0632    5223.9227   -7819.9553    80.065314 
   93100    657.95436   -106.49766   0.59533093   -105.90233     8085.206    4.3029653    4.3029653    4.3029653     8085.206    27026.475    7648.7968   -10419.654    36.016317   -10991.122     6351.928    79.671599 
   93200    651.48326   -106.49247   0.58947574   -105.90299   -2785.1152    4.3062966    4.3062966    4.3062966   -2785.1152   -4870.2872    3848.5237    -7333.582   -85.752498    14619.941   -6401.1218    79.856784 
   93300    490.16467   -106.34615   0.44351129   -105.90264   -1320.6967     4.304707     4.304707     4.304707   -1320.6967    10226.009   -13349.781   -838.31777    6335.0506   -2862.9492   -5940.1779    79.768385 
   93400     552.6937    -106.4038   0.50008888   -105.90371    5119.5755    4.3038138    4.3038138    4.3038138    5119.5755    5809.6302    561.43951    8987.6566    1216.5939   -3927.3206    4919.3457    79.718738 
   93500    674.09484   -106.51511   0.60993518   -105.90517   -5745.8685    4.3083587    4.3083587    4.3083587   -5745.8685    7667.0056   -4893.5012    -20011.11    5101.2573    4517.3519   -11746.254    79.971559 
   93600    610.98352   -106.45846   0.55283073   -105.90563    5209.1313     4.305346     4.305346     4.305346    5209.1313    15793.963   -2353.0132     2186.444    5988.2486   -6587.7654    545.92811    79.803911 
   93700    670.83803   -106.51172   0.60698835   -105.90473   -4111.2444    4.3018996    4.3018996    4.3018996   -4111.2444   -1621.3037   -820.49022   -9891.9391   -5456.6635   -5369.0336     2774.021    79.612418 
   93800    350.55745   -106.22412   0.31719175   -105.90693   -2290.0533      4.31082      4.31082      4.31082   -2290.0533    4036.3942   -8358.3279   -2548.2263    7165.7393    7294.7846   -12051.356    80.108697 
   93900    795.83838   -106.62153   0.72009129   -105.90144    1900.2519    4.3027596    4.3027596    4.3027596    1900.2519   -7271.3462    10145.561     2826.541   -4427.2866   -15294.281    7265.9061    79.660171 
   94000    533.24783   -106.38729   0.48249385    -105.9048    13237.939     4.301694     4.301694     4.301694    13237.939    26407.108    16542.858   -3236.1484   -152.57026    6460.4153   -8674.2707    79.601002 
   94100    656.54387   -106.49849   0.59405469   -105.90444   -11091.814    4.3147082    4.3147082    4.3147082   -11091.814   -11703.637   -16265.305   -5306.4985    5624.9596    996.16177   -5312.4088    80.325655 
   94200    638.08293   -106.47827   0.57735085   -105.90092     16222.73      4.29573      4.29573      4.29573     16222.73    25059.385    15966.551     7642.254     2449.865   -6195.3886    233.52994     79.27038 
   94300    426.44739   -106.29295   0.38585856   -105.90709   -10302.175    4.3094626    4.3094626    4.3094626   -10302.175   -10102.355   -10211.097   -10593.073    4004.1302     7835.141   -8770.7824    80.033046 
   94400     688.0933   -106.52495   0.62260128   -105.90235   -5360.2919    4.3094441    4.3094441    4.3094441   -5360.2919   -9588.1385    2031.6462   -8524.3833    11001.794   -3320.7605   -2429.1676    80.032018 
   94500    709.21777   -106.54287   0.64171514   -105.90115    12250.128    4.2961272    4.2961272    4.2961272    12250.128     14574.85    11574.062    10601.473   -2339.9448   -2045.0744    360.03335    79.292369 
   94600     484.2018   -106.34406   0.43811597   -105.90594   -12704.473    4.3134805    4.3134805    4.3134805   -12704.473   -16589.501   -7393.1362   -14130.782     7694.151    9079.1109    -9009.912    80.257107 
   94700    673.18267   -106.51042   0.60910982   -105.90131    9475.6335    4.3020659    4.3020659    4.3020659    9475.6335    5133.7703    11184.636    12108.495     909.3898   -6370.9006    4645.2743    79.621648 
   94800    499.56085   -106.35573   0.45201315   -105.90372    1155.2194    4.3037787    4.3037787    4.3037787    1155.2194   -2207.2315    15052.636   -9379.7459     -2574.06   -1266.4813   -4102.6593    79.716791 
   94900    595.38762   -106.44382   0.53871923    -105.9051   -12348.147    4.3100284    4.3100284    4.3100284   -12348.147   -8060.1361   -17740.256    -11244.05    6960.3141     5077.167   -6700.1214    80.064576 
   95000    736.00168   -106.56741   0.66594979   -105.90146    6191.7699     4.301416     4.301416     4.301416    6191.7699   -833.89992    14669.407    4739.8022   -4444.8129   -12157.779    3099.9994    79.585574 
   95100    545.76811   -106.39852   0.49382246   -105.90469   -11436.885     4.305946     4.305946     4.305946   -11436.885   -10773.797   -2781.2461    -20755.61    1199.1313    7488.1778   -14759.923    79.837283 
   95200    465.31552   -106.32574   0.42102726   -105.90471   -631.46108     4.307631     4.307631     4.307631   -631.46108   -19510.014    14203.551    3412.0796    7413.7651   -1520.8554    1699.3474    79.931044 
   95300    713.70943   -106.54817   0.64577929   -105.90239     2381.048     4.304425     4.304425     4.304425     2381.048   -1765.0144    14403.143   -5494.9849    -4838.974   -4340.3868   -9136.2672    79.752706 
   95400    653.37651   -106.49668    0.5911888    -105.9055   -2421.1465    4.3031246    4.3031246    4.3031246   -2421.1465   -5262.2376    2592.7734   -4593.9754    7903.6864    5172.2485   -5620.1481    79.680449 
   95500    509.67584   -106.36655   0.46116541   -105.90538   -459.19186    4.3088904    4.3088904    4.3088904   -459.19186   -7216.7757    15245.936    -9406.736    1752.0765    -4529.717    713.63261    80.001172 
   95600    662.76183   -106.50314   0.59968083   -105.90346   -6747.7001    4.3006733    4.3006733    4.3006733   -6747.7001   -5892.3863    5652.9583   -20003.672   -5234.0323    523.42974   -1296.6807    79.544355 
   95700    414.72129   -106.28325   0.37524854     -105.908    2850.1975    4.3077394    4.3077394    4.3077394    2850.1975   -8675.3347    26537.431   -9311.5034    10397.167    4795.2355   -2552.1646     79.93708 
   95800    821.87258   -106.64847   0.74364758   -105.90482   -9994.0063    4.3071874    4.3071874    4.3071874   -9994.0063   -24191.172   -7919.3659    2128.5184    -6174.503   -5056.4197    3575.3044    79.906352 
   95900      603.646   -106.44985   0.54619158   -105.90366    14916.607    4.2973184    4.2973184    4.2973184    14916.607    1941.0581    35859.346    6949.4162   -2567.1618     3000.603   -6003.8788    79.358345 
   96000    457.52681   -106.31837   0.41397988   -105.90439   -16245.463    4.3157122    4.3157122    4.3157122   -16245.463   -24726.095   -8992.5542   -15017.739    4898.8315   -2075.0259   -1609.5615    80.381745 
   96100     570.6322   -106.41845   0.51632001   -105.90213    7582.3095    4.2949652    4.2949652    4.2949652    7582.3095    3571.5587    20148.238   -972.86772   -14014.008    -5456.737   -905.71842    79.228047 
   96200    664.65736   -106.50661   0.60139595   -105.90522    1158.3947    4.3092579    4.3092579    4.3092579    1158.3947   -2090.2751    18682.132   -13116.673    4880.6378    3741.0998   -9412.5686    80.021645 
   96300    666.94026   -106.50958   0.60346157   -105.90612   -7602.2767    4.3053111    4.3053111    4.3053111   -7602.2767   -17679.418   -1948.3108   -3179.1017    309.95167   -4140.7092    209.74708    79.801971 
   96400    489.07529   -106.34732    0.4425256   -105.90479    7465.5143    4.2999041    4.2999041    4.2999041    7465.5143    -13948.29     37576.08   -1231.2471   -14631.271   -935.11781   -2559.1289     79.50168 
   96500    666.85164   -106.50621   0.60338138   -105.90282   -3933.6872    4.3094636    4.3094636    4.3094636   -3933.6872   -15101.497     17346.82   -14046.384    13171.403   -289.73237   -1741.0453    80.033102 
   96600    542.08708   -106.39892   0.49049178   -105.90843   -2188.7788    4.3023905    4.3023905    4.3023905   -2188.7788   -18985.582    6229.7877     6189.458   -18114.016   -6149.4277    5755.6216    79.639674 
   96700    692.47158   -106.53374   0.62656284   -105.90717    13159.328    4.3035006    4.3035006    4.3035006    13159.328   -5025.7239    40214.465    4289.2423   -1192.4642   -1218.1461   -1837.2856    79.701337 
   96800    605.82466    -106.4587   0.54816288   -105.91054   -7080.8652    4.3075084    4.3075084    4.3075084   -7080.8652   -12766.501   -1478.0752   -6998.0191   -85.211763   -1799.3671   -2438.9486     79.92422 
   96900    345.11881   -106.22634   0.31227075   -105.91407    -8079.884    4.3010849    4.3010849    4.3010849    -8079.884   -23706.273    3713.1376   -4246.5168    -17446.75   -3503.0222   -881.35897    79.567192 
   97000    797.34072   -106.63001   0.72145064   -105.90856    5062.9006    4.3056173    4.3056173    4.3056173    5062.9006     -1916.51    29955.222    -12850.01    5070.6099    2388.4014    -48.74575    79.818997 
   97100    627.22685   -106.48238   0.56752804   -105.91485   -10882.788    4.3031613    4.3031613    4.3031613   -10882.788   -25588.467   -11317.997    4258.1004   -13119.481   -1929.4846    3649.6014    79.682486 
   97200    443.39933   -106.31525   0.40119703   -105.91406    8074.2089     4.302594     4.302594     4.302594    8074.2089   -17752.641    37864.732    4110.5358   -10534.473   -2288.3357    4372.4707    79.650979 
   97300    824.75793   -106.65109   0.74625831   -105.90483    1456.0713    4.3089025    4.3089025    4.3089025    1456.0713   -11430.174    21919.401   -6121.0125    2081.0868    1680.3378    1494.2447    80.001846 
   97400    360.46068    -106.2384    0.3261524   -105.91225    4313.8194    4.2959703    4.2959703    4.2959703    4313.8194   -10730.503    14647.826    9024.1349   -18069.115   -5306.4737   -1645.3072    79.283684 
   97500    660.04568   -106.50765    0.5972232   -105.91042   -6955.0851    4.3130685    4.3130685    4.3130685   -6955.0851   -22286.932    6100.0537   -4678.3773    2767.0734    307.81272    1479.0276    80.234116 
   97600     850.3013    -106.6755   0.76937048   -105.90613     6182.248    4.2997055    4.2997055    4.2997055     6182.248   -4306.5007     17975.12    4878.1244   -7157.3725   -771.19112   -5120.4074    79.490667 
   97700    300.53225   -106.18445    0.2719279   -105.91253   -11554.082    4.3066577    4.3066577    4.3066577   -11554.082   -33816.774   -1509.4248    663.95233    -15113.16   -3106.4512    3435.5936    79.876875 
   97800    706.53193   -106.54544   0.63928493   -105.90615    6951.3138    4.3060527    4.3060527    4.3060527    6951.3138   -4455.9644    32976.641   -7666.7349    6605.5816    1379.7842   -4982.9727    79.843216 
   97900    683.08123    -106.5248   0.61806625   -105.90673   -817.36736     4.302707     4.302707     4.302707   -817.36736   -10789.489    1891.9184    6445.4684   -15619.744   -2813.6601    6353.1277    79.657252 
   98000    366.15327   -106.24014   0.33130318   -105.90884   -2409.9471    4.3057388    4.3057388    4.3057388   -2409.9471   -22083.757    4854.9399    9998.9762   -3197.2369   -2303.3447   -1687.0492    79.825757 
   98100    861.07637   -106.68198      0.77912   -105.90286    -857.3918    4.3057263    4.3057263    4.3057263    -857.3918   -11033.221     14239.14   -5778.0943    4739.5008    5584.8655    6626.8836    79.825059 
   98200    518.89596   -106.37673   0.46950797   -105.90722    4633.9589     4.303445     4.303445     4.303445    4633.9589   -11348.676    21909.646    3340.9058   -14390.116   -4543.9828   -2207.4929    79.698247 
   98300    473.13759   -106.33849   0.42810483   -105.91039     5862.386    4.3055032    4.3055032    4.3055032     5862.386   -9012.0582    29930.008   -3330.7915     10492.45    5746.0655    3699.1197    79.812655 
   98400    762.85617   -106.59551    0.6902483   -105.90526    2161.3516    4.3071002    4.3071002    4.3071002    2161.3516   -6286.8379    17675.693   -4904.8007   -5112.5975    6134.9734   -6263.8283    79.901497 
   98500     464.9515   -106.32677   0.42069789   -105.90607    13610.986    4.2972771    4.2972771    4.2972771    13610.986   -9388.0829    31578.066    18642.977   -6236.2907   -3919.1457    1532.2458    79.356055 
   98600    606.63989   -106.45819   0.54890053   -105.90929   -19440.387    4.3116564    4.3116564    4.3116564   -19440.387   -30379.701   -4314.7944   -23626.667     6959.798    9479.7172   -3919.8591    80.155334 
   98700    723.59294   -106.55896    0.6547221   -105.90423    13512.481    4.2985183    4.2985183    4.2985183    13512.481    5610.8597    27176.453    7750.1307   -4807.9516    379.64991   -760.42792     79.42484 
   98800    450.48932   -106.31948   0.40761221   -105.91187   -4385.7892    4.3049273    4.3049273    4.3049273   -4385.7892   -21274.622    13103.222   -4985.9678    1740.6716    1458.1572    2251.6202    79.780629 
   98900    527.74183   -106.39001    0.4775119    -105.9125   -6469.6209    4.3076926    4.3076926    4.3076926   -6469.6209   -9430.2813    3536.8643   -13515.446     8604.518    8120.8085    4914.7197    79.934471 
   99000    757.36982   -106.59262   0.68528413   -105.90734    12296.334    4.3053151    4.3053151    4.3053151    12296.334   -7351.0945    45306.218    -1066.122   -1597.8223   -2505.7609   -4835.5635    79.802191 
   99100    447.68508   -106.32113   0.40507487   -105.91605    196.77192    4.3019299    4.3019299    4.3019299    196.77192   -12157.789    24160.641   -11412.536    3006.9252    7044.3243    3736.9519    79.614098 
   99200    781.23801    -106.6241   0.70688057   -105.91722   -14839.759    4.3112066    4.3112066    4.3112066   -14839.759   -22373.171   -12363.004   -9783.1029    12220.023   -820.15105   -9682.5661     80.13025 
   99300    564.73968   -106.42451   0.51098833   -105.91352    17144.755    4.3015769    4.3015769    4.3015769    17144.755   -11308.476    61691.933    1050.8063   -3087.7482    1282.9608    4004.4159    79.594501 
   99400    373.23063   -106.25613   0.33770692   -105.91842   -14043.179    4.3110532    4.3110532    4.3110532   -14043.179   -27943.926   -465.74449   -13719.867    11455.364    4650.0473   -3656.2923    80.121698 
   99500    909.29747   -106.73081   0.82275146   -105.90806   -2047.9917    4.3034985    4.3034985    4.3034985   -2047.9917    -4204.982     1045.257   -2984.2503   -2284.1277   -3166.7988    7559.4018    79.701221 
   99600    457.25443   -106.32393   0.41373342    -105.9102    5536.4332    4.3034074    4.3034074    4.3034074    5536.4332   -6069.1307    26591.749   -3913.3188   -2342.3134    7640.8257   -29.311644    79.696158 
   99700    455.63058   -106.32173   0.41226412   -105.90946   -4900.9996     4.309063     4.309063     4.309063   -4900.9996   -13955.955    2209.1653   -2956.2093    10217.532    1872.1812    6477.2511    80.010786 
   99800    715.20862    -106.5515   0.64713579   -105.90437    7818.5841    4.3028974    4.3028974    4.3028974    7818.5841   -12305.278    33833.494    1927.5361   -5255.7284    1984.9677   -6528.9392    79.667824 
   99900    616.82045   -106.46443    0.5581121   -105.90632    7896.3761    4.3034703    4.3034703    4.3034703    7896.3761   -16601.066    44857.484   -4567.2903    7510.0225    6966.9274    5346.9546    79.699653 
  100000    701.27952    -106.5391   0.63453244   -105.90457     -10426.7    4.3096665    4.3096665    4.3096665     -10426.7   -18829.094   -6713.6752   -5737.3314    2882.7274   -1674.9439   -7687.9768    80.044407 
Loop time of 22.6603 on 1 procs for 100000 steps with 8 atoms

Pair  time (%) = 7.20797 (31.8089)
Kspce time (%) = 5.50697 (24.3023)
Neigh time (%) = 0 (0)
Comm  time (%) = 1.11976 (4.94154)
Outpt time (%) = 0.0273457 (0.120677)
Other time (%) = 8.7982 (38.8266)

Nlocal:    8 ave 8 max 8 min
Histogram: 1 0 0 0 0 0 0 0 0 0
Nghost:    2189 ave 2189 max 2189 min
Histogram: 1 0 0 0 0 0 0 0 0 0
Neighs:    2344 ave 2344 max 2344 min
Histogram: 1 0 0 0 0 0 0 0 0 0

Total # of neighbors = 2344
Ave neighs/atom = 293
Neighbor list builds = 0
Dangerous builds = 0
unfix 20
unfix 21
print "seeds:2406304"
seeds:2406304
