LAMMPS (10 Feb 2015)
# ---- initialize simulations
clear
units metal
dimension 3
boundary p p p
atom_style charge
atom_modify map array
# ---- create atoms
read_data /Users/eugeneragasa/pyflamestk_git/pypospack/tests/tests_integration/workflow/WorkflowLammpsThermalExpansion/param_785/MgO_NaCl_unit.npt.T1700/lammps.structure
  triclinic box = (0 0 0) to (4.2565 4.2565 4.2565) with tilt (0 0 0)
  1 by 1 by 1 MPI processor grid
  reading atoms ...
  8 atoms
# ---- define interatomic potential
include potential.mod
mass 1 24.305
mass 2 15.999

group Mg type 1
4 atoms in group Mg
group O type 2
4 atoms in group O

set group Mg charge 1.62294375895
  4 settings made for charge
set group O charge -1.62294375895
  4 settings made for charge

variable R_cut equal 10.0

pair_style buck/coul/long ${R_cut}
pair_style buck/coul/long 10
pair_coeff 1 1 0.0 0.5 0.0 ${R_cut}
pair_coeff 1 1 0.0 0.5 0.0 10
pair_coeff 1 2 1315.47688947 0.28024601768 0.0 ${R_cut}
pair_coeff 1 2 1315.47688947 0.28024601768 0.0 10
pair_coeff 2 2 7992.27283476 0.124296175577 7.5002562575 ${R_cut}
pair_coeff 2 2 7992.27283476 0.124296175577 7.5002562575 10

kspace_style pppm 1.0e-5

neighbor 1.0 bin
neigh_modify every 1 delay 0 check yes
# ---- define settings
compute eng all pe/atom
compute eatoms all reduce sum c_eng
# ---- run minimization
reset_timestep 0
fix 1 all box/relax iso 0.0 vmax 0.001
thermo 10
thermo_style custom step pe lx ly lz xy xz yz press pxx pyy pzz pxy pxz pyz c_eatoms
min_style cg
minimize 1e-25 1e-25 5000 10000
PPPM initialization ...
  G vector (1/distance) = 0.352546
  grid = 8 8 8
  stencil order = 5
  estimated absolute RMS force accuracy = 3.83063e-05
  estimated relative force accuracy = 2.66022e-06
  using double precision FFTs
  3d grid and FFT values/proc = 3375 512
Neighbor list info ...
  1 neighbor list requests
  update every 1 steps, delay 0 steps, check yes
  master list distance cutoff = 11
Memory usage per processor = 4.06549 Mbytes
Step PotEng Lx Ly Lz Xy Xz Yz Press Pxx Pyy Pzz Pxy Pxz Pyz eatoms 
       0   -108.88461       4.2565       4.2565       4.2565            0            0            0   -30879.056   -30879.056   -30879.056   -30879.056 -2.5133272e-10 -7.2643252e-11 5.7873381e-11   -108.88461 
      10   -108.89911    4.2290577    4.2290577    4.2290577            0            0            0   0.26053131   0.26053131   0.26053131   0.26053131 3.8284322e-11 -1.3873734e-12 -2.9889769e-10   -108.89911 
      12   -108.89911    4.2290577    4.2290577    4.2290577            0            0            0   0.25210742   0.25210742   0.25210742   0.25210742 1.3658055e-10 -3.2077679e-12 -1.3269119e-10   -108.89911 
Loop time of 0.0081749 on 1 procs for 12 steps with 8 atoms

Minimization stats:
  Stopping criterion = linesearch alpha is zero
  Energy initial, next-to-last, final = 
        -108.884606122     -108.899110632     -108.899110632
  Force two-norm initial, final = 4.45895 5.1421e-05
  Force max component initial, final = 4.45895 3.59365e-05
  Final line search alpha, max atom move = 0.5 1.79683e-05
  Iterations, force evaluations = 12 23

Pair  time (%) = 0.00228381 (27.9369)
Kspce time (%) = 0.00141859 (17.353)
Neigh time (%) = 0 (0)
Comm  time (%) = 0.000258923 (3.16729)
Outpt time (%) = 1.69277e-05 (0.20707)
Other time (%) = 0.00419664 (51.3357)

Nlocal:    8 ave 8 max 8 min
Histogram: 1 0 0 0 0 0 0 0 0 0
Nghost:    2189 ave 2189 max 2189 min
Histogram: 1 0 0 0 0 0 0 0 0 0
Neighs:    2344 ave 2344 max 2344 min
Histogram: 1 0 0 0 0 0 0 0 0 0

Total # of neighbors = 2344
Ave neighs/atom = 293
Neighbor list builds = 0
Dangerous builds = 0
unfix 1
# ---- define output variables ----
variable natoms equal "count(all)"
variable tot_energy equal "c_eatoms"
variable length_x equal "lx"
variable length_y equal "ly"
variable length_z equal "lz"
variable tilt_xy equal "xy"
variable tilt_xz equal "xz"
variable tilt_yz equal "yz"
variable tot_press equal "press"
variable press_xx equal "pxx"
variable press_yy equal "pyy"
variable press_zz equal "pzz"
variable press_xy equal "pxy"
variable press_xz equal "pxz"
variable press_yz equal "pyz"

# ---- output ----
print "pypospack:output_section:begin"
pypospack:output_section:begin
print "tot_energy = ${tot_energy}"
tot_energy = -108.899110631848
print "num_atoms = ${natoms}"
num_atoms = 8
print "xx = ${length_x}"
xx = 4.22905766787052
print "yy = ${length_y}"
yy = 4.22905766787052
print "zz = ${length_z}"
zz = 4.22905766787052
print "xy = ${tilt_xy}"
xy = 0
print "xz = ${tilt_xz}"
xz = 0
print "yz = ${tilt_yz}"
yz = 0
print "tot_press = ${tot_press}"
tot_press = 0.252107417895481
print "pxx = ${press_xx}"
pxx = 0.252107418292273
print "pyy = ${press_yy}"
pyy = 0.252107418323333
print "pzz = ${press_zz}"
pzz = 0.252107417070837
print "pxy = ${press_xy}"
pxy = 1.36580554666579e-10
print "pxz = ${press_xz}"
pxz = -3.20776791999541e-12
print "pyz = ${press_yz}"
pyz = -1.32691186845421e-10
print "pypospack:output_section:done"
pypospack:output_section:done
print "pypospack:lammps_sim:done"
pypospack:lammps_sim:done
#------------------------------------------------------------------------------
# RUN THERMOSTAT
# running using an NPT Nose-Hoover style thermostat
#------------------------------------------------------------------------------
variable tempdamp equal 0.1
variable pressdamp equal 1.0
# set initial velocities
velocity all create 1700 6581221 mom yes dist gaussian loop all
# fix for Nose-Hoover style thermostat
fix 20 all npt temp 1700 1700 0.1 aniso 0.0 0.0 1.0 drag 1.0 couple xyz
variable boxx equal lx
variable boxy equal ly
variable boxz equal lz
variable boxp equal press
variable boxt equal temp
# calculate averages every 10000 steps
reset_timestep 0
fix 21 all ave/time 10 10 100 v_boxx v_boxy v_boxz v_boxp v_boxt file lattice.out
thermo_style custom step temp pe ke etotal press lx ly lz press pxx pyy pzz pxy pxz pyz vol
thermo_modify flush yes
thermo 100
run 100000
PPPM initialization ...
  G vector (1/distance) = 0.352817
  grid = 8 8 8
  stencil order = 5
  estimated absolute RMS force accuracy = 3.78369e-05
  estimated relative force accuracy = 2.62763e-06
  using double precision FFTs
  3d grid and FFT values/proc = 3375 512
Memory usage per processor = 3.06549 Mbytes
Step Temp PotEng KinEng TotEng Press Lx Ly Lz Press Pxx Pyy Pzz Pxy Pxz Pyz Volume 
       0         1700   -108.89911    1.5381957   -107.36091    21722.555    4.2290577    4.2290577    4.2290577    21722.555     32256.31     9613.876    23297.479    9080.7436    979.15991    1300.6121    75.636395 
     100    576.39986   -107.68397   0.52153871   -107.16243    454.45649    4.2512866    4.2512866    4.2512866    454.45649   -6920.5598   -3366.6346    11650.564   -5289.6879   -8139.8848    2795.3264    76.835365 
     200    1046.8669   -107.68214   0.94722715   -106.73491   -30078.604    4.2747306    4.2747306    4.2747306   -30078.604   -41131.315   -29083.389   -20021.107    4297.3624   -19123.561    7933.0676    78.113525 
     300    1579.3929   -107.80086    1.4290679   -106.37179    18214.158    4.2874507    4.2874507    4.2874507    18214.158    43923.654     -37283.4     48002.22    18370.473     25033.03   -281.36901     78.81292 
     400    1109.4477   -107.08981    1.0038516   -106.08596   -18037.766    4.2899067    4.2899067    4.2899067   -18037.766   -5122.8967    1136.1525   -50126.553   -7282.0737   -19004.545     3401.406    78.948436 
     500    1549.9289   -107.27465    1.4024082   -105.87224    8641.7668    4.2772714    4.2772714    4.2772714    8641.7668    27253.629   -10025.878    8697.5497     12632.45   -24371.773    8309.6515    78.252895 
     600    2076.7357   -107.65482    1.8790741   -105.77574    21034.346    4.2784232    4.2784232    4.2784232    21034.346    56191.988   -44136.614    51047.662    3980.4101    14824.086   -5683.8897    78.316129 
     700    1416.7295   -107.04172    1.2818866   -105.75983    626.21373    4.2924345    4.2924345    4.2924345    626.21373    21615.976   -28559.334    8821.9997   -4564.0248   -57223.159    23599.138     79.08808 
     800    2073.2896   -107.62779     1.875956   -105.75184   -4306.0723    4.2981215    4.2981215    4.2981215   -4306.0723    21523.035   -63332.154    28890.902    3813.3864     -615.597   -986.55017    79.402843 
     900    1300.3108   -106.92846    1.1765485   -105.75191   -87.601441    4.2989612    4.2989612    4.2989612   -87.601441    49980.715   -75271.696    25028.177   -7363.1721   -16420.303   -4820.1205    79.449389 
    1000    1141.5399   -106.79044    1.0328893   -105.75755   -22534.815     4.303247     4.303247     4.303247   -22534.815    25450.166   -61967.258   -31087.354   -3840.9562   -44944.378    23902.238    79.687246 
    1100    2310.3729   -107.82588     2.090474   -105.73541     15864.22    4.2858298    4.2858298    4.2858298     15864.22    67989.278   -33052.416    12655.799   -13834.053    12759.714   -10416.943    78.723569 
    1200    1546.4049   -107.15643    1.3992197   -105.75721   -15274.007    4.2813536    4.2813536    4.2813536   -15274.007    9316.1422   -18282.107   -36856.057   -10810.982   -11366.068    6424.4806    78.477162 
    1300    1863.5405   -107.45824    1.6861706   -105.77207   -25367.697    4.3021846    4.3021846    4.3021846   -25367.697   -4049.2014   -22271.024   -49782.865   -8411.3625   -28152.492    3796.9449    79.628244 
    1400    1993.6698   -107.55136    1.8039144   -105.74745    38817.397    4.2965598    4.2965598    4.2965598    38817.397    42764.006   -38123.195    111811.38    3680.7833   -5125.0398   -13395.811    79.316327 
    1500    1047.9282   -106.71422   0.94818743   -105.76603   -6434.0902    4.2960398    4.2960398    4.2960398   -6434.0902    16412.441   -34825.038   -889.67288    12978.604   -18710.635    36044.087    79.287528 
    1600    1893.7167    -107.4694    1.7134746   -105.75592   -10662.397    4.3067758    4.3067758    4.3067758   -10662.397   -30977.564   -67017.696     66008.07    471.69692    -5645.996    5181.0973    79.883444 
    1700    2288.7761   -107.82027    2.0709327   -105.74934    20513.501    4.2925449    4.2925449    4.2925449    20513.501    31020.113   -44627.508    75147.897   -9287.8641   -18629.625     10859.84     79.09418 
    1800    987.18124   -106.67176   0.89322233   -105.77854    2600.6132    4.2844022    4.2844022    4.2844022    2600.6132     125146.7   -43339.016    -74005.84   -564.50681   -12518.683    34650.584    78.644923 
    1900    2341.9449   -107.89688     2.119041   -105.77784    -10732.66    4.2896007    4.2896007    4.2896007    -10732.66    7674.1054   -33713.616   -6158.4696    8031.1005    1246.6498   -15056.364    78.931542 
    2000    1469.4962    -107.1251     1.329631   -105.79547    30867.503    4.2953774    4.2953774    4.2953774    30867.503    158014.96    -29672.96   -35739.485    -252.9703   -8181.0427    16220.085    79.250862 
    2100    1436.2733   -107.09193    1.2995702   -105.79236   -33249.198    4.3023186    4.3023186    4.3023186   -33249.198    -7714.463   -45916.878   -46116.253    1541.4587   -30365.515    17558.963     79.63568 
    2200    2207.2188   -107.75476     1.997138   -105.75762    37858.243    4.2824033    4.2824033    4.2824033    37858.243     75413.98    3944.9645    34215.784    18.014677    29943.799   -16586.607    78.534902 
    2300    1318.0867   -106.97642    1.1926325   -105.78379   -4633.6795    4.2792603    4.2792603    4.2792603   -4633.6795    54114.968   -18299.544   -49716.462   -3103.0114   -31214.447    7367.5305    78.362107 
    2400      1422.96   -107.08985    1.2875241   -105.80233   -16049.721    4.2917275    4.2917275    4.2917275   -16049.721    26937.956   -35594.075   -39493.044   -11846.982   -35063.606    9609.9865    79.049008 
    2500     2578.928   -108.10134    2.3334683   -105.76788   -3909.6884    4.3053354    4.3053354    4.3053354   -3909.6884    50534.195   -37380.827   -24882.433   -10041.845    11929.598   -6813.9418    79.803323 
    2600    1352.9538   -106.99568     1.224181    -105.7715   -33787.834    4.3010502    4.3010502    4.3010502   -33787.834   -28277.719   -31273.257   -41812.525   -8664.5911   -39185.228     1577.283    79.565268 
    2700    1629.1132   -107.22729    1.4740559   -105.75324    22914.427    4.2847828    4.2847828    4.2847828    22914.427    74608.617   -15142.216    9276.8787   -6271.4551   -26377.385   -9070.8375    78.665884 
    2800    1815.5462   -107.40519    1.6427443   -105.76244    21793.608    4.2787039    4.2787039    4.2787039    21793.608      56218.4   -24634.516     33796.94   -16621.957   -4638.6688    5761.9095    78.331549 
    2900    1267.1325   -106.94039    1.1465281   -105.79386    6102.5325    4.2820693    4.2820693    4.2820693    6102.5325    8396.5453    6157.8027    3753.2494    9301.9988    -53337.96    2193.7566    78.516524 
    3000    2059.9227   -107.64445    1.8638613   -105.78059    8216.5832    4.3103188    4.3103188    4.3103188    8216.5832    58372.238   -31303.397   -2419.0919   -11297.747    5934.0031   -2254.1303    80.080756 
    3100    1432.2209   -107.05447    1.2959036   -105.75857   -52744.118    4.3170275    4.3170275    4.3170275   -52744.118   -73957.599   -32731.106   -51543.648   -15720.581   -27436.327    4846.8326    80.455261 
    3200    1664.1505   -107.24757    1.5057584   -105.74181   -4034.5311    4.2664648    4.2664648    4.2664648   -4034.5311   -1463.6102    26035.906   -36675.889    12247.336   -58773.182     3697.227    77.661274 
    3300    2121.0785    -107.6531    1.9191964   -105.73391    71986.774    4.2576492    4.2576492    4.2576492    71986.774    103763.16    56444.936    55752.226   -2809.3618    33262.197   -13386.226    77.180862 
    3400    1177.6037   -106.85219    1.0655205   -105.78667   -38407.132    4.2916425    4.2916425    4.2916425   -38407.132   -42038.082    912.51708   -74095.831   -6764.9668   -62704.317    9956.2249     79.04431 
    3500    1901.7531    -107.4857    1.7207462   -105.76495     6400.346    4.3160669    4.3160669    4.3160669     6400.346    57188.693    -47998.71    10011.055    13842.095    26532.994    4446.2274    80.401562 
    3600    1723.6347   -107.30238    1.5595809    -105.7428   -62961.089    4.3278956    4.3278956    4.3278956   -62961.089   -34870.119   -47958.914   -106054.23   -2154.0802    -39488.76    7834.7183     81.06443 
    3700     1256.713   -106.89229    1.1371003   -105.75519    -12086.05    4.2702946    4.2702946    4.2702946    -12086.05   -42434.631    41318.166   -35141.685   -12813.845   -82754.697    1836.7658    77.870599 
    3800    2857.2585   -108.28395    2.5853076   -105.69864    47329.651    4.2324564    4.2324564    4.2324564    47329.651    25209.098    37090.242    79689.613    5650.1197    36686.914     6431.863    75.818899 
    3900    1071.7193   -106.78073   0.96971411   -105.81102   -47853.851    4.2897571    4.2897571    4.2897571   -47853.851   -81910.891   -1811.1445   -59839.517   -4159.5318   -73605.809    11082.525    78.940177 
    4000    1595.5817   -107.19565    1.4437159   -105.75194   -51575.215    4.3228932    4.3228932    4.3228932   -51575.215   -41235.194   -78988.585   -34501.867    11317.855   -212.89912    19193.045     80.78366 
    4100     2038.747   -107.57662    1.8447011   -105.73192   -2293.7967    4.2989441    4.2989441    4.2989441   -2293.7967   -23906.927    -20254.72    37280.257    8990.1611   -9652.8709    5952.8925    79.448446 
    4200    1429.9874   -107.04724    1.2938826   -105.75336   -3335.8519     4.261965     4.261965     4.261965   -3335.8519   -27838.161    26877.815   -9047.2088   -8297.8419    -64736.65   -8424.8673    77.415803 
    4300      1542.83   -107.18023     1.395985   -105.78425    37652.855    4.2570375    4.2570375    4.2570375    37652.855     110781.2   -21686.812     23864.18    11790.544     2712.434   -7089.2467    77.147601 
    4400    2107.0609   -107.71941     1.906513    -105.8129    -7357.316    4.3033252    4.3033252    4.3033252    -7357.316   -8868.2581   -1792.4441   -11411.246    3734.0155   -11346.139   -6529.2025     79.69159 
    4500    1442.0215   -107.06655    1.3047713   -105.76177   -34300.626    4.3199984    4.3199984    4.3199984   -34300.626    -21729.46   -44439.237   -36733.182    14538.947   -15282.671   -22.901062    80.621478 
    4600    2112.8151   -107.63185    1.9117195   -105.72013    7173.7686    4.2765626    4.2765626    4.2765626    7173.7686     61916.32   -43817.325    3422.3105   -16347.812    12449.259    2037.0293    78.213998 
    4700    1639.5547   -107.20482    1.4835036   -105.72132      30192.7    4.2595516    4.2595516    4.2595516      30192.7    2371.1164    45568.159    42638.825   -1914.6618    28448.241   -1545.6282    77.284368 
    4800    2186.2189   -107.73386    1.9781368   -105.75572   -3691.4791    4.2820099    4.2820099    4.2820099   -3691.4791    1584.2726   -37020.564    24361.855    6231.8188   -19332.295     7631.736     78.51326 
    4900    1201.2217   -106.86122    1.0868907   -105.77433   -19937.384    4.3027097    4.3027097    4.3027097   -19937.384    1388.5075   -14517.609   -46683.049    10376.121    52731.597    9890.8543    79.657402 
    5000    1953.2042   -107.52695    1.7673002   -105.75965   -15388.305    4.2896184    4.2896184    4.2896184   -15388.305   -40420.403    11863.398   -17607.911   -4257.4579    45309.363    9071.4062    78.932519 
    5100    2211.2874   -107.74887    2.0008193   -105.74805    19817.638    4.2665014    4.2665014    4.2665014    19817.638    41459.737    13176.778    4816.3982   -4022.6234    -9041.414   -14699.162    77.663271 
    5200    638.46216   -106.36437   0.57769398   -105.78668   -30013.424    4.2807404    4.2807404    4.2807404   -30013.424   -21079.501    29172.241   -98133.012    16352.879    73345.576    1066.5798    78.443449 
    5300    1781.0581   -107.37283    1.6115388   -105.76129    31349.536    4.2875736    4.2875736    4.2875736    31349.536    12418.085     53231.56    28398.962    17185.983   -14467.363   -3504.5994    78.819699 
    5400    1915.1385   -107.50465    1.7328575    -105.7718    -11632.92    4.2979772    4.2979772    4.2979772    -11632.92   -35241.867    8157.2028    -7814.097   -4086.9964    31971.897   -6088.0694    79.394847 
    5500    1776.3893   -107.36111    1.6073143   -105.75379   -35372.533    4.3006448    4.3006448    4.3006448   -35372.533   -14802.837   -66766.713   -24548.048   -10624.541     28771.06   -10291.956    79.542774 
    5600    2002.1323   -107.53745    1.8115714   -105.72588   -1363.5993    4.2807991    4.2807991    4.2807991   -1363.5993    14937.351   -36691.187    17663.038   -1814.5419   -25183.863    7407.6906    78.446673 
    5700    1683.8972   -107.26683    1.5236256   -105.74321    22356.612     4.289194     4.289194     4.289194    22356.612   -32914.643     61936.19    38048.289    2721.5239    19033.356   -408.96848    78.909097 
    5800    1418.2447   -107.02574    1.2832576   -105.74248   -14647.877    4.3038696    4.3038696    4.3038696   -14647.877   -17442.217    30762.024   -57263.439    -9272.505    244.00771    1684.9073    79.721838 
    5900    1280.4411    -106.8959      1.15857   -105.73733   -6423.4803    4.2887569    4.2887569    4.2887569   -6423.4803   -19932.771   -9690.9285    10353.259   -9668.3106   -37238.786    1146.6276    78.884973 
    6000    2715.4342   -108.18863    2.4569819   -105.73165    11659.012    4.2848312    4.2848312    4.2848312    11659.012   -29099.738     5313.846    58762.929    7925.4044    6487.0202   -11284.206    78.668553 
    6100    770.28987   -106.47241   0.69697446   -105.77544     30198.81     4.288613     4.288613     4.288613     30198.81    6882.1534    64524.668    19189.607    6358.3517   -29461.809    -15087.72    78.877037 
    6200    1907.1701   -107.49621    1.7256475   -105.77056   -12968.707    4.3001625    4.3001625    4.3001625   -12968.707    3289.6511   -35984.946   -6210.8253    -8221.009   -4416.4282      14120.6    79.516013 
    6300    1631.5329   -107.24231    1.4762452   -105.76607   -4526.1321    4.3073813    4.3073813    4.3073813   -4526.1321   -73463.247    64284.613   -4399.7626   -3749.2967    35333.555   -3315.7337    79.917143 
    6400    2102.4692   -107.65429    1.9023583   -105.75193   -4174.7616    4.2823284    4.2823284    4.2823284   -4174.7616   -39083.778    26138.223    421.26998   -1128.0768   -36661.192    11178.521    78.530778 
    6500    1479.7377   -107.10237    1.3388977   -105.76347   -7173.5312    4.2671932    4.2671932    4.2671932   -7173.5312    -21728.19    15378.652   -15171.056   -4136.5784    54638.061    10160.177    77.701055 
    6600    1938.9435   -107.54653    1.7543968   -105.79214   -10392.168    4.2893758    4.2893758    4.2893758   -10392.168   -42507.129    34067.195   -22736.569    -5401.589    35619.102    13081.587    78.919129 
    6700    2198.2651   -107.75643    1.9890365    -105.7674   -2019.9576    4.3045659    4.3045659    4.3045659   -2019.9576   -47417.742   -8875.4242    50233.293   -18968.247   -462.82025   -4130.7147     79.76054 
    6800    881.57647   -106.56575   0.79766892   -105.76808    -17852.44    4.2929608    4.2929608    4.2929608    -17852.44    1505.3631   -3059.3674   -52003.316    -12189.92    80352.892    -6469.891    79.117172 
    6900    2243.9302   -107.77416    2.0303552   -105.74381    28652.866    4.2874446    4.2874446    4.2874446    28652.866    24659.138    16531.124    44768.335   -3809.0737   -10490.757    6472.1972    78.812583 
    7000    1369.9681   -106.98355    1.2395759   -105.74397   -25911.845    4.3066572    4.3066572    4.3066572   -25911.845    -93083.97    23195.557    -7847.121   -15210.733    64110.659   -1625.2418    79.876845 
    7100    1201.3232   -106.82229    1.0869825   -105.73531   -7307.1525    4.2935045    4.2935045    4.2935045   -7307.1525   -38614.294   -44665.416    61358.252   -10807.529    21881.299    8125.7351    79.147237 
    7200     2156.923   -107.68729    1.9516293   -105.73566    451.53099    4.2703127    4.2703127    4.2703127    451.53099    10113.406    -28574.02    19815.206     14334.09   -24353.858    519.22173    77.871588 
    7300     2214.994   -107.77908    2.0041732   -105.77491   -4744.9478    4.2816139    4.2816139    4.2816139   -4744.9478    -34334.29   -19443.845    39543.291   -2539.4979    25801.645    2621.7621    78.491477 
    7400    1396.1705   -107.04196    1.2632844   -105.77868    -39896.59    4.3013671    4.3013671    4.3013671    -39896.59    27145.335   -73297.443   -73537.663   -14025.865    6772.1501    18571.048    79.582858 
    7500    949.26517   -106.62685   0.85891507   -105.76793    24647.034    4.2875159    4.2875159    4.2875159    24647.034    31014.098   -18437.853    61364.856   -3500.4998   -31084.718    2972.6964    78.816513 
    7600    2452.8989   -107.98469    2.2194345   -105.76526    13956.419    4.2809277    4.2809277    4.2809277    13956.419   -6439.9357     823.9503    47485.244   -9648.3045    9398.7175    919.34074    78.453747 
    7700    1957.0999   -107.56065    1.7708251   -105.78983    43615.133    4.2548571    4.2548571    4.2548571    43615.133    32732.593   -13010.627    111123.43     -919.852    19015.254     6374.209    77.029118 
    7800    899.77764   -106.64795   0.81413772   -105.83382    5242.9052    4.2678915    4.2678915    4.2678915    5242.9052    52378.926   -24053.563   -12596.647   -1139.0234    -49353.38   -18342.312    77.739207 
    7900    1638.6552   -107.29563    1.4826897   -105.81294   -32585.101    4.2958696    4.2958696    4.2958696   -32585.101   -48966.892   -10161.287   -38627.124   -5861.7722    42698.383    5070.0224    79.278106 
    8000    2225.2137   -107.78625    2.0134201   -105.77283   -13445.736    4.2928005    4.2928005    4.2928005   -13445.736   -10702.053    -25393.86   -4241.2954   -1145.8168    17831.032    954.54569    79.108312 
    8100    1598.6818   -107.21657    1.4465209   -105.77004   -18493.402    4.2838223    4.2838223    4.2838223   -18493.402    -3323.011    -18758.29   -33398.906    16027.381   -18477.721   -19370.983    78.612994 
    8200    1100.6768   -106.77561   0.99591548   -105.77969     9994.427    4.2642941    4.2642941    4.2642941     9994.427   -52319.508    50977.272    31325.516   -12466.805    50106.337    5616.8031    77.542796 
    8300    2140.1371    -107.7207     1.936441   -105.78426    15414.135    4.2651514    4.2651514    4.2651514    15414.135     28057.66   -29713.687    47898.432    8522.8879   -2718.5808    20663.008    77.589573 
    8400    1909.8476   -107.52679    1.7280703   -105.79872    1138.2976    4.2873224    4.2873224    4.2873224    1138.2976   -40035.843    20887.171    22563.564    29061.387    9130.2598   -18533.761    78.805842 
    8500    1715.2846   -107.32747    1.5520256   -105.77545    -9108.364    4.2964831    4.2964831    4.2964831    -9108.364   -31052.976   -17326.139    21054.023   -13487.049    45793.343    1471.6038    79.312076 
    8600     1855.408    -107.4397    1.6788122   -105.76089   -30681.198    4.2770467    4.2770467    4.2770467   -30681.198   -19463.808   -65807.258   -6772.5274    39390.582   -6900.5187    36075.554    78.240567 
    8700    1483.3847    -107.1044    1.3421977    -105.7622     10969.24    4.2619209    4.2619209    4.2619209     10969.24   -21981.529    46632.425     8256.824    17912.591    21252.111   -18002.048    77.413402 
    8800    2148.5182   -107.71727    1.9440244   -105.77324   -13064.091    4.2745468    4.2745468    4.2745468   -13064.091   -18538.533   -7582.9307   -13070.809   -7971.6417    34967.113     4829.118    78.103454 
    8900    1303.5799   -106.96635    1.1795065   -105.78684   -14403.252    4.2894215    4.2894215    4.2894215   -14403.252   -27756.019   -12005.612   -3448.1261    44193.551   -24015.076    30089.714    78.921652 
    9000    1923.5667   -107.50892    1.7404835   -105.76843   -24766.137    4.2968648    4.2968648    4.2968648   -24766.137   -52878.896   -29467.381    8047.8672   -2124.2712    36405.033    -9238.309    79.333216 
    9100    1828.4964   -107.40682     1.654462   -105.75236    4518.6776    4.2861188    4.2861188    4.2861188    4518.6776    38262.099    18275.356   -42981.422   -8305.8454      11748.2    11626.285    78.739492 
    9200     1332.129   -106.96057    1.2053383   -105.75523    32499.549    4.2708508    4.2708508    4.2708508    32499.549    93489.842    29115.123   -25106.319    18524.583    3635.9533    35638.256     77.90103 
    9300    1398.0639    -107.0298    1.2649976    -105.7648     32967.43    4.2800689    4.2800689    4.2800689     32967.43    29637.834      51290.1    17974.356    9236.3668    43041.369   -3895.7255    78.406541 
    9400    1750.2936   -107.35341    1.5837024   -105.76971    10421.693    4.2953399    4.2953399    4.2953399    10421.693    43181.021    8861.0952   -20777.035    -21076.79   -8494.2271    37022.091    79.248785 
    9500     1406.511   -107.03446    1.2726407   -105.76182    10167.757    4.2994507    4.2994507    4.2994507    10167.757    7131.3401    72218.372   -48846.442    18710.889    18331.326    4107.5906    79.476532 
    9600    1652.6847   -107.25051    1.4953838   -105.75513   -5506.4282    4.2896631    4.2896631    4.2896631   -5506.4282    5191.4143    10559.556   -32270.255    6366.7601    34219.247    -5855.957    78.934987 
    9700    1901.1188   -107.46992    1.7201723   -105.74974    32435.943    4.2603462    4.2603462    4.2603462    32435.943    52324.898    56584.677   -11601.747   -11655.177   -28545.193    25771.119    77.327626 
    9800    1163.6841   -106.83994    1.0529259   -105.78702    18774.676    4.2684949    4.2684949    4.2684949    18774.676   -4177.5496    42927.796    17573.781    24342.075    30661.234   -9855.0553    77.772184 
    9900    1913.5436   -107.50977    1.7314145   -105.77835   -23637.102    4.2920699    4.2920699    4.2920699   -23637.102   -59968.168   -37414.061    26470.922     13356.75    30805.257   -9533.2729    79.067928 
   10000    2134.2473    -107.6849    1.9311118   -105.75379    5630.5984    4.2906091    4.2906091    4.2906091    5630.5984    18120.745     12199.99    -13428.94    5433.7451   -5458.5411    12116.402    78.987225 
   10100     1235.847   -106.88284    1.1182204   -105.76462   -398.94588    4.2827575    4.2827575    4.2827575   -398.94588   -12208.407    23382.742   -12371.173    31635.905    20988.827   -17430.706    78.554391 
   10200    1581.0773   -107.21375     1.430592   -105.78316   -19111.389    4.2717031    4.2717031    4.2717031   -19111.389    -8408.418    -26016.63    -22909.12   -5781.3348    20004.509   -11332.082    77.947678 
   10300     2465.656   -108.01001    2.2309774   -105.77903    37307.614    4.2675133    4.2675133    4.2675133    37307.614    66096.154    51024.228   -5197.5407    -6504.127   -4511.6165    6111.0913    77.718541 
   10400     1411.245   -107.07614    1.2769241   -105.79921   -31033.351    4.2919305    4.2919305    4.2919305   -31033.351   -12161.841   -65158.369   -15779.843    27642.059    12387.368   -17346.443    79.060227 
   10500    1130.6292    -106.7937    1.0230171   -105.77068   -15366.047    4.2945083    4.2945083    4.2945083   -15366.047   -60109.806   -28278.813    42290.478   -15768.571    2930.0817   -10692.198    79.202767 
   10600    1764.0554   -107.34286    1.5961544   -105.74671   -3224.0058    4.2824794    4.2824794    4.2824794   -3224.0058   -29841.808    26159.671   -5989.8801    12903.572   -36064.201    12370.173    78.539085 
   10700    1905.3264    -107.4619    1.7239794   -105.73792    1550.5074    4.2775981    4.2775981    4.2775981    1550.5074    35093.927   -26543.705   -3898.7004    12700.838    13940.389   -5564.4384    78.270831 
   10800    1664.7127   -107.26092     1.506267   -105.75465    -991.0701    4.2718367    4.2718367    4.2718367    -991.0701   -31966.185    8054.8549     20938.12   -30952.404   -25401.373     2055.196     77.95499 
   10900    1796.3835   -107.39603    1.6254055   -105.77063    1016.5452    4.2666477    4.2666477    4.2666477    1016.5452    3736.5602    16745.392   -17432.317    6721.9844   -20378.562   -699.04802    77.671262 
   11000    1580.2548   -107.21473    1.4298478   -105.78488   -5103.4883    4.2744733    4.2744733    4.2744733   -5103.4883    23816.274   -22280.879    -16845.86    3451.1008    12906.748   -28212.567    78.099426 
   11100    1664.3371   -107.28457    1.5059272   -105.77864   -21060.428    4.2848241    4.2848241    4.2848241   -21060.428   -47731.043   -22327.215    6876.9742   -24384.554   -23437.961    5037.2701    78.668161 
   11200    1549.4253   -107.16612    1.4019526   -105.76417   -9607.1229    4.2872367    4.2872367    4.2872367   -9607.1229   -4827.7699    21584.194   -45577.793    2777.9464    4771.8316   -1704.3162    78.801117 
   11300     1178.958   -106.83088     1.066746   -105.76414   -2573.3198    4.2769873    4.2769873    4.2769873   -2573.3198    36138.542   -12821.789   -31036.712   -29006.157    8948.4095    3833.7776    78.237305 
   11400    2342.2727   -107.87479    2.1193375   -105.75545    28003.315    4.2715632    4.2715632    4.2715632    28003.315    33173.743    6609.2668    44226.936   -24367.147    2191.5101    26087.544    77.940018 
   11500    1772.8721   -107.38355    1.6041319   -105.77942   -4916.6353    4.2845342    4.2845342    4.2845342   -4916.6353    44919.538   -36447.151   -23222.293    4467.9295    24696.168   -22772.796    78.652192 
   11600    1007.6132   -106.68224   0.91170964   -105.77053    15227.897    4.2944381    4.2944381    4.2944381    15227.897    86150.259   -37830.962    -2635.606   -26199.943    19707.532    17783.289    79.198879 
   11700    2158.1518   -107.68332    1.9527411   -105.73057    14097.735    4.2955378    4.2955378    4.2955378    14097.735    34006.457   -40684.011    48970.759     7107.749    7693.4815    -211.1567    79.259736 
   11800    1473.1419   -107.09423    1.3329297    -105.7613   -11127.173    4.2734645    4.2734645    4.2734645   -11127.173     2015.122   -78913.859    43517.217    9473.1633    23921.802    650.07097    78.044138 
   11900     1803.642   -107.40006    1.6319732   -105.76809    32818.865    4.2473739    4.2473739    4.2473739    32818.865    42062.422    11100.254    45293.918   -15287.278    21738.449    10592.771    76.623412 
   12000    1667.9211    -107.3094    1.5091701   -105.80023    17264.246    4.2598278    4.2598278    4.2598278    17264.246   -2766.0994    8407.2565    46151.582    33328.788   -38666.264   -679.81878      77.2994 
   12100    1470.8951   -107.14322    1.3308968   -105.81232   -27104.363    4.2969913    4.2969913    4.2969913   -27104.363    21163.269   -86292.643   -16183.714    12605.067    -10663.71    11094.174    79.340224 
   12200    2126.6978   -107.68745    1.9242809   -105.76317    15178.669    4.3025646    4.3025646    4.3025646    15178.669    87689.348   -39583.813   -2569.5286    2013.9616   -8536.2181    3847.7429    79.649346 
   12300    1282.3733   -106.92606    1.1603183   -105.76574    268.24446    4.2847134    4.2847134    4.2847134    268.24446    19283.057   -32444.518    13966.194    36344.184   -34818.297    2495.8601    78.662063 
   12400    1793.6843   -107.35731    1.6229633   -105.73434    18711.821     4.273957     4.273957     4.273957    18711.821    69907.609   -8084.4762   -5687.6707   -10173.789    5521.2636   -11792.358    78.071128 
   12500    1864.2838    -107.4332    1.6868432   -105.74636   -13001.985     4.279018     4.279018     4.279018   -13001.985   -42149.345      1700.21    1443.1787    27810.287    22249.449    4722.5232    78.348796 
   12600    1544.9144   -107.16309    1.3978711   -105.76522    3551.7466    4.2788648    4.2788648    4.2788648    3551.7466    5699.3755      5145.22   -189.35562    40869.809   -21027.429    10276.503    78.340385 
   12700    2110.9172   -107.67027    1.9100023   -105.76027    9773.5719    4.2903992    4.2903992    4.2903992    9773.5719    46174.734   -8946.2903    -7907.728    2915.6586    33840.707   -3474.3573    78.975631 
   12800    1104.6921   -106.76401   0.99954865   -105.76446    -33137.95    4.3027048    4.3027048    4.3027048    -33137.95   -33740.236   -63690.664    -1982.949    46990.327    7729.6897    3407.4124    79.657127 
   12900    2243.4561   -107.76237    2.0299262   -105.73244   -4036.2235    4.2809221    4.2809221    4.2809221   -4036.2235   -3874.2546   -22601.482    14367.067    5944.7392   -28729.243    7093.7643    78.453437 
   13000    1203.3012   -106.84832    1.0887722   -105.75955    -24661.81    4.2733636    4.2733636    4.2733636    -24661.81   -50261.526    33537.253   -57261.158    7835.7659    94411.765   -798.74288    78.038615 
   13100    1766.5395   -107.36299    1.5984021   -105.76459   -13075.938      4.27011      4.27011      4.27011   -13075.938   -18257.365   -44172.887    23202.439    44592.172   -4513.2674      2362.48      77.8605 
   13200    2029.7162   -107.59801    1.8365299   -105.76148   -28003.021    4.2920291    4.2920291    4.2920291   -28003.021    -27701.86   -11907.132   -44400.073   -2856.8869    36903.948    12156.744    79.065675 
   13300    1313.2688   -106.92858    1.1882732   -105.74031    -30671.33    4.3052725    4.3052725    4.3052725    -30671.33   -11743.579   -11475.314   -68795.097    11309.948    55805.694   -10898.715    79.799827 
   13400    2046.6755   -107.56198     1.851875    -105.7101   -13070.691     4.284732     4.284732     4.284732   -13070.691   -18008.488   -47955.386    26751.801    25023.603   -8771.8003    264.10082    78.663089 
   13500    1681.1929   -107.24674    1.5211787   -105.72557   -11338.227    4.2643616    4.2643616    4.2643616   -11338.227   -24475.955    48421.971   -57960.696   -12088.431     69560.65   -1644.8416    77.546476 
   13600    1612.7676   -107.21616     1.459266   -105.75689    8744.2099     4.267359     4.267359     4.267359    8744.2099    14882.833   -15620.511    26970.307     41457.54    5531.7861   -9781.1187    77.710114 
   13700    2312.1012   -107.85023    2.0920377   -105.75819   -6656.8493    4.2923698    4.2923698    4.2923698   -6656.8493    11924.941   -19280.147   -12615.342   -10904.324    7388.0869     829.1663    79.084506 
   13800    1193.6295   -106.83307    1.0800211   -105.75305   -13251.448    4.3028833    4.3028833    4.3028833   -13251.448   -2561.0144   -22579.067   -14614.264    12321.468    43810.237    4729.7039    79.667044 
   13900    1947.2924   -107.48281    1.7619511   -105.72086    13158.781    4.2808604    4.2808604    4.2808604    13158.781    13430.658   -9198.4664    35244.152    42031.751   -26045.345   -2171.5452    78.450047 
   14000     1340.777   -106.94137    1.2131632   -105.72821    25244.308    4.2557901    4.2557901    4.2557901    25244.308   -4357.1901    80889.051   -798.93665   -18129.931    36033.235     1567.372    77.079804 
   14100    1878.6317   -107.45528    1.6998254   -105.75546   -12248.117    4.2640205    4.2640205    4.2640205   -12248.117   -27602.409   -22216.455    13074.513    23500.222    20706.431   -2093.1124    77.527871 
   14200    2166.7247     -107.717    1.9604981    -105.7565   -12591.214    4.2871533    4.2871533    4.2871533   -12591.214   -41727.947   -11822.311    15776.615    15255.749   -6860.1235    -5118.845    78.796521 
   14300    1107.8489   -106.77915    1.0024049   -105.77674    -16454.36    4.2812579    4.2812579    4.2812579    -16454.36   -96745.786    80262.033   -32879.328   -22125.922     31020.29    3265.9447    78.471902 
   14400    2284.0468   -107.82374    2.0666535   -105.75709    25747.749    4.2655532    4.2655532    4.2655532    25747.749    1431.3068    46632.721     29179.22    1902.9269    5195.7371    3531.8616    77.611504 
   14500    1787.0369   -107.39182    1.6169485   -105.77487     10446.95    4.2713116    4.2713116    4.2713116     10446.95   -43747.555    38049.576     37038.83    9319.1801    4129.0195    507.67105    77.926248 
   14600    764.36828   -106.47747   0.69161648   -105.78586   -1902.5461    4.2865411    4.2865411    4.2865411   -1902.5461   -44637.865    65484.666   -26554.439   -12068.861    17821.097    7629.1427    78.762769 
   14700    2323.5394   -107.85182    2.1023873   -105.74943    8843.9325    4.2936019    4.2936019    4.2936019    8843.9325   -37372.569    8992.7728    54911.594     6293.697   -10379.917    15797.383    79.152627 
   14800    1281.1343   -106.92289    1.1591973   -105.76369    119.51412    4.2787541    4.2787541    4.2787541    119.51412   -84297.541    99689.702   -15033.619    22583.699     30374.75   -12279.533    78.334306 
   14900     1666.182   -107.25946    1.5075965   -105.75186    19053.391    4.2681109    4.2681109    4.2681109    19053.391   -28004.912    89485.053   -4319.9688   -8257.0781   -13334.427    15746.097    77.751198 
   15000    1942.7116   -107.51442    1.7578063   -105.75661   -1219.1507    4.2790423    4.2790423    4.2790423   -1219.1507   -58490.355    21443.828    33389.075    44802.112     5848.236   -1554.1642    78.350131 
   15100     751.0848     -106.456   0.67959731    -105.7764    9151.2371    4.2843383    4.2843383    4.2843383    9151.2371   -63008.261    83123.561    7338.4122    29286.326    16644.072   -12826.234    78.641408 
   15200    2044.8308   -107.60697    1.8502059   -105.75677   -6403.3593    4.2907953    4.2907953    4.2907953   -6403.3593   -43512.911    49807.151   -25504.318    3627.6997    -30966.04    7276.0511     78.99751 
   15300    1933.0207   -107.49062    1.7490378   -105.74158    -9942.159    4.2907845    4.2907845    4.2907845    -9942.159   -18541.922   -49844.826    38560.271    22539.224    26918.463   -10096.613     78.99691 
   15400    837.99385   -106.52269   0.75823444   -105.76446   -9172.6268    4.2743985    4.2743985    4.2743985   -9172.6268   -57948.354     26320.27    4110.2039    2587.0336   -4050.6012   -46.415367    78.095326 
   15500       2040.6    -107.6118    1.8463777   -105.76542     22410.44    4.2615305    4.2615305    4.2615305     22410.44    6774.4894    12204.474    48252.355   -27451.197   -17105.528   -9927.3183     77.39213 
   15600    2242.7985   -107.80708    2.0293312   -105.77775    11101.562    4.2753105    4.2753105    4.2753105    11101.562    1158.9917   -11321.866    43467.561    5167.9156    13238.075    3252.0611    78.145324 
   15700    1566.7978   -107.20477    1.4176715    -105.7871   -34045.814    4.2838443    4.2838443    4.2838443   -34045.814   -88621.407    16609.044   -30125.079   -2830.2959   -8624.5619    1215.4724    78.614205 
   15800    1215.6322   -106.88635    1.0999295   -105.78642    8839.4835    4.2736579    4.2736579    4.2736579    8839.4835    -22492.22   -42822.643    91833.313   -41732.048   -4933.2918    7416.9179    78.054735 
   15900    2176.0445   -107.74916    1.9689308   -105.78023   -8628.1276    4.2689635    4.2689635    4.2689635   -8628.1276   -2073.0719   -26066.622    2255.3109   -624.39118   -1905.9774    26205.719    77.797804 
   16000    1796.2554   -107.40705    1.6252897   -105.78176     23799.51    4.2695774    4.2695774    4.2695774     23799.51   -17256.592    27110.573    61544.548   -17922.859    5861.7513   -4259.7406     77.83137 
   16100    1076.3319   -106.76792   0.97388772   -105.79403   -11824.848    4.3007401    4.3007401    4.3007401   -11824.848   -25735.393   -41722.744    31983.593   -19678.171    4810.3463    24835.323    79.548063 
   16200    2229.0628   -107.76243    2.0169029   -105.74552   -52918.044    4.3022999    4.3022999    4.3022999   -52918.044   -33740.533   -74034.772   -50978.826    28287.688    2345.5095    31261.808    79.634644 
   16300    1999.4325   -107.54967    1.8091285   -105.74054    46372.303    4.2479851    4.2479851    4.2479851    46372.303    27511.802    18067.665    93537.442   -43458.477    11190.649   -11767.896    76.656495 
   16400    1337.0321   -106.98246    1.2097747   -105.77268   -12185.641    4.2450688    4.2450688    4.2450688   -12185.641    9090.4826   -46900.283    1252.8781    3884.2126    7547.3585     49222.23    76.498724 
   16500    1425.8373   -107.08943    1.2901275    -105.7993   -9820.4415      4.27781      4.27781      4.27781   -9820.4415    29084.511   -55181.819   -3364.0166    25341.624    1941.0999    25907.948     78.28246 
   16600    2331.7572   -107.88953    2.1098229   -105.77971   -6333.9995    4.2968592    4.2968592    4.2968592   -6333.9995   -24155.812   -7087.8222    12241.636   -36137.642   -9739.0287   -15355.702    79.332909 
   16700    1476.7434   -107.11298    1.3361884   -105.77679   -46867.254    4.2979802    4.2979802    4.2979802   -46867.254   -51341.725   -20542.852   -68717.186    11490.232     12740.21    31725.642    79.395017 
   16800    1353.3483   -107.00285     1.224538   -105.77831    18131.773    4.2587761    4.2587761    4.2587761    18131.773    22248.593    39971.722   -7824.9954    37993.803   -1217.0701    19254.702    77.242164 
   16900    2294.5644   -107.84025    2.0761701   -105.76408    58528.728    4.2520864    4.2520864    4.2520864    58528.728    55448.992    69644.653    50492.539   -18780.508   -13798.755   -20786.262    76.878735 
   17000    1078.8985   -106.78311   0.97621003    -105.8069   -24097.596    4.2834998    4.2834998    4.2834998   -24097.596    -37351.31   -2595.2198   -32346.259    17281.704     24522.18    3287.6228    78.595242 
   17100    1540.5601    -107.1792    1.3939312   -105.78527   -7639.1867     4.294663     4.294663     4.294663   -7639.1867   -27384.378   -23494.575    27961.393    28498.106   -10604.794     4937.061    79.211325 
   17200    2423.8179   -107.92907    2.1931213   -105.73595   -34212.948    4.3092523    4.3092523    4.3092523   -34212.948   -24045.666   -23611.714   -54981.463   -4542.1232   -5443.5029   -20122.969    80.021328 
   17300    691.17274   -106.36245   0.62538762   -105.73706   -43014.633    4.2967642    4.2967642    4.2967642   -43014.633   -40847.049   -32969.474   -55227.375    57239.532    4503.9732    20845.273    79.327647 
   17400    2084.3041   -107.60519    1.8859221   -105.71927    25652.085    4.2470924    4.2470924    4.2470924    25652.085    16603.638    14992.372    45360.246   -28345.506   -2820.8145      4087.91    76.608178 
   17500    2088.2761   -107.64356    1.8895161   -105.75404    35791.655    4.2432366    4.2432366    4.2432366    35791.655    34260.426    54988.795    18125.746   -23811.355    8244.6627   -13438.932    76.399715 
   17600     1538.899   -107.18681    1.3924281   -105.79438    -9165.178    4.2788722    4.2788722    4.2788722    -9165.178   -13474.989     7827.403   -21847.947    63994.957    3698.2845    4988.1309    78.340789 
   17700    1161.2529   -106.84186    1.0507261   -105.79113    5777.8683    4.2895466    4.2895466    4.2895466    5777.8683     14470.34   -16531.992    19395.258   -45228.129   -3669.9161    8844.8902    78.928557 
   17800    2173.5664   -107.73107    1.9666885   -105.76438   -1230.7512    4.2830705    4.2830705    4.2830705   -1230.7512    10934.157    14871.391   -29497.802   -13601.476   -3974.8462   -20941.078    78.571614 
   17900    1894.8588   -107.48524    1.7145081   -105.77074    7334.2157     4.264256     4.264256     4.264256    7334.2157    13469.745    19666.427   -11133.526    23042.892    10539.028    5358.5285    77.540716 
   18000    1480.2809   -107.12951    1.3393893   -105.79013    26644.976    4.2581492    4.2581492    4.2581492    26644.976    50388.836    6162.0128    23384.078   -23714.242    6630.0135    1260.1279    77.208054 
   18100    1846.5385   -107.47231    1.6707868   -105.80153    -21615.56     4.286141     4.286141     4.286141    -21615.56   -7129.1056    17914.167    -75631.74   -5486.1998   -38740.528   -44107.763    78.740716 
   18200    2290.0994   -107.83111      2.07213   -105.75898   -14910.838     4.297967     4.297967     4.297967   -14910.838   -11526.076   -8053.3808   -25153.057    8743.8707    20589.034    21944.277    79.394285 
   18300    911.37645   -106.57649   0.82463257   -105.75185    1295.7983    4.2861834    4.2861834    4.2861834    1295.7983    24348.221    13788.442   -34249.269   -20273.521   -7418.9962   -20818.444    78.743051 
   18400    1853.8166   -107.42754    1.6773723   -105.75017    1531.4036    4.2692686    4.2692686    4.2692686    1531.4036    30517.125   -5038.5697   -20884.345    26636.796   -20342.648   -23334.025    77.814483 
   18500    2363.7692   -107.89307    2.1387881   -105.75428    38912.233    4.2539657    4.2539657    4.2539657    38912.233    44445.923    40479.383    31811.393    -223.7626    9705.7897    25949.902     76.98072 
   18600    1224.8752    -106.9119    1.1082928    -105.8036    16745.327    4.2592358    4.2592358    4.2592358    16745.327    36976.513    46936.733   -33677.264   -33868.671   -14664.163   -41258.216    77.267178 
   18700    1265.1817     -106.956     1.144763   -105.81124   -28816.217    4.2809584    4.2809584    4.2809584   -28816.217   -42349.363   -55729.792    11630.504    44696.466   -7574.6957   -10598.821    78.455435 
   18800    2213.3857   -107.78367    2.0027179   -105.78095   -427.73215    4.2764129    4.2764129    4.2764129   -427.73215   -7166.7111   -25491.448    31374.963    32183.916   -1011.0509    12513.741    78.205785 
   18900    1759.6227   -107.37382    1.5921436   -105.78168    10213.841    4.2703772    4.2703772    4.2703772    10213.841    14526.678    2603.1906    13511.656   -17911.702    -18092.96   -44724.698    77.875117 
   19000    1019.0755   -106.71675   0.92208096   -105.79467   -6478.3399    4.2698261    4.2698261    4.2698261   -6478.3399   -66146.703   -24983.622    71695.305    42997.048   -20343.836    3201.6583    77.844971 
   19100    1790.6661   -107.40521    1.6202323   -105.78498      5075.64    4.2673299    4.2673299    4.2673299      5075.64   -58580.297     22037.19    51770.027    3380.4249    5081.6249    2547.0926    77.708522 
   19200    1842.4239   -107.45781    1.6670639   -105.79075   -12344.205    4.2729406    4.2729406    4.2729406   -12344.205   -11364.237   -31564.688    5896.3081    7618.1519    3487.0929    -28908.91     78.01544 
   19300    1764.2289   -107.38702    1.5963114    -105.7907   -1339.2607    4.2718572    4.2718572    4.2718572   -1339.2607   -44580.312   -38948.538    79511.068    47857.926    -14034.59   -1269.2274    77.956115 
   19400    2224.9602   -107.79454    2.0131908   -105.78135    6250.5912    4.2705819    4.2705819    4.2705819    6250.5912   -22270.596    18585.131    22437.238   -19797.615    -12132.36    8345.8017    77.886314 
   19500    1298.6297    -106.9672    1.1750274   -105.79217   -31053.017    4.2772377    4.2772377    4.2772377   -31053.017   -42386.073   -67569.311    16796.334    40164.951   -866.42009   -30015.047    78.251046 
   19600    1326.0037   -106.99399     1.199796   -105.79419    8269.5711    4.2739989    4.2739989    4.2739989    8269.5711   -16674.823   -43093.734     84577.27    31914.576   -14998.664    28342.274    78.073421 
   19700    2228.1845   -107.78222    2.0161081   -105.76611     51663.65    4.2655471    4.2655471    4.2655471     51663.65    34262.787    35838.434    84889.728    1643.1261   -6911.5769    13565.659    77.611169 
   19800    1009.7678   -106.70968   0.91365914   -105.79602    16213.945     4.279454     4.279454     4.279454    16213.945    16558.695   -23749.252    55832.393    73790.731   -4247.8262   -19107.442    78.372752 
   19900    2005.0797   -107.56888    1.8142382   -105.75464   -5312.8956    4.3028638    4.3028638    4.3028638   -5312.8956    20931.295    5256.5063   -42126.488     939.8852   -1089.2087     13202.22    79.665959 
   20000    1787.6162   -107.34673    1.6174727   -105.72926    3404.4955    4.2935497    4.2935497    4.2935497    3404.4955   -33639.311   -23864.302      67717.1    39823.907   -5965.1227    2388.5517    79.149736 
   20100    1462.7861   -107.05508    1.3235596   -105.73152   -27026.074    4.2737564    4.2737564    4.2737564   -27026.074   -19856.855   -41575.136   -19646.229    43847.271    1596.5976   -24103.236    78.060134 
   20200    2070.5429   -107.61679    1.8734707   -105.74332    191.33778     4.261901     4.261901     4.261901    191.33778   -16862.833    35792.301   -18355.455   -7538.3057   -7000.2339    4378.9839    77.412316 
   20300    1231.3586   -106.88971    1.1141591   -105.77555    2488.6163    4.2630808    4.2630808    4.2630808    2488.6163   -40563.998   -8927.8397    56957.686     63259.51    528.42436   -1396.7812    77.476624 
   20400    2056.8903   -107.64747    1.8611175   -105.78635   -15390.591     4.290058     4.290058     4.290058   -15390.591   -29617.972    -7387.443   -9166.3595    1110.9733    9863.3381   -26978.025    78.956792 
   20500    2482.3728   -108.00296    2.2461031   -105.75685   -22578.797    4.2953301    4.2953301    4.2953301   -22578.797    -52128.83    4317.3481    -19924.91     17684.21    1546.7537    13718.372     79.24824 
   20600    541.98037   -106.25366   0.49039523   -105.76327    15272.218    4.2696577    4.2696577    4.2696577    15272.218   -8293.1992   -11010.135    65119.987    52330.643    6596.7228   -3239.7207    77.835761 
   20700    2379.1892   -107.89748    2.1527404   -105.74474    6384.0936    4.2580306    4.2580306    4.2580306    6384.0936   -12660.925    25093.702    6719.5046   -35738.524    13686.205   -7450.2347    77.201604 
   20800    1624.7358   -107.23903    1.4700951   -105.76894     31297.84     4.258282     4.258282     4.258282     31297.84    18121.522    4399.7756    71372.221    45490.467    3428.4702    11536.305    77.215281 
   20900    1273.4237   -106.94021    1.1522205   -105.78799    4056.1802    4.2811013    4.2811013    4.2811013    4056.1802   -15382.223   -5626.4894    33177.253    14713.951    1437.1187   -22945.549    78.463291 
   21000    1785.1414     -107.381    1.6152335   -105.76577   -19107.799    4.2894651    4.2894651    4.2894651   -19107.799   -61729.213    35943.672   -31537.854   -18588.427    18702.013    9606.3898    78.924062 
   21100    2096.8228   -107.66675    1.8972494    -105.7695    15422.193    4.2502273    4.2502273    4.2502273    15422.193   -2482.9418   -6273.3819    55022.903    31960.489    3499.7055   -3817.0569    76.777942 
   21200    1333.6065   -106.98406    1.2066752   -105.77739    56871.109    4.2353746    4.2353746    4.2353746    56871.109    20517.203    50697.077    99399.048   -5719.4689   -131.60223   -48700.388    75.975836 
   21300     2016.674   -107.60834     1.824729   -105.78361   -18745.987    4.2693066    4.2693066    4.2693066   -18745.987   -83144.069    15044.092    11862.016   -16899.582   -771.55043    10089.924    77.816559 
   21400    1660.1469   -107.27528    1.5021358   -105.77314    10559.842    4.2748706    4.2748706    4.2748706    10559.842   -41796.666    12429.858    61046.334    12580.529    -11072.56   -18914.829    78.121203 
   21500    1424.5834   -107.06093     1.288993   -105.77193    20086.463    4.2707739    4.2707739    4.2707739    20086.463   -14728.783    37709.008    37279.163   -15810.213    10588.919   -41514.514    77.896819 
   21600    1800.7171   -107.40943    1.6293267    -105.7801   -22242.105    4.2667147    4.2667147    4.2667147   -22242.105   -76470.417    11282.365   -1538.2628   -24272.939    -9254.356    23109.982     77.67492 
   21700    1692.1105   -107.31205    1.5310572     -105.781    38467.549    4.2468503    4.2468503    4.2468503    38467.549    14045.577    81409.779     19947.29   -369.53841    -7610.703   -17411.404    76.595077 
   21800    1734.2689   -107.36456    1.5692029   -105.79536    24309.063    4.2624987    4.2624987    4.2624987    24309.063    9098.4576    12243.516    51585.216   -38717.597    4578.6507   -20541.317    77.444894 
   21900    1482.2707   -107.12118    1.3411897   -105.77999   -18410.361    4.2883207    4.2883207    4.2883207   -18410.361   -72038.032    26339.902   -9532.9521   -15614.663   -9013.1777    23675.725    78.860906 
   22000    2017.5345   -107.57086    1.8255077   -105.74535    20614.393    4.2774502    4.2774502    4.2774502    20614.393     17958.22    30021.073    13863.887   -5838.6482   -6987.3028   -21462.946     78.26271 
   22100    1707.9051   -107.29457    1.5453485   -105.74922   -12451.309    4.2651929    4.2651929    4.2651929   -12451.309   -40430.326   -28800.804    31877.204   -57567.044    3967.8114    -2138.208    77.591835 
   22200    1024.7538   -106.70512   0.92721874   -105.77791   -10023.813    4.2569223    4.2569223    4.2569223   -10023.813   -33833.197     59389.05   -55627.291      2194.06   -24491.732    18352.999     77.14134 
   22300    2055.5053   -107.63819    1.8598644   -105.77832    26411.865     4.250505     4.250505     4.250505    26411.865    41881.593     14606.79     22747.21   -26880.474     4010.972   -7674.1046    76.792993 
   22400    1868.5306   -107.48399    1.6906857   -105.79331   -13975.956    4.2765516    4.2765516    4.2765516   -13975.956   -15763.797   -49814.807    23650.736   -29656.928   -5126.6971   -711.05447    78.213399 
   22500    1711.3437   -107.32671    1.5484597   -105.77825   -30159.864    4.2818415    4.2818415    4.2818415   -30159.864    -53488.12    8539.7919   -45531.265    3166.3188   -21180.094    4055.7752    78.503994 
   22600    1852.8808   -107.44289    1.6765255   -105.76636    27147.401    4.2531119    4.2531119    4.2531119    27147.401    46608.268   -10236.751    45070.686   -26680.712     10046.93   -12876.965    76.934374 
   22700     1436.182   -107.07829    1.2994877    -105.7788    -23571.02    4.2522394    4.2522394    4.2522394    -23571.02   -49230.241   -42444.052    20961.235   -27510.388   -17368.179   -19620.014    76.887039 
   22800    1539.7876   -107.18516    1.3932322   -105.79192   -9164.3894    4.2624164    4.2624164    4.2624164   -9164.3894   -23712.367    23436.863   -27217.664    6699.8907   -21751.556    7858.4847    77.440408 
   22900    2214.5686   -107.78985    2.0037882   -105.78606   -12459.536    4.2751807    4.2751807    4.2751807   -12459.536    3797.9951   -50180.493    9003.8895   -35812.495    19576.941    15298.841    78.138206 
   23000    1830.4697   -107.42843    1.6562474   -105.77218   -27495.806    4.2871836    4.2871836    4.2871836   -27495.806   -47885.293   -35622.912    1020.7868   -30052.507   -33360.807   -10998.892    78.798191 
   23100    1725.5994   -107.32916    1.5613586    -105.7678   -11212.028    4.2672555    4.2672555    4.2672555   -11212.028    14823.151   -13642.725   -34816.509    11632.218   -17420.543    32389.357    77.704459 
   23200    1437.2763   -107.06634    1.3004778   -105.76586     20562.19     4.244191     4.244191     4.244191     20562.19    57917.776   -34862.105    38630.898    -76829.12    19642.189   -11787.051     76.45128 
   23300    1459.3042   -107.10503    1.3204091   -105.78462    2285.3064    4.2587515    4.2587515    4.2587515    2285.3064   -22888.305   -2220.2653    31964.489    7072.1509   -32028.278   -6423.6457    77.240826 
   23400     1742.889   -107.35949    1.5770026   -105.78249   -20072.679    4.2735034    4.2735034    4.2735034   -20072.679   -3878.2642   -44756.314   -11583.459    28646.556   -18007.025    21589.409    78.046271 
   23500    2175.9718   -107.73789     1.968865   -105.76902   -12976.594    4.2717631    4.2717631    4.2717631   -12976.594    11232.478   -60729.694    10567.435   -67912.991    12501.449   -15750.441    77.950964 
   23600    1199.2589   -106.86781    1.0851147   -105.78269   -29020.878    4.2647677    4.2647677    4.2647677   -29020.878   -54880.739   -38515.365    6333.4688    47806.053   -32832.509    3711.0452    77.568633 
   23700    1203.8325    -106.8892    1.0892529   -105.79995   -19811.575    4.2500538    4.2500538    4.2500538   -19811.575   -20876.408   -16497.512   -22060.804    33765.769   -16290.456    3403.2605    76.768541 
   23800    2615.3584   -108.14555    2.3664312   -105.77912    19982.647    4.2561018    4.2561018    4.2561018    19982.647    51915.158   -2041.4351    10074.217   -11410.986    10177.631    3883.0394    77.096739 
   23900    1369.4801   -107.04058    1.2391344   -105.80145   -16911.902    4.2708738    4.2708738    4.2708738   -16911.902   -26410.283   -1263.5537    -23061.87    51497.952   -51010.265   -774.31396    77.902289 
   24000    1614.1155   -107.24508    1.4604857   -105.78459    13816.029     4.273324     4.273324     4.273324    13816.029    11532.329     39390.96   -9475.2031     10791.47   -9801.7631   -428.94838    78.036443 
   24100    2321.6601   -107.85493    2.1006868   -105.75424   -25448.481    4.2749589    4.2749589    4.2749589   -25448.481   -37119.618   -46468.779    7242.9549   -27190.192    8974.7788    3186.5624    78.126042 
   24200    566.38747   -106.29323   0.51247928   -105.78075   -26925.777    4.2586151    4.2586151    4.2586151   -26925.777   -78080.902   -14657.042    11960.613    46801.616   -72168.477   -11.015014    77.233405 
   24300    2220.6845   -107.77907     2.009322   -105.76975    11935.081     4.244638     4.244638     4.244638    11935.081   -24499.221    52490.258    7814.2044    8338.3285   -5904.0024     22283.17    76.475439 
   24400    2029.2411   -107.62656       1.8361   -105.79046    14281.555    4.2521426    4.2521426    4.2521426    14281.555   -21441.506     21050.68    43235.492   -17372.909    7209.9108   -15304.618    76.881784 
   24500    1076.7645    -106.7783   0.97427917   -105.80402   -13672.331    4.2657268    4.2657268    4.2657268   -13672.331   -40169.978   -4378.5157    3531.5013     57233.91   -68963.607    2284.2193    77.620981 
   24600     2031.596   -107.61887    1.8382307   -105.78064   -3033.2395    4.2750101    4.2750101    4.2750101   -3033.2395   -30435.267    49775.679    -28440.13   -12291.851    57162.195   -1059.7749     78.12885 
   24700    1761.8278   -107.35668    1.5941388   -105.76254   -11613.142    4.2748234    4.2748234    4.2748234   -11613.142   -3713.8545   -8667.8145   -22457.758    13932.318   -15119.123   -11361.804    78.118617 
   24800    1192.1862   -106.85434    1.0787151   -105.77562   -11965.226    4.2542577    4.2542577    4.2542577   -11965.226   -48825.687   -14193.748    27123.756    59132.048   -54242.763    7559.2514     76.99657 
   24900    2352.9585   -107.89338    2.1290063   -105.76437    30502.611    4.2391433    4.2391433    4.2391433    30502.611    28601.401    36319.958    26586.474   -15886.145    50898.602   -12383.941     76.17883 
   25000    1562.4319   -107.21197    1.4137212   -105.79825   -19784.543    4.2569228    4.2569228    4.2569228   -19784.543   -35255.901    -12107.71   -11990.018     10136.59   -40445.268    1452.5729    77.141366 
   25100    713.92924   -106.46648   0.64597818   -105.82051   -25166.449    4.2692988    4.2692988    4.2692988   -25166.449    -28317.27   -67624.382    20442.305    50721.717   -35199.096    7568.8369    77.816137 
   25200    2748.8322   -108.26714    2.4872011   -105.77994    1962.2655    4.2707743    4.2707743    4.2707743    1962.2655    33786.378   -16687.515   -11212.066   -7797.0691    31382.372   -9792.5554    77.896845 
   25300    1219.6873   -106.89094    1.1035987   -105.78734   -13826.383    4.2669692    4.2669692    4.2669692   -13826.383    2460.3217   -15062.176   -28877.294    35647.188   -37076.774    4959.1826    77.688818 
   25400    1496.1599   -107.13873    1.3537569   -105.78497   -7428.6202    4.2467441    4.2467441    4.2467441   -7428.6202   -60430.693   -2363.9864    40508.819    51145.986   -34757.745   -4611.3986     76.58933 
   25500     1973.656   -107.56655    1.7858055   -105.78074    26083.325    4.2449343    4.2449343    4.2449343    26083.325   -9253.4358    73616.101     13887.31   -24215.504    61915.013    6885.1976    76.491455 
   25600    1349.4646   -107.01208    1.2210239   -105.79105   -21649.766    4.2705232    4.2705232    4.2705232   -21649.766   -39425.293   -26887.041    1363.0369    45356.307   -29078.781   -69.059925    77.883106 
   25700    1511.6752   -107.15526    1.3677955   -105.78747   -23204.953    4.2702794    4.2702794    4.2702794   -23204.953   -46961.432   -30867.503    8214.0773    42157.017   -24529.867    -3204.401    77.869768 
   25800     2694.821   -108.19935    2.4383307   -105.76102    23740.089    4.2543003    4.2543003    4.2543003    23740.089    32101.558    50445.702   -11326.994   -24307.405    29853.608    4434.5478    76.998885 
   25900    947.98057   -106.65276   0.85775274   -105.79501   -20547.612    4.2560796    4.2560796    4.2560796   -20547.612   -67557.055    14409.313   -8495.0922     66133.59   -58823.804   -987.81728    77.095534 
   26000    1396.2775   -107.05461    1.2633812   -105.79123   -11287.926    4.2533945    4.2533945    4.2533945   -11287.926   -64451.047   -9488.0673    40075.336    5337.5959   -16614.944     5116.061    76.949714 
   26100      2314.67   -107.87336    2.0943621     -105.779   -4400.7279    4.2683702    4.2683702    4.2683702   -4400.7279   -22052.827    18529.746   -9679.1022   -22783.811    6459.9059   -8891.8745    77.765372 
   26200    952.45829   -106.64246   0.86180428   -105.78066   -46361.683    4.2807888    4.2807888    4.2807888   -46361.683   -87136.266   -11648.617   -40300.166    62842.078   -59187.989    3295.7835    78.446109 
   26300    2573.9063   -108.07993    2.3289245   -105.75101    9787.5762    4.2649796    4.2649796    4.2649796    9787.5762    38451.661   -10081.003    992.07016   -13745.512    7692.2806   -6614.9509    77.580195 
   26400    1587.1064   -107.19795    1.4360472   -105.76191   -14534.259    4.2622053    4.2622053    4.2622053   -14534.259   -24399.273   -19196.991   -6.5144745    24833.243   -14657.946    6505.3545    77.428899 
   26500    684.34741   -106.39898   0.61921192   -105.77977   -22631.865    4.2639302    4.2639302    4.2639302   -22631.865   -56380.449      6811.88   -18327.025    43224.778   -57111.882    3050.0517    77.522942 
   26600    2509.4396   -108.02768    2.2705937   -105.75708    3272.0593    4.2625116    4.2625116    4.2625116    3272.0593   -8561.2263    4575.1029    13802.301   -36845.602    13271.669   -2481.6721    77.445594 
   26700    1252.1114   -106.91086    1.1329367   -105.77792   -30044.323    4.2726591    4.2726591    4.2726591   -30044.323    -23176.76   -45445.741   -21510.468    24345.959   -31163.166    10765.404    78.000023 
   26800    1768.0587   -107.36669    1.5997766   -105.76691    -34192.17    4.2738685    4.2738685    4.2738685    -34192.17   -54660.643    -5247.878    -42667.99    34181.456   -44292.134   -5423.0141    78.066277 
   26900     2208.075   -107.75322    1.9979126   -105.75531    19004.705    4.2551131    4.2551131    4.2551131    19004.705    15826.945    15505.587    25681.584   -52872.218    16060.201   -8188.9437    77.043026 
   27000     1228.057   -106.88929    1.1111718   -105.77812    4779.9375    4.2538237    4.2538237    4.2538237    4779.9375   -50140.827    41207.693    23272.946    31629.046    -47747.34    17839.387    76.973007 
   27100    1708.5143   -107.31779    1.5458996   -105.77189    6784.0306    4.2702251    4.2702251    4.2702251    6784.0306   -24445.721    44286.173    511.64024    15552.194   -2591.5006   -17810.436    77.866795 
   27200    1589.1734   -107.19804    1.4379174   -105.76012   -23381.799    4.2853398    4.2853398    4.2853398   -23381.799   -16834.881   -35668.368    -17642.15   -27320.879   -1753.4636   -6470.4558     78.69657 
   27300    1781.6382   -107.37373    1.6120636   -105.76166   -28930.569    4.2724752    4.2724752    4.2724752   -28930.569   -50727.026   -17447.017   -18617.664    18245.947     -35432.4    18860.044    77.989952 
   27400    1790.5831   -107.39087    1.6201572   -105.77071    22831.343    4.2336782    4.2336782    4.2336782    22831.343    197.08963    49291.016    19005.923    11015.483     53002.27   -24780.765     75.88458 
   27500    2043.6828   -107.62988    1.8491671   -105.78071    47168.029    4.2312546    4.2312546    4.2312546    47168.029    91605.249    8029.5117    41869.327   -11032.133   -8562.6624    12000.076    75.754334 
   27600    1657.0451   -107.28978    1.4993292   -105.79045   -28476.422    4.2727407    4.2727407    4.2727407   -28476.422   -59133.973   -20170.146   -6125.1456    10168.754     16308.56    16005.254    78.004492 
   27700    1490.1921   -107.12251    1.3483571   -105.77415   -40045.582    4.2792485    4.2792485    4.2792485   -40045.582   -103491.04   -6666.0429    -9979.664    9855.9787    56343.772   -12563.748    78.361461 
   27800    1820.7017   -107.40752    1.6474092   -105.76011    2843.4133    4.2562108    4.2562108    4.2562108    2843.4133    24397.281   -40041.041        24174   -3227.5219     -19233.9    32757.701    77.102666 
   27900    1386.5076   -107.02982    1.2545412   -105.77528   -2892.5128    4.2471222    4.2471222    4.2471222   -2892.5128   -13120.562    12424.998   -7981.9743    1761.5512    57775.338    13746.746    76.609791 
   28000    1920.1091   -107.51594    1.7373551   -105.77858    12479.814    4.2471579    4.2471579    4.2471579    12479.814   -10484.901    28515.215    19409.128     2663.633    12457.559   -2670.5572    76.611721 
   28100     1360.216   -107.03206    1.2307521    -105.8013   -21491.947    4.2633415    4.2633415    4.2633415   -21491.947    27189.442   -69021.571   -22643.712   -1905.6651   -33157.784    44864.394    77.490837 
   28200    2149.7708   -107.72936    1.9451578    -105.7842   -13753.621    4.2724554    4.2724554    4.2724554   -13753.621    9231.7633   -55040.662    4548.0349   -2761.6411    24204.264   -24300.173    77.988868 
   28300    2247.3855   -107.81885    2.0334816   -105.78537    35149.918    4.2452652    4.2452652    4.2452652    35149.918    36383.858    19459.078    49606.817    3382.3001   -18978.852    15292.903    76.509344 
   28400    877.33325   -106.59635   0.79382957   -105.80252    14395.168    4.2396846    4.2396846    4.2396846    14395.168    104841.93   -39943.241   -21713.183   -2642.6372    -22055.78     26716.35    76.208016 
   28500    1951.0718   -107.55042    1.7653708   -105.78505   -16845.923    4.2607715    4.2607715    4.2607715   -16845.923    21168.372   -44872.856   -26833.286   -6563.2421    15427.502   -36008.684    77.350785 
   28600    1873.1405   -107.47393    1.6948569   -105.77908    7541.3291    4.2610655    4.2610655    4.2610655    7541.3291   -9883.9684    36577.133   -4069.1773    3569.7635    15326.741    19819.381    77.366802 
   28700    1395.8634   -107.04796    1.2630065   -105.78495   -15118.778    4.2664517    4.2664517    4.2664517   -15118.778    68663.578   -50777.304   -63242.607   -11161.406   -24801.244    16626.213    77.660558 
   28800    1924.2888   -107.51473     1.741137    -105.7736   -9281.4489    4.2583371    4.2583371    4.2583371   -9281.4489    13755.425   -17360.749   -24239.023   -10749.449    40725.851   -30460.373    77.218281 
   28900    1473.1713   -107.11273    1.3329564   -105.77977    23857.975    4.2413654    4.2413654    4.2413654    23857.975    23792.983    46198.211    1582.7309   -4347.4874    54956.445    21537.882    76.298689 
   29000    2012.2339   -107.60356    1.8207116   -105.78285    10474.178    4.2541184    4.2541184    4.2541184    10474.178    44242.959   -9650.3176   -3170.1061    7177.9925   -39301.068    26174.737    76.989005 
   29100    1062.0081   -106.75627   0.96092723   -105.79534   -15925.304    4.2639057    4.2639057    4.2639057   -15925.304   -50351.313     22702.54   -20127.138   -5332.2828    79135.301   -12778.091    77.521608 
   29200    1991.8771   -107.58667    1.8022923   -105.78437    14539.439    4.2629255    4.2629255    4.2629255    14539.439   -3355.7849    20698.276    26275.826   -4503.6808    18675.561   -11292.544     77.46816 
   29300    2262.4677   -107.81599    2.0471284   -105.76886    3626.5464    4.2642661    4.2642661    4.2642661    3626.5464   -30332.133    27323.438    13888.334     9668.368    27906.337   -1146.0998    77.541269 
   29400    1073.9735    -106.7538   0.97175381   -105.78205    896.67568    4.2612556    4.2612556    4.2612556    896.67568   -10696.533    47131.458   -33744.898   -6018.4546    77620.939   -1083.8808    77.377156 
   29500    2035.3063   -107.60965     1.841588   -105.76806   -913.56522    4.2590062    4.2590062    4.2590062   -913.56522    11256.357   -16220.154    2223.1012   -2450.9059   -48972.212   -27612.087    77.254683 
   29600    1898.8507   -107.49348      1.71812   -105.77536    2602.7387    4.2536221    4.2536221    4.2536221    2602.7387   -19678.234    17996.464    9489.9869    9043.5523    51910.314    3813.3796    76.962067 
   29700    1752.0918   -107.36739    1.5853295   -105.78207   -7538.6954    4.2582878    4.2582878    4.2582878   -7538.6954    17844.694    -24493.93    -15966.85    4161.4255    15824.813    -15494.95    77.215597 
   29800    817.41125   -106.54224   0.73961088   -105.80263   -41372.015    4.2605153    4.2605153    4.2605153   -41372.015   -10058.911   -62056.373   -52000.762   -7585.9966   -40608.358   -27572.603    77.336834 
   29900    2664.7931   -108.18347    2.4111608   -105.77231    20432.671    4.2566631    4.2566631    4.2566631    20432.671    193.07003    28326.718    32778.226    9964.4519    732.42892    22920.583    77.127248 
   30000    1458.6558   -107.09975    1.3198225   -105.77993   -36949.844    4.2720748    4.2720748    4.2720748   -36949.844   -15073.804     -62423.1   -33352.627    442.49436   -7536.2668   -44958.319    77.968029 
   30100    1326.0498    -106.9735    1.1998378   -105.77367   -20428.925    4.2615205    4.2615205    4.2615205   -20428.925   -25215.004   -9673.5788   -26398.192   -12292.342   -47097.665     8119.709    77.391583 
   30200    2014.5192   -107.58751    1.8227793   -105.76473    23335.201    4.2449128    4.2449128    4.2449128    23335.201   -190.23811    37598.261    32597.579    6984.9575    46745.094    2776.8985    76.490295 
   30300    1710.0451   -107.32949    1.5472847    -105.7822   -14497.975    4.2509882    4.2509882    4.2509882   -14497.975   -19014.922   -42183.122    17704.121   -9224.8647    16130.582   -20461.198    76.819187 
   30400    1810.9269   -107.41585    1.6385647   -105.77729    12080.333     4.257868     4.257868     4.257868    12080.333    8031.3767   -1017.6046    29227.226   -22190.646   -10124.647     3875.597    77.192765 
   30500    1427.1265   -107.06995     1.291294   -105.77865   -17753.803    4.2762286    4.2762286    4.2762286   -17753.803   -51074.136    16871.883   -19059.154    11102.916    74129.828    3343.2612    78.195675 
   30600    1988.7788   -107.55298    1.7994889   -105.75349   -17412.459    4.2772433    4.2772433    4.2772433   -17412.459   -21479.473   -53794.577    23036.672   -28841.711   -22763.309   -10340.642    78.251352 
   30700    1263.6877    -106.9085    1.1434112   -105.76509    8947.1967    4.2440043    4.2440043    4.2440043    8947.1967   -28797.961     58578.78   -2939.2289   -14838.044    70711.071   -4933.9929    76.441193 
   30800    1865.3132   -107.44645    1.6877746   -105.75867    39430.009    4.2305353    4.2305353    4.2305353    39430.009      3577.35    77044.205    37668.472     7500.178     13758.03    9737.2247    75.715704 
   30900    1838.1547   -107.44399     1.663201   -105.78079    2935.3921    4.2533122    4.2533122    4.2533122    2935.3921   -22631.159     2057.561    29379.775    -21214.42   -21541.685   -20073.815    76.945242 
   31000    1641.8168   -107.26447    1.4855503   -105.77892    -8557.624    4.2697389    4.2697389    4.2697389    -8557.624   -51626.902     14578.42     11375.61   -21463.099    65574.285   -12908.605    77.840203 
   31100    1655.2981   -107.26588    1.4977485   -105.76813    3354.5134     4.269323     4.269323     4.269323    3354.5134   -58089.348     38547.76    29605.129    7896.2514   -63552.007    7237.2671    77.817456 
   31200    2089.8276   -107.64901    1.8909199   -105.75809   -588.47717    4.2578088    4.2578088    4.2578088   -588.47717   -27649.846   -5884.8818    31769.297   -37146.282   -1951.0898   -12449.834     77.18954 
   31300    1466.0969   -107.08936    1.3265553   -105.76281    17822.028    4.2419126    4.2419126    4.2419126    17822.028   -52480.633    67319.122    38627.594   -17429.676   -8243.5541    -1781.061    76.328225 
   31400    1315.7391   -106.97153    1.1905084   -105.78102    4889.2243    4.2486366    4.2486366    4.2486366    4889.2243    -75904.92    76524.126    14048.467    2941.1311   -66409.293   -1162.5908    76.691772 
   31500    2427.2239   -107.95433    2.1962032   -105.75813    3977.0992    4.2673855    4.2673855    4.2673855    3977.0992   -30105.784   -22132.318      64169.4   -31474.114    25958.532    23.230585    77.711563 
   31600    1201.5474    -106.8631    1.0871853   -105.77591   -17474.929    4.2682674    4.2682674    4.2682674   -17474.929   -93763.872     41296.47    42.615011    3411.3191   -88083.189    8370.2468    77.759753 
   31700    1822.6208   -107.42282    1.6491456   -105.77367   -15345.642    4.2578615    4.2578615    4.2578615   -15345.642   -48259.354    19064.296   -16841.868    2992.7042    25089.937   -4928.7044    77.192408 
   31800    2117.1199   -107.67998    1.9156145   -105.76437    25350.741     4.243799     4.243799     4.243799    25350.741    5904.1461    25144.862    45003.216    -9054.897   -13068.749    1857.4228      76.4301 
   31900    1425.1946   -107.07352     1.289546   -105.78398    -11651.13    4.2510248    4.2510248    4.2510248    -11651.13   -45692.075    45724.288   -34985.604    -12775.25   -88224.417     8198.127     76.82117 
   32000    1756.1897   -107.36312    1.5890373   -105.77408   -21593.788    4.2647253    4.2647253    4.2647253   -21593.788    -53655.54     20482.05   -31607.874    2954.5391    92049.711   -7679.7061    77.566319 
   32100     1426.517   -107.05947    1.2907425   -105.76872   -9201.0756    4.2601726    4.2601726    4.2601726   -9201.0756   -45589.438    26041.193   -8054.9822    19621.881   -60107.593    8770.7559    77.318173 
   32200    1630.0823    -107.2407    1.4749328   -105.76576   -14776.787    4.2558362    4.2558362    4.2558362   -14776.787   -35494.698    31316.678    -40152.34   -20078.173   -25305.356    3501.7207    77.082308 
   32300    1936.8603   -107.51378    1.7525119   -105.76126   -13398.158    4.2545422    4.2545422    4.2545422   -13398.158   -24045.843   -1216.9969   -14931.635   -1022.3337    73633.817   -4608.0639    77.012017 
   32400    1385.4609   -107.02704    1.2535942   -105.77345   -3464.1487    4.2494335    4.2494335    4.2494335   -3464.1487   -22155.217    948.40956    10814.362    25827.485   -75383.427    2534.7294    76.734931 
   32500    1744.1536   -107.35635    1.5781469   -105.77821    6059.6323    4.2592819    4.2592819    4.2592819    6059.6323    4824.2887    10675.667     2678.941   -47753.847    13456.171   -2462.1838    77.269687 
   32600    2119.4675   -107.68096    1.9177387   -105.76322    8649.7956    4.2635656    4.2635656    4.2635656    8649.7956     2178.856        25457   -1686.4689    12070.993    -1394.598    6707.7692    77.503058 
   32700    1191.7878   -106.85738    1.0783547   -105.77903    6183.7552    4.2566003    4.2566003    4.2566003    6183.7552   -35347.223    13384.121    40514.367    13522.795   -55726.467   -1910.7752    77.123834 
   32800    2350.7391    -107.8833    2.1269981    -105.7563    1447.6879     4.264658     4.264658     4.264658    1447.6879   -8251.3478   -27867.734    40462.145   -53114.182    26497.748    2751.0681    77.562649 
   32900    1377.5812   -107.00119    1.2464645   -105.75473   -5452.3263    4.2672638    4.2672638    4.2672638   -5452.3263   -39726.792    54042.383    -30672.57    16510.301    -71692.32    2720.2354    77.704911 
   33000    1636.3167   -107.22495    1.4805737   -105.74438    1131.6419    4.2620566    4.2620566    4.2620566    1131.6419   -17211.421   -35193.338    55799.685    22896.549   -9499.1969    3742.7417      77.4208 
   33100    1947.3168   -107.50209    1.7619732   -105.74012    3576.6473    4.2644994    4.2644994    4.2644994    3576.6473   -32823.851    25842.235    17711.557   -31049.428   -14532.079   -2488.2435    77.553997 
   33200    843.60397   -106.52683    0.7633106   -105.76352   -8906.7324    4.2595823    4.2595823    4.2595823   -8906.7324   -64392.431    64198.209   -26525.975    24099.866   -73988.327   -2342.9194    77.286035 
   33300    2138.7766   -107.68933      1.93521   -105.75412    20636.318    4.2510475    4.2510475    4.2510475    20636.318    10728.496   -5977.9382    57158.396    47664.423     36060.91   -903.70238    76.822398 
   33400    1924.5715   -107.50765    1.7413927   -105.76626   -5190.2623    4.2572823    4.2572823    4.2572823   -5190.2623   -37927.576    68144.197   -45787.408   -12429.679   -79353.684   -691.73024    77.160909 
   33500    1740.7939   -107.33643    1.5751069   -105.76132   -1551.3657    4.2625922    4.2625922    4.2625922   -1551.3657   -14191.047    20931.218   -11394.268    42000.569   -15967.276    8281.8993    77.449989 
   33600    1550.3487   -107.16417    1.4027881   -105.76138    9348.0256    4.2589786    4.2589786    4.2589786    9348.0256   -13563.073    33241.691    8365.4585    25687.719    7485.1988   -365.82937    77.253183 
   33700    1748.0635    -107.3387    1.5816846   -105.75702     10255.49    4.2612915    4.2612915    4.2612915     10255.49   -11762.413    65051.706   -22522.824   -11780.657   -61440.757   -5946.4104     77.37911 
   33800    1662.9967   -107.26023    1.5047143   -105.75551     10445.24    4.2591153    4.2591153    4.2591153     10445.24    29982.152    -21370.75    22724.318    76970.965    18233.209    5667.0085    77.260618 
   33900    1459.0952   -107.08756      1.32022   -105.76734    5461.2224    4.2532501    4.2532501    4.2532501    5461.2224   -36807.237    88569.246   -35378.342   -7320.0743   -25247.062   -2301.5284    76.941877 
   34000    1720.4164   -107.32122    1.5566689   -105.76455    7449.3618     4.253088     4.253088     4.253088    7449.3618   -12828.246    34188.922    987.40957    24948.677   -20916.908    7829.1388    76.933077 
   34100    1425.3548   -107.06534     1.289691   -105.77565    3786.5586    4.2566071    4.2566071    4.2566071    3786.5586   -34302.235    19811.895    25850.016    70877.354    13085.559   -3134.0508    77.124203 
   34200    2161.6068   -107.71443    1.9558672   -105.75856    -7079.815    4.2675907    4.2675907    4.2675907    -7079.815   -42874.411    63594.842   -41959.876   -41614.458   -37345.666   -4366.5649     77.72277 
   34300    1223.6442   -106.88174     1.107179   -105.77456   -17711.502    4.2584894    4.2584894    4.2584894   -17711.502   -48003.442   -43924.869    38793.804    100910.09   -6616.7327   -269.37022    77.226562 
   34400    2457.3593   -107.97848    2.2234703   -105.75501    25771.172    4.2541092    4.2541092    4.2541092    25771.172    27335.263    35526.689    14451.564    4565.8648    14744.808   -12282.046     76.98851 
   34500    1586.5719   -107.20081    1.4355636   -105.76524    -23811.84    4.2658668    4.2658668    4.2658668    -23811.84   -36913.881   -46527.515    12005.877    56339.897   -28887.986    7875.7978    77.628622 
   34600    992.66338   -106.67715   0.89818268   -105.77897   -12073.423    4.2523773    4.2523773    4.2523773   -12073.423   -30310.755   -35697.017    29787.504     75401.07   -4341.5073   -3310.9334    76.894516 
   34700    2213.5714   -107.76152    2.0028859   -105.75863    1849.5703    4.2571195    4.2571195    4.2571195    1849.5703    1848.1318    23657.273   -19956.694   -20989.748    25993.592   -3352.2858    77.152057 
   34800    1080.1775   -106.75074   0.97736732   -105.77337   -39186.234    4.2669218    4.2669218    4.2669218   -39186.234   -78163.164   -65010.174    25614.636       126590   -6109.7958   -2803.7279    77.686229 
   34900    2323.6201   -107.84965    2.1024603   -105.74719    6227.7387    4.2564617    4.2564617    4.2564617    6227.7387    13678.463    51899.046   -46894.293   -21803.668    -11659.09   -6124.8293    77.116299 
   35000    1244.7652   -106.89149    1.1262897    -105.7652   -21957.914    4.2667498    4.2667498    4.2667498   -21957.914   -24792.126   -22206.762   -18874.855    55508.491    21477.149    2838.5223    77.676835 
   35100    1730.3192   -107.32834    1.5656292   -105.76271   -6248.0735    4.2631964    4.2631964    4.2631964   -6248.0735    -6738.424   -39542.902    27537.106    67826.582   -7202.4593    3571.6069    77.482927 
   35200     1789.509    -107.3727    1.6191853   -105.75351    13930.372    4.2550692    4.2550692    4.2550692    13930.372   -24110.995    89443.839   -23541.729   -11398.908   -8181.4606    5274.4251    77.040638 
   35300    1130.7035   -106.78868    1.0230843    -105.7656   -26293.592      4.26878      4.26878      4.26878   -26293.592   -83244.976   -2240.2701    6604.4704    70722.028    44298.991   -4412.3379    77.787767 
   35400    2553.4326   -108.05083    2.3103995   -105.74043   -3559.2859    4.2680776    4.2680776    4.2680776   -3559.2859    5738.7829     12521.81   -28938.451   -8848.2932   -24094.291   -2254.3015    77.749378 
   35500    1243.4346   -106.88795    1.1250858   -105.76286     2515.632    4.2573671    4.2573671    4.2573671     2515.632    -29220.93    84847.477    -48079.65    13468.034   -5968.8918    3892.7257    77.165524 
   35600    1517.5409   -107.14067    1.3731029   -105.76756    11694.979    4.2589961    4.2589961    4.2589961    11694.979    14913.311     19543.02    628.60682     47410.58    30894.803   -1618.0904    77.254132 
   35700    1808.3403   -107.39516    1.6362243   -105.75893    4752.4867    4.2676024    4.2676024    4.2676024    4752.4867    5644.8363    30639.036   -22026.413   -59743.163   -26037.046   -5281.0781     77.72341 
   35800    1382.0294   -107.01243    1.2504893   -105.76194   -10437.612    4.2659935    4.2659935    4.2659935   -10437.612   -53589.649    42654.079   -20377.265    36139.667    7373.1425    10602.141    77.635537 
   35900    2266.2314   -107.79808    2.0505338   -105.74754   -1412.7529    4.2605826    4.2605826    4.2605826   -1412.7529      3529.91   -8155.4262    387.25762    9168.1997    10427.849   -7061.9716    77.340498 
   36000    1449.2708   -107.07374    1.3113307   -105.76241   -17936.154    4.2579207    4.2579207    4.2579207   -17936.154   -32510.334   -13307.383   -7990.7444   -50557.253   -30100.857   -15380.295    77.195628 
   36100    2111.6842   -107.66307    1.9106962   -105.75237    12681.929    4.2584617    4.2584617    4.2584617    12681.929   -11903.685    20605.176    29344.295    35982.259    7184.2328     4675.989    77.225056 
   36200    1088.2164   -106.75214   0.98464108    -105.7675   -11626.596    4.2759557    4.2759557    4.2759557   -11626.596   -603.53952   -50985.112    16708.863   -51745.054   -18708.273   -28437.706    78.180708 
   36300    1766.7253   -107.32027    1.5985702    -105.7217   -32554.345    4.2868511    4.2868511    4.2868511   -32554.345   -12356.312   -45606.431   -39700.294   -16698.218    2403.9465    9847.5187    78.779857 
   36400    2317.0747    -107.8061    2.0965379   -105.70956    4380.2773    4.2668338    4.2668338    4.2668338    4380.2773   -5675.3874   -19329.131    38145.351   -2132.6845    16431.405    7361.2892    77.681426 
   36500    849.79387   -106.51281   0.76891135   -105.74389   -18676.893    4.2499679    4.2499679    4.2499679   -18676.893    6230.0622   -74347.101     12086.36   -66815.243   -28891.907   -47575.695    76.763887 
   36600    2308.4243   -107.84718    2.0887108   -105.75847    18277.034     4.238124     4.238124     4.238124    18277.034    35909.832    6381.5113    12539.757     8211.239    12495.919    39003.768    76.123891 
   36700    1641.4411    -107.2737    1.4852104   -105.78849    244.75043    4.2513964    4.2513964    4.2513964    244.75043    1955.0253   -31005.257    29784.483    -21957.12   -7185.4307   -16667.135    76.841317 
   36800    842.20022   -106.56583   0.76204046   -105.80379   -38190.478    4.2784372    4.2784372    4.2784372   -38190.478    -12315.84   -70163.296   -32092.297   -38413.039   -24847.112   -36121.969    78.316898 
   36900    2821.7754   -108.29197    2.5532017   -105.73877     6061.007    4.2801497    4.2801497    4.2801497     6061.007   -2841.8071    11776.323    9248.5048    13489.746    19432.466    18665.244    78.410981 
   37000    962.82439   -106.62752   0.87118374   -105.75634   -18467.038     4.266564     4.266564     4.266564   -18467.038   -29512.852   -17020.285   -8867.9775   -57550.966    127.47235   -38240.192     77.66669 
   37100    2290.7505   -107.80277    2.0727192   -105.73005    16098.269    4.2563833    4.2563833    4.2563833    16098.269    36283.431    66.907743    11944.469    8443.6788   -4339.2909   -16089.925     77.11204 
   37200    1835.2215    -107.4092     1.660547   -105.74866    7825.5922     4.253214     4.253214     4.253214    7825.5922   -5621.2926    14136.022    14962.047   -24989.161    1464.2825    31966.764    76.939916 
   37300    1051.6862   -106.72566   0.95158781   -105.77407   -13732.279    4.2570154    4.2570154    4.2570154   -13732.279   -32646.587   -13384.967    4834.7173    -50048.11   -18375.637   -39625.929    77.146401 
   37400    2195.5393   -107.74855    1.9865701   -105.76198    158.99546    4.2600602    4.2600602    4.2600602    158.99546    29714.179   -13594.646   -15642.546    20165.298    -1537.676    7564.8407    77.312056 
   37500    1223.7705   -106.88526    1.1072932   -105.77796   -9781.7374    4.2600595    4.2600595    4.2600595   -9781.7374   -39499.994   -42796.505    52951.287   -53112.426    1443.2069    36790.434    77.312015 
   37600    2252.2825   -107.79812    2.0379126   -105.76021    6097.8243     4.261658     4.261658     4.261658    6097.8243   -16712.954    1498.3379    33508.089   -30517.625   -17856.841   -29362.724    77.399077 
   37700    1848.5533   -107.43649    1.6726099   -105.76388   -3794.5802    4.2599111    4.2599111    4.2599111   -3794.5802    17044.315   -9220.7927   -19207.263    18106.617   -8138.4943    27648.409    77.303936 
   37800    607.40929   -106.33852   0.54959669   -105.78892   -13852.185    4.2577746    4.2577746    4.2577746   -13852.185   -29462.083   -65722.713    53628.242   -68085.553    2993.2934    33130.442    77.187682 
   37900    2541.3166   -108.05805    2.2994367   -105.75861    9149.4655     4.260603     4.260603     4.260603    9149.4655    12543.752    26441.624   -11536.979    16084.419   -11470.362   -39516.019    77.341608 
   38000      880.189   -106.56939   0.79641351   -105.77297   -24990.149    4.2699187    4.2699187    4.2699187   -24990.149   -14570.398    -67022.67    6622.6224   -39547.975   -2245.0031     32693.66    77.850038 
   38100    1920.3068   -107.48859    1.7375339   -105.75105   -11782.262    4.2642796    4.2642796    4.2642796   -11782.262   -27813.873   -35230.663     27697.75    -17347.91   -765.36518     11605.55    77.542005 
   38200    1967.7091   -107.53183    1.7804246    -105.7514   -5107.6857    4.2583144    4.2583144    4.2583144   -5107.6857    13059.477   -32661.525    4278.9903    5861.6192    -9478.496   -69530.819    77.217041 
   38300    1359.6188   -107.00548    1.2302116   -105.77527   -21950.282    4.2527375    4.2527375    4.2527375   -21950.282    282.06069   -67141.625    1008.7174    -60375.82   -6837.2768    37607.343     76.91406 
   38400     2108.493   -107.68019    1.9078088   -105.77238    19368.899    4.2426099    4.2426099    4.2426099    19368.899    28774.736     2779.356    26552.605    1628.5736    13091.445    7316.5333     76.36587 
   38500    1561.5553   -107.20154     1.412928   -105.78861    972.22181    4.2605966    4.2605966    4.2605966    972.22181     41696.73   -11508.915    -27271.15   -17610.092   -10630.988   -52610.573    77.341259 
   38600    1134.5485   -106.80688    1.0265633   -105.78031   -39873.202    4.2749306    4.2749306    4.2749306   -39873.202    -36491.59   -65747.726    -17380.29   -59005.908     928.7905    49671.163    78.124494 
   38700    2260.1749   -107.80197    2.0450538   -105.75691   -5865.2916    4.2582022    4.2582022    4.2582022   -5865.2916    12443.491   -28379.602   -1659.7638    41883.767    1092.4427   -9566.0452    77.210939 
   38800    1750.8064   -107.34867    1.5841664    -105.7645    -7620.314    4.2500054    4.2500054    4.2500054    -7620.314    7474.8335   -54834.454    24498.678   -47183.878   -14521.692   -11133.282    76.765919 
   38900    1591.0764   -107.21489    1.4396394   -105.77525   -9724.3362    4.2481578    4.2481578    4.2481578   -9724.3362    -24199.02   -34245.637    29271.648   -53317.012    8574.8189    30017.684    76.665845 
   39000    1865.7279   -107.46589    1.6881498   -105.77775    6458.6119    4.2533026    4.2533026    4.2533026    6458.6119    14238.561   -12718.364    17855.639    81594.546   -5503.7279   -8881.4634    76.944721 
   39100    1122.2512   -106.80221    1.0154365   -105.78678   -23793.372    4.2695485    4.2695485    4.2695485   -23793.372     -38972.4   -55875.304    23467.589    -78329.84     -5919.51    2789.3501    77.829789 
   39200    2156.4371   -107.71385    1.9511896   -105.76266   -6579.3787    4.2675174    4.2675174    4.2675174   -6579.3787   -16323.683    11077.118   -14491.571   -11850.732   -8898.2685   -3730.5816    77.718766 
   39300    1791.9535   -107.38741    1.6213972   -105.76601   -1834.4555    4.2613669    4.2613669    4.2613669   -1834.4555   -24182.363     -21979.6    40658.596    28132.555   -2932.1262     2353.143    77.383217 
   39400    1154.5107   -106.82206    1.0446256   -105.77744   -18871.803     4.256346     4.256346     4.256346   -18871.803   -76318.191   -48824.986    68527.767   -104557.72    1815.8387    -5784.877    77.110015 
   39500    2679.2829   -108.17275    2.4242715   -105.74847    28703.861    4.2521253    4.2521253    4.2521253    28703.861     27769.62    69040.438   -10698.473    30568.149   -1986.5949   -8903.2953    76.880849 
   39600    683.94162   -106.40373   0.61884475   -105.78489   -26559.264    4.2701073    4.2701073    4.2701073   -26559.264   -98130.639   -52999.422    71452.268    -77477.95    10896.218    7158.2308    77.860354 
   39700    1885.8873   -107.46758    1.7063905   -105.76119   -4107.9561    4.2717407    4.2717407    4.2717407   -4107.9561   -29266.594    3843.1426    13099.584    8537.7209    2657.2172   -10793.178    77.949735 
   39800    2142.7544   -107.69223    1.9388092   -105.75342    3234.3623    4.2597369    4.2597369    4.2597369    3234.3623   -8725.7692    20160.941    -1732.085    -40693.25   -716.33605     14661.39    77.294451 
   39900     982.1543   -106.66744   0.88867385   -105.77877   -17704.788    4.2488247    4.2488247    4.2488247   -17704.788   -46656.793   -74178.952    67721.381   -75149.762   -6109.0275    8790.0812    76.701958 
   40000     2271.054   -107.81666    2.0548974   -105.76177    12766.091    4.2473311    4.2473311    4.2473311    12766.091    8612.3879    13352.941    16332.945    76621.646   -6309.9416   -7829.4584    76.621096 
   40100    1323.2984   -106.97516    1.1973482   -105.77781   -36124.004    4.2697079    4.2697079    4.2697079   -36124.004   -69636.018   -48956.557    10220.564   -103089.12   -2951.4023    9875.4198    77.838504 
   40200    1794.0285   -107.38221    1.6232747   -105.75893    -20627.27    4.2682299    4.2682299    4.2682299    -20627.27   -47062.101   -28499.557     13679.85   -6221.3052    7620.6467    9450.4739    77.757702 
   40300    2049.9762   -107.60257    1.8548615   -105.74771    1519.5149    4.2559735    4.2559735    4.2559735    1519.5149    -27788.13    -3809.137    36155.812   -1786.9835     2867.263   -2903.2366    77.089769 
   40400    1072.1521   -106.74118   0.97010578   -105.77107   -34427.337    4.2583879    4.2583879    4.2583879   -34427.337   -28793.837   -101011.14    26522.968   -98033.749   -15.791821    10979.826    77.221044 
   40500    2193.6692   -107.74029     1.984878   -105.75541    5551.9216    4.2542399    4.2542399    4.2542399    5551.9216    42804.878   -1142.7132     -25006.4    26105.736    14255.911    29056.518    76.995601 
   40600    1475.4727    -107.1115    1.3350387   -105.77646   -23150.958    4.2644949    4.2644949    4.2644949   -23150.958   -53190.801   -64507.882    48245.808   -81838.143    2000.8617    1573.9531     77.55375 
   40700    2114.1435   -107.67873    1.9129214    -105.7658   -14205.622    4.2649345    4.2649345    4.2649345   -14205.622   -17306.921   -25272.157   -37.787029   -10410.034   -8117.3292    14597.847    77.577737 
   40800    1548.9439    -107.1693     1.401517   -105.76778      19643.9    4.2480121    4.2480121    4.2480121      19643.9    14151.388    23802.086    20978.224   -26886.636    18607.605    26311.271    76.657957 
   40900    1466.1855   -107.10425    1.3266354   -105.77761   -12518.172     4.257072     4.257072     4.257072   -12518.172   -51907.854    -36455.89    50809.228   -65109.806   -12274.752   -10404.479    77.149478 
   41000    2289.3828   -107.81942    2.0714817   -105.74794   -9461.0795    4.2673131    4.2673131    4.2673131   -9461.0795   -207.16733   -6655.4327   -21520.639    33041.079   -12542.571    14091.652    77.707608 
   41100    996.48193   -106.65925   0.90163779   -105.75761    12326.562    4.2653335    4.2653335    4.2653335    12326.562     13751.84   -14509.015     37736.86   -79507.278     15236.02    14189.294    77.599511 
   41200    2234.5217   -107.76017    2.0218421   -105.73833   -2645.1667    4.2733327    4.2733327    4.2733327   -2645.1667   -14368.204    14184.574   -7751.8707    18647.146   -23209.858   -1109.9177     78.03692 
   41300    1465.3228   -107.08247    1.3258549   -105.75662   -1543.8886    4.2579315    4.2579315    4.2579315   -1543.8886   -40928.462    7260.6509    29036.145    -7365.607   -14410.837   -1892.3069    77.196215 
   41400    1650.1821   -107.24648    1.4931195   -105.75336    30412.801     4.240043     4.240043     4.240043    30412.801    7950.5574    31876.717    51411.129   -55548.493    10424.761    18306.814    76.227341 
   41500    2093.3202   -107.65172    1.8940801   -105.75764     2171.427    4.2578915    4.2578915    4.2578915     2171.427   -16390.636    34170.201   -11265.285    34611.283   -24549.234   -20222.416    77.194038 
   41600     1170.735    -106.8277    1.0593057   -105.76839   -16950.981    4.2684533    4.2684533    4.2684533   -16950.981   -45258.046    -28541.01    22946.114   -41576.161   -15325.406    2363.9724    77.769914 
   41700    2395.2842   -107.90843    2.1673035   -105.74113     4623.776    4.2718008    4.2718008    4.2718008     4623.776    9764.3568    29278.977   -25172.006   -8922.4453    17005.723    4428.7832    77.953027 
   41800    1199.8425   -106.84584    1.0856427   -105.76019   -42939.296    4.2680794    4.2680794    4.2680794   -42939.296   -44479.085   -27570.306   -56768.498    7578.7299   -18743.611    -34901.61    77.749476 
   41900    2117.5183   -107.65806    1.9159751   -105.74208    15138.752    4.2455588    4.2455588    4.2455588    15138.752    10396.399    4990.5952    30029.263   -18382.834   -10855.814    2564.4091    76.525217 
   42000    1459.3501   -107.07587    1.3204506   -105.75541   -5007.2407    4.2492964    4.2492964    4.2492964   -5007.2407   -15209.846    62550.417   -62362.293    954.18437    39725.467    10067.476    76.727507 
   42100    1717.4188   -107.31321    1.5539566   -105.75926   -21136.765    4.2603246    4.2603246    4.2603246   -21136.765    -42080.81   -7092.6146    -14236.87    7679.5529   -24061.482   -22348.222    77.326451 
   42200    2022.9239   -107.58541    1.8303841   -105.75502   -12444.745     4.263594     4.263594     4.263594   -12444.745    -1447.852    -12274.59   -23611.794   -3631.8889    18977.856    20743.412    77.504606 
   42300    1261.5212   -106.91389    1.1414509   -105.77244   -24146.487    4.2651237    4.2651237    4.2651237   -24146.487   -42.951873    11674.555   -84071.064    3347.9637    37441.556    23819.534     77.58806 
   42400    2305.9979   -107.83521    2.0865154    -105.7487    8365.2635    4.2553345    4.2553345    4.2553345    8365.2635    20808.773   -29713.263     34000.28    6601.0528   -16050.534   -13210.414     77.05505 
   42500    1006.5742   -106.68603   0.91076946   -105.77526   -9455.4732    4.2480485    4.2480485    4.2480485   -9455.4732    32453.097    -15511.85   -45307.667    1400.5822    35357.451    28538.406    76.659928 
   42600    1837.8409   -107.43726    1.6629171   -105.77435   -7033.4478     4.254083     4.254083     4.254083   -7033.4478   -6507.4028    16807.267   -31400.208   -7335.6739    49312.219    18698.721    76.987088 
   42700    2052.3886   -107.62403    1.8570443   -105.76699   -14917.888    4.2691301    4.2691301    4.2691301   -14917.888    -45344.52   -20239.272    20830.127    9962.2036   -14890.574   -15648.651    77.806913 
   42800    1241.4902   -106.88642    1.1233264   -105.76309   -11121.783     4.272186     4.272186     4.272186   -11121.783   -30141.194    20566.899   -23791.054    8041.3796    45604.539    19833.744    77.974116 
   42900    2217.8893   -107.73343    2.0067929   -105.72664    11545.099    4.2609513    4.2609513    4.2609513    11545.099   -25865.979    19625.169    40876.106    -15383.66   -18286.919    1229.8487    77.360579 
   43000    1011.4128     -106.667    0.9151476   -105.75186   -26205.387    4.2594237    4.2594237    4.2594237   -26205.387   -63840.166   -41213.035     26437.04    1947.4545   -10151.356   -10822.593    77.277408 
   43100    2626.9571   -108.11537     2.376926   -105.73844    29061.326    4.2458243    4.2458243    4.2458243    29061.326    4931.8431     55049.57    27202.565    15265.973    16621.877    10401.404    76.539578 
   43200    986.11461   -106.67526   0.89225722     -105.783   -5809.3791    4.2480688    4.2480688    4.2480688   -5809.3791   -36926.385    12194.163     7304.084   -26335.137   -53653.054    -1985.804    76.661025 
   43300    1592.8788   -107.22541    1.4412702   -105.78414   -27822.891    4.2624516    4.2624516    4.2624516   -27822.891   -64199.075   -46364.021    27094.424    10164.592    3932.0123   -9112.5592    77.442323 
   43400    2145.5185    -107.6974    1.9413102   -105.75609   -8735.4195    4.2635319    4.2635319    4.2635319   -8735.4195   -18446.702    57830.084    -65589.64    1605.5598   -10470.175    13423.145    77.501224 
   43500    1315.6311   -106.95204    1.1904107   -105.76163   -27213.685    4.2655683    4.2655683    4.2655683   -27213.685   -36334.081   -6829.2225   -38477.753    -16974.71   -35022.888    7930.9949    77.612327 
   43600    2177.9134   -107.71258    1.9706218   -105.74196   -2889.7862     4.256899     4.256899     4.256899   -2889.7862    9634.4831   -14144.424   -4159.4179    11719.342    25839.697   -4830.7771    77.140073 
   43700    1207.0436   -106.85144    1.0921585   -105.75928   -12470.608     4.252763     4.252763     4.252763   -12470.608    -20999.59    53833.702   -70245.937    4833.2146   -7761.0499    613.31222    76.915445 
   43800    1859.0613   -107.44132    1.6821178    -105.7592   -392.71744    4.2615908    4.2615908    4.2615908   -392.71744    15344.201   -15101.867   -1420.4867   -35269.044   -23337.404   -3354.8058    77.395416 
   43900    1751.1747   -107.34289    1.5844996   -105.75839   -6796.4455    4.2619452    4.2619452    4.2619452   -6796.4455     27302.56     7409.986   -55101.883   -2524.6156    36592.921   -7212.1019    77.414727 
   44000    1595.8814   -107.21175     1.443987   -105.76776    3065.9036    4.2598327    4.2598327    4.2598327    3065.9036    2475.2581     62915.06   -56192.607   -2437.3025   -4305.9132   -5141.1917    77.299666 
   44100    2162.1633   -107.71654    1.9563708   -105.76017   -4798.8234    4.2571831    4.2571831    4.2571831   -4798.8234    3877.7041   -12896.484   -5377.6899   -46096.332   -13714.901    9765.2001    77.155515 
   44200    1309.5435   -106.95562    1.1849025   -105.77072     16689.74    4.2505173    4.2505173    4.2505173     16689.74    43033.619    64445.247   -57409.645   -4858.2097    50204.325    2980.7324    76.793661 
   44300    2375.5779   -107.90614    2.1494728   -105.75667    -9004.507    4.2694849    4.2694849    4.2694849    -9004.507   -23412.858    4178.8352   -7779.4986    13517.622   -31947.156   -6239.4011    77.826312 
   44400    893.33802   -106.56624   0.80831101   -105.75793   -32380.456    4.2779176    4.2779176    4.2779176   -32380.456   -33756.877    -19148.27   -44236.222     -22576.1    36696.168    37054.677    78.288369 
   44500    1795.5731   -107.38194    1.6246723   -105.75727    21543.521    4.2534697    4.2534697    4.2534697    21543.521    18963.415     64962.61   -19295.463    3980.0654    43978.177   -466.01364    76.953792 
   44600    2117.9477    -107.6735    1.9163636   -105.75713    16683.804    4.2436413    4.2436413    4.2436413    16683.804   -7940.9498    37313.655    20678.705    4549.5222   -27326.384     5129.172     76.42158 
   44700    748.36539   -106.46928   0.67713673   -105.79214   -2882.7893    4.2546762    4.2546762    4.2546762   -2882.7893   -11034.919    39252.548   -36865.998   -15225.249    59283.243    38418.951    77.019294 
   44800    2385.1706   -107.91456    2.1581525   -105.75641    -14764.32    4.2799791    4.2799791    4.2799791    -14764.32   -10187.506     16511.06   -50616.515    11842.977   -27031.762   -28574.557    78.401602 
   44900    1349.8485   -106.96895    1.2213712   -105.74757   -47999.493    4.2836505    4.2836505    4.2836505   -47999.493     -60356.5   -27752.728    -55889.25   -19201.311    20328.736    20065.071    78.603538 
   45000    1422.8501   -107.03046    1.2874246   -105.74303   -6330.2974    4.2500743    4.2500743    4.2500743   -6330.2974    -10651.07    12817.964   -21157.787   -15133.033    45358.773    25575.287    76.769651 
   45100    1965.8275    -107.5179    1.7787221   -105.73918    24321.947    4.2318098    4.2318098    4.2318098    24321.947    36283.906    40769.588   -4087.6535    9503.0331   -43751.498   -45959.544    75.784155 
   45200    1419.1059   -107.05886    1.2840368   -105.77482    5345.5046    4.2440517    4.2440517    4.2440517    5345.5046    12408.526    27810.154   -24182.165   -5980.6781    22484.064    53501.801     76.44375 
   45300    1705.0325   -107.32818    1.5427492   -105.78543   -91.547784    4.2682778    4.2682778    4.2682778   -91.547784    32255.236   -11820.941   -20708.939   -17329.287    8246.4862     824.0233    77.760318 
   45400    2087.7098    -107.6454    1.8890037   -105.75639   -25249.372    4.2823935    4.2823935    4.2823935   -25249.372    36574.973   -55839.838    -56483.25    7387.5716   -27422.254   -4597.9006    78.534361 
   45500    1254.3545   -106.89017    1.1349663    -105.7552   -14770.896    4.2654251    4.2654251    4.2654251   -14770.896    32740.466   -57899.661   -19153.492   -7279.0977    32299.563    66792.117    77.604509 
   45600    2193.8625   -107.72178    1.9850529   -105.73672    30992.513     4.236855     4.236855     4.236855    30992.513    45335.033    -7474.879    55117.385   -17352.457     2819.011   -27025.189    76.055532 
   45700     1001.809   -106.68097   0.90645783   -105.77451   -10251.024    4.2347822    4.2347822    4.2347822   -10251.024    60407.252   -61978.576   -29181.748    8243.9638   -12749.003    84069.963    75.943962 
   45800    2047.6029   -107.63968    1.8527142   -105.78697   -6284.1425    4.2518536    4.2518536    4.2518536   -6284.1425    4372.5383   -27087.671     3862.705   -3150.1928    17637.674    12108.693    76.866109 
   45900    1791.6423   -107.41086    1.6211156   -105.78974   -9209.0365    4.2720962    4.2720962    4.2720962   -9209.0365    5825.4228   -47233.881    13781.349   -3937.7802   -16090.905    39181.684    77.969196 
   46000    631.74753   -106.35037   0.57161844   -105.77875   -30043.175    4.2746989    4.2746989    4.2746989   -30043.175    42887.374   -84303.058    -48713.84   -2725.7853   -4120.4163     55373.06    78.111788 
   46100    2407.1711   -107.92018     2.178059   -105.74212    12951.631    4.2487867    4.2487867    4.2487867    12951.631    26531.669   -12613.599    24936.824    9617.3435    8233.0335   -42478.929    76.699897 
   46200    1487.7452   -107.10638    1.3461431   -105.76024   -2460.0621    4.2360085    4.2360085    4.2360085   -2460.0621     65312.55   -37242.745    -35449.99    2026.8378   -13191.417    100800.21    76.009952 
   46300    1803.8169   -107.40413    1.6321314   -105.77199    157.23432    4.2462492    4.2462492    4.2462492    157.23432    23880.889    -8449.649   -14959.537     2213.102   -11483.509   -19303.085    76.562559 
   46400    1815.5585   -107.42245    1.6427555   -105.77969   -6095.1312    4.2633201    4.2633201    4.2633201   -6095.1312    13961.798   -27054.074    -5193.118    1228.5168    7503.7807   -3442.6176    77.489672 
   46500    2308.1215   -107.85656    2.0884368   -105.76812    -15183.52    4.2676189    4.2676189    4.2676189    -15183.52    30906.126   -31160.454   -45296.233   -6004.2391     4246.246    46303.181     77.72431 
   46600    1313.5886   -106.96837    1.1885626   -105.77981    4150.1544    4.2483849    4.2483849    4.2483849    4150.1544    11851.981    4809.8712   -4211.3885    -862.4375   -23211.452   -57721.369    76.678141 
   46700    1371.8928   -107.02318    1.2413174   -105.78186    2126.7897    4.2364355    4.2364355    4.2364355    2126.7897    3930.0315   -37744.369    40194.707    8889.7151    5999.3367    1948.7047    76.032939 
   46800    2163.7036   -107.72846    1.9577645    -105.7707    9149.1473    4.2508424    4.2508424    4.2508424    9149.1473    42503.166   -6905.0209   -8150.7035    3054.4219    4129.5157   -10038.467    76.811283 
   46900    1169.3003   -106.83953    1.0580075   -105.78152   -27391.295    4.2698769    4.2698769    4.2698769   -27391.295   -6273.3549    -55809.13   -20091.399   -3333.2487   -24190.814   -62439.847     77.84775 
   47000    1963.6389   -107.54119    1.7767418   -105.76445    -4208.315    4.2667709    4.2667709    4.2667709    -4208.315    -24361.14   -41840.712    53576.907    22135.915    1378.8993    18695.141    77.677991 
   47100    1858.4881   -107.45218    1.6815991   -105.77059    1735.2094    4.2453797    4.2453797    4.2453797    1735.2094     62037.73   -20627.554   -36204.548   -2188.0085    17169.168   -39059.158    76.515532 
   47200    1947.1211   -107.53191    1.7617961   -105.77012    17566.125    4.2331142    4.2331142    4.2331142    17566.125    24692.801   -14700.475    42706.049    13738.794    6813.1264   -29482.887    75.854257 
   47300    1542.1658   -107.18644    1.3953841   -105.79106   -4706.8918    4.2445525    4.2445525    4.2445525   -4706.8918   -5305.0794   -56558.219    47742.623    24554.361   -7299.2048    26848.311    76.470814 
   47400    2106.5477   -107.69089    1.9060486   -105.78484   -10165.428    4.2599154    4.2599154    4.2599154   -10165.428    42572.228   -39775.318   -33293.195   -13619.934    10026.382    8664.8216    77.304168 
   47500    1819.1046   -107.42717    1.6459641    -105.7812   -4421.1189    4.2613843    4.2613843    4.2613843   -4421.1189    11988.359   -54816.376    29564.661    38572.368    9938.5064   -13772.735    77.384168 
   47600    800.24573   -106.52198   0.72407915   -105.79791   -20406.782    4.2517985    4.2517985    4.2517985   -20406.782    -11678.58   -80244.851    30703.085    3899.4455   -12997.587    29357.732    76.863123 
   47700    2340.1255   -107.89149    2.1173948   -105.77409    34390.169    4.2389194    4.2389194    4.2389194    34390.169    65713.208    18396.999    19060.302   -20294.614    856.16006    18873.281    76.166759 
   47800    1733.2108   -107.35489    1.5682456   -105.78665    1144.4008    4.2492577    4.2492577    4.2492577    1144.4008    24801.689   -40047.403    18678.917    53531.833    8157.4469   -11247.241    76.725411 
   47900    1159.8086   -106.83189    1.0494192   -105.78247    -27480.72    4.2645805    4.2645805    4.2645805    -27480.72   -26159.621    -63776.56    7494.0203   -40192.278    -21798.75    27726.607    77.558421 
   48000     1920.859   -107.50753    1.7380336    -105.7695    14583.759    4.2509562    4.2509562    4.2509562    14583.759    44031.968    9838.7184   -10119.411    4393.4682    27774.958   -15530.864    76.817449 
   48100     1425.404   -107.06765    1.2897355   -105.77791    1278.1492    4.2447889    4.2447889    4.2447889    1278.1492     30157.37   -46915.292     20592.37    3616.2156    9730.0447   -20050.976    76.483595 
   48200    1957.6714    -107.5463    1.7713422   -105.77495   -1627.1774    4.2498173    4.2498173    4.2498173   -1627.1774   -25606.525   -44151.488    64876.481    -45078.62    -21733.24    19813.932    76.755726 
   48300      1773.78   -107.38658    1.6049534   -105.78163    15053.278     4.248051     4.248051     4.248051    15053.278    44435.616    11510.758    -10786.54    11800.491    49302.945   -39858.737    76.660063 
   48400    1601.8392   -107.23624    1.4493778   -105.78687   -13935.869    4.2608808    4.2608808    4.2608808   -13935.869   -13481.766   -34567.655    6241.8136    -23446.13    15714.308   -26475.426    77.356738 
   48500    2214.7097   -107.77594    2.0039159   -105.77202   -11317.519    4.2588547    4.2588547    4.2588547   -11317.519    -32552.51   -28155.195    26755.146   -32877.661   -8913.0647    14862.348    77.246441 
   48600    1655.3253   -107.27445    1.4977731   -105.77668    15729.367    4.2394024    4.2394024    4.2394024    15729.367    42682.295     50859.46   -46353.654    9630.4906    29641.332   -36511.348    76.192797 
   48700    1609.6236   -107.23525    1.4564213   -105.77883     -7845.83    4.2469515    4.2469515    4.2469515     -7845.83   -23708.087   -38540.719    38711.316   -39725.047    10542.453   -10358.966    76.600551 
   48800    1430.2488   -107.07817    1.2941192   -105.78405   -21444.331    4.2536754    4.2536754    4.2536754   -21444.331   -32421.233   -31454.002   -457.75745   -10324.868   -18311.849    23494.152    76.964957 
   48900    2088.8746   -107.65935    1.8900576   -105.76929     4271.735    4.2543379    4.2543379    4.2543379     4271.735    23.097006    5880.1602    6911.9478   -3370.0086   -7438.9813   -6175.9607    77.000923 
   49000    1385.1824   -107.02359    1.2533422   -105.77025   -33598.234     4.265791     4.265791     4.265791   -33598.234   -68398.109   -77925.421    45528.829   -58752.843    10602.176    6174.7663    77.624486 
   49100    1505.3107    -107.1329    1.3620367   -105.77086   -16232.042    4.2551957    4.2551957    4.2551957   -16232.042    1473.5388   -20719.718   -29449.948    28177.396   -39108.519    36702.083     77.04751 
   49200    2320.2761   -107.85929    2.0994346   -105.75986    14594.746    4.2471701    4.2471701    4.2471701    14594.746    35229.126   -17489.862    26044.973    -33766.63   -7173.7897   -3586.9754    76.612382 
   49300    1820.5455   -107.42457    1.6472678    -105.7773   -12487.396    4.2490045    4.2490045    4.2490045   -12487.396    1397.8378   -67573.169    28713.143   -20870.292    9609.2692    908.32476    76.711692 
   49400    990.77671   -106.68939   0.89647559   -105.79291   -2931.6635     4.247451     4.247451     4.247451   -2931.6635    28961.226   -16217.626    -21538.59    36488.829   -51258.862    31785.808    76.627583 
   49500    1874.7393   -107.48335    1.6963035   -105.78705    758.87432    4.2569425    4.2569425    4.2569425    758.87432    8883.2842    -3289.285   -3317.3763   -16511.057    26154.426   -31984.595    77.142437 
   49600    1870.9399   -107.47203    1.6928657   -105.77916    1930.7072    4.2597274    4.2597274    4.2597274    1930.7072    37870.169   -17499.278   -14578.769    25226.605    -3504.604    25879.381    77.293936 
   49700    1220.9708   -106.88389    1.1047601   -105.77913    10838.974    4.2573595    4.2573595    4.2573595    10838.974    20773.581    22820.404   -11077.062    24160.293   -30548.368    27212.061     77.16511 
   49800    2523.5271   -108.03078    2.2833404   -105.74744   -2662.9907     4.263957     4.263957     4.263957   -2662.9907   -9012.0993    35149.744   -34126.617    -12040.52     39078.63   -29288.409    77.524404 
   49900     1070.595   -106.74766    0.9686969   -105.77896   -14351.066    4.2526437    4.2526437    4.2526437   -14351.066    26377.279   -45911.819   -23518.658    20701.766   -16042.879    60070.414    76.908972 
   50000    1467.0843   -107.11499    1.3274487   -105.78754    9783.3706    4.2417511    4.2417511    4.2417511    9783.3706   -9199.6203    15615.673    22934.059    19152.082   -15871.897    5268.9335    76.319506 
   50100     2469.209   -108.00923    2.2341922   -105.77504    17519.842    4.2529235    4.2529235    4.2529235    17519.842     13865.96    26233.898    12459.669   -9544.6446    11391.822    8230.4279    76.924149 
   50200    837.95752   -106.55258   0.75820158   -105.79438   -815.75941     4.263691     4.263691     4.263691   -815.75941    7671.2567   -38597.414    28478.879    36844.601   -24102.909    57420.056      77.5099 
   50300    2314.1576   -107.84326    2.0938984   -105.74936    8200.4699    4.2703108    4.2703108    4.2703108    8200.4699   -19667.135    11292.495    32976.049   -2391.8784   -6756.5698   -17664.744    77.871485 
   50400    1529.2012   -107.13552    1.3836534   -105.75186   -21904.957    4.2663304    4.2663304    4.2663304   -21904.957    11786.935   -56449.111   -21052.694   -1586.4846    12562.619    35098.128    77.653935 
   50500    1305.8433   -106.94758    1.1815544   -105.76602   -8346.7566     4.243307     4.243307     4.243307   -8346.7566   -6479.3434    -74528.21    55967.283    53968.175   -11186.148     29538.51    76.403517 
   50600    2434.6024   -107.95545    2.2028794   -105.75257     29779.85    4.2311383    4.2311383    4.2311383     29779.85    22855.052   -15462.217    81946.715   -5394.5471    3780.8873   -13043.781    75.748087 
   50700    736.10007   -106.46531   0.66603882   -105.79927   -34732.661    4.2512753    4.2512753    4.2512753   -34732.661    33851.751   -110946.68   -27103.054    4317.9917    12793.425    49428.367    76.834749 
   50800    1925.6248   -107.52014    1.7423458    -105.7778   -17822.999    4.2651706    4.2651706    4.2651706   -17822.999   -2759.0882   -67244.293    16534.383     34672.46     433.2553   -11246.439    77.590619 
   50900    1892.5628   -107.47918    1.7124306   -105.76675   -20612.996    4.2670752    4.2670752    4.2670752   -20612.996    -22745.78   -44527.052    5433.8439   -58465.505   -7931.0301     17676.33    77.694612 
   51000    1857.3327    -107.4542    1.6805536   -105.77365   -16539.514    4.2531737    4.2531737    4.2531737   -16539.514    40387.757   -42067.268    -47939.03    9001.9176     16361.13    37387.211    76.937729 
   51100    2121.9952   -107.68433    1.9200259    -105.7643    30289.148    4.2304087    4.2304087    4.2304087    30289.148    38503.334    165.98558    52198.123   -28198.437    3083.3023   -15299.206     75.70891 
   51200    1162.3762   -106.84718    1.0517424   -105.79544   -4401.4084    4.2425325    4.2425325    4.2425325   -4401.4084   -9077.1332   -34197.401    30070.309   -47339.636   -26667.184    24545.641    76.361691 
   51300    1500.8734   -107.14648    1.3580217   -105.78846   -21224.799    4.2624563    4.2624563    4.2624563   -21224.799    27568.949   -48478.578   -42764.769    20314.333    11142.846    49878.678     77.44258 
   51400    2220.7466   -107.77593    2.0093782   -105.76655    3644.8051    4.2630941    4.2630941    4.2630941    3644.8051   -13204.645   -11525.284    35664.344   -37686.559    7465.8829   -17966.775    77.477351 
   51500    1154.6154   -106.82683    1.0447203   -105.78211   -27431.806    4.2596821    4.2596821    4.2596821   -27431.806   -23174.053    117.15721   -59238.522   -22450.664   -43705.635    42290.028    77.291469 
   51600    1748.5387   -107.36585    1.5821145   -105.78374    3387.3277    4.2431822    4.2431822    4.2431822    3387.3277    12027.389    7086.5237     -8951.93    17823.649    1012.9089    45359.838     76.39678 
   51700    2221.4336   -107.78674    2.0099998   -105.77674    27237.895    4.2341755    4.2341755    4.2341755    27237.895   -6430.2015    17520.606    70623.281    1023.3396   -60.413333   -26769.932    75.911324 
   51800    1092.1893   -106.79461   0.98823582   -105.80637   -10534.982    4.2521621    4.2521621    4.2521621   -10534.982   -222.54934    4476.3225   -35858.718   -24293.421   -57255.795    33971.744    76.882844 
   51900    2163.9813   -107.73427    1.9580158   -105.77625   -11940.064     4.267139     4.267139     4.267139   -11940.064   -2005.9456   -31875.182   -1939.0627    23291.499    1336.2033    21156.468    77.698096 
   52000    1717.6719   -107.32284    1.5541856   -105.76865   -17688.775      4.26282      4.26282      4.26282   -17688.775    -43297.99   -15864.957    6096.6205    15796.216   -8316.7858    -15906.06    77.462406 
   52100    1516.1797   -107.13727    1.3718712    -105.7654   -8152.9224    4.2483016    4.2483016    4.2483016   -8152.9224    13224.253     18779.65    -56462.67   -29683.742   -41559.032    18149.936    76.673629 
   52200    1397.1125   -107.03954    1.2641367    -105.7754    2538.3865    4.2366984    4.2366984    4.2366984    2538.3865   -3791.2834    12898.273   -1491.8301    53832.865    39162.772    12674.553    76.047097 
   52300    1670.7636   -107.30328     1.511742   -105.79154    18096.608     4.238539     4.238539     4.238539    18096.608   -2890.9505    28237.857    28942.917    409.08341    2832.5965   -4268.8574    76.146257 
   52400    2358.1886   -107.91757    2.1337386   -105.78383    4214.1972     4.260225     4.260225     4.260225    4214.1972    23866.016   -9007.2973   -2216.1274   -20484.274   -21587.401   -463.37346    77.321026 
   52500    894.22805    -106.6052   0.80911634   -105.79608   -30414.396    4.2688259    4.2688259    4.2688259   -30414.396   -47520.989   -48880.089    5157.8919     66715.83    47031.341    17694.607    77.790279 
   52600    2077.6839   -107.65767     1.879932   -105.77774    12242.287    4.2505663    4.2505663    4.2505663    12242.287    912.00238   -7244.1426        43059   -15034.313    6696.7606    9789.8024    76.796318 
   52700    2069.0401   -107.65168    1.8721109   -105.77957    17780.881    4.2379114    4.2379114    4.2379114    17780.881    6861.0712   -406.46013    46888.033    7304.7899   -3692.6932   -17361.617    76.112433 
   52800    548.14036   -106.31098   0.49596892   -105.81501   -16378.745     4.243468     4.243468     4.243468   -16378.745   -32968.002   -11362.808   -4805.4257    65697.807    50731.873    6118.6063    76.412214 
   52900    2690.6848    -108.2224    2.4345882   -105.78781    5133.2661    4.2613439    4.2613439    4.2613439    5133.2661    31982.715   -11733.944    -4848.972   -15269.683   -14582.654    20540.706    77.381963 
   53000    1835.9948   -107.44046    1.6612466   -105.77921   -17048.923    4.2703036    4.2703036    4.2703036   -17048.923   -29910.793   -23305.869    2069.8929    24980.176    11021.609   -19532.814    77.871088 
   53100    1241.6464   -106.89446    1.1234677   -105.77099   -2350.5426    4.2564229    4.2564229    4.2564229   -2350.5426   -8537.0238    4484.9121   -2999.5161    45066.273    45673.817    8176.4421    77.114192 
   53200    2085.0124    -107.6426     1.886563   -105.75604    2620.9293    4.2436567    4.2436567    4.2436567    2620.9293   -4285.0655   -15089.158    27237.011   -59364.428   -18401.972     9765.755    76.422412 
   53300    1184.9999   -106.85697    1.0722128   -105.78476   -681.72389    4.2345576    4.2345576    4.2345576   -681.72389   -17556.126   -14114.352    29625.306    37520.699    16601.945   -4453.4709    75.931875 
   53400    1659.6561    -107.2969    1.5016918    -105.7952    14144.379    4.2457191    4.2457191    4.2457191    14144.379    5880.8338    27601.835    8950.4696    31740.965    18125.765   -13452.064    76.533887 
   53500    2217.2403   -107.78317    2.0062057   -105.77696   -5899.9817    4.2633978    4.2633978    4.2633978   -5899.9817   -31592.113    175.49148    13716.677   -63826.129   -14056.782    2683.4193    77.493908 
   53600    1356.5244   -107.01125    1.2274118   -105.78384    759.73466    4.2565145    4.2565145    4.2565145    759.73466   -42620.134    17892.867    27006.471    72876.533    12343.042    1000.5139    77.119169 
   53700    2083.7155   -107.65326    1.8853896   -105.76787    8541.3119    4.2494763    4.2494763    4.2494763    8541.3119     25033.94    31522.518   -30932.523    -9836.043     11477.96   -33392.345    76.737252 
   53800    1555.8694   -107.17608    1.4077834   -105.76829   -4371.4475    4.2450163    4.2450163    4.2450163   -4371.4475   -43918.834   -8750.9583     39555.45    47498.402    1834.6334   -898.07762    76.495889 
   53900    1309.7201   -106.96065    1.1850623   -105.77558    -13680.78    4.2496279    4.2496279    4.2496279    -13680.78   -67522.347   -10892.943    37372.951    53486.211     10151.01    1123.2624    76.745461 
   54000    2139.9526   -107.69873    1.9362741   -105.76246    -17845.99    4.2605102    4.2605102    4.2605102    -17845.99   -24630.171    16766.608   -45674.405   -28086.569    4896.7886   -17353.853    77.336557 
   54100    1310.3269   -106.96714    1.1856113   -105.78153   -4111.6746    4.2499039    4.2499039    4.2499039   -4111.6746   -38732.522   -4254.7549    30652.253    91172.514   -9781.7934   -1866.3471     76.76042 
   54200    1745.0018   -107.35408    1.5789143   -105.77517    12695.858    4.2398904    4.2398904    4.2398904    12695.858   -32037.862    8266.9709    61858.466   -54746.154    12711.766   -1341.3168    76.219115 
   54300    1959.0369   -107.54853    1.7725777   -105.77595    733.18187    4.2473853    4.2473853    4.2473853    733.18187   -24685.234    21914.845    4969.9351   -8590.5079   -3466.2608   -5049.1027    76.624026 
   54400      1629.14   -107.25324    1.4740801   -105.77916   -633.82225    4.2499247    4.2499247    4.2499247   -633.82225   -28262.262   -4186.3549     30547.15    23253.749   -10098.951   -990.01151    76.761546 
   54500    1104.1641   -106.79586   0.99907091   -105.79679   -19468.463    4.2527148    4.2527148    4.2527148   -19468.463   -69297.547   -52378.805    63270.964   -90506.718    8885.1761   -1081.4138    76.912826 
   54600    2688.6559   -108.19984    2.4327523   -105.76708     12337.16    4.2505679    4.2505679    4.2505679     12337.16   -20396.343    73369.048   -15961.225    25726.422   -20174.177   -6208.4378    76.796404 
   54700    1152.2297   -106.83315    1.0425616   -105.79059    2610.2136    4.2454382    4.2454382    4.2454382    2610.2136   -58218.051    12989.625    53059.066   -93032.524   -15787.966    494.49949      76.5187 
   54800    1748.4734   -107.36602    1.5820554   -105.78397    4396.1245    4.2483178    4.2483178    4.2483178    4396.1245   -32748.105   -3878.3941    49814.873    11369.574     6372.574    5405.4259    76.674509 
   54900    1776.3979   -107.38328    1.6073221   -105.77596    14787.347    4.2501474    4.2501474    4.2501474    14787.347    8130.5605    28895.542    7335.9373    6850.4811   -7741.5333   -5132.8681    76.773611 
   55000    1384.7278   -107.03332    1.2529308   -105.78039   -6421.3555    4.2547357    4.2547357    4.2547357   -6421.3555   -32834.855   -1610.8506    15181.639   -77163.331   -18308.371    5778.8853    77.022525 
   55100    2136.6486   -107.69948    1.9332846   -105.76619   -5315.1721    4.2564465    4.2564465    4.2564465   -5315.1721   -18352.959    -9704.305    12111.747    74668.882    4985.4222   -2675.2203    77.115475 
   55200    1559.4719   -107.18249    1.4110429   -105.77144    10790.052    4.2472318    4.2472318    4.2472318    10790.052   -7185.3051    5698.4809    33856.979   -36087.711   -16218.594   -8046.9273    76.615721 
   55300    1355.7075   -107.00474    1.2266726   -105.77807   -2314.3662    4.2504017    4.2504017    4.2504017   -2314.3662    -22950.26    7320.6523    8686.5087   -31648.328   -23714.167    1922.7329    76.787393 
   55400    2550.5696   -108.06146     2.307809   -105.75365    2656.7432    4.2609055    4.2609055    4.2609055    2656.7432    24585.647   -9343.6289    -7271.788    36828.513    21426.854    2793.7705    77.358086 
   55500    1152.6923   -106.81905    1.0429802   -105.77607   -28166.818    4.2632966    4.2632966    4.2632966   -28166.818   -36209.764   -33936.441   -14354.249   -77947.073   -31538.482   -8025.4227    77.488389 
   55600    1529.1196   -107.15259    1.3835796   -105.76901   -6346.2683    4.2519501    4.2519501    4.2519501   -6346.2683   -9769.9194    41721.066   -50989.952   -3669.2988    21559.772   -2244.4365    76.871347 
   55700    2134.2473   -107.68908    1.9311118   -105.75797    12025.133     4.242843     4.242843     4.242843    12025.133    21637.732    9258.5978    5179.0674   -7629.9056    28485.874    14074.142     76.37846 
   55800    1229.2355   -106.89609    1.1122381   -105.78385   -24022.924    4.2470757    4.2470757    4.2470757   -24022.924    -62073.13   -11716.134    1720.4925    -63141.65   -40153.157    -11465.05    76.607275 
   55900    1946.7318   -107.53922    1.7614438   -105.77778     273.4122    4.2505587    4.2505587    4.2505587     273.4122   -15872.938    53340.949   -36647.775    9927.5796   -3490.5004    4334.2565    76.795904 
   56000    1816.2384   -107.42547    1.6433707   -105.78209    2633.1313     4.252531     4.252531     4.252531    2633.1313   -9225.1898    5383.0714    11741.512   -6693.9915    25627.028    23486.844    76.902853 
   56100    1121.5591   -106.80642    1.0148102   -105.79161   -19254.007    4.2529439    4.2529439    4.2529439   -19254.007   -70966.489    30401.504   -17197.034   -24042.851   -76529.385   -10953.924    76.925259 
   56200    2404.3164   -107.94976     2.175476   -105.77428     9457.685    4.2459349    4.2459349    4.2459349     9457.685    5904.5976    37438.881   -14970.424    11208.938   -21429.251    5881.3123    76.545556 
   56300    1754.1721    -107.3733    1.5872118   -105.78608    2984.8181    4.2432732    4.2432732    4.2432732    2984.8181   -33699.414    21053.937    21599.931   -12030.127   -3968.9702    11059.779    76.401692 
   56400    1259.7647   -106.93545    1.1398616   -105.79559   -11824.817    4.2507339    4.2507339    4.2507339   -11824.817   -82788.559    48966.728   -1652.6211   -14356.494   -79353.524    158.38691    76.805402 
   56500    2023.7392   -107.60363    1.8311218   -105.77251   -4647.1015     4.257668     4.257668     4.257668   -4647.1015   -14691.618    29083.454   -28333.141     3927.446    45681.539   -15506.194    77.181884 
   56600     1508.011   -107.14191      1.36448   -105.77743   -13914.139    4.2542746    4.2542746    4.2542746   -13914.139    -26021.94   -13235.144   -2485.3349   -12196.722    5558.6196    8897.2801    76.997486 
   56700    2291.8919   -107.83564     2.073752   -105.76189    13318.513    4.2460045    4.2460045    4.2460045    13318.513   -1262.7748    11777.457    29440.858   -16575.139   -21027.865   -250.57369    76.549322 
   56800    883.10431   -106.58423   0.79905134   -105.78518   -15607.824     4.248353     4.248353     4.248353   -15607.824    11787.618    -10729.58   -47881.511    4568.5123    60342.789   -41588.474    76.676414 
   56900    1817.0632    -107.4242     1.644117   -105.78009    -2658.606    4.2575724    4.2575724    4.2575724    -2658.606    15539.673   -40549.338    17033.848    -17624.47   -3175.7918    31068.645    77.176685 
   57000    1914.7616   -107.50361    1.7325165    -105.7711   -12682.366    4.2594033    4.2594033    4.2594033   -12682.366    5047.3899   -16417.793   -26676.694   -4520.6776   -1869.3998   -16939.985    77.276295 
   57100    807.94928   -106.52162   0.73104949   -105.79057   -19072.407     4.247751     4.247751     4.247751   -19072.407    6573.2935   -6304.6242   -57485.891    18542.545    49394.559   -58291.835    76.643822 
   57200     2812.721   -108.31063    2.5450091   -105.76562     21267.77    4.2423084    4.2423084    4.2423084     21267.77    28310.184    15442.296    20050.831   -5998.5741   -13511.314    14450.168    76.349589 
   57300    1321.7789   -106.99529    1.1959734   -105.79932   -3709.5959    4.2468443    4.2468443    4.2468443   -3709.5959    18824.767    20784.893   -50738.448   -3147.3257    16236.509   -31630.383    76.594755 
   57400    1254.8079   -106.94035    1.1353766   -105.80497    1152.2889    4.2531382    4.2531382    4.2531382    1152.2889    70176.323   -7187.9913   -59531.465    11860.849    35349.851   -47124.901    76.935802 
   57500    2605.2907   -108.12958    2.3573218   -105.77225    6069.6382    4.2563934    4.2563934    4.2563934    6069.6382    46232.708   -28562.544       538.75    9913.8367   -10682.417    50403.221    77.112588 
   57600    1367.0569   -107.02506    1.2369418   -105.78812    570.64315     4.247316     4.247316     4.247316    570.64315    39204.489    10215.636   -47708.196   -1117.4829    42749.044   -17778.064    76.620277 
   57700    1991.9164   -107.57225    1.8023278   -105.76993    16873.724    4.2454085    4.2454085    4.2454085    16873.724    49881.498    10845.699   -10106.024   -5310.2118    18393.902   -15525.791    76.517094 
   57800    1485.4916   -107.12103     1.344104   -105.77692   -20796.205    4.2552489    4.2552489    4.2552489   -20796.205   -3810.6521   -28379.876   -30198.087    13746.007   -2562.0041    79098.271    77.050399 
   57900    1400.6467   -107.04626    1.2673346   -105.77893   -13135.625    4.2538104    4.2538104    4.2538104   -13135.625   -68879.896    62656.496   -33183.475    3259.2019    63449.995   -24095.696    76.972289 
   58000    1977.0899   -107.56037    1.7889125   -105.77146    5014.7096    4.2474474    4.2474474    4.2474474    5014.7096    22414.088    9987.8529   -17357.812    -3924.876   -7198.0277    17808.462    76.627391 
   58100    1211.9226   -106.88426     1.096573   -105.78769   -7010.7341    4.2495425    4.2495425    4.2495425   -7010.7341    6631.3291    25700.587   -53364.118     52.43688     26937.94    59602.031    76.740836 
   58200    1854.8763   -107.45756     1.678331   -105.77923   -8054.8078    4.2566636    4.2566636    4.2566636   -8054.8078   -56302.406    63606.626   -31468.644    16466.229     77964.96   -17494.402    77.127276 
   58300    2309.4804   -107.85381    2.0896664   -105.76414   -2521.1731    4.2581149    4.2581149    4.2581149   -2521.1731    54657.346   -28496.383   -33724.483    1983.2952   -23265.946     41818.16     77.20619 
   58400    1026.9736   -106.70997   0.92922728   -105.78075   -20139.763    4.2540264    4.2540264    4.2540264   -20139.763   -15510.911    8293.4671   -53201.846   -5333.6162    50914.483    46986.903    76.984012 
   58500    2044.3213   -107.61709    1.8497449   -105.76735   -4813.2159    4.2497452    4.2497452    4.2497452   -4813.2159   -42266.195    27552.152    274.39514     33505.57    26007.669   -27218.517    76.751817 
   58600    1321.6488   -106.96732    1.1958556   -105.77147    -317.9105    4.2543611    4.2543611    4.2543611    -317.9105    38488.376    -16820.88   -22621.228   -5940.6723   -6753.8038    41975.176    77.002186 
   58700    1363.9921   -107.00924    1.2341687   -105.77508    -18557.17    4.2638635    4.2638635    4.2638635    -18557.17   -33031.728   -4655.9702   -17983.813   -11019.342    46800.964    31766.089    77.519308 
   58800    2551.6868   -108.05628    2.3088198   -105.74746   -4407.7118    4.2629096    4.2629096    4.2629096   -4407.7118    16583.659   -36456.397    6649.6022    15104.681   -17264.289   -28584.121    77.467289 
   58900     904.1694   -106.59299   0.81811147   -105.77487   -20675.196    4.2564291    4.2564291    4.2564291   -20675.196    74793.472    -85884.48    -50934.58   -9829.5036    4894.1141    41041.787    77.114527 
   59000    2283.6789   -107.82789    2.0663206   -105.76157    6397.5151    4.2495869    4.2495869    4.2495869    6397.5151    1055.0578   -35637.046    53774.533   -16483.581    24022.764    6034.8897    76.743241 
   59100     1587.965   -107.21364    1.4368241   -105.77682    5532.3955    4.2464947    4.2464947    4.2464947    5532.3955    46967.931   -18094.018   -12276.727    10366.915   -16377.512     970.9666     76.57584 
   59200    1202.2355   -106.88399    1.0878079   -105.79618   -3345.0099    4.2513656    4.2513656    4.2513656   -3345.0099    81758.656   -51968.973   -39824.714    -3268.146    929.44915    37866.133     76.83965 
   59300    2879.2455   -108.36975    2.6052018   -105.76455     6253.887    4.2621106    4.2621106    4.2621106     6253.887   -21867.894   -3435.9873    44065.542    513.36158     4269.401    -7368.976    77.423741 
   59400    693.59571   -106.42575   0.62757998   -105.79817   -28959.819    4.2636978    4.2636978    4.2636978   -28959.819    19481.194   -33271.288   -73089.362    16935.678   -20914.567    43119.484    77.510268 
   59500    1862.8511   -107.46244    1.6855468   -105.77689    9929.3058    4.2501147    4.2501147    4.2501147    9929.3058    58404.154   -50727.974    22111.738    -141.1221    5666.2416    10630.079    76.771841 
   59600    1803.0388   -107.40196    1.6314274   -105.77053   -3879.9281    4.2510378    4.2510378    4.2510378   -3879.9281    8027.9781   -19416.057   -251.70544   -27143.737   -5205.1724    18.455581    76.821874 
   59700    940.39627    -106.6379   0.85089031   -105.78701   -12447.938    4.2505923    4.2505923    4.2505923   -12447.938    51064.055   -18378.841   -70029.027    14179.164   -20375.078     67132.31    76.797722 
   59800    2615.6885   -108.13241    2.3667299   -105.76568    15598.525    4.2527702    4.2527702    4.2527702    15598.525    31299.333   -17696.663    33192.905   -27318.565    14375.127   -7218.9275    76.915833 
   59900    1302.4543   -106.97199    1.1784881    -105.7935   -35649.749    4.2591169    4.2591169    4.2591169   -35649.749    3002.1909   -35947.315   -74004.124   -23323.309   -15221.393    21470.528     77.26071 
   60000      1662.71   -107.29526     1.504455    -105.7908   -10379.806    4.2468768    4.2468768    4.2468768   -10379.806    8059.5122     7865.123   -47064.053    16796.901   -14936.412    60859.009    76.596513 
   60100    2236.2079   -107.79852    2.0233679   -105.77516    5297.2121    4.2490251    4.2490251    4.2490251    5297.2121    24148.896   -35838.438    27581.178    16438.536    4613.5301   -45591.802    76.712808 
   60200    1450.1647   -107.09577    1.3121395   -105.78364   -34859.523    4.2564742    4.2564742    4.2564742   -34859.523    22594.226   -60628.024   -66544.769   -17002.909   -10217.559    23420.332    77.116978 
   60300    1501.3319   -107.13576    1.3584366   -105.77732   -11768.441    4.2514248    4.2514248    4.2514248   -11768.441    -7022.911   -59320.021    31037.609    42450.989   -7766.5448    29948.644    76.842859 
   60400    1617.4055   -107.24182    1.4634625   -105.77836   -17881.651    4.2554227    4.2554227    4.2554227   -17881.651    8755.0029   -80105.935    17705.978    39736.349    -1974.622   -46133.278    77.059842 
   60500    1879.2639   -107.47498    1.7003975   -105.77458    -1601.809    4.2526809    4.2526809    4.2526809    -1601.809    40325.124   -33027.192   -12103.358   -14560.346   -5357.2422    15705.879     76.91099 
   60600    1214.2583   -106.88747    1.0986864   -105.78879   -5382.5837    4.2527258    4.2527258    4.2527258   -5382.5837   -33889.415   -55614.678    73356.342    75881.924   -17457.748    26050.828    76.913421 
   60700    2669.3984   -108.17146    2.4153278   -105.75614    2628.9309    4.2675255    4.2675255    4.2675255    2628.9309    19471.166   -18287.968    6703.5946   -28593.605    3956.0919   -23324.206     77.71921 
   60800    1141.7977   -106.81042    1.0331226    -105.7773   -24773.404     4.265115     4.265115     4.265115   -24773.404    217.86479   -73336.973   -1201.1041    56756.266    356.22239    38171.393    77.587587 
   60900    1113.6829   -106.78699    1.0076836    -105.7793    1008.7371    4.2436196    4.2436196    4.2436196    1008.7371    8823.9447   -54151.642    48353.908    34902.331   -15674.726    23043.706    76.420408 
   61000    2513.3195   -108.03772    2.2741043   -105.76361    19919.616    4.2428049    4.2428049    4.2428049    19919.616    21813.252   -2778.5865    40724.183    -44028.65    15735.784   -19560.993    76.376402 
   61100    960.54637   -106.66521   0.86912254   -105.79608   -17677.691    4.2550446    4.2550446    4.2550446   -17677.691    -47551.26   -28423.379    22941.564    87902.135   -4543.1885    36478.313    77.039305 
   61200     2219.353   -107.79653    2.0081172   -105.78842    9436.4708    4.2635688    4.2635688    4.2635688    9436.4708    9021.9283    16478.095    2809.3896   -2100.8761    374.11471    22235.096    77.503233 
   61300    2161.0363   -107.72244    1.9553511   -105.76709   -19411.574    4.2721091    4.2721091    4.2721091   -19411.574    -55991.98   -19005.399    16762.656    36325.459    3201.8573   -17336.718    77.969905 
   61400    521.92061   -106.25782   0.47224473   -105.78557   -35762.685    4.2565978    4.2565978    4.2565978   -35762.685   -36372.822   -82638.912    11723.679    70908.675   -17627.028    42637.157    77.123697 
   61500    2110.6912   -107.66102    1.9097978   -105.75122    27697.179    4.2372329    4.2372329    4.2372329    27697.179    32799.805    14930.316    35361.417   -52360.283    9509.0603    6492.2605    76.075883 
   61600    1702.9179   -107.30694    1.5408359    -105.7661   -20721.883    4.2532996    4.2532996    4.2532996   -20721.883   -52270.368   -43848.022    33952.741    49135.986    -3863.143   -3748.8546    76.944559 
   61700    1698.6714   -107.31313    1.5369935   -105.77613   -18689.987    4.2559702    4.2559702    4.2559702   -18689.987    15649.675   -40902.802   -30816.832     39129.95   -14179.423    40952.007    77.089591 
   61800     2077.242   -107.65039    1.8795322   -105.77085    9899.4079    4.2493929    4.2493929    4.2493929    9899.4079    3395.6813   -13008.476    39311.018    -57463.43   -2835.5319    5554.0349    76.732731 
   61900    1429.0049   -107.07865    1.2929937   -105.78566   -24025.651    4.2542491    4.2542491    4.2542491   -24025.651   -29487.132   -83892.893    41303.073    31685.147   -662.06077    3746.9076    76.996102 
   62000    1506.1124   -107.15027    1.3627621   -105.78751   -6295.4248    4.2409171    4.2409171    4.2409171   -6295.4248    53077.677   -57783.929   -14180.023    33714.254   -7666.5359    50391.659    76.274497 
   62100    1895.6629   -107.49852    1.7152356   -105.78329    13425.439    4.2443313    4.2443313    4.2443313    13425.439    841.45552   -25473.798    64908.659   -53643.035   -2982.7497   -4006.7493    76.458862 
   62200    1498.3517   -107.14159    1.3557401   -105.78585    -33876.23    4.2631506    4.2631506    4.2631506    -33876.23   -51723.551   -83743.499    33838.359    56670.564    3791.4538     13736.19    77.480433 
   62300    2198.4402   -107.76501    1.9891949   -105.77581   -3977.6558    4.2512544    4.2512544    4.2512544   -3977.6558    43994.167   -34123.796   -21803.339    15780.116   -4308.9594    41573.008    76.833617 
   62400    1557.7949   -107.19188    1.4095256   -105.78235    6120.6666    4.2413175    4.2413175    4.2413175    6120.6666    4079.8431   -51737.897    66020.054     7916.071   -1104.1223   -18473.172      76.2961 
   62500    951.24718   -106.66349   0.86070844   -105.80278   -21373.905     4.248169     4.248169     4.248169   -21373.905    -37027.12   -122510.38    95415.786    65707.148    10757.434   -11044.709     76.66645 
   62600    2740.9026   -108.25331    2.4800263   -105.77329    12633.282    4.2514034    4.2514034    4.2514034    12633.282     49075.66   -24859.163     13683.35   -27873.348   -15004.527    8932.6122    76.841699 
   62700    1085.0944   -106.78366   0.98181619   -105.80185   -24515.374    4.2591033    4.2591033    4.2591033   -24515.374   -37813.007   -89477.061    53743.945    78412.628    -6309.409   -14124.194     77.25997 
   62800    1751.1934    -107.3788    1.5845166   -105.79428   -4705.3598    4.2521771    4.2521771    4.2521771   -4705.3598   -26113.393   -52645.852    64643.166    13899.283   -2524.4216   -13032.613    76.883655 
   62900    2192.4562   -107.76429    1.9837804   -105.78051    21754.663    4.2405421    4.2405421    4.2405421    21754.663    17048.885     35469.06    12746.045   -9254.5548    4941.5053    25003.526    76.254265 
   63000    1054.1562   -106.75654   0.95382271   -105.80272   -17345.381    4.2487086    4.2487086    4.2487086   -17345.381   -52325.433   -38621.428    38910.719    79671.215    198.30043    2674.8712    76.695668 
   63100    2315.8293   -107.87037    2.0954111   -105.77496    18368.266    4.2560016    4.2560016    4.2560016    18368.266    14109.245   -12004.773    53000.328   -15795.629    403.21671   -14252.187    77.091298 
   63200    1308.6496   -106.97158    1.1840936   -105.78748   -16031.204    4.2630898    4.2630898    4.2630898   -16031.204   -5143.2314    -59264.36    16313.981    43225.101     3913.012    32593.238    77.477113 
   63300    1528.7617    -107.1698    1.3832557   -105.78655   -21950.246    4.2598243    4.2598243    4.2598243   -21950.246   -45310.719   -39801.417    19261.397     57990.56    7141.2562    950.36014    77.299208 
   63400    2734.4785   -108.23506    2.4742136   -105.76085    48393.805    4.2371691    4.2371691    4.2371691    48393.805    45452.047    48979.267    50750.101   -21806.681    1753.9193    751.51856    76.072446 
   63500    964.07031    -106.6742   0.87231107   -105.80189   -11481.382    4.2447081    4.2447081    4.2447081   -11481.382   -25715.271   -46172.455     37443.58    70533.525   -4210.7158    36246.268    76.479227 
   63600    1490.1503    -107.1395    1.3483193   -105.79118   -26667.182     4.257496     4.257496     4.257496   -26667.182   -13015.527   -24920.704   -42065.315    15342.468    9798.3671   -10622.699     77.17253 
   63700    1772.9433   -107.38494    1.6041964   -105.78074     12562.59    4.2508146    4.2508146    4.2508146     12562.59    38472.807    16464.073    -17249.11    9242.7395   -3270.4284   -36474.923    76.809775 
   63800     1666.279   -107.29145    1.5076843   -105.78377   -18960.585    4.2602258    4.2602258    4.2602258   -18960.585   -56105.606   -46047.073    45270.924    74280.592   -3322.2596     20386.23    77.321071 
   63900    2144.8056   -107.72155    1.9406651   -105.78089   -8724.2471    4.2489128    4.2489128    4.2489128   -8724.2471    17297.068   -16708.542   -26761.268   -18604.537    1281.2061   -31086.747    76.706726 
   64000    1142.9644   -106.82806    1.0341782   -105.79389    21130.159    4.2301559    4.2301559    4.2301559    21130.159    23146.082    8655.0079    31589.386    59020.025    8121.4552   -40327.861    75.695334 
   64100    2244.2097   -107.82801    2.0306081    -105.7974   -5839.9002    4.2536456    4.2536456    4.2536456   -5839.9002   -49593.804   -31322.979    63397.082    52880.201    2179.9199    19191.972     76.96334 
   64200    2209.1902   -107.77677    1.9989217   -105.77785    9586.8948    4.2628607    4.2628607    4.2628607    9586.8948    45311.529    8383.8491   -24934.694   -13905.117    2598.6524   -36045.161    77.464625 
   64300    733.61256   -106.45129   0.66378806   -105.78751     10272.38    4.2573104    4.2573104    4.2573104     10272.38    2259.8347    13025.573    15531.733    90084.819     4958.163   -17416.889    77.162439 
   64400    2303.8545    -107.8411    2.0845759   -105.75652   -2327.0006     4.264478     4.264478     4.264478   -2327.0006   -9404.8886    19405.066    -16981.18   -12659.561   -18644.815    18890.727     77.55283 
   64500     1526.581   -107.15581    1.3812826   -105.77452    1777.1512    4.2487642    4.2487642    4.2487642    1777.1512    16601.052   -23418.788     12149.19    36934.676    1619.5144   -37563.849    76.698682 
   64600    1188.5368   -106.85197     1.075413   -105.77656    29919.897    4.2353248    4.2353248    4.2353248    29919.897    46314.462    1131.8701    42313.358    63988.455     13054.59   -12779.706    75.973157 
   64700    1825.8505   -107.42972    1.6520679   -105.77765   -3194.8088    4.2508065    4.2508065    4.2508065   -3194.8088   -18967.732    30268.229   -20884.923   -22965.903   -20935.457    24147.492    76.809335 
   64800    1730.8102   -107.34895    1.5660735   -105.78287   -2075.5014     4.253014     4.253014     4.253014   -2075.5014    -26864.54   -30987.801    51625.837     51552.29   -18614.375    -9323.307     76.92906 
   64900    2037.9208   -107.62011    1.8439535   -105.77616    6506.7677    4.2550975    4.2550975    4.2550975    6506.7677   -67.338963    12346.913     7240.729    9299.3558    28783.193   -3338.2894    77.042178 
   65000    1139.6517   -106.82398    1.0311808    -105.7928   -34651.595    4.2579129    4.2579129    4.2579129   -34651.595   -66657.279    12330.121   -49627.626   -5681.7468    -4827.489    29424.135    77.195205 
   65100    2308.1146   -107.86187    2.0884306   -105.77344    10927.858    4.2432136    4.2432136    4.2432136    10927.858    4231.7807   -22452.448    51004.242    22287.624   -12498.848   -12378.571    76.398475 
   65200    1498.1776   -107.14177    1.3555826   -105.78618   -4281.1668    4.2474191    4.2474191    4.2474191   -4281.1668    6588.7321    5326.8357   -24759.068    1815.7251     37093.83   -31390.007    76.625859 
   65300    1419.2255   -107.06998     1.284145   -105.78583   -14509.177    4.2527958    4.2527958    4.2527958   -14509.177   -65241.206    21963.398   -249.72459   -12110.899   -15873.753    24980.677    76.917224 
   65400    1805.1504   -107.41537     1.633338   -105.78203    8959.5816     4.247952     4.247952     4.247952    8959.5816    13987.361    -35337.18    48228.564   -7366.8529   -7545.6502   -52669.789    76.654703 
   65500    1770.3845   -107.38631    1.6018811   -105.78443   -3816.6338    4.2512808    4.2512808    4.2512808   -3816.6338    -12383.69    4020.9533   -3087.1651    2484.5634    26033.149   -24564.954    76.835049 
   65600    1157.3789   -106.84432    1.0472207    -105.7971   -4606.4885    4.2484992    4.2484992    4.2484992   -4606.4885   -74121.821    43270.927    17031.428   -14679.824   -20912.894    16052.908    76.684329 
   65700    2396.2062   -107.94865    2.1681377   -105.78052    15231.982    4.2467592    4.2467592    4.2467592    15231.982    5350.0852     2947.203    37398.657   -2062.5979   -9330.1299   -31486.761    76.590147 
   65800    1644.2434   -107.27686     1.487746   -105.78911   -6738.2003     4.255862     4.255862     4.255862   -6738.2003   -64078.674    20846.494     23017.58    29123.324   -4338.6301   -675.08657    77.083713 
   65900    1102.3949   -106.79225   0.99747004   -105.79478   -6576.8421    4.2573309    4.2573309    4.2573309   -6576.8421   -69559.691    57261.759   -7432.5944   -5724.2426   -12095.808    11309.752    77.163555 
   66000    2564.0034   -108.08585    2.3199642   -105.76588    11454.022    4.2533868    4.2533868    4.2533868    11454.022     -14277.8   -13887.784     62527.65    17200.483    8659.6707   -10517.037    76.949291 
   66100    1380.5926   -107.03426    1.2491892   -105.78507   -8815.2743    4.2484508    4.2484508    4.2484508   -8815.2743   -68413.433    -5957.565    47925.175    23413.676   -31955.185   -1618.1967     76.68171 
   66200    1639.6737   -107.26811    1.4836113   -105.78449    3640.5652    4.2445272    4.2445272    4.2445272    3640.5652   -21127.224    26746.212    5302.7069   -10215.371   -8713.0152    13326.812    76.469448 
   66300    2019.6524   -107.60882    1.8274239   -105.78139    4889.6127    4.2486412    4.2486412    4.2486412    4889.6127    111.10652   -42722.205    57279.937   -3933.3443    25973.133   -13417.914    76.692017 
   66400    1106.6702   -106.79879    1.0013384   -105.79746   -16037.144    4.2518144    4.2518144    4.2518144   -16037.144   -52839.869    16383.796   -11655.359    7380.5311    -62230.34   -8503.5015    76.863983 
   66500    1873.9862   -107.47907    1.6956221   -105.78345    4485.6628    4.2522941    4.2522941    4.2522941    4485.6628    30411.928    23520.976   -40475.916    -9161.691   -15797.494     1920.211    76.890005 
   66600    1645.2998   -107.27196    1.4887018   -105.78325    3635.2616    4.2540293    4.2540293    4.2540293    3635.2616    5915.3003    -15683.12    20673.605   -23815.336    8522.8703    5793.9325     76.98417 
   66700    1105.0794   -106.78965   0.99989905   -105.78975    -7174.804    4.2559117    4.2559117    4.2559117    -7174.804   -25162.449    44472.339   -40834.302    16336.508   -83553.263   -4340.0649     77.08641 
   66800    2640.7726   -108.15519    2.3894265   -105.76577    21027.256    4.2528655    4.2528655    4.2528655    21027.256    50185.788    13894.812     -998.833    1285.2952     37917.48     16639.88    76.921003 
   66900    1540.1387   -107.17428    1.3935498   -105.78073     6756.419    4.2486762    4.2486762    4.2486762     6756.419    12237.796    28049.321   -20017.861   -21002.643   -51327.098    4989.2066    76.693911 
   67000    1772.3633   -107.37878    1.6036715   -105.77511    -13887.83    4.2535182    4.2535182    4.2535182    -13887.83   -36436.977    27052.131   -32278.643   -2527.0383   -55615.642   -9617.4754    76.956424 
   67100    1630.7159   -107.24898     1.475506   -105.77347   -10257.449    4.2530549    4.2530549    4.2530549   -10257.449   -18372.945    1119.4262   -13518.827    8542.3385    73183.736    13150.246     76.93128 
   67200    1300.7853   -106.96161    1.1769779   -105.78464   -5734.0575    4.2472847    4.2472847    4.2472847   -5734.0575   -27696.693    46855.784   -36361.264   -3631.4861   -50368.659    12193.554    76.618583 
   67300    2041.6432   -107.62783    1.8473217   -105.78051   -633.17151    4.2491901    4.2491901    4.2491901   -633.17151   -47710.553    28525.621    17285.417   -31450.828   -19013.785   -9702.3241    76.721749 
   67400    1797.8496   -107.41367    1.6267321   -105.78694   -483.51125    4.2492928    4.2492928    4.2492928   -483.51125   -27058.315    21400.418    4207.3636     2168.039    55088.946     3792.035    76.727307 
   67500    1983.2202   -107.58105    1.7944593   -105.78659    4851.1949    4.2496694    4.2496694    4.2496694    4851.1949   -24982.991    36082.724    3453.8525   -3199.2829   -22356.696    5265.6558    76.747713 
   67600    1581.2468   -107.21927    1.4307453   -105.78852   -12982.593    4.2547081    4.2547081    4.2547081   -12982.593   -49900.584   -3095.7785    14048.583    -61618.51   -2603.1744   -10225.357    77.021026 
   67700    1417.3581   -107.06844    1.2824554   -105.78598    203.25595    4.2493897    4.2493897    4.2493897    203.25595    6074.0442    20897.902   -26362.179    14400.268    41782.585    6909.4974    76.732559 
   67800    1652.4642   -107.27613    1.4951843   -105.78095    7344.7781    4.2502363    4.2502363    4.2502363    7344.7781   -8895.6383    28544.748    2385.2246   -36090.719   -5236.3214    6050.4086     76.77843 
   67900    1801.7881   -107.41044    1.6302957   -105.78015   -3547.0405    4.2548258    4.2548258    4.2548258   -3547.0405   -28747.408    11231.411    6874.8757    -45367.32    11743.627    -7663.362    77.027421 
   68000    1359.2583   -107.02146    1.2298855   -105.79158     13922.02    4.2485192    4.2485192    4.2485192     13922.02     30836.08    44591.454   -33661.472    26541.439    42446.557    31.329986    76.685414 
   68100    2547.6543   -108.08046    2.3051711   -105.77529    20614.993    4.2563077    4.2563077    4.2563077    20614.993      13384.9    22118.929    26341.152   -22366.643   -14886.152    14258.086    77.107931 
   68200    1780.6558   -107.39862    1.6111748   -105.78744   -9978.7445    4.2593982    4.2593982    4.2593982   -9978.7445   -43017.814    34485.445   -21403.865   -10943.377    31626.886   -16520.691    77.276017 
   68300    755.33149   -106.48531    0.6834398   -105.80187    4845.6715    4.2463003    4.2463003    4.2463003    4845.6715   -12361.318    24024.402    2873.9304    20867.966    26637.179   -8755.5639     76.56532 
   68400    2237.7169   -107.79867    2.0247333   -105.77394    8993.6805    4.2523222    4.2523222    4.2523222    8993.6805   -21342.626    2783.0592    45540.608    6026.1457   -12653.652    9787.9276    76.891527 
   68500    1026.6424   -106.72151   0.92892759   -105.79259   -25338.322     4.255524     4.255524     4.255524   -25338.322   -58177.798    47599.696   -65436.865   -16575.023    33685.823   -12964.767    77.065349 
   68600    1904.1155   -107.51546    1.7228837   -105.79258    7449.1505    4.2467214    4.2467214    4.2467214    7449.1505   -6246.0746    29534.719    -941.1935    12401.966    5804.7303   -1503.7906    76.588102 
   68700    2566.7914   -108.11071    2.3224868   -105.78822    13660.672    4.2497321    4.2497321    4.2497321    13660.672   -22605.648   -2743.2601    66330.924   -14894.952    12925.677    6616.7599     76.75111 
   68800    746.28126   -106.49011   0.67525096   -105.81486   -9178.4509     4.251438     4.251438     4.251438   -9178.4509   -63728.931    41449.355   -5255.7763   -16837.725    44101.611   -9806.8901    76.843571 
   68900     2131.949   -107.71227    1.9290322   -105.78323    14381.846    4.2598674    4.2598674    4.2598674    14381.846    -19676.42    19541.102    43280.855    19426.385   -25727.089   -4321.1578    77.301559 
   69000    1343.1749   -106.99148    1.2153328   -105.77614   -28258.344    4.2676026    4.2676026    4.2676026   -28258.344    -23902.86   -22643.264   -38228.909    7660.1356    40745.009    20264.544    77.723421 
   69100    1456.5703   -107.09095    1.3179354   -105.77302    1984.3651    4.2479787    4.2479787    4.2479787    1984.3651   -24589.137    38548.085   -8005.8532   -19985.081    42553.756   -880.16738    76.656146 
   69200    2315.1607   -107.86111    2.0948061    -105.7663    14503.632    4.2404647    4.2404647    4.2404647    14503.632   -15927.625     2932.801     56505.72    56279.172   -24167.159   -1245.7548    76.250091 
   69300    1207.7191   -106.88729    1.0927696   -105.79452   -8665.8625    4.2469986    4.2469986    4.2469986   -8665.8625   -4578.2229   -11408.734   -10010.631    17204.921    48465.257    30046.929    76.603102 
   69400    1941.5951   -107.55159     1.756796   -105.79479    8107.7687    4.2573153    4.2573153    4.2573153    8107.7687    14926.732    31239.503   -21842.929   -6941.1601     35011.35     5000.724    77.162704 
   69500    2097.6787   -107.67703    1.8980238     -105.779    2821.4322      4.26619      4.26619      4.26619    2821.4322    1672.7588   -11830.846    18622.384    37833.447   -16225.481   -8935.7608    77.646269 
   69600    661.48905   -106.39592   0.59852919   -105.79739   -10306.105    4.2534523    4.2534523    4.2534523   -10306.105   -658.40291    36582.117   -66842.029    12703.042    67795.683    26572.396    76.952846 
   69700    2039.6578   -107.61284    1.8455252   -105.76732    24876.372    4.2483748    4.2483748    4.2483748    24876.372      36727.7     46817.19   -8915.7755   -9048.0843    1310.6676    7340.4905    76.677591 
   69800    1656.3614   -107.27221    1.4987106    -105.7735   -5362.0155    4.2558201    4.2558201    4.2558201   -5362.0155   -17653.508   -13121.999     14689.46     14233.05   -9681.1193   -13004.564    77.081432 
   69900    1450.1868   -107.08896    1.3121595    -105.7768    14308.641    4.2557963    4.2557963    4.2557963    14308.641     16841.93    27608.216   -1524.2227    25730.685    45617.306    28707.282    77.080141 
   70000     1991.987   -107.56957    1.8023917   -105.76718    8173.1257    4.2592408    4.2592408    4.2592408    8173.1257   -2977.2939   -11644.492    39141.163   -58172.818   -7178.0955   -985.62982    77.267452 
   70100    1778.8626   -107.38191    1.6095523   -105.77236    4155.1141    4.2561873    4.2561873    4.2561873    4155.1141   -23298.716   -6180.2602    41944.318    15451.285   -2384.1237   -7311.7145    77.101387 
   70200    1798.6546   -107.39496    1.6274605    -105.7675    27967.132    4.2465947    4.2465947    4.2465947    27967.132    18968.239    35601.292    29331.865    10947.805    22287.261    20057.683    76.581247 
   70300     1397.466   -107.04394    1.2644566   -105.77949   -26780.709    4.2556703    4.2556703    4.2556703   -26780.709   -48907.369   -39439.376    8004.6193     -93043.1   -8502.2828   -15348.484    77.073294 
   70400    1963.6022   -107.54206    1.7767085   -105.76535   -3107.1737    4.2560537    4.2560537    4.2560537   -3107.1737    -26956.73    13690.651    3944.5577    62928.978    374.76107   -2320.2177    77.094127 
   70500     1287.479     -106.935     1.164938   -105.77006    -10074.81     4.258348     4.258348     4.258348    -10074.81   -47416.051   -26805.123    43996.743   -59567.996    12551.852    3495.0964    77.218874 
   70600    1791.6645   -107.38007    1.6211356   -105.75893   -20322.219    4.2669359    4.2669359    4.2669359   -20322.219   -59740.932   -26156.909    24931.184    -59845.82   -7443.3272   -2840.4688    77.687001 
   70700    1897.0058   -107.46573    1.7164507   -105.74928    11704.431    4.2549441    4.2549441    4.2549441    11704.431   -49198.151    66219.813    18091.633    42444.485    7113.9408    9162.7234    77.033847 
   70800    722.76129   -106.43333    0.6539696   -105.77936   -17959.369    4.2524621    4.2524621    4.2524621   -17959.369   -86099.984   -40985.117    73206.996   -95986.533     1573.065   -1431.0975    76.899118 
   70900    2891.8448   -108.37062     2.616602   -105.75402    25680.016    4.2531643    4.2531643    4.2531643    25680.016    10613.243    63511.943    2914.8633    26475.839   -6513.3656    12183.267    76.937217 
   71000     1498.821   -107.14282    1.3561647   -105.78665   -16.616493    4.2531065    4.2531065    4.2531065   -16.616493   -29231.677   -17842.189    47024.016   -79218.532   -1647.1404   -1395.0162     76.93408 
   71100    1500.9982   -107.14797    1.3581347   -105.78984   -12313.716    4.2600607    4.2600607    4.2600607   -12313.716   -52439.366   -27568.154     43066.37   -15450.523    7366.9305   -7808.1944    77.312082 
   71200    2053.2163   -107.63167    1.8577933   -105.77388    14924.379    4.2516793    4.2516793    4.2516793    14924.379   -5380.0799    48867.878    1285.3393    11054.365   -15297.766    14346.532    76.856659 
   71300    1409.0461   -107.05182    1.2749345   -105.77689    13997.463    4.2532668    4.2532668    4.2532668    13997.463   -34663.932    24221.724    52434.597   -82261.763    -14094.08   -5755.3897     76.94278 
   71400    1558.3865   -107.17745    1.4100608   -105.76739   -20820.084    4.2670863    4.2670863    4.2670863   -20820.084   -70079.906   -194.68781    7814.3411    58735.201     19588.63   -1115.7552    77.695218 
   71500     1506.461   -107.13414    1.3630776   -105.77106   -10202.709    4.2548491    4.2548491    4.2548491   -10202.709   -46755.258    41135.718   -24988.587    926.73526   -45762.798    10545.992    77.028686 
   71600    2245.8714   -107.79233    2.0321117   -105.76022    17960.939     4.246546     4.246546     4.246546    17960.939   -5828.3359    25268.022    34443.131   -23233.843    902.84428   -7256.8714    76.578615 
   71700    1259.3006   -106.92714    1.1394416    -105.7877   -14693.158    4.2548379    4.2548379    4.2548379   -14693.158   -52884.621   -3953.6009    12758.749    74023.596    2006.9734    4924.5255     77.02808 
   71800    1576.0377    -107.2182     1.426032   -105.79216     127.5431    4.2556487    4.2556487    4.2556487     127.5431   -34995.243    45912.952   -10535.079   -2520.4247   -66854.394    468.64995     77.07212 
   71900    2517.1715   -108.04885    2.2775897   -105.77126    17799.217      4.25935      4.25935      4.25935    17799.217   -15868.237   -17926.391     87192.28    19281.315    27725.715    -3172.368    77.273393 
   72000    891.02822   -106.59249   0.80622106   -105.78627    139.50819    4.2591949    4.2591949    4.2591949    139.50819   -33476.425     39927.58   -6032.6301    40123.862   -53743.175    7427.7013    77.264954 
   72100    1747.3489   -107.34629     1.581038   -105.76525    10114.103    4.2570685    4.2570685    4.2570685    10114.103   -16400.502    50574.304   -3831.4933   -16574.393    -6818.192    242.53618    77.149285 
   72200    2285.5899    -107.8284    2.0680498   -105.76035     5622.749    4.2582123    4.2582123    4.2582123     5622.749    585.22165   -25415.107    41698.133    3117.0205    17565.565    9787.9198    77.211487 
   72300    881.40009    -106.5965   0.79750932   -105.79899   -11062.823    4.2544665    4.2544665    4.2544665   -11062.823   -44235.677    11363.583   -316.37631    23771.603   -91076.889    7728.3076    77.007908 
   72400    2522.7433   -108.05859    2.2826312   -105.77596      22508.2    4.2585288    4.2585288    4.2585288      22508.2    55410.257   -5206.5982    17320.942   -8203.0062    16338.731    1490.0883    77.228708 
   72500    1578.6326   -107.21594    1.4283799   -105.78756   -13871.843    4.2708793    4.2708793    4.2708793   -13871.843    1640.7368   -1109.2312   -42147.035    298.67255   -60268.308   -1220.0346    77.902589 
   72600    824.66266   -106.54115    0.7461721   -105.79498   -8664.6585    4.2644285    4.2644285    4.2644285   -8664.6585   -18295.169   -26700.514    19001.708    40338.834   -50282.976    64.731732    77.550128 
   72700    2295.2753   -107.83833    2.0768133   -105.76151    16709.789    4.2533209    4.2533209    4.2533209    16709.789    36265.716   -28438.109    42301.759    460.76244    15944.769    11844.124    76.945717 
   72800     1432.431   -107.07137    1.2960937   -105.77528   -2586.3272    4.2525806    4.2525806    4.2525806   -2586.3272   -35586.464    43230.085   -15402.602    565.62535   -78772.607   -3297.6662    76.905548 
   72900    1624.0265   -107.24837    1.4694533   -105.77892   -8739.5539    4.2584265    4.2584265    4.2584265   -8739.5539    -68313.49   -44440.985    86535.813    55479.503   -16426.115    7149.6181    77.223143 
   73000    2150.8683   -107.71024    1.9461508   -105.76409   -2695.7113    4.2643254    4.2643254    4.2643254   -2695.7113   -40783.445    4532.4403    28163.871   -11024.944    3340.7556    4524.9259    77.544501 
   73100    782.10707   -106.49378   0.70766691   -105.78611   -29433.909    4.2617843    4.2617843    4.2617843   -29433.909    -101461.2    25531.897   -12372.421    44530.652   -51220.301    6086.3296    77.405957 
   73200    1819.2368   -107.42064    1.6460837   -105.77456    20534.078    4.2480869    4.2480869    4.2480869    20534.078   -14188.914    3591.8975    72199.249    39601.994    8247.1296   -7623.0115    76.662006 
   73300    2067.2424   -107.64481    1.8704844   -105.77432    13768.042    4.2558018    4.2558018    4.2558018    13768.042   -21268.376    23383.822    39188.679   -33378.445    -16564.78   -14445.643    77.080441 
   73400    1601.6785   -107.22586    1.4492324   -105.77663   -21638.412    4.2682048    4.2682048    4.2682048   -21638.412   -76264.173    14171.705   -2822.7688    44895.304   -41155.489    20832.911     77.75633 
   73500    1724.7247   -107.31829    1.5605671   -105.75772    22722.243    4.2581967    4.2581967    4.2581967    22722.243    -4534.232    6204.6217    66496.339    -15289.78    5482.2818   -39902.493    77.210642 
   73600    1179.7613   -106.83218    1.0674728   -105.76471    13345.541    4.2608869    4.2608869    4.2608869    13345.541   -17398.082    19163.859    38270.845   -27303.551   -21869.658   -14716.017    77.357069 
   73700    1997.8263   -107.54808    1.8076752   -105.74041    565.80962     4.268563     4.268563     4.268563    565.80962   -13753.157    17615.434   -2164.8485     19322.88   -9751.1168    14546.401    77.775909 
   73800    1354.0147   -106.98232    1.2251409   -105.75718    13422.104    4.2576843    4.2576843    4.2576843    13422.104    32153.662   -21668.805    29781.455   -33426.317    5218.0359   -73537.397    77.182769 
   73900    2016.9789    -107.5868    1.8250049   -105.76179    4335.3283    4.2564849    4.2564849    4.2564849    4335.3283    2761.8734    5849.8389    4394.2725   -3720.6862   -32612.868    20589.954    77.117562 
   74000    1891.8483    -107.4854    1.7117841   -105.77362    3496.8072    4.2528398    4.2528398    4.2528398    3496.8072    30259.134   -12246.194   -7522.5185    1321.9047   -23103.705    2889.5125    76.919611 
   74100    1655.6677   -107.28303    1.4980829   -105.78495    6620.4759    4.2534978    4.2534978    4.2534978    6620.4759    23613.017   -35565.058    31813.469   -28299.482    5420.2037   -57774.845    76.955318 
   74200    1573.9412   -107.20794    1.4241351   -105.78381   -17505.925    4.2627896    4.2627896    4.2627896   -17505.925   -28025.459    10149.327   -34641.644    3966.4937   -18201.297    29627.515    77.460747 
   74300    1402.9051   -107.05732     1.269378   -105.78795    4099.1733    4.2538911    4.2538911    4.2538911    4099.1733    22973.316    2679.3561   -13355.153    2160.1846    -23406.12    6514.7522    76.976665 
   74400    2756.5575   -108.25957    2.4941912   -105.76538    28463.255    4.2552931    4.2552931    4.2552931    28463.255    43204.561   -1594.1037    43779.309    2140.8749    6836.5208   -27277.299      77.0528 
   74500    946.05632   -106.65729   0.85601164   -105.80128   -30148.695     4.261521     4.261521     4.261521   -30148.695   -37539.727     29606.26   -82512.618    4883.4494   -3313.1902    29411.175    77.391614 
   74600    1466.4702   -107.12671    1.3268931   -105.79982    8861.4076    4.2533568    4.2533568    4.2533568    8861.4076    10458.331     13062.62    3063.2712     -800.736   -17132.392    14521.352    76.947664 
   74700    2391.2586   -107.93837    2.1636611    -105.7747    4272.1794    4.2586569    4.2586569    4.2586569    4272.1794    21284.144   -19352.285    10884.679   -13359.582    13997.924   -16314.912    77.235679 
   74800    950.98646    -106.6429   0.86047253   -105.78243   -15625.813    4.2694806    4.2694806    4.2694806   -15625.813   -30313.635    21892.914   -38456.718   -644.86316   -11172.972    35069.496    77.826075 
   74900    2209.3124   -107.74125    1.9990323   -105.74222    1783.1932    4.2740528    4.2740528    4.2740528    1783.1932    18133.273    4568.3066       -17352   -10024.442    2540.4277   -10857.364    78.076376 
   75000    1602.2494    -107.1964    1.4497489   -105.74665   -9110.4509    4.2659789    4.2659789    4.2659789   -9110.4509    12723.977    -5911.236   -34144.094   -20095.721    1339.1466   -38309.606    77.634743 
   75100    2122.0048   -107.66397    1.9200346   -105.74393    18391.378    4.2492925    4.2492925    4.2492925    18391.378   -6437.1704    58345.923    3265.3809    11616.143   -6408.6119     26428.34    76.727293 
   75200     1400.784   -107.03674    1.2674588   -105.76928    10009.556    4.2433588    4.2433588    4.2433588    10009.556    31183.763   -6628.9006    5473.8057   -21717.925    1135.9622   -54155.617    76.406315 
   75300    1214.3103   -106.88938    1.0987335   -105.79065    3290.8358    4.2526113    4.2526113    4.2526113    3290.8358    25486.318   -31169.248    15555.437   -12480.852   -5400.3928   -46856.793    76.907214 
   75400    2141.0209   -107.70029    1.9372407   -105.76305   -6734.1528    4.2756056    4.2756056    4.2756056   -6734.1528   -28370.378    5322.0717    2845.8481    6943.2395   -7877.3691    12352.485    78.161507 
   75500    1102.1032   -106.76615   0.99720614   -105.76895   -19244.741    4.2738415    4.2738415    4.2738415   -19244.741   -3702.7699   -89145.009    35113.555   -22730.155    6240.7182    -70946.43      78.0648 
   75600    2217.7503    -107.7479    2.0066671   -105.74123    19855.491    4.2557425    4.2557425    4.2557425    19855.491    14953.092    13439.592    31173.789   -204.62286   -11633.464    9062.8134    77.077219 
   75700    1518.3285   -107.13157    1.3738155   -105.75776    11348.237      4.24739      4.24739      4.24739    11348.237    36060.219    2988.5705    -5004.079    6372.6764   -12037.748   -20936.817    76.624281 
   75800    2047.2702   -107.61201    1.8524131    -105.7596    700.49223    4.2560428    4.2560428    4.2560428    700.49223    34646.583   -54133.937    21588.831   -16998.944    9774.2708   -48191.242    77.093534 
   75900     1416.997   -107.05133    1.2821286    -105.7692   -28904.699    4.2708002    4.2708002    4.2708002   -28904.699   -12163.648   -4133.0301   -70417.419    5110.0999   -21502.094    29917.876     77.89826 
   76000    1321.0597   -106.96637    1.1953226   -105.77104   -18894.071    4.2667606    4.2667606    4.2667606   -18894.071    7466.6781    -19764.09   -44384.801     7637.562   -11920.389   -9638.4267    77.677428 
   76100    2572.3871   -108.07105    2.3275499    -105.7435    20469.981    4.2599019    4.2599019    4.2599019    20469.981    57016.215   -6392.4959    10786.226   -4925.8893   -1519.9266   -6501.3207    77.303437 
   76200    670.77806    -106.3844   0.60693409   -105.77746   -35917.128    4.2622152    4.2622152    4.2622152   -35917.128   -24698.743    23623.618   -106676.26   -3194.2269   -33354.362    35127.856    77.429439 
   76300    2494.5684   -108.01026    2.2571379   -105.75312    23015.424    4.2577458    4.2577458    4.2577458    23015.424    26918.128    17944.641    24183.502    4693.0088    27918.574   -6257.1766    77.186115 
   76400    1593.4411    -107.2103     1.441779   -105.76852    -6894.925    4.2613786    4.2613786    4.2613786    -6894.925    6074.1214   -4413.1999   -22345.697    1567.1911   -38205.904   -33503.337    77.383857 
   76500     1548.667   -107.17235    1.4012665   -105.77108   -3607.2343    4.2613267    4.2613267    4.2613267   -3607.2343   -18242.664    31605.226   -24184.265   -11692.084   -17395.454    34495.675    77.381029 
   76600    1877.4066   -107.45553    1.6987169   -105.75681    12056.539    4.2594096    4.2594096    4.2594096    12056.539    39034.578   -890.18144   -1974.7784    8392.4868    8232.6901   -47488.197    77.276637 
   76700    962.05671   -106.63522   0.87048913   -105.76474   -15652.732    4.2646462    4.2646462    4.2646462   -15652.732    6220.3492   -15080.767    -38097.78    -3392.951   -42750.958   -37973.894    77.562002 
   76800     2329.277   -107.83252    2.1075788   -105.72494   -8922.8785    4.2762884    4.2762884    4.2762884   -8922.8785    -11692.91    9416.0625   -24491.788    9731.2453    4160.5997    3293.4288    78.198955 
   76900     1180.567   -106.80667    1.0682018   -105.73846   -35325.671     4.276354     4.276354     4.276354   -35325.671    16578.252   -54390.959   -68164.308    333.84008   -10506.638   -90531.052    78.202553 
   77000    1978.2203   -107.53423    1.7899353   -105.74429    20907.912    4.2452984    4.2452984    4.2452984    20907.912   -19251.208    69456.475    12518.468    10640.735   -41311.922    27920.961    76.511137 
   77100    2034.3144   -107.58836    1.8406904   -105.74767    35148.527    4.2313858    4.2313858    4.2313858    35148.527    56457.758    20960.556    28027.268    5028.3082    9258.1953   -58422.725    75.761377 
   77200    1336.6608   -106.98999    1.2094387   -105.78055   -6061.4145    4.2533625    4.2533625    4.2533625   -6061.4145   -16243.988   -1863.2241   -77.031121   -7068.1394   -13900.833   -47379.623    76.947975 
   77300    1924.4664   -107.50497    1.7412977   -105.76367   -10956.427    4.2680395    4.2680395    4.2680395   -10956.427   -39536.857   -14637.428    21305.005    8466.4565   -24468.134    16386.489    77.747293 
   77400    1324.6877   -106.96259    1.1986052   -105.76398   -14707.926    4.2677261    4.2677261    4.2677261   -14707.926     22110.07    -69574.12    3340.2734    408.62339    14032.154   -51543.999    77.730172 
   77500    1844.5823   -107.42866    1.6690169   -105.75964   -16403.918    4.2604747    4.2604747    4.2604747   -16403.918   -46618.126   -19245.237    16651.609   -11274.988      16957.8   -10390.499    77.334623 
   77600    2549.8962   -108.05788    2.3071997   -105.75068    28378.968    4.2406665    4.2406665    4.2406665    28378.968    37411.144   -5065.4887     52791.25   -2046.2335   -17229.971   -11241.053    76.260978 
   77700    908.47728   -106.61145   0.82200934   -105.78944   -2540.4753    4.2474115    4.2474115    4.2474115   -2540.4753    62694.059   -76104.547    5789.0623    38.585981    18176.243   -40833.907    76.625446 
   77800    2476.1461   -107.99977     2.240469    -105.7593   -1850.9054    4.2676135    4.2676135    4.2676135   -1850.9054   -32884.692    -26246.26    53578.236   -4561.1861    4491.2604    13449.734     77.72402 
   77900    1228.4584   -106.88158     1.111535   -105.77005   -5040.8024    4.2675554    4.2675554    4.2675554   -5040.8024    17853.279    -49528.22    16552.535    614.53864   -28763.592   -31367.329    77.720845 
   78000    1419.3169   -107.04836    1.2842278   -105.76413   -23526.816    4.2649653    4.2649653    4.2649653   -23526.816    48240.216   -86558.909   -32261.755    1308.5987    16095.125   -1972.0094    77.579416 
   78100    2377.8371   -107.89527     2.151517   -105.74375    15751.682    4.2479097    4.2479097    4.2479097    15751.682     4385.829    24851.577     18017.64    4658.8858   -27899.717    10305.983    76.652413 
   78200    1052.5484   -106.72475   0.95236788   -105.77239    87.706886    4.2490409    4.2490409    4.2490409    87.706886    46158.264    3435.7704   -49330.914   -1110.5452   -22164.167   -64010.689    76.713666 
   78300    2757.4416   -108.24218    2.4949911   -105.74719    9555.6732    4.2665457    4.2665457    4.2665457    9555.6732    43504.769   -9680.4668   -5157.2822   -4741.6213    15403.247    22674.573    77.665693 
   78400    886.84571   -106.57239   0.80243664   -105.76996   -8803.4122    4.2703074    4.2703074    4.2703074   -8803.4122    15684.004    14208.593   -56302.834    1602.4065   -35255.916   -36968.447    77.871297 
   78500    1293.6684   -106.92686    1.1705383   -105.75632   -15975.101    4.2658356    4.2658356    4.2658356   -15975.101    20096.283   -30055.566    -37966.02     -9979.56   -2274.0757   -48192.977    77.626917 
   78600    2234.3025   -107.76512    2.0216439   -105.74347    29579.888    4.2477548    4.2477548    4.2477548    29579.888    62457.526     4392.221    21889.917   -933.30117    2240.3518    34957.017    76.644027 
   78700    862.30848   -106.55647   0.78023483   -105.77624    4081.2323    4.2484985    4.2484985    4.2484985    4081.2323    19392.082    34341.912   -41490.297    -3319.171   -47818.212    -63382.05    76.684292 
   78800    2796.5073   -108.28384    2.5303386    -105.7535    8620.3229    4.2648071    4.2648071    4.2648071    8620.3229    9751.2359    14504.561    1605.1713    4329.3119    14771.305   -1075.1336    77.570785 
   78900    1208.3514   -106.86286    1.0933418   -105.76952   -7257.3029    4.2748442    4.2748442    4.2748442   -7257.3029    32618.115   -10488.548   -43901.476   -5049.1594   -18744.725    8866.9783    78.119753 
   79000    1694.6518   -107.27609    1.5333565   -105.74273    -5639.658     4.273581     4.273581     4.273581    -5639.658    36446.716   -16893.955   -36471.735   -1237.6266   -24004.009   -46147.506    78.050521 
   79100    1668.9673   -107.24678    1.5101167   -105.73666    10873.304    4.2552854    4.2552854    4.2552854    10873.304    26946.464    9635.0699   -3961.6232   -6404.0378    36875.548     25620.41    77.052383 
   79200    1069.5407   -106.72507   0.96774287   -105.75732    11932.289    4.2500369    4.2500369    4.2500369    11932.289    67716.069   -2587.1722   -29332.031   -6388.8336   -43964.825   -5376.5614    76.767624 
   79300     2238.981   -107.77023    2.0258771   -105.74435    14055.196    4.2610222    4.2610222    4.2610222    14055.196     23513.54    5660.3774    12991.671     3793.184    10311.376   -13062.068    77.364441 
   79400    855.57169   -106.54607   0.77413924   -105.77193   -13115.735    4.2697363    4.2697363    4.2697363   -13115.735    6443.3521    1136.1566   -46926.713    11903.608    33763.394    19568.879    77.840058 
   79500    2631.7543   -108.11981    2.3812666   -105.73855    7498.4134    4.2725102    4.2725102    4.2725102    7498.4134    24961.983    17382.541   -19849.284   -2547.4824   -30729.296    247.19292    77.991867 
   79600     1207.754   -106.84682    1.0928012   -105.75402    10153.265    4.2666911    4.2666911    4.2666911    10153.265   -20588.602    50770.208    278.18776   -18215.983    48831.361   -9130.8419    77.673628 
   79700     2059.163   -107.59299    1.8631739   -105.72982    58.984377    4.2722639    4.2722639    4.2722639    58.984377   -19941.209    23679.569   -3561.4074    15498.601    8910.2777    11274.141    77.978384 
   79800    2188.8689     -107.717    1.9805346   -105.73646    2091.8143    4.2634856    4.2634856    4.2634856    2091.8143   -13610.368    22603.928    -2718.117   -24575.882   -6323.2888   -8154.7004    77.498699 
   79900    764.99935   -106.46333   0.69218749   -105.77114   -14561.827    4.2508324    4.2508324    4.2508324   -14561.827    -16361.28   -9574.9041   -17749.298   -4593.0787    68761.201   -4604.9445     76.81074 
   80000    2767.2736   -108.25433    2.5038873   -105.75044    23351.463     4.245756     4.245756     4.245756    23351.463    40340.153    20557.823    9156.4118     12389.02   -26184.817   -3773.4621    76.535884 
   80100    756.02424   -106.47127   0.68406662    -105.7872   -18701.967    4.2671198    4.2671198    4.2671198   -18701.967    -8095.348   -4037.3932   -43973.159   -8811.7484    17619.237   -5173.0801    77.697048 
   80200    1912.0232   -107.47736    1.7300388   -105.74733   -10508.509    4.2823723    4.2823723    4.2823723   -10508.509    8953.7493   -8699.7658   -31779.511   -15918.174     33847.26   -4382.6896    78.533197 
   80300    1882.8939   -107.43929     1.703682   -105.73561   -7986.4099    4.2699741    4.2699741    4.2699741   -7986.4099    5440.4638   -4535.9413   -24863.752    30072.761   -39089.244    6138.2977    77.853068 
   80400    1459.9696   -107.06254    1.3210112   -105.74153   -684.13828     4.248314     4.248314     4.248314   -684.13828   -20543.841    28318.189    -9826.763   -20105.395    63123.222    3599.6413    76.674304 
   80500    2475.6226     -107.976    2.2399953   -105.73601    31480.135    4.2378215    4.2378215    4.2378215    31480.135    44143.674     14135.85    36160.881    16693.418   -16068.734    11020.557    76.107594 
   80600    1102.2281   -106.77314   0.99731911   -105.77582   -19137.148    4.2575721    4.2575721    4.2575721   -19137.148    -28903.71   -2965.0941   -25542.639    23144.203   -8393.8914    13479.623    77.176667 
   80700    1873.3463   -107.45039    1.6950431   -105.75534   -5628.8215    4.2710006    4.2710006    4.2710006   -5628.8215   -14571.282    30159.106   -32474.288   -1425.2547    60580.548   -879.93595    77.909226 
   80800    1238.5414   -106.87447    1.1206583   -105.75381    23883.535    4.2640291    4.2640291    4.2640291    23883.535    9172.1049    42825.566    19652.935    15742.269   -32776.197    15632.056     77.52834 
   80900    1526.3483   -107.12737     1.381072    -105.7463   -826.21205    4.2660297    4.2660297    4.2660297   -826.21205   -32756.154    27250.854    3026.6634    10192.241    8648.9737    9837.6631    77.637514 
   81000     2173.283   -107.69484    1.9664322   -105.72841    7928.8085    4.2644125    4.2644125    4.2644125    7928.8085   -26517.855    11193.592    39110.689   -17712.516    18545.233    7470.4952    77.549255 
   81100    1019.6973   -106.67804   0.92264357   -105.75539   -10290.878    4.2622862    4.2622862    4.2622862   -10290.878   -46394.436    39948.852   -24427.049    17366.581   -42149.378    23981.801    77.433309 
   81200    2591.2851   -108.08145    2.3446492    -105.7368    5225.1467    4.2547649    4.2547649    4.2547649    5225.1467   -19313.377    13329.507    21659.311   -4170.8767   -5370.1109   -5740.9771    77.024114 
   81300    992.48384   -106.66299   0.89802023   -105.76497   -5285.6161    4.2482192    4.2482192    4.2482192   -5285.6161   -33155.179    14017.294    3281.0359   -31089.089    1456.8212   -1620.4607     76.66917 
   81400     1671.884   -107.27738    1.5127558   -105.76463   -6101.6568    4.2563291    4.2563291    4.2563291   -6101.6568   -19333.952    36944.836   -35915.854     18843.53   -36695.934    2419.9673    77.109094 
   81500    1472.3566   -107.09321    1.3322192   -105.76099    6762.2772    4.2609157    4.2609157    4.2609157    6762.2772   -47549.199    60256.336    7579.6945     -19056.1    51129.477    345.34058    77.358642 
   81600    1540.5735   -107.15448    1.3939433   -105.76054   -8898.7771    4.2664922    4.2664922    4.2664922   -8898.7771   -43974.384   -9264.4838    26542.536   -12929.747   -9076.4202    4437.4962    77.662771 
   81700    2750.6206   -108.23322    2.4888194    -105.7444    8195.8042    4.2589639    4.2589639    4.2589639    8195.8042   -21334.779    39316.693    6605.4981    18257.334    18293.398   -4138.7771    77.252383 
   81800    1373.9772   -107.01927    1.2432035   -105.77607    466.93315    4.2409446    4.2409446    4.2409446    466.93315   -33738.205    20972.255     14166.75   -30032.762    41371.785     5735.355    76.275982 
   81900     1926.849   -107.51954    1.7434535   -105.77608     11896.56    4.2464122    4.2464122    4.2464122     11896.56     2110.195    5071.7375    28507.749   -27842.078   -13062.089   -2657.6537    76.571375 
   82000    1816.2622   -107.41047    1.6433922   -105.76708   -3319.0581    4.2692271    4.2692271    4.2692271   -3319.0581   -5293.0481    26409.151   -31073.277    8859.2232    1326.7011    -1263.236    77.812213 
   82100    1293.1278    -106.9185    1.1700492   -105.74845   -25023.427    4.2813508    4.2813508    4.2813508   -25023.427   -16198.212   -26035.711   -32836.357   -43460.459    28409.631    4059.1838     78.47701 
   82200    1900.5947   -107.45078     1.719698   -105.73108   -4342.0156    4.2621276    4.2621276    4.2621276   -4342.0156    4463.3946     21188.51   -38677.951   -2330.2664   -51473.674   -19.905071    77.424669 
   82300    1172.3227   -106.80914    1.0607422   -105.74839     820.4619    4.2344706    4.2344706    4.2344706     820.4619   -1329.1332    23136.417   -19345.898    11123.635   -632.18208     7070.985    75.927196 
   82400    2278.9131   -107.81778    2.0620085   -105.75578    17719.452    4.2324774    4.2324774    4.2324774    17719.452    30745.691    2158.0198    20254.644   -31247.337    35818.032    4837.2452    75.820029 
   82500    1479.7198   -107.12506    1.3388816   -105.78617   -941.08523    4.2543643    4.2543643    4.2543643   -941.08523   -395.23561    36503.783   -38931.803    10333.937   -86782.932   -2110.7981    77.002359 
   82600    1499.6072    -107.1343    1.3568761   -105.77742   -28474.726    4.2759381    4.2759381    4.2759381   -28474.726   -40622.645    16576.659   -61378.193     15585.27    50449.792   -2173.8508    78.179739 
   82700    2402.2736   -107.92958    2.1736276   -105.75595    7787.6503    4.2586994    4.2586994    4.2586994    7787.6503     16780.01    17868.263   -11285.322   -18051.523   -13098.594   -2491.5355    77.237989 
   82800    1258.0512   -106.90069    1.1383112   -105.76238    15650.534    4.2346902    4.2346902    4.2346902    15650.534    3384.0676    90822.426   -47254.891    4502.4696   -49727.407    2611.1451    75.939011 
   82900    1686.4203   -107.28942    1.5259085   -105.76351    9932.9432    4.2429038    4.2429038    4.2429038    9932.9432    -18567.47    53403.767   -5037.4667    3757.8814    71425.139   -267.07628    76.381741 
   83000    1784.8097   -107.37902    1.6149333   -105.76409    2674.2159    4.2597993    4.2597993    4.2597993    2674.2159   -5453.1327    -9060.508    22536.288   -49307.768   -42076.826    1020.0245     77.29785 
   83100    1551.2344   -107.17217    1.4035895   -105.76858   -12051.095    4.2673566    4.2673566    4.2673566   -12051.095   -36263.475    20076.691   -19966.503    19772.747   -2475.4079   -9681.6421     77.70998 
   83200    2207.0423   -107.74928    1.9969783    -105.7523    1124.8443    4.2585855    4.2585855    4.2585855    1124.8443    -20226.73     3374.355    20226.908   -22478.544    38334.414   -6079.9003    77.231794 
   83300    1244.2411   -106.89411    1.1258155   -105.76829   -2072.6467    4.2453991    4.2453991    4.2453991   -2072.6467    -18303.26   -25564.812    37650.132   -66439.057   -41112.221    4171.9531    76.516582 
   83400    2034.8439   -107.60635    1.8411695   -105.76518    244.09336    4.2459284    4.2459284    4.2459284    244.09336    4008.4406    31308.147   -34584.308    23666.368   -6005.2741   -10032.823    76.545205 
   83500    1464.1307   -107.10255    1.3247762   -105.77777   -6853.9369    4.2567542    4.2567542    4.2567542   -6853.9369   -37458.004   -37568.473    54464.667   -72327.587    22427.934    9268.5982    77.132201 
   83600    1121.1371   -106.78382    1.0144284   -105.76939    -23166.37    4.2679699    4.2679699    4.2679699    -23166.37   -25170.911   -20469.765   -23858.432   -25225.878   -34722.789    3361.1337     77.74349 
   83700    1973.4677   -107.53232    1.7856351   -105.74669    2380.9899    4.2593389    4.2593389    4.2593389    2380.9899   -13363.259    20492.788    13.440737   -10604.816   -2370.6706    6460.8037    77.272788 
   83800    1521.0338   -107.12672    1.3762634   -105.75045    7609.0632    4.2500105    4.2500105    4.2500105    7609.0632   -34618.513   -23953.638    81399.341   -79226.675    5792.4561   -1488.2091    76.766194 
   83900    2138.1664   -107.68311    1.9346579   -105.74845    14462.889    4.2459579    4.2459579    4.2459579    14462.889    34291.354     17861.12   -8763.8085    31932.822   -30795.978    15120.961    76.546804 
   84000    1474.2888   -107.10152    1.3339675   -105.76755    14711.479    4.2505229    4.2505229    4.2505229    14711.479    21.895424   -1299.2301    45411.772    -78795.17    2822.9143    1682.1169    76.793963 
   84100    2189.7243   -107.73773    1.9813086   -105.75643    13231.076     4.261331     4.261331     4.261331    13231.076    1190.6952    11691.869    26810.663   -16441.288    5299.6965   -10145.739    77.381264 
   84200    1374.3776   -107.01354    1.2435657   -105.76997    7462.4041    4.2575631    4.2575631    4.2575631    7462.4041    18116.051   -4266.3645    8537.5254   -19429.294   -26745.681    2833.5178    77.176178 
   84300    1221.1848     -106.873    1.1049537   -105.76804    7414.3989    4.2517617    4.2517617    4.2517617    7414.3989   -15119.532    8385.3642    28977.364   -70633.629    -2066.812    9041.6962    76.861126 
   84400    2337.3605   -107.86292    2.1148929   -105.74803    16528.966    4.2518895    4.2518895    4.2518895    16528.966    27121.207     40752.69   -18286.997    26563.942    38357.517    435.70915    76.868057 
   84500    1313.6154   -106.95925    1.1885868   -105.77066   -12795.586    4.2542756    4.2542756    4.2542756   -12795.586   -20454.134    -41460.61    23527.986   -81451.515   -33831.024   -15650.607    76.997543 
   84600    2135.0202   -107.69273    1.9318111   -105.76092    -5841.758    4.2567718    4.2567718    4.2567718    -5841.758   -24712.314   -486.68581    7673.7257   -251.14067    10692.524    2051.2541    77.133159 
   84700    1572.6543   -107.18752    1.4229707   -105.76455    -15936.05     4.258071     4.258071     4.258071    -15936.05   -45231.842    10128.021   -12704.329    16394.619    18904.917   -1906.7181    77.203802 
   84800    1165.2835   -106.82529     1.054373   -105.77091   -6673.8452    4.2514637    4.2514637    4.2514637   -6673.8452   -50225.069   -17368.513    47572.046   -76130.569   -35489.398   -10565.193    76.844966 
   84900    2160.7814   -107.70946    1.9551204   -105.75434    9831.8818    4.2503574    4.2503574    4.2503574    9831.8818    1030.6033    9883.5752    18581.467    52568.339    25890.717    1707.3108    76.784994 
   85000    1541.0662   -107.15784    1.3943891   -105.76346   -38166.863    4.2619866    4.2619866    4.2619866   -38166.863   -61088.137    -21364.91    -32047.54   -21143.017   -18158.678    1221.6048    77.416983 
   85100    1819.6124   -107.41087    1.6464236   -105.76444   -3969.8984     4.251114     4.251114     4.251114   -3969.8984   -12016.752   -17680.943    17787.999   -41660.719   -16141.337   -12255.976    76.826003 
   85200    1641.2993   -107.24916    1.4850821   -105.76408    10026.881    4.2447009    4.2447009    4.2447009    10026.881   -28153.774    23343.544    34890.875    53588.361    18555.028   -9642.8502    76.478836 
   85300    1464.2349   -107.09444    1.3248705   -105.76957   -35181.122    4.2578329    4.2578329    4.2578329   -35181.122   -92313.585   -8430.3289   -4799.4529   -57863.979   -33306.185    8069.0101    77.190855 
   85400    1959.8727     -107.534     1.773334   -105.76067    6243.3855    4.2514256    4.2514256    4.2514256    6243.3855   -13791.917    7469.4532     25052.62    5688.2906     1002.431   -12112.592    76.842898 
   85500    1283.7939   -106.93566    1.1616037   -105.77406   -3588.4244    4.2545794    4.2545794    4.2545794   -3588.4244   -43819.238   -6678.7144    39732.679    32524.719      7874.85   -15668.245    77.014039 
   85600    2453.1358   -107.97502    2.2196488   -105.75537   -13148.145    4.2616647    4.2616647    4.2616647   -13148.145     -16945.3   -19395.484   -3103.6504   -59645.977   -21949.623    7377.1031    77.399444 
   85700    1559.0827   -107.18066    1.4106908   -105.76996    13314.971    4.2469307    4.2469307    4.2469307    13314.971    4325.3477    15795.083    19824.481    48904.785    25480.535   -11193.906    76.599428 
   85800    1301.1678   -106.96026     1.177324   -105.78293     2852.775    4.2498477    4.2498477    4.2498477     2852.775   -31147.808   -14999.475    54705.608    24708.884    6726.5871   -21495.143    76.757371 
   85900    2612.8286   -108.11536    2.3641422   -105.75122    10772.259     4.260124     4.260124     4.260124    10772.259    -9362.725     11259.76    30419.742   -6679.0933   -6943.8871    13394.224     77.31553 
   86000    383.55289   -106.12707   0.34704672   -105.78003    9093.8832    4.2633933    4.2633933    4.2633933    9093.8832   -5920.7087    2472.7662    30729.592    63727.142    27426.069   -15712.547    77.493666 
   86100    2458.5344    -107.9573    2.2245336   -105.73276    1277.5062    4.2728796    4.2728796    4.2728796    1277.5062    3744.0989    4306.1372   -4217.7176    -23554.41    8679.7123    355.48822    78.012101 
   86200    1196.1173   -106.83347    1.0822721    -105.7512   -12752.095    4.2554908    4.2554908    4.2554908   -12752.095   -35460.349   -26221.159    23425.223    14531.042    -7345.738   -1881.8537    77.063543 
   86300    1824.5685    -107.3934    1.6509079   -105.74249    38352.602    4.2406328    4.2406328    4.2406328    38352.602    20111.358    64840.406    30106.041    50821.589    9483.3787   -13781.463    76.259156 
   86400    1986.5275   -107.54759    1.7974519   -105.75014    13476.354     4.247095     4.247095     4.247095    13476.354   -7668.6015    23958.779    24138.884   -57742.037   -9412.3688    12639.441    76.608317 
   86500    860.48346   -106.56024   0.77858352   -105.78166    -713.0356    4.2523644    4.2523644    4.2523644    -713.0356   -65372.726    24461.938    38771.681     39034.26   -13266.126   -11557.884    76.893819 
   86600    2642.5451   -108.13854    2.3910304   -105.74751    4613.5709     4.266637     4.266637     4.266637    4613.5709    -21387.99    39722.036    -4493.333    10791.043    14420.354    2090.1075    77.670678 
   86700    1103.9169   -106.77065   0.99884718    -105.7718   -20315.836     4.258765     4.258765     4.258765   -20315.836    -46623.64   -8663.2173   -5660.6489   -28616.778   -3415.5921    13226.217     77.24156 
   86800    2335.2216    -107.8526    2.1129576   -105.73964    36338.311    4.2442654    4.2442654    4.2442654    36338.311   -1696.6051    55985.399    54726.139    22442.653   -3112.6658     -7239.71    76.455301 
   86900    1640.6507   -107.23958    1.4844952   -105.75509   -21847.221     4.256808     4.256808     4.256808   -21847.221   -6955.0018    6999.8343   -65586.497    -8428.461    36410.751     4932.666    77.135126 
   87000    1620.2274   -107.22443    1.4660158   -105.75842   -106.75209    4.2556355    4.2556355    4.2556355   -106.75209   -1802.5458   -17076.495    18558.784   -44186.264   -7516.3166   -5336.9106    77.071406 
   87100    2205.3918   -107.73918    1.9954848    -105.7437    8522.4141    4.2527787    4.2527787    4.2527787    8522.4141    16901.479     29303.07   -20637.306    5628.8543    18829.889    3186.7918    76.916297 
   87200    741.79798   -106.44403    0.6711944   -105.77283   -37415.577      4.25943      4.25943      4.25943   -37415.577   -40780.007   -7144.0796   -64322.645   -14173.529    25899.933   -1037.2862    77.277748 
   87300    2420.9306   -107.93242    2.1905088   -105.74191    12302.396    4.2518186    4.2518186    4.2518186    12302.396    2476.0364   -6730.8915    41162.044   -32452.833   -8234.0035    2364.2653     76.86421 
   87400    849.84985   -106.53667     0.768962    -105.7677   -870.81951    4.2578811    4.2578811    4.2578811   -870.81951    21678.085   -13627.262   -10663.281    28073.054    29422.075   -2572.3098    77.193476 
   87500     2476.016   -107.98771    2.2403513   -105.74736   -12695.567    4.2750618    4.2750618    4.2750618   -12695.567    3298.5129   -33902.364    -7482.851   -3433.6007    2537.0965   -5284.1321    78.131684 
   87600    1924.3208    -107.4868    1.7411659   -105.74564    10942.011    4.2649967    4.2649967    4.2649967    10942.011    20889.373    4083.9254    7852.7335    2862.1892   -4175.2056    4579.4222    77.581128 
   87700    797.81316   -106.47944   0.72187811   -105.75756   -20529.858    4.2543422    4.2543422    4.2543422   -20529.858   -36558.455    15713.756   -40744.875    31928.788    46728.868    6511.4093    77.001157 
   87800    2257.2279    -107.7808    2.0423872   -105.73841    110.98839    4.2478786    4.2478786    4.2478786    110.98839   -9980.3046   -17025.821    27339.091   -36717.754   -17554.898   -397.13676     76.65073 
   87900    1011.7431   -106.68306   0.91544641   -105.76762   -1046.3223    4.2515121    4.2515121    4.2515121   -1046.3223    8552.1079   -1979.0947   -9711.9801   -8332.2796    26703.428    5478.8463    76.847589 
   88000    2489.6992    -107.9979    2.2527321   -105.74517   -10011.721    4.2735447    4.2735447    4.2735447   -10011.721   -18084.555   -18871.437    6920.8275   -850.07442    18596.513    7411.8693    78.048532 
   88100    1453.4043   -107.06505    1.3150708   -105.74998   -22329.738    4.2713781    4.2713781    4.2713781   -22329.738    -45437.57   -59224.709    37673.066   -43893.797   -21563.882   -4467.5379    77.929886 
   88200    2139.6823   -107.66475    1.9360295   -105.72872    18436.061    4.2495169    4.2495169    4.2495169    18436.061    22718.234    17346.974    15242.976     8600.783    21444.601    16720.393    76.739448 
   88300    1840.3831   -107.40904    1.6652173   -105.74382   -12650.515    4.2494937    4.2494937    4.2494937   -12650.515   -64514.074   -19978.024    46540.553   -11741.311   -15018.943    3741.0785    76.738194 
   88400    919.18039   -106.60639   0.83169374   -105.77469   -21449.915    4.2452853    4.2452853    4.2452853   -21449.915   -73719.164    13752.396   -4382.9754   -35097.072    -29558.13   -14230.733    76.510433 
   88500    2379.0915   -107.90837     2.152652   -105.75572    18103.609    4.2567915    4.2567915    4.2567915    18103.609   -21607.836    52155.852     23762.81    19265.372    15419.453      -1650.1    77.134229 
   88600     679.6509   -106.38671   0.61496242   -105.77175   -44105.252    4.2746716    4.2746716    4.2746716   -44105.252   -115606.96   -39483.469    22774.677   -15843.401   -9926.4902    8274.9259    78.110292 
   88700    2335.3061   -107.84116     2.113034   -105.72813    10073.817    4.2610709    4.2610709    4.2610709    10073.817   -12114.691     31496.75    10839.393   -6799.5362   -6722.7311   -10685.997    77.367096 
   88800    1377.7357   -106.99094    1.2466042   -105.74434   -5077.6645     4.249337     4.249337     4.249337   -5077.6645   -52152.391    22742.469    14176.929    7646.4451    57004.008      3932.76    76.729703 
   88900    1758.5708   -107.34583    1.5911918   -105.75464    6197.0381    4.2461622    4.2461622    4.2461622    6197.0381   -33818.924   -15833.395    68243.433    -19343.54   -21011.849    11504.967    76.557852 
   89000    2024.8081   -107.58237    1.8320889   -105.75028    5482.9962     4.252629     4.252629     4.252629    5482.9962   -34967.741    58202.821   -6786.0908    2179.0295    57823.388    13320.017    76.908172 
   89100    1374.5796   -107.00588    1.2437485   -105.76213   -16631.671    4.2670416    4.2670416    4.2670416   -16631.671   -53503.982   -11872.358    15481.327    2263.8925    34492.452    1646.9982    77.692774 
   89200    1870.7737   -107.44585    1.6927154   -105.75313   -16408.566    4.2623455    4.2623455    4.2623455   -16408.566   -26331.427   -31460.426    8566.1542    -5449.692    1809.7249    1660.5375    77.436543 
   89300     1244.023   -106.88715    1.1256181   -105.76153    13662.673    4.2363577    4.2363577    4.2363577    13662.673    806.49723     93915.69   -53734.168   -5765.9669    104453.58   -2134.2737    76.028751 
   89400    2243.8105   -107.78225    2.0302469   -105.75201    37603.573    4.2417751    4.2417751    4.2417751    37603.573    43959.307    3265.6479    65585.764    6297.5994    -25506.66   -11649.862    76.320803 
   89500      745.916   -106.44946   0.67492047   -105.77453   -26570.396    4.2670081    4.2670081    4.2670081   -26570.396   -81706.722     29082.06   -27086.526   -6623.5903    111618.43    6168.1318    77.690944 
   89600     2189.835   -107.72452    1.9814087   -105.74311    1765.1203    4.2696146    4.2696146    4.2696146    1765.1203    -26003.53    10672.928    20625.963    -2015.051    8068.1546   -4130.8552    77.833402 
   89700    1387.3279   -106.99824    1.2552835   -105.74296   -17933.994    4.2664621    4.2664621    4.2664621   -17933.994   -62879.678    15915.571    -6837.876   -3433.9353    43531.887   -5428.2247    77.661126 
   89800    1508.1231   -107.10768    1.3645815    -105.7431   -6788.1282    4.2530849    4.2530849    4.2530849   -6788.1282    -46618.88    52484.807   -26230.312   -4671.9609    85925.478    2393.2291    76.932909 
   89900     2197.577   -107.71925    1.9884138   -105.73083    34893.096    4.2385044    4.2385044    4.2385044    34893.096    50643.239    33878.898    20157.152   -1795.3935   -50034.017   -4427.0764     76.14439 
   90000    1140.1651   -106.80641    1.0316453   -105.77476   -24163.456      4.25308      4.25308      4.25308   -24163.456    -43020.45    44131.217   -73601.135     5234.614    83245.948   -6517.0637    76.932641 
   90100    2718.3702   -108.20817    2.4596385   -105.74853    11038.944    4.2606927    4.2606927    4.2606927    11038.944    27735.515    1940.4044    3440.9129    8774.3525    728.39872    4636.9543    77.346496 
   90200    1280.1256   -106.92965    1.1582846   -105.77136   -2553.0259    4.2587666    4.2587666    4.2587666   -2553.0259    8983.1424    27242.179   -43884.399    99.663661    14971.041    5383.4153    77.241647 
   90300    1615.3493   -107.22716     1.461602   -105.76556   -18818.809    4.2598548    4.2598548    4.2598548   -18818.809   -23069.332    21639.238   -55026.333    1460.4374     54123.22    -12661.05     77.30087 
   90400    2102.2626   -107.65277    1.9021713    -105.7506     8472.153     4.250074     4.250074     4.250074     8472.153    68974.482   -51387.982    7829.9599     141.3925   -20727.591    33364.475    76.769633 
   90500    977.51934   -106.65424   0.88448004   -105.76976   -13481.394    4.2546002    4.2546002    4.2546002   -13481.394    1617.8917      12154.8   -54216.873    2681.0524    47060.518   -3445.8356    77.015166 
   90600    2331.6021   -107.85567    2.1096825   -105.74599   -4526.6098     4.263555     4.263555     4.263555   -4526.6098    22150.327   -32820.937   -2909.2195   -5222.7102   -6709.2088    9948.3209     77.50248 
   90700    1300.6642   -106.93919    1.1768683   -105.76233    -15763.07    4.2582777    4.2582777    4.2582777    -15763.07    50657.621   -69650.038   -28296.793   -9264.1045    14037.312    49998.204    77.215049 
   90800    1803.2458    -107.3972    1.6316147   -105.76558   -3835.4449    4.2478017    4.2478017    4.2478017   -3835.4449   -13823.174    28698.631   -26381.792   -672.99687    74800.964   -19929.715    76.646567 
   90900    2477.9285   -108.00003    2.2420818   -105.75795    11040.781    4.2478905    4.2478905    4.2478905    11040.781    35853.241   -22686.341    19955.442   -4692.2625   -26283.472    41481.189    76.651371 
   91000    1222.5595    -106.8883    1.1061975    -105.7821   -26872.565     4.254162     4.254162     4.254162   -26872.565     12630.03   -17344.118   -75903.606    -5109.836    49825.348    23511.107    76.991372 
   91100    1741.6048   -107.34404    1.5758406    -105.7682    10887.615    4.2527731    4.2527731    4.2527731    10887.615    27287.331    20767.349   -15391.836   -1142.5983    37485.779   -17268.843    76.915992 
   91200     1737.775   -107.33302    1.5723753   -105.76065   -7863.4197    4.2614183    4.2614183    4.2614183   -7863.4197    21440.938    -29904.82   -15126.377   -3286.0677   -27196.048    43941.156    77.386017 
   91300    1132.8918   -106.79228    1.0250643   -105.76721   -21654.084    4.2590579    4.2590579    4.2590579   -21654.084     1696.319    14509.094   -81167.666    -4208.386    90120.843   -5992.0246    77.257498 
   91400    2411.4467   -107.92455    2.1819276   -105.74262    27902.417    4.2449343    4.2449343    4.2449343    27902.417    51087.351    19559.146    13060.755   -4774.4993   -29341.624    2101.1016    76.491453 
   91500    955.07727   -106.63983   0.86417399   -105.77566   -18000.169    4.2483149    4.2483149    4.2483149   -18000.169   -25108.022    37999.084   -66891.569    910.18336    33705.058    30407.641    76.674348 
   91600    1699.7362    -107.3172     1.537957   -105.77924   -15553.191    4.2519612    4.2519612    4.2519612   -15553.191   -33719.369    38368.876   -51309.079    4569.3041    79053.244   -2371.5851    76.871947 
   91700    2251.3503   -107.80106     2.037069   -105.76399    3308.5597    4.2573965    4.2573965    4.2573965    3308.5597    25970.663    2811.3506   -18856.335   -8028.2632   -31418.296   -15095.787    77.167122 
   91800    998.88836   -106.68226   0.90381518   -105.77845   -35071.151    4.2609769    4.2609769    4.2609769   -35071.151   -58468.966    62541.047   -109285.53    3246.8961     84962.73    23594.366    77.361975 
   91900    2567.7139   -108.06768    2.3233215   -105.74435    15852.126    4.2528418    4.2528418    4.2528418    15852.126    44062.472    14825.457   -11331.551   -3807.8389   -687.48471   -18884.659    76.919716 
   92000     1209.338   -106.85961    1.0942345   -105.76537   -4035.6869    4.2522533    4.2522533    4.2522533   -4035.6869    7353.9331     25812.45   -45273.444   -9581.6934    38572.052   -43461.687     76.88779 
   92100     1846.516   -107.42174    1.6707665   -105.75098    7168.4168    4.2577699    4.2577699    4.2577699    7168.4168    -46854.13    76712.336   -8352.9557   -10509.191     34497.08    7773.2202    77.187425 
   92200    1600.0359   -107.19607    1.4477461   -105.74832   -7071.0188    4.2693947    4.2693947    4.2693947   -7071.0188   -1294.0863   -12318.979   -7599.9914     5864.879   -11385.539   -36407.528     77.82138 
   92300     735.9256   -106.42895   0.66588095   -105.76307   -27602.546    4.2693124    4.2693124    4.2693124   -27602.546   -46814.495    27118.205    -63111.35    5649.1276    85000.557   -30618.909    77.816876 
   92400     2801.349   -108.27693    2.5347194   -105.74221    40739.526    4.2412702    4.2412702    4.2412702    40739.526    36259.244    51534.486    34424.848   -14812.273   -19000.232    14402.926    76.293547 
   92500    1174.9026   -106.83683    1.0630765   -105.77375    20570.688    4.2384411    4.2384411    4.2384411    20570.688    10929.282    54176.492   -3393.7116    15091.968    44550.795   -39983.505    76.140978 
   92600    1937.1853    -107.5205    1.7528059   -105.76769   -12341.523    4.2717033    4.2717033    4.2717033   -12341.523   -26583.679    28469.725   -38910.615    -15159.63    29854.395   -11006.687    77.947687 
   92700    1530.1271   -107.11113    1.3844911   -105.72664   -18067.457    4.2892494    4.2892494    4.2892494   -18067.457   -20674.551   -32933.752   -594.06657    4030.9067   -761.96134    1457.6034    78.912155 
   92800    920.90517   -106.53962   0.83325435   -105.70636   -8391.4642    4.2810878    4.2810878    4.2810878   -8391.4642     3042.847    6067.4153   -34284.655    18424.824    63899.138   -23552.726     78.46255 
   92900    2677.3325   -108.11098    2.4225067   -105.68847    10304.982    4.2555601    4.2555601    4.2555601    10304.982    21574.284   -1679.1291    11019.792   -24260.652   -31556.496    16660.381    77.067305 
   93000    1341.0913   -106.94465    1.2134475    -105.7312     11108.05     4.228036     4.228036     4.228036     11108.05     38920.03    16257.664   -21853.543    18518.368    56125.056   -33795.994    75.581592 
   93100    2328.3902   -107.86083    2.1067763   -105.75406    24143.957    4.2366587    4.2366587    4.2366587    24143.957    29655.717    20704.284     22071.87   -20958.943    27545.486    -168.9725    76.044958 
   93200    1467.0156   -107.09356    1.3273865   -105.76617   -11136.701    4.2699908    4.2699908    4.2699908   -11136.701   -16775.054   -18043.397    1408.3494   -32980.241   -18863.959    2607.5432    77.853979 
   93300    1483.8477   -107.08553    1.3426166   -105.74291   -18391.736    4.2809693    4.2809693    4.2809693   -18391.736    -11549.06   -8889.7467   -34736.401     16878.52    51722.046    -25895.14    78.456034 
   93400    1577.0055    -107.1728    1.4269078   -105.74589    19294.119    4.2529474    4.2529474    4.2529474    19294.119   -4351.6363    7377.3452    54856.649   -42364.314   -22016.254    12741.653    76.925446 
   93500    1207.1832   -106.84089    1.0922848   -105.74861    30160.636    4.2299103    4.2299103    4.2299103    30160.636    11640.053    55042.718    23799.137   -9275.1417   -2800.4432     11790.46    75.682154 
   93600    2895.8285   -108.35572    2.6202065   -105.73551    29431.195    4.2428983    4.2428983    4.2428983    29431.195    24076.572    39314.871    24902.142   -3380.7651     14117.32   -6403.5491    76.381443 
   93700    842.75984   -106.54584   0.76254681   -105.78329   -4831.1513    4.2644549    4.2644549    4.2644549   -4831.1513   -26253.587   -14883.297     26643.43   -40752.277   -25077.611    1289.1476    77.551567 
   93800    2385.1318   -107.90832    2.1581174    -105.7502   -4700.1343     4.276701     4.276701     4.276701   -4700.1343   -13639.876    26361.284   -26821.811    5470.5985    -21414.44    9305.3884    78.221593 
   93900    1497.2934   -107.11687    1.3547825   -105.76209   -9597.0781    4.2575547    4.2575547    4.2575547   -9597.0781   -52261.622   -29303.898    52774.286   -31893.597    13886.291    -21213.21    77.175726 
   94000    1136.8977    -106.7793     1.028689   -105.75061    25419.074     4.234699     4.234699     4.234699    25419.074   -5278.4895    3243.9482    78291.764   -24402.794   -29376.137    5034.9307    75.939485 
   94100    2450.9335   -107.95423    2.2176561   -105.73657    13926.852    4.2459374    4.2459374    4.2459374    13926.852   -7885.2095    36144.595     13521.17    -872.9501    8868.6035   -3145.6794    76.545692 
   94200    635.58192   -106.34967   0.57508788   -105.77458   -23460.987    4.2631102    4.2631102    4.2631102   -23460.987   -55959.319    -60947.61    46523.969   -51185.345    29387.633   -21775.458    77.478226 
   94300    2847.6714   -108.30781    2.5766329   -105.73118   -2957.2606     4.271927     4.271927     4.271927   -2957.2606   -2503.7679   -1651.8846   -4716.1294     11872.77   -15022.297    5916.0413    77.959935 
   94400    1124.8157   -106.77983    1.0177569   -105.76207   -38962.462    4.2641877    4.2641877    4.2641877   -38962.462   -24705.718   -52058.016   -40123.653   -27817.772    10009.976     30077.83    77.536991 
   94500     1703.896   -107.29713    1.5417209   -105.75541    11742.105    4.2314828    4.2314828    4.2314828    11742.105    441.17576   -16297.182    51082.321   -60156.878    18460.488   -22898.718    75.766587 
   94600    1979.5974   -107.54597    1.7911813   -105.75479    12978.448    4.2323773    4.2323773    4.2323773    12978.448    19273.052    26636.237   -6973.9427    27364.597    -46776.71    18187.835     75.81465 
   94700    1142.0531   -106.80906    1.0333537   -105.77571    -24989.34    4.2601234    4.2601234    4.2601234    -24989.34   -23512.974   -53816.927    2361.8805   -41072.953    4235.5681    15408.039    77.315494 
   94800     2457.513    -107.9571    2.2236094   -105.73349   -5023.4562    4.2713547    4.2713547    4.2713547   -5023.4562   -20381.682   -98.441577    5409.7547   -8708.1854   -14630.473   -5078.8379    77.928608 
   94900    842.12009   -106.51228   0.76196795   -105.75031   -36135.584    4.2733698    4.2733698    4.2733698   -36135.584   -17060.109   -9154.7261   -82191.917    28232.501   -25726.337    34515.379    78.038953 
   95000    2724.2014   -108.18834    2.4649147   -105.72342    16494.597    4.2501041    4.2501041    4.2501041    16494.597    41145.705   -3596.1843    11934.269   -23942.415    18325.773    6276.2379    76.771268 
   95100    1087.7552   -106.73396   0.98422373   -105.74973    18886.562     4.232413     4.232413     4.232413    18886.562    30067.431    44906.685   -18314.431    16728.023    -47488.51   -18756.966     75.81657 
   95200     1711.044   -107.30803    1.5481886   -105.75985   -10929.382     4.257374     4.257374     4.257374   -10929.382   -6727.7001   -12130.166   -13930.279    22015.382   -4159.4601    10675.427    77.165896 
   95300     2013.672   -107.56303    1.8220127   -105.74102   -8637.8751    4.2675633    4.2675633    4.2675633   -8637.8751   -10817.512   -25612.678    10516.564   -39633.303    -6391.726   -2636.7235    77.721273 
   95400     957.5272   -106.62803   0.86639074   -105.76163   -19118.373    4.2578101    4.2578101    4.2578101   -19118.373   -12929.989    11430.082   -55855.213    21410.154   -51857.095   -10532.667    77.189614 
   95500    2421.8268   -107.93137    2.1913198   -105.74005    5284.1701     4.247266     4.247266     4.247266    5284.1701    9454.1502   -17566.091    23964.451   -19248.729    15128.942    9356.2007    76.617574 
   95600    1101.5719   -106.76783   0.99672538   -105.77111   -2466.1833    4.2374542    4.2374542    4.2374542   -2466.1833   -5815.4736    3462.1989   -5045.2752   -53207.445   -27844.195   -10488.503    76.087803 
   95700    2190.8839    -107.7513    1.9823578   -105.76894    8157.2141    4.2521468    4.2521468    4.2521468    8157.2141    15518.839    58814.102   -49861.298    22361.122   -34141.435   -5092.0774    76.882014 
   95800    1847.6396   -107.42687    1.6717831   -105.75509    -25253.72    4.2709109    4.2709109    4.2709109    -25253.72   -44168.599   -38927.132    7334.5716    -47154.44    15963.293     3973.935     77.90432 
   95900    1030.2712   -106.68721   0.93221106     -105.755    140.04299    4.2594198    4.2594198    4.2594198    140.04299   -8286.5471    35323.157   -26616.481   -23690.673   -43907.414   -2425.5265    77.277191 
   96000    2332.0919   -107.84044    2.1101258   -105.73031    14906.346    4.2429678    4.2429678    4.2429678    14906.346   -15919.525    36700.775     23937.79     17476.91    2456.3661    21.821501    76.385199 
   96100    792.55212   -106.48589   0.71711781   -105.76877   -20594.304    4.2421794    4.2421794    4.2421794   -20594.304   -60211.645   -38422.337     36851.07   -33850.181    -4642.943    -1107.579    76.342626 
   96200    2660.0635   -108.16364    2.4068814   -105.75675    15176.929    4.2460819    4.2460819    4.2460819    15176.929   -910.55691    57864.948   -11423.603   -9439.9192   -24934.757    10047.832     76.55351 
   96300    1481.5791   -107.11867    1.3405639    -105.7781   -8677.6236    4.2586125    4.2586125    4.2586125   -8677.6236   -55019.074   -2914.3575     31900.56    11473.828    10873.729   -4831.4196    77.233262 
   96400    1261.8939   -106.91651    1.1417881   -105.77472   -33319.914    4.2640723    4.2640723    4.2640723   -33319.914   -95484.089   -28556.035    24080.382   -32264.282    8384.4383   -65.995161    77.530694 
   96500    2425.0623   -107.94207    2.1942474   -105.74782    25530.497    4.2455074    4.2455074    4.2455074    25530.497    15949.166    53815.892     6826.433    6759.8402   -4714.1401    10551.921    76.522441 
   96600     724.1858   -106.43074   0.65525853   -105.77548    -5592.633     4.240208     4.240208     4.240208    -5592.633   -67057.832   -24624.212    74904.145   -4622.8571    16036.978   -5215.0447    76.236242 
   96700    2045.2281   -107.60515    1.8505653   -105.75458    -6602.026    4.2526279    4.2526279    4.2526279    -6602.026   -54002.026   -12761.013    46956.961   -8476.9129   -438.32057    2637.7386    76.908111 
   96800    1498.0655   -107.11751    1.3554811   -105.76202    -13995.97    4.2569534    4.2569534    4.2569534    -13995.97   -23604.696   -7523.6919   -10859.522   -176.76229   -29734.235    2246.7119    77.143028 
   96900    2005.8124   -107.57258    1.8149012   -105.75768    153.27879    4.2537725    4.2537725    4.2537725    153.27879    -44313.45   -38300.424     83073.71   -3858.2006    4737.4201    2976.7934    76.970227 
   97000    1935.4513   -107.50179     1.751237   -105.75055   -5238.4474    4.2515956    4.2515956    4.2515956   -5238.4474    3934.9828   -11949.232   -7701.0929    3295.3745    6603.4168   -8918.6168    76.852117 
   97100     1592.867   -107.19534    1.4412596   -105.75408   -1631.6384    4.2482388    4.2482388    4.2482388   -1631.6384   -1311.0418   -18735.045    15151.172    3208.4216   -5278.0817    4415.9321     76.67023 
   97200     1702.021   -107.28884    1.5400244   -105.74882   -5040.3294      4.25304      4.25304      4.25304   -5040.3294   -30663.987   -12400.413    27943.412    6257.1641    12925.949   -2382.4775    76.930475 
   97300    1191.8761   -106.83276    1.0784345   -105.75432   -22107.122    4.2558027    4.2558027    4.2558027   -22107.122    3323.9396   -21567.807   -48077.498   -2549.7793    17274.057   -33317.781    77.080488 
   97400    1882.4725    -107.4468    1.7033007    -105.7435     2142.749    4.2520483    4.2520483    4.2520483     2142.749   -36128.998   -13350.684    55907.929    3357.6308   -5523.3864    7608.9098    76.876668 
   97500    1661.3099   -107.25677    1.5031881   -105.75358   -11120.651    4.2527798    4.2527798    4.2527798   -11120.651    -12598.69    7997.0348   -28760.296    5104.6495     10912.49   -21294.156    76.916356 
   97600    2263.3225   -107.79433    2.0479018   -105.74642    4245.3674       4.2514       4.2514       4.2514    4245.3674    34076.666   -13217.395   -8123.1695   -8068.0281    13558.834   -29588.201    76.841514 
   97700    1588.4442   -107.19313    1.4372577   -105.75587   -11621.441    4.2517906    4.2517906    4.2517906   -11621.441   -61302.581     -7484.92    33923.177    14325.992   -24229.907     5214.832    76.862694 
   97800    1905.5104   -107.47472    1.7241459   -105.75058   -2784.3791    4.2511285    4.2511285    4.2511285   -2784.3791    23881.564    8083.0021   -40317.704    556.61485   -2646.2227   -16046.381    76.826791 
   97900     1500.782   -107.10799    1.3579391   -105.75005   -14352.554    4.2521179    4.2521179    4.2521179   -14352.554   -49831.713   -7697.8935    14471.943    7509.2278    4818.6044   -11475.908    76.880445 
   98000    1287.3094   -106.92226    1.1647846   -105.75748   -21517.771    4.2568314    4.2568314    4.2568314   -21517.771   -91035.231    17092.534     9389.383    9523.8864   -21533.247    1387.8148    77.136398 
   98100    1968.4604   -107.52535    1.7811044   -105.74424   -11630.909    4.2535056    4.2535056    4.2535056   -11630.909    19178.294   -4492.8039   -49578.219   -4816.9178    2349.4015    5370.4716    76.955743 
   98200    1369.2893   -106.99864    1.2389617   -105.75968    -4192.226    4.2445066    4.2445066    4.2445066    -4192.226   -45412.578    4995.7858    27840.114    22614.895    15249.295   -4884.1318    76.468334 
   98300    2584.5898   -108.08422    2.3385912   -105.74563    14728.384    4.2480389    4.2480389    4.2480389    14728.384    19421.159   -1587.0083    26351.001   -297.82216    4488.5428    17612.296    76.659409 
   98400    1217.4749   -106.87302    1.1015968   -105.77142   -13836.376    4.2524353    4.2524353    4.2524353   -13836.376    45176.715   -50006.748   -36679.096   -295.43322   -6864.6326    27409.486    76.897665 
   98500    2378.3415   -107.90401    2.1519734   -105.75203    28814.705    4.2521579    4.2521579    4.2521579    28814.705   -5076.3672     7162.273    84358.209    17152.597    5799.8868   -20945.184    76.882618 
   98600     1202.701   -106.85531    1.0882292   -105.76708   -1549.3022    4.2562149    4.2562149    4.2562149   -1549.3022    36644.864    -31283.01   -10009.761     -8012.05   -2462.7282    45434.863    77.102887 
   98700    1345.5077   -106.97905    1.2174437   -105.76161    1541.1762    4.2527436    4.2527436    4.2527436    1541.1762    19363.449   -25116.037    10376.117    4894.8616   -4327.4492   -3682.4645    76.914389 
   98800    2273.7912   -107.79853     2.057374   -105.74115   -525.40024    4.2541261    4.2541261    4.2541261   -525.40024   -26080.157    19999.959    4503.9975   -1727.1393    17313.266    9838.8419    76.989427 
   98900    840.79297   -106.53323   0.76076715   -105.77247   -25907.407     4.251231     4.251231     4.251231   -25907.407     11394.05   -21166.764   -67949.508   -15133.994   -6058.9189    51100.355     76.83235 
   99000    2863.1011   -108.33471    2.5905941   -105.74412    26151.885    4.2469997    4.2469997    4.2469997    26151.885    34417.346    8617.9198    35420.389    1474.0477   -5483.8876    -22823.43    76.603162 
   99100     756.6341   -106.46141   0.68461844   -105.77679   -32865.837    4.2571504    4.2571504    4.2571504   -32865.837    33299.617   -39932.546   -91964.581    7144.2419     33915.25    59126.926    77.153741 
   99200     1672.941   -107.27214    1.5137122   -105.75843   -12953.541    4.2575607    4.2575607    4.2575607   -12953.541    21461.035   -28641.374   -31680.285   -4618.5195   -21420.204    28723.981    77.176049 
   99300    1855.0718   -107.42873     1.678508   -105.75023    11023.997    4.2512262    4.2512262    4.2512262    11023.997    59706.024   -11883.019   -14751.015    5161.5477    7886.8828   -19228.819    76.832091 
   99400    887.21336   -106.57717   0.80276929    -105.7744   -23285.116    4.2503325    4.2503325    4.2503325   -23285.116    42586.155   -36718.274   -75723.228    1885.3614    34156.405    79282.849    76.783642 
   99500    2969.4719   -108.42713    2.6868406   -105.74029    19603.624    4.2500644    4.2500644    4.2500644    19603.624    19361.688    1042.5758    38406.609   -543.39343   -17156.541   -24006.607    76.769116 
   99600    1205.9404   -106.86199    1.0911602   -105.77083   -20082.206    4.2527924    4.2527924    4.2527924   -20082.206    36474.616   -49700.139   -47021.093   -3647.9641    10235.844    10060.048    76.917036 
   99700      2163.39   -107.70967    1.9574807   -105.75219   -2987.9914    4.2554471    4.2554471    4.2554471   -2987.9914    21972.725   -30016.405   -920.29398    5560.9757    12082.525    45123.615    77.061167 
   99800    1242.2617   -106.87817    1.1240245   -105.75415   -9061.0659    4.2566305    4.2566305    4.2566305   -9061.0659    24656.961   -33644.907   -18195.252   -2572.1013   -30132.177   -45304.643    77.125476 
   99900    1173.3771    -106.8118    1.0616963    -105.7501   -3552.8175    4.2518063    4.2518063    4.2518063   -3552.8175    48631.371   -49202.997   -10086.827   -8881.1812    16836.514    32967.622    76.863547 
  100000    2318.6163   -107.83377    2.0979328   -105.73584     11269.26    4.2516849    4.2516849    4.2516849     11269.26    8086.1741   -1609.3732    27330.978    14020.755   -26207.738   -3247.7288    76.856963 
Loop time of 22.8053 on 1 procs for 100000 steps with 8 atoms

Pair  time (%) = 7.40233 (32.4589)
Kspce time (%) = 5.3089 (23.2793)
Neigh time (%) = 0.235851 (1.0342)
Comm  time (%) = 1.15758 (5.07593)
Outpt time (%) = 0.024101 (0.105682)
Other time (%) = 8.6765 (38.046)

Nlocal:    8 ave 8 max 8 min
Histogram: 1 0 0 0 0 0 0 0 0 0
Nghost:    2189 ave 2189 max 2189 min
Histogram: 1 0 0 0 0 0 0 0 0 0
Neighs:    2358 ave 2358 max 2358 min
Histogram: 1 0 0 0 0 0 0 0 0 0

Total # of neighbors = 2358
Ave neighs/atom = 294.75
Neighbor list builds = 2539
Dangerous builds = 0
unfix 20
unfix 21
print "seeds:6581221"
seeds:6581221
