LAMMPS (16 Mar 2018)
include init.mod
# ---- init.mod file
variable up equal 1.0e-6
units metal
dimension 3
boundary p p p
atom_style charge
atom_modify map array
variable cfac equal 1.0e-4
variable cunits string GPa
# ---- define minimization parameters
variable etol equal 0.0
variable ftol equal 1.0e-10
variable maxiter equal 100
variable maxeval equal 1000
variable dmax equal 1.0e-2
# --- read data structure
read_data lammps.structure
  triclinic box = (0 0 0) to (4.2565 4.2565 4.2565) with tilt (0 0 0)
  1 by 1 by 1 MPI processor grid
  reading atoms ...
  8 atoms
include potential.mod
mass 1 24.305
mass 2 15.999

group Mg type 1
4 atoms in group Mg
group O type 2
4 atoms in group O

set group Mg charge 2.1466418992637664
  4 settings made for charge
set group O charge -2.1466418992637664
  4 settings made for charge

variable R_cut equal 10.0

pair_style buck/coul/long ${R_cut}
pair_style buck/coul/long 10
pair_coeff 1 1 0.0 0.5 0.0 ${R_cut}
pair_coeff 1 1 0.0 0.5 0.0 10
pair_coeff 1 2 1089.4134673757053 0.31058320000297174 0.0 ${R_cut}
pair_coeff 1 2 1089.4134673757053 0.31058320000297174 0.0 10
pair_coeff 2 2 18983.219085212437 0.12673144022038657 73.4670102644071 ${R_cut}
pair_coeff 2 2 18983.219085212437 0.12673144022038657 73.4670102644071 10

kspace_style pppm 1.0e-5

neighbor 1.0 bin
neigh_modify every 1 delay 0 check yes
thermo	1
thermo_style custom step temp pe press pxx pyy pzz pxy pxz pyz lx ly lz vol
thermo_modify norm no
# ---- Compute initial state
fix 3 all box/relax aniso 0.0
minimize ${etol} ${ftol} ${maxiter} ${maxeval}
minimize 0 ${ftol} ${maxiter} ${maxeval}
minimize 0 1e-10 ${maxiter} ${maxeval}
minimize 0 1e-10 100 ${maxeval}
minimize 0 1e-10 100 1000
PPPM initialization ...
  using 12-bit tables for long-range coulomb (../kspace.cpp:321)
  G vector (1/distance) = 0.355393
  grid = 8 8 8
  stencil order = 5
  estimated absolute RMS force accuracy = 6.05178e-05
  estimated relative force accuracy = 4.20273e-06
  using double precision FFTs
  3d grid and FFT values/proc = 3375 512
Neighbor list info ...
  update every 1 steps, delay 0 steps, check yes
  max neighbors/atom: 2000, page size: 100000
  master list distance cutoff = 11
  ghost atom cutoff = 11
  binsize = 5.5, bins = 1 1 1
  1 neighbor lists, perpetual/occasional/extra = 1 0 0
  (1) pair buck/coul/long, perpetual
      attributes: half, newton on
      pair build: half/bin/newton/tri
      stencil: half/bin/3d/newton/tri
      bin: standard
Per MPI rank memory allocation (min/avg/max) = 4.629 | 4.629 | 4.629 Mbytes
Step Temp PotEng Press Pxx Pyy Pzz Pxy Pxz Pyz Lx Ly Lz Volume 
       0            0   -192.86772   -292859.21   -292859.21   -292859.21   -292859.21 1.4025462e-10 4.3142884e-11 -3.6263892e-10       4.2565       4.2565       4.2565    77.118383 
       1            0   -192.87192   -292374.25   -292374.25   -292374.25   -292374.25 -2.7630037e-10 8.8498323e-11 1.8517751e-10    4.2560743    4.2560743    4.2560743     77.09525 
       2            0   -192.87612   -291889.34   -291889.34   -291889.34   -291889.34 -1.472395e-10 -4.6339905e-10 -2.9571693e-10    4.2556487    4.2556487    4.2556487    77.072121 
       3            0   -192.88032   -291404.62   -291404.62   -291404.62   -291404.62 -2.2040728e-11 -2.9376365e-11 -6.2679536e-11     4.255223     4.255223     4.255223    77.048997 
       4            0    -192.8845   -290918.43   -290918.43   -290918.43   -290918.43 1.314893e-10 2.8777689e-11 3.0246103e-10    4.2547974    4.2547974    4.2547974    77.025878 
       5            0   -192.88871   -290431.78   -290431.78   -290431.78   -290431.78 1.7765748e-10 -9.4348152e-11 2.0261108e-11    4.2543717    4.2543717    4.2543717    77.002763 
       6            0   -192.89297   -289946.27   -289946.27   -289946.27   -289946.27 1.1965397e-10 1.779785e-10 -1.8030011e-10    4.2539461    4.2539461    4.2539461    76.979653 
       7            0   -192.89716   -289458.83   -289458.83   -289458.83   -289458.83 2.6391864e-10 1.1423079e-11 -2.3971834e-10    4.2535204    4.2535204    4.2535204    76.956547 
       8            0   -192.90132   -288969.36   -288969.36   -288969.36   -288969.36 -1.0632734e-10 -1.5599586e-10 3.4004368e-10    4.2530948    4.2530948    4.2530948    76.933447 
       9            0   -192.90544   -288478.89   -288478.89   -288478.89   -288478.89  1.88117e-10 -2.5799188e-10 -3.1567408e-10    4.2526691    4.2526691    4.2526691     76.91035 
      10            0   -192.90956   -287987.87   -287987.87   -287987.87   -287987.87 -4.0118589e-11 -7.3251542e-11 -1.580893e-10    4.2522435    4.2522435    4.2522435    76.887259 
      11            0   -192.91369    -287496.3    -287496.3    -287496.3    -287496.3 -2.4964015e-11 -2.7007359e-10 -7.1419187e-10    4.2518178    4.2518178    4.2518178    76.864172 
      12            0   -192.91782   -287004.49   -287004.49   -287004.49   -287004.49 -5.5882023e-11 2.2905301e-10 2.2400174e-10    4.2513922    4.2513922    4.2513922     76.84109 
      13            0     -192.922   -286513.92   -286513.92   -286513.92   -286513.92 1.0813025e-10 2.4871843e-11 -5.6295507e-11    4.2509665    4.2509665    4.2509665    76.818012 
      14            0   -192.92618   -286022.72   -286022.72   -286022.72   -286022.72 -3.8511801e-10 -3.0762186e-11 6.810548e-11    4.2505409    4.2505409    4.2505409    76.794939 
      15            0   -192.93034   -285530.82   -285530.82   -285530.82   -285530.82 2.3134908e-10 1.5935109e-10 -2.5035773e-10    4.2501152    4.2501152    4.2501152     76.77187 
      16            0   -192.93442   -285035.26   -285035.26   -285035.26   -285035.26 -1.8777526e-10 -4.0167434e-10 -9.9174132e-11    4.2496896    4.2496896    4.2496896    76.748806 
      17            0   -192.93846   -284537.84   -284537.84   -284537.84   -284537.84 -1.7601932e-10 -3.4178039e-10 1.7557445e-11    4.2492639    4.2492639    4.2492639    76.725747 
      18            0    -192.9425   -284040.89   -284040.89   -284040.89   -284040.89 2.9078421e-11 3.968994e-10 4.5529177e-10    4.2488383    4.2488383    4.2488383    76.702693 
      19            0   -192.94657   -283543.91   -283543.91   -283543.91   -283543.91 -1.1865268e-10 6.3182083e-11 9.7431762e-12    4.2484126    4.2484126    4.2484126    76.679643 
      20            0   -192.95067   -283047.87   -283047.87   -283047.87   -283047.87 -2.3748448e-10 -5.7877254e-11 -3.1298869e-10     4.247987     4.247987     4.247987    76.656597 
      21            0   -192.95477   -282551.46   -282551.46   -282551.46   -282551.46 2.2420378e-10 3.9599461e-10 4.0336484e-10    4.2475613    4.2475613    4.2475613    76.633556 
      22            0   -192.95887   -282053.76   -282053.76   -282053.76   -282053.76 -8.5002223e-11 -2.0272504e-10 3.7624398e-10    4.2471357    4.2471357    4.2471357     76.61052 
      23            0   -192.96293   -281554.72   -281554.72   -281554.72   -281554.72 -1.9232141e-10 2.5701081e-10 2.5128917e-10      4.24671      4.24671      4.24671    76.587489 
      24            0   -192.96701   -281055.18   -281055.18   -281055.18   -281055.18 -3.0957859e-10 1.347165e-10 -4.9274046e-11    4.2462844    4.2462844    4.2462844    76.564462 
      25            0   -192.97097   -280551.95   -280551.95   -280551.95   -280551.95 5.6706022e-11 7.4291025e-12 5.5700091e-10    4.2458587    4.2458587    4.2458587     76.54144 
      26            0   -192.97494   -280049.48   -280049.48   -280049.48   -280049.48 1.3563052e-11 -4.0031122e-10 -4.5857283e-11    4.2454331    4.2454331    4.2454331    76.518422 
      27            0   -192.97898   -279548.22   -279548.22   -279548.22   -279548.22 7.6651979e-12 5.7666677e-10 4.4274608e-10    4.2450074    4.2450074    4.2450074    76.495409 
      28            0   -192.98301   -279045.48   -279045.48   -279045.48   -279045.48 3.5451851e-11 1.1679548e-10 -2.3691918e-12    4.2445818    4.2445818    4.2445818      76.4724 
      29            0   -192.98705   -278542.43   -278542.43   -278542.43   -278542.43 1.4420506e-10 4.3879722e-10 3.8402862e-10    4.2441561    4.2441561    4.2441561    76.449397 
      30            0   -192.99105   -278038.19   -278038.19   -278038.19   -278038.19 1.3939852e-10 1.5150816e-10 -1.1400672e-10    4.2437305    4.2437305    4.2437305    76.426397 
      31            0   -192.99506   -277533.61   -277533.61   -277533.61   -277533.61 2.9601736e-10 1.6026583e-10 -6.4803181e-11    4.2433048    4.2433048    4.2433048    76.403403 
      32            0   -192.99902   -277027.66   -277027.66   -277027.66   -277027.66 -3.5971563e-10 -2.5201415e-10 -1.6394516e-10    4.2428792    4.2428792    4.2428792    76.380413 
      33            0     -193.003   -276521.31   -276521.31   -276521.31   -276521.31 2.8855356e-11 -3.8364148e-11 -2.3127737e-10    4.2424535    4.2424535    4.2424535    76.357427 
      34            0   -193.00696   -276014.02   -276014.02   -276014.02   -276014.02 3.2115053e-10 -2.5162118e-11 3.0957899e-10    4.2420279    4.2420279    4.2420279    76.334447 
      35            0   -193.01091   -275506.06   -275506.06   -275506.06   -275506.06 -2.1880812e-11 -4.2431595e-11 -5.7515209e-11    4.2416022    4.2416022    4.2416022     76.31147 
      36            0   -193.01485   -274997.31   -274997.31   -274997.31   -274997.31 5.0372006e-11 -1.5611246e-11 8.6772574e-11    4.2411766    4.2411766    4.2411766    76.288499 
      37            0   -193.01877   -274487.58   -274487.58   -274487.58   -274487.58 -2.5006627e-10 -4.9253363e-10 2.4438061e-10    4.2407509    4.2407509    4.2407509    76.265532 
      38            0   -193.02266   -273976.89   -273976.89   -273976.89   -273976.89 7.7023512e-11 -1.0393469e-10 -1.8564224e-10    4.2403253    4.2403253    4.2403253     76.24257 
      39            0   -193.02659    -273465.7    -273465.7    -273465.7    -273465.7 -2.2048768e-10 2.6372696e-10 -1.9680185e-10    4.2398996    4.2398996    4.2398996    76.219612 
      40            0   -193.03052   -272954.66   -272954.66   -272954.66   -272954.66 -9.1412233e-11 -1.132883e-10 -2.0461281e-10     4.239474     4.239474     4.239474    76.196659 
      41            0   -193.03449    -272444.5    -272444.5    -272444.5    -272444.5 -1.0411923e-11 7.2319437e-11 -2.7855578e-10    4.2390483    4.2390483    4.2390483     76.17371 
      42            0   -193.03841   -271932.31   -271932.31   -271932.31   -271932.31 3.2181938e-10 -9.4769312e-11 -3.2526585e-10    4.2386227    4.2386227    4.2386227    76.150766 
      43            0   -193.04226   -271417.86   -271417.86   -271417.86   -271417.86 -4.7697711e-11 2.7051471e-10 4.1441715e-10     4.238197     4.238197     4.238197    76.127827 
      44            0   -193.04611   -270902.63   -270902.63   -270902.63   -270902.63 -3.1636393e-10 -1.6529761e-10 -2.5828893e-10    4.2377714    4.2377714    4.2377714    76.104893 
      45            0   -193.04995    -270386.1    -270386.1    -270386.1    -270386.1 -3.6805914e-10 -2.8569836e-10 6.9092288e-10    4.2373457    4.2373457    4.2373457    76.081962 
      46            0   -193.05378   -269869.01   -269869.01   -269869.01   -269869.01 -3.9116804e-10 -3.6081525e-11 -1.7588387e-10    4.2369201    4.2369201    4.2369201    76.059037 
      47            0   -193.05767   -269352.83   -269352.83   -269352.83   -269352.83 9.9033538e-11 -3.6565083e-11 -1.8507338e-10    4.2364944    4.2364944    4.2364944    76.036116 
      48            0   -193.06154   -268836.24   -268836.24   -268836.24   -268836.24 4.4204234e-11 2.6441957e-10 1.6270958e-10    4.2360688    4.2360688    4.2360688      76.0132 
      49            0   -193.06546   -268321.02   -268321.02   -268321.02   -268321.02 1.0078313e-10 1.1954546e-11 1.9528854e-10    4.2356431    4.2356431    4.2356431    75.990288 
      50            0   -193.06934   -267803.94   -267803.94   -267803.94   -267803.94 3.7186113e-11 4.8386107e-10 -7.7169902e-11    4.2352175    4.2352175    4.2352175    75.967381 
      51            0   -193.07311   -267282.54   -267282.54   -267282.54   -267282.54 -2.75421e-10 -7.2724063e-11 -3.3104134e-10    4.2347918    4.2347918    4.2347918    75.944479 
      52            0   -193.07688   -266760.86   -266760.86   -266760.86   -266760.86 3.8820439e-11 1.8700197e-10 -2.901237e-11    4.2343662    4.2343662    4.2343662    75.921581 
      53            0   -193.08063   -266238.17   -266238.17   -266238.17   -266238.17 6.8865815e-11 -2.9631276e-10 4.8004721e-11    4.2339405    4.2339405    4.2339405    75.898688 
      54            0   -193.08441   -265716.06   -265716.06   -265716.06   -265716.06 -1.8180893e-10 2.5275178e-10 -3.457306e-10    4.2335149    4.2335149    4.2335149    75.875799 
      55            0   -193.08823   -265194.63   -265194.63   -265194.63   -265194.63 -2.1346755e-10 9.0171976e-11 -4.3412863e-10    4.2330892    4.2330892    4.2330892    75.852915 
      56            0   -193.09205   -264672.52   -264672.52   -264672.52   -264672.52 -1.1253125e-10 1.8128242e-11 -3.0142202e-10    4.2326636    4.2326636    4.2326636    75.830036 
      57            0   -193.09586   -264149.62   -264149.62   -264149.62   -264149.62 -1.0531553e-11 1.4451197e-10 -1.0229941e-10    4.2322379    4.2322379    4.2322379    75.807161 
      58            0   -193.09964   -263625.73   -263625.73   -263625.73   -263625.73 -1.7205347e-10 1.345643e-10 -1.1726053e-11    4.2318123    4.2318123    4.2318123    75.784291 
      59            0   -193.10339    -263100.1    -263100.1    -263100.1    -263100.1 -3.7309682e-11 -1.9762516e-10 -7.5301781e-11    4.2313866    4.2313866    4.2313866    75.761425 
      60            0   -193.10706   -262572.05   -262572.05   -262572.05   -262572.05 8.6991402e-11 2.3931016e-10 -1.8895657e-11     4.230961     4.230961     4.230961    75.738564 
      61            0   -193.11078    -262044.7    -262044.7    -262044.7    -262044.7 -4.3334333e-11 1.9526661e-10 -9.488426e-11    4.2305353    4.2305353    4.2305353    75.715708 
      62            0   -193.11451    -261516.9    -261516.9    -261516.9    -261516.9 -7.6718838e-11 1.0080882e-10 2.0004434e-10    4.2301097    4.2301097    4.2301097    75.692856 
      63            0   -193.11825    -260987.9    -260987.9    -260987.9    -260987.9 -7.4380272e-12 -6.7233903e-11 6.9862685e-11     4.229684     4.229684     4.229684    75.670008 
      64            0     -193.122   -260459.26   -260459.26   -260459.26   -260459.26 -9.031623e-11 -1.5954842e-10 3.0518195e-10    4.2292584    4.2292584    4.2292584    75.647166 
      65            0   -193.12571   -259929.88   -259929.88   -259929.88   -259929.88 9.1744073e-11 -2.8016474e-10 -4.5129207e-10    4.2288327    4.2288327    4.2288327    75.624328 
      66            0   -193.12941   -259400.23   -259400.23   -259400.23   -259400.23 9.6504582e-11 -3.9603092e-10 -4.1226205e-10    4.2284071    4.2284071    4.2284071    75.601494 
      67            0   -193.13311   -258869.76   -258869.76   -258869.76   -258869.76 -1.9323352e-10 6.1655131e-11 -7.8174809e-10    4.2279814    4.2279814    4.2279814    75.578666 
      68            0   -193.13679   -258337.21   -258337.21   -258337.21   -258337.21 -1.5018889e-10 3.6827111e-11 -2.0222652e-10    4.2275558    4.2275558    4.2275558    75.555841 
      69            0   -193.14047   -257803.54   -257803.54   -257803.54   -257803.54 -1.5903777e-10 -3.1986793e-10 2.527836e-10    4.2271301    4.2271301    4.2271301    75.533022 
      70            0   -193.14411   -257268.86   -257268.86   -257268.86   -257268.86 -2.4477658e-10 6.6988001e-11 2.3015485e-10    4.2267045    4.2267045    4.2267045    75.510207 
      71            0   -193.14778   -256734.37   -256734.37   -256734.37   -256734.37 -5.6578854e-11 5.9127924e-11 4.7016648e-11    4.2262788    4.2262788    4.2262788    75.487396 
      72            0   -193.15144   -256200.14   -256200.14   -256200.14   -256200.14 -1.3534309e-11 -5.2761267e-12 -2.3262761e-10    4.2258532    4.2258532    4.2258532     75.46459 
      73            0   -193.15507   -255664.81   -255664.81   -255664.81   -255664.81 2.1729371e-10 -3.9895382e-11 -1.0072164e-10    4.2254275    4.2254275    4.2254275    75.441789 
      74            0   -193.15869    -255127.6    -255127.6    -255127.6    -255127.6 -9.7325869e-11 -1.6152361e-11 3.0381743e-10    4.2250019    4.2250019    4.2250019    75.418992 
      75            0   -193.16239   -254592.11   -254592.11   -254592.11   -254592.11 -2.8037767e-11 -7.0270716e-11 5.1553959e-10    4.2245762    4.2245762    4.2245762      75.3962 
      76            0   -193.16607   -254055.89   -254055.89   -254055.89   -254055.89 -2.1242284e-10 -1.2848102e-10 7.7682409e-11    4.2241506    4.2241506    4.2241506    75.373413 
      77            0   -193.16965   -253516.02   -253516.02   -253516.02   -253516.02 -5.9093502e-11 -3.028122e-10 -3.6798138e-10    4.2237249    4.2237249    4.2237249     75.35063 
      78            0    -193.1732   -252975.09   -252975.09   -252975.09   -252975.09 2.6755826e-11 -1.9600779e-10 -1.0192367e-10    4.2232993    4.2232993    4.2232993    75.327852 
      79            0   -193.17677   -252433.92   -252433.92   -252433.92   -252433.92 1.1852964e-11 -4.3814653e-10 -7.5698159e-10    4.2228736    4.2228736    4.2228736    75.305078 
      80            0   -193.18031   -251891.63   -251891.63   -251891.63   -251891.63 -1.4409503e-10 9.3841791e-11 1.2171193e-11     4.222448     4.222448     4.222448    75.282309 
      81            0   -193.18385    -251348.6    -251348.6    -251348.6    -251348.6 -7.6926872e-12 -6.8811509e-11 3.2840212e-10    4.2220223    4.2220223    4.2220223    75.259544 
      82            0   -193.18747   -250807.69   -250807.69   -250807.69   -250807.69 -4.7992556e-10 -2.5701488e-10 -2.3419289e-10    4.2215967    4.2215967    4.2215967    75.236784 
      83            0   -193.19107   -250265.83   -250265.83   -250265.83   -250265.83 1.4608686e-10 1.4551641e-10 3.7111144e-10     4.221171     4.221171     4.221171    75.214029 
      84            0   -193.19468   -249723.77   -249723.77   -249723.77   -249723.77 -3.0733406e-10 -5.4065612e-11 3.7714664e-10    4.2207454    4.2207454    4.2207454    75.191278 
      85            0   -193.19821   -249179.03   -249179.03   -249179.03   -249179.03 1.4753321e-10 2.0244226e-10 4.5065742e-11    4.2203197    4.2203197    4.2203197    75.168532 
      86            0   -193.20172   -248631.61   -248631.61   -248631.61   -248631.61 -1.7764145e-10 -1.6706341e-10 1.0280372e-10    4.2198941    4.2198941    4.2198941     75.14579 
      87            0   -193.20517   -248083.18   -248083.18   -248083.18   -248083.18 -8.6245009e-11 -2.5602025e-10 -4.0370695e-10    4.2194684    4.2194684    4.2194684    75.123053 
      88            0   -193.20864   -247534.82   -247534.82   -247534.82   -247534.82 -2.5940088e-10 -2.1120673e-10 5.9705858e-10    4.2190428    4.2190428    4.2190428    75.100321 
      89            0   -193.21218   -246988.12   -246988.12   -246988.12   -246988.12 2.4138465e-11 1.1401857e-10 1.531292e-10    4.2186171    4.2186171    4.2186171    75.077593 
      90            0   -193.21573   -246441.34   -246441.34   -246441.34   -246441.34 -3.0261666e-12 8.5077343e-12 -5.1299135e-11    4.2181915    4.2181915    4.2181915     75.05487 
      91            0   -193.21925    -245892.7    -245892.7    -245892.7    -245892.7 -3.3446749e-10 -1.0946199e-10 -3.4151471e-11    4.2177658    4.2177658    4.2177658    75.032151 
      92            0   -193.22278   -245343.57   -245343.57   -245343.57   -245343.57 -2.1284879e-10 -1.4857756e-10 9.4143206e-11    4.2173402    4.2173402    4.2173402    75.009437 
      93            0   -193.22625    -244792.7    -244792.7    -244792.7    -244792.7 4.3465172e-11 2.0757236e-10 4.9088808e-10    4.2169145    4.2169145    4.2169145    74.986728 
      94            0   -193.22966   -244239.05   -244239.05   -244239.05   -244239.05 -1.6536464e-10 -2.1805913e-10 3.8748924e-11    4.2164889    4.2164889    4.2164889    74.964023 
      95            0   -193.23305   -243684.71   -243684.71   -243684.71   -243684.71 -6.6266683e-11 -8.5576078e-12 2.6832588e-11    4.2160632    4.2160632    4.2160632    74.941322 
      96            0   -193.23652   -243132.44   -243132.44   -243132.44   -243132.44 -5.6282012e-11 1.2709527e-10 -1.4542753e-10    4.2156376    4.2156376    4.2156376    74.918627 
      97            0   -193.23997   -242578.63   -242578.63   -242578.63   -242578.63 -6.0705454e-11 -1.4265357e-10 7.9941476e-12    4.2152119    4.2152119    4.2152119    74.895936 
      98            0   -193.24344    -242024.2    -242024.2    -242024.2    -242024.2 1.9333635e-10 8.0845281e-11 1.6325671e-10    4.2147863    4.2147863    4.2147863    74.873249 
      99            0   -193.24687   -241468.68   -241468.68   -241468.68   -241468.68 -1.191723e-10 3.0921767e-10 4.905429e-11    4.2143606    4.2143606    4.2143606    74.850567 
     100            0   -193.25028   -240912.41   -240912.41   -240912.41   -240912.41 2.7905037e-10 -2.4381016e-10 -3.2473289e-10     4.213935     4.213935     4.213935     74.82789 
Loop time of 0.129727 on 1 procs for 100 steps with 8 atoms

48.6% CPU use with 1 MPI tasks x no OpenMP threads

Minimization stats:
  Stopping criterion = max iterations
  Energy initial, next-to-last, final = 
        -192.867719544     -193.246866088     -193.250284835
  Force two-norm initial, final = 24.4156 19.6851
  Force max component initial, final = 14.0963 11.3652
  Final line search alpha, max atom move = 8.77675e-06 9.97495e-05
  Iterations, force evaluations = 100 100

MPI task timing breakdown:
Section |  min time  |  avg time  |  max time  |%varavg| %total
---------------------------------------------------------------
Pair    | 0.025346   | 0.025346   | 0.025346   |   0.0 | 19.54
Kspace  | 0.01498    | 0.01498    | 0.01498    |   0.0 | 11.55
Neigh   | 0          | 0          | 0          |   0.0 |  0.00
Comm    | 0.0011926  | 0.0011926  | 0.0011926  |   0.0 |  0.92
Output  | 0.00096965 | 0.00096965 | 0.00096965 |   0.0 |  0.75
Modify  | 0          | 0          | 0          |   0.0 |  0.00
Other   |            | 0.08724    |            |       | 67.25

Nlocal:    8 ave 8 max 8 min
Histogram: 1 0 0 0 0 0 0 0 0 0
Nghost:    2189 ave 2189 max 2189 min
Histogram: 1 0 0 0 0 0 0 0 0 0
Neighs:    2344 ave 2344 max 2344 min
Histogram: 1 0 0 0 0 0 0 0 0 0

Total # of neighbors = 2344
Ave neighs/atom = 293
Neighbor list builds = 0
Dangerous builds = 0

variable tmp equal pxx
variable pxx0 equal ${tmp}
variable pxx0 equal -240912.405132628
variable tmp equal pyy
variable pyy0 equal ${tmp}
variable pyy0 equal -240912.405132629
variable tmp equal pzz
variable pzz0 equal ${tmp}
variable pzz0 equal -240912.40513263
variable tmp equal pyz
variable pyz0 equal ${tmp}
variable pyz0 equal -3.2473288930227e-10
variable tmp equal pxz
variable pxz0 equal ${tmp}
variable pxz0 equal -2.4381016396638e-10
variable tmp equal pxy
variable pxy0 equal ${tmp}
variable pxy0 equal 2.79050371688486e-10

variable tmp equal lx
variable lx0 equal ${tmp}
variable lx0 equal 4.21393499999998
variable tmp equal ly
variable ly0 equal ${tmp}
variable ly0 equal 4.21393499999998
variable tmp equal lz
variable lz0 equal ${tmp}
variable lz0 equal 4.21393499999998

 # ---- define the derivatives w.r.t. strain components
variable d1 equal -(v_pxx1-${pxx0})/(v_delta/v_len0)*${cfac}
variable d1 equal -(v_pxx1--240912.405132628)/(v_delta/v_len0)*${cfac}
variable d1 equal -(v_pxx1--240912.405132628)/(v_delta/v_len0)*0.0001
variable d2 equal -(v_pyy1-${pyy0})/(v_delta/v_len0)*${cfac}
variable d2 equal -(v_pyy1--240912.405132629)/(v_delta/v_len0)*${cfac}
variable d2 equal -(v_pyy1--240912.405132629)/(v_delta/v_len0)*0.0001
variable d3 equal -(v_pzz1-${pzz0})/(v_delta/v_len0)*${cfac}
variable d3 equal -(v_pzz1--240912.40513263)/(v_delta/v_len0)*${cfac}
variable d3 equal -(v_pzz1--240912.40513263)/(v_delta/v_len0)*0.0001
variable d4 equal -(v_pyz1-${pyz0})/(v_delta/v_len0)*${cfac}
variable d4 equal -(v_pyz1--3.2473288930227e-10)/(v_delta/v_len0)*${cfac}
variable d4 equal -(v_pyz1--3.2473288930227e-10)/(v_delta/v_len0)*0.0001
variable d5 equal -(v_pxz1-${pxz0})/(v_delta/v_len0)*${cfac}
variable d5 equal -(v_pxz1--2.4381016396638e-10)/(v_delta/v_len0)*${cfac}
variable d5 equal -(v_pxz1--2.4381016396638e-10)/(v_delta/v_len0)*0.0001
variable d6 equal -(v_pxy1-${pxy0})/(v_delta/v_len0)*${cfac}
variable d6 equal -(v_pxy1-2.79050371688486e-10)/(v_delta/v_len0)*${cfac}
variable d6 equal -(v_pxy1-2.79050371688486e-10)/(v_delta/v_len0)*0.0001

# ---- write restart files
unfix 3
write_restart restart.equil
PPPM initialization ...
  using 12-bit tables for long-range coulomb (../kspace.cpp:321)
  G vector (1/distance) = 0.35591
  grid = 8 8 8
  stencil order = 5
  estimated absolute RMS force accuracy = 5.90854e-05
  estimated relative force accuracy = 4.10325e-06
  using double precision FFTs
  3d grid and FFT values/proc = 3375 512
# ---- uxx Perturbation
variable dir equal 1
include displace.mod
# NOTE: This script should not need to be
# modified. See in.elastic for more info.
# Find which reference length to use

if "${dir} == 1" then    "variable len0 equal ${lx0}"
variable len0 equal ${lx0}
variable len0 equal 4.21393499999998
if "${dir} == 2" then    "variable len0 equal ${ly0}"
if "${dir} == 3" then    "variable len0 equal ${lz0}"
if "${dir} == 4" then    "variable len0 equal ${lz0}"
if "${dir} == 5" then    "variable len0 equal ${lz0}"
if "${dir} == 6" then    "variable len0 equal ${ly0}"

# Reset box and simulation parameters

clear
read_restart restart.equil remap
  triclinic box = (0.0212825 0.0212825 0.0212825) to (4.23522 4.23522 4.23522) with tilt (0 0 0)
  1 by 1 by 1 MPI processor grid
  8 atoms
include potential.mod
mass 1 24.305
mass 2 15.999

group Mg type 1
4 atoms in group Mg
group O type 2
4 atoms in group O

set group Mg charge 2.1466418992637664
  4 settings made for charge
set group O charge -2.1466418992637664
  4 settings made for charge

variable R_cut equal 10.0

pair_style buck/coul/long ${R_cut}
pair_style buck/coul/long 10
pair_coeff 1 1 0.0 0.5 0.0 ${R_cut}
pair_coeff 1 1 0.0 0.5 0.0 10
pair_coeff 1 2 1089.4134673757053 0.31058320000297174 0.0 ${R_cut}
pair_coeff 1 2 1089.4134673757053 0.31058320000297174 0.0 10
pair_coeff 2 2 18983.219085212437 0.12673144022038657 73.4670102644071 ${R_cut}
pair_coeff 2 2 18983.219085212437 0.12673144022038657 73.4670102644071 10

kspace_style pppm 1.0e-5

neighbor 1.0 bin
neigh_modify every 1 delay 0 check yes
thermo	1
thermo_style custom step temp pe press pxx pyy pzz pxy pxz pyz lx ly lz vol
thermo_modify norm no

# Negative deformation

variable delta equal -${up}*${len0}
variable delta equal -1e-06*${len0}
variable delta equal -1e-06*4.21393499999998
if "${dir} == 1" then    "change_box all x delta 0 ${delta} remap units box"
change_box all x delta 0 ${delta} remap units box
change_box all x delta 0 -4.21393499999998e-06 remap units box
  triclinic box = (0.0212825 0.0212825 0.0212825) to (4.23521 4.23522 4.23522) with tilt (0 0 0)
if "${dir} == 2" then    "change_box all y delta 0 ${delta} remap units box"
if "${dir} == 3" then    "change_box all z delta 0 ${delta} remap units box"
if "${dir} == 4" then    "change_box all yz delta ${delta} remap units box"
if "${dir} == 5" then    "change_box all xz delta ${delta} remap units box"
if "${dir} == 6" then    "change_box all xy delta ${delta} remap units box"

# Relax atoms positions

minimize ${etol} ${ftol} ${maxiter} ${maxeval}
minimize 0 ${ftol} ${maxiter} ${maxeval}
minimize 0 1e-10 ${maxiter} ${maxeval}
minimize 0 1e-10 100 ${maxeval}
minimize 0 1e-10 100 1000
PPPM initialization ...
  using 12-bit tables for long-range coulomb (../kspace.cpp:321)
  G vector (1/distance) = 0.35591
  grid = 8 8 8
  stencil order = 5
  estimated absolute RMS force accuracy = 5.90854e-05
  estimated relative force accuracy = 4.10325e-06
  using double precision FFTs
  3d grid and FFT values/proc = 3375 512
Neighbor list info ...
  update every 1 steps, delay 0 steps, check yes
  max neighbors/atom: 2000, page size: 100000
  master list distance cutoff = 11
  ghost atom cutoff = 11
  binsize = 5.5, bins = 1 1 1
  1 neighbor lists, perpetual/occasional/extra = 1 0 0
  (1) pair buck/coul/long, perpetual
      attributes: half, newton on
      pair build: half/bin/newton/tri
      stencil: half/bin/3d/newton/tri
      bin: standard
Per MPI rank memory allocation (min/avg/max) = 4.629 | 4.629 | 4.629 Mbytes
Step Temp PotEng Press Pxx Pyy Pzz Pxy Pxz Pyz Lx Ly Lz Volume 
     100            0    -193.2503   -240909.79   -240909.19   -240910.09   -240910.09 3.2384156e-10 -5.1564937e-11 6.8440919e-12    4.2139308     4.213935     4.213935    74.827815 
     101            0    -193.2503   -240909.79   -240909.19   -240910.09   -240910.09 -5.6435723e-11 -3.9504492e-10 -3.2586361e-10    4.2139308     4.213935     4.213935    74.827815 
Loop time of 0.00586796 on 1 procs for 1 steps with 8 atoms

102.2% CPU use with 1 MPI tasks x no OpenMP threads

Minimization stats:
  Stopping criterion = linesearch alpha is zero
  Energy initial, next-to-last, final = 
        -193.250296338     -193.250296338     -193.250296338
  Force two-norm initial, final = 0.00143393 0.00143393
  Force max component initial, final = 0.000330923 0.000330923
  Final line search alpha, max atom move = 0.00390625 1.29267e-06
  Iterations, force evaluations = 1 17

MPI task timing breakdown:
Section |  min time  |  avg time  |  max time  |%varavg| %total
---------------------------------------------------------------
Pair    | 0.0029988  | 0.0029988  | 0.0029988  |   0.0 | 51.11
Kspace  | 0.0026009  | 0.0026009  | 0.0026009  |   0.0 | 44.32
Neigh   | 0          | 0          | 0          |   0.0 |  0.00
Comm    | 0.00021267 | 0.00021267 | 0.00021267 |   0.0 |  3.62
Output  | 0          | 0          | 0          |   0.0 |  0.00
Modify  | 0          | 0          | 0          |   0.0 |  0.00
Other   |            | 5.555e-05  |            |       |  0.95

Nlocal:    8 ave 8 max 8 min
Histogram: 1 0 0 0 0 0 0 0 0 0
Nghost:    2189 ave 2189 max 2189 min
Histogram: 1 0 0 0 0 0 0 0 0 0
Neighs:    2472 ave 2472 max 2472 min
Histogram: 1 0 0 0 0 0 0 0 0 0

Total # of neighbors = 2472
Ave neighs/atom = 309
Neighbor list builds = 0
Dangerous builds = 0

# Obtain new stress tensor

variable tmp equal pxx
variable pxx1 equal ${tmp}
variable pxx1 equal -240909.19434698
variable tmp equal pyy
variable pyy1 equal ${tmp}
variable pyy1 equal -240910.08514111
variable tmp equal pzz
variable pzz1 equal ${tmp}
variable pzz1 equal -240910.08514111
variable tmp equal pxy
variable pxy1 equal ${tmp}
variable pxy1 equal -5.64357229441679e-11
variable tmp equal pxz
variable pxz1 equal ${tmp}
variable pxz1 equal -3.95044915048564e-10
variable tmp equal pyz
variable pyz1 equal ${tmp}
variable pyz1 equal -3.25863608307693e-10

# Compute elastic constant from pressure tensor

variable C1neg equal ${d1}
variable C1neg equal 321.078564799973
variable C2neg equal ${d2}
variable C2neg equal 231.999151900527
variable C3neg equal ${d3}
variable C3neg equal 231.99915199948
variable C4neg equal ${d4}
variable C4neg equal -1.13071900542303e-10
variable C5neg equal ${d5}
variable C5neg equal -1.51234751082184e-08
variable C6neg equal ${d6}
variable C6neg equal -3.35486094632654e-08

# Reset box and simulation parameters

clear
read_restart restart.equil remap
  triclinic box = (0.0212825 0.0212825 0.0212825) to (4.23522 4.23522 4.23522) with tilt (0 0 0)
  1 by 1 by 1 MPI processor grid
  8 atoms
include potential.mod
mass 1 24.305
mass 2 15.999

group Mg type 1
4 atoms in group Mg
group O type 2
4 atoms in group O

set group Mg charge 2.1466418992637664
  4 settings made for charge
set group O charge -2.1466418992637664
  4 settings made for charge

variable R_cut equal 10.0

pair_style buck/coul/long ${R_cut}
pair_style buck/coul/long 10
pair_coeff 1 1 0.0 0.5 0.0 ${R_cut}
pair_coeff 1 1 0.0 0.5 0.0 10
pair_coeff 1 2 1089.4134673757053 0.31058320000297174 0.0 ${R_cut}
pair_coeff 1 2 1089.4134673757053 0.31058320000297174 0.0 10
pair_coeff 2 2 18983.219085212437 0.12673144022038657 73.4670102644071 ${R_cut}
pair_coeff 2 2 18983.219085212437 0.12673144022038657 73.4670102644071 10

kspace_style pppm 1.0e-5

neighbor 1.0 bin
neigh_modify every 1 delay 0 check yes
thermo	1
thermo_style custom step temp pe press pxx pyy pzz pxy pxz pyz lx ly lz vol
thermo_modify norm no

# Positive deformation

variable delta equal ${up}*${len0}
variable delta equal 1e-06*${len0}
variable delta equal 1e-06*4.21393499999998
if "${dir} == 1" then    "change_box all x delta 0 ${delta} remap units box"
change_box all x delta 0 ${delta} remap units box
change_box all x delta 0 4.21393499999998e-06 remap units box
  triclinic box = (0.0212825 0.0212825 0.0212825) to (4.23522 4.23522 4.23522) with tilt (0 0 0)
if "${dir} == 2" then    "change_box all y delta 0 ${delta} remap units box"
if "${dir} == 3" then    "change_box all z delta 0 ${delta} remap units box"
if "${dir} == 4" then    "change_box all yz delta ${delta} remap units box"
if "${dir} == 5" then    "change_box all xz delta ${delta} remap units box"
if "${dir} == 6" then    "change_box all xy delta ${delta} remap units box"

# Relax atoms positions

minimize ${etol} ${ftol} ${maxiter} ${maxeval}
minimize 0 ${ftol} ${maxiter} ${maxeval}
minimize 0 1e-10 ${maxiter} ${maxeval}
minimize 0 1e-10 100 ${maxeval}
minimize 0 1e-10 100 1000
PPPM initialization ...
  using 12-bit tables for long-range coulomb (../kspace.cpp:321)
  G vector (1/distance) = 0.35591
  grid = 8 8 8
  stencil order = 5
  estimated absolute RMS force accuracy = 5.90855e-05
  estimated relative force accuracy = 4.10326e-06
  using double precision FFTs
  3d grid and FFT values/proc = 3375 512
Neighbor list info ...
  update every 1 steps, delay 0 steps, check yes
  max neighbors/atom: 2000, page size: 100000
  master list distance cutoff = 11
  ghost atom cutoff = 11
  binsize = 5.5, bins = 1 1 1
  1 neighbor lists, perpetual/occasional/extra = 1 0 0
  (1) pair buck/coul/long, perpetual
      attributes: half, newton on
      pair build: half/bin/newton/tri
      stencil: half/bin/3d/newton/tri
      bin: standard
Per MPI rank memory allocation (min/avg/max) = 4.629 | 4.629 | 4.629 Mbytes
Step Temp PotEng Press Pxx Pyy Pzz Pxy Pxz Pyz Lx Ly Lz Volume 
     100            0   -193.25026   -240913.21   -240913.77   -240912.92   -240912.92 1.130452e-10 -7.5197675e-11 -1.524278e-10    4.2139392     4.213935     4.213935    74.827964 
     101            0   -193.25028   -240913.46    -240914.2   -240913.09   -240913.09 7.7741289e-10 5.5061923e-10 4.3029556e-10    4.2139392     4.213935     4.213935    74.827964 
     102            0   -193.25028   -240913.46    -240914.2   -240913.09   -240913.09 7.7741289e-10 5.5061923e-10 4.3029556e-10    4.2139392     4.213935     4.213935    74.827964 
Loop time of 0.00530696 on 1 procs for 2 steps with 8 atoms

94.2% CPU use with 1 MPI tasks x no OpenMP threads

Minimization stats:
  Stopping criterion = linesearch alpha is zero
  Energy initial, next-to-last, final = 
        -193.250262241     -193.250275486     -193.250275486
  Force two-norm initial, final = 0.00143598 0.000788549
  Force max component initial, final = 0.000331234 0.000182197
  Final line search alpha, max atom move = 0.015625 2.84683e-06
  Iterations, force evaluations = 2 15

MPI task timing breakdown:
Section |  min time  |  avg time  |  max time  |%varavg| %total
---------------------------------------------------------------
Pair    | 0.0026667  | 0.0026667  | 0.0026667  |   0.0 | 50.25
Kspace  | 0.0023918  | 0.0023918  | 0.0023918  |   0.0 | 45.07
Neigh   | 0          | 0          | 0          |   0.0 |  0.00
Comm    | 0.00018907 | 0.00018907 | 0.00018907 |   0.0 |  3.56
Output  | 1.0014e-05 | 1.0014e-05 | 1.0014e-05 |   0.0 |  0.19
Modify  | 0          | 0          | 0          |   0.0 |  0.00
Other   |            | 4.935e-05  |            |       |  0.93

Nlocal:    8 ave 8 max 8 min
Histogram: 1 0 0 0 0 0 0 0 0 0
Nghost:    2189 ave 2189 max 2189 min
Histogram: 1 0 0 0 0 0 0 0 0 0
Neighs:    2472 ave 2472 max 2472 min
Histogram: 1 0 0 0 0 0 0 0 0 0

Total # of neighbors = 2472
Ave neighs/atom = 309
Neighbor list builds = 0
Dangerous builds = 0

# Obtain new stress tensor

variable tmp equal pe
variable e1 equal ${tmp}
variable e1 equal -193.250275485608
variable tmp equal press
variable p1 equal ${tmp}
variable p1 equal -240913.46223835
variable tmp equal pxx
variable pxx1 equal ${tmp}
variable pxx1 equal -240914.2024767
variable tmp equal pyy
variable pyy1 equal ${tmp}
variable pyy1 equal -240913.092119175
variable tmp equal pzz
variable pzz1 equal ${tmp}
variable pzz1 equal -240913.092119174
variable tmp equal pxy
variable pxy1 equal ${tmp}
variable pxy1 equal 7.77412893416533e-10
variable tmp equal pxz
variable pxz1 equal ${tmp}
variable pxz1 equal 5.50619232361287e-10
variable tmp equal pyz
variable pyz1 equal ${tmp}
variable pyz1 equal 4.30295557783438e-10

# Compute elastic constant from pressure tensor

variable C1pos equal ${d1}
variable C1pos equal 179.734407202341
variable C2pos equal ${d2}
variable C2pos equal 68.6986546003027
variable C3pos equal ${d3}
variable C3pos equal 68.6986543994863
variable C4pos equal ${d4}
variable C4pos equal -7.55028447085708e-08
variable C5pos equal ${d5}
variable C5pos equal -7.94429396327667e-08
variable C6pos equal ${d6}
variable C6pos equal -4.98362521728047e-08

# Combine positive and negative

variable C1${dir} equal 0.5*(${C1neg}+${C1pos})
variable C11 equal 0.5*(${C1neg}+${C1pos})
variable C11 equal 0.5*(321.078564799973+${C1pos})
variable C11 equal 0.5*(321.078564799973+179.734407202341)
variable C2${dir} equal 0.5*(${C2neg}+${C2pos})
variable C21 equal 0.5*(${C2neg}+${C2pos})
variable C21 equal 0.5*(231.999151900527+${C2pos})
variable C21 equal 0.5*(231.999151900527+68.6986546003027)
variable C3${dir} equal 0.5*(${C3neg}+${C3pos})
variable C31 equal 0.5*(${C3neg}+${C3pos})
variable C31 equal 0.5*(231.99915199948+${C3pos})
variable C31 equal 0.5*(231.99915199948+68.6986543994863)
variable C4${dir} equal 0.5*(${C4neg}+${C4pos})
variable C41 equal 0.5*(${C4neg}+${C4pos})
variable C41 equal 0.5*(-1.13071900542303e-10+${C4pos})
variable C41 equal 0.5*(-1.13071900542303e-10+-7.55028447085708e-08)
variable C5${dir} equal 0.5*(${C5neg}+${C5pos})
variable C51 equal 0.5*(${C5neg}+${C5pos})
variable C51 equal 0.5*(-1.51234751082184e-08+${C5pos})
variable C51 equal 0.5*(-1.51234751082184e-08+-7.94429396327667e-08)
variable C6${dir} equal 0.5*(${C6neg}+${C6pos})
variable C61 equal 0.5*(${C6neg}+${C6pos})
variable C61 equal 0.5*(-3.35486094632654e-08+${C6pos})
variable C61 equal 0.5*(-3.35486094632654e-08+-4.98362521728047e-08)

# Delete dir to make sure it is not reused

variable dir delete
# ---- uyy Perturbation
variable dir equal 2
include displace.mod
# NOTE: This script should not need to be
# modified. See in.elastic for more info.
# Find which reference length to use

if "${dir} == 1" then    "variable len0 equal ${lx0}"
if "${dir} == 2" then    "variable len0 equal ${ly0}"
variable len0 equal ${ly0}
variable len0 equal 4.21393499999998
if "${dir} == 3" then    "variable len0 equal ${lz0}"
if "${dir} == 4" then    "variable len0 equal ${lz0}"
if "${dir} == 5" then    "variable len0 equal ${lz0}"
if "${dir} == 6" then    "variable len0 equal ${ly0}"

# Reset box and simulation parameters

clear
read_restart restart.equil remap
  triclinic box = (0.0212825 0.0212825 0.0212825) to (4.23522 4.23522 4.23522) with tilt (0 0 0)
  1 by 1 by 1 MPI processor grid
  8 atoms
include potential.mod
mass 1 24.305
mass 2 15.999

group Mg type 1
4 atoms in group Mg
group O type 2
4 atoms in group O

set group Mg charge 2.1466418992637664
  4 settings made for charge
set group O charge -2.1466418992637664
  4 settings made for charge

variable R_cut equal 10.0

pair_style buck/coul/long ${R_cut}
pair_style buck/coul/long 10
pair_coeff 1 1 0.0 0.5 0.0 ${R_cut}
pair_coeff 1 1 0.0 0.5 0.0 10
pair_coeff 1 2 1089.4134673757053 0.31058320000297174 0.0 ${R_cut}
pair_coeff 1 2 1089.4134673757053 0.31058320000297174 0.0 10
pair_coeff 2 2 18983.219085212437 0.12673144022038657 73.4670102644071 ${R_cut}
pair_coeff 2 2 18983.219085212437 0.12673144022038657 73.4670102644071 10

kspace_style pppm 1.0e-5

neighbor 1.0 bin
neigh_modify every 1 delay 0 check yes
thermo	1
thermo_style custom step temp pe press pxx pyy pzz pxy pxz pyz lx ly lz vol
thermo_modify norm no

# Negative deformation

variable delta equal -${up}*${len0}
variable delta equal -1e-06*${len0}
variable delta equal -1e-06*4.21393499999998
if "${dir} == 1" then    "change_box all x delta 0 ${delta} remap units box"
if "${dir} == 2" then    "change_box all y delta 0 ${delta} remap units box"
change_box all y delta 0 ${delta} remap units box
change_box all y delta 0 -4.21393499999998e-06 remap units box
  triclinic box = (0.0212825 0.0212825 0.0212825) to (4.23522 4.23521 4.23522) with tilt (0 0 0)
if "${dir} == 3" then    "change_box all z delta 0 ${delta} remap units box"
if "${dir} == 4" then    "change_box all yz delta ${delta} remap units box"
if "${dir} == 5" then    "change_box all xz delta ${delta} remap units box"
if "${dir} == 6" then    "change_box all xy delta ${delta} remap units box"

# Relax atoms positions

minimize ${etol} ${ftol} ${maxiter} ${maxeval}
minimize 0 ${ftol} ${maxiter} ${maxeval}
minimize 0 1e-10 ${maxiter} ${maxeval}
minimize 0 1e-10 100 ${maxeval}
minimize 0 1e-10 100 1000
PPPM initialization ...
  using 12-bit tables for long-range coulomb (../kspace.cpp:321)
  G vector (1/distance) = 0.35591
  grid = 8 8 8
  stencil order = 5
  estimated absolute RMS force accuracy = 5.90854e-05
  estimated relative force accuracy = 4.10325e-06
  using double precision FFTs
  3d grid and FFT values/proc = 3375 512
Neighbor list info ...
  update every 1 steps, delay 0 steps, check yes
  max neighbors/atom: 2000, page size: 100000
  master list distance cutoff = 11
  ghost atom cutoff = 11
  binsize = 5.5, bins = 1 1 1
  1 neighbor lists, perpetual/occasional/extra = 1 0 0
  (1) pair buck/coul/long, perpetual
      attributes: half, newton on
      pair build: half/bin/newton/tri
      stencil: half/bin/3d/newton/tri
      bin: standard
Per MPI rank memory allocation (min/avg/max) = 4.629 | 4.629 | 4.629 Mbytes
Step Temp PotEng Press Pxx Pyy Pzz Pxy Pxz Pyz Lx Ly Lz Volume 
     100            0    -193.2503   -240909.79   -240910.09   -240909.19   -240910.09 1.7084859e-10 -5.0278422e-10 -2.1580912e-10     4.213935    4.2139308     4.213935    74.827815 
     101            0    -193.2503   -240909.79   -240910.09   -240909.19   -240910.09 4.7271327e-10 -2.9211777e-10 1.2212059e-11     4.213935    4.2139308     4.213935    74.827815 
Loop time of 0.00597 on 1 procs for 1 steps with 8 atoms

100.5% CPU use with 1 MPI tasks x no OpenMP threads

Minimization stats:
  Stopping criterion = linesearch alpha is zero
  Energy initial, next-to-last, final = 
        -193.250296338     -193.250296338     -193.250296338
  Force two-norm initial, final = 0.00143393 0.00143393
  Force max component initial, final = 0.000330923 0.000330923
  Final line search alpha, max atom move = 0.00390625 1.29267e-06
  Iterations, force evaluations = 1 17

MPI task timing breakdown:
Section |  min time  |  avg time  |  max time  |%varavg| %total
---------------------------------------------------------------
Pair    | 0.0030692  | 0.0030692  | 0.0030692  |   0.0 | 51.41
Kspace  | 0.0026345  | 0.0026345  | 0.0026345  |   0.0 | 44.13
Neigh   | 0          | 0          | 0          |   0.0 |  0.00
Comm    | 0.00020909 | 0.00020909 | 0.00020909 |   0.0 |  3.50
Output  | 0          | 0          | 0          |   0.0 |  0.00
Modify  | 0          | 0          | 0          |   0.0 |  0.00
Other   |            | 5.722e-05  |            |       |  0.96

Nlocal:    8 ave 8 max 8 min
Histogram: 1 0 0 0 0 0 0 0 0 0
Nghost:    2189 ave 2189 max 2189 min
Histogram: 1 0 0 0 0 0 0 0 0 0
Neighs:    2472 ave 2472 max 2472 min
Histogram: 1 0 0 0 0 0 0 0 0 0

Total # of neighbors = 2472
Ave neighs/atom = 309
Neighbor list builds = 0
Dangerous builds = 0

# Obtain new stress tensor

variable tmp equal pxx
variable pxx1 equal ${tmp}
variable pxx1 equal -240910.08514111
variable tmp equal pyy
variable pyy1 equal ${tmp}
variable pyy1 equal -240909.19434698
variable tmp equal pzz
variable pzz1 equal ${tmp}
variable pzz1 equal -240910.08514111
variable tmp equal pxy
variable pxy1 equal ${tmp}
variable pxy1 equal 4.72713270156078e-10
variable tmp equal pxz
variable pxz1 equal ${tmp}
variable pxz1 equal -2.92117765455766e-10
variable tmp equal pyz
variable pyz1 equal ${tmp}
variable pyz1 equal 1.22120593320297e-11

# Compute elastic constant from pressure tensor

variable C1neg equal ${d1}
variable C1neg equal 231.999151798664
variable C2neg equal ${d2}
variable C2neg equal 321.078564901836
variable C3neg equal ${d3}
variable C3neg equal 231.99915199948
variable C4neg equal ${d4}
variable C4neg equal 3.369449486343e-08
variable C5neg equal ${d5}
variable C5neg equal -4.8307601489386e-09
variable C6neg equal ${d6}
variable C6neg equal 1.93662898467592e-08

# Reset box and simulation parameters

clear
read_restart restart.equil remap
  triclinic box = (0.0212825 0.0212825 0.0212825) to (4.23522 4.23522 4.23522) with tilt (0 0 0)
  1 by 1 by 1 MPI processor grid
  8 atoms
include potential.mod
mass 1 24.305
mass 2 15.999

group Mg type 1
4 atoms in group Mg
group O type 2
4 atoms in group O

set group Mg charge 2.1466418992637664
  4 settings made for charge
set group O charge -2.1466418992637664
  4 settings made for charge

variable R_cut equal 10.0

pair_style buck/coul/long ${R_cut}
pair_style buck/coul/long 10
pair_coeff 1 1 0.0 0.5 0.0 ${R_cut}
pair_coeff 1 1 0.0 0.5 0.0 10
pair_coeff 1 2 1089.4134673757053 0.31058320000297174 0.0 ${R_cut}
pair_coeff 1 2 1089.4134673757053 0.31058320000297174 0.0 10
pair_coeff 2 2 18983.219085212437 0.12673144022038657 73.4670102644071 ${R_cut}
pair_coeff 2 2 18983.219085212437 0.12673144022038657 73.4670102644071 10

kspace_style pppm 1.0e-5

neighbor 1.0 bin
neigh_modify every 1 delay 0 check yes
thermo	1
thermo_style custom step temp pe press pxx pyy pzz pxy pxz pyz lx ly lz vol
thermo_modify norm no

# Positive deformation

variable delta equal ${up}*${len0}
variable delta equal 1e-06*${len0}
variable delta equal 1e-06*4.21393499999998
if "${dir} == 1" then    "change_box all x delta 0 ${delta} remap units box"
if "${dir} == 2" then    "change_box all y delta 0 ${delta} remap units box"
change_box all y delta 0 ${delta} remap units box
change_box all y delta 0 4.21393499999998e-06 remap units box
  triclinic box = (0.0212825 0.0212825 0.0212825) to (4.23522 4.23522 4.23522) with tilt (0 0 0)
if "${dir} == 3" then    "change_box all z delta 0 ${delta} remap units box"
if "${dir} == 4" then    "change_box all yz delta ${delta} remap units box"
if "${dir} == 5" then    "change_box all xz delta ${delta} remap units box"
if "${dir} == 6" then    "change_box all xy delta ${delta} remap units box"

# Relax atoms positions

minimize ${etol} ${ftol} ${maxiter} ${maxeval}
minimize 0 ${ftol} ${maxiter} ${maxeval}
minimize 0 1e-10 ${maxiter} ${maxeval}
minimize 0 1e-10 100 ${maxeval}
minimize 0 1e-10 100 1000
PPPM initialization ...
  using 12-bit tables for long-range coulomb (../kspace.cpp:321)
  G vector (1/distance) = 0.35591
  grid = 8 8 8
  stencil order = 5
  estimated absolute RMS force accuracy = 5.90855e-05
  estimated relative force accuracy = 4.10326e-06
  using double precision FFTs
  3d grid and FFT values/proc = 3375 512
Neighbor list info ...
  update every 1 steps, delay 0 steps, check yes
  max neighbors/atom: 2000, page size: 100000
  master list distance cutoff = 11
  ghost atom cutoff = 11
  binsize = 5.5, bins = 1 1 1
  1 neighbor lists, perpetual/occasional/extra = 1 0 0
  (1) pair buck/coul/long, perpetual
      attributes: half, newton on
      pair build: half/bin/newton/tri
      stencil: half/bin/3d/newton/tri
      bin: standard
Per MPI rank memory allocation (min/avg/max) = 4.629 | 4.629 | 4.629 Mbytes
Step Temp PotEng Press Pxx Pyy Pzz Pxy Pxz Pyz Lx Ly Lz Volume 
     100            0   -193.25026   -240913.21   -240912.92   -240913.77   -240912.92 -4.7614258e-10 2.3475268e-10 1.5915881e-10     4.213935    4.2139392     4.213935    74.827964 
     101            0   -193.25028   -240913.46   -240913.09    -240914.2   -240913.09 1.9645699e-10 5.6832111e-10 5.5260542e-10     4.213935    4.2139392     4.213935    74.827964 
     102            0   -193.25028   -240913.46   -240913.09    -240914.2   -240913.09 1.1855001e-09 5.6832111e-10 5.5202041e-10     4.213935    4.2139392     4.213935    74.827964 
Loop time of 0.0236669 on 1 procs for 2 steps with 8 atoms

21.1% CPU use with 1 MPI tasks x no OpenMP threads

Minimization stats:
  Stopping criterion = linesearch alpha is zero
  Energy initial, next-to-last, final = 
        -193.250262241     -193.250275486     -193.250275486
  Force two-norm initial, final = 0.00143598 0.000788549
  Force max component initial, final = 0.000331234 0.000182197
  Final line search alpha, max atom move = 0.015625 2.84683e-06
  Iterations, force evaluations = 2 15

MPI task timing breakdown:
Section |  min time  |  avg time  |  max time  |%varavg| %total
---------------------------------------------------------------
Pair    | 0.0065923  | 0.0065923  | 0.0065923  |   0.0 | 27.85
Kspace  | 0.016808   | 0.016808   | 0.016808   |   0.0 | 71.02
Neigh   | 0          | 0          | 0          |   0.0 |  0.00
Comm    | 0.00019622 | 0.00019622 | 0.00019622 |   0.0 |  0.83
Output  | 1.0967e-05 | 1.0967e-05 | 1.0967e-05 |   0.0 |  0.05
Modify  | 0          | 0          | 0          |   0.0 |  0.00
Other   |            | 5.913e-05  |            |       |  0.25

Nlocal:    8 ave 8 max 8 min
Histogram: 1 0 0 0 0 0 0 0 0 0
Nghost:    2189 ave 2189 max 2189 min
Histogram: 1 0 0 0 0 0 0 0 0 0
Neighs:    2472 ave 2472 max 2472 min
Histogram: 1 0 0 0 0 0 0 0 0 0

Total # of neighbors = 2472
Ave neighs/atom = 309
Neighbor list builds = 0
Dangerous builds = 0

# Obtain new stress tensor

variable tmp equal pe
variable e1 equal ${tmp}
variable e1 equal -193.250275485608
variable tmp equal press
variable p1 equal ${tmp}
variable p1 equal -240913.46223835
variable tmp equal pxx
variable pxx1 equal ${tmp}
variable pxx1 equal -240913.092119175
variable tmp equal pyy
variable pyy1 equal ${tmp}
variable pyy1 equal -240914.202476701
variable tmp equal pzz
variable pzz1 equal ${tmp}
variable pzz1 equal -240913.092119175
variable tmp equal pxy
variable pxy1 equal ${tmp}
variable pxy1 equal 1.18550012287324e-09
variable tmp equal pxz
variable pxz1 equal ${tmp}
variable pxz1 equal 5.68321111808439e-10
variable tmp equal pyz
variable pyz1 equal ${tmp}
variable pyz1 equal 5.52020413865738e-10

# Compute elastic constant from pressure tensor

variable C1pos equal ${d1}
variable C1pos equal 68.6986547021661
variable C2pos equal ${d2}
variable C2pos equal 179.73440719943
variable C3pos equal ${d3}
variable C3pos equal 68.6986545013497
variable C4pos equal ${d4}
variable C4pos equal -8.76753303168008e-08
variable C5pos equal ${d5}
variable C5pos equal -8.12131275774819e-08
variable C6pos equal ${d6}
variable C6pos equal -9.06449751184754e-08

# Combine positive and negative

variable C1${dir} equal 0.5*(${C1neg}+${C1pos})
variable C12 equal 0.5*(${C1neg}+${C1pos})
variable C12 equal 0.5*(231.999151798664+${C1pos})
variable C12 equal 0.5*(231.999151798664+68.6986547021661)
variable C2${dir} equal 0.5*(${C2neg}+${C2pos})
variable C22 equal 0.5*(${C2neg}+${C2pos})
variable C22 equal 0.5*(321.078564901836+${C2pos})
variable C22 equal 0.5*(321.078564901836+179.73440719943)
variable C3${dir} equal 0.5*(${C3neg}+${C3pos})
variable C32 equal 0.5*(${C3neg}+${C3pos})
variable C32 equal 0.5*(231.99915199948+${C3pos})
variable C32 equal 0.5*(231.99915199948+68.6986545013497)
variable C4${dir} equal 0.5*(${C4neg}+${C4pos})
variable C42 equal 0.5*(${C4neg}+${C4pos})
variable C42 equal 0.5*(3.369449486343e-08+${C4pos})
variable C42 equal 0.5*(3.369449486343e-08+-8.76753303168008e-08)
variable C5${dir} equal 0.5*(${C5neg}+${C5pos})
variable C52 equal 0.5*(${C5neg}+${C5pos})
variable C52 equal 0.5*(-4.8307601489386e-09+${C5pos})
variable C52 equal 0.5*(-4.8307601489386e-09+-8.12131275774819e-08)
variable C6${dir} equal 0.5*(${C6neg}+${C6pos})
variable C62 equal 0.5*(${C6neg}+${C6pos})
variable C62 equal 0.5*(1.93662898467592e-08+${C6pos})
variable C62 equal 0.5*(1.93662898467592e-08+-9.06449751184754e-08)

# Delete dir to make sure it is not reused

variable dir delete
# ---- uzz Perturbation
variable dir equal 3
include displace.mod
# NOTE: This script should not need to be
# modified. See in.elastic for more info.
# Find which reference length to use

if "${dir} == 1" then    "variable len0 equal ${lx0}"
if "${dir} == 2" then    "variable len0 equal ${ly0}"
if "${dir} == 3" then    "variable len0 equal ${lz0}"
variable len0 equal ${lz0}
variable len0 equal 4.21393499999998
if "${dir} == 4" then    "variable len0 equal ${lz0}"
if "${dir} == 5" then    "variable len0 equal ${lz0}"
if "${dir} == 6" then    "variable len0 equal ${ly0}"

# Reset box and simulation parameters

clear
read_restart restart.equil remap
  triclinic box = (0.0212825 0.0212825 0.0212825) to (4.23522 4.23522 4.23522) with tilt (0 0 0)
  1 by 1 by 1 MPI processor grid
  8 atoms
include potential.mod
mass 1 24.305
mass 2 15.999

group Mg type 1
4 atoms in group Mg
group O type 2
4 atoms in group O

set group Mg charge 2.1466418992637664
  4 settings made for charge
set group O charge -2.1466418992637664
  4 settings made for charge

variable R_cut equal 10.0

pair_style buck/coul/long ${R_cut}
pair_style buck/coul/long 10
pair_coeff 1 1 0.0 0.5 0.0 ${R_cut}
pair_coeff 1 1 0.0 0.5 0.0 10
pair_coeff 1 2 1089.4134673757053 0.31058320000297174 0.0 ${R_cut}
pair_coeff 1 2 1089.4134673757053 0.31058320000297174 0.0 10
pair_coeff 2 2 18983.219085212437 0.12673144022038657 73.4670102644071 ${R_cut}
pair_coeff 2 2 18983.219085212437 0.12673144022038657 73.4670102644071 10

kspace_style pppm 1.0e-5

neighbor 1.0 bin
neigh_modify every 1 delay 0 check yes
thermo	1
thermo_style custom step temp pe press pxx pyy pzz pxy pxz pyz lx ly lz vol
thermo_modify norm no

# Negative deformation

variable delta equal -${up}*${len0}
variable delta equal -1e-06*${len0}
variable delta equal -1e-06*4.21393499999998
if "${dir} == 1" then    "change_box all x delta 0 ${delta} remap units box"
if "${dir} == 2" then    "change_box all y delta 0 ${delta} remap units box"
if "${dir} == 3" then    "change_box all z delta 0 ${delta} remap units box"
change_box all z delta 0 ${delta} remap units box
change_box all z delta 0 -4.21393499999998e-06 remap units box
  triclinic box = (0.0212825 0.0212825 0.0212825) to (4.23522 4.23522 4.23521) with tilt (0 0 0)
if "${dir} == 4" then    "change_box all yz delta ${delta} remap units box"
if "${dir} == 5" then    "change_box all xz delta ${delta} remap units box"
if "${dir} == 6" then    "change_box all xy delta ${delta} remap units box"

# Relax atoms positions

minimize ${etol} ${ftol} ${maxiter} ${maxeval}
minimize 0 ${ftol} ${maxiter} ${maxeval}
minimize 0 1e-10 ${maxiter} ${maxeval}
minimize 0 1e-10 100 ${maxeval}
minimize 0 1e-10 100 1000
PPPM initialization ...
  using 12-bit tables for long-range coulomb (../kspace.cpp:321)
  G vector (1/distance) = 0.35591
  grid = 8 8 8
  stencil order = 5
  estimated absolute RMS force accuracy = 5.90854e-05
  estimated relative force accuracy = 4.10325e-06
  using double precision FFTs
  3d grid and FFT values/proc = 3375 512
Neighbor list info ...
  update every 1 steps, delay 0 steps, check yes
  max neighbors/atom: 2000, page size: 100000
  master list distance cutoff = 11
  ghost atom cutoff = 11
  binsize = 5.5, bins = 1 1 1
  1 neighbor lists, perpetual/occasional/extra = 1 0 0
  (1) pair buck/coul/long, perpetual
      attributes: half, newton on
      pair build: half/bin/newton/tri
      stencil: half/bin/3d/newton/tri
      bin: standard
Per MPI rank memory allocation (min/avg/max) = 4.629 | 4.629 | 4.629 Mbytes
Step Temp PotEng Press Pxx Pyy Pzz Pxy Pxz Pyz Lx Ly Lz Volume 
     100            0    -193.2503   -240909.79   -240910.09   -240910.09   -240909.19 -8.7058475e-10 -6.5473538e-11 -4.8698368e-10     4.213935     4.213935    4.2139308    74.827815 
     101            0    -193.2503   -240909.79   -240910.09   -240910.09   -240909.19 -4.2498527e-10 8.5057484e-10 3.9932956e-10     4.213935     4.213935    4.2139308    74.827815 
Loop time of 0.00594902 on 1 procs for 1 steps with 8 atoms

100.8% CPU use with 1 MPI tasks x no OpenMP threads

Minimization stats:
  Stopping criterion = linesearch alpha is zero
  Energy initial, next-to-last, final = 
        -193.250296338     -193.250296338     -193.250296338
  Force two-norm initial, final = 0.00143393 0.00143393
  Force max component initial, final = 0.000330923 0.000330923
  Final line search alpha, max atom move = 0.00390625 1.29267e-06
  Iterations, force evaluations = 1 17

MPI task timing breakdown:
Section |  min time  |  avg time  |  max time  |%varavg| %total
---------------------------------------------------------------
Pair    | 0.003082   | 0.003082   | 0.003082   |   0.0 | 51.81
Kspace  | 0.0026014  | 0.0026014  | 0.0026014  |   0.0 | 43.73
Neigh   | 0          | 0          | 0          |   0.0 |  0.00
Comm    | 0.00021052 | 0.00021052 | 0.00021052 |   0.0 |  3.54
Output  | 0          | 0          | 0          |   0.0 |  0.00
Modify  | 0          | 0          | 0          |   0.0 |  0.00
Other   |            | 5.507e-05  |            |       |  0.93

Nlocal:    8 ave 8 max 8 min
Histogram: 1 0 0 0 0 0 0 0 0 0
Nghost:    2189 ave 2189 max 2189 min
Histogram: 1 0 0 0 0 0 0 0 0 0
Neighs:    2472 ave 2472 max 2472 min
Histogram: 1 0 0 0 0 0 0 0 0 0

Total # of neighbors = 2472
Ave neighs/atom = 309
Neighbor list builds = 0
Dangerous builds = 0

# Obtain new stress tensor

variable tmp equal pxx
variable pxx1 equal ${tmp}
variable pxx1 equal -240910.08514111
variable tmp equal pyy
variable pyy1 equal ${tmp}
variable pyy1 equal -240910.08514111
variable tmp equal pzz
variable pzz1 equal ${tmp}
variable pzz1 equal -240909.194346978
variable tmp equal pxy
variable pxy1 equal ${tmp}
variable pxy1 equal -4.2498526615917e-10
variable tmp equal pxz
variable pxz1 equal ${tmp}
variable pxz1 equal 8.50574836847863e-10
variable tmp equal pyz
variable pyz1 equal ${tmp}
variable pyz1 equal 3.99329562041472e-10

# Compute elastic constant from pressure tensor

variable C1neg equal ${d1}
variable C1neg equal 231.999151798664
variable C2neg equal ${d2}
variable C2neg equal 231.999151900527
variable C3neg equal ${d3}
variable C3neg equal 321.078565198695
variable C4neg equal ${d4}
variable C4neg equal 7.24062451343742e-08
variable C5neg equal ${d5}
variable C5neg equal 1.09438500081424e-07
variable C6neg equal ${d6}
variable C6neg equal -7.04035637847656e-08

# Reset box and simulation parameters

clear
read_restart restart.equil remap
  triclinic box = (0.0212825 0.0212825 0.0212825) to (4.23522 4.23522 4.23522) with tilt (0 0 0)
  1 by 1 by 1 MPI processor grid
  8 atoms
include potential.mod
mass 1 24.305
mass 2 15.999

group Mg type 1
4 atoms in group Mg
group O type 2
4 atoms in group O

set group Mg charge 2.1466418992637664
  4 settings made for charge
set group O charge -2.1466418992637664
  4 settings made for charge

variable R_cut equal 10.0

pair_style buck/coul/long ${R_cut}
pair_style buck/coul/long 10
pair_coeff 1 1 0.0 0.5 0.0 ${R_cut}
pair_coeff 1 1 0.0 0.5 0.0 10
pair_coeff 1 2 1089.4134673757053 0.31058320000297174 0.0 ${R_cut}
pair_coeff 1 2 1089.4134673757053 0.31058320000297174 0.0 10
pair_coeff 2 2 18983.219085212437 0.12673144022038657 73.4670102644071 ${R_cut}
pair_coeff 2 2 18983.219085212437 0.12673144022038657 73.4670102644071 10

kspace_style pppm 1.0e-5

neighbor 1.0 bin
neigh_modify every 1 delay 0 check yes
thermo	1
thermo_style custom step temp pe press pxx pyy pzz pxy pxz pyz lx ly lz vol
thermo_modify norm no

# Positive deformation

variable delta equal ${up}*${len0}
variable delta equal 1e-06*${len0}
variable delta equal 1e-06*4.21393499999998
if "${dir} == 1" then    "change_box all x delta 0 ${delta} remap units box"
if "${dir} == 2" then    "change_box all y delta 0 ${delta} remap units box"
if "${dir} == 3" then    "change_box all z delta 0 ${delta} remap units box"
change_box all z delta 0 ${delta} remap units box
change_box all z delta 0 4.21393499999998e-06 remap units box
  triclinic box = (0.0212825 0.0212825 0.0212825) to (4.23522 4.23522 4.23522) with tilt (0 0 0)
if "${dir} == 4" then    "change_box all yz delta ${delta} remap units box"
if "${dir} == 5" then    "change_box all xz delta ${delta} remap units box"
if "${dir} == 6" then    "change_box all xy delta ${delta} remap units box"

# Relax atoms positions

minimize ${etol} ${ftol} ${maxiter} ${maxeval}
minimize 0 ${ftol} ${maxiter} ${maxeval}
minimize 0 1e-10 ${maxiter} ${maxeval}
minimize 0 1e-10 100 ${maxeval}
minimize 0 1e-10 100 1000
PPPM initialization ...
  using 12-bit tables for long-range coulomb (../kspace.cpp:321)
  G vector (1/distance) = 0.35591
  grid = 8 8 8
  stencil order = 5
  estimated absolute RMS force accuracy = 5.90855e-05
  estimated relative force accuracy = 4.10326e-06
  using double precision FFTs
  3d grid and FFT values/proc = 3375 512
Neighbor list info ...
  update every 1 steps, delay 0 steps, check yes
  max neighbors/atom: 2000, page size: 100000
  master list distance cutoff = 11
  ghost atom cutoff = 11
  binsize = 5.5, bins = 1 1 1
  1 neighbor lists, perpetual/occasional/extra = 1 0 0
  (1) pair buck/coul/long, perpetual
      attributes: half, newton on
      pair build: half/bin/newton/tri
      stencil: half/bin/3d/newton/tri
      bin: standard
Per MPI rank memory allocation (min/avg/max) = 4.629 | 4.629 | 4.629 Mbytes
Step Temp PotEng Press Pxx Pyy Pzz Pxy Pxz Pyz Lx Ly Lz Volume 
     100            0   -193.25026   -240913.21   -240912.92   -240912.92   -240913.77 5.3751018e-10 -9.957268e-10 -7.4351298e-10     4.213935     4.213935    4.2139392    74.827964 
     101            0   -193.25028   -240913.46   -240913.09   -240913.09    -240914.2 -2.5805231e-10 5.8656998e-10 8.8285381e-10     4.213935     4.213935    4.2139392    74.827964 
     102            0   -193.25028   -240913.46   -240913.09   -240913.09    -240914.2 -1.0606815e-10 7.3871249e-10 8.8345298e-10     4.213935     4.213935    4.2139392    74.827964 
Loop time of 0.00527692 on 1 procs for 2 steps with 8 atoms

94.8% CPU use with 1 MPI tasks x no OpenMP threads

Minimization stats:
  Stopping criterion = linesearch alpha is zero
  Energy initial, next-to-last, final = 
        -193.250262241     -193.250275486     -193.250275486
  Force two-norm initial, final = 0.00143598 0.000788549
  Force max component initial, final = 0.000331234 0.000182197
  Final line search alpha, max atom move = 0.015625 2.84683e-06
  Iterations, force evaluations = 2 15

MPI task timing breakdown:
Section |  min time  |  avg time  |  max time  |%varavg| %total
---------------------------------------------------------------
Pair    | 0.0026977  | 0.0026977  | 0.0026977  |   0.0 | 51.12
Kspace  | 0.0023301  | 0.0023301  | 0.0023301  |   0.0 | 44.16
Neigh   | 0          | 0          | 0          |   0.0 |  0.00
Comm    | 0.00018477 | 0.00018477 | 0.00018477 |   0.0 |  3.50
Output  | 1.0967e-05 | 1.0967e-05 | 1.0967e-05 |   0.0 |  0.21
Modify  | 0          | 0          | 0          |   0.0 |  0.00
Other   |            | 5.341e-05  |            |       |  1.01

Nlocal:    8 ave 8 max 8 min
Histogram: 1 0 0 0 0 0 0 0 0 0
Nghost:    2189 ave 2189 max 2189 min
Histogram: 1 0 0 0 0 0 0 0 0 0
Neighs:    2472 ave 2472 max 2472 min
Histogram: 1 0 0 0 0 0 0 0 0 0

Total # of neighbors = 2472
Ave neighs/atom = 309
Neighbor list builds = 0
Dangerous builds = 0

# Obtain new stress tensor

variable tmp equal pe
variable e1 equal ${tmp}
variable e1 equal -193.250275485608
variable tmp equal press
variable p1 equal ${tmp}
variable p1 equal -240913.462238349
variable tmp equal pxx
variable pxx1 equal ${tmp}
variable pxx1 equal -240913.092119176
variable tmp equal pyy
variable pyy1 equal ${tmp}
variable pyy1 equal -240913.092119174
variable tmp equal pzz
variable pzz1 equal ${tmp}
variable pzz1 equal -240914.202476699
variable tmp equal pxy
variable pxy1 equal ${tmp}
variable pxy1 equal -1.06068148110048e-10
variable tmp equal pxz
variable pxz1 equal ${tmp}
variable pxz1 equal 7.38712492631484e-10
variable tmp equal pyz
variable pyz1 equal ${tmp}
variable pyz1 equal 8.83452980298283e-10

# Compute elastic constant from pressure tensor

variable C1pos equal ${d1}
variable C1pos equal 68.6986548011191
variable C2pos equal ${d2}
variable C2pos equal 68.6986544984393
variable C3pos equal ${d3}
variable C3pos equal 179.734406899661
variable C4pos equal ${d4}
variable C4pos equal -1.20818586960055e-07
variable C5pos equal ${d5}
variable C5pos equal -9.82522656597864e-08
variable C6pos equal ${d6}
variable C6pos equal 3.85118519798534e-08

# Combine positive and negative

variable C1${dir} equal 0.5*(${C1neg}+${C1pos})
variable C13 equal 0.5*(${C1neg}+${C1pos})
variable C13 equal 0.5*(231.999151798664+${C1pos})
variable C13 equal 0.5*(231.999151798664+68.6986548011191)
variable C2${dir} equal 0.5*(${C2neg}+${C2pos})
variable C23 equal 0.5*(${C2neg}+${C2pos})
variable C23 equal 0.5*(231.999151900527+${C2pos})
variable C23 equal 0.5*(231.999151900527+68.6986544984393)
variable C3${dir} equal 0.5*(${C3neg}+${C3pos})
variable C33 equal 0.5*(${C3neg}+${C3pos})
variable C33 equal 0.5*(321.078565198695+${C3pos})
variable C33 equal 0.5*(321.078565198695+179.734406899661)
variable C4${dir} equal 0.5*(${C4neg}+${C4pos})
variable C43 equal 0.5*(${C4neg}+${C4pos})
variable C43 equal 0.5*(7.24062451343742e-08+${C4pos})
variable C43 equal 0.5*(7.24062451343742e-08+-1.20818586960055e-07)
variable C5${dir} equal 0.5*(${C5neg}+${C5pos})
variable C53 equal 0.5*(${C5neg}+${C5pos})
variable C53 equal 0.5*(1.09438500081424e-07+${C5pos})
variable C53 equal 0.5*(1.09438500081424e-07+-9.82522656597864e-08)
variable C6${dir} equal 0.5*(${C6neg}+${C6pos})
variable C63 equal 0.5*(${C6neg}+${C6pos})
variable C63 equal 0.5*(-7.04035637847656e-08+${C6pos})
variable C63 equal 0.5*(-7.04035637847656e-08+3.85118519798534e-08)

# Delete dir to make sure it is not reused

variable dir delete
# ---- uyz Perturbation
variable dir equal 4
include displace.mod
# NOTE: This script should not need to be
# modified. See in.elastic for more info.
# Find which reference length to use

if "${dir} == 1" then    "variable len0 equal ${lx0}"
if "${dir} == 2" then    "variable len0 equal ${ly0}"
if "${dir} == 3" then    "variable len0 equal ${lz0}"
if "${dir} == 4" then    "variable len0 equal ${lz0}"
variable len0 equal ${lz0}
variable len0 equal 4.21393499999998
if "${dir} == 5" then    "variable len0 equal ${lz0}"
if "${dir} == 6" then    "variable len0 equal ${ly0}"

# Reset box and simulation parameters

clear
read_restart restart.equil remap
  triclinic box = (0.0212825 0.0212825 0.0212825) to (4.23522 4.23522 4.23522) with tilt (0 0 0)
  1 by 1 by 1 MPI processor grid
  8 atoms
include potential.mod
mass 1 24.305
mass 2 15.999

group Mg type 1
4 atoms in group Mg
group O type 2
4 atoms in group O

set group Mg charge 2.1466418992637664
  4 settings made for charge
set group O charge -2.1466418992637664
  4 settings made for charge

variable R_cut equal 10.0

pair_style buck/coul/long ${R_cut}
pair_style buck/coul/long 10
pair_coeff 1 1 0.0 0.5 0.0 ${R_cut}
pair_coeff 1 1 0.0 0.5 0.0 10
pair_coeff 1 2 1089.4134673757053 0.31058320000297174 0.0 ${R_cut}
pair_coeff 1 2 1089.4134673757053 0.31058320000297174 0.0 10
pair_coeff 2 2 18983.219085212437 0.12673144022038657 73.4670102644071 ${R_cut}
pair_coeff 2 2 18983.219085212437 0.12673144022038657 73.4670102644071 10

kspace_style pppm 1.0e-5

neighbor 1.0 bin
neigh_modify every 1 delay 0 check yes
thermo	1
thermo_style custom step temp pe press pxx pyy pzz pxy pxz pyz lx ly lz vol
thermo_modify norm no

# Negative deformation

variable delta equal -${up}*${len0}
variable delta equal -1e-06*${len0}
variable delta equal -1e-06*4.21393499999998
if "${dir} == 1" then    "change_box all x delta 0 ${delta} remap units box"
if "${dir} == 2" then    "change_box all y delta 0 ${delta} remap units box"
if "${dir} == 3" then    "change_box all z delta 0 ${delta} remap units box"
if "${dir} == 4" then    "change_box all yz delta ${delta} remap units box"
change_box all yz delta ${delta} remap units box
change_box all yz delta -4.21393499999998e-06 remap units box
  triclinic box = (0.0212825 0.0212825 0.0212825) to (4.23522 4.23522 4.23522) with tilt (0 0 -4.21393e-06)
if "${dir} == 5" then    "change_box all xz delta ${delta} remap units box"
if "${dir} == 6" then    "change_box all xy delta ${delta} remap units box"

# Relax atoms positions

minimize ${etol} ${ftol} ${maxiter} ${maxeval}
minimize 0 ${ftol} ${maxiter} ${maxeval}
minimize 0 1e-10 ${maxiter} ${maxeval}
minimize 0 1e-10 100 ${maxeval}
minimize 0 1e-10 100 1000
PPPM initialization ...
  using 12-bit tables for long-range coulomb (../kspace.cpp:321)
  G vector (1/distance) = 0.35591
  grid = 8 8 8
  stencil order = 5
  estimated absolute RMS force accuracy = 5.90853e-05
  estimated relative force accuracy = 4.10325e-06
  using double precision FFTs
  3d grid and FFT values/proc = 3375 512
Neighbor list info ...
  update every 1 steps, delay 0 steps, check yes
  max neighbors/atom: 2000, page size: 100000
  master list distance cutoff = 11
  ghost atom cutoff = 11
  binsize = 5.5, bins = 1 1 1
  1 neighbor lists, perpetual/occasional/extra = 1 0 0
  (1) pair buck/coul/long, perpetual
      attributes: half, newton on
      pair build: half/bin/newton/tri
      stencil: half/bin/3d/newton/tri
      bin: standard
Per MPI rank memory allocation (min/avg/max) = 4.629 | 4.629 | 4.629 Mbytes
Step Temp PotEng Press Pxx Pyy Pzz Pxy Pxz Pyz Lx Ly Lz Volume 
     100            0   -193.25028   -240911.51   -240911.51   -240911.51   -240911.51 -1.1972252e-12 1.8360695e-10    1.9503198     4.213935     4.213935     4.213935     74.82789 
     101            0   -193.25028   -240911.53   -240911.49   -240911.55   -240911.55 1.3669614e-09 -2.1502654e-10    1.9174058     4.213935     4.213935     4.213935     74.82789 
     102            0   -193.25028   -240911.53   -240911.49   -240911.55   -240911.55 1.6359119e-09 1.3573318e-10    1.9174058     4.213935     4.213935     4.213935     74.82789 
Loop time of 0.00573182 on 1 procs for 2 steps with 8 atoms

69.8% CPU use with 1 MPI tasks x no OpenMP threads

Minimization stats:
  Stopping criterion = linesearch alpha is zero
  Energy initial, next-to-last, final = 
        -193.250280583     -193.250281271     -193.250281271
  Force two-norm initial, final = 0.00143349 0.000787044
  Force max component initial, final = 0.000330724 0.000182783
  Final line search alpha, max atom move = 0.015625 2.85599e-06
  Iterations, force evaluations = 2 15

MPI task timing breakdown:
Section |  min time  |  avg time  |  max time  |%varavg| %total
---------------------------------------------------------------
Pair    | 0.0032201  | 0.0032201  | 0.0032201  |   0.0 | 56.18
Kspace  | 0.0022554  | 0.0022554  | 0.0022554  |   0.0 | 39.35
Neigh   | 0          | 0          | 0          |   0.0 |  0.00
Comm    | 0.00019217 | 0.00019217 | 0.00019217 |   0.0 |  3.35
Output  | 1.0967e-05 | 1.0967e-05 | 1.0967e-05 |   0.0 |  0.19
Modify  | 0          | 0          | 0          |   0.0 |  0.00
Other   |            | 5.317e-05  |            |       |  0.93

Nlocal:    8 ave 8 max 8 min
Histogram: 1 0 0 0 0 0 0 0 0 0
Nghost:    2189 ave 2189 max 2189 min
Histogram: 1 0 0 0 0 0 0 0 0 0
Neighs:    2472 ave 2472 max 2472 min
Histogram: 1 0 0 0 0 0 0 0 0 0

Total # of neighbors = 2472
Ave neighs/atom = 309
Neighbor list builds = 0
Dangerous builds = 0

# Obtain new stress tensor

variable tmp equal pxx
variable pxx1 equal ${tmp}
variable pxx1 equal -240911.49374047
variable tmp equal pyy
variable pyy1 equal ${tmp}
variable pyy1 equal -240911.545160662
variable tmp equal pzz
variable pzz1 equal ${tmp}
variable pzz1 equal -240911.545159443
variable tmp equal pxy
variable pxy1 equal ${tmp}
variable pxy1 equal 1.63591188782318e-09
variable tmp equal pxz
variable pxz1 equal ${tmp}
variable pxz1 equal 1.35733176660882e-10
variable tmp equal pyz
variable pyz1 equal ${tmp}
variable pyz1 equal 1.91740578228412

# Compute elastic constant from pressure tensor

variable C1neg equal ${d1}
variable C1neg equal 91.1392157984665
variable C2neg equal ${d2}
variable C2neg equal 85.9971967001911
variable C3neg equal ${d3}
variable C3neg equal 85.997318700538
variable C4neg equal ${d4}
variable C4neg equal 191.740578260885
variable C5neg equal ${d5}
variable C5neg equal 3.79543340627262e-08
variable C6neg equal ${d6}
variable C6neg equal 1.35686151613469e-07

# Reset box and simulation parameters

clear
read_restart restart.equil remap
  triclinic box = (0.0212825 0.0212825 0.0212825) to (4.23522 4.23522 4.23522) with tilt (0 0 0)
  1 by 1 by 1 MPI processor grid
  8 atoms
include potential.mod
mass 1 24.305
mass 2 15.999

group Mg type 1
4 atoms in group Mg
group O type 2
4 atoms in group O

set group Mg charge 2.1466418992637664
  4 settings made for charge
set group O charge -2.1466418992637664
  4 settings made for charge

variable R_cut equal 10.0

pair_style buck/coul/long ${R_cut}
pair_style buck/coul/long 10
pair_coeff 1 1 0.0 0.5 0.0 ${R_cut}
pair_coeff 1 1 0.0 0.5 0.0 10
pair_coeff 1 2 1089.4134673757053 0.31058320000297174 0.0 ${R_cut}
pair_coeff 1 2 1089.4134673757053 0.31058320000297174 0.0 10
pair_coeff 2 2 18983.219085212437 0.12673144022038657 73.4670102644071 ${R_cut}
pair_coeff 2 2 18983.219085212437 0.12673144022038657 73.4670102644071 10

kspace_style pppm 1.0e-5

neighbor 1.0 bin
neigh_modify every 1 delay 0 check yes
thermo	1
thermo_style custom step temp pe press pxx pyy pzz pxy pxz pyz lx ly lz vol
thermo_modify norm no

# Positive deformation

variable delta equal ${up}*${len0}
variable delta equal 1e-06*${len0}
variable delta equal 1e-06*4.21393499999998
if "${dir} == 1" then    "change_box all x delta 0 ${delta} remap units box"
if "${dir} == 2" then    "change_box all y delta 0 ${delta} remap units box"
if "${dir} == 3" then    "change_box all z delta 0 ${delta} remap units box"
if "${dir} == 4" then    "change_box all yz delta ${delta} remap units box"
change_box all yz delta ${delta} remap units box
change_box all yz delta 4.21393499999998e-06 remap units box
  triclinic box = (0.0212825 0.0212825 0.0212825) to (4.23522 4.23522 4.23522) with tilt (0 0 4.21393e-06)
if "${dir} == 5" then    "change_box all xz delta ${delta} remap units box"
if "${dir} == 6" then    "change_box all xy delta ${delta} remap units box"

# Relax atoms positions

minimize ${etol} ${ftol} ${maxiter} ${maxeval}
minimize 0 ${ftol} ${maxiter} ${maxeval}
minimize 0 1e-10 ${maxiter} ${maxeval}
minimize 0 1e-10 100 ${maxeval}
minimize 0 1e-10 100 1000
PPPM initialization ...
  using 12-bit tables for long-range coulomb (../kspace.cpp:321)
  G vector (1/distance) = 0.35591
  grid = 8 8 8
  stencil order = 5
  estimated absolute RMS force accuracy = 5.90855e-05
  estimated relative force accuracy = 4.10326e-06
  using double precision FFTs
  3d grid and FFT values/proc = 3375 512
Neighbor list info ...
  update every 1 steps, delay 0 steps, check yes
  max neighbors/atom: 2000, page size: 100000
  master list distance cutoff = 11
  ghost atom cutoff = 11
  binsize = 5.5, bins = 1 1 1
  1 neighbor lists, perpetual/occasional/extra = 1 0 0
  (1) pair buck/coul/long, perpetual
      attributes: half, newton on
      pair build: half/bin/newton/tri
      stencil: half/bin/3d/newton/tri
      bin: standard
Per MPI rank memory allocation (min/avg/max) = 4.629 | 4.629 | 4.629 Mbytes
Step Temp PotEng Press Pxx Pyy Pzz Pxy Pxz Pyz Lx Ly Lz Volume 
     100            0   -193.25028   -240911.51   -240911.51   -240911.51   -240911.51 -7.2720366e-10 -4.3836252e-10   -1.9503198     4.213935     4.213935     4.213935     74.82789 
     101            0   -193.25028   -240911.53   -240911.49   -240911.55   -240911.55 -4.0371178e-10 -3.5020953e-11   -1.9174058     4.213935     4.213935     4.213935     74.82789 
     102            0   -193.25028   -240911.53   -240911.49   -240911.55   -240911.55 -4.6341269e-10 1.3375525e-10   -1.9174058     4.213935     4.213935     4.213935     74.82789 
Loop time of 0.00513196 on 1 procs for 2 steps with 8 atoms

97.4% CPU use with 1 MPI tasks x no OpenMP threads

Minimization stats:
  Stopping criterion = linesearch alpha is zero
  Energy initial, next-to-last, final = 
        -193.250280584     -193.250281271     -193.250281271
  Force two-norm initial, final = 0.00143349 0.000787044
  Force max component initial, final = 0.000330724 0.000182783
  Final line search alpha, max atom move = 0.015625 2.85599e-06
  Iterations, force evaluations = 2 15

MPI task timing breakdown:
Section |  min time  |  avg time  |  max time  |%varavg| %total
---------------------------------------------------------------
Pair    | 0.002728   | 0.002728   | 0.002728   |   0.0 | 53.16
Kspace  | 0.002157   | 0.002157   | 0.002157   |   0.0 | 42.03
Neigh   | 0          | 0          | 0          |   0.0 |  0.00
Comm    | 0.00018644 | 0.00018644 | 0.00018644 |   0.0 |  3.63
Output  | 1.0967e-05 | 1.0967e-05 | 1.0967e-05 |   0.0 |  0.21
Modify  | 0          | 0          | 0          |   0.0 |  0.00
Other   |            | 4.959e-05  |            |       |  0.97

Nlocal:    8 ave 8 max 8 min
Histogram: 1 0 0 0 0 0 0 0 0 0
Nghost:    2189 ave 2189 max 2189 min
Histogram: 1 0 0 0 0 0 0 0 0 0
Neighs:    2472 ave 2472 max 2472 min
Histogram: 1 0 0 0 0 0 0 0 0 0

Total # of neighbors = 2472
Ave neighs/atom = 309
Neighbor list builds = 0
Dangerous builds = 0

# Obtain new stress tensor

variable tmp equal pe
variable e1 equal ${tmp}
variable e1 equal -193.250281270955
variable tmp equal press
variable p1 equal ${tmp}
variable p1 equal -240911.528072469
variable tmp equal pxx
variable pxx1 equal ${tmp}
variable pxx1 equal -240911.493792745
variable tmp equal pyy
variable pyy1 equal ${tmp}
variable pyy1 equal -240911.545212941
variable tmp equal pzz
variable pzz1 equal ${tmp}
variable pzz1 equal -240911.545211722
variable tmp equal pxy
variable pxy1 equal ${tmp}
variable pxy1 equal -4.63412694291224e-10
variable tmp equal pxz
variable pxz1 equal ${tmp}
variable pxz1 equal 1.33755246616175e-10
variable tmp equal pyz
variable pyz1 equal ${tmp}
variable pyz1 equal -1.91740577645675

# Compute elastic constant from pressure tensor

variable C1pos equal ${d1}
variable C1pos equal -91.1339882994071
variable C2pos equal ${d2}
variable C2pos equal -85.9919687994989
variable C3pos equal ${d3}
variable C3pos equal -85.9920907998458
variable C4pos equal ${d4}
variable C4pos equal 191.740577613202
variable C5pos equal ${d5}
variable C5pos equal -3.77565410582555e-08
variable C6pos equal ${d6}
variable C6pos equal 7.4246306597971e-08

# Combine positive and negative

variable C1${dir} equal 0.5*(${C1neg}+${C1pos})
variable C14 equal 0.5*(${C1neg}+${C1pos})
variable C14 equal 0.5*(91.1392157984665+${C1pos})
variable C14 equal 0.5*(91.1392157984665+-91.1339882994071)
variable C2${dir} equal 0.5*(${C2neg}+${C2pos})
variable C24 equal 0.5*(${C2neg}+${C2pos})
variable C24 equal 0.5*(85.9971967001911+${C2pos})
variable C24 equal 0.5*(85.9971967001911+-85.9919687994989)
variable C3${dir} equal 0.5*(${C3neg}+${C3pos})
variable C34 equal 0.5*(${C3neg}+${C3pos})
variable C34 equal 0.5*(85.997318700538+${C3pos})
variable C34 equal 0.5*(85.997318700538+-85.9920907998458)
variable C4${dir} equal 0.5*(${C4neg}+${C4pos})
variable C44 equal 0.5*(${C4neg}+${C4pos})
variable C44 equal 0.5*(191.740578260885+${C4pos})
variable C44 equal 0.5*(191.740578260885+191.740577613202)
variable C5${dir} equal 0.5*(${C5neg}+${C5pos})
variable C54 equal 0.5*(${C5neg}+${C5pos})
variable C54 equal 0.5*(3.79543340627262e-08+${C5pos})
variable C54 equal 0.5*(3.79543340627262e-08+-3.77565410582555e-08)
variable C6${dir} equal 0.5*(${C6neg}+${C6pos})
variable C64 equal 0.5*(${C6neg}+${C6pos})
variable C64 equal 0.5*(1.35686151613469e-07+${C6pos})
variable C64 equal 0.5*(1.35686151613469e-07+7.4246306597971e-08)

# Delete dir to make sure it is not reused

variable dir delete
# ---- uxz Perturbation
variable dir equal 5
include displace.mod
# NOTE: This script should not need to be
# modified. See in.elastic for more info.
# Find which reference length to use

if "${dir} == 1" then    "variable len0 equal ${lx0}"
if "${dir} == 2" then    "variable len0 equal ${ly0}"
if "${dir} == 3" then    "variable len0 equal ${lz0}"
if "${dir} == 4" then    "variable len0 equal ${lz0}"
if "${dir} == 5" then    "variable len0 equal ${lz0}"
variable len0 equal ${lz0}
variable len0 equal 4.21393499999998
if "${dir} == 6" then    "variable len0 equal ${ly0}"

# Reset box and simulation parameters

clear
read_restart restart.equil remap
  triclinic box = (0.0212825 0.0212825 0.0212825) to (4.23522 4.23522 4.23522) with tilt (0 0 0)
  1 by 1 by 1 MPI processor grid
  8 atoms
include potential.mod
mass 1 24.305
mass 2 15.999

group Mg type 1
4 atoms in group Mg
group O type 2
4 atoms in group O

set group Mg charge 2.1466418992637664
  4 settings made for charge
set group O charge -2.1466418992637664
  4 settings made for charge

variable R_cut equal 10.0

pair_style buck/coul/long ${R_cut}
pair_style buck/coul/long 10
pair_coeff 1 1 0.0 0.5 0.0 ${R_cut}
pair_coeff 1 1 0.0 0.5 0.0 10
pair_coeff 1 2 1089.4134673757053 0.31058320000297174 0.0 ${R_cut}
pair_coeff 1 2 1089.4134673757053 0.31058320000297174 0.0 10
pair_coeff 2 2 18983.219085212437 0.12673144022038657 73.4670102644071 ${R_cut}
pair_coeff 2 2 18983.219085212437 0.12673144022038657 73.4670102644071 10

kspace_style pppm 1.0e-5

neighbor 1.0 bin
neigh_modify every 1 delay 0 check yes
thermo	1
thermo_style custom step temp pe press pxx pyy pzz pxy pxz pyz lx ly lz vol
thermo_modify norm no

# Negative deformation

variable delta equal -${up}*${len0}
variable delta equal -1e-06*${len0}
variable delta equal -1e-06*4.21393499999998
if "${dir} == 1" then    "change_box all x delta 0 ${delta} remap units box"
if "${dir} == 2" then    "change_box all y delta 0 ${delta} remap units box"
if "${dir} == 3" then    "change_box all z delta 0 ${delta} remap units box"
if "${dir} == 4" then    "change_box all yz delta ${delta} remap units box"
if "${dir} == 5" then    "change_box all xz delta ${delta} remap units box"
change_box all xz delta ${delta} remap units box
change_box all xz delta -4.21393499999998e-06 remap units box
  triclinic box = (0.0212825 0.0212825 0.0212825) to (4.23522 4.23522 4.23522) with tilt (0 -4.21393e-06 0)
if "${dir} == 6" then    "change_box all xy delta ${delta} remap units box"

# Relax atoms positions

minimize ${etol} ${ftol} ${maxiter} ${maxeval}
minimize 0 ${ftol} ${maxiter} ${maxeval}
minimize 0 1e-10 ${maxiter} ${maxeval}
minimize 0 1e-10 100 ${maxeval}
minimize 0 1e-10 100 1000
PPPM initialization ...
  using 12-bit tables for long-range coulomb (../kspace.cpp:321)
  G vector (1/distance) = 0.35591
  grid = 8 8 8
  stencil order = 5
  estimated absolute RMS force accuracy = 5.90853e-05
  estimated relative force accuracy = 4.10325e-06
  using double precision FFTs
  3d grid and FFT values/proc = 3375 512
Neighbor list info ...
  update every 1 steps, delay 0 steps, check yes
  max neighbors/atom: 2000, page size: 100000
  master list distance cutoff = 11
  ghost atom cutoff = 11
  binsize = 5.5, bins = 1 1 1
  1 neighbor lists, perpetual/occasional/extra = 1 0 0
  (1) pair buck/coul/long, perpetual
      attributes: half, newton on
      pair build: half/bin/newton/tri
      stencil: half/bin/3d/newton/tri
      bin: standard
Per MPI rank memory allocation (min/avg/max) = 4.629 | 4.629 | 4.629 Mbytes
Step Temp PotEng Press Pxx Pyy Pzz Pxy Pxz Pyz Lx Ly Lz Volume 
     100            0   -193.25028   -240911.51   -240911.51   -240911.51   -240911.51 -5.936458e-10    1.9503198 -4.2722729e-10     4.213935     4.213935     4.213935     74.82789 
     101            0   -193.25028   -240911.53   -240911.55   -240911.49   -240911.55 5.4658439e-10    1.9174058 -3.0461149e-10     4.213935     4.213935     4.213935     74.82789 
     102            0   -193.25028   -240911.53   -240911.55   -240911.49   -240911.55 -2.3003691e-11    1.9174058 1.7641285e-11     4.213935     4.213935     4.213935     74.82789 
Loop time of 0.00527787 on 1 procs for 2 steps with 8 atoms

113.7% CPU use with 1 MPI tasks x no OpenMP threads

Minimization stats:
  Stopping criterion = linesearch alpha is zero
  Energy initial, next-to-last, final = 
        -193.250280583     -193.250281271     -193.250281271
  Force two-norm initial, final = 0.00143349 0.000787044
  Force max component initial, final = 0.000330724 0.000182783
  Final line search alpha, max atom move = 0.015625 2.85599e-06
  Iterations, force evaluations = 2 15

MPI task timing breakdown:
Section |  min time  |  avg time  |  max time  |%varavg| %total
---------------------------------------------------------------
Pair    | 0.0027122  | 0.0027122  | 0.0027122  |   0.0 | 51.39
Kspace  | 0.0023105  | 0.0023105  | 0.0023105  |   0.0 | 43.78
Neigh   | 0          | 0          | 0          |   0.0 |  0.00
Comm    | 0.0001936  | 0.0001936  | 0.0001936  |   0.0 |  3.67
Output  | 9.7752e-06 | 9.7752e-06 | 9.7752e-06 |   0.0 |  0.19
Modify  | 0          | 0          | 0          |   0.0 |  0.00
Other   |            | 5.174e-05  |            |       |  0.98

Nlocal:    8 ave 8 max 8 min
Histogram: 1 0 0 0 0 0 0 0 0 0
Nghost:    2189 ave 2189 max 2189 min
Histogram: 1 0 0 0 0 0 0 0 0 0
Neighs:    2472 ave 2472 max 2472 min
Histogram: 1 0 0 0 0 0 0 0 0 0

Total # of neighbors = 2472
Ave neighs/atom = 309
Neighbor list builds = 0
Dangerous builds = 0

# Obtain new stress tensor

variable tmp equal pxx
variable pxx1 equal ${tmp}
variable pxx1 equal -240911.545160661
variable tmp equal pyy
variable pyy1 equal ${tmp}
variable pyy1 equal -240911.493740469
variable tmp equal pzz
variable pzz1 equal ${tmp}
variable pzz1 equal -240911.545159444
variable tmp equal pxy
variable pxy1 equal ${tmp}
variable pxy1 equal -2.30036913827871e-11
variable tmp equal pxz
variable pxz1 equal ${tmp}
variable pxz1 equal 1.91740578208794
variable tmp equal pyz
variable pyz1 equal ${tmp}
variable pyz1 equal 1.76412847853142e-11

# Compute elastic constant from pressure tensor

variable C1neg equal ${d1}
variable C1neg equal 85.9971967001911
variable C2neg equal ${d2}
variable C2neg equal 91.1392159992829
variable C3neg equal ${d3}
variable C3neg equal 85.9973185986746
variable C4neg equal ${d4}
variable C4neg equal 3.42374174087584e-08
variable C5neg equal ${d5}
variable C5neg equal 191.740578233175
variable C6neg equal ${d6}
variable C6neg equal -3.02054063071273e-08

# Reset box and simulation parameters

clear
read_restart restart.equil remap
  triclinic box = (0.0212825 0.0212825 0.0212825) to (4.23522 4.23522 4.23522) with tilt (0 0 0)
  1 by 1 by 1 MPI processor grid
  8 atoms
include potential.mod
mass 1 24.305
mass 2 15.999

group Mg type 1
4 atoms in group Mg
group O type 2
4 atoms in group O

set group Mg charge 2.1466418992637664
  4 settings made for charge
set group O charge -2.1466418992637664
  4 settings made for charge

variable R_cut equal 10.0

pair_style buck/coul/long ${R_cut}
pair_style buck/coul/long 10
pair_coeff 1 1 0.0 0.5 0.0 ${R_cut}
pair_coeff 1 1 0.0 0.5 0.0 10
pair_coeff 1 2 1089.4134673757053 0.31058320000297174 0.0 ${R_cut}
pair_coeff 1 2 1089.4134673757053 0.31058320000297174 0.0 10
pair_coeff 2 2 18983.219085212437 0.12673144022038657 73.4670102644071 ${R_cut}
pair_coeff 2 2 18983.219085212437 0.12673144022038657 73.4670102644071 10

kspace_style pppm 1.0e-5

neighbor 1.0 bin
neigh_modify every 1 delay 0 check yes
thermo	1
thermo_style custom step temp pe press pxx pyy pzz pxy pxz pyz lx ly lz vol
thermo_modify norm no

# Positive deformation

variable delta equal ${up}*${len0}
variable delta equal 1e-06*${len0}
variable delta equal 1e-06*4.21393499999998
if "${dir} == 1" then    "change_box all x delta 0 ${delta} remap units box"
if "${dir} == 2" then    "change_box all y delta 0 ${delta} remap units box"
if "${dir} == 3" then    "change_box all z delta 0 ${delta} remap units box"
if "${dir} == 4" then    "change_box all yz delta ${delta} remap units box"
if "${dir} == 5" then    "change_box all xz delta ${delta} remap units box"
change_box all xz delta ${delta} remap units box
change_box all xz delta 4.21393499999998e-06 remap units box
  triclinic box = (0.0212825 0.0212825 0.0212825) to (4.23522 4.23522 4.23522) with tilt (0 4.21393e-06 0)
if "${dir} == 6" then    "change_box all xy delta ${delta} remap units box"

# Relax atoms positions

minimize ${etol} ${ftol} ${maxiter} ${maxeval}
minimize 0 ${ftol} ${maxiter} ${maxeval}
minimize 0 1e-10 ${maxiter} ${maxeval}
minimize 0 1e-10 100 ${maxeval}
minimize 0 1e-10 100 1000
PPPM initialization ...
  using 12-bit tables for long-range coulomb (../kspace.cpp:321)
  G vector (1/distance) = 0.35591
  grid = 8 8 8
  stencil order = 5
  estimated absolute RMS force accuracy = 5.90855e-05
  estimated relative force accuracy = 4.10326e-06
  using double precision FFTs
  3d grid and FFT values/proc = 3375 512
Neighbor list info ...
  update every 1 steps, delay 0 steps, check yes
  max neighbors/atom: 2000, page size: 100000
  master list distance cutoff = 11
  ghost atom cutoff = 11
  binsize = 5.5, bins = 1 1 1
  1 neighbor lists, perpetual/occasional/extra = 1 0 0
  (1) pair buck/coul/long, perpetual
      attributes: half, newton on
      pair build: half/bin/newton/tri
      stencil: half/bin/3d/newton/tri
      bin: standard
Per MPI rank memory allocation (min/avg/max) = 4.629 | 4.629 | 4.629 Mbytes
Step Temp PotEng Press Pxx Pyy Pzz Pxy Pxz Pyz Lx Ly Lz Volume 
     100            0   -193.25028   -240911.51   -240911.51   -240911.51   -240911.51 -8.8742003e-10   -1.9503198 -1.4105571e-09     4.213935     4.213935     4.213935     74.82789 
     101            0   -193.25028   -240911.53   -240911.55   -240911.49   -240911.55 5.7085157e-10   -1.9174058 5.7345768e-10     4.213935     4.213935     4.213935     74.82789 
     102            0   -193.25028   -240911.53   -240911.55   -240911.49   -240911.55 5.7085157e-10   -1.9174058 5.7345768e-10     4.213935     4.213935     4.213935     74.82789 
Loop time of 0.0052979 on 1 procs for 2 steps with 8 atoms

94.4% CPU use with 1 MPI tasks x no OpenMP threads

Minimization stats:
  Stopping criterion = linesearch alpha is zero
  Energy initial, next-to-last, final = 
        -193.250280584     -193.250281271     -193.250281271
  Force two-norm initial, final = 0.00143349 0.000787044
  Force max component initial, final = 0.000330724 0.000182783
  Final line search alpha, max atom move = 0.015625 2.85599e-06
  Iterations, force evaluations = 2 15

MPI task timing breakdown:
Section |  min time  |  avg time  |  max time  |%varavg| %total
---------------------------------------------------------------
Pair    | 0.0027144  | 0.0027144  | 0.0027144  |   0.0 | 51.24
Kspace  | 0.002315   | 0.002315   | 0.002315   |   0.0 | 43.70
Neigh   | 0          | 0          | 0          |   0.0 |  0.00
Comm    | 0.0002079  | 0.0002079  | 0.0002079  |   0.0 |  3.92
Output  | 1.0967e-05 | 1.0967e-05 | 1.0967e-05 |   0.0 |  0.21
Modify  | 0          | 0          | 0          |   0.0 |  0.00
Other   |            | 4.959e-05  |            |       |  0.94

Nlocal:    8 ave 8 max 8 min
Histogram: 1 0 0 0 0 0 0 0 0 0
Nghost:    2189 ave 2189 max 2189 min
Histogram: 1 0 0 0 0 0 0 0 0 0
Neighs:    2472 ave 2472 max 2472 min
Histogram: 1 0 0 0 0 0 0 0 0 0

Total # of neighbors = 2472
Ave neighs/atom = 309
Neighbor list builds = 0
Dangerous builds = 0

# Obtain new stress tensor

variable tmp equal pe
variable e1 equal ${tmp}
variable e1 equal -193.250281270955
variable tmp equal press
variable p1 equal ${tmp}
variable p1 equal -240911.52807247
variable tmp equal pxx
variable pxx1 equal ${tmp}
variable pxx1 equal -240911.545212943
variable tmp equal pyy
variable pyy1 equal ${tmp}
variable pyy1 equal -240911.493792746
variable tmp equal pzz
variable pzz1 equal ${tmp}
variable pzz1 equal -240911.545211722
variable tmp equal pxy
variable pxy1 equal ${tmp}
variable pxy1 equal 5.70851571592421e-10
variable tmp equal pxz
variable pxz1 equal ${tmp}
variable pxz1 equal -1.91740577593978
variable tmp equal pyz
variable pyz1 equal ${tmp}
variable pyz1 equal 5.73457680907349e-10

# Compute elastic constant from pressure tensor

variable C1pos equal ${d1}
variable C1pos equal -85.9919684997294
variable C2pos equal ${d2}
variable C2pos equal -91.1339882994071
variable C3pos equal ${d3}
variable C3pos equal -85.9920907998458
variable C4pos equal ${d4}
variable C4pos equal -8.98190570209619e-08
variable C5pos equal ${d5}
variable C5pos equal 191.740577569597
variable C6pos equal ${d6}
variable C6pos equal -2.91801199903935e-08

# Combine positive and negative

variable C1${dir} equal 0.5*(${C1neg}+${C1pos})
variable C15 equal 0.5*(${C1neg}+${C1pos})
variable C15 equal 0.5*(85.9971967001911+${C1pos})
variable C15 equal 0.5*(85.9971967001911+-85.9919684997294)
variable C2${dir} equal 0.5*(${C2neg}+${C2pos})
variable C25 equal 0.5*(${C2neg}+${C2pos})
variable C25 equal 0.5*(91.1392159992829+${C2pos})
variable C25 equal 0.5*(91.1392159992829+-91.1339882994071)
variable C3${dir} equal 0.5*(${C3neg}+${C3pos})
variable C35 equal 0.5*(${C3neg}+${C3pos})
variable C35 equal 0.5*(85.9973185986746+${C3pos})
variable C35 equal 0.5*(85.9973185986746+-85.9920907998458)
variable C4${dir} equal 0.5*(${C4neg}+${C4pos})
variable C45 equal 0.5*(${C4neg}+${C4pos})
variable C45 equal 0.5*(3.42374174087584e-08+${C4pos})
variable C45 equal 0.5*(3.42374174087584e-08+-8.98190570209619e-08)
variable C5${dir} equal 0.5*(${C5neg}+${C5pos})
variable C55 equal 0.5*(${C5neg}+${C5pos})
variable C55 equal 0.5*(191.740578233175+${C5pos})
variable C55 equal 0.5*(191.740578233175+191.740577569597)
variable C6${dir} equal 0.5*(${C6neg}+${C6pos})
variable C65 equal 0.5*(${C6neg}+${C6pos})
variable C65 equal 0.5*(-3.02054063071273e-08+${C6pos})
variable C65 equal 0.5*(-3.02054063071273e-08+-2.91801199903935e-08)

# Delete dir to make sure it is not reused

variable dir delete
# ---- uxy Perturbation
variable dir equal 6
include displace.mod
# NOTE: This script should not need to be
# modified. See in.elastic for more info.
# Find which reference length to use

if "${dir} == 1" then    "variable len0 equal ${lx0}"
if "${dir} == 2" then    "variable len0 equal ${ly0}"
if "${dir} == 3" then    "variable len0 equal ${lz0}"
if "${dir} == 4" then    "variable len0 equal ${lz0}"
if "${dir} == 5" then    "variable len0 equal ${lz0}"
if "${dir} == 6" then    "variable len0 equal ${ly0}"
variable len0 equal ${ly0}
variable len0 equal 4.21393499999998

# Reset box and simulation parameters

clear
read_restart restart.equil remap
  triclinic box = (0.0212825 0.0212825 0.0212825) to (4.23522 4.23522 4.23522) with tilt (0 0 0)
  1 by 1 by 1 MPI processor grid
  8 atoms
include potential.mod
mass 1 24.305
mass 2 15.999

group Mg type 1
4 atoms in group Mg
group O type 2
4 atoms in group O

set group Mg charge 2.1466418992637664
  4 settings made for charge
set group O charge -2.1466418992637664
  4 settings made for charge

variable R_cut equal 10.0

pair_style buck/coul/long ${R_cut}
pair_style buck/coul/long 10
pair_coeff 1 1 0.0 0.5 0.0 ${R_cut}
pair_coeff 1 1 0.0 0.5 0.0 10
pair_coeff 1 2 1089.4134673757053 0.31058320000297174 0.0 ${R_cut}
pair_coeff 1 2 1089.4134673757053 0.31058320000297174 0.0 10
pair_coeff 2 2 18983.219085212437 0.12673144022038657 73.4670102644071 ${R_cut}
pair_coeff 2 2 18983.219085212437 0.12673144022038657 73.4670102644071 10

kspace_style pppm 1.0e-5

neighbor 1.0 bin
neigh_modify every 1 delay 0 check yes
thermo	1
thermo_style custom step temp pe press pxx pyy pzz pxy pxz pyz lx ly lz vol
thermo_modify norm no

# Negative deformation

variable delta equal -${up}*${len0}
variable delta equal -1e-06*${len0}
variable delta equal -1e-06*4.21393499999998
if "${dir} == 1" then    "change_box all x delta 0 ${delta} remap units box"
if "${dir} == 2" then    "change_box all y delta 0 ${delta} remap units box"
if "${dir} == 3" then    "change_box all z delta 0 ${delta} remap units box"
if "${dir} == 4" then    "change_box all yz delta ${delta} remap units box"
if "${dir} == 5" then    "change_box all xz delta ${delta} remap units box"
if "${dir} == 6" then    "change_box all xy delta ${delta} remap units box"
change_box all xy delta ${delta} remap units box
change_box all xy delta -4.21393499999998e-06 remap units box
  triclinic box = (0.0212825 0.0212825 0.0212825) to (4.23522 4.23522 4.23522) with tilt (-4.21393e-06 0 0)

# Relax atoms positions

minimize ${etol} ${ftol} ${maxiter} ${maxeval}
minimize 0 ${ftol} ${maxiter} ${maxeval}
minimize 0 1e-10 ${maxiter} ${maxeval}
minimize 0 1e-10 100 ${maxeval}
minimize 0 1e-10 100 1000
PPPM initialization ...
  using 12-bit tables for long-range coulomb (../kspace.cpp:321)
  G vector (1/distance) = 0.35591
  grid = 8 8 8
  stencil order = 5
  estimated absolute RMS force accuracy = 5.90853e-05
  estimated relative force accuracy = 4.10325e-06
  using double precision FFTs
  3d grid and FFT values/proc = 3375 512
Neighbor list info ...
  update every 1 steps, delay 0 steps, check yes
  max neighbors/atom: 2000, page size: 100000
  master list distance cutoff = 11
  ghost atom cutoff = 11
  binsize = 5.5, bins = 1 1 1
  1 neighbor lists, perpetual/occasional/extra = 1 0 0
  (1) pair buck/coul/long, perpetual
      attributes: half, newton on
      pair build: half/bin/newton/tri
      stencil: half/bin/3d/newton/tri
      bin: standard
Per MPI rank memory allocation (min/avg/max) = 4.629 | 4.629 | 4.629 Mbytes
Step Temp PotEng Press Pxx Pyy Pzz Pxy Pxz Pyz Lx Ly Lz Volume 
     100            0   -193.25028   -240911.51   -240911.51   -240911.51   -240911.51    1.9503198 -9.2706805e-10 -6.0563574e-10     4.213935     4.213935     4.213935     74.82789 
     101            0   -193.25028   -240911.53   -240911.55   -240911.55   -240911.49    1.9174058 -2.1512096e-10 1.3958619e-10     4.213935     4.213935     4.213935     74.82789 
     102            0   -193.25028   -240911.53   -240911.55   -240911.55   -240911.49    1.9174058 -3.596164e-11 6.3378018e-11     4.213935     4.213935     4.213935     74.82789 
Loop time of 0.00531101 on 1 procs for 2 steps with 8 atoms

94.1% CPU use with 1 MPI tasks x no OpenMP threads

Minimization stats:
  Stopping criterion = linesearch alpha is zero
  Energy initial, next-to-last, final = 
        -193.250280583     -193.250281271     -193.250281271
  Force two-norm initial, final = 0.00143349 0.000787044
  Force max component initial, final = 0.000330724 0.000182783
  Final line search alpha, max atom move = 0.015625 2.85599e-06
  Iterations, force evaluations = 2 15

MPI task timing breakdown:
Section |  min time  |  avg time  |  max time  |%varavg| %total
---------------------------------------------------------------
Pair    | 0.0027211  | 0.0027211  | 0.0027211  |   0.0 | 51.23
Kspace  | 0.0023403  | 0.0023403  | 0.0023403  |   0.0 | 44.07
Neigh   | 0          | 0          | 0          |   0.0 |  0.00
Comm    | 0.00018787 | 0.00018787 | 0.00018787 |   0.0 |  3.54
Output  | 1.0967e-05 | 1.0967e-05 | 1.0967e-05 |   0.0 |  0.21
Modify  | 0          | 0          | 0          |   0.0 |  0.00
Other   |            | 5.078e-05  |            |       |  0.96

Nlocal:    8 ave 8 max 8 min
Histogram: 1 0 0 0 0 0 0 0 0 0
Nghost:    2189 ave 2189 max 2189 min
Histogram: 1 0 0 0 0 0 0 0 0 0
Neighs:    2472 ave 2472 max 2472 min
Histogram: 1 0 0 0 0 0 0 0 0 0

Total # of neighbors = 2472
Ave neighs/atom = 309
Neighbor list builds = 0
Dangerous builds = 0

# Obtain new stress tensor

variable tmp equal pxx
variable pxx1 equal ${tmp}
variable pxx1 equal -240911.545160662
variable tmp equal pyy
variable pyy1 equal ${tmp}
variable pyy1 equal -240911.545159444
variable tmp equal pzz
variable pzz1 equal ${tmp}
variable pzz1 equal -240911.493740468
variable tmp equal pxy
variable pxy1 equal ${tmp}
variable pxy1 equal 1.91740578194331
variable tmp equal pxz
variable pxz1 equal ${tmp}
variable pxz1 equal -3.59616399949514e-11
variable tmp equal pyz
variable pyz1 equal ${tmp}
variable pyz1 equal 6.33780183878183e-11

# Compute elastic constant from pressure tensor

variable C1neg equal ${d1}
variable C1neg equal 85.9971965983277
variable C2neg equal ${d2}
variable C2neg equal 85.9973184997216
variable C3neg equal ${d3}
variable C3neg equal 91.1392162000993
variable C4neg equal ${d4}
variable C4neg equal 3.88110907690088e-08
variable C5neg equal ${d5}
variable C5neg equal 2.07848523971429e-08
variable C6neg equal ${d6}
variable C6neg equal 191.740578166426

# Reset box and simulation parameters

clear
read_restart restart.equil remap
  triclinic box = (0.0212825 0.0212825 0.0212825) to (4.23522 4.23522 4.23522) with tilt (0 0 0)
  1 by 1 by 1 MPI processor grid
  8 atoms
include potential.mod
mass 1 24.305
mass 2 15.999

group Mg type 1
4 atoms in group Mg
group O type 2
4 atoms in group O

set group Mg charge 2.1466418992637664
  4 settings made for charge
set group O charge -2.1466418992637664
  4 settings made for charge

variable R_cut equal 10.0

pair_style buck/coul/long ${R_cut}
pair_style buck/coul/long 10
pair_coeff 1 1 0.0 0.5 0.0 ${R_cut}
pair_coeff 1 1 0.0 0.5 0.0 10
pair_coeff 1 2 1089.4134673757053 0.31058320000297174 0.0 ${R_cut}
pair_coeff 1 2 1089.4134673757053 0.31058320000297174 0.0 10
pair_coeff 2 2 18983.219085212437 0.12673144022038657 73.4670102644071 ${R_cut}
pair_coeff 2 2 18983.219085212437 0.12673144022038657 73.4670102644071 10

kspace_style pppm 1.0e-5

neighbor 1.0 bin
neigh_modify every 1 delay 0 check yes
thermo	1
thermo_style custom step temp pe press pxx pyy pzz pxy pxz pyz lx ly lz vol
thermo_modify norm no

# Positive deformation

variable delta equal ${up}*${len0}
variable delta equal 1e-06*${len0}
variable delta equal 1e-06*4.21393499999998
if "${dir} == 1" then    "change_box all x delta 0 ${delta} remap units box"
if "${dir} == 2" then    "change_box all y delta 0 ${delta} remap units box"
if "${dir} == 3" then    "change_box all z delta 0 ${delta} remap units box"
if "${dir} == 4" then    "change_box all yz delta ${delta} remap units box"
if "${dir} == 5" then    "change_box all xz delta ${delta} remap units box"
if "${dir} == 6" then    "change_box all xy delta ${delta} remap units box"
change_box all xy delta ${delta} remap units box
change_box all xy delta 4.21393499999998e-06 remap units box
  triclinic box = (0.0212825 0.0212825 0.0212825) to (4.23522 4.23522 4.23522) with tilt (4.21393e-06 0 0)

# Relax atoms positions

minimize ${etol} ${ftol} ${maxiter} ${maxeval}
minimize 0 ${ftol} ${maxiter} ${maxeval}
minimize 0 1e-10 ${maxiter} ${maxeval}
minimize 0 1e-10 100 ${maxeval}
minimize 0 1e-10 100 1000
PPPM initialization ...
  using 12-bit tables for long-range coulomb (../kspace.cpp:321)
  G vector (1/distance) = 0.35591
  grid = 8 8 8
  stencil order = 5
  estimated absolute RMS force accuracy = 5.90855e-05
  estimated relative force accuracy = 4.10326e-06
  using double precision FFTs
  3d grid and FFT values/proc = 3375 512
Neighbor list info ...
  update every 1 steps, delay 0 steps, check yes
  max neighbors/atom: 2000, page size: 100000
  master list distance cutoff = 11
  ghost atom cutoff = 11
  binsize = 5.5, bins = 1 1 1
  1 neighbor lists, perpetual/occasional/extra = 1 0 0
  (1) pair buck/coul/long, perpetual
      attributes: half, newton on
      pair build: half/bin/newton/tri
      stencil: half/bin/3d/newton/tri
      bin: standard
Per MPI rank memory allocation (min/avg/max) = 4.629 | 4.629 | 4.629 Mbytes
Step Temp PotEng Press Pxx Pyy Pzz Pxy Pxz Pyz Lx Ly Lz Volume 
     100            0   -193.25028   -240911.51   -240911.51   -240911.51   -240911.51   -1.9503198 6.9373769e-10 3.2354245e-10     4.213935     4.213935     4.213935     74.82789 
     101            0   -193.25028   -240911.53   -240911.55   -240911.55   -240911.49   -1.9174058 -1.1613328e-10 3.8266668e-10     4.213935     4.213935     4.213935     74.82789 
     102            0   -193.25028   -240911.53   -240911.55   -240911.55   -240911.49   -1.9174058 -1.1613328e-10 3.8266668e-10     4.213935     4.213935     4.213935     74.82789 
Loop time of 0.00537014 on 1 procs for 2 steps with 8 atoms

93.1% CPU use with 1 MPI tasks x no OpenMP threads

Minimization stats:
  Stopping criterion = linesearch alpha is zero
  Energy initial, next-to-last, final = 
        -193.250280584     -193.250281271     -193.250281271
  Force two-norm initial, final = 0.00143349 0.000787044
  Force max component initial, final = 0.000330724 0.000182783
  Final line search alpha, max atom move = 0.015625 2.85599e-06
  Iterations, force evaluations = 2 15

MPI task timing breakdown:
Section |  min time  |  avg time  |  max time  |%varavg| %total
---------------------------------------------------------------
Pair    | 0.0027206  | 0.0027206  | 0.0027206  |   0.0 | 50.66
Kspace  | 0.0023961  | 0.0023961  | 0.0023961  |   0.0 | 44.62
Neigh   | 0          | 0          | 0          |   0.0 |  0.00
Comm    | 0.00018787 | 0.00018787 | 0.00018787 |   0.0 |  3.50
Output  | 1.1206e-05 | 1.1206e-05 | 1.1206e-05 |   0.0 |  0.21
Modify  | 0          | 0          | 0          |   0.0 |  0.00
Other   |            | 5.436e-05  |            |       |  1.01

Nlocal:    8 ave 8 max 8 min
Histogram: 1 0 0 0 0 0 0 0 0 0
Nghost:    2189 ave 2189 max 2189 min
Histogram: 1 0 0 0 0 0 0 0 0 0
Neighs:    2472 ave 2472 max 2472 min
Histogram: 1 0 0 0 0 0 0 0 0 0

Total # of neighbors = 2472
Ave neighs/atom = 309
Neighbor list builds = 0
Dangerous builds = 0

# Obtain new stress tensor

variable tmp equal pe
variable e1 equal ${tmp}
variable e1 equal -193.250281270956
variable tmp equal press
variable p1 equal ${tmp}
variable p1 equal -240911.528072466
variable tmp equal pxx
variable pxx1 equal ${tmp}
variable pxx1 equal -240911.545212938
variable tmp equal pyy
variable pyy1 equal ${tmp}
variable pyy1 equal -240911.545211717
variable tmp equal pzz
variable pzz1 equal ${tmp}
variable pzz1 equal -240911.493792742
variable tmp equal pxy
variable pxy1 equal ${tmp}
variable pxy1 equal -1.91740577526901
variable tmp equal pxz
variable pxz1 equal ${tmp}
variable pxz1 equal -1.16133279211933e-10
variable tmp equal pyz
variable pyz1 equal ${tmp}
variable pyz1 equal 3.82666675938802e-10

# Compute elastic constant from pressure tensor

variable C1pos equal ${d1}
variable C1pos equal -85.9919689974049
variable C2pos equal ${d2}
variable C2pos equal -85.9920912014786
variable C3pos equal ${d3}
variable C3pos equal -91.1339887999929
variable C4pos equal ${d4}
variable C4pos equal -7.07399565241072e-08
variable C5pos equal ${d5}
variable C5pos equal -1.27676884754447e-08
variable C6pos equal ${d6}
variable C6pos equal 191.740577554806

# Combine positive and negative

variable C1${dir} equal 0.5*(${C1neg}+${C1pos})
variable C16 equal 0.5*(${C1neg}+${C1pos})
variable C16 equal 0.5*(85.9971965983277+${C1pos})
variable C16 equal 0.5*(85.9971965983277+-85.9919689974049)
variable C2${dir} equal 0.5*(${C2neg}+${C2pos})
variable C26 equal 0.5*(${C2neg}+${C2pos})
variable C26 equal 0.5*(85.9973184997216+${C2pos})
variable C26 equal 0.5*(85.9973184997216+-85.9920912014786)
variable C3${dir} equal 0.5*(${C3neg}+${C3pos})
variable C36 equal 0.5*(${C3neg}+${C3pos})
variable C36 equal 0.5*(91.1392162000993+${C3pos})
variable C36 equal 0.5*(91.1392162000993+-91.1339887999929)
variable C4${dir} equal 0.5*(${C4neg}+${C4pos})
variable C46 equal 0.5*(${C4neg}+${C4pos})
variable C46 equal 0.5*(3.88110907690088e-08+${C4pos})
variable C46 equal 0.5*(3.88110907690088e-08+-7.07399565241072e-08)
variable C5${dir} equal 0.5*(${C5neg}+${C5pos})
variable C56 equal 0.5*(${C5neg}+${C5pos})
variable C56 equal 0.5*(2.07848523971429e-08+${C5pos})
variable C56 equal 0.5*(2.07848523971429e-08+-1.27676884754447e-08)
variable C6${dir} equal 0.5*(${C6neg}+${C6pos})
variable C66 equal 0.5*(${C6neg}+${C6pos})
variable C66 equal 0.5*(191.740578166426+${C6pos})
variable C66 equal 0.5*(191.740578166426+191.740577554806)

# Delete dir to make sure it is not reused

variable dir delete

# ---- Output final values
variable C11all equal ${C11}
variable C11all equal 250.406486001157
variable C22all equal ${C22}
variable C22all equal 250.406486050633
variable C33all equal ${C33}
variable C33all equal 250.406486049178
variable C12all equal 0.5*(${C12}+${C21})
variable C12all equal 0.5*(150.348903250415+${C21})
variable C12all equal 0.5*(150.348903250415+150.348903250415)
variable C13all equal 0.5*(${C13}+${C31})
variable C13all equal 0.5*(150.348903299892+${C31})
variable C13all equal 0.5*(150.348903299892+150.348903199483)
variable C23all equal 0.5*(${C23}+${C32})
variable C23all equal 0.5*(150.348903199483+${C32})
variable C23all equal 0.5*(150.348903199483+150.348903250415)
variable C44all equal ${C44}
variable C44all equal 191.740577937043
variable C55all equal ${C55}
variable C55all equal 191.740577901386
variable C66all equal ${C66}
variable C66all equal 191.740577860616
variable C14all equal 0.5*(${C14}+${C41})
variable C14all equal 0.5*(0.00261374952970073+${C41})
variable C14all equal 0.5*(0.00261374952970073+-3.78079583045565e-08)
variable C15all equal 0.5*(${C15}+${C51})
variable C15all equal 0.5*(0.00261410023085062+${C51})
variable C15all equal 0.5*(0.00261410023085062+-4.72832073704925e-08)
variable C16all equal 0.5*(${C16}+${C61})
variable C16all equal 0.5*(0.00261380046140403+${C61})
variable C16all equal 0.5*(0.00261380046140403+-4.16924308180351e-08)
variable C24all equal 0.5*(${C24}+${C42})
variable C24all equal 0.5*(0.00261395034609535+${C42})
variable C24all equal 0.5*(0.00261395034609535+-2.69904177266854e-08)
variable C25all equal 0.5*(${C25}+${C52})
variable C25all equal 0.5*(0.00261384993790159+${C52})
variable C25all equal 0.5*(0.00261384993790159+-4.30219438632102e-08)
variable C26all equal 0.5*(${C26}+${C62})
variable C26all equal 0.5*(0.00261364912149986+${C62})
variable C26all equal 0.5*(0.00261364912149986+-3.56393426358581e-08)
variable C34all equal 0.5*(${C34}+${C43})
variable C34all equal 0.5*(0.00261395034610246+${C43})
variable C34all equal 0.5*(0.00261395034610246+-2.42061709128404e-08)
variable C35all equal 0.5*(${C35}+${C53})
variable C35all equal 0.5*(0.00261389941439916+${C53})
variable C35all equal 0.5*(0.00261389941439916+5.5931172108188e-09)
variable C36all equal 0.5*(${C36}+${C63})
variable C36all equal 0.5*(0.00261370005319606+${C63})
variable C36all equal 0.5*(0.00261370005319606+-1.59458559024561e-08)
variable C45all equal 0.5*(${C45}+${C54})
variable C45all equal 0.5*(-2.77908198061017e-08+${C54})
variable C45all equal 0.5*(-2.77908198061017e-08+9.88965022353512e-11)
variable C46all equal 0.5*(${C46}+${C64})
variable C46all equal 0.5*(-1.59644328775492e-08+${C64})
variable C46all equal 0.5*(-1.59644328775492e-08+1.0496622910572e-07)
variable C56all equal 0.5*(${C56}+${C65})
variable C56all equal 0.5*(4.0085819608491e-09+${C65})
variable C56all equal 0.5*(4.0085819608491e-09+-2.96927631487604e-08)

print "c11 = ${C11all} ${cunits}"
c11 = 250.406486001157 GPa
print "c22 = ${C22all} ${cunits}"
c22 = 250.406486050633 GPa
print "c33 = ${C33all} ${cunits}"
c33 = 250.406486049178 GPa
print "c12 = ${C12all} ${cunits}"
c12 = 150.348903250415 GPa
print "c13 = ${C13all} ${cunits}"
c13 = 150.348903249688 GPa
print "c23 = ${C23all} ${cunits}"
c23 = 150.348903224949 GPa
print "c44 = ${C44all} ${cunits}"
c44 = 191.740577937043 GPa
print "c55 = ${C55all} ${cunits}"
c55 = 191.740577901386 GPa
print "c66 = ${C66all} ${cunits}"
c66 = 191.740577860616 GPa
print "c14 = ${C14all} ${cunits}"
c14 = 0.00130685586087121 GPa
print "c15 = ${C15all} ${cunits}"
c15 = 0.00130702647382162 GPa
print "c16 = ${C16all} ${cunits}"
c16 = 0.00130687938448661 GPa
print "c24 = ${C24all} ${cunits}"
c24 = 0.00130696167783881 GPa
print "c25 = ${C25all} ${cunits}"
c25 = 0.00130690345797886 GPa
print "c26 = ${C26all} ${cunits}"
c26 = 0.00130680674107861 GPa
print "c34 = ${C34all} ${cunits}"
c34 = 0.00130696306996577 GPa
print "c35 = ${C35all} ${cunits}"
c35 = 0.00130695250375819 GPa
print "c36 = ${C36all} ${cunits}"
c36 = 0.00130684205367008 GPa
print "c45 = ${C45all} ${cunits}"
c45 = -1.38459616519332e-08 GPa
print "c46 = ${C46all} ${cunits}"
c46 = 4.45008981140854e-08 GPa
print "c56 = ${C56all} ${cunits}"
c56 = -1.28420905939556e-08 GPa
print "lammps_sim_done"
lammps_sim_done
Total wall time: 0:00:00
